<VTKFile type="UnstructuredGrid" version="1,0" byte_order="LittleEndian">
<UnstructuredGrid>
<Piece NumberOfPoints="5802" NumberOfCells="5680">
<Points>
<DataArray type="Float64" NumberOfComponents="3" format="ascii">
-0.1100000000000E+01 -0.4260376958938E+01  0.0000000000000E+00
 0.0000000000000E+00 -0.4260376958938E+01  0.0000000000000E+00
 0.1100000000000E+01 -0.4260376958938E+01  0.0000000000000E+00
-0.1294830748007E+01 -0.1260376958938E+01  0.0000000000000E+00
-0.6474153677980E+00 -0.1260376958938E+01  0.0000000000000E+00
 0.6474153802085E+00 -0.1260376958938E+01  0.0000000000000E+00
 0.1294830748007E+01 -0.1260376958938E+01  0.0000000000000E+00
-0.1038349899718E+01  0.8622996231128E+00  0.0000000000000E+00
 0.1038349908233E+01  0.8622996153791E+00  0.0000000000000E+00
-0.5250000000000E+00  0.3489497150362E+00  0.0000000000000E+00
 0.5250000000000E+00  0.3489497150362E+00  0.0000000000000E+00
-0.1072500000000E+01 -0.4260376958938E+01  0.0000000000000E+00
-0.1045000000000E+01 -0.4260376958938E+01  0.0000000000000E+00
-0.1017500000000E+01 -0.4260376958938E+01  0.0000000000000E+00
-0.9900000000000E+00 -0.4260376958938E+01  0.0000000000000E+00
-0.9625000000000E+00 -0.4260376958938E+01  0.0000000000000E+00
-0.9350000000000E+00 -0.4260376958938E+01  0.0000000000000E+00
-0.9075000000000E+00 -0.4260376958938E+01  0.0000000000000E+00
-0.8800000000000E+00 -0.4260376958938E+01  0.0000000000000E+00
-0.8525000000000E+00 -0.4260376958938E+01  0.0000000000000E+00
-0.8250000000000E+00 -0.4260376958938E+01  0.0000000000000E+00
-0.7975000000000E+00 -0.4260376958938E+01  0.0000000000000E+00
-0.7700000000000E+00 -0.4260376958938E+01  0.0000000000000E+00
-0.7425000000000E+00 -0.4260376958938E+01  0.0000000000000E+00
-0.7150000000000E+00 -0.4260376958938E+01  0.0000000000000E+00
-0.6875000000000E+00 -0.4260376958938E+01  0.0000000000000E+00
-0.6600000000000E+00 -0.4260376958938E+01  0.0000000000000E+00
-0.6325000000000E+00 -0.4260376958938E+01  0.0000000000000E+00
-0.6050000000000E+00 -0.4260376958938E+01  0.0000000000000E+00
-0.5775000000000E+00 -0.4260376958938E+01  0.0000000000000E+00
-0.5500000000000E+00 -0.4260376958938E+01  0.0000000000000E+00
-0.5225000000000E+00 -0.4260376958938E+01  0.0000000000000E+00
-0.4950000000000E+00 -0.4260376958938E+01  0.0000000000000E+00
-0.4675000000000E+00 -0.4260376958938E+01  0.0000000000000E+00
-0.4400000000000E+00 -0.4260376958938E+01  0.0000000000000E+00
-0.4125000000000E+00 -0.4260376958938E+01  0.0000000000000E+00
-0.3850000000000E+00 -0.4260376958938E+01  0.0000000000000E+00
-0.3575000000000E+00 -0.4260376958938E+01  0.0000000000000E+00
-0.3300000000000E+00 -0.4260376958938E+01  0.0000000000000E+00
-0.3025000000000E+00 -0.4260376958938E+01  0.0000000000000E+00
-0.2750000000000E+00 -0.4260376958938E+01  0.0000000000000E+00
-0.2475000000000E+00 -0.4260376958938E+01  0.0000000000000E+00
-0.2200000000000E+00 -0.4260376958938E+01  0.0000000000000E+00
-0.1925000000000E+00 -0.4260376958938E+01  0.0000000000000E+00
-0.1650000000000E+00 -0.4260376958938E+01  0.0000000000000E+00
-0.1375000000000E+00 -0.4260376958938E+01  0.0000000000000E+00
-0.1100000000000E+00 -0.4260376958938E+01  0.0000000000000E+00
-0.8250000000000E-01 -0.4260376958938E+01  0.0000000000000E+00
-0.5500000000000E-01 -0.4260376958938E+01  0.0000000000000E+00
-0.2750000000000E-01 -0.4260376958938E+01  0.0000000000000E+00
 0.2750000000000E-01 -0.4260376958938E+01  0.0000000000000E+00
 0.5500000000000E-01 -0.4260376958938E+01  0.0000000000000E+00
 0.8250000000000E-01 -0.4260376958938E+01  0.0000000000000E+00
 0.1100000000000E+00 -0.4260376958938E+01  0.0000000000000E+00
 0.1375000000000E+00 -0.4260376958938E+01  0.0000000000000E+00
 0.1650000000000E+00 -0.4260376958938E+01  0.0000000000000E+00
 0.1925000000000E+00 -0.4260376958938E+01  0.0000000000000E+00
 0.2200000000000E+00 -0.4260376958938E+01  0.0000000000000E+00
 0.2475000000000E+00 -0.4260376958938E+01  0.0000000000000E+00
 0.2750000000000E+00 -0.4260376958938E+01  0.0000000000000E+00
 0.3025000000000E+00 -0.4260376958938E+01  0.0000000000000E+00
 0.3300000000000E+00 -0.4260376958938E+01  0.0000000000000E+00
 0.3575000000000E+00 -0.4260376958938E+01  0.0000000000000E+00
 0.3850000000000E+00 -0.4260376958938E+01  0.0000000000000E+00
 0.4125000000000E+00 -0.4260376958938E+01  0.0000000000000E+00
 0.4400000000000E+00 -0.4260376958938E+01  0.0000000000000E+00
 0.4675000000000E+00 -0.4260376958938E+01  0.0000000000000E+00
 0.4950000000000E+00 -0.4260376958938E+01  0.0000000000000E+00
 0.5225000000000E+00 -0.4260376958938E+01  0.0000000000000E+00
 0.5500000000000E+00 -0.4260376958938E+01  0.0000000000000E+00
 0.5775000000000E+00 -0.4260376958938E+01  0.0000000000000E+00
 0.6050000000000E+00 -0.4260376958938E+01  0.0000000000000E+00
 0.6325000000000E+00 -0.4260376958938E+01  0.0000000000000E+00
 0.6600000000000E+00 -0.4260376958938E+01  0.0000000000000E+00
 0.6875000000000E+00 -0.4260376958938E+01  0.0000000000000E+00
 0.7150000000000E+00 -0.4260376958938E+01  0.0000000000000E+00
 0.7425000000000E+00 -0.4260376958938E+01  0.0000000000000E+00
 0.7700000000000E+00 -0.4260376958938E+01  0.0000000000000E+00
 0.7975000000000E+00 -0.4260376958938E+01  0.0000000000000E+00
 0.8250000000000E+00 -0.4260376958938E+01  0.0000000000000E+00
 0.8525000000000E+00 -0.4260376958938E+01  0.0000000000000E+00
 0.8800000000000E+00 -0.4260376958938E+01  0.0000000000000E+00
 0.9075000000000E+00 -0.4260376958938E+01  0.0000000000000E+00
 0.9350000000000E+00 -0.4260376958938E+01  0.0000000000000E+00
 0.9625000000000E+00 -0.4260376958938E+01  0.0000000000000E+00
 0.9900000000000E+00 -0.4260376958938E+01  0.0000000000000E+00
 0.1017500000000E+01 -0.4260376958938E+01  0.0000000000000E+00
 0.1045000000000E+01 -0.4260376958938E+01  0.0000000000000E+00
 0.1072500000000E+01 -0.4260376958938E+01  0.0000000000000E+00
-0.1262459978996E+01 -0.1260376958938E+01  0.0000000000000E+00
-0.1230089209986E+01 -0.1260376958938E+01  0.0000000000000E+00
-0.1197718440975E+01 -0.1260376958938E+01  0.0000000000000E+00
-0.1165347671965E+01 -0.1260376958938E+01  0.0000000000000E+00
-0.1132976902954E+01 -0.1260376958938E+01  0.0000000000000E+00
-0.1100606133944E+01 -0.1260376958938E+01  0.0000000000000E+00
-0.1068235364934E+01 -0.1260376958938E+01  0.0000000000000E+00
-0.1035864595923E+01 -0.1260376958938E+01  0.0000000000000E+00
-0.1003493826913E+01 -0.1260376958938E+01  0.0000000000000E+00
-0.9711230579023E+00 -0.1260376958938E+01  0.0000000000000E+00
-0.9387522888919E+00 -0.1260376958938E+01  0.0000000000000E+00
-0.9063815198814E+00 -0.1260376958938E+01  0.0000000000000E+00
-0.8740107508710E+00 -0.1260376958938E+01  0.0000000000000E+00
-0.8416399818606E+00 -0.1260376958938E+01  0.0000000000000E+00
-0.8092692128501E+00 -0.1260376958938E+01  0.0000000000000E+00
-0.7768984438397E+00 -0.1260376958938E+01  0.0000000000000E+00
-0.7445276748293E+00 -0.1260376958938E+01  0.0000000000000E+00
-0.7121569058189E+00 -0.1260376958938E+01  0.0000000000000E+00
-0.6797861368084E+00 -0.1260376958938E+01  0.0000000000000E+00
-0.6150445990978E+00 -0.1260376958938E+01  0.0000000000000E+00
-0.5826738303977E+00 -0.1260376958938E+01  0.0000000000000E+00
-0.5503030616975E+00 -0.1260376958938E+01  0.0000000000000E+00
-0.5179322929974E+00 -0.1260376958938E+01  0.0000000000000E+00
-0.4855615242972E+00 -0.1260376958938E+01  0.0000000000000E+00
-0.4531907555970E+00 -0.1260376958938E+01  0.0000000000000E+00
-0.4208199868969E+00 -0.1260376958938E+01  0.0000000000000E+00
-0.3884492181967E+00 -0.1260376958938E+01  0.0000000000000E+00
-0.3560784494965E+00 -0.1260376958938E+01  0.0000000000000E+00
-0.3237076807964E+00 -0.1260376958938E+01  0.0000000000000E+00
-0.2913369120962E+00 -0.1260376958938E+01  0.0000000000000E+00
-0.2589661433960E+00 -0.1260376958938E+01  0.0000000000000E+00
-0.2265953746959E+00 -0.1260376958938E+01  0.0000000000000E+00
-0.1942246059957E+00 -0.1260376958938E+01  0.0000000000000E+00
-0.1618538372956E+00 -0.1260376958938E+01  0.0000000000000E+00
-0.1294830685954E+00 -0.1260376958938E+01  0.0000000000000E+00
-0.9711229989523E-01 -0.1260376958938E+01  0.0000000000000E+00
-0.6474153119507E-01 -0.1260376958938E+01  0.0000000000000E+00
-0.3237076249490E-01 -0.1260376958938E+01  0.0000000000000E+00
 0.6205262220726E-08 -0.1260376958938E+01  0.0000000000000E+00
 0.3237077490543E-01 -0.1260376958938E+01  0.0000000000000E+00
 0.6474154360559E-01 -0.1260376958938E+01  0.0000000000000E+00
 0.9711231230575E-01 -0.1260376958938E+01  0.0000000000000E+00
 0.1294830810059E+00 -0.1260376958938E+01  0.0000000000000E+00
 0.1618538497061E+00 -0.1260376958938E+01  0.0000000000000E+00
 0.1942246184062E+00 -0.1260376958938E+01  0.0000000000000E+00
 0.2265953871064E+00 -0.1260376958938E+01  0.0000000000000E+00
 0.2589661558066E+00 -0.1260376958938E+01  0.0000000000000E+00
 0.2913369245067E+00 -0.1260376958938E+01  0.0000000000000E+00
 0.3237076932069E+00 -0.1260376958938E+01  0.0000000000000E+00
 0.3560784619071E+00 -0.1260376958938E+01  0.0000000000000E+00
 0.3884492306072E+00 -0.1260376958938E+01  0.0000000000000E+00
 0.4208199993074E+00 -0.1260376958938E+01  0.0000000000000E+00
 0.4531907680076E+00 -0.1260376958938E+01  0.0000000000000E+00
 0.4855615367077E+00 -0.1260376958938E+01  0.0000000000000E+00
 0.5179323054079E+00 -0.1260376958938E+01  0.0000000000000E+00
 0.5503030741080E+00 -0.1260376958938E+01  0.0000000000000E+00
 0.5826738428082E+00 -0.1260376958938E+01  0.0000000000000E+00
 0.6150446115084E+00 -0.1260376958938E+01  0.0000000000000E+00
 0.6797861485984E+00 -0.1260376958938E+01  0.0000000000000E+00
 0.7121569169883E+00 -0.1260376958938E+01  0.0000000000000E+00
 0.7445276853782E+00 -0.1260376958938E+01  0.0000000000000E+00
 0.7768984537681E+00 -0.1260376958938E+01  0.0000000000000E+00
 0.8092692221580E+00 -0.1260376958938E+01  0.0000000000000E+00
 0.8416399905479E+00 -0.1260376958938E+01  0.0000000000000E+00
 0.8740107589378E+00 -0.1260376958938E+01  0.0000000000000E+00
 0.9063815273277E+00 -0.1260376958938E+01  0.0000000000000E+00
 0.9387522957176E+00 -0.1260376958938E+01  0.0000000000000E+00
 0.9711230641075E+00 -0.1260376958938E+01  0.0000000000000E+00
 0.1003493832497E+01 -0.1260376958938E+01  0.0000000000000E+00
 0.1035864600887E+01 -0.1260376958938E+01  0.0000000000000E+00
 0.1068235369277E+01 -0.1260376958938E+01  0.0000000000000E+00
 0.1100606137667E+01 -0.1260376958938E+01  0.0000000000000E+00
 0.1132976906057E+01 -0.1260376958938E+01  0.0000000000000E+00
 0.1165347674447E+01 -0.1260376958938E+01  0.0000000000000E+00
 0.1197718442837E+01 -0.1260376958938E+01  0.0000000000000E+00
 0.1230089211227E+01 -0.1260376958938E+01  0.0000000000000E+00
 0.1262459979617E+01 -0.1260376958938E+01  0.0000000000000E+00
-0.1312155011510E+01 -0.1150203083613E+01  0.0000000000000E+00
-0.1327637341374E+01 -0.1039753931085E+01  0.0000000000000E+00
-0.1341665909610E+01 -0.9291104213802E+00  0.0000000000000E+00
-0.1354391361466E+01 -0.8183095298948E+00  0.0000000000000E+00
-0.1365833298202E+01 -0.7073687601696E+00  0.0000000000000E+00
-0.1375894555970E+01 -0.5962944619521E+00  0.0000000000000E+00
-0.1384355932365E+01 -0.4850870562275E+00  0.0000000000000E+00
-0.1391121394834E+01 -0.3737634319943E+00  0.0000000000000E+00
-0.1396094802383E+01 -0.2623461592890E+00  0.0000000000000E+00
-0.1399062707537E+01 -0.1508575645009E+00  0.0000000000000E+00
-0.1399985099640E+01 -0.3933280323447E-01  0.0000000000000E+00
-0.1399371687134E+01  0.7219242573532E-01  0.0000000000000E+00
-0.1392023041888E+01  0.1834402819205E+00  0.0000000000000E+00
-0.1373224643109E+01  0.2933160172014E+00  0.0000000000000E+00
-0.1342254580417E+01  0.4003982422534E+00  0.0000000000000E+00
-0.1299147096451E+01  0.5031944588907E+00  0.0000000000000E+00
-0.1245788737132E+01  0.6010884805479E+00  0.0000000000000E+00
-0.1184295328924E+01  0.6940973779637E+00  0.0000000000000E+00
-0.1115423112669E+01  0.7817798453380E+00  0.0000000000000E+00
-0.9953999080977E+00  0.8990612908450E+00  0.0000000000000E+00
-0.9504827232491E+00  0.9333936741942E+00  0.0000000000000E+00
-0.9038779344468E+00  0.9653991725778E+00  0.0000000000000E+00
-0.8558287935509E+00  0.9951944276872E+00  0.0000000000000E+00
-0.8065745425279E+00  0.1022954470846E+01  0.0000000000000E+00
-0.7563745841864E+00  0.1048968117851E+01  0.0000000000000E+00
-0.7055221739023E+00  0.1073685095719E+01  0.0000000000000E+00
-0.6543373939483E+00  0.1097708159783E+01  0.0000000000000E+00
-0.6030028739072E+00  0.1121408936098E+01  0.0000000000000E+00
-0.5511573080626E+00  0.1143965177158E+01  0.0000000000000E+00
-0.4985400003731E+00  0.1164653488733E+01  0.0000000000000E+00
-0.4451206320031E+00  0.1183171501571E+01  0.0000000000000E+00
-0.3909756266655E+00  0.1199445140769E+01  0.0000000000000E+00
-0.3362124051434E+00  0.1213497677274E+01  0.0000000000000E+00
-0.2809356549253E+00  0.1225380721385E+01  0.0000000000000E+00
-0.2252455004057E+00  0.1235139228470E+01  0.0000000000000E+00
-0.1692277473422E+00  0.1242797659442E+01  0.0000000000000E+00
-0.1129623151839E+00  0.1248349912846E+01  0.0000000000000E+00
-0.5652622173773E-01  0.1251752523713E+01  0.0000000000000E+00
 0.5721518201715E-08  0.1252915917342E+01  0.0000000000000E+00
 0.5652623317123E-01  0.1251752523209E+01  0.0000000000000E+00
 0.1129623265888E+00  0.1248349911861E+01  0.0000000000000E+00
 0.1692277587027E+00  0.1242797657991E+01  0.0000000000000E+00
 0.2252455117006E+00  0.1235139226564E+01  0.0000000000000E+00
 0.2809356661393E+00  0.1225380719029E+01  0.0000000000000E+00
 0.3362124162747E+00  0.1213497674468E+01  0.0000000000000E+00
 0.3909756376678E+00  0.1199445137522E+01  0.0000000000000E+00
 0.4451206428730E+00  0.1183171497887E+01  0.0000000000000E+00
 0.4985400111013E+00  0.1164653484628E+01  0.0000000000000E+00
 0.5511573186457E+00  0.1143965172676E+01  0.0000000000000E+00
 0.6030028843689E+00  0.1121408931341E+01  0.0000000000000E+00
 0.6543374043658E+00  0.1097708154925E+01  0.0000000000000E+00
 0.7055221842887E+00  0.1073685090798E+01  0.0000000000000E+00
 0.7563745944774E+00  0.1048968112736E+01  0.0000000000000E+00
 0.8065745526520E+00  0.1022954465413E+01  0.0000000000000E+00
 0.8558288034476E+00  0.9951944218405E+00  0.0000000000000E+00
 0.9038779440484E+00  0.9653991662662E+00  0.0000000000000E+00
 0.9504827325158E+00  0.9333936673912E+00  0.0000000000000E+00
 0.9953999169960E+00  0.8990612835587E+00  0.0000000000000E+00
 0.1115423119969E+01  0.7817798372309E+00  0.0000000000000E+00
 0.1184295335069E+01  0.6940973696789E+00  0.0000000000000E+00
 0.1245788742186E+01  0.6010884722267E+00  0.0000000000000E+00
 0.1299147100436E+01  0.5031944506385E+00  0.0000000000000E+00
 0.1342254583294E+01  0.4003982341591E+00  0.0000000000000E+00
 0.1373224644928E+01  0.2933160093813E+00  0.0000000000000E+00
 0.1392023042748E+01  0.1834402745273E+00  0.0000000000000E+00
 0.1399371687293E+01  0.7219241886835E-01  0.0000000000000E+00
 0.1399985099629E+01 -0.3933280952953E-01  0.0000000000000E+00
 0.1399062707437E+01 -0.1508575702208E+00  0.0000000000000E+00
 0.1396094802193E+01 -0.2623461644373E+00  0.0000000000000E+00
 0.1391121394584E+01 -0.3737634365663E+00  0.0000000000000E+00
 0.1384355932078E+01 -0.4850870602232E+00  0.0000000000000E+00
 0.1375894555663E+01 -0.5962944653722E+00  0.0000000000000E+00
 0.1365833297899E+01 -0.7073687630143E+00  0.0000000000000E+00
 0.1354391361186E+01 -0.8183095321661E+00  0.0000000000000E+00
 0.1341665909368E+01 -0.9291104230793E+00  0.0000000000000E+00
 0.1327637341185E+01 -0.1039753932216E+01  0.0000000000000E+00
 0.1312155011393E+01 -0.1150203084174E+01  0.0000000000000E+00
-0.1100000000000E+01 -0.4186859601281E+01  0.0000000000000E+00
-0.1100000000000E+01 -0.4113342086429E+01  0.0000000000000E+00
-0.1100000000000E+01 -0.4039824684257E+01  0.0000000000000E+00
-0.1100000000000E+01 -0.3966307217550E+01  0.0000000000000E+00
-0.1100000000000E+01 -0.3892789747717E+01  0.0000000000000E+00
-0.1100000000000E+01 -0.3819272288129E+01  0.0000000000000E+00
-0.1100000000000E+01 -0.3745754823288E+01  0.0000000000000E+00
-0.1100000000000E+01 -0.3672237366229E+01  0.0000000000000E+00
-0.1100000000000E+01 -0.3598719903615E+01  0.0000000000000E+00
-0.1100000000000E+01 -0.3525202280347E+01  0.0000000000000E+00
-0.1100000000000E+01 -0.3451684819510E+01  0.0000000000000E+00
-0.1100000000000E+01 -0.3378167379304E+01  0.0000000000000E+00
-0.1100000000000E+01 -0.3304649961005E+01  0.0000000000000E+00
-0.1100000000000E+01 -0.3231132803085E+01  0.0000000000000E+00
-0.1100000000000E+01 -0.3157615389387E+01  0.0000000000000E+00
-0.1100003367493E+01 -0.3084098002567E+01  0.0000000000000E+00
-0.1100163445176E+01 -0.3010580866809E+01  0.0000000000000E+00
-0.1100782072834E+01 -0.2937066271891E+01  0.0000000000000E+00
-0.1102023699626E+01 -0.2863559587695E+01  0.0000000000000E+00
-0.1103929635720E+01 -0.2790067100603E+01  0.0000000000000E+00
-0.1106486188836E+01 -0.2716594812946E+01  0.0000000000000E+00
-0.1109666467309E+01 -0.2643146234865E+01  0.0000000000000E+00
-0.1113448355568E+01 -0.2569726064901E+01  0.0000000000000E+00
-0.1117821735375E+01 -0.2496339061666E+01  0.0000000000000E+00
-0.1122792268339E+01 -0.2422989996067E+01  0.0000000000000E+00
-0.1128385326244E+01 -0.2349685803919E+01  0.0000000000000E+00
-0.1134650256572E+01 -0.2276436016166E+01  0.0000000000000E+00
-0.1141610183162E+01 -0.2203248992725E+01  0.0000000000000E+00
-0.1149256669967E+01 -0.2130130513310E+01  0.0000000000000E+00
-0.1157601152556E+01 -0.2057088440583E+01  0.0000000000000E+00
-0.1166677440836E+01 -0.1984133466366E+01  0.0000000000000E+00
-0.1176543877319E+01 -0.1911281600770E+01  0.0000000000000E+00
-0.1187286815106E+01 -0.1838554023786E+01  0.0000000000000E+00
-0.1199019040451E+01 -0.1765979519674E+01  0.0000000000000E+00
-0.1211849657205E+01 -0.1693591126070E+01  0.0000000000000E+00
-0.1225739090867E+01 -0.1621398208059E+01  0.0000000000000E+00
-0.1240134799336E+01 -0.1549304059582E+01  0.0000000000000E+00
-0.1254460274118E+01 -0.1477195909045E+01  0.0000000000000E+00
-0.1268516310659E+01 -0.1405034780455E+01  0.0000000000000E+00
-0.1282077126715E+01 -0.1332779095968E+01  0.0000000000000E+00
 0.1282077126706E+01 -0.1332779095966E+01  0.0000000000000E+00
 0.1268516310640E+01 -0.1405034780452E+01  0.0000000000000E+00
 0.1254460274092E+01 -0.1477195909041E+01  0.0000000000000E+00
 0.1240134799309E+01 -0.1549304059577E+01  0.0000000000000E+00
 0.1225739090841E+01 -0.1621398208054E+01  0.0000000000000E+00
 0.1211849657183E+01 -0.1693591126066E+01  0.0000000000000E+00
 0.1199019040432E+01 -0.1765979519671E+01  0.0000000000000E+00
 0.1187286815092E+01 -0.1838554023783E+01  0.0000000000000E+00
 0.1176543877308E+01 -0.1911281600768E+01  0.0000000000000E+00
 0.1166677440828E+01 -0.1984133466364E+01  0.0000000000000E+00
 0.1157601152551E+01 -0.2057088440582E+01  0.0000000000000E+00
 0.1149256669964E+01 -0.2130130513309E+01  0.0000000000000E+00
 0.1141610183160E+01 -0.2203248992724E+01  0.0000000000000E+00
 0.1134650256572E+01 -0.2276436016165E+01  0.0000000000000E+00
 0.1128385326245E+01 -0.2349685803918E+01  0.0000000000000E+00
 0.1122792268340E+01 -0.2422989996067E+01  0.0000000000000E+00
 0.1117821735377E+01 -0.2496339061666E+01  0.0000000000000E+00
 0.1113448355570E+01 -0.2569726064901E+01  0.0000000000000E+00
 0.1109666467311E+01 -0.2643146234864E+01  0.0000000000000E+00
 0.1106486188837E+01 -0.2716594812945E+01  0.0000000000000E+00
 0.1103929635722E+01 -0.2790067100603E+01  0.0000000000000E+00
 0.1102023699627E+01 -0.2863559587694E+01  0.0000000000000E+00
 0.1100782072834E+01 -0.2937066271891E+01  0.0000000000000E+00
 0.1100163445176E+01 -0.3010580866809E+01  0.0000000000000E+00
 0.1100003367493E+01 -0.3084098002567E+01  0.0000000000000E+00
 0.1100000000000E+01 -0.3157615389387E+01  0.0000000000000E+00
 0.1100000000000E+01 -0.3231132803084E+01  0.0000000000000E+00
 0.1100000000000E+01 -0.3304649961005E+01  0.0000000000000E+00
 0.1100000000000E+01 -0.3378167379303E+01  0.0000000000000E+00
 0.1100000000000E+01 -0.3451684819509E+01  0.0000000000000E+00
 0.1100000000000E+01 -0.3525202280347E+01  0.0000000000000E+00
 0.1100000000000E+01 -0.3598719903615E+01  0.0000000000000E+00
 0.1100000000000E+01 -0.3672237366228E+01  0.0000000000000E+00
 0.1100000000000E+01 -0.3745754823288E+01  0.0000000000000E+00
 0.1100000000000E+01 -0.3819272288128E+01  0.0000000000000E+00
 0.1100000000000E+01 -0.3892789747717E+01  0.0000000000000E+00
 0.1100000000000E+01 -0.3966307217550E+01  0.0000000000000E+00
 0.1100000000000E+01 -0.4039824684257E+01  0.0000000000000E+00
 0.1100000000000E+01 -0.4113342086429E+01  0.0000000000000E+00
 0.1100000000000E+01 -0.4186859601281E+01  0.0000000000000E+00
-0.4993026772283E+00  0.3556667767856E+00  0.0000000000000E+00
-0.4735245663412E+00  0.3620663345754E+00  0.0000000000000E+00
-0.4476687203903E+00  0.3681445021493E+00  0.0000000000000E+00
-0.4217386039092E+00  0.3738974563371E+00  0.0000000000000E+00
-0.3957377550662E+00  0.3793215337829E+00  0.0000000000000E+00
-0.3696697320059E+00  0.3844132472497E+00  0.0000000000000E+00
-0.3435383923604E+00  0.3891692391890E+00  0.0000000000000E+00
-0.3173476215928E+00  0.3935863469447E+00  0.0000000000000E+00
-0.2911015020050E+00  0.3976615807158E+00  0.0000000000000E+00
-0.2648041726206E+00  0.4013921568435E+00  0.0000000000000E+00
-0.2384599212245E+00  0.4047754915326E+00  0.0000000000000E+00
-0.2120731315299E+00  0.4078092176262E+00  0.0000000000000E+00
-0.1856482734578E+00  0.4104911929749E+00  0.0000000000000E+00
-0.1591899043058E+00  0.4128195070651E+00  0.0000000000000E+00
-0.1327026716844E+00  0.4147924875445E+00  0.0000000000000E+00
-0.1061912807138E+00  0.4164087088354E+00  0.0000000000000E+00
-0.7966049358352E-01  0.4176669966766E+00  0.0000000000000E+00
-0.5311511853688E-01  0.4185664328113E+00  0.0000000000000E+00
-0.2655999858263E-01  0.4191063586748E+00  0.0000000000000E+00
-0.2220446049250E-15  0.4192863780493E+00  0.0000000000000E+00
 0.2655999858263E-01  0.4191063586748E+00  0.0000000000000E+00
 0.5311511853688E-01  0.4185664328113E+00  0.0000000000000E+00
 0.7966049358352E-01  0.4176669966766E+00  0.0000000000000E+00
 0.1061912807138E+00  0.4164087088354E+00  0.0000000000000E+00
 0.1327026716844E+00  0.4147924875445E+00  0.0000000000000E+00
 0.1591899043058E+00  0.4128195070651E+00  0.0000000000000E+00
 0.1856482734578E+00  0.4104911929749E+00  0.0000000000000E+00
 0.2120731315299E+00  0.4078092176262E+00  0.0000000000000E+00
 0.2384599212245E+00  0.4047754915326E+00  0.0000000000000E+00
 0.2648041726206E+00  0.4013921568435E+00  0.0000000000000E+00
 0.2911015020050E+00  0.3976615807158E+00  0.0000000000000E+00
 0.3173476215928E+00  0.3935863469447E+00  0.0000000000000E+00
 0.3435383923604E+00  0.3891692391890E+00  0.0000000000000E+00
 0.3696697320059E+00  0.3844132472497E+00  0.0000000000000E+00
 0.3957377550662E+00  0.3793215337829E+00  0.0000000000000E+00
 0.4217386039092E+00  0.3738974563371E+00  0.0000000000000E+00
 0.4476687203903E+00  0.3681445021493E+00  0.0000000000000E+00
 0.4735245663412E+00  0.3620663345754E+00  0.0000000000000E+00
 0.4993026772283E+00  0.3556667767856E+00  0.0000000000000E+00
-0.5254305397178E+00  0.2681545389214E+00  0.0000000000000E+00
-0.5268050578882E+00  0.1873700269828E+00  0.0000000000000E+00
-0.5292624474844E+00  0.1066113625129E+00  0.0000000000000E+00
-0.5329591987273E+00  0.2590019213582E-01  0.0000000000000E+00
-0.5380609472327E+00 -0.5473409942444E-01  0.0000000000000E+00
-0.5447201698628E+00 -0.1352545080815E+00  0.0000000000000E+00
-0.5530298983064E+00 -0.2156212933524E+00  0.0000000000000E+00
-0.5629460114855E+00 -0.2958059507282E+00  0.0000000000000E+00
-0.5741921869928E+00 -0.3758154612773E+00  0.0000000000000E+00
-0.5862076862055E+00 -0.4557136218161E+00  0.0000000000000E+00
-0.5982231853407E+00 -0.5356117823665E+00  0.0000000000000E+00
-0.6094693606238E+00 -0.6156212929469E+00  0.0000000000000E+00
-0.6193854734541E+00 -0.6958059503657E+00  0.0000000000000E+00
-0.6276952014524E+00 -0.7761727356826E+00  0.0000000000000E+00
-0.6343544235680E+00 -0.8566931443820E+00  0.0000000000000E+00
-0.6394561715120E+00 -0.9373274359778E+00  0.0000000000000E+00
-0.6431529221637E+00 -0.1018038606382E+01  0.0000000000000E+00
-0.6456103111509E+00 -0.1098797270870E+01  0.0000000000000E+00
-0.6469848287027E+00 -0.1179581782819E+01  0.0000000000000E+00
 0.5254305397188E+00  0.2681545388746E+00  0.0000000000000E+00
 0.5268050578950E+00  0.1873700268891E+00  0.0000000000000E+00
 0.5292624475072E+00  0.1066113623728E+00  0.0000000000000E+00
 0.5329591987840E+00  0.2590019195037E-01  0.0000000000000E+00
 0.5380609473528E+00 -0.5473409965283E-01  0.0000000000000E+00
 0.5447201700916E+00 -0.1352545083477E+00  0.0000000000000E+00
 0.5530298987105E+00 -0.2156212936477E+00  0.0000000000000E+00
 0.5629460121574E+00 -0.2958059510374E+00  0.0000000000000E+00
 0.5741921880529E+00 -0.3758154615791E+00  0.0000000000000E+00
 0.5862076877978E+00 -0.4557136220852E+00  0.0000000000000E+00
 0.5982231876201E+00 -0.5356117825798E+00  0.0000000000000E+00
 0.6094693637399E+00 -0.6156212930901E+00  0.0000000000000E+00
 0.6193854775356E+00 -0.6958059504369E+00  0.0000000000000E+00
 0.6276952065998E+00 -0.7761727356909E+00  0.0000000000000E+00
 0.6343544298531E+00 -0.8566931443434E+00  0.0000000000000E+00
 0.6394561789831E+00 -0.9373274359111E+00  0.0000000000000E+00
 0.6431529308512E+00 -0.1018038606307E+01  0.0000000000000E+00
 0.6456103210724E+00 -0.1098797270804E+01  0.0000000000000E+00
 0.6469848398672E+00 -0.1179581782779E+01  0.0000000000000E+00
-0.5506674949859E+00  0.3746172104400E+00  0.0000000000000E+00
-0.5763349899718E+00  0.4002847058438E+00  0.0000000000000E+00
-0.6020024849577E+00  0.4259522012477E+00  0.0000000000000E+00
-0.6276699799436E+00  0.4516196966515E+00  0.0000000000000E+00
-0.6533374749295E+00  0.4772871920553E+00  0.0000000000000E+00
-0.6790049699154E+00  0.5029546874591E+00  0.0000000000000E+00
-0.7046724649013E+00  0.5286221828630E+00  0.0000000000000E+00
-0.7303399598872E+00  0.5542896782668E+00  0.0000000000000E+00
-0.7560074548731E+00  0.5799571736706E+00  0.0000000000000E+00
-0.7816749498590E+00  0.6056246690745E+00  0.0000000000000E+00
-0.8073424448449E+00  0.6312921644783E+00  0.0000000000000E+00
-0.8330099398308E+00  0.6569596598821E+00  0.0000000000000E+00
-0.8586774348167E+00  0.6826271552860E+00  0.0000000000000E+00
-0.8843449298026E+00  0.7082946506898E+00  0.0000000000000E+00
-0.9100124247885E+00  0.7339621460936E+00  0.0000000000000E+00
-0.9356799197744E+00  0.7596296414974E+00  0.0000000000000E+00
-0.9613474147603E+00  0.7852971369013E+00  0.0000000000000E+00
-0.9870149097462E+00  0.8109646323051E+00  0.0000000000000E+00
-0.1012682404732E+01  0.8366321277089E+00  0.0000000000000E+00
 0.5506674954117E+00  0.3746172100533E+00  0.0000000000000E+00
 0.5763349908233E+00  0.4002847050705E+00  0.0000000000000E+00
 0.6020024862350E+00  0.4259522000876E+00  0.0000000000000E+00
 0.6276699816466E+00  0.4516196951048E+00  0.0000000000000E+00
 0.6533374770583E+00  0.4772871901219E+00  0.0000000000000E+00
 0.6790049724699E+00  0.5029546851390E+00  0.0000000000000E+00
 0.7046724678816E+00  0.5286221801562E+00  0.0000000000000E+00
 0.7303399632932E+00  0.5542896751733E+00  0.0000000000000E+00
 0.7560074587049E+00  0.5799571701905E+00  0.0000000000000E+00
 0.7816749541165E+00  0.6056246652076E+00  0.0000000000000E+00
 0.8073424495282E+00  0.6312921602248E+00  0.0000000000000E+00
 0.8330099449398E+00  0.6569596552419E+00  0.0000000000000E+00
 0.8586774403515E+00  0.6826271502591E+00  0.0000000000000E+00
 0.8843449357631E+00  0.7082946452762E+00  0.0000000000000E+00
 0.9100124311748E+00  0.7339621402934E+00  0.0000000000000E+00
 0.9356799265864E+00  0.7596296353105E+00  0.0000000000000E+00
 0.9613474219981E+00  0.7852971303277E+00  0.0000000000000E+00
 0.9870149174097E+00  0.8109646253448E+00  0.0000000000000E+00
 0.1012682412821E+01  0.8366321203620E+00  0.0000000000000E+00
-0.1072499999993E+01 -0.4186859601281E+01  0.0000000000000E+00
-0.1072499999986E+01 -0.4113342086429E+01  0.0000000000000E+00
-0.1072499999979E+01 -0.4039824684257E+01  0.0000000000000E+00
-0.1072499999972E+01 -0.3966307217550E+01  0.0000000000000E+00
-0.1072499999965E+01 -0.3892789747717E+01  0.0000000000000E+00
-0.1072499999958E+01 -0.3819272288129E+01  0.0000000000000E+00
-0.1072499999951E+01 -0.3745754823288E+01  0.0000000000000E+00
-0.1072499999944E+01 -0.3672237366229E+01  0.0000000000000E+00
-0.1072499999937E+01 -0.3598719903615E+01  0.0000000000000E+00
-0.1072499999930E+01 -0.3525202280347E+01  0.0000000000000E+00
-0.1072499999924E+01 -0.3451684819510E+01  0.0000000000000E+00
-0.1072499999917E+01 -0.3378167379304E+01  0.0000000000000E+00
-0.1072499999910E+01 -0.3304649961005E+01  0.0000000000000E+00
-0.1072499999903E+01 -0.3231132803085E+01  0.0000000000000E+00
-0.1072499999896E+01 -0.3157615389387E+01  0.0000000000000E+00
-0.1072503283195E+01 -0.3084098002567E+01  0.0000000000000E+00
-0.1072659358928E+01 -0.3010580866809E+01  0.0000000000000E+00
-0.1073262520888E+01 -0.2937066271891E+01  0.0000000000000E+00
-0.1074473107003E+01 -0.2863559587695E+01  0.0000000000000E+00
-0.1076331394688E+01 -0.2790067100603E+01  0.0000000000000E+00
-0.1078824033968E+01 -0.2716594812946E+01  0.0000000000000E+00
-0.1081924805472E+01 -0.2643146234865E+01  0.0000000000000E+00
-0.1085612146517E+01 -0.2569726064901E+01  0.0000000000000E+00
-0.1089876191821E+01 -0.2496339061666E+01  0.0000000000000E+00
-0.1094722461453E+01 -0.2422989996067E+01  0.0000000000000E+00
-0.1100175692903E+01 -0.2349685803919E+01  0.0000000000000E+00
-0.1106283999966E+01 -0.2276436016166E+01  0.0000000000000E+00
-0.1113069928383E+01 -0.2203248992725E+01  0.0000000000000E+00
-0.1120525253010E+01 -0.2130130513310E+01  0.0000000000000E+00
-0.1128661123526E+01 -0.2057088440583E+01  0.0000000000000E+00
-0.1137510504591E+01 -0.1984133466366E+01  0.0000000000000E+00
-0.1147130280154E+01 -0.1911281600770E+01  0.0000000000000E+00
-0.1157604644488E+01 -0.1838554023786E+01  0.0000000000000E+00
-0.1169043564191E+01 -0.1765979519674E+01  0.0000000000000E+00
-0.1181553415518E+01 -0.1693591126070E+01  0.0000000000000E+00
-0.1195095613329E+01 -0.1621398208059E+01  0.0000000000000E+00
-0.1209131429078E+01 -0.1549304059582E+01  0.0000000000000E+00
-0.1223098766982E+01 -0.1477195909045E+01  0.0000000000000E+00
-0.1236803402600E+01 -0.1405034780455E+01  0.0000000000000E+00
-0.1250025198245E+01 -0.1332779095968E+01  0.0000000000000E+00
-0.1044999999986E+01 -0.4186859601281E+01  0.0000000000000E+00
-0.1044999999972E+01 -0.4113342086429E+01  0.0000000000000E+00
-0.1044999999958E+01 -0.4039824684257E+01  0.0000000000000E+00
-0.1044999999944E+01 -0.3966307217550E+01  0.0000000000000E+00
-0.1044999999930E+01 -0.3892789747717E+01  0.0000000000000E+00
-0.1044999999917E+01 -0.3819272288129E+01  0.0000000000000E+00
-0.1044999999903E+01 -0.3745754823288E+01  0.0000000000000E+00
-0.1044999999889E+01 -0.3672237366229E+01  0.0000000000000E+00
-0.1044999999875E+01 -0.3598719903615E+01  0.0000000000000E+00
-0.1044999999861E+01 -0.3525202280347E+01  0.0000000000000E+00
-0.1044999999847E+01 -0.3451684819510E+01  0.0000000000000E+00
-0.1044999999833E+01 -0.3378167379304E+01  0.0000000000000E+00
-0.1044999999819E+01 -0.3304649961005E+01  0.0000000000000E+00
-0.1044999999805E+01 -0.3231132803085E+01  0.0000000000000E+00
-0.1044999999791E+01 -0.3157615389387E+01  0.0000000000000E+00
-0.1045003198896E+01 -0.3084098002567E+01  0.0000000000000E+00
-0.1045155272681E+01 -0.3010580866809E+01  0.0000000000000E+00
-0.1045742968942E+01 -0.2937066271891E+01  0.0000000000000E+00
-0.1046922514380E+01 -0.2863559587695E+01  0.0000000000000E+00
-0.1048733153655E+01 -0.2790067100603E+01  0.0000000000000E+00
-0.1051161879100E+01 -0.2716594812946E+01  0.0000000000000E+00
-0.1054183143635E+01 -0.2643146234865E+01  0.0000000000000E+00
-0.1057775937466E+01 -0.2569726064901E+01  0.0000000000000E+00
-0.1061930648268E+01 -0.2496339061666E+01  0.0000000000000E+00
-0.1066652654568E+01 -0.2422989996067E+01  0.0000000000000E+00
-0.1071966059563E+01 -0.2349685803919E+01  0.0000000000000E+00
-0.1077917743359E+01 -0.2276436016166E+01  0.0000000000000E+00
-0.1084529673604E+01 -0.2203248992725E+01  0.0000000000000E+00
-0.1091793836053E+01 -0.2130130513310E+01  0.0000000000000E+00
-0.1099721094497E+01 -0.2057088440583E+01  0.0000000000000E+00
-0.1108343568346E+01 -0.1984133466366E+01  0.0000000000000E+00
-0.1117716682988E+01 -0.1911281600770E+01  0.0000000000000E+00
-0.1127922473870E+01 -0.1838554023786E+01  0.0000000000000E+00
-0.1139068087930E+01 -0.1765979519674E+01  0.0000000000000E+00
-0.1151257173830E+01 -0.1693591126070E+01  0.0000000000000E+00
-0.1164452135791E+01 -0.1621398208059E+01  0.0000000000000E+00
-0.1178128058819E+01 -0.1549304059582E+01  0.0000000000000E+00
-0.1191737259845E+01 -0.1477195909045E+01  0.0000000000000E+00
-0.1205090494541E+01 -0.1405034780455E+01  0.0000000000000E+00
-0.1217973269776E+01 -0.1332779095968E+01  0.0000000000000E+00
-0.1017499999979E+01 -0.4186859601281E+01  0.0000000000000E+00
-0.1017499999958E+01 -0.4113342086429E+01  0.0000000000000E+00
-0.1017499999937E+01 -0.4039824684257E+01  0.0000000000000E+00
-0.1017499999917E+01 -0.3966307217550E+01  0.0000000000000E+00
-0.1017499999896E+01 -0.3892789747717E+01  0.0000000000000E+00
-0.1017499999875E+01 -0.3819272288129E+01  0.0000000000000E+00
-0.1017499999854E+01 -0.3745754823288E+01  0.0000000000000E+00
-0.1017499999833E+01 -0.3672237366229E+01  0.0000000000000E+00
-0.1017499999812E+01 -0.3598719903615E+01  0.0000000000000E+00
-0.1017499999791E+01 -0.3525202280347E+01  0.0000000000000E+00
-0.1017499999771E+01 -0.3451684819510E+01  0.0000000000000E+00
-0.1017499999750E+01 -0.3378167379304E+01  0.0000000000000E+00
-0.1017499999729E+01 -0.3304649961005E+01  0.0000000000000E+00
-0.1017499999708E+01 -0.3231132803085E+01  0.0000000000000E+00
-0.1017499999687E+01 -0.3157615389387E+01  0.0000000000000E+00
-0.1017503114598E+01 -0.3084098002567E+01  0.0000000000000E+00
-0.1017651186433E+01 -0.3010580866809E+01  0.0000000000000E+00
-0.1018223416996E+01 -0.2937066271891E+01  0.0000000000000E+00
-0.1019371921757E+01 -0.2863559587695E+01  0.0000000000000E+00
-0.1021134912623E+01 -0.2790067100603E+01  0.0000000000000E+00
-0.1023499724232E+01 -0.2716594812946E+01  0.0000000000000E+00
-0.1026441481798E+01 -0.2643146234865E+01  0.0000000000000E+00
-0.1029939728415E+01 -0.2569726064901E+01  0.0000000000000E+00
-0.1033985104714E+01 -0.2496339061666E+01  0.0000000000000E+00
-0.1038582847683E+01 -0.2422989996067E+01  0.0000000000000E+00
-0.1043756426222E+01 -0.2349685803919E+01  0.0000000000000E+00
-0.1049551486753E+01 -0.2276436016166E+01  0.0000000000000E+00
-0.1055989418825E+01 -0.2203248992725E+01  0.0000000000000E+00
-0.1063062419096E+01 -0.2130130513310E+01  0.0000000000000E+00
-0.1070781065467E+01 -0.2057088440583E+01  0.0000000000000E+00
-0.1079176632101E+01 -0.1984133466366E+01  0.0000000000000E+00
-0.1088303085823E+01 -0.1911281600770E+01  0.0000000000000E+00
-0.1098240303252E+01 -0.1838554023786E+01  0.0000000000000E+00
-0.1109092611670E+01 -0.1765979519674E+01  0.0000000000000E+00
-0.1120960932142E+01 -0.1693591126070E+01  0.0000000000000E+00
-0.1133808658253E+01 -0.1621398208059E+01  0.0000000000000E+00
-0.1147124688561E+01 -0.1549304059582E+01  0.0000000000000E+00
-0.1160375752708E+01 -0.1477195909045E+01  0.0000000000000E+00
-0.1173377586482E+01 -0.1405034780455E+01  0.0000000000000E+00
-0.1185921341306E+01 -0.1332779095968E+01  0.0000000000000E+00
-0.9899999999722E+00 -0.4186859601281E+01  0.0000000000000E+00
-0.9899999999444E+00 -0.4113342086429E+01  0.0000000000000E+00
-0.9899999999166E+00 -0.4039824684257E+01  0.0000000000000E+00
-0.9899999998888E+00 -0.3966307217550E+01  0.0000000000000E+00
-0.9899999998610E+00 -0.3892789747717E+01  0.0000000000000E+00
-0.9899999998332E+00 -0.3819272288129E+01  0.0000000000000E+00
-0.9899999998054E+00 -0.3745754823288E+01  0.0000000000000E+00
-0.9899999997775E+00 -0.3672237366229E+01  0.0000000000000E+00
-0.9899999997497E+00 -0.3598719903615E+01  0.0000000000000E+00
-0.9899999997219E+00 -0.3525202280347E+01  0.0000000000000E+00
-0.9899999996941E+00 -0.3451684819510E+01  0.0000000000000E+00
-0.9899999996663E+00 -0.3378167379304E+01  0.0000000000000E+00
-0.9899999996385E+00 -0.3304649961005E+01  0.0000000000000E+00
-0.9899999996107E+00 -0.3231132803085E+01  0.0000000000000E+00
-0.9899999995829E+00 -0.3157615389387E+01  0.0000000000000E+00
-0.9900030302991E+00 -0.3084098002567E+01  0.0000000000000E+00
-0.9901471001853E+00 -0.3010580866809E+01  0.0000000000000E+00
-0.9907038650497E+00 -0.2937066271891E+01  0.0000000000000E+00
-0.9918213291341E+00 -0.2863559587695E+01  0.0000000000000E+00
-0.9935366715901E+00 -0.2790067100603E+01  0.0000000000000E+00
-0.9958375693647E+00 -0.2716594812946E+01  0.0000000000000E+00
-0.9986998199612E+00 -0.2643146234865E+01  0.0000000000000E+00
-0.1002103519364E+01 -0.2569726064901E+01  0.0000000000000E+00
-0.1006039561161E+01 -0.2496339061666E+01  0.0000000000000E+00
-0.1010513040798E+01 -0.2422989996067E+01  0.0000000000000E+00
-0.1015546792882E+01 -0.2349685803919E+01  0.0000000000000E+00
-0.1021185230146E+01 -0.2276436016166E+01  0.0000000000000E+00
-0.1027449164046E+01 -0.2203248992725E+01  0.0000000000000E+00
-0.1034331002139E+01 -0.2130130513310E+01  0.0000000000000E+00
-0.1041841036437E+01 -0.2057088440583E+01  0.0000000000000E+00
-0.1050009695856E+01 -0.1984133466366E+01  0.0000000000000E+00
-0.1058889488658E+01 -0.1911281600770E+01  0.0000000000000E+00
-0.1068558132634E+01 -0.1838554023786E+01  0.0000000000000E+00
-0.1079117135410E+01 -0.1765979519674E+01  0.0000000000000E+00
-0.1090664690455E+01 -0.1693591126070E+01  0.0000000000000E+00
-0.1103165180715E+01 -0.1621398208059E+01  0.0000000000000E+00
-0.1116121318302E+01 -0.1549304059582E+01  0.0000000000000E+00
-0.1129014245571E+01 -0.1477195909045E+01  0.0000000000000E+00
-0.1141664678423E+01 -0.1405034780455E+01  0.0000000000000E+00
-0.1153869412837E+01 -0.1332779095968E+01  0.0000000000000E+00
-0.9624999999652E+00 -0.4186859601281E+01  0.0000000000000E+00
-0.9624999999305E+00 -0.4113342086429E+01  0.0000000000000E+00
-0.9624999998957E+00 -0.4039824684257E+01  0.0000000000000E+00
-0.9624999998610E+00 -0.3966307217550E+01  0.0000000000000E+00
-0.9624999998262E+00 -0.3892789747717E+01  0.0000000000000E+00
-0.9624999997914E+00 -0.3819272288129E+01  0.0000000000000E+00
-0.9624999997567E+00 -0.3745754823288E+01  0.0000000000000E+00
-0.9624999997219E+00 -0.3672237366229E+01  0.0000000000000E+00
-0.9624999996872E+00 -0.3598719903615E+01  0.0000000000000E+00
-0.9624999996524E+00 -0.3525202280347E+01  0.0000000000000E+00
-0.9624999996177E+00 -0.3451684819510E+01  0.0000000000000E+00
-0.9624999995829E+00 -0.3378167379304E+01  0.0000000000000E+00
-0.9624999995481E+00 -0.3304649961005E+01  0.0000000000000E+00
-0.9624999995134E+00 -0.3231132803085E+01  0.0000000000000E+00
-0.9624999994786E+00 -0.3157615389387E+01  0.0000000000000E+00
-0.9625029460006E+00 -0.3084098002567E+01  0.0000000000000E+00
-0.9626430139377E+00 -0.3010580866809E+01  0.0000000000000E+00
-0.9631843131036E+00 -0.2937066271891E+01  0.0000000000000E+00
-0.9642707365111E+00 -0.2863559587695E+01  0.0000000000000E+00
-0.9659384305576E+00 -0.2790067100603E+01  0.0000000000000E+00
-0.9681754144969E+00 -0.2716594812946E+01  0.0000000000000E+00
-0.9709581581242E+00 -0.2643146234865E+01  0.0000000000000E+00
-0.9742673103133E+00 -0.2569726064901E+01  0.0000000000000E+00
-0.9780940176073E+00 -0.2496339061666E+01  0.0000000000000E+00
-0.9824432339124E+00 -0.2422989996067E+01  0.0000000000000E+00
-0.9873371595413E+00 -0.2349685803919E+01  0.0000000000000E+00
-0.9928189735396E+00 -0.2276436016166E+01  0.0000000000000E+00
-0.9989089092667E+00 -0.2203248992725E+01  0.0000000000000E+00
-0.1005599585181E+01 -0.2130130513310E+01  0.0000000000000E+00
-0.1012901007407E+01 -0.2057088440583E+01  0.0000000000000E+00
-0.1020842759611E+01 -0.1984133466366E+01  0.0000000000000E+00
-0.1029475891493E+01 -0.1911281600770E+01  0.0000000000000E+00
-0.1038875962015E+01 -0.1838554023786E+01  0.0000000000000E+00
-0.1049141659150E+01 -0.1765979519674E+01  0.0000000000000E+00
-0.1060368448767E+01 -0.1693591126070E+01  0.0000000000000E+00
-0.1072521703177E+01 -0.1621398208059E+01  0.0000000000000E+00
-0.1085117948044E+01 -0.1549304059582E+01  0.0000000000000E+00
-0.1097652738434E+01 -0.1477195909045E+01  0.0000000000000E+00
-0.1109951770363E+01 -0.1405034780455E+01  0.0000000000000E+00
-0.1121817484368E+01 -0.1332779095968E+01  0.0000000000000E+00
-0.9349999999583E+00 -0.4186859601281E+01  0.0000000000000E+00
-0.9349999999166E+00 -0.4113342086429E+01  0.0000000000000E+00
-0.9349999998749E+00 -0.4039824684257E+01  0.0000000000000E+00
-0.9349999998332E+00 -0.3966307217550E+01  0.0000000000000E+00
-0.9349999997914E+00 -0.3892789747717E+01  0.0000000000000E+00
-0.9349999997497E+00 -0.3819272288129E+01  0.0000000000000E+00
-0.9349999997080E+00 -0.3745754823288E+01  0.0000000000000E+00
-0.9349999996663E+00 -0.3672237366229E+01  0.0000000000000E+00
-0.9349999996246E+00 -0.3598719903615E+01  0.0000000000000E+00
-0.9349999995829E+00 -0.3525202280347E+01  0.0000000000000E+00
-0.9349999995412E+00 -0.3451684819510E+01  0.0000000000000E+00
-0.9349999994995E+00 -0.3378167379304E+01  0.0000000000000E+00
-0.9349999994578E+00 -0.3304649961005E+01  0.0000000000000E+00
-0.9349999994161E+00 -0.3231132803085E+01  0.0000000000000E+00
-0.9349999993743E+00 -0.3157615389387E+01  0.0000000000000E+00
-0.9350028617020E+00 -0.3084098002567E+01  0.0000000000000E+00
-0.9351389276901E+00 -0.3010580866809E+01  0.0000000000000E+00
-0.9356647611576E+00 -0.2937066271891E+01  0.0000000000000E+00
-0.9367201438881E+00 -0.2863559587695E+01  0.0000000000000E+00
-0.9383401895250E+00 -0.2790067100603E+01  0.0000000000000E+00
-0.9405132596292E+00 -0.2716594812946E+01  0.0000000000000E+00
-0.9432164962873E+00 -0.2643146234865E+01  0.0000000000000E+00
-0.9464311012625E+00 -0.2569726064901E+01  0.0000000000000E+00
-0.9501484740537E+00 -0.2496339061666E+01  0.0000000000000E+00
-0.9543734270272E+00 -0.2422989996067E+01  0.0000000000000E+00
-0.9591275262008E+00 -0.2349685803919E+01  0.0000000000000E+00
-0.9644527169331E+00 -0.2276436016166E+01  0.0000000000000E+00
-0.9703686544876E+00 -0.2203248992725E+01  0.0000000000000E+00
-0.9768681682243E+00 -0.2130130513310E+01  0.0000000000000E+00
-0.9839609783772E+00 -0.2057088440583E+01  0.0000000000000E+00
-0.9916758233662E+00 -0.1984133466366E+01  0.0000000000000E+00
-0.1000062294328E+01 -0.1911281600770E+01  0.0000000000000E+00
-0.1009193791397E+01 -0.1838554023786E+01  0.0000000000000E+00
-0.1019166182889E+01 -0.1765979519674E+01  0.0000000000000E+00
-0.1030072207079E+01 -0.1693591126070E+01  0.0000000000000E+00
-0.1041878225639E+01 -0.1621398208059E+01  0.0000000000000E+00
-0.1054114577786E+01 -0.1549304059582E+01  0.0000000000000E+00
-0.1066291231298E+01 -0.1477195909045E+01  0.0000000000000E+00
-0.1078238862304E+01 -0.1405034780455E+01  0.0000000000000E+00
-0.1089765555898E+01 -0.1332779095968E+01  0.0000000000000E+00
-0.9074999999513E+00 -0.4186859601281E+01  0.0000000000000E+00
-0.9074999999027E+00 -0.4113342086429E+01  0.0000000000000E+00
-0.9074999998540E+00 -0.4039824684257E+01  0.0000000000000E+00
-0.9074999998054E+00 -0.3966307217550E+01  0.0000000000000E+00
-0.9074999997567E+00 -0.3892789747717E+01  0.0000000000000E+00
-0.9074999997080E+00 -0.3819272288129E+01  0.0000000000000E+00
-0.9074999996594E+00 -0.3745754823288E+01  0.0000000000000E+00
-0.9074999996107E+00 -0.3672237366229E+01  0.0000000000000E+00
-0.9074999995620E+00 -0.3598719903615E+01  0.0000000000000E+00
-0.9074999995134E+00 -0.3525202280347E+01  0.0000000000000E+00
-0.9074999994647E+00 -0.3451684819510E+01  0.0000000000000E+00
-0.9074999994161E+00 -0.3378167379304E+01  0.0000000000000E+00
-0.9074999993674E+00 -0.3304649961005E+01  0.0000000000000E+00
-0.9074999993187E+00 -0.3231132803085E+01  0.0000000000000E+00
-0.9074999992701E+00 -0.3157615389387E+01  0.0000000000000E+00
-0.9075027774034E+00 -0.3084098002567E+01  0.0000000000000E+00
-0.9076348414425E+00 -0.3010580866809E+01  0.0000000000000E+00
-0.9081452092115E+00 -0.2937066271891E+01  0.0000000000000E+00
-0.9091695512650E+00 -0.2863559587695E+01  0.0000000000000E+00
-0.9107419484924E+00 -0.2790067100603E+01  0.0000000000000E+00
-0.9128511047615E+00 -0.2716594812946E+01  0.0000000000000E+00
-0.9154748344504E+00 -0.2643146234865E+01  0.0000000000000E+00
-0.9185948922116E+00 -0.2569726064901E+01  0.0000000000000E+00
-0.9222029305002E+00 -0.2496339061666E+01  0.0000000000000E+00
-0.9263036201420E+00 -0.2422989996067E+01  0.0000000000000E+00
-0.9309178928602E+00 -0.2349685803919E+01  0.0000000000000E+00
-0.9360864603266E+00 -0.2276436016166E+01  0.0000000000000E+00
-0.9418283997085E+00 -0.2203248992725E+01  0.0000000000000E+00
-0.9481367512672E+00 -0.2130130513310E+01  0.0000000000000E+00
-0.9550209493474E+00 -0.2057088440583E+01  0.0000000000000E+00
-0.9625088871213E+00 -0.1984133466366E+01  0.0000000000000E+00
-0.9706486971624E+00 -0.1911281600770E+01  0.0000000000000E+00
-0.9795116207790E+00 -0.1838554023786E+01  0.0000000000000E+00
-0.9891907066292E+00 -0.1765979519674E+01  0.0000000000000E+00
-0.9997759653916E+00 -0.1693591126070E+01  0.0000000000000E+00
-0.1011234748102E+01 -0.1621398208059E+01  0.0000000000000E+00
-0.1023111207527E+01 -0.1549304059582E+01  0.0000000000000E+00
-0.1034929724161E+01 -0.1477195909045E+01  0.0000000000000E+00
-0.1046525954245E+01 -0.1405034780455E+01  0.0000000000000E+00
-0.1057713627429E+01 -0.1332779095968E+01  0.0000000000000E+00
-0.8799999999444E+00 -0.4186859601281E+01  0.0000000000000E+00
-0.8799999998888E+00 -0.4113342086429E+01  0.0000000000000E+00
-0.8799999998332E+00 -0.4039824684257E+01  0.0000000000000E+00
-0.8799999997775E+00 -0.3966307217550E+01  0.0000000000000E+00
-0.8799999997219E+00 -0.3892789747717E+01  0.0000000000000E+00
-0.8799999996663E+00 -0.3819272288129E+01  0.0000000000000E+00
-0.8799999996107E+00 -0.3745754823288E+01  0.0000000000000E+00
-0.8799999995551E+00 -0.3672237366229E+01  0.0000000000000E+00
-0.8799999994995E+00 -0.3598719903615E+01  0.0000000000000E+00
-0.8799999994439E+00 -0.3525202280347E+01  0.0000000000000E+00
-0.8799999993882E+00 -0.3451684819510E+01  0.0000000000000E+00
-0.8799999993326E+00 -0.3378167379304E+01  0.0000000000000E+00
-0.8799999992770E+00 -0.3304649961005E+01  0.0000000000000E+00
-0.8799999992214E+00 -0.3231132803085E+01  0.0000000000000E+00
-0.8799999991658E+00 -0.3157615389387E+01  0.0000000000000E+00
-0.8800026931049E+00 -0.3084098002567E+01  0.0000000000000E+00
-0.8801307551949E+00 -0.3010580866809E+01  0.0000000000000E+00
-0.8806256572654E+00 -0.2937066271891E+01  0.0000000000000E+00
-0.8816189586420E+00 -0.2863559587695E+01  0.0000000000000E+00
-0.8831437074599E+00 -0.2790067100603E+01  0.0000000000000E+00
-0.8851889498937E+00 -0.2716594812946E+01  0.0000000000000E+00
-0.8877331726134E+00 -0.2643146234865E+01  0.0000000000000E+00
-0.8907586831608E+00 -0.2569726064901E+01  0.0000000000000E+00
-0.8942573869466E+00 -0.2496339061666E+01  0.0000000000000E+00
-0.8982338132567E+00 -0.2422989996067E+01  0.0000000000000E+00
-0.9027082595197E+00 -0.2349685803919E+01  0.0000000000000E+00
-0.9077202037202E+00 -0.2276436016166E+01  0.0000000000000E+00
-0.9132881449294E+00 -0.2203248992725E+01  0.0000000000000E+00
-0.9194053343101E+00 -0.2130130513310E+01  0.0000000000000E+00
-0.9260809203175E+00 -0.2057088440583E+01  0.0000000000000E+00
-0.9333419508763E+00 -0.1984133466366E+01  0.0000000000000E+00
-0.9412350999972E+00 -0.1911281600770E+01  0.0000000000000E+00
-0.9498294501608E+00 -0.1838554023786E+01  0.0000000000000E+00
-0.9592152303689E+00 -0.1765979519674E+01  0.0000000000000E+00
-0.9694797237040E+00 -0.1693591126070E+01  0.0000000000000E+00
-0.9805912705636E+00 -0.1621398208059E+01  0.0000000000000E+00
-0.9921078372688E+00 -0.1549304059582E+01  0.0000000000000E+00
-0.1003568217024E+01 -0.1477195909045E+01  0.0000000000000E+00
-0.1014813046186E+01 -0.1405034780455E+01  0.0000000000000E+00
-0.1025661698959E+01 -0.1332779095968E+01  0.0000000000000E+00
-0.8524999999374E+00 -0.4186859601281E+01  0.0000000000000E+00
-0.8524999998749E+00 -0.4113342086429E+01  0.0000000000000E+00
-0.8524999998123E+00 -0.4039824684257E+01  0.0000000000000E+00
-0.8524999997497E+00 -0.3966307217550E+01  0.0000000000000E+00
-0.8524999996872E+00 -0.3892789747717E+01  0.0000000000000E+00
-0.8524999996246E+00 -0.3819272288129E+01  0.0000000000000E+00
-0.8524999995620E+00 -0.3745754823288E+01  0.0000000000000E+00
-0.8524999994995E+00 -0.3672237366229E+01  0.0000000000000E+00
-0.8524999994369E+00 -0.3598719903615E+01  0.0000000000000E+00
-0.8524999993743E+00 -0.3525202280347E+01  0.0000000000000E+00
-0.8524999993118E+00 -0.3451684819510E+01  0.0000000000000E+00
-0.8524999992492E+00 -0.3378167379304E+01  0.0000000000000E+00
-0.8524999991866E+00 -0.3304649961005E+01  0.0000000000000E+00
-0.8524999991241E+00 -0.3231132803085E+01  0.0000000000000E+00
-0.8524999990615E+00 -0.3157615389387E+01  0.0000000000000E+00
-0.8525026088063E+00 -0.3084098002567E+01  0.0000000000000E+00
-0.8526266689474E+00 -0.3010580866809E+01  0.0000000000000E+00
-0.8531061053193E+00 -0.2937066271891E+01  0.0000000000000E+00
-0.8540683660190E+00 -0.2863559587695E+01  0.0000000000000E+00
-0.8555454664273E+00 -0.2790067100603E+01  0.0000000000000E+00
-0.8575267950260E+00 -0.2716594812946E+01  0.0000000000000E+00
-0.8599915107765E+00 -0.2643146234865E+01  0.0000000000000E+00
-0.8629224741099E+00 -0.2569726064901E+01  0.0000000000000E+00
-0.8663118433931E+00 -0.2496339061666E+01  0.0000000000000E+00
-0.8701640063715E+00 -0.2422989996067E+01  0.0000000000000E+00
-0.8744986261792E+00 -0.2349685803919E+01  0.0000000000000E+00
-0.8793539471137E+00 -0.2276436016166E+01  0.0000000000000E+00
-0.8847478901504E+00 -0.2203248992725E+01  0.0000000000000E+00
-0.8906739173530E+00 -0.2130130513310E+01  0.0000000000000E+00
-0.8971408912877E+00 -0.2057088440583E+01  0.0000000000000E+00
-0.9041750146314E+00 -0.1984133466366E+01  0.0000000000000E+00
-0.9118215028320E+00 -0.1911281600770E+01  0.0000000000000E+00
-0.9201472795426E+00 -0.1838554023785E+01  0.0000000000000E+00
-0.9292397541087E+00 -0.1765979519674E+01  0.0000000000000E+00
-0.9391834820163E+00 -0.1693591126070E+01  0.0000000000000E+00
-0.9499477930258E+00 -0.1621398208058E+01  0.0000000000000E+00
-0.9611044670103E+00 -0.1549304059582E+01  0.0000000000000E+00
-0.9722067098871E+00 -0.1477195909045E+01  0.0000000000000E+00
-0.9831001381267E+00 -0.1405034780455E+01  0.0000000000000E+00
-0.9936097704899E+00 -0.1332779095968E+01  0.0000000000000E+00
-0.8249999999305E+00 -0.4186859601281E+01  0.0000000000000E+00
-0.8249999998610E+00 -0.4113342086429E+01  0.0000000000000E+00
-0.8249999997914E+00 -0.4039824684257E+01  0.0000000000000E+00
-0.8249999997219E+00 -0.3966307217550E+01  0.0000000000000E+00
-0.8249999996524E+00 -0.3892789747717E+01  0.0000000000000E+00
-0.8249999995829E+00 -0.3819272288129E+01  0.0000000000000E+00
-0.8249999995134E+00 -0.3745754823288E+01  0.0000000000000E+00
-0.8249999994439E+00 -0.3672237366229E+01  0.0000000000000E+00
-0.8249999993743E+00 -0.3598719903615E+01  0.0000000000000E+00
-0.8249999993048E+00 -0.3525202280347E+01  0.0000000000000E+00
-0.8249999992353E+00 -0.3451684819510E+01  0.0000000000000E+00
-0.8249999991658E+00 -0.3378167379303E+01  0.0000000000000E+00
-0.8249999990963E+00 -0.3304649961005E+01  0.0000000000000E+00
-0.8249999990268E+00 -0.3231132803085E+01  0.0000000000000E+00
-0.8249999989572E+00 -0.3157615389387E+01  0.0000000000000E+00
-0.8250025245077E+00 -0.3084098002567E+01  0.0000000000000E+00
-0.8251225826998E+00 -0.3010580866809E+01  0.0000000000000E+00
-0.8255865533732E+00 -0.2937066271891E+01  0.0000000000000E+00
-0.8265177733960E+00 -0.2863559587695E+01  0.0000000000000E+00
-0.8279472253947E+00 -0.2790067100603E+01  0.0000000000000E+00
-0.8298646401582E+00 -0.2716594812946E+01  0.0000000000000E+00
-0.8322498489395E+00 -0.2643146234865E+01  0.0000000000000E+00
-0.8350862650591E+00 -0.2569726064901E+01  0.0000000000000E+00
-0.8383662998395E+00 -0.2496339061666E+01  0.0000000000000E+00
-0.8420941994863E+00 -0.2422989996067E+01  0.0000000000000E+00
-0.8462889928386E+00 -0.2349685803919E+01  0.0000000000000E+00
-0.8509876905072E+00 -0.2276436016166E+01  0.0000000000000E+00
-0.8562076353713E+00 -0.2203248992725E+01  0.0000000000000E+00
-0.8619425003959E+00 -0.2130130513310E+01  0.0000000000000E+00
-0.8682008622578E+00 -0.2057088440583E+01  0.0000000000000E+00
-0.8750080783865E+00 -0.1984133466366E+01  0.0000000000000E+00
-0.8824079056668E+00 -0.1911281600770E+01  0.0000000000000E+00
-0.8904651089244E+00 -0.1838554023785E+01  0.0000000000000E+00
-0.8992642778485E+00 -0.1765979519674E+01  0.0000000000000E+00
-0.9088872403287E+00 -0.1693591126070E+01  0.0000000000000E+00
-0.9193043154879E+00 -0.1621398208058E+01  0.0000000000000E+00
-0.9301010967519E+00 -0.1549304059582E+01  0.0000000000000E+00
-0.9408452027503E+00 -0.1477195909045E+01  0.0000000000000E+00
-0.9513872300675E+00 -0.1405034780455E+01  0.0000000000000E+00
-0.9615578420205E+00 -0.1332779095968E+01  0.0000000000000E+00
-0.7974999999235E+00 -0.4186859601281E+01  0.0000000000000E+00
-0.7974999998471E+00 -0.4113342086429E+01  0.0000000000000E+00
-0.7974999997706E+00 -0.4039824684257E+01  0.0000000000000E+00
-0.7974999996941E+00 -0.3966307217550E+01  0.0000000000000E+00
-0.7974999996177E+00 -0.3892789747717E+01  0.0000000000000E+00
-0.7974999995412E+00 -0.3819272288129E+01  0.0000000000000E+00
-0.7974999994647E+00 -0.3745754823288E+01  0.0000000000000E+00
-0.7974999993882E+00 -0.3672237366229E+01  0.0000000000000E+00
-0.7974999993118E+00 -0.3598719903615E+01  0.0000000000000E+00
-0.7974999992353E+00 -0.3525202280347E+01  0.0000000000000E+00
-0.7974999991588E+00 -0.3451684819510E+01  0.0000000000000E+00
-0.7974999990824E+00 -0.3378167379303E+01  0.0000000000000E+00
-0.7974999990059E+00 -0.3304649961005E+01  0.0000000000000E+00
-0.7974999989294E+00 -0.3231132803085E+01  0.0000000000000E+00
-0.7974999988530E+00 -0.3157615389387E+01  0.0000000000000E+00
-0.7975024402092E+00 -0.3084098002567E+01  0.0000000000000E+00
-0.7976184964522E+00 -0.3010580866809E+01  0.0000000000000E+00
-0.7980670014271E+00 -0.2937066271891E+01  0.0000000000000E+00
-0.7989671807730E+00 -0.2863559587695E+01  0.0000000000000E+00
-0.8003489843621E+00 -0.2790067100603E+01  0.0000000000000E+00
-0.8022024852905E+00 -0.2716594812946E+01  0.0000000000000E+00
-0.8045081871026E+00 -0.2643146234865E+01  0.0000000000000E+00
-0.8072500560082E+00 -0.2569726064901E+01  0.0000000000000E+00
-0.8104207562860E+00 -0.2496339061666E+01  0.0000000000000E+00
-0.8140243926010E+00 -0.2422989996067E+01  0.0000000000000E+00
-0.8180793594981E+00 -0.2349685803919E+01  0.0000000000000E+00
-0.8226214339007E+00 -0.2276436016166E+01  0.0000000000000E+00
-0.8276673805922E+00 -0.2203248992725E+01  0.0000000000000E+00
-0.8332110834388E+00 -0.2130130513310E+01  0.0000000000000E+00
-0.8392608332280E+00 -0.2057088440583E+01  0.0000000000000E+00
-0.8458411421415E+00 -0.1984133466366E+01  0.0000000000000E+00
-0.8529943085016E+00 -0.1911281600770E+01  0.0000000000000E+00
-0.8607829383062E+00 -0.1838554023785E+01  0.0000000000000E+00
-0.8692888015883E+00 -0.1765979519674E+01  0.0000000000000E+00
-0.8785909986410E+00 -0.1693591126070E+01  0.0000000000000E+00
-0.8886608379500E+00 -0.1621398208058E+01  0.0000000000000E+00
-0.8990977264935E+00 -0.1549304059581E+01  0.0000000000000E+00
-0.9094836956135E+00 -0.1477195909045E+01  0.0000000000000E+00
-0.9196743220083E+00 -0.1405034780455E+01  0.0000000000000E+00
-0.9295059135511E+00 -0.1332779095968E+01  0.0000000000000E+00
-0.7699999999166E+00 -0.4186859601281E+01  0.0000000000000E+00
-0.7699999998332E+00 -0.4113342086429E+01  0.0000000000000E+00
-0.7699999997497E+00 -0.4039824684257E+01  0.0000000000000E+00
-0.7699999996663E+00 -0.3966307217550E+01  0.0000000000000E+00
-0.7699999995829E+00 -0.3892789747717E+01  0.0000000000000E+00
-0.7699999994995E+00 -0.3819272288129E+01  0.0000000000000E+00
-0.7699999994161E+00 -0.3745754823288E+01  0.0000000000000E+00
-0.7699999993326E+00 -0.3672237366229E+01  0.0000000000000E+00
-0.7699999992492E+00 -0.3598719903615E+01  0.0000000000000E+00
-0.7699999991658E+00 -0.3525202280347E+01  0.0000000000000E+00
-0.7699999990824E+00 -0.3451684819510E+01  0.0000000000000E+00
-0.7699999989989E+00 -0.3378167379303E+01  0.0000000000000E+00
-0.7699999989155E+00 -0.3304649961005E+01  0.0000000000000E+00
-0.7699999988321E+00 -0.3231132803085E+01  0.0000000000000E+00
-0.7699999987487E+00 -0.3157615389387E+01  0.0000000000000E+00
-0.7700023559106E+00 -0.3084098002567E+01  0.0000000000000E+00
-0.7701144102046E+00 -0.3010580866809E+01  0.0000000000000E+00
-0.7705474494810E+00 -0.2937066271891E+01  0.0000000000000E+00
-0.7714165881500E+00 -0.2863559587695E+01  0.0000000000000E+00
-0.7727507433296E+00 -0.2790067100603E+01  0.0000000000000E+00
-0.7745403304228E+00 -0.2716594812946E+01  0.0000000000000E+00
-0.7767665252657E+00 -0.2643146234865E+01  0.0000000000000E+00
-0.7794138469574E+00 -0.2569726064901E+01  0.0000000000000E+00
-0.7824752127324E+00 -0.2496339061666E+01  0.0000000000000E+00
-0.7859545857158E+00 -0.2422989996067E+01  0.0000000000000E+00
-0.7898697261576E+00 -0.2349685803919E+01  0.0000000000000E+00
-0.7942551772942E+00 -0.2276436016166E+01  0.0000000000000E+00
-0.7991271258132E+00 -0.2203248992725E+01  0.0000000000000E+00
-0.8044796664817E+00 -0.2130130513310E+01  0.0000000000000E+00
-0.8103208041981E+00 -0.2057088440583E+01  0.0000000000000E+00
-0.8166742058966E+00 -0.1984133466366E+01  0.0000000000000E+00
-0.8235807113364E+00 -0.1911281600770E+01  0.0000000000000E+00
-0.8311007676880E+00 -0.1838554023785E+01  0.0000000000000E+00
-0.8393133253280E+00 -0.1765979519674E+01  0.0000000000000E+00
-0.8482947569534E+00 -0.1693591126070E+01  0.0000000000000E+00
-0.8580173604121E+00 -0.1621398208058E+01  0.0000000000000E+00
-0.8680943562351E+00 -0.1549304059581E+01  0.0000000000000E+00
-0.8781221884767E+00 -0.1477195909045E+01  0.0000000000000E+00
-0.8879614139491E+00 -0.1405034780455E+01  0.0000000000000E+00
-0.8974539850816E+00 -0.1332779095968E+01  0.0000000000000E+00
-0.7424999999096E+00 -0.4186859601281E+01  0.0000000000000E+00
-0.7424999998193E+00 -0.4113342086429E+01  0.0000000000000E+00
-0.7424999997289E+00 -0.4039824684257E+01  0.0000000000000E+00
-0.7424999996385E+00 -0.3966307217550E+01  0.0000000000000E+00
-0.7424999995481E+00 -0.3892789747717E+01  0.0000000000000E+00
-0.7424999994578E+00 -0.3819272288129E+01  0.0000000000000E+00
-0.7424999993674E+00 -0.3745754823288E+01  0.0000000000000E+00
-0.7424999992770E+00 -0.3672237366229E+01  0.0000000000000E+00
-0.7424999991866E+00 -0.3598719903615E+01  0.0000000000000E+00
-0.7424999990963E+00 -0.3525202280347E+01  0.0000000000000E+00
-0.7424999990059E+00 -0.3451684819510E+01  0.0000000000000E+00
-0.7424999989155E+00 -0.3378167379303E+01  0.0000000000000E+00
-0.7424999988252E+00 -0.3304649961005E+01  0.0000000000000E+00
-0.7424999987348E+00 -0.3231132803085E+01  0.0000000000000E+00
-0.7424999986444E+00 -0.3157615389387E+01  0.0000000000000E+00
-0.7425022716120E+00 -0.3084098002567E+01  0.0000000000000E+00
-0.7426103239570E+00 -0.3010580866809E+01  0.0000000000000E+00
-0.7430278975349E+00 -0.2937066271891E+01  0.0000000000000E+00
-0.7438659955270E+00 -0.2863559587695E+01  0.0000000000000E+00
-0.7451525022970E+00 -0.2790067100603E+01  0.0000000000000E+00
-0.7468781755550E+00 -0.2716594812946E+01  0.0000000000000E+00
-0.7490248634287E+00 -0.2643146234865E+01  0.0000000000000E+00
-0.7515776379065E+00 -0.2569726064901E+01  0.0000000000000E+00
-0.7545296691789E+00 -0.2496339061666E+01  0.0000000000000E+00
-0.7578847788306E+00 -0.2422989996067E+01  0.0000000000000E+00
-0.7616600928170E+00 -0.2349685803919E+01  0.0000000000000E+00
-0.7658889206877E+00 -0.2276436016166E+01  0.0000000000000E+00
-0.7705868710341E+00 -0.2203248992725E+01  0.0000000000000E+00
-0.7757482495245E+00 -0.2130130513310E+01  0.0000000000000E+00
-0.7813807751683E+00 -0.2057088440583E+01  0.0000000000000E+00
-0.7875072696517E+00 -0.1984133466366E+01  0.0000000000000E+00
-0.7941671141712E+00 -0.1911281600770E+01  0.0000000000000E+00
-0.8014185970699E+00 -0.1838554023785E+01  0.0000000000000E+00
-0.8093378490678E+00 -0.1765979519674E+01  0.0000000000000E+00
-0.8179985152657E+00 -0.1693591126069E+01  0.0000000000000E+00
-0.8273738828742E+00 -0.1621398208058E+01  0.0000000000000E+00
-0.8370909859766E+00 -0.1549304059581E+01  0.0000000000000E+00
-0.8467606813399E+00 -0.1477195909045E+01  0.0000000000000E+00
-0.8562485058899E+00 -0.1405034780455E+01  0.0000000000000E+00
-0.8654020566122E+00 -0.1332779095967E+01  0.0000000000000E+00
-0.7149999999027E+00 -0.4186859601281E+01  0.0000000000000E+00
-0.7149999998054E+00 -0.4113342086429E+01  0.0000000000000E+00
-0.7149999997080E+00 -0.4039824684257E+01  0.0000000000000E+00
-0.7149999996107E+00 -0.3966307217550E+01  0.0000000000000E+00
-0.7149999995134E+00 -0.3892789747717E+01  0.0000000000000E+00
-0.7149999994161E+00 -0.3819272288129E+01  0.0000000000000E+00
-0.7149999993187E+00 -0.3745754823288E+01  0.0000000000000E+00
-0.7149999992214E+00 -0.3672237366229E+01  0.0000000000000E+00
-0.7149999991241E+00 -0.3598719903615E+01  0.0000000000000E+00
-0.7149999990268E+00 -0.3525202280347E+01  0.0000000000000E+00
-0.7149999989294E+00 -0.3451684819510E+01  0.0000000000000E+00
-0.7149999988321E+00 -0.3378167379303E+01  0.0000000000000E+00
-0.7149999987348E+00 -0.3304649961005E+01  0.0000000000000E+00
-0.7149999986375E+00 -0.3231132803085E+01  0.0000000000000E+00
-0.7149999985401E+00 -0.3157615389387E+01  0.0000000000000E+00
-0.7150021873135E+00 -0.3084098002567E+01  0.0000000000000E+00
-0.7151062377094E+00 -0.3010580866809E+01  0.0000000000000E+00
-0.7155083455888E+00 -0.2937066271891E+01  0.0000000000000E+00
-0.7163154029040E+00 -0.2863559587695E+01  0.0000000000000E+00
-0.7175542612644E+00 -0.2790067100603E+01  0.0000000000000E+00
-0.7192160206873E+00 -0.2716594812946E+01  0.0000000000000E+00
-0.7212832015918E+00 -0.2643146234865E+01  0.0000000000000E+00
-0.7237414288557E+00 -0.2569726064901E+01  0.0000000000000E+00
-0.7265841256253E+00 -0.2496339061666E+01  0.0000000000000E+00
-0.7298149719453E+00 -0.2422989996067E+01  0.0000000000000E+00
-0.7334504594765E+00 -0.2349685803919E+01  0.0000000000000E+00
-0.7375226640812E+00 -0.2276436016166E+01  0.0000000000000E+00
-0.7420466162550E+00 -0.2203248992725E+01  0.0000000000000E+00
-0.7470168325674E+00 -0.2130130513310E+01  0.0000000000000E+00
-0.7524407461384E+00 -0.2057088440583E+01  0.0000000000000E+00
-0.7583403334067E+00 -0.1984133466366E+01  0.0000000000000E+00
-0.7647535170060E+00 -0.1911281600770E+01  0.0000000000000E+00
-0.7717364264517E+00 -0.1838554023785E+01  0.0000000000000E+00
-0.7793623728076E+00 -0.1765979519674E+01  0.0000000000000E+00
-0.7877022735781E+00 -0.1693591126069E+01  0.0000000000000E+00
-0.7967304053363E+00 -0.1621398208058E+01  0.0000000000000E+00
-0.8060876157182E+00 -0.1549304059581E+01  0.0000000000000E+00
-0.8153991742031E+00 -0.1477195909045E+01  0.0000000000000E+00
-0.8245355978307E+00 -0.1405034780454E+01  0.0000000000000E+00
-0.8333501281428E+00 -0.1332779095967E+01  0.0000000000000E+00
-0.6874999998957E+00 -0.4186859601281E+01  0.0000000000000E+00
-0.6874999997914E+00 -0.4113342086429E+01  0.0000000000000E+00
-0.6874999996872E+00 -0.4039824684257E+01  0.0000000000000E+00
-0.6874999995829E+00 -0.3966307217550E+01  0.0000000000000E+00
-0.6874999994786E+00 -0.3892789747717E+01  0.0000000000000E+00
-0.6874999993743E+00 -0.3819272288129E+01  0.0000000000000E+00
-0.6874999992701E+00 -0.3745754823288E+01  0.0000000000000E+00
-0.6874999991658E+00 -0.3672237366229E+01  0.0000000000000E+00
-0.6874999990615E+00 -0.3598719903615E+01  0.0000000000000E+00
-0.6874999989572E+00 -0.3525202280347E+01  0.0000000000000E+00
-0.6874999988530E+00 -0.3451684819510E+01  0.0000000000000E+00
-0.6874999987487E+00 -0.3378167379303E+01  0.0000000000000E+00
-0.6874999986444E+00 -0.3304649961005E+01  0.0000000000000E+00
-0.6874999985401E+00 -0.3231132803085E+01  0.0000000000000E+00
-0.6874999984359E+00 -0.3157615389387E+01  0.0000000000000E+00
-0.6875021030149E+00 -0.3084098002567E+01  0.0000000000000E+00
-0.6876021514618E+00 -0.3010580866809E+01  0.0000000000000E+00
-0.6879887936428E+00 -0.2937066271891E+01  0.0000000000000E+00
-0.6887648102810E+00 -0.2863559587695E+01  0.0000000000000E+00
-0.6899560202319E+00 -0.2790067100603E+01  0.0000000000000E+00
-0.6915538658196E+00 -0.2716594812946E+01  0.0000000000000E+00
-0.6935415397548E+00 -0.2643146234865E+01  0.0000000000000E+00
-0.6959052198048E+00 -0.2569726064901E+01  0.0000000000000E+00
-0.6986385820717E+00 -0.2496339061666E+01  0.0000000000000E+00
-0.7017451650601E+00 -0.2422989996067E+01  0.0000000000000E+00
-0.7052408261360E+00 -0.2349685803919E+01  0.0000000000000E+00
-0.7091564074748E+00 -0.2276436016166E+01  0.0000000000000E+00
-0.7135063614760E+00 -0.2203248992725E+01  0.0000000000000E+00
-0.7182854156103E+00 -0.2130130513310E+01  0.0000000000000E+00
-0.7235007171086E+00 -0.2057088440583E+01  0.0000000000000E+00
-0.7291733971618E+00 -0.1984133466366E+01  0.0000000000000E+00
-0.7353399198408E+00 -0.1911281600770E+01  0.0000000000000E+00
-0.7420542558335E+00 -0.1838554023785E+01  0.0000000000000E+00
-0.7493868965474E+00 -0.1765979519674E+01  0.0000000000000E+00
-0.7574060318904E+00 -0.1693591126069E+01  0.0000000000000E+00
-0.7660869277984E+00 -0.1621398208058E+01  0.0000000000000E+00
-0.7750842454598E+00 -0.1549304059581E+01  0.0000000000000E+00
-0.7840376670663E+00 -0.1477195909044E+01  0.0000000000000E+00
-0.7928226897716E+00 -0.1405034780454E+01  0.0000000000000E+00
-0.8012981996734E+00 -0.1332779095967E+01  0.0000000000000E+00
-0.6599999998888E+00 -0.4186859601281E+01  0.0000000000000E+00
-0.6599999997775E+00 -0.4113342086429E+01  0.0000000000000E+00
-0.6599999996663E+00 -0.4039824684257E+01  0.0000000000000E+00
-0.6599999995551E+00 -0.3966307217550E+01  0.0000000000000E+00
-0.6599999994439E+00 -0.3892789747717E+01  0.0000000000000E+00
-0.6599999993326E+00 -0.3819272288129E+01  0.0000000000000E+00
-0.6599999992214E+00 -0.3745754823288E+01  0.0000000000000E+00
-0.6599999991102E+00 -0.3672237366229E+01  0.0000000000000E+00
-0.6599999989989E+00 -0.3598719903615E+01  0.0000000000000E+00
-0.6599999988877E+00 -0.3525202280347E+01  0.0000000000000E+00
-0.6599999987765E+00 -0.3451684819510E+01  0.0000000000000E+00
-0.6599999986653E+00 -0.3378167379303E+01  0.0000000000000E+00
-0.6599999985540E+00 -0.3304649961005E+01  0.0000000000000E+00
-0.6599999984428E+00 -0.3231132803085E+01  0.0000000000000E+00
-0.6599999983316E+00 -0.3157615389387E+01  0.0000000000000E+00
-0.6600020187164E+00 -0.3084098002567E+01  0.0000000000000E+00
-0.6600980652142E+00 -0.3010580866809E+01  0.0000000000000E+00
-0.6604692416967E+00 -0.2937066271891E+01  0.0000000000000E+00
-0.6612142176580E+00 -0.2863559587695E+01  0.0000000000000E+00
-0.6623577791993E+00 -0.2790067100603E+01  0.0000000000000E+00
-0.6638917109518E+00 -0.2716594812946E+01  0.0000000000000E+00
-0.6657998779179E+00 -0.2643146234865E+01  0.0000000000000E+00
-0.6680690107540E+00 -0.2569726064901E+01  0.0000000000000E+00
-0.6706930385182E+00 -0.2496339061666E+01  0.0000000000000E+00
-0.6736753581749E+00 -0.2422989996067E+01  0.0000000000000E+00
-0.6770311927954E+00 -0.2349685803919E+01  0.0000000000000E+00
-0.6807901508683E+00 -0.2276436016166E+01  0.0000000000000E+00
-0.6849661066969E+00 -0.2203248992725E+01  0.0000000000000E+00
-0.6895539986532E+00 -0.2130130513310E+01  0.0000000000000E+00
-0.6945606880787E+00 -0.2057088440583E+01  0.0000000000000E+00
-0.7000064609169E+00 -0.1984133466366E+01  0.0000000000000E+00
-0.7059263226756E+00 -0.1911281600770E+01  0.0000000000000E+00
-0.7123720852153E+00 -0.1838554023785E+01  0.0000000000000E+00
-0.7194114202871E+00 -0.1765979519674E+01  0.0000000000000E+00
-0.7271097902028E+00 -0.1693591126069E+01  0.0000000000000E+00
-0.7354434502605E+00 -0.1621398208058E+01  0.0000000000000E+00
-0.7440808752013E+00 -0.1549304059581E+01  0.0000000000000E+00
-0.7526761599294E+00 -0.1477195909044E+01  0.0000000000000E+00
-0.7611097817124E+00 -0.1405034780454E+01  0.0000000000000E+00
-0.7692462712040E+00 -0.1332779095967E+01  0.0000000000000E+00
-0.6324999998818E+00 -0.4186859601281E+01  0.0000000000000E+00
-0.6324999997636E+00 -0.4113342086429E+01  0.0000000000000E+00
-0.6324999996455E+00 -0.4039824684257E+01  0.0000000000000E+00
-0.6324999995273E+00 -0.3966307217550E+01  0.0000000000000E+00
-0.6324999994091E+00 -0.3892789747717E+01  0.0000000000000E+00
-0.6324999992909E+00 -0.3819272288129E+01  0.0000000000000E+00
-0.6324999991727E+00 -0.3745754823288E+01  0.0000000000000E+00
-0.6324999990546E+00 -0.3672237366229E+01  0.0000000000000E+00
-0.6324999989364E+00 -0.3598719903615E+01  0.0000000000000E+00
-0.6324999988182E+00 -0.3525202280347E+01  0.0000000000000E+00
-0.6324999987000E+00 -0.3451684819510E+01  0.0000000000000E+00
-0.6324999985818E+00 -0.3378167379303E+01  0.0000000000000E+00
-0.6324999984637E+00 -0.3304649961005E+01  0.0000000000000E+00
-0.6324999983455E+00 -0.3231132803085E+01  0.0000000000000E+00
-0.6324999982273E+00 -0.3157615389387E+01  0.0000000000000E+00
-0.6325019344178E+00 -0.3084098002567E+01  0.0000000000000E+00
-0.6325939789666E+00 -0.3010580866809E+01  0.0000000000000E+00
-0.6329496897506E+00 -0.2937066271891E+01  0.0000000000000E+00
-0.6336636250350E+00 -0.2863559587695E+01  0.0000000000000E+00
-0.6347595381667E+00 -0.2790067100603E+01  0.0000000000000E+00
-0.6362295560841E+00 -0.2716594812946E+01  0.0000000000000E+00
-0.6380582160810E+00 -0.2643146234864E+01  0.0000000000000E+00
-0.6402328017031E+00 -0.2569726064901E+01  0.0000000000000E+00
-0.6427474949646E+00 -0.2496339061666E+01  0.0000000000000E+00
-0.6456055512896E+00 -0.2422989996067E+01  0.0000000000000E+00
-0.6488215594549E+00 -0.2349685803919E+01  0.0000000000000E+00
-0.6524238942618E+00 -0.2276436016166E+01  0.0000000000000E+00
-0.6564258519178E+00 -0.2203248992725E+01  0.0000000000000E+00
-0.6608225816961E+00 -0.2130130513310E+01  0.0000000000000E+00
-0.6656206590488E+00 -0.2057088440583E+01  0.0000000000000E+00
-0.6708395246719E+00 -0.1984133466366E+01  0.0000000000000E+00
-0.6765127255104E+00 -0.1911281600769E+01  0.0000000000000E+00
-0.6826899145971E+00 -0.1838554023785E+01  0.0000000000000E+00
-0.6894359440269E+00 -0.1765979519673E+01  0.0000000000000E+00
-0.6968135485151E+00 -0.1693591126069E+01  0.0000000000000E+00
-0.7047999727226E+00 -0.1621398208058E+01  0.0000000000000E+00
-0.7130775049429E+00 -0.1549304059581E+01  0.0000000000000E+00
-0.7213146527926E+00 -0.1477195909044E+01  0.0000000000000E+00
-0.7293968736532E+00 -0.1405034780454E+01  0.0000000000000E+00
-0.7371943427346E+00 -0.1332779095967E+01  0.0000000000000E+00
-0.6049999998749E+00 -0.4186859601281E+01  0.0000000000000E+00
-0.6049999997497E+00 -0.4113342086429E+01  0.0000000000000E+00
-0.6049999996246E+00 -0.4039824684257E+01  0.0000000000000E+00
-0.6049999994995E+00 -0.3966307217550E+01  0.0000000000000E+00
-0.6049999993743E+00 -0.3892789747717E+01  0.0000000000000E+00
-0.6049999992492E+00 -0.3819272288129E+01  0.0000000000000E+00
-0.6049999991241E+00 -0.3745754823288E+01  0.0000000000000E+00
-0.6049999989989E+00 -0.3672237366228E+01  0.0000000000000E+00
-0.6049999988738E+00 -0.3598719903615E+01  0.0000000000000E+00
-0.6049999987487E+00 -0.3525202280347E+01  0.0000000000000E+00
-0.6049999986236E+00 -0.3451684819510E+01  0.0000000000000E+00
-0.6049999984984E+00 -0.3378167379303E+01  0.0000000000000E+00
-0.6049999983733E+00 -0.3304649961005E+01  0.0000000000000E+00
-0.6049999982482E+00 -0.3231132803085E+01  0.0000000000000E+00
-0.6049999981230E+00 -0.3157615389387E+01  0.0000000000000E+00
-0.6050018501192E+00 -0.3084098002567E+01  0.0000000000000E+00
-0.6050898927190E+00 -0.3010580866809E+01  0.0000000000000E+00
-0.6054301378045E+00 -0.2937066271891E+01  0.0000000000000E+00
-0.6061130324120E+00 -0.2863559587695E+01  0.0000000000000E+00
-0.6071612971342E+00 -0.2790067100603E+01  0.0000000000000E+00
-0.6085674012163E+00 -0.2716594812946E+01  0.0000000000000E+00
-0.6103165542440E+00 -0.2643146234864E+01  0.0000000000000E+00
-0.6123965926523E+00 -0.2569726064901E+01  0.0000000000000E+00
-0.6148019514111E+00 -0.2496339061666E+01  0.0000000000000E+00
-0.6175357444044E+00 -0.2422989996067E+01  0.0000000000000E+00
-0.6206119261143E+00 -0.2349685803919E+01  0.0000000000000E+00
-0.6240576376553E+00 -0.2276436016166E+01  0.0000000000000E+00
-0.6278855971387E+00 -0.2203248992725E+01  0.0000000000000E+00
-0.6320911647390E+00 -0.2130130513310E+01  0.0000000000000E+00
-0.6366806300190E+00 -0.2057088440583E+01  0.0000000000000E+00
-0.6416725884270E+00 -0.1984133466365E+01  0.0000000000000E+00
-0.6470991283452E+00 -0.1911281600769E+01  0.0000000000000E+00
-0.6530077439789E+00 -0.1838554023785E+01  0.0000000000000E+00
-0.6594604677667E+00 -0.1765979519673E+01  0.0000000000000E+00
-0.6665173068275E+00 -0.1693591126069E+01  0.0000000000000E+00
-0.6741564951847E+00 -0.1621398208058E+01  0.0000000000000E+00
-0.6820741346845E+00 -0.1549304059581E+01  0.0000000000000E+00
-0.6899531456558E+00 -0.1477195909044E+01  0.0000000000000E+00
-0.6976839655940E+00 -0.1405034780454E+01  0.0000000000000E+00
-0.7051424142651E+00 -0.1332779095967E+01  0.0000000000000E+00
-0.5774999998679E+00 -0.4186859601281E+01  0.0000000000000E+00
-0.5774999997358E+00 -0.4113342086429E+01  0.0000000000000E+00
-0.5774999996037E+00 -0.4039824684257E+01  0.0000000000000E+00
-0.5774999994717E+00 -0.3966307217550E+01  0.0000000000000E+00
-0.5774999993396E+00 -0.3892789747717E+01  0.0000000000000E+00
-0.5774999992075E+00 -0.3819272288129E+01  0.0000000000000E+00
-0.5774999990754E+00 -0.3745754823288E+01  0.0000000000000E+00
-0.5774999989433E+00 -0.3672237366228E+01  0.0000000000000E+00
-0.5774999988112E+00 -0.3598719903615E+01  0.0000000000000E+00
-0.5774999986792E+00 -0.3525202280347E+01  0.0000000000000E+00
-0.5774999985471E+00 -0.3451684819510E+01  0.0000000000000E+00
-0.5774999984150E+00 -0.3378167379303E+01  0.0000000000000E+00
-0.5774999982829E+00 -0.3304649961005E+01  0.0000000000000E+00
-0.5774999981508E+00 -0.3231132803085E+01  0.0000000000000E+00
-0.5774999980187E+00 -0.3157615389387E+01  0.0000000000000E+00
-0.5775017658207E+00 -0.3084098002567E+01  0.0000000000000E+00
-0.5775858064714E+00 -0.3010580866809E+01  0.0000000000000E+00
-0.5779105858584E+00 -0.2937066271891E+01  0.0000000000000E+00
-0.5785624397890E+00 -0.2863559587695E+01  0.0000000000000E+00
-0.5795630561016E+00 -0.2790067100603E+01  0.0000000000000E+00
-0.5809052463486E+00 -0.2716594812946E+01  0.0000000000000E+00
-0.5825748924071E+00 -0.2643146234864E+01  0.0000000000000E+00
-0.5845603836014E+00 -0.2569726064901E+01  0.0000000000000E+00
-0.5868564078575E+00 -0.2496339061666E+01  0.0000000000000E+00
-0.5894659375192E+00 -0.2422989996067E+01  0.0000000000000E+00
-0.5924022927738E+00 -0.2349685803919E+01  0.0000000000000E+00
-0.5956913810488E+00 -0.2276436016166E+01  0.0000000000000E+00
-0.5993453423597E+00 -0.2203248992725E+01  0.0000000000000E+00
-0.6033597477819E+00 -0.2130130513310E+01  0.0000000000000E+00
-0.6077406009891E+00 -0.2057088440583E+01  0.0000000000000E+00
-0.6125056521821E+00 -0.1984133466365E+01  0.0000000000000E+00
-0.6176855311800E+00 -0.1911281600769E+01  0.0000000000000E+00
-0.6233255733607E+00 -0.1838554023785E+01  0.0000000000000E+00
-0.6294849915065E+00 -0.1765979519673E+01  0.0000000000000E+00
-0.6362210651398E+00 -0.1693591126069E+01  0.0000000000000E+00
-0.6435130176468E+00 -0.1621398208058E+01  0.0000000000000E+00
-0.6510707644261E+00 -0.1549304059581E+01  0.0000000000000E+00
-0.6585916385190E+00 -0.1477195909044E+01  0.0000000000000E+00
-0.6659710575348E+00 -0.1405034780454E+01  0.0000000000000E+00
-0.6730904857957E+00 -0.1332779095967E+01  0.0000000000000E+00
-0.5499999998610E+00 -0.4186859601281E+01  0.0000000000000E+00
-0.5499999997219E+00 -0.4113342086429E+01  0.0000000000000E+00
-0.5499999995829E+00 -0.4039824684257E+01  0.0000000000000E+00
-0.5499999994439E+00 -0.3966307217550E+01  0.0000000000000E+00
-0.5499999993048E+00 -0.3892789747717E+01  0.0000000000000E+00
-0.5499999991658E+00 -0.3819272288129E+01  0.0000000000000E+00
-0.5499999990268E+00 -0.3745754823288E+01  0.0000000000000E+00
-0.5499999988877E+00 -0.3672237366228E+01  0.0000000000000E+00
-0.5499999987487E+00 -0.3598719903615E+01  0.0000000000000E+00
-0.5499999986096E+00 -0.3525202280347E+01  0.0000000000000E+00
-0.5499999984706E+00 -0.3451684819510E+01  0.0000000000000E+00
-0.5499999983316E+00 -0.3378167379303E+01  0.0000000000000E+00
-0.5499999981925E+00 -0.3304649961005E+01  0.0000000000000E+00
-0.5499999980535E+00 -0.3231132803085E+01  0.0000000000000E+00
-0.5499999979145E+00 -0.3157615389387E+01  0.0000000000000E+00
-0.5500016815221E+00 -0.3084098002567E+01  0.0000000000000E+00
-0.5500817202238E+00 -0.3010580866809E+01  0.0000000000000E+00
-0.5503910339123E+00 -0.2937066271891E+01  0.0000000000000E+00
-0.5510118471659E+00 -0.2863559587695E+01  0.0000000000000E+00
-0.5519648150690E+00 -0.2790067100603E+01  0.0000000000000E+00
-0.5532430914809E+00 -0.2716594812946E+01  0.0000000000000E+00
-0.5548332305702E+00 -0.2643146234864E+01  0.0000000000000E+00
-0.5567241745506E+00 -0.2569726064901E+01  0.0000000000000E+00
-0.5589108643040E+00 -0.2496339061666E+01  0.0000000000000E+00
-0.5613961306339E+00 -0.2422989996067E+01  0.0000000000000E+00
-0.5641926594333E+00 -0.2349685803919E+01  0.0000000000000E+00
-0.5673251244423E+00 -0.2276436016166E+01  0.0000000000000E+00
-0.5708050875806E+00 -0.2203248992725E+01  0.0000000000000E+00
-0.5746283308247E+00 -0.2130130513310E+01  0.0000000000000E+00
-0.5788005719593E+00 -0.2057088440583E+01  0.0000000000000E+00
-0.5833387159371E+00 -0.1984133466365E+01  0.0000000000000E+00
-0.5882719340148E+00 -0.1911281600769E+01  0.0000000000000E+00
-0.5936434027425E+00 -0.1838554023785E+01  0.0000000000000E+00
-0.5995095152462E+00 -0.1765979519673E+01  0.0000000000000E+00
-0.6059248234522E+00 -0.1693591126069E+01  0.0000000000000E+00
-0.6128695401089E+00 -0.1621398208058E+01  0.0000000000000E+00
-0.6200673941676E+00 -0.1549304059581E+01  0.0000000000000E+00
-0.6272301313822E+00 -0.1477195909044E+01  0.0000000000000E+00
-0.6342581494756E+00 -0.1405034780454E+01  0.0000000000000E+00
-0.6410385573263E+00 -0.1332779095967E+01  0.0000000000000E+00
-0.5224999998610E+00 -0.4186859601281E+01  0.0000000000000E+00
-0.5224999997219E+00 -0.4113342086429E+01  0.0000000000000E+00
-0.5224999995829E+00 -0.4039824684257E+01  0.0000000000000E+00
-0.5224999994439E+00 -0.3966307217550E+01  0.0000000000000E+00
-0.5224999993048E+00 -0.3892789747717E+01  0.0000000000000E+00
-0.5224999991658E+00 -0.3819272288129E+01  0.0000000000000E+00
-0.5224999990268E+00 -0.3745754823288E+01  0.0000000000000E+00
-0.5224999988877E+00 -0.3672237366228E+01  0.0000000000000E+00
-0.5224999987487E+00 -0.3598719903615E+01  0.0000000000000E+00
-0.5224999986096E+00 -0.3525202280347E+01  0.0000000000000E+00
-0.5224999984706E+00 -0.3451684819510E+01  0.0000000000000E+00
-0.5224999983316E+00 -0.3378167379303E+01  0.0000000000000E+00
-0.5224999981925E+00 -0.3304649961005E+01  0.0000000000000E+00
-0.5224999980535E+00 -0.3231132803085E+01  0.0000000000000E+00
-0.5224999979145E+00 -0.3157615389387E+01  0.0000000000000E+00
-0.5225015973348E+00 -0.3084098002567E+01  0.0000000000000E+00
-0.5225776340944E+00 -0.3010580866809E+01  0.0000000000000E+00
-0.5228714820914E+00 -0.2937066271891E+01  0.0000000000000E+00
-0.5234612546753E+00 -0.2863559587695E+01  0.0000000000000E+00
-0.5243665741760E+00 -0.2790067100603E+01  0.0000000000000E+00
-0.5255809367599E+00 -0.2716594812946E+01  0.0000000000000E+00
-0.5270915688874E+00 -0.2643146234864E+01  0.0000000000000E+00
-0.5288879656614E+00 -0.2569726064901E+01  0.0000000000000E+00
-0.5309653209196E+00 -0.2496339061666E+01  0.0000000000000E+00
-0.5333263239254E+00 -0.2422989996067E+01  0.0000000000000E+00
-0.5359830262772E+00 -0.2349685803919E+01  0.0000000000000E+00
-0.5389588680280E+00 -0.2276436016166E+01  0.0000000000000E+00
-0.5422648330016E+00 -0.2203248992725E+01  0.0000000000000E+00
-0.5458969140756E+00 -0.2130130513310E+01  0.0000000000000E+00
-0.5498605431455E+00 -0.2057088440583E+01  0.0000000000000E+00
-0.5541717799163E+00 -0.1984133466365E+01  0.0000000000000E+00
-0.5588583370819E+00 -0.1911281600769E+01  0.0000000000000E+00
-0.5639612323650E+00 -0.1838554023785E+01  0.0000000000000E+00
-0.5695340392352E+00 -0.1765979519673E+01  0.0000000000000E+00
-0.5756285820223E+00 -0.1693591126069E+01  0.0000000000000E+00
-0.5822260628376E+00 -0.1621398208058E+01  0.0000000000000E+00
-0.5890640241846E+00 -0.1549304059581E+01  0.0000000000000E+00
-0.5958686245296E+00 -0.1477195909044E+01  0.0000000000000E+00
-0.6025452417094E+00 -0.1405034780454E+01  0.0000000000000E+00
-0.6089866291585E+00 -0.1332779095967E+01  0.0000000000000E+00
-0.4949999998610E+00 -0.4186859601281E+01  0.0000000000000E+00
-0.4949999997219E+00 -0.4113342086429E+01  0.0000000000000E+00
-0.4949999995829E+00 -0.4039824684257E+01  0.0000000000000E+00
-0.4949999994439E+00 -0.3966307217550E+01  0.0000000000000E+00
-0.4949999993048E+00 -0.3892789747717E+01  0.0000000000000E+00
-0.4949999991658E+00 -0.3819272288129E+01  0.0000000000000E+00
-0.4949999990268E+00 -0.3745754823288E+01  0.0000000000000E+00
-0.4949999988877E+00 -0.3672237366228E+01  0.0000000000000E+00
-0.4949999987487E+00 -0.3598719903615E+01  0.0000000000000E+00
-0.4949999986096E+00 -0.3525202280347E+01  0.0000000000000E+00
-0.4949999984706E+00 -0.3451684819510E+01  0.0000000000000E+00
-0.4949999983316E+00 -0.3378167379303E+01  0.0000000000000E+00
-0.4949999981925E+00 -0.3304649961005E+01  0.0000000000000E+00
-0.4949999980535E+00 -0.3231132803085E+01  0.0000000000000E+00
-0.4949999979145E+00 -0.3157615389387E+01  0.0000000000000E+00
-0.4950015131474E+00 -0.3084098002567E+01  0.0000000000000E+00
-0.4950735479650E+00 -0.3010580866809E+01  0.0000000000000E+00
-0.4953519302706E+00 -0.2937066271891E+01  0.0000000000000E+00
-0.4959106621846E+00 -0.2863559587695E+01  0.0000000000000E+00
-0.4967683332830E+00 -0.2790067100603E+01  0.0000000000000E+00
-0.4979187820390E+00 -0.2716594812946E+01  0.0000000000000E+00
-0.4993499072047E+00 -0.2643146234864E+01  0.0000000000000E+00
-0.5010517567722E+00 -0.2569726064901E+01  0.0000000000000E+00
-0.5030197775352E+00 -0.2496339061666E+01  0.0000000000000E+00
-0.5052565172169E+00 -0.2422989996067E+01  0.0000000000000E+00
-0.5077733931210E+00 -0.2349685803919E+01  0.0000000000000E+00
-0.5105926116137E+00 -0.2276436016166E+01  0.0000000000000E+00
-0.5137245784225E+00 -0.2203248992725E+01  0.0000000000000E+00
-0.5171654973265E+00 -0.2130130513310E+01  0.0000000000000E+00
-0.5209205143316E+00 -0.2057088440583E+01  0.0000000000000E+00
-0.5250048438955E+00 -0.1984133466365E+01  0.0000000000000E+00
-0.5294447401491E+00 -0.1911281600769E+01  0.0000000000000E+00
-0.5342790619876E+00 -0.1838554023785E+01  0.0000000000000E+00
-0.5395585632242E+00 -0.1765979519673E+01  0.0000000000000E+00
-0.5453323405925E+00 -0.1693591126069E+01  0.0000000000000E+00
-0.5515825855662E+00 -0.1621398208058E+01  0.0000000000000E+00
-0.5580606542015E+00 -0.1549304059581E+01  0.0000000000000E+00
-0.5645071176769E+00 -0.1477195909044E+01  0.0000000000000E+00
-0.5708323339431E+00 -0.1405034780454E+01  0.0000000000000E+00
-0.5769347009908E+00 -0.1332779095967E+01  0.0000000000000E+00
-0.4674999998610E+00 -0.4186859601281E+01  0.0000000000000E+00
-0.4674999997219E+00 -0.4113342086429E+01  0.0000000000000E+00
-0.4674999995829E+00 -0.4039824684257E+01  0.0000000000000E+00
-0.4674999994439E+00 -0.3966307217550E+01  0.0000000000000E+00
-0.4674999993048E+00 -0.3892789747717E+01  0.0000000000000E+00
-0.4674999991658E+00 -0.3819272288129E+01  0.0000000000000E+00
-0.4674999990268E+00 -0.3745754823288E+01  0.0000000000000E+00
-0.4674999988877E+00 -0.3672237366228E+01  0.0000000000000E+00
-0.4674999987487E+00 -0.3598719903615E+01  0.0000000000000E+00
-0.4674999986096E+00 -0.3525202280347E+01  0.0000000000000E+00
-0.4674999984706E+00 -0.3451684819510E+01  0.0000000000000E+00
-0.4674999983316E+00 -0.3378167379303E+01  0.0000000000000E+00
-0.4674999981925E+00 -0.3304649961005E+01  0.0000000000000E+00
-0.4674999980535E+00 -0.3231132803085E+01  0.0000000000000E+00
-0.4674999979145E+00 -0.3157615389387E+01  0.0000000000000E+00
-0.4675014289601E+00 -0.3084098002567E+01  0.0000000000000E+00
-0.4675694618356E+00 -0.3010580866809E+01  0.0000000000000E+00
-0.4678323784497E+00 -0.2937066271891E+01  0.0000000000000E+00
-0.4683600696940E+00 -0.2863559587695E+01  0.0000000000000E+00
-0.4691700923899E+00 -0.2790067100603E+01  0.0000000000000E+00
-0.4702566273181E+00 -0.2716594812946E+01  0.0000000000000E+00
-0.4716082455219E+00 -0.2643146234864E+01  0.0000000000000E+00
-0.4732155478829E+00 -0.2569726064901E+01  0.0000000000000E+00
-0.4750742341508E+00 -0.2496339061666E+01  0.0000000000000E+00
-0.4771867105085E+00 -0.2422989996067E+01  0.0000000000000E+00
-0.4795637599649E+00 -0.2349685803919E+01  0.0000000000000E+00
-0.4822263551994E+00 -0.2276436016165E+01  0.0000000000000E+00
-0.4851843238435E+00 -0.2203248992725E+01  0.0000000000000E+00
-0.4884340805773E+00 -0.2130130513310E+01  0.0000000000000E+00
-0.4919804855178E+00 -0.2057088440583E+01  0.0000000000000E+00
-0.4958379078748E+00 -0.1984133466365E+01  0.0000000000000E+00
-0.5000311432163E+00 -0.1911281600769E+01  0.0000000000000E+00
-0.5045968916101E+00 -0.1838554023785E+01  0.0000000000000E+00
-0.5095830872131E+00 -0.1765979519673E+01  0.0000000000000E+00
-0.5150360991627E+00 -0.1693591126069E+01  0.0000000000000E+00
-0.5209391082949E+00 -0.1621398208058E+01  0.0000000000000E+00
-0.5270572842184E+00 -0.1549304059581E+01  0.0000000000000E+00
-0.5331456108243E+00 -0.1477195909044E+01  0.0000000000000E+00
-0.5391194261769E+00 -0.1405034780454E+01  0.0000000000000E+00
-0.5448827728230E+00 -0.1332779095967E+01  0.0000000000000E+00
-0.4399999998610E+00 -0.4186859601281E+01  0.0000000000000E+00
-0.4399999997219E+00 -0.4113342086429E+01  0.0000000000000E+00
-0.4399999995829E+00 -0.4039824684257E+01  0.0000000000000E+00
-0.4399999994439E+00 -0.3966307217550E+01  0.0000000000000E+00
-0.4399999993048E+00 -0.3892789747717E+01  0.0000000000000E+00
-0.4399999991658E+00 -0.3819272288129E+01  0.0000000000000E+00
-0.4399999990268E+00 -0.3745754823288E+01  0.0000000000000E+00
-0.4399999988877E+00 -0.3672237366228E+01  0.0000000000000E+00
-0.4399999987487E+00 -0.3598719903615E+01  0.0000000000000E+00
-0.4399999986096E+00 -0.3525202280347E+01  0.0000000000000E+00
-0.4399999984706E+00 -0.3451684819510E+01  0.0000000000000E+00
-0.4399999983316E+00 -0.3378167379303E+01  0.0000000000000E+00
-0.4399999981925E+00 -0.3304649961005E+01  0.0000000000000E+00
-0.4399999980535E+00 -0.3231132803085E+01  0.0000000000000E+00
-0.4399999979145E+00 -0.3157615389387E+01  0.0000000000000E+00
-0.4400013447728E+00 -0.3084098002567E+01  0.0000000000000E+00
-0.4400653757062E+00 -0.3010580866809E+01  0.0000000000000E+00
-0.4403128266289E+00 -0.2937066271891E+01  0.0000000000000E+00
-0.4408094772033E+00 -0.2863559587695E+01  0.0000000000000E+00
-0.4415718514969E+00 -0.2790067100603E+01  0.0000000000000E+00
-0.4425944725972E+00 -0.2716594812946E+01  0.0000000000000E+00
-0.4438665838392E+00 -0.2643146234864E+01  0.0000000000000E+00
-0.4453793389937E+00 -0.2569726064901E+01  0.0000000000000E+00
-0.4471286907664E+00 -0.2496339061666E+01  0.0000000000000E+00
-0.4491169038000E+00 -0.2422989996067E+01  0.0000000000000E+00
-0.4513541268088E+00 -0.2349685803919E+01  0.0000000000000E+00
-0.4538600987851E+00 -0.2276436016165E+01  0.0000000000000E+00
-0.4566440692645E+00 -0.2203248992725E+01  0.0000000000000E+00
-0.4597026638282E+00 -0.2130130513310E+01  0.0000000000000E+00
-0.4630404567039E+00 -0.2057088440583E+01  0.0000000000000E+00
-0.4666709718540E+00 -0.1984133466365E+01  0.0000000000000E+00
-0.4706175462834E+00 -0.1911281600769E+01  0.0000000000000E+00
-0.4749147212326E+00 -0.1838554023785E+01  0.0000000000000E+00
-0.4796076112021E+00 -0.1765979519673E+01  0.0000000000000E+00
-0.4847398577328E+00 -0.1693591126069E+01  0.0000000000000E+00
-0.4902956310235E+00 -0.1621398208058E+01  0.0000000000000E+00
-0.4960539142354E+00 -0.1549304059581E+01  0.0000000000000E+00
-0.5017841039716E+00 -0.1477195909044E+01  0.0000000000000E+00
-0.5074065184107E+00 -0.1405034780454E+01  0.0000000000000E+00
-0.5128308446553E+00 -0.1332779095967E+01  0.0000000000000E+00
-0.4124999998610E+00 -0.4186859601281E+01  0.0000000000000E+00
-0.4124999997219E+00 -0.4113342086429E+01  0.0000000000000E+00
-0.4124999995829E+00 -0.4039824684257E+01  0.0000000000000E+00
-0.4124999994439E+00 -0.3966307217550E+01  0.0000000000000E+00
-0.4124999993048E+00 -0.3892789747717E+01  0.0000000000000E+00
-0.4124999991658E+00 -0.3819272288129E+01  0.0000000000000E+00
-0.4124999990268E+00 -0.3745754823288E+01  0.0000000000000E+00
-0.4124999988877E+00 -0.3672237366228E+01  0.0000000000000E+00
-0.4124999987487E+00 -0.3598719903615E+01  0.0000000000000E+00
-0.4124999986096E+00 -0.3525202280347E+01  0.0000000000000E+00
-0.4124999984706E+00 -0.3451684819510E+01  0.0000000000000E+00
-0.4124999983316E+00 -0.3378167379303E+01  0.0000000000000E+00
-0.4124999981925E+00 -0.3304649961005E+01  0.0000000000000E+00
-0.4124999980535E+00 -0.3231132803085E+01  0.0000000000000E+00
-0.4124999979145E+00 -0.3157615389387E+01  0.0000000000000E+00
-0.4125012605854E+00 -0.3084098002567E+01  0.0000000000000E+00
-0.4125612895768E+00 -0.3010580866809E+01  0.0000000000000E+00
-0.4127932748080E+00 -0.2937066271891E+01  0.0000000000000E+00
-0.4132588847126E+00 -0.2863559587695E+01  0.0000000000000E+00
-0.4139736106039E+00 -0.2790067100603E+01  0.0000000000000E+00
-0.4149323178763E+00 -0.2716594812946E+01  0.0000000000000E+00
-0.4161249221564E+00 -0.2643146234864E+01  0.0000000000000E+00
-0.4175431301045E+00 -0.2569726064901E+01  0.0000000000000E+00
-0.4191831473820E+00 -0.2496339061666E+01  0.0000000000000E+00
-0.4210470970915E+00 -0.2422989996067E+01  0.0000000000000E+00
-0.4231444936527E+00 -0.2349685803919E+01  0.0000000000000E+00
-0.4254938423708E+00 -0.2276436016165E+01  0.0000000000000E+00
-0.4281038146855E+00 -0.2203248992725E+01  0.0000000000000E+00
-0.4309712470791E+00 -0.2130130513310E+01  0.0000000000000E+00
-0.4341004278901E+00 -0.2057088440583E+01  0.0000000000000E+00
-0.4375040358332E+00 -0.1984133466365E+01  0.0000000000000E+00
-0.4412039493506E+00 -0.1911281600769E+01  0.0000000000000E+00
-0.4452325508551E+00 -0.1838554023785E+01  0.0000000000000E+00
-0.4496321351910E+00 -0.1765979519673E+01  0.0000000000000E+00
-0.4544436163030E+00 -0.1693591126069E+01  0.0000000000000E+00
-0.4596521537522E+00 -0.1621398208057E+01  0.0000000000000E+00
-0.4650505442523E+00 -0.1549304059581E+01  0.0000000000000E+00
-0.4704225971190E+00 -0.1477195909044E+01  0.0000000000000E+00
-0.4756936106444E+00 -0.1405034780454E+01  0.0000000000000E+00
-0.4807789164875E+00 -0.1332779095967E+01  0.0000000000000E+00
-0.3849999998610E+00 -0.4186859601281E+01  0.0000000000000E+00
-0.3849999997219E+00 -0.4113342086429E+01  0.0000000000000E+00
-0.3849999995829E+00 -0.4039824684257E+01  0.0000000000000E+00
-0.3849999994439E+00 -0.3966307217550E+01  0.0000000000000E+00
-0.3849999993048E+00 -0.3892789747717E+01  0.0000000000000E+00
-0.3849999991658E+00 -0.3819272288129E+01  0.0000000000000E+00
-0.3849999990268E+00 -0.3745754823288E+01  0.0000000000000E+00
-0.3849999988877E+00 -0.3672237366228E+01  0.0000000000000E+00
-0.3849999987487E+00 -0.3598719903615E+01  0.0000000000000E+00
-0.3849999986096E+00 -0.3525202280347E+01  0.0000000000000E+00
-0.3849999984706E+00 -0.3451684819510E+01  0.0000000000000E+00
-0.3849999983316E+00 -0.3378167379303E+01  0.0000000000000E+00
-0.3849999981925E+00 -0.3304649961005E+01  0.0000000000000E+00
-0.3849999980535E+00 -0.3231132803085E+01  0.0000000000000E+00
-0.3849999979145E+00 -0.3157615389387E+01  0.0000000000000E+00
-0.3850011763981E+00 -0.3084098002567E+01  0.0000000000000E+00
-0.3850572034474E+00 -0.3010580866809E+01  0.0000000000000E+00
-0.3852737229872E+00 -0.2937066271891E+01  0.0000000000000E+00
-0.3857082922220E+00 -0.2863559587695E+01  0.0000000000000E+00
-0.3863753697109E+00 -0.2790067100603E+01  0.0000000000000E+00
-0.3872701631554E+00 -0.2716594812946E+01  0.0000000000000E+00
-0.3883832604737E+00 -0.2643146234864E+01  0.0000000000000E+00
-0.3897069212153E+00 -0.2569726064901E+01  0.0000000000000E+00
-0.3912376039976E+00 -0.2496339061666E+01  0.0000000000000E+00
-0.3929772903830E+00 -0.2422989996067E+01  0.0000000000000E+00
-0.3949348604966E+00 -0.2349685803919E+01  0.0000000000000E+00
-0.3971275859565E+00 -0.2276436016165E+01  0.0000000000000E+00
-0.3995635601064E+00 -0.2203248992725E+01  0.0000000000000E+00
-0.4022398303299E+00 -0.2130130513310E+01  0.0000000000000E+00
-0.4051603990763E+00 -0.2057088440583E+01  0.0000000000000E+00
-0.4083370998124E+00 -0.1984133466365E+01  0.0000000000000E+00
-0.4117903524178E+00 -0.1911281600769E+01  0.0000000000000E+00
-0.4155503804777E+00 -0.1838554023785E+01  0.0000000000000E+00
-0.4196566591800E+00 -0.1765979519673E+01  0.0000000000000E+00
-0.4241473748731E+00 -0.1693591126069E+01  0.0000000000000E+00
-0.4290086764809E+00 -0.1621398208057E+01  0.0000000000000E+00
-0.4340471742693E+00 -0.1549304059581E+01  0.0000000000000E+00
-0.4390610902664E+00 -0.1477195909044E+01  0.0000000000000E+00
-0.4439807028782E+00 -0.1405034780454E+01  0.0000000000000E+00
-0.4487269883198E+00 -0.1332779095967E+01  0.0000000000000E+00
-0.3574999998610E+00 -0.4186859601281E+01  0.0000000000000E+00
-0.3574999997219E+00 -0.4113342086429E+01  0.0000000000000E+00
-0.3574999995829E+00 -0.4039824684257E+01  0.0000000000000E+00
-0.3574999994439E+00 -0.3966307217550E+01  0.0000000000000E+00
-0.3574999993048E+00 -0.3892789747717E+01  0.0000000000000E+00
-0.3574999991658E+00 -0.3819272288129E+01  0.0000000000000E+00
-0.3574999990268E+00 -0.3745754823288E+01  0.0000000000000E+00
-0.3574999988877E+00 -0.3672237366228E+01  0.0000000000000E+00
-0.3574999987487E+00 -0.3598719903615E+01  0.0000000000000E+00
-0.3574999986096E+00 -0.3525202280347E+01  0.0000000000000E+00
-0.3574999984706E+00 -0.3451684819510E+01  0.0000000000000E+00
-0.3574999983316E+00 -0.3378167379303E+01  0.0000000000000E+00
-0.3574999981925E+00 -0.3304649961005E+01  0.0000000000000E+00
-0.3574999980535E+00 -0.3231132803085E+01  0.0000000000000E+00
-0.3574999979145E+00 -0.3157615389387E+01  0.0000000000000E+00
-0.3575010922108E+00 -0.3084098002567E+01  0.0000000000000E+00
-0.3575531173181E+00 -0.3010580866809E+01  0.0000000000000E+00
-0.3577541711663E+00 -0.2937066271891E+01  0.0000000000000E+00
-0.3581576997313E+00 -0.2863559587695E+01  0.0000000000000E+00
-0.3587771288178E+00 -0.2790067100603E+01  0.0000000000000E+00
-0.3596080084345E+00 -0.2716594812946E+01  0.0000000000000E+00
-0.3606415987909E+00 -0.2643146234864E+01  0.0000000000000E+00
-0.3618707123261E+00 -0.2569726064901E+01  0.0000000000000E+00
-0.3632920606132E+00 -0.2496339061666E+01  0.0000000000000E+00
-0.3649074836745E+00 -0.2422989996067E+01  0.0000000000000E+00
-0.3667252273405E+00 -0.2349685803919E+01  0.0000000000000E+00
-0.3687613295422E+00 -0.2276436016165E+01  0.0000000000000E+00
-0.3710233055274E+00 -0.2203248992725E+01  0.0000000000000E+00
-0.3735084135808E+00 -0.2130130513310E+01  0.0000000000000E+00
-0.3762203702624E+00 -0.2057088440583E+01  0.0000000000000E+00
-0.3791701637916E+00 -0.1984133466365E+01  0.0000000000000E+00
-0.3823767554850E+00 -0.1911281600769E+01  0.0000000000000E+00
-0.3858682101002E+00 -0.1838554023785E+01  0.0000000000000E+00
-0.3896811831690E+00 -0.1765979519673E+01  0.0000000000000E+00
-0.3938511334433E+00 -0.1693591126069E+01  0.0000000000000E+00
-0.3983651992095E+00 -0.1621398208057E+01  0.0000000000000E+00
-0.4030438042862E+00 -0.1549304059580E+01  0.0000000000000E+00
-0.4076995834137E+00 -0.1477195909044E+01  0.0000000000000E+00
-0.4122677951119E+00 -0.1405034780454E+01  0.0000000000000E+00
-0.4166750601520E+00 -0.1332779095967E+01  0.0000000000000E+00
-0.3299999998610E+00 -0.4186859601281E+01  0.0000000000000E+00
-0.3299999997219E+00 -0.4113342086429E+01  0.0000000000000E+00
-0.3299999995829E+00 -0.4039824684257E+01  0.0000000000000E+00
-0.3299999994439E+00 -0.3966307217550E+01  0.0000000000000E+00
-0.3299999993048E+00 -0.3892789747717E+01  0.0000000000000E+00
-0.3299999991658E+00 -0.3819272288129E+01  0.0000000000000E+00
-0.3299999990268E+00 -0.3745754823288E+01  0.0000000000000E+00
-0.3299999988877E+00 -0.3672237366228E+01  0.0000000000000E+00
-0.3299999987487E+00 -0.3598719903615E+01  0.0000000000000E+00
-0.3299999986096E+00 -0.3525202280347E+01  0.0000000000000E+00
-0.3299999984706E+00 -0.3451684819510E+01  0.0000000000000E+00
-0.3299999983316E+00 -0.3378167379303E+01  0.0000000000000E+00
-0.3299999981925E+00 -0.3304649961005E+01  0.0000000000000E+00
-0.3299999980535E+00 -0.3231132803085E+01  0.0000000000000E+00
-0.3299999979145E+00 -0.3157615389387E+01  0.0000000000000E+00
-0.3300010080234E+00 -0.3084098002567E+01  0.0000000000000E+00
-0.3300490311887E+00 -0.3010580866809E+01  0.0000000000000E+00
-0.3302346193454E+00 -0.2937066271891E+01  0.0000000000000E+00
-0.3306071072407E+00 -0.2863559587695E+01  0.0000000000000E+00
-0.3311788879248E+00 -0.2790067100603E+01  0.0000000000000E+00
-0.3319458537136E+00 -0.2716594812946E+01  0.0000000000000E+00
-0.3328999371082E+00 -0.2643146234864E+01  0.0000000000000E+00
-0.3340345034369E+00 -0.2569726064901E+01  0.0000000000000E+00
-0.3353465172288E+00 -0.2496339061666E+01  0.0000000000000E+00
-0.3368376769660E+00 -0.2422989996067E+01  0.0000000000000E+00
-0.3385155941844E+00 -0.2349685803919E+01  0.0000000000000E+00
-0.3403950731279E+00 -0.2276436016165E+01  0.0000000000000E+00
-0.3424830509484E+00 -0.2203248992725E+01  0.0000000000000E+00
-0.3447769968317E+00 -0.2130130513310E+01  0.0000000000000E+00
-0.3472803414486E+00 -0.2057088440583E+01  0.0000000000000E+00
-0.3500032277708E+00 -0.1984133466365E+01  0.0000000000000E+00
-0.3529631585521E+00 -0.1911281600769E+01  0.0000000000000E+00
-0.3561860397227E+00 -0.1838554023785E+01  0.0000000000000E+00
-0.3597057071579E+00 -0.1765979519673E+01  0.0000000000000E+00
-0.3635548920134E+00 -0.1693591126069E+01  0.0000000000000E+00
-0.3677217219382E+00 -0.1621398208057E+01  0.0000000000000E+00
-0.3720404343031E+00 -0.1549304059580E+01  0.0000000000000E+00
-0.3763380765611E+00 -0.1477195909044E+01  0.0000000000000E+00
-0.3805548873457E+00 -0.1405034780454E+01  0.0000000000000E+00
-0.3846231319842E+00 -0.1332779095967E+01  0.0000000000000E+00
-0.3024999998610E+00 -0.4186859601281E+01  0.0000000000000E+00
-0.3024999997219E+00 -0.4113342086429E+01  0.0000000000000E+00
-0.3024999995829E+00 -0.4039824684257E+01  0.0000000000000E+00
-0.3024999994439E+00 -0.3966307217550E+01  0.0000000000000E+00
-0.3024999993048E+00 -0.3892789747717E+01  0.0000000000000E+00
-0.3024999991658E+00 -0.3819272288129E+01  0.0000000000000E+00
-0.3024999990268E+00 -0.3745754823288E+01  0.0000000000000E+00
-0.3024999988877E+00 -0.3672237366228E+01  0.0000000000000E+00
-0.3024999987487E+00 -0.3598719903615E+01  0.0000000000000E+00
-0.3024999986096E+00 -0.3525202280347E+01  0.0000000000000E+00
-0.3024999984706E+00 -0.3451684819510E+01  0.0000000000000E+00
-0.3024999983316E+00 -0.3378167379303E+01  0.0000000000000E+00
-0.3024999981925E+00 -0.3304649961005E+01  0.0000000000000E+00
-0.3024999980535E+00 -0.3231132803085E+01  0.0000000000000E+00
-0.3024999979145E+00 -0.3157615389387E+01  0.0000000000000E+00
-0.3025009238361E+00 -0.3084098002567E+01  0.0000000000000E+00
-0.3025449450593E+00 -0.3010580866809E+01  0.0000000000000E+00
-0.3027150675246E+00 -0.2937066271891E+01  0.0000000000000E+00
-0.3030565147500E+00 -0.2863559587695E+01  0.0000000000000E+00
-0.3035806470318E+00 -0.2790067100603E+01  0.0000000000000E+00
-0.3042836989927E+00 -0.2716594812946E+01  0.0000000000000E+00
-0.3051582754254E+00 -0.2643146234864E+01  0.0000000000000E+00
-0.3061982945476E+00 -0.2569726064901E+01  0.0000000000000E+00
-0.3074009738444E+00 -0.2496339061666E+01  0.0000000000000E+00
-0.3087678702575E+00 -0.2422989996067E+01  0.0000000000000E+00
-0.3103059610283E+00 -0.2349685803919E+01  0.0000000000000E+00
-0.3120288167136E+00 -0.2276436016165E+01  0.0000000000000E+00
-0.3139427963693E+00 -0.2203248992725E+01  0.0000000000000E+00
-0.3160455800825E+00 -0.2130130513310E+01  0.0000000000000E+00
-0.3183403126348E+00 -0.2057088440583E+01  0.0000000000000E+00
-0.3208362917500E+00 -0.1984133466365E+01  0.0000000000000E+00
-0.3235495616193E+00 -0.1911281600769E+01  0.0000000000000E+00
-0.3265038693452E+00 -0.1838554023785E+01  0.0000000000000E+00
-0.3297302311469E+00 -0.1765979519673E+01  0.0000000000000E+00
-0.3332586505836E+00 -0.1693591126069E+01  0.0000000000000E+00
-0.3370782446668E+00 -0.1621398208057E+01  0.0000000000000E+00
-0.3410370643201E+00 -0.1549304059580E+01  0.0000000000000E+00
-0.3449765697085E+00 -0.1477195909044E+01  0.0000000000000E+00
-0.3488419795795E+00 -0.1405034780454E+01  0.0000000000000E+00
-0.3525712038165E+00 -0.1332779095967E+01  0.0000000000000E+00
-0.2749999998610E+00 -0.4186859601281E+01  0.0000000000000E+00
-0.2749999997219E+00 -0.4113342086429E+01  0.0000000000000E+00
-0.2749999995829E+00 -0.4039824684257E+01  0.0000000000000E+00
-0.2749999994439E+00 -0.3966307217550E+01  0.0000000000000E+00
-0.2749999993048E+00 -0.3892789747717E+01  0.0000000000000E+00
-0.2749999991658E+00 -0.3819272288129E+01  0.0000000000000E+00
-0.2749999990268E+00 -0.3745754823288E+01  0.0000000000000E+00
-0.2749999988877E+00 -0.3672237366228E+01  0.0000000000000E+00
-0.2749999987487E+00 -0.3598719903615E+01  0.0000000000000E+00
-0.2749999986096E+00 -0.3525202280347E+01  0.0000000000000E+00
-0.2749999984706E+00 -0.3451684819510E+01  0.0000000000000E+00
-0.2749999983316E+00 -0.3378167379303E+01  0.0000000000000E+00
-0.2749999981925E+00 -0.3304649961005E+01  0.0000000000000E+00
-0.2749999980535E+00 -0.3231132803085E+01  0.0000000000000E+00
-0.2749999979145E+00 -0.3157615389387E+01  0.0000000000000E+00
-0.2750008396488E+00 -0.3084098002567E+01  0.0000000000000E+00
-0.2750408589299E+00 -0.3010580866809E+01  0.0000000000000E+00
-0.2751955157037E+00 -0.2937066271891E+01  0.0000000000000E+00
-0.2755059222593E+00 -0.2863559587695E+01  0.0000000000000E+00
-0.2759824061388E+00 -0.2790067100603E+01  0.0000000000000E+00
-0.2766215442717E+00 -0.2716594812946E+01  0.0000000000000E+00
-0.2774166137427E+00 -0.2643146234864E+01  0.0000000000000E+00
-0.2783620856584E+00 -0.2569726064901E+01  0.0000000000000E+00
-0.2794554304600E+00 -0.2496339061666E+01  0.0000000000000E+00
-0.2806980635491E+00 -0.2422989996067E+01  0.0000000000000E+00
-0.2820963278721E+00 -0.2349685803919E+01  0.0000000000000E+00
-0.2836625602993E+00 -0.2276436016165E+01  0.0000000000000E+00
-0.2854025417903E+00 -0.2203248992725E+01  0.0000000000000E+00
-0.2873141633334E+00 -0.2130130513310E+01  0.0000000000000E+00
-0.2894002838209E+00 -0.2057088440583E+01  0.0000000000000E+00
-0.2916693557292E+00 -0.1984133466365E+01  0.0000000000000E+00
-0.2941359646865E+00 -0.1911281600769E+01  0.0000000000000E+00
-0.2968216989678E+00 -0.1838554023785E+01  0.0000000000000E+00
-0.2997547551359E+00 -0.1765979519673E+01  0.0000000000000E+00
-0.3029624091537E+00 -0.1693591126069E+01  0.0000000000000E+00
-0.3064347673955E+00 -0.1621398208057E+01  0.0000000000000E+00
-0.3100336943370E+00 -0.1549304059580E+01  0.0000000000000E+00
-0.3136150628558E+00 -0.1477195909044E+01  0.0000000000000E+00
-0.3171290718132E+00 -0.1405034780454E+01  0.0000000000000E+00
-0.3205192756487E+00 -0.1332779095967E+01  0.0000000000000E+00
-0.2474999998610E+00 -0.4186859601281E+01  0.0000000000000E+00
-0.2474999997219E+00 -0.4113342086429E+01  0.0000000000000E+00
-0.2474999995829E+00 -0.4039824684257E+01  0.0000000000000E+00
-0.2474999994439E+00 -0.3966307217550E+01  0.0000000000000E+00
-0.2474999993048E+00 -0.3892789747717E+01  0.0000000000000E+00
-0.2474999991658E+00 -0.3819272288129E+01  0.0000000000000E+00
-0.2474999990268E+00 -0.3745754823288E+01  0.0000000000000E+00
-0.2474999988877E+00 -0.3672237366228E+01  0.0000000000000E+00
-0.2474999987487E+00 -0.3598719903615E+01  0.0000000000000E+00
-0.2474999986096E+00 -0.3525202280347E+01  0.0000000000000E+00
-0.2474999984706E+00 -0.3451684819510E+01  0.0000000000000E+00
-0.2474999983316E+00 -0.3378167379303E+01  0.0000000000000E+00
-0.2474999981925E+00 -0.3304649961005E+01  0.0000000000000E+00
-0.2474999980535E+00 -0.3231132803085E+01  0.0000000000000E+00
-0.2474999979145E+00 -0.3157615389387E+01  0.0000000000000E+00
-0.2475007554614E+00 -0.3084098002567E+01  0.0000000000000E+00
-0.2475367728005E+00 -0.3010580866809E+01  0.0000000000000E+00
-0.2476759638829E+00 -0.2937066271891E+01  0.0000000000000E+00
-0.2479553297687E+00 -0.2863559587695E+01  0.0000000000000E+00
-0.2483841652457E+00 -0.2790067100603E+01  0.0000000000000E+00
-0.2489593895508E+00 -0.2716594812946E+01  0.0000000000000E+00
-0.2496749520599E+00 -0.2643146234864E+01  0.0000000000000E+00
-0.2505258767692E+00 -0.2569726064901E+01  0.0000000000000E+00
-0.2515098870756E+00 -0.2496339061666E+01  0.0000000000000E+00
-0.2526282568406E+00 -0.2422989996067E+01  0.0000000000000E+00
-0.2538866947160E+00 -0.2349685803919E+01  0.0000000000000E+00
-0.2552963038850E+00 -0.2276436016165E+01  0.0000000000000E+00
-0.2568622872113E+00 -0.2203248992725E+01  0.0000000000000E+00
-0.2585827465843E+00 -0.2130130513310E+01  0.0000000000000E+00
-0.2604602550071E+00 -0.2057088440583E+01  0.0000000000000E+00
-0.2625024197084E+00 -0.1984133466365E+01  0.0000000000000E+00
-0.2647223677536E+00 -0.1911281600769E+01  0.0000000000000E+00
-0.2671395285903E+00 -0.1838554023785E+01  0.0000000000000E+00
-0.2697792791248E+00 -0.1765979519673E+01  0.0000000000000E+00
-0.2726661677239E+00 -0.1693591126069E+01  0.0000000000000E+00
-0.2757912901242E+00 -0.1621398208057E+01  0.0000000000000E+00
-0.2790303243540E+00 -0.1549304059580E+01  0.0000000000000E+00
-0.2822535560032E+00 -0.1477195909044E+01  0.0000000000000E+00
-0.2854161640470E+00 -0.1405034780454E+01  0.0000000000000E+00
-0.2884673474810E+00 -0.1332779095967E+01  0.0000000000000E+00
-0.2199999998610E+00 -0.4186859601281E+01  0.0000000000000E+00
-0.2199999997219E+00 -0.4113342086429E+01  0.0000000000000E+00
-0.2199999995829E+00 -0.4039824684257E+01  0.0000000000000E+00
-0.2199999994439E+00 -0.3966307217550E+01  0.0000000000000E+00
-0.2199999993048E+00 -0.3892789747717E+01  0.0000000000000E+00
-0.2199999991658E+00 -0.3819272288129E+01  0.0000000000000E+00
-0.2199999990268E+00 -0.3745754823288E+01  0.0000000000000E+00
-0.2199999988877E+00 -0.3672237366228E+01  0.0000000000000E+00
-0.2199999987487E+00 -0.3598719903615E+01  0.0000000000000E+00
-0.2199999986096E+00 -0.3525202280347E+01  0.0000000000000E+00
-0.2199999984706E+00 -0.3451684819510E+01  0.0000000000000E+00
-0.2199999983316E+00 -0.3378167379303E+01  0.0000000000000E+00
-0.2199999981925E+00 -0.3304649961005E+01  0.0000000000000E+00
-0.2199999980535E+00 -0.3231132803085E+01  0.0000000000000E+00
-0.2199999979145E+00 -0.3157615389387E+01  0.0000000000000E+00
-0.2200006712741E+00 -0.3084098002567E+01  0.0000000000000E+00
-0.2200326866711E+00 -0.3010580866809E+01  0.0000000000000E+00
-0.2201564120620E+00 -0.2937066271891E+01  0.0000000000000E+00
-0.2204047372780E+00 -0.2863559587695E+01  0.0000000000000E+00
-0.2207859243527E+00 -0.2790067100603E+01  0.0000000000000E+00
-0.2212972348299E+00 -0.2716594812946E+01  0.0000000000000E+00
-0.2219332903772E+00 -0.2643146234864E+01  0.0000000000000E+00
-0.2226896678800E+00 -0.2569726064901E+01  0.0000000000000E+00
-0.2235643436911E+00 -0.2496339061666E+01  0.0000000000000E+00
-0.2245584501321E+00 -0.2422989996067E+01  0.0000000000000E+00
-0.2256770615599E+00 -0.2349685803919E+01  0.0000000000000E+00
-0.2269300474707E+00 -0.2276436016165E+01  0.0000000000000E+00
-0.2283220326322E+00 -0.2203248992725E+01  0.0000000000000E+00
-0.2298513298351E+00 -0.2130130513310E+01  0.0000000000000E+00
-0.2315202261932E+00 -0.2057088440583E+01  0.0000000000000E+00
-0.2333354836876E+00 -0.1984133466365E+01  0.0000000000000E+00
-0.2353087708208E+00 -0.1911281600769E+01  0.0000000000000E+00
-0.2374573582128E+00 -0.1838554023785E+01  0.0000000000000E+00
-0.2398038031138E+00 -0.1765979519673E+01  0.0000000000000E+00
-0.2423699262940E+00 -0.1693591126069E+01  0.0000000000000E+00
-0.2451478128528E+00 -0.1621398208057E+01  0.0000000000000E+00
-0.2480269543709E+00 -0.1549304059580E+01  0.0000000000000E+00
-0.2508920491506E+00 -0.1477195909043E+01  0.0000000000000E+00
-0.2537032562807E+00 -0.1405034780454E+01  0.0000000000000E+00
-0.2564154193132E+00 -0.1332779095967E+01  0.0000000000000E+00
-0.1924999998610E+00 -0.4186859601281E+01  0.0000000000000E+00
-0.1924999997219E+00 -0.4113342086429E+01  0.0000000000000E+00
-0.1924999995829E+00 -0.4039824684257E+01  0.0000000000000E+00
-0.1924999994439E+00 -0.3966307217550E+01  0.0000000000000E+00
-0.1924999993048E+00 -0.3892789747717E+01  0.0000000000000E+00
-0.1924999991658E+00 -0.3819272288129E+01  0.0000000000000E+00
-0.1924999990268E+00 -0.3745754823288E+01  0.0000000000000E+00
-0.1924999988877E+00 -0.3672237366228E+01  0.0000000000000E+00
-0.1924999987487E+00 -0.3598719903615E+01  0.0000000000000E+00
-0.1924999986096E+00 -0.3525202280347E+01  0.0000000000000E+00
-0.1924999984706E+00 -0.3451684819510E+01  0.0000000000000E+00
-0.1924999983316E+00 -0.3378167379303E+01  0.0000000000000E+00
-0.1924999981925E+00 -0.3304649961005E+01  0.0000000000000E+00
-0.1924999980535E+00 -0.3231132803085E+01  0.0000000000000E+00
-0.1924999979145E+00 -0.3157615389387E+01  0.0000000000000E+00
-0.1925005870868E+00 -0.3084098002567E+01  0.0000000000000E+00
-0.1925286005417E+00 -0.3010580866809E+01  0.0000000000000E+00
-0.1926368602412E+00 -0.2937066271891E+01  0.0000000000000E+00
-0.1928541447873E+00 -0.2863559587695E+01  0.0000000000000E+00
-0.1931876834597E+00 -0.2790067100603E+01  0.0000000000000E+00
-0.1936350801090E+00 -0.2716594812946E+01  0.0000000000000E+00
-0.1941916286944E+00 -0.2643146234864E+01  0.0000000000000E+00
-0.1948534589908E+00 -0.2569726064901E+01  0.0000000000000E+00
-0.1956188003067E+00 -0.2496339061666E+01  0.0000000000000E+00
-0.1964886434236E+00 -0.2422989996067E+01  0.0000000000000E+00
-0.1974674284038E+00 -0.2349685803919E+01  0.0000000000000E+00
-0.1985637910564E+00 -0.2276436016165E+01  0.0000000000000E+00
-0.1997817780532E+00 -0.2203248992725E+01  0.0000000000000E+00
-0.2011199130860E+00 -0.2130130513310E+01  0.0000000000000E+00
-0.2025801973794E+00 -0.2057088440583E+01  0.0000000000000E+00
-0.2041685476668E+00 -0.1984133466365E+01  0.0000000000000E+00
-0.2058951738880E+00 -0.1911281600769E+01  0.0000000000000E+00
-0.2077751878353E+00 -0.1838554023785E+01  0.0000000000000E+00
-0.2098283271027E+00 -0.1765979519673E+01  0.0000000000000E+00
-0.2120736848642E+00 -0.1693591126068E+01  0.0000000000000E+00
-0.2145043355815E+00 -0.1621398208057E+01  0.0000000000000E+00
-0.2170235843879E+00 -0.1549304059580E+01  0.0000000000000E+00
-0.2195305422979E+00 -0.1477195909043E+01  0.0000000000000E+00
-0.2219903485145E+00 -0.1405034780454E+01  0.0000000000000E+00
-0.2243634911454E+00 -0.1332779095967E+01  0.0000000000000E+00
-0.1649999998610E+00 -0.4186859601281E+01  0.0000000000000E+00
-0.1649999997219E+00 -0.4113342086429E+01  0.0000000000000E+00
-0.1649999995829E+00 -0.4039824684257E+01  0.0000000000000E+00
-0.1649999994439E+00 -0.3966307217550E+01  0.0000000000000E+00
-0.1649999993048E+00 -0.3892789747717E+01  0.0000000000000E+00
-0.1649999991658E+00 -0.3819272288129E+01  0.0000000000000E+00
-0.1649999990268E+00 -0.3745754823288E+01  0.0000000000000E+00
-0.1649999988877E+00 -0.3672237366228E+01  0.0000000000000E+00
-0.1649999987487E+00 -0.3598719903615E+01  0.0000000000000E+00
-0.1649999986096E+00 -0.3525202280347E+01  0.0000000000000E+00
-0.1649999984706E+00 -0.3451684819510E+01  0.0000000000000E+00
-0.1649999983316E+00 -0.3378167379303E+01  0.0000000000000E+00
-0.1649999981925E+00 -0.3304649961005E+01  0.0000000000000E+00
-0.1649999980535E+00 -0.3231132803085E+01  0.0000000000000E+00
-0.1649999979145E+00 -0.3157615389387E+01  0.0000000000000E+00
-0.1650005028994E+00 -0.3084098002567E+01  0.0000000000000E+00
-0.1650245144123E+00 -0.3010580866809E+01  0.0000000000000E+00
-0.1651173084203E+00 -0.2937066271891E+01  0.0000000000000E+00
-0.1653035522967E+00 -0.2863559587695E+01  0.0000000000000E+00
-0.1655894425667E+00 -0.2790067100603E+01  0.0000000000000E+00
-0.1659729253881E+00 -0.2716594812946E+01  0.0000000000000E+00
-0.1664499670117E+00 -0.2643146234864E+01  0.0000000000000E+00
-0.1670172501016E+00 -0.2569726064901E+01  0.0000000000000E+00
-0.1676732569223E+00 -0.2496339061666E+01  0.0000000000000E+00
-0.1684188367151E+00 -0.2422989996067E+01  0.0000000000000E+00
-0.1692577952477E+00 -0.2349685803919E+01  0.0000000000000E+00
-0.1701975346421E+00 -0.2276436016165E+01  0.0000000000000E+00
-0.1712415234742E+00 -0.2203248992725E+01  0.0000000000000E+00
-0.1723884963369E+00 -0.2130130513310E+01  0.0000000000000E+00
-0.1736401685656E+00 -0.2057088440583E+01  0.0000000000000E+00
-0.1750016116460E+00 -0.1984133466365E+01  0.0000000000000E+00
-0.1764815769552E+00 -0.1911281600769E+01  0.0000000000000E+00
-0.1780930174579E+00 -0.1838554023785E+01  0.0000000000000E+00
-0.1798528510917E+00 -0.1765979519673E+01  0.0000000000000E+00
-0.1817774434343E+00 -0.1693591126068E+01  0.0000000000000E+00
-0.1838608583101E+00 -0.1621398208057E+01  0.0000000000000E+00
-0.1860202144048E+00 -0.1549304059580E+01  0.0000000000000E+00
-0.1881690354453E+00 -0.1477195909043E+01  0.0000000000000E+00
-0.1902774407483E+00 -0.1405034780454E+01  0.0000000000000E+00
-0.1923115629777E+00 -0.1332779095967E+01  0.0000000000000E+00
-0.1374999998610E+00 -0.4186859601281E+01  0.0000000000000E+00
-0.1374999997219E+00 -0.4113342086429E+01  0.0000000000000E+00
-0.1374999995829E+00 -0.4039824684257E+01  0.0000000000000E+00
-0.1374999994439E+00 -0.3966307217550E+01  0.0000000000000E+00
-0.1374999993048E+00 -0.3892789747717E+01  0.0000000000000E+00
-0.1374999991658E+00 -0.3819272288129E+01  0.0000000000000E+00
-0.1374999990268E+00 -0.3745754823288E+01  0.0000000000000E+00
-0.1374999988877E+00 -0.3672237366228E+01  0.0000000000000E+00
-0.1374999987487E+00 -0.3598719903615E+01  0.0000000000000E+00
-0.1374999986096E+00 -0.3525202280347E+01  0.0000000000000E+00
-0.1374999984706E+00 -0.3451684819510E+01  0.0000000000000E+00
-0.1374999983316E+00 -0.3378167379303E+01  0.0000000000000E+00
-0.1374999981925E+00 -0.3304649961005E+01  0.0000000000000E+00
-0.1374999980535E+00 -0.3231132803085E+01  0.0000000000000E+00
-0.1374999979145E+00 -0.3157615389387E+01  0.0000000000000E+00
-0.1375004187121E+00 -0.3084098002567E+01  0.0000000000000E+00
-0.1375204282829E+00 -0.3010580866809E+01  0.0000000000000E+00
-0.1375977565995E+00 -0.2937066271891E+01  0.0000000000000E+00
-0.1377529598060E+00 -0.2863559587695E+01  0.0000000000000E+00
-0.1379912016736E+00 -0.2790067100603E+01  0.0000000000000E+00
-0.1383107706672E+00 -0.2716594812946E+01  0.0000000000000E+00
-0.1387083053289E+00 -0.2643146234864E+01  0.0000000000000E+00
-0.1391810412123E+00 -0.2569726064901E+01  0.0000000000000E+00
-0.1397277135379E+00 -0.2496339061666E+01  0.0000000000000E+00
-0.1403490300066E+00 -0.2422989996067E+01  0.0000000000000E+00
-0.1410481620916E+00 -0.2349685803919E+01  0.0000000000000E+00
-0.1418312782278E+00 -0.2276436016165E+01  0.0000000000000E+00
-0.1427012688952E+00 -0.2203248992725E+01  0.0000000000000E+00
-0.1436570795877E+00 -0.2130130513310E+01  0.0000000000000E+00
-0.1447001397517E+00 -0.2057088440583E+01  0.0000000000000E+00
-0.1458346756252E+00 -0.1984133466365E+01  0.0000000000000E+00
-0.1470679800223E+00 -0.1911281600769E+01  0.0000000000000E+00
-0.1484108470804E+00 -0.1838554023785E+01  0.0000000000000E+00
-0.1498773750807E+00 -0.1765979519673E+01  0.0000000000000E+00
-0.1514812020045E+00 -0.1693591126068E+01  0.0000000000000E+00
-0.1532173810388E+00 -0.1621398208057E+01  0.0000000000000E+00
-0.1550168444217E+00 -0.1549304059580E+01  0.0000000000000E+00
-0.1568075285926E+00 -0.1477195909043E+01  0.0000000000000E+00
-0.1585645329820E+00 -0.1405034780454E+01  0.0000000000000E+00
-0.1602596348099E+00 -0.1332779095967E+01  0.0000000000000E+00
-0.1099999998610E+00 -0.4186859601281E+01  0.0000000000000E+00
-0.1099999997219E+00 -0.4113342086429E+01  0.0000000000000E+00
-0.1099999995829E+00 -0.4039824684257E+01  0.0000000000000E+00
-0.1099999994439E+00 -0.3966307217550E+01  0.0000000000000E+00
-0.1099999993048E+00 -0.3892789747717E+01  0.0000000000000E+00
-0.1099999991658E+00 -0.3819272288129E+01  0.0000000000000E+00
-0.1099999990268E+00 -0.3745754823288E+01  0.0000000000000E+00
-0.1099999988877E+00 -0.3672237366228E+01  0.0000000000000E+00
-0.1099999987487E+00 -0.3598719903615E+01  0.0000000000000E+00
-0.1099999986096E+00 -0.3525202280347E+01  0.0000000000000E+00
-0.1099999984706E+00 -0.3451684819510E+01  0.0000000000000E+00
-0.1099999983316E+00 -0.3378167379303E+01  0.0000000000000E+00
-0.1099999981925E+00 -0.3304649961005E+01  0.0000000000000E+00
-0.1099999980535E+00 -0.3231132803085E+01  0.0000000000000E+00
-0.1099999979145E+00 -0.3157615389387E+01  0.0000000000000E+00
-0.1100003345248E+00 -0.3084098002567E+01  0.0000000000000E+00
-0.1100163421535E+00 -0.3010580866809E+01  0.0000000000000E+00
-0.1100782047786E+00 -0.2937066271891E+01  0.0000000000000E+00
-0.1102023673154E+00 -0.2863559587695E+01  0.0000000000000E+00
-0.1103929607806E+00 -0.2790067100603E+01  0.0000000000000E+00
-0.1106486159463E+00 -0.2716594812946E+01  0.0000000000000E+00
-0.1109666436462E+00 -0.2643146234864E+01  0.0000000000000E+00
-0.1113448323231E+00 -0.2569726064901E+01  0.0000000000000E+00
-0.1117821701535E+00 -0.2496339061666E+01  0.0000000000000E+00
-0.1122792232981E+00 -0.2422989996067E+01  0.0000000000000E+00
-0.1128385289355E+00 -0.2349685803919E+01  0.0000000000000E+00
-0.1134650218135E+00 -0.2276436016165E+01  0.0000000000000E+00
-0.1141610143161E+00 -0.2203248992725E+01  0.0000000000000E+00
-0.1149256628386E+00 -0.2130130513310E+01  0.0000000000000E+00
-0.1157601109379E+00 -0.2057088440583E+01  0.0000000000000E+00
-0.1166677396045E+00 -0.1984133466365E+01  0.0000000000000E+00
-0.1176543830895E+00 -0.1911281600769E+01  0.0000000000000E+00
-0.1187286767029E+00 -0.1838554023785E+01  0.0000000000000E+00
-0.1199018990696E+00 -0.1765979519673E+01  0.0000000000000E+00
-0.1211849605746E+00 -0.1693591126068E+01  0.0000000000000E+00
-0.1225739037674E+00 -0.1621398208057E+01  0.0000000000000E+00
-0.1240134744387E+00 -0.1549304059580E+01  0.0000000000000E+00
-0.1254460217400E+00 -0.1477195909043E+01  0.0000000000000E+00
-0.1268516252158E+00 -0.1405034780454E+01  0.0000000000000E+00
-0.1282077066422E+00 -0.1332779095967E+01  0.0000000000000E+00
-0.8249999986096E-01 -0.4186859601281E+01  0.0000000000000E+00
-0.8249999972193E-01 -0.4113342086429E+01  0.0000000000000E+00
-0.8249999958289E-01 -0.4039824684257E+01  0.0000000000000E+00
-0.8249999944386E-01 -0.3966307217550E+01  0.0000000000000E+00
-0.8249999930482E-01 -0.3892789747717E+01  0.0000000000000E+00
-0.8249999916579E-01 -0.3819272288129E+01  0.0000000000000E+00
-0.8249999902675E-01 -0.3745754823288E+01  0.0000000000000E+00
-0.8249999888772E-01 -0.3672237366228E+01  0.0000000000000E+00
-0.8249999874868E-01 -0.3598719903615E+01  0.0000000000000E+00
-0.8249999860965E-01 -0.3525202280347E+01  0.0000000000000E+00
-0.8249999847061E-01 -0.3451684819510E+01  0.0000000000000E+00
-0.8249999833158E-01 -0.3378167379303E+01  0.0000000000000E+00
-0.8249999819254E-01 -0.3304649961005E+01  0.0000000000000E+00
-0.8249999805351E-01 -0.3231132803085E+01  0.0000000000000E+00
-0.8249999791447E-01 -0.3157615389387E+01  0.0000000000000E+00
-0.8250025033743E-01 -0.3084098002567E+01  0.0000000000000E+00
-0.8251225602412E-01 -0.3010580866809E+01  0.0000000000000E+00
-0.8255865295774E-01 -0.2937066271891E+01  0.0000000000000E+00
-0.8265177482469E-01 -0.2863559587695E+01  0.0000000000000E+00
-0.8279471988758E-01 -0.2790067100603E+01  0.0000000000000E+00
-0.8298646122536E-01 -0.2716594812946E+01  0.0000000000000E+00
-0.8322498196343E-01 -0.2643146234864E+01  0.0000000000000E+00
-0.8350862343391E-01 -0.2569726064901E+01  0.0000000000000E+00
-0.8383662676914E-01 -0.2496339061666E+01  0.0000000000000E+00
-0.8420941658965E-01 -0.2422989996067E+01  0.0000000000000E+00
-0.8462889577935E-01 -0.2349685803919E+01  0.0000000000000E+00
-0.8509876539922E-01 -0.2276436016165E+01  0.0000000000000E+00
-0.8562075973709E-01 -0.2203248992725E+01  0.0000000000000E+00
-0.8619424608948E-01 -0.2130130513310E+01  0.0000000000000E+00
-0.8682008212406E-01 -0.2057088440583E+01  0.0000000000000E+00
-0.8750080358367E-01 -0.1984133466365E+01  0.0000000000000E+00
-0.8824078615667E-01 -0.1911281600769E+01  0.0000000000000E+00
-0.8904650632544E-01 -0.1838554023785E+01  0.0000000000000E+00
-0.8992642305859E-01 -0.1765979519673E+01  0.0000000000000E+00
-0.9088871914477E-01 -0.1693591126068E+01  0.0000000000000E+00
-0.9193042649611E-01 -0.1621398208057E+01  0.0000000000000E+00
-0.9301010445562E-01 -0.1549304059580E+01  0.0000000000000E+00
-0.9408451488737E-01 -0.1477195909043E+01  0.0000000000000E+00
-0.9513871744955E-01 -0.1405034780453E+01  0.0000000000000E+00
-0.9615577847440E-01 -0.1332779095967E+01  0.0000000000000E+00
-0.5499999986096E-01 -0.4186859601281E+01  0.0000000000000E+00
-0.5499999972193E-01 -0.4113342086429E+01  0.0000000000000E+00
-0.5499999958289E-01 -0.4039824684257E+01  0.0000000000000E+00
-0.5499999944386E-01 -0.3966307217550E+01  0.0000000000000E+00
-0.5499999930482E-01 -0.3892789747717E+01  0.0000000000000E+00
-0.5499999916579E-01 -0.3819272288129E+01  0.0000000000000E+00
-0.5499999902675E-01 -0.3745754823288E+01  0.0000000000000E+00
-0.5499999888772E-01 -0.3672237366228E+01  0.0000000000000E+00
-0.5499999874868E-01 -0.3598719903615E+01  0.0000000000000E+00
-0.5499999860965E-01 -0.3525202280347E+01  0.0000000000000E+00
-0.5499999847061E-01 -0.3451684819509E+01  0.0000000000000E+00
-0.5499999833158E-01 -0.3378167379303E+01  0.0000000000000E+00
-0.5499999819254E-01 -0.3304649961005E+01  0.0000000000000E+00
-0.5499999805351E-01 -0.3231132803085E+01  0.0000000000000E+00
-0.5499999791447E-01 -0.3157615389387E+01  0.0000000000000E+00
-0.5500016615009E-01 -0.3084098002567E+01  0.0000000000000E+00
-0.5500816989472E-01 -0.3010580866809E+01  0.0000000000000E+00
-0.5503910113688E-01 -0.2937066271891E+01  0.0000000000000E+00
-0.5510118233403E-01 -0.2863559587695E+01  0.0000000000000E+00
-0.5519647899455E-01 -0.2790067100603E+01  0.0000000000000E+00
-0.5532430650444E-01 -0.2716594812945E+01  0.0000000000000E+00
-0.5548332028068E-01 -0.2643146234864E+01  0.0000000000000E+00
-0.5567241454470E-01 -0.2569726064901E+01  0.0000000000000E+00
-0.5589108338473E-01 -0.2496339061666E+01  0.0000000000000E+00
-0.5613960988116E-01 -0.2422989996067E+01  0.0000000000000E+00
-0.5641926262324E-01 -0.2349685803919E+01  0.0000000000000E+00
-0.5673250898492E-01 -0.2276436016165E+01  0.0000000000000E+00
-0.5708050515806E-01 -0.2203248992725E+01  0.0000000000000E+00
-0.5746282934035E-01 -0.2130130513310E+01  0.0000000000000E+00
-0.5788005331022E-01 -0.2057088440583E+01  0.0000000000000E+00
-0.5833386756287E-01 -0.1984133466365E+01  0.0000000000000E+00
-0.5882718922384E-01 -0.1911281600769E+01  0.0000000000000E+00
-0.5936433594797E-01 -0.1838554023785E+01  0.0000000000000E+00
-0.5995094704755E-01 -0.1765979519673E+01  0.0000000000000E+00
-0.6059247771492E-01 -0.1693591126068E+01  0.0000000000000E+00
-0.6128694922477E-01 -0.1621398208057E+01  0.0000000000000E+00
-0.6200673447256E-01 -0.1549304059580E+01  0.0000000000000E+00
-0.6272300803474E-01 -0.1477195909043E+01  0.0000000000000E+00
-0.6342580968331E-01 -0.1405034780453E+01  0.0000000000000E+00
-0.6410385030664E-01 -0.1332779095967E+01  0.0000000000000E+00
-0.2749999986096E-01 -0.4186859601281E+01  0.0000000000000E+00
-0.2749999972193E-01 -0.4113342086429E+01  0.0000000000000E+00
-0.2749999958289E-01 -0.4039824684257E+01  0.0000000000000E+00
-0.2749999944386E-01 -0.3966307217550E+01  0.0000000000000E+00
-0.2749999930482E-01 -0.3892789747717E+01  0.0000000000000E+00
-0.2749999916579E-01 -0.3819272288128E+01  0.0000000000000E+00
-0.2749999902675E-01 -0.3745754823288E+01  0.0000000000000E+00
-0.2749999888772E-01 -0.3672237366228E+01  0.0000000000000E+00
-0.2749999874868E-01 -0.3598719903615E+01  0.0000000000000E+00
-0.2749999860965E-01 -0.3525202280347E+01  0.0000000000000E+00
-0.2749999847061E-01 -0.3451684819509E+01  0.0000000000000E+00
-0.2749999833158E-01 -0.3378167379303E+01  0.0000000000000E+00
-0.2749999819254E-01 -0.3304649961005E+01  0.0000000000000E+00
-0.2749999805351E-01 -0.3231132803085E+01  0.0000000000000E+00
-0.2749999791447E-01 -0.3157615389387E+01  0.0000000000000E+00
-0.2750008196276E-01 -0.3084098002567E+01  0.0000000000000E+00
-0.2750408376533E-01 -0.3010580866809E+01  0.0000000000000E+00
-0.2751954931602E-01 -0.2937066271891E+01  0.0000000000000E+00
-0.2755058984337E-01 -0.2863559587695E+01  0.0000000000000E+00
-0.2759823810152E-01 -0.2790067100603E+01  0.0000000000000E+00
-0.2766215178353E-01 -0.2716594812945E+01  0.0000000000000E+00
-0.2774165859793E-01 -0.2643146234864E+01  0.0000000000000E+00
-0.2783620565548E-01 -0.2569726064901E+01  0.0000000000000E+00
-0.2794554000033E-01 -0.2496339061666E+01  0.0000000000000E+00
-0.2806980317267E-01 -0.2422989996067E+01  0.0000000000000E+00
-0.2820962946712E-01 -0.2349685803919E+01  0.0000000000000E+00
-0.2836625257062E-01 -0.2276436016165E+01  0.0000000000000E+00
-0.2854025057903E-01 -0.2203248992725E+01  0.0000000000000E+00
-0.2873141259122E-01 -0.2130130513310E+01  0.0000000000000E+00
-0.2894002449638E-01 -0.2057088440583E+01  0.0000000000000E+00
-0.2916693154208E-01 -0.1984133466365E+01  0.0000000000000E+00
-0.2941359229101E-01 -0.1911281600769E+01  0.0000000000000E+00
-0.2968216557049E-01 -0.1838554023784E+01  0.0000000000000E+00
-0.2997547103652E-01 -0.1765979519673E+01  0.0000000000000E+00
-0.3029623628508E-01 -0.1693591126068E+01  0.0000000000000E+00
-0.3064347195342E-01 -0.1621398208057E+01  0.0000000000000E+00
-0.3100336448950E-01 -0.1549304059580E+01  0.0000000000000E+00
-0.3136150118210E-01 -0.1477195909043E+01  0.0000000000000E+00
-0.3171290191707E-01 -0.1405034780453E+01  0.0000000000000E+00
-0.3205192213889E-01 -0.1332779095967E+01  0.0000000000000E+00
 0.1390354743131E-09 -0.4186859601281E+01  0.0000000000000E+00
 0.2780705505956E-09 -0.4113342086429E+01  0.0000000000000E+00
 0.4171060575715E-09 -0.4039824684257E+01  0.0000000000000E+00
 0.5561412602524E-09 -0.3966307217550E+01  0.0000000000000E+00
 0.6951766705972E-09 -0.3892789747717E+01  0.0000000000000E+00
 0.8342121431180E-09 -0.3819272288128E+01  0.0000000000000E+00
 0.9732474182843E-09 -0.3745754823288E+01  0.0000000000000E+00
 0.1112282802333E-08 -0.3672237366228E+01  0.0000000000000E+00
 0.1251318294960E-08 -0.3598719903615E+01  0.0000000000000E+00
 0.1390353813009E-08 -0.3525202280347E+01  0.0000000000000E+00
 0.1529389163202E-08 -0.3451684819509E+01  0.0000000000000E+00
 0.1668424554188E-08 -0.3378167379303E+01  0.0000000000000E+00
 0.1807459650274E-08 -0.3304649961005E+01  0.0000000000000E+00
 0.1946494376859E-08 -0.3231132803085E+01  0.0000000000000E+00
 0.2085529741028E-08 -0.3157615389387E+01  0.0000000000000E+00
 0.2224574625698E-08 -0.3084098002567E+01  0.0000000000000E+00
 0.2364064634836E-08 -0.3010580866809E+01  0.0000000000000E+00
 0.2504833556286E-08 -0.2937066271891E+01  0.0000000000000E+00
 0.2647292734782E-08 -0.2863559587695E+01  0.0000000000000E+00
 0.2791501958223E-08 -0.2790067100603E+01  0.0000000000000E+00
 0.2937379100042E-08 -0.2716594812945E+01  0.0000000000000E+00
 0.3084818653443E-08 -0.2643146234864E+01  0.0000000000000E+00
 0.3233734531287E-08 -0.2569726064901E+01  0.0000000000000E+00
 0.3384071636922E-08 -0.2496339061666E+01  0.0000000000000E+00
 0.3535814743461E-08 -0.2422989996067E+01  0.0000000000000E+00
 0.3688988805617E-08 -0.2349685803919E+01  0.0000000000000E+00
 0.3843683676532E-08 -0.2276436016165E+01  0.0000000000000E+00
 0.3999997810813E-08 -0.2203248992725E+01  0.0000000000000E+00
 0.4157914882495E-08 -0.2130130513310E+01  0.0000000000000E+00
 0.4317456570341E-08 -0.2057088440583E+01  0.0000000000000E+00
 0.4478710343982E-08 -0.1984133466365E+01  0.0000000000000E+00
 0.4641815539791E-08 -0.1911281600769E+01  0.0000000000000E+00
 0.4806982281144E-08 -0.1838554023784E+01  0.0000000000000E+00
 0.4974521798449E-08 -0.1765979519673E+01  0.0000000000000E+00
 0.5144772820396E-08 -0.1693591126068E+01  0.0000000000000E+00
 0.5317917718960E-08 -0.1621398208057E+01  0.0000000000000E+00
 0.5493560806702E-08 -0.1549304059580E+01  0.0000000000000E+00
 0.5670536855295E-08 -0.1477195909043E+01  0.0000000000000E+00
 0.5849166081565E-08 -0.1405034780453E+01  0.0000000000000E+00
 0.6028873484876E-08 -0.1332779095967E+01  0.0000000000000E+00
 0.2750000013904E-01 -0.4186859601281E+01  0.0000000000000E+00
 0.2750000027807E-01 -0.4113342086429E+01  0.0000000000000E+00
 0.2750000041711E-01 -0.4039824684257E+01  0.0000000000000E+00
 0.2750000055614E-01 -0.3966307217550E+01  0.0000000000000E+00
 0.2750000069518E-01 -0.3892789747717E+01  0.0000000000000E+00
 0.2750000083421E-01 -0.3819272288128E+01  0.0000000000000E+00
 0.2750000097325E-01 -0.3745754823288E+01  0.0000000000000E+00
 0.2750000111228E-01 -0.3672237366228E+01  0.0000000000000E+00
 0.2750000125132E-01 -0.3598719903615E+01  0.0000000000000E+00
 0.2750000139035E-01 -0.3525202280347E+01  0.0000000000000E+00
 0.2750000152939E-01 -0.3451684819509E+01  0.0000000000000E+00
 0.2750000166842E-01 -0.3378167379303E+01  0.0000000000000E+00
 0.2750000180746E-01 -0.3304649961005E+01  0.0000000000000E+00
 0.2750000194649E-01 -0.3231132803085E+01  0.0000000000000E+00
 0.2750000208553E-01 -0.3157615389387E+01  0.0000000000000E+00
 0.2750008641191E-01 -0.3084098002567E+01  0.0000000000000E+00
 0.2750408849346E-01 -0.3010580866809E+01  0.0000000000000E+00
 0.2751955432569E-01 -0.2937066271891E+01  0.0000000000000E+00
 0.2755059513795E-01 -0.2863559587695E+01  0.0000000000000E+00
 0.2759824368453E-01 -0.2790067100603E+01  0.0000000000000E+00
 0.2766215765829E-01 -0.2716594812945E+01  0.0000000000000E+00
 0.2774166476757E-01 -0.2643146234864E+01  0.0000000000000E+00
 0.2783621212295E-01 -0.2569726064901E+01  0.0000000000000E+00
 0.2794554676847E-01 -0.2496339061666E+01  0.0000000000000E+00
 0.2806981024430E-01 -0.2422989996067E+01  0.0000000000000E+00
 0.2820963684510E-01 -0.2349685803919E+01  0.0000000000000E+00
 0.2836626025798E-01 -0.2276436016165E+01  0.0000000000000E+00
 0.2854025857903E-01 -0.2203248992725E+01  0.0000000000000E+00
 0.2873142090705E-01 -0.2130130513310E+01  0.0000000000000E+00
 0.2894003313129E-01 -0.2057088440583E+01  0.0000000000000E+00
 0.2916694049950E-01 -0.1984133466365E+01  0.0000000000000E+00
 0.2941360157464E-01 -0.1911281600769E+01  0.0000000000000E+00
 0.2968217518446E-01 -0.1838554023784E+01  0.0000000000000E+00
 0.2997548098556E-01 -0.1765979519673E+01  0.0000000000000E+00
 0.3029624657462E-01 -0.1693591126068E+01  0.0000000000000E+00
 0.3064348258926E-01 -0.1621398208057E+01  0.0000000000000E+00
 0.3100337547662E-01 -0.1549304059580E+01  0.0000000000000E+00
 0.3136151252317E-01 -0.1477195909043E+01  0.0000000000000E+00
 0.3171291361540E-01 -0.1405034780453E+01  0.0000000000000E+00
 0.3205193419663E-01 -0.1332779095967E+01  0.0000000000000E+00
 0.5500000013904E-01 -0.4186859601281E+01  0.0000000000000E+00
 0.5500000027807E-01 -0.4113342086429E+01  0.0000000000000E+00
 0.5500000041711E-01 -0.4039824684257E+01  0.0000000000000E+00
 0.5500000055614E-01 -0.3966307217550E+01  0.0000000000000E+00
 0.5500000069518E-01 -0.3892789747717E+01  0.0000000000000E+00
 0.5500000083421E-01 -0.3819272288128E+01  0.0000000000000E+00
 0.5500000097325E-01 -0.3745754823288E+01  0.0000000000000E+00
 0.5500000111228E-01 -0.3672237366228E+01  0.0000000000000E+00
 0.5500000125132E-01 -0.3598719903615E+01  0.0000000000000E+00
 0.5500000139035E-01 -0.3525202280347E+01  0.0000000000000E+00
 0.5500000152939E-01 -0.3451684819509E+01  0.0000000000000E+00
 0.5500000166842E-01 -0.3378167379303E+01  0.0000000000000E+00
 0.5500000180746E-01 -0.3304649961005E+01  0.0000000000000E+00
 0.5500000194649E-01 -0.3231132803085E+01  0.0000000000000E+00
 0.5500000208553E-01 -0.3157615389387E+01  0.0000000000000E+00
 0.5500017059924E-01 -0.3084098002567E+01  0.0000000000000E+00
 0.5500817462285E-01 -0.3010580866809E+01  0.0000000000000E+00
 0.5503910614655E-01 -0.2937066271891E+01  0.0000000000000E+00
 0.5510118762862E-01 -0.2863559587695E+01  0.0000000000000E+00
 0.5519648457755E-01 -0.2790067100603E+01  0.0000000000000E+00
 0.5532431237920E-01 -0.2716594812945E+01  0.0000000000000E+00
 0.5548332645032E-01 -0.2643146234864E+01  0.0000000000000E+00
 0.5567242101217E-01 -0.2569726064901E+01  0.0000000000000E+00
 0.5589109015288E-01 -0.2496339061666E+01  0.0000000000000E+00
 0.5613961695279E-01 -0.2422989996067E+01  0.0000000000000E+00
 0.5641927000122E-01 -0.2349685803919E+01  0.0000000000000E+00
 0.5673251667228E-01 -0.2276436016165E+01  0.0000000000000E+00
 0.5708051315806E-01 -0.2203248992725E+01  0.0000000000000E+00
 0.5746283765618E-01 -0.2130130513310E+01  0.0000000000000E+00
 0.5788006194513E-01 -0.2057088440583E+01  0.0000000000000E+00
 0.5833387652029E-01 -0.1984133466365E+01  0.0000000000000E+00
 0.5882719850747E-01 -0.1911281600769E+01  0.0000000000000E+00
 0.5936434556193E-01 -0.1838554023784E+01  0.0000000000000E+00
 0.5995095699660E-01 -0.1765979519672E+01  0.0000000000000E+00
 0.6059248800447E-01 -0.1693591126068E+01  0.0000000000000E+00
 0.6128695986060E-01 -0.1621398208056E+01  0.0000000000000E+00
 0.6200674545968E-01 -0.1549304059580E+01  0.0000000000000E+00
 0.6272301937581E-01 -0.1477195909043E+01  0.0000000000000E+00
 0.6342582138164E-01 -0.1405034780453E+01  0.0000000000000E+00
 0.6410386236439E-01 -0.1332779095967E+01  0.0000000000000E+00
 0.8250000013904E-01 -0.4186859601281E+01  0.0000000000000E+00
 0.8250000027807E-01 -0.4113342086429E+01  0.0000000000000E+00
 0.8250000041711E-01 -0.4039824684257E+01  0.0000000000000E+00
 0.8250000055614E-01 -0.3966307217550E+01  0.0000000000000E+00
 0.8250000069518E-01 -0.3892789747717E+01  0.0000000000000E+00
 0.8250000083421E-01 -0.3819272288128E+01  0.0000000000000E+00
 0.8250000097325E-01 -0.3745754823288E+01  0.0000000000000E+00
 0.8250000111228E-01 -0.3672237366228E+01  0.0000000000000E+00
 0.8250000125132E-01 -0.3598719903615E+01  0.0000000000000E+00
 0.8250000139035E-01 -0.3525202280347E+01  0.0000000000000E+00
 0.8250000152939E-01 -0.3451684819509E+01  0.0000000000000E+00
 0.8250000166842E-01 -0.3378167379303E+01  0.0000000000000E+00
 0.8250000180746E-01 -0.3304649961005E+01  0.0000000000000E+00
 0.8250000194649E-01 -0.3231132803085E+01  0.0000000000000E+00
 0.8250000208553E-01 -0.3157615389387E+01  0.0000000000000E+00
 0.8250025478658E-01 -0.3084098002567E+01  0.0000000000000E+00
 0.8251226075225E-01 -0.3010580866809E+01  0.0000000000000E+00
 0.8255865796740E-01 -0.2937066271891E+01  0.0000000000000E+00
 0.8265178011928E-01 -0.2863559587695E+01  0.0000000000000E+00
 0.8279472547058E-01 -0.2790067100603E+01  0.0000000000000E+00
 0.8298646710011E-01 -0.2716594812945E+01  0.0000000000000E+00
 0.8322498813306E-01 -0.2643146234864E+01  0.0000000000000E+00
 0.8350862990138E-01 -0.2569726064901E+01  0.0000000000000E+00
 0.8383663353728E-01 -0.2496339061666E+01  0.0000000000000E+00
 0.8420942366128E-01 -0.2422989996067E+01  0.0000000000000E+00
 0.8462890315733E-01 -0.2349685803919E+01  0.0000000000000E+00
 0.8509877308658E-01 -0.2276436016165E+01  0.0000000000000E+00
 0.8562076773709E-01 -0.2203248992725E+01  0.0000000000000E+00
 0.8619425440531E-01 -0.2130130513310E+01  0.0000000000000E+00
 0.8682009075897E-01 -0.2057088440583E+01  0.0000000000000E+00
 0.8750081254109E-01 -0.1984133466365E+01  0.0000000000000E+00
 0.8824079544030E-01 -0.1911281600769E+01  0.0000000000000E+00
 0.8904651593941E-01 -0.1838554023784E+01  0.0000000000000E+00
 0.8992643300764E-01 -0.1765979519672E+01  0.0000000000000E+00
 0.9088872943432E-01 -0.1693591126068E+01  0.0000000000000E+00
 0.9193043713194E-01 -0.1621398208056E+01  0.0000000000000E+00
 0.9301011544274E-01 -0.1549304059579E+01  0.0000000000000E+00
 0.9408452622845E-01 -0.1477195909043E+01  0.0000000000000E+00
 0.9513872914788E-01 -0.1405034780453E+01  0.0000000000000E+00
 0.9615579053215E-01 -0.1332779095967E+01  0.0000000000000E+00
 0.1100000001390E+00 -0.4186859601281E+01  0.0000000000000E+00
 0.1100000002781E+00 -0.4113342086429E+01  0.0000000000000E+00
 0.1100000004171E+00 -0.4039824684257E+01  0.0000000000000E+00
 0.1100000005561E+00 -0.3966307217550E+01  0.0000000000000E+00
 0.1100000006952E+00 -0.3892789747717E+01  0.0000000000000E+00
 0.1100000008342E+00 -0.3819272288128E+01  0.0000000000000E+00
 0.1100000009732E+00 -0.3745754823288E+01  0.0000000000000E+00
 0.1100000011123E+00 -0.3672237366228E+01  0.0000000000000E+00
 0.1100000012513E+00 -0.3598719903615E+01  0.0000000000000E+00
 0.1100000013904E+00 -0.3525202280347E+01  0.0000000000000E+00
 0.1100000015294E+00 -0.3451684819509E+01  0.0000000000000E+00
 0.1100000016684E+00 -0.3378167379303E+01  0.0000000000000E+00
 0.1100000018075E+00 -0.3304649961005E+01  0.0000000000000E+00
 0.1100000019465E+00 -0.3231132803085E+01  0.0000000000000E+00
 0.1100000020855E+00 -0.3157615389387E+01  0.0000000000000E+00
 0.1100003389739E+00 -0.3084098002567E+01  0.0000000000000E+00
 0.1100163468816E+00 -0.3010580866809E+01  0.0000000000000E+00
 0.1100782097883E+00 -0.2937066271891E+01  0.0000000000000E+00
 0.1102023726099E+00 -0.2863559587695E+01  0.0000000000000E+00
 0.1103929663636E+00 -0.2790067100603E+01  0.0000000000000E+00
 0.1106486218210E+00 -0.2716594812945E+01  0.0000000000000E+00
 0.1109666498158E+00 -0.2643146234864E+01  0.0000000000000E+00
 0.1113448387906E+00 -0.2569726064901E+01  0.0000000000000E+00
 0.1117821769217E+00 -0.2496339061666E+01  0.0000000000000E+00
 0.1122792303698E+00 -0.2422989996067E+01  0.0000000000000E+00
 0.1128385363134E+00 -0.2349685803919E+01  0.0000000000000E+00
 0.1134650295009E+00 -0.2276436016165E+01  0.0000000000000E+00
 0.1141610223161E+00 -0.2203248992725E+01  0.0000000000000E+00
 0.1149256711544E+00 -0.2130130513310E+01  0.0000000000000E+00
 0.1157601195728E+00 -0.2057088440583E+01  0.0000000000000E+00
 0.1166677485619E+00 -0.1984133466365E+01  0.0000000000000E+00
 0.1176543923731E+00 -0.1911281600769E+01  0.0000000000000E+00
 0.1187286863169E+00 -0.1838554023784E+01  0.0000000000000E+00
 0.1199019090187E+00 -0.1765979519672E+01  0.0000000000000E+00
 0.1211849708642E+00 -0.1693591126068E+01  0.0000000000000E+00
 0.1225739144033E+00 -0.1621398208056E+01  0.0000000000000E+00
 0.1240134854258E+00 -0.1549304059579E+01  0.0000000000000E+00
 0.1254460330811E+00 -0.1477195909043E+01  0.0000000000000E+00
 0.1268516369141E+00 -0.1405034780453E+01  0.0000000000000E+00
 0.1282077186999E+00 -0.1332779095967E+01  0.0000000000000E+00
 0.1375000001390E+00 -0.4186859601281E+01  0.0000000000000E+00
 0.1375000002781E+00 -0.4113342086429E+01  0.0000000000000E+00
 0.1375000004171E+00 -0.4039824684257E+01  0.0000000000000E+00
 0.1375000005561E+00 -0.3966307217550E+01  0.0000000000000E+00
 0.1375000006952E+00 -0.3892789747717E+01  0.0000000000000E+00
 0.1375000008342E+00 -0.3819272288128E+01  0.0000000000000E+00
 0.1375000009732E+00 -0.3745754823288E+01  0.0000000000000E+00
 0.1375000011123E+00 -0.3672237366228E+01  0.0000000000000E+00
 0.1375000012513E+00 -0.3598719903615E+01  0.0000000000000E+00
 0.1375000013904E+00 -0.3525202280347E+01  0.0000000000000E+00
 0.1375000015294E+00 -0.3451684819509E+01  0.0000000000000E+00
 0.1375000016684E+00 -0.3378167379303E+01  0.0000000000000E+00
 0.1375000018075E+00 -0.3304649961005E+01  0.0000000000000E+00
 0.1375000019465E+00 -0.3231132803085E+01  0.0000000000000E+00
 0.1375000020855E+00 -0.3157615389387E+01  0.0000000000000E+00
 0.1375004231612E+00 -0.3084098002567E+01  0.0000000000000E+00
 0.1375204330110E+00 -0.3010580866809E+01  0.0000000000000E+00
 0.1375977616091E+00 -0.2937066271891E+01  0.0000000000000E+00
 0.1377529651006E+00 -0.2863559587695E+01  0.0000000000000E+00
 0.1379912072566E+00 -0.2790067100603E+01  0.0000000000000E+00
 0.1383107765419E+00 -0.2716594812945E+01  0.0000000000000E+00
 0.1387083114986E+00 -0.2643146234864E+01  0.0000000000000E+00
 0.1391810476798E+00 -0.2569726064901E+01  0.0000000000000E+00
 0.1397277203061E+00 -0.2496339061666E+01  0.0000000000000E+00
 0.1403490370782E+00 -0.2422989996067E+01  0.0000000000000E+00
 0.1410481694696E+00 -0.2349685803919E+01  0.0000000000000E+00
 0.1418312859152E+00 -0.2276436016165E+01  0.0000000000000E+00
 0.1427012768951E+00 -0.2203248992725E+01  0.0000000000000E+00
 0.1436570879036E+00 -0.2130130513310E+01  0.0000000000000E+00
 0.1447001483866E+00 -0.2057088440583E+01  0.0000000000000E+00
 0.1458346845827E+00 -0.1984133466365E+01  0.0000000000000E+00
 0.1470679893060E+00 -0.1911281600769E+01  0.0000000000000E+00
 0.1484108566944E+00 -0.1838554023784E+01  0.0000000000000E+00
 0.1498773850297E+00 -0.1765979519672E+01  0.0000000000000E+00
 0.1514812122940E+00 -0.1693591126068E+01  0.0000000000000E+00
 0.1532173916746E+00 -0.1621398208056E+01  0.0000000000000E+00
 0.1550168554089E+00 -0.1549304059579E+01  0.0000000000000E+00
 0.1568075399337E+00 -0.1477195909043E+01  0.0000000000000E+00
 0.1585645446804E+00 -0.1405034780453E+01  0.0000000000000E+00
 0.1602596468677E+00 -0.1332779095967E+01  0.0000000000000E+00
 0.1650000001390E+00 -0.4186859601281E+01  0.0000000000000E+00
 0.1650000002781E+00 -0.4113342086429E+01  0.0000000000000E+00
 0.1650000004171E+00 -0.4039824684257E+01  0.0000000000000E+00
 0.1650000005561E+00 -0.3966307217550E+01  0.0000000000000E+00
 0.1650000006952E+00 -0.3892789747717E+01  0.0000000000000E+00
 0.1650000008342E+00 -0.3819272288128E+01  0.0000000000000E+00
 0.1650000009732E+00 -0.3745754823288E+01  0.0000000000000E+00
 0.1650000011123E+00 -0.3672237366228E+01  0.0000000000000E+00
 0.1650000012513E+00 -0.3598719903615E+01  0.0000000000000E+00
 0.1650000013904E+00 -0.3525202280347E+01  0.0000000000000E+00
 0.1650000015294E+00 -0.3451684819509E+01  0.0000000000000E+00
 0.1650000016684E+00 -0.3378167379303E+01  0.0000000000000E+00
 0.1650000018075E+00 -0.3304649961005E+01  0.0000000000000E+00
 0.1650000019465E+00 -0.3231132803084E+01  0.0000000000000E+00
 0.1650000020855E+00 -0.3157615389387E+01  0.0000000000000E+00
 0.1650005073486E+00 -0.3084098002567E+01  0.0000000000000E+00
 0.1650245191404E+00 -0.3010580866809E+01  0.0000000000000E+00
 0.1651173134300E+00 -0.2937066271891E+01  0.0000000000000E+00
 0.1653035575913E+00 -0.2863559587695E+01  0.0000000000000E+00
 0.1655894481497E+00 -0.2790067100603E+01  0.0000000000000E+00
 0.1659729312628E+00 -0.2716594812945E+01  0.0000000000000E+00
 0.1664499731813E+00 -0.2643146234864E+01  0.0000000000000E+00
 0.1670172565690E+00 -0.2569726064901E+01  0.0000000000000E+00
 0.1676732636905E+00 -0.2496339061666E+01  0.0000000000000E+00
 0.1684188437867E+00 -0.2422989996067E+01  0.0000000000000E+00
 0.1692578026257E+00 -0.2349685803919E+01  0.0000000000000E+00
 0.1701975423295E+00 -0.2276436016165E+01  0.0000000000000E+00
 0.1712415314742E+00 -0.2203248992725E+01  0.0000000000000E+00
 0.1723885046527E+00 -0.2130130513310E+01  0.0000000000000E+00
 0.1736401772005E+00 -0.2057088440583E+01  0.0000000000000E+00
 0.1750016206035E+00 -0.1984133466365E+01  0.0000000000000E+00
 0.1764815862388E+00 -0.1911281600769E+01  0.0000000000000E+00
 0.1780930270718E+00 -0.1838554023784E+01  0.0000000000000E+00
 0.1798528610408E+00 -0.1765979519672E+01  0.0000000000000E+00
 0.1817774537239E+00 -0.1693591126068E+01  0.0000000000000E+00
 0.1838608689460E+00 -0.1621398208056E+01  0.0000000000000E+00
 0.1860202253919E+00 -0.1549304059579E+01  0.0000000000000E+00
 0.1881690467864E+00 -0.1477195909043E+01  0.0000000000000E+00
 0.1902774524466E+00 -0.1405034780453E+01  0.0000000000000E+00
 0.1923115750354E+00 -0.1332779095967E+01  0.0000000000000E+00
 0.1925000001390E+00 -0.4186859601281E+01  0.0000000000000E+00
 0.1925000002781E+00 -0.4113342086429E+01  0.0000000000000E+00
 0.1925000004171E+00 -0.4039824684257E+01  0.0000000000000E+00
 0.1925000005561E+00 -0.3966307217550E+01  0.0000000000000E+00
 0.1925000006952E+00 -0.3892789747717E+01  0.0000000000000E+00
 0.1925000008342E+00 -0.3819272288128E+01  0.0000000000000E+00
 0.1925000009732E+00 -0.3745754823288E+01  0.0000000000000E+00
 0.1925000011123E+00 -0.3672237366228E+01  0.0000000000000E+00
 0.1925000012513E+00 -0.3598719903615E+01  0.0000000000000E+00
 0.1925000013904E+00 -0.3525202280347E+01  0.0000000000000E+00
 0.1925000015294E+00 -0.3451684819509E+01  0.0000000000000E+00
 0.1925000016684E+00 -0.3378167379303E+01  0.0000000000000E+00
 0.1925000018075E+00 -0.3304649961005E+01  0.0000000000000E+00
 0.1925000019465E+00 -0.3231132803084E+01  0.0000000000000E+00
 0.1925000020855E+00 -0.3157615389387E+01  0.0000000000000E+00
 0.1925005915359E+00 -0.3084098002567E+01  0.0000000000000E+00
 0.1925286052698E+00 -0.3010580866809E+01  0.0000000000000E+00
 0.1926368652508E+00 -0.2937066271891E+01  0.0000000000000E+00
 0.1928541500819E+00 -0.2863559587695E+01  0.0000000000000E+00
 0.1931876890427E+00 -0.2790067100603E+01  0.0000000000000E+00
 0.1936350859838E+00 -0.2716594812945E+01  0.0000000000000E+00
 0.1941916348641E+00 -0.2643146234864E+01  0.0000000000000E+00
 0.1948534654582E+00 -0.2569726064901E+01  0.0000000000000E+00
 0.1956188070749E+00 -0.2496339061666E+01  0.0000000000000E+00
 0.1964886504952E+00 -0.2422989996067E+01  0.0000000000000E+00
 0.1974674357818E+00 -0.2349685803919E+01  0.0000000000000E+00
 0.1985637987438E+00 -0.2276436016165E+01  0.0000000000000E+00
 0.1997817860532E+00 -0.2203248992725E+01  0.0000000000000E+00
 0.2011199214018E+00 -0.2130130513310E+01  0.0000000000000E+00
 0.2025802060143E+00 -0.2057088440583E+01  0.0000000000000E+00
 0.2041685566243E+00 -0.1984133466365E+01  0.0000000000000E+00
 0.2058951831716E+00 -0.1911281600769E+01  0.0000000000000E+00
 0.2077751974493E+00 -0.1838554023784E+01  0.0000000000000E+00
 0.2098283370518E+00 -0.1765979519672E+01  0.0000000000000E+00
 0.2120736951537E+00 -0.1693591126068E+01  0.0000000000000E+00
 0.2145043462173E+00 -0.1621398208056E+01  0.0000000000000E+00
 0.2170235953750E+00 -0.1549304059579E+01  0.0000000000000E+00
 0.2195305536390E+00 -0.1477195909043E+01  0.0000000000000E+00
 0.2219903602128E+00 -0.1405034780453E+01  0.0000000000000E+00
 0.2243635032032E+00 -0.1332779095967E+01  0.0000000000000E+00
 0.2200000001390E+00 -0.4186859601281E+01  0.0000000000000E+00
 0.2200000002781E+00 -0.4113342086429E+01  0.0000000000000E+00
 0.2200000004171E+00 -0.4039824684257E+01  0.0000000000000E+00
 0.2200000005561E+00 -0.3966307217550E+01  0.0000000000000E+00
 0.2200000006952E+00 -0.3892789747717E+01  0.0000000000000E+00
 0.2200000008342E+00 -0.3819272288128E+01  0.0000000000000E+00
 0.2200000009732E+00 -0.3745754823288E+01  0.0000000000000E+00
 0.2200000011123E+00 -0.3672237366228E+01  0.0000000000000E+00
 0.2200000012513E+00 -0.3598719903615E+01  0.0000000000000E+00
 0.2200000013904E+00 -0.3525202280347E+01  0.0000000000000E+00
 0.2200000015294E+00 -0.3451684819509E+01  0.0000000000000E+00
 0.2200000016684E+00 -0.3378167379303E+01  0.0000000000000E+00
 0.2200000018075E+00 -0.3304649961005E+01  0.0000000000000E+00
 0.2200000019465E+00 -0.3231132803084E+01  0.0000000000000E+00
 0.2200000020855E+00 -0.3157615389387E+01  0.0000000000000E+00
 0.2200006757232E+00 -0.3084098002567E+01  0.0000000000000E+00
 0.2200326913992E+00 -0.3010580866809E+01  0.0000000000000E+00
 0.2201564170717E+00 -0.2937066271891E+01  0.0000000000000E+00
 0.2204047425726E+00 -0.2863559587695E+01  0.0000000000000E+00
 0.2207859299357E+00 -0.2790067100603E+01  0.0000000000000E+00
 0.2212972407047E+00 -0.2716594812945E+01  0.0000000000000E+00
 0.2219332965468E+00 -0.2643146234864E+01  0.0000000000000E+00
 0.2226896743475E+00 -0.2569726064901E+01  0.0000000000000E+00
 0.2235643504593E+00 -0.2496339061666E+01  0.0000000000000E+00
 0.2245584572037E+00 -0.2422989996067E+01  0.0000000000000E+00
 0.2256770689379E+00 -0.2349685803918E+01  0.0000000000000E+00
 0.2269300551581E+00 -0.2276436016165E+01  0.0000000000000E+00
 0.2283220406322E+00 -0.2203248992725E+01  0.0000000000000E+00
 0.2298513381510E+00 -0.2130130513310E+01  0.0000000000000E+00
 0.2315202348282E+00 -0.2057088440583E+01  0.0000000000000E+00
 0.2333354926450E+00 -0.1984133466365E+01  0.0000000000000E+00
 0.2353087801044E+00 -0.1911281600769E+01  0.0000000000000E+00
 0.2374573678268E+00 -0.1838554023784E+01  0.0000000000000E+00
 0.2398038130628E+00 -0.1765979519672E+01  0.0000000000000E+00
 0.2423699365836E+00 -0.1693591126068E+01  0.0000000000000E+00
 0.2451478234886E+00 -0.1621398208056E+01  0.0000000000000E+00
 0.2480269653580E+00 -0.1549304059579E+01  0.0000000000000E+00
 0.2508920604916E+00 -0.1477195909043E+01  0.0000000000000E+00
 0.2537032679791E+00 -0.1405034780453E+01  0.0000000000000E+00
 0.2564154313709E+00 -0.1332779095967E+01  0.0000000000000E+00
 0.2475000001390E+00 -0.4186859601281E+01  0.0000000000000E+00
 0.2475000002781E+00 -0.4113342086429E+01  0.0000000000000E+00
 0.2475000004171E+00 -0.4039824684257E+01  0.0000000000000E+00
 0.2475000005561E+00 -0.3966307217550E+01  0.0000000000000E+00
 0.2475000006952E+00 -0.3892789747717E+01  0.0000000000000E+00
 0.2475000008342E+00 -0.3819272288128E+01  0.0000000000000E+00
 0.2475000009732E+00 -0.3745754823288E+01  0.0000000000000E+00
 0.2475000011123E+00 -0.3672237366228E+01  0.0000000000000E+00
 0.2475000012513E+00 -0.3598719903615E+01  0.0000000000000E+00
 0.2475000013904E+00 -0.3525202280347E+01  0.0000000000000E+00
 0.2475000015294E+00 -0.3451684819509E+01  0.0000000000000E+00
 0.2475000016684E+00 -0.3378167379303E+01  0.0000000000000E+00
 0.2475000018075E+00 -0.3304649961005E+01  0.0000000000000E+00
 0.2475000019465E+00 -0.3231132803084E+01  0.0000000000000E+00
 0.2475000020855E+00 -0.3157615389387E+01  0.0000000000000E+00
 0.2475007599106E+00 -0.3084098002567E+01  0.0000000000000E+00
 0.2475367775286E+00 -0.3010580866809E+01  0.0000000000000E+00
 0.2476759688925E+00 -0.2937066271891E+01  0.0000000000000E+00
 0.2479553350633E+00 -0.2863559587695E+01  0.0000000000000E+00
 0.2483841708287E+00 -0.2790067100603E+01  0.0000000000000E+00
 0.2489593954256E+00 -0.2716594812945E+01  0.0000000000000E+00
 0.2496749582296E+00 -0.2643146234864E+01  0.0000000000000E+00
 0.2505258832367E+00 -0.2569726064901E+01  0.0000000000000E+00
 0.2515098938437E+00 -0.2496339061666E+01  0.0000000000000E+00
 0.2526282639122E+00 -0.2422989996067E+01  0.0000000000000E+00
 0.2538867020940E+00 -0.2349685803918E+01  0.0000000000000E+00
 0.2552963115724E+00 -0.2276436016165E+01  0.0000000000000E+00
 0.2568622952113E+00 -0.2203248992725E+01  0.0000000000000E+00
 0.2585827549001E+00 -0.2130130513310E+01  0.0000000000000E+00
 0.2604602636420E+00 -0.2057088440583E+01  0.0000000000000E+00
 0.2625024286658E+00 -0.1984133466365E+01  0.0000000000000E+00
 0.2647223770373E+00 -0.1911281600769E+01  0.0000000000000E+00
 0.2671395382043E+00 -0.1838554023784E+01  0.0000000000000E+00
 0.2697792890739E+00 -0.1765979519672E+01  0.0000000000000E+00
 0.2726661780134E+00 -0.1693591126068E+01  0.0000000000000E+00
 0.2757913007600E+00 -0.1621398208056E+01  0.0000000000000E+00
 0.2790303353411E+00 -0.1549304059579E+01  0.0000000000000E+00
 0.2822535673443E+00 -0.1477195909042E+01  0.0000000000000E+00
 0.2854161757453E+00 -0.1405034780453E+01  0.0000000000000E+00
 0.2884673595387E+00 -0.1332779095967E+01  0.0000000000000E+00
 0.2750000001390E+00 -0.4186859601281E+01  0.0000000000000E+00
 0.2750000002781E+00 -0.4113342086429E+01  0.0000000000000E+00
 0.2750000004171E+00 -0.4039824684257E+01  0.0000000000000E+00
 0.2750000005561E+00 -0.3966307217550E+01  0.0000000000000E+00
 0.2750000006952E+00 -0.3892789747717E+01  0.0000000000000E+00
 0.2750000008342E+00 -0.3819272288128E+01  0.0000000000000E+00
 0.2750000009732E+00 -0.3745754823288E+01  0.0000000000000E+00
 0.2750000011123E+00 -0.3672237366228E+01  0.0000000000000E+00
 0.2750000012513E+00 -0.3598719903615E+01  0.0000000000000E+00
 0.2750000013904E+00 -0.3525202280347E+01  0.0000000000000E+00
 0.2750000015294E+00 -0.3451684819509E+01  0.0000000000000E+00
 0.2750000016684E+00 -0.3378167379303E+01  0.0000000000000E+00
 0.2750000018075E+00 -0.3304649961005E+01  0.0000000000000E+00
 0.2750000019465E+00 -0.3231132803084E+01  0.0000000000000E+00
 0.2750000020855E+00 -0.3157615389387E+01  0.0000000000000E+00
 0.2750008440979E+00 -0.3084098002567E+01  0.0000000000000E+00
 0.2750408636580E+00 -0.3010580866809E+01  0.0000000000000E+00
 0.2751955207134E+00 -0.2937066271891E+01  0.0000000000000E+00
 0.2755059275539E+00 -0.2863559587695E+01  0.0000000000000E+00
 0.2759824117218E+00 -0.2790067100603E+01  0.0000000000000E+00
 0.2766215501465E+00 -0.2716594812945E+01  0.0000000000000E+00
 0.2774166199123E+00 -0.2643146234864E+01  0.0000000000000E+00
 0.2783620921259E+00 -0.2569726064901E+01  0.0000000000000E+00
 0.2794554372281E+00 -0.2496339061666E+01  0.0000000000000E+00
 0.2806980706207E+00 -0.2422989996067E+01  0.0000000000000E+00
 0.2820963352501E+00 -0.2349685803918E+01  0.0000000000000E+00
 0.2836625679867E+00 -0.2276436016165E+01  0.0000000000000E+00
 0.2854025497903E+00 -0.2203248992725E+01  0.0000000000000E+00
 0.2873141716492E+00 -0.2130130513309E+01  0.0000000000000E+00
 0.2894002924558E+00 -0.2057088440583E+01  0.0000000000000E+00
 0.2916693646866E+00 -0.1984133466365E+01  0.0000000000000E+00
 0.2941359739701E+00 -0.1911281600769E+01  0.0000000000000E+00
 0.2968217085817E+00 -0.1838554023784E+01  0.0000000000000E+00
 0.2997547650849E+00 -0.1765979519672E+01  0.0000000000000E+00
 0.3029624194433E+00 -0.1693591126068E+01  0.0000000000000E+00
 0.3064347780313E+00 -0.1621398208056E+01  0.0000000000000E+00
 0.3100337053242E+00 -0.1549304059579E+01  0.0000000000000E+00
 0.3136150741969E+00 -0.1477195909042E+01  0.0000000000000E+00
 0.3171290835116E+00 -0.1405034780453E+01  0.0000000000000E+00
 0.3205192877065E+00 -0.1332779095967E+01  0.0000000000000E+00
 0.3025000001390E+00 -0.4186859601281E+01  0.0000000000000E+00
 0.3025000002781E+00 -0.4113342086429E+01  0.0000000000000E+00
 0.3025000004171E+00 -0.4039824684257E+01  0.0000000000000E+00
 0.3025000005561E+00 -0.3966307217550E+01  0.0000000000000E+00
 0.3025000006952E+00 -0.3892789747717E+01  0.0000000000000E+00
 0.3025000008342E+00 -0.3819272288128E+01  0.0000000000000E+00
 0.3025000009732E+00 -0.3745754823288E+01  0.0000000000000E+00
 0.3025000011123E+00 -0.3672237366228E+01  0.0000000000000E+00
 0.3025000012513E+00 -0.3598719903615E+01  0.0000000000000E+00
 0.3025000013904E+00 -0.3525202280347E+01  0.0000000000000E+00
 0.3025000015294E+00 -0.3451684819509E+01  0.0000000000000E+00
 0.3025000016684E+00 -0.3378167379303E+01  0.0000000000000E+00
 0.3025000018075E+00 -0.3304649961005E+01  0.0000000000000E+00
 0.3025000019465E+00 -0.3231132803084E+01  0.0000000000000E+00
 0.3025000020855E+00 -0.3157615389387E+01  0.0000000000000E+00
 0.3025009282853E+00 -0.3084098002567E+01  0.0000000000000E+00
 0.3025449497874E+00 -0.3010580866809E+01  0.0000000000000E+00
 0.3027150725343E+00 -0.2937066271891E+01  0.0000000000000E+00
 0.3030565200446E+00 -0.2863559587695E+01  0.0000000000000E+00
 0.3035806526148E+00 -0.2790067100603E+01  0.0000000000000E+00
 0.3042837048674E+00 -0.2716594812945E+01  0.0000000000000E+00
 0.3051582815951E+00 -0.2643146234864E+01  0.0000000000000E+00
 0.3061983010151E+00 -0.2569726064901E+01  0.0000000000000E+00
 0.3074009806125E+00 -0.2496339061666E+01  0.0000000000000E+00
 0.3087678773292E+00 -0.2422989996067E+01  0.0000000000000E+00
 0.3103059684062E+00 -0.2349685803918E+01  0.0000000000000E+00
 0.3120288244010E+00 -0.2276436016165E+01  0.0000000000000E+00
 0.3139428043693E+00 -0.2203248992725E+01  0.0000000000000E+00
 0.3160455883984E+00 -0.2130130513309E+01  0.0000000000000E+00
 0.3183403212697E+00 -0.2057088440583E+01  0.0000000000000E+00
 0.3208363007074E+00 -0.1984133466365E+01  0.0000000000000E+00
 0.3235495709029E+00 -0.1911281600769E+01  0.0000000000000E+00
 0.3265038789592E+00 -0.1838554023784E+01  0.0000000000000E+00
 0.3297302410959E+00 -0.1765979519672E+01  0.0000000000000E+00
 0.3332586608731E+00 -0.1693591126068E+01  0.0000000000000E+00
 0.3370782553027E+00 -0.1621398208056E+01  0.0000000000000E+00
 0.3410370753072E+00 -0.1549304059579E+01  0.0000000000000E+00
 0.3449765810495E+00 -0.1477195909042E+01  0.0000000000000E+00
 0.3488419912778E+00 -0.1405034780453E+01  0.0000000000000E+00
 0.3525712158742E+00 -0.1332779095967E+01  0.0000000000000E+00
 0.3300000001390E+00 -0.4186859601281E+01  0.0000000000000E+00
 0.3300000002781E+00 -0.4113342086429E+01  0.0000000000000E+00
 0.3300000004171E+00 -0.4039824684257E+01  0.0000000000000E+00
 0.3300000005561E+00 -0.3966307217550E+01  0.0000000000000E+00
 0.3300000006952E+00 -0.3892789747717E+01  0.0000000000000E+00
 0.3300000008342E+00 -0.3819272288128E+01  0.0000000000000E+00
 0.3300000009732E+00 -0.3745754823288E+01  0.0000000000000E+00
 0.3300000011123E+00 -0.3672237366228E+01  0.0000000000000E+00
 0.3300000012513E+00 -0.3598719903615E+01  0.0000000000000E+00
 0.3300000013904E+00 -0.3525202280347E+01  0.0000000000000E+00
 0.3300000015294E+00 -0.3451684819509E+01  0.0000000000000E+00
 0.3300000016684E+00 -0.3378167379303E+01  0.0000000000000E+00
 0.3300000018075E+00 -0.3304649961005E+01  0.0000000000000E+00
 0.3300000019465E+00 -0.3231132803084E+01  0.0000000000000E+00
 0.3300000020855E+00 -0.3157615389387E+01  0.0000000000000E+00
 0.3300010124726E+00 -0.3084098002567E+01  0.0000000000000E+00
 0.3300490359168E+00 -0.3010580866809E+01  0.0000000000000E+00
 0.3302346243551E+00 -0.2937066271891E+01  0.0000000000000E+00
 0.3306071125352E+00 -0.2863559587695E+01  0.0000000000000E+00
 0.3311788935078E+00 -0.2790067100603E+01  0.0000000000000E+00
 0.3319458595883E+00 -0.2716594812945E+01  0.0000000000000E+00
 0.3328999432778E+00 -0.2643146234864E+01  0.0000000000000E+00
 0.3340345099043E+00 -0.2569726064901E+01  0.0000000000000E+00
 0.3353465239969E+00 -0.2496339061666E+01  0.0000000000000E+00
 0.3368376840377E+00 -0.2422989996067E+01  0.0000000000000E+00
 0.3385156015623E+00 -0.2349685803918E+01  0.0000000000000E+00
 0.3403950808153E+00 -0.2276436016165E+01  0.0000000000000E+00
 0.3424830589484E+00 -0.2203248992725E+01  0.0000000000000E+00
 0.3447770051475E+00 -0.2130130513309E+01  0.0000000000000E+00
 0.3472803500835E+00 -0.2057088440583E+01  0.0000000000000E+00
 0.3500032367282E+00 -0.1984133466365E+01  0.0000000000000E+00
 0.3529631678358E+00 -0.1911281600768E+01  0.0000000000000E+00
 0.3561860493367E+00 -0.1838554023784E+01  0.0000000000000E+00
 0.3597057171070E+00 -0.1765979519672E+01  0.0000000000000E+00
 0.3635549023030E+00 -0.1693591126068E+01  0.0000000000000E+00
 0.3677217325740E+00 -0.1621398208056E+01  0.0000000000000E+00
 0.3720404452903E+00 -0.1549304059579E+01  0.0000000000000E+00
 0.3763380879022E+00 -0.1477195909042E+01  0.0000000000000E+00
 0.3805548990440E+00 -0.1405034780453E+01  0.0000000000000E+00
 0.3846231440420E+00 -0.1332779095967E+01  0.0000000000000E+00
 0.3575000001390E+00 -0.4186859601281E+01  0.0000000000000E+00
 0.3575000002781E+00 -0.4113342086429E+01  0.0000000000000E+00
 0.3575000004171E+00 -0.4039824684257E+01  0.0000000000000E+00
 0.3575000005561E+00 -0.3966307217550E+01  0.0000000000000E+00
 0.3575000006952E+00 -0.3892789747717E+01  0.0000000000000E+00
 0.3575000008342E+00 -0.3819272288128E+01  0.0000000000000E+00
 0.3575000009732E+00 -0.3745754823288E+01  0.0000000000000E+00
 0.3575000011123E+00 -0.3672237366228E+01  0.0000000000000E+00
 0.3575000012513E+00 -0.3598719903615E+01  0.0000000000000E+00
 0.3575000013904E+00 -0.3525202280347E+01  0.0000000000000E+00
 0.3575000015294E+00 -0.3451684819509E+01  0.0000000000000E+00
 0.3575000016684E+00 -0.3378167379303E+01  0.0000000000000E+00
 0.3575000018075E+00 -0.3304649961005E+01  0.0000000000000E+00
 0.3575000019465E+00 -0.3231132803084E+01  0.0000000000000E+00
 0.3575000020855E+00 -0.3157615389387E+01  0.0000000000000E+00
 0.3575010966599E+00 -0.3084098002567E+01  0.0000000000000E+00
 0.3575531220462E+00 -0.3010580866809E+01  0.0000000000000E+00
 0.3577541761760E+00 -0.2937066271891E+01  0.0000000000000E+00
 0.3581577050259E+00 -0.2863559587695E+01  0.0000000000000E+00
 0.3587771344008E+00 -0.2790067100603E+01  0.0000000000000E+00
 0.3596080143092E+00 -0.2716594812945E+01  0.0000000000000E+00
 0.3606416049605E+00 -0.2643146234864E+01  0.0000000000000E+00
 0.3618707187935E+00 -0.2569726064901E+01  0.0000000000000E+00
 0.3632920673813E+00 -0.2496339061666E+01  0.0000000000000E+00
 0.3649074907461E+00 -0.2422989996067E+01  0.0000000000000E+00
 0.3667252347185E+00 -0.2349685803918E+01  0.0000000000000E+00
 0.3687613372296E+00 -0.2276436016165E+01  0.0000000000000E+00
 0.3710233135274E+00 -0.2203248992725E+01  0.0000000000000E+00
 0.3735084218966E+00 -0.2130130513309E+01  0.0000000000000E+00
 0.3762203788973E+00 -0.2057088440583E+01  0.0000000000000E+00
 0.3791701727490E+00 -0.1984133466365E+01  0.0000000000000E+00
 0.3823767647686E+00 -0.1911281600768E+01  0.0000000000000E+00
 0.3858682197142E+00 -0.1838554023784E+01  0.0000000000000E+00
 0.3896811931180E+00 -0.1765979519672E+01  0.0000000000000E+00
 0.3938511437328E+00 -0.1693591126067E+01  0.0000000000000E+00
 0.3983652098454E+00 -0.1621398208056E+01  0.0000000000000E+00
 0.4030438152733E+00 -0.1549304059579E+01  0.0000000000000E+00
 0.4076995947548E+00 -0.1477195909042E+01  0.0000000000000E+00
 0.4122678068103E+00 -0.1405034780453E+01  0.0000000000000E+00
 0.4166750722097E+00 -0.1332779095967E+01  0.0000000000000E+00
 0.3850000001390E+00 -0.4186859601281E+01  0.0000000000000E+00
 0.3850000002781E+00 -0.4113342086429E+01  0.0000000000000E+00
 0.3850000004171E+00 -0.4039824684257E+01  0.0000000000000E+00
 0.3850000005561E+00 -0.3966307217550E+01  0.0000000000000E+00
 0.3850000006952E+00 -0.3892789747717E+01  0.0000000000000E+00
 0.3850000008342E+00 -0.3819272288128E+01  0.0000000000000E+00
 0.3850000009732E+00 -0.3745754823288E+01  0.0000000000000E+00
 0.3850000011123E+00 -0.3672237366228E+01  0.0000000000000E+00
 0.3850000012513E+00 -0.3598719903615E+01  0.0000000000000E+00
 0.3850000013904E+00 -0.3525202280347E+01  0.0000000000000E+00
 0.3850000015294E+00 -0.3451684819509E+01  0.0000000000000E+00
 0.3850000016684E+00 -0.3378167379303E+01  0.0000000000000E+00
 0.3850000018075E+00 -0.3304649961005E+01  0.0000000000000E+00
 0.3850000019465E+00 -0.3231132803084E+01  0.0000000000000E+00
 0.3850000020855E+00 -0.3157615389387E+01  0.0000000000000E+00
 0.3850011808473E+00 -0.3084098002567E+01  0.0000000000000E+00
 0.3850572081756E+00 -0.3010580866809E+01  0.0000000000000E+00
 0.3852737279968E+00 -0.2937066271891E+01  0.0000000000000E+00
 0.3857082975166E+00 -0.2863559587695E+01  0.0000000000000E+00
 0.3863753752939E+00 -0.2790067100603E+01  0.0000000000000E+00
 0.3872701690301E+00 -0.2716594812945E+01  0.0000000000000E+00
 0.3883832666433E+00 -0.2643146234864E+01  0.0000000000000E+00
 0.3897069276828E+00 -0.2569726064901E+01  0.0000000000000E+00
 0.3912376107657E+00 -0.2496339061666E+01  0.0000000000000E+00
 0.3929772974546E+00 -0.2422989996067E+01  0.0000000000000E+00
 0.3949348678746E+00 -0.2349685803918E+01  0.0000000000000E+00
 0.3971275936439E+00 -0.2276436016165E+01  0.0000000000000E+00
 0.3995635681064E+00 -0.2203248992725E+01  0.0000000000000E+00
 0.4022398386458E+00 -0.2130130513309E+01  0.0000000000000E+00
 0.4051604077112E+00 -0.2057088440583E+01  0.0000000000000E+00
 0.4083371087698E+00 -0.1984133466365E+01  0.0000000000000E+00
 0.4117903617014E+00 -0.1911281600768E+01  0.0000000000000E+00
 0.4155503900916E+00 -0.1838554023784E+01  0.0000000000000E+00
 0.4196566691291E+00 -0.1765979519672E+01  0.0000000000000E+00
 0.4241473851627E+00 -0.1693591126067E+01  0.0000000000000E+00
 0.4290086871167E+00 -0.1621398208056E+01  0.0000000000000E+00
 0.4340471852564E+00 -0.1549304059579E+01  0.0000000000000E+00
 0.4390611016074E+00 -0.1477195909042E+01  0.0000000000000E+00
 0.4439807145765E+00 -0.1405034780453E+01  0.0000000000000E+00
 0.4487270003775E+00 -0.1332779095967E+01  0.0000000000000E+00
 0.4125000001390E+00 -0.4186859601281E+01  0.0000000000000E+00
 0.4125000002781E+00 -0.4113342086429E+01  0.0000000000000E+00
 0.4125000004171E+00 -0.4039824684257E+01  0.0000000000000E+00
 0.4125000005561E+00 -0.3966307217550E+01  0.0000000000000E+00
 0.4125000006952E+00 -0.3892789747717E+01  0.0000000000000E+00
 0.4125000008342E+00 -0.3819272288128E+01  0.0000000000000E+00
 0.4125000009732E+00 -0.3745754823288E+01  0.0000000000000E+00
 0.4125000011123E+00 -0.3672237366228E+01  0.0000000000000E+00
 0.4125000012513E+00 -0.3598719903615E+01  0.0000000000000E+00
 0.4125000013904E+00 -0.3525202280347E+01  0.0000000000000E+00
 0.4125000015294E+00 -0.3451684819509E+01  0.0000000000000E+00
 0.4125000016684E+00 -0.3378167379303E+01  0.0000000000000E+00
 0.4125000018075E+00 -0.3304649961005E+01  0.0000000000000E+00
 0.4125000019465E+00 -0.3231132803084E+01  0.0000000000000E+00
 0.4125000020855E+00 -0.3157615389387E+01  0.0000000000000E+00
 0.4125012650346E+00 -0.3084098002567E+01  0.0000000000000E+00
 0.4125612943050E+00 -0.3010580866809E+01  0.0000000000000E+00
 0.4127932798177E+00 -0.2937066271891E+01  0.0000000000000E+00
 0.4132588900072E+00 -0.2863559587694E+01  0.0000000000000E+00
 0.4139736161869E+00 -0.2790067100603E+01  0.0000000000000E+00
 0.4149323237511E+00 -0.2716594812945E+01  0.0000000000000E+00
 0.4161249283260E+00 -0.2643146234864E+01  0.0000000000000E+00
 0.4175431365720E+00 -0.2569726064901E+01  0.0000000000000E+00
 0.4191831541501E+00 -0.2496339061666E+01  0.0000000000000E+00
 0.4210471041631E+00 -0.2422989996067E+01  0.0000000000000E+00
 0.4231445010307E+00 -0.2349685803918E+01  0.0000000000000E+00
 0.4254938500582E+00 -0.2276436016165E+01  0.0000000000000E+00
 0.4281038226855E+00 -0.2203248992725E+01  0.0000000000000E+00
 0.4309712553949E+00 -0.2130130513309E+01  0.0000000000000E+00
 0.4341004365250E+00 -0.2057088440582E+01  0.0000000000000E+00
 0.4375040447906E+00 -0.1984133466365E+01  0.0000000000000E+00
 0.4412039586342E+00 -0.1911281600768E+01  0.0000000000000E+00
 0.4452325604691E+00 -0.1838554023784E+01  0.0000000000000E+00
 0.4496321451401E+00 -0.1765979519672E+01  0.0000000000000E+00
 0.4544436265925E+00 -0.1693591126067E+01  0.0000000000000E+00
 0.4596521643880E+00 -0.1621398208056E+01  0.0000000000000E+00
 0.4650505552394E+00 -0.1549304059579E+01  0.0000000000000E+00
 0.4704226084601E+00 -0.1477195909042E+01  0.0000000000000E+00
 0.4756936223427E+00 -0.1405034780453E+01  0.0000000000000E+00
 0.4807789285453E+00 -0.1332779095967E+01  0.0000000000000E+00
 0.4400000001390E+00 -0.4186859601281E+01  0.0000000000000E+00
 0.4400000002781E+00 -0.4113342086429E+01  0.0000000000000E+00
 0.4400000004171E+00 -0.4039824684257E+01  0.0000000000000E+00
 0.4400000005561E+00 -0.3966307217550E+01  0.0000000000000E+00
 0.4400000006952E+00 -0.3892789747717E+01  0.0000000000000E+00
 0.4400000008342E+00 -0.3819272288128E+01  0.0000000000000E+00
 0.4400000009732E+00 -0.3745754823288E+01  0.0000000000000E+00
 0.4400000011123E+00 -0.3672237366228E+01  0.0000000000000E+00
 0.4400000012513E+00 -0.3598719903615E+01  0.0000000000000E+00
 0.4400000013904E+00 -0.3525202280347E+01  0.0000000000000E+00
 0.4400000015294E+00 -0.3451684819509E+01  0.0000000000000E+00
 0.4400000016684E+00 -0.3378167379303E+01  0.0000000000000E+00
 0.4400000018075E+00 -0.3304649961005E+01  0.0000000000000E+00
 0.4400000019465E+00 -0.3231132803084E+01  0.0000000000000E+00
 0.4400000020855E+00 -0.3157615389387E+01  0.0000000000000E+00
 0.4400013492219E+00 -0.3084098002567E+01  0.0000000000000E+00
 0.4400653804344E+00 -0.3010580866809E+01  0.0000000000000E+00
 0.4403128316385E+00 -0.2937066271891E+01  0.0000000000000E+00
 0.4408094824979E+00 -0.2863559587694E+01  0.0000000000000E+00
 0.4415718570799E+00 -0.2790067100603E+01  0.0000000000000E+00
 0.4425944784720E+00 -0.2716594812945E+01  0.0000000000000E+00
 0.4438665900088E+00 -0.2643146234864E+01  0.0000000000000E+00
 0.4453793454612E+00 -0.2569726064901E+01  0.0000000000000E+00
 0.4471286975345E+00 -0.2496339061666E+01  0.0000000000000E+00
 0.4491169108716E+00 -0.2422989996067E+01  0.0000000000000E+00
 0.4513541341868E+00 -0.2349685803918E+01  0.0000000000000E+00
 0.4538601064725E+00 -0.2276436016165E+01  0.0000000000000E+00
 0.4566440772645E+00 -0.2203248992725E+01  0.0000000000000E+00
 0.4597026721440E+00 -0.2130130513309E+01  0.0000000000000E+00
 0.4630404653389E+00 -0.2057088440582E+01  0.0000000000000E+00
 0.4666709808114E+00 -0.1984133466365E+01  0.0000000000000E+00
 0.4706175555671E+00 -0.1911281600768E+01  0.0000000000000E+00
 0.4749147308466E+00 -0.1838554023784E+01  0.0000000000000E+00
 0.4796076211511E+00 -0.1765979519672E+01  0.0000000000000E+00
 0.4847398680223E+00 -0.1693591126067E+01  0.0000000000000E+00
 0.4902956416594E+00 -0.1621398208056E+01  0.0000000000000E+00
 0.4960539252225E+00 -0.1549304059579E+01  0.0000000000000E+00
 0.5017841153127E+00 -0.1477195909042E+01  0.0000000000000E+00
 0.5074065301090E+00 -0.1405034780453E+01  0.0000000000000E+00
 0.5128308567130E+00 -0.1332779095967E+01  0.0000000000000E+00
 0.4675000001390E+00 -0.4186859601281E+01  0.0000000000000E+00
 0.4675000002781E+00 -0.4113342086429E+01  0.0000000000000E+00
 0.4675000004171E+00 -0.4039824684257E+01  0.0000000000000E+00
 0.4675000005561E+00 -0.3966307217550E+01  0.0000000000000E+00
 0.4675000006952E+00 -0.3892789747717E+01  0.0000000000000E+00
 0.4675000008342E+00 -0.3819272288128E+01  0.0000000000000E+00
 0.4675000009732E+00 -0.3745754823288E+01  0.0000000000000E+00
 0.4675000011123E+00 -0.3672237366228E+01  0.0000000000000E+00
 0.4675000012513E+00 -0.3598719903615E+01  0.0000000000000E+00
 0.4675000013904E+00 -0.3525202280347E+01  0.0000000000000E+00
 0.4675000015294E+00 -0.3451684819509E+01  0.0000000000000E+00
 0.4675000016684E+00 -0.3378167379303E+01  0.0000000000000E+00
 0.4675000018075E+00 -0.3304649961005E+01  0.0000000000000E+00
 0.4675000019465E+00 -0.3231132803084E+01  0.0000000000000E+00
 0.4675000020855E+00 -0.3157615389387E+01  0.0000000000000E+00
 0.4675014334093E+00 -0.3084098002567E+01  0.0000000000000E+00
 0.4675694665638E+00 -0.3010580866809E+01  0.0000000000000E+00
 0.4678323834594E+00 -0.2937066271891E+01  0.0000000000000E+00
 0.4683600749885E+00 -0.2863559587694E+01  0.0000000000000E+00
 0.4691700979729E+00 -0.2790067100603E+01  0.0000000000000E+00
 0.4702566331929E+00 -0.2716594812945E+01  0.0000000000000E+00
 0.4716082516915E+00 -0.2643146234864E+01  0.0000000000000E+00
 0.4732155543504E+00 -0.2569726064901E+01  0.0000000000000E+00
 0.4750742409189E+00 -0.2496339061666E+01  0.0000000000000E+00
 0.4771867175801E+00 -0.2422989996067E+01  0.0000000000000E+00
 0.4795637673429E+00 -0.2349685803918E+01  0.0000000000000E+00
 0.4822263628868E+00 -0.2276436016165E+01  0.0000000000000E+00
 0.4851843318435E+00 -0.2203248992725E+01  0.0000000000000E+00
 0.4884340888932E+00 -0.2130130513309E+01  0.0000000000000E+00
 0.4919804941527E+00 -0.2057088440582E+01  0.0000000000000E+00
 0.4958379168322E+00 -0.1984133466365E+01  0.0000000000000E+00
 0.5000311524999E+00 -0.1911281600768E+01  0.0000000000000E+00
 0.5045969012241E+00 -0.1838554023784E+01  0.0000000000000E+00
 0.5095830971622E+00 -0.1765979519672E+01  0.0000000000000E+00
 0.5150361094522E+00 -0.1693591126067E+01  0.0000000000000E+00
 0.5209391189307E+00 -0.1621398208056E+01  0.0000000000000E+00
 0.5270572952056E+00 -0.1549304059579E+01  0.0000000000000E+00
 0.5331456221654E+00 -0.1477195909042E+01  0.0000000000000E+00
 0.5391194378752E+00 -0.1405034780453E+01  0.0000000000000E+00
 0.5448827848808E+00 -0.1332779095967E+01  0.0000000000000E+00
 0.4950000001390E+00 -0.4186859601281E+01  0.0000000000000E+00
 0.4950000002781E+00 -0.4113342086429E+01  0.0000000000000E+00
 0.4950000004171E+00 -0.4039824684257E+01  0.0000000000000E+00
 0.4950000005561E+00 -0.3966307217550E+01  0.0000000000000E+00
 0.4950000006952E+00 -0.3892789747717E+01  0.0000000000000E+00
 0.4950000008342E+00 -0.3819272288128E+01  0.0000000000000E+00
 0.4950000009732E+00 -0.3745754823288E+01  0.0000000000000E+00
 0.4950000011123E+00 -0.3672237366228E+01  0.0000000000000E+00
 0.4950000012513E+00 -0.3598719903615E+01  0.0000000000000E+00
 0.4950000013904E+00 -0.3525202280347E+01  0.0000000000000E+00
 0.4950000015294E+00 -0.3451684819509E+01  0.0000000000000E+00
 0.4950000016684E+00 -0.3378167379303E+01  0.0000000000000E+00
 0.4950000018075E+00 -0.3304649961005E+01  0.0000000000000E+00
 0.4950000019465E+00 -0.3231132803084E+01  0.0000000000000E+00
 0.4950000020855E+00 -0.3157615389387E+01  0.0000000000000E+00
 0.4950015175966E+00 -0.3084098002567E+01  0.0000000000000E+00
 0.4950735526932E+00 -0.3010580866809E+01  0.0000000000000E+00
 0.4953519352803E+00 -0.2937066271891E+01  0.0000000000000E+00
 0.4959106674792E+00 -0.2863559587694E+01  0.0000000000000E+00
 0.4967683388660E+00 -0.2790067100603E+01  0.0000000000000E+00
 0.4979187879138E+00 -0.2716594812945E+01  0.0000000000000E+00
 0.4993499133743E+00 -0.2643146234864E+01  0.0000000000000E+00
 0.5010517632396E+00 -0.2569726064901E+01  0.0000000000000E+00
 0.5030197843033E+00 -0.2496339061666E+01  0.0000000000000E+00
 0.5052565242886E+00 -0.2422989996067E+01  0.0000000000000E+00
 0.5077734004990E+00 -0.2349685803918E+01  0.0000000000000E+00
 0.5105926193011E+00 -0.2276436016165E+01  0.0000000000000E+00
 0.5137245864225E+00 -0.2203248992725E+01  0.0000000000000E+00
 0.5171655056423E+00 -0.2130130513309E+01  0.0000000000000E+00
 0.5209205229665E+00 -0.2057088440582E+01  0.0000000000000E+00
 0.5250048528530E+00 -0.1984133466365E+01  0.0000000000000E+00
 0.5294447494327E+00 -0.1911281600768E+01  0.0000000000000E+00
 0.5342790716015E+00 -0.1838554023784E+01  0.0000000000000E+00
 0.5395585731732E+00 -0.1765979519672E+01  0.0000000000000E+00
 0.5453323508820E+00 -0.1693591126067E+01  0.0000000000000E+00
 0.5515825962021E+00 -0.1621398208056E+01  0.0000000000000E+00
 0.5580606651886E+00 -0.1549304059579E+01  0.0000000000000E+00
 0.5645071290180E+00 -0.1477195909042E+01  0.0000000000000E+00
 0.5708323456415E+00 -0.1405034780453E+01  0.0000000000000E+00
 0.5769347130485E+00 -0.1332779095967E+01  0.0000000000000E+00
 0.5225000001390E+00 -0.4186859601281E+01  0.0000000000000E+00
 0.5225000002781E+00 -0.4113342086429E+01  0.0000000000000E+00
 0.5225000004171E+00 -0.4039824684257E+01  0.0000000000000E+00
 0.5225000005561E+00 -0.3966307217550E+01  0.0000000000000E+00
 0.5225000006952E+00 -0.3892789747717E+01  0.0000000000000E+00
 0.5225000008342E+00 -0.3819272288128E+01  0.0000000000000E+00
 0.5225000009732E+00 -0.3745754823288E+01  0.0000000000000E+00
 0.5225000011123E+00 -0.3672237366228E+01  0.0000000000000E+00
 0.5225000012513E+00 -0.3598719903615E+01  0.0000000000000E+00
 0.5225000013904E+00 -0.3525202280347E+01  0.0000000000000E+00
 0.5225000015294E+00 -0.3451684819509E+01  0.0000000000000E+00
 0.5225000016684E+00 -0.3378167379303E+01  0.0000000000000E+00
 0.5225000018075E+00 -0.3304649961005E+01  0.0000000000000E+00
 0.5225000019465E+00 -0.3231132803084E+01  0.0000000000000E+00
 0.5225000020855E+00 -0.3157615389387E+01  0.0000000000000E+00
 0.5225016017839E+00 -0.3084098002567E+01  0.0000000000000E+00
 0.5225776388225E+00 -0.3010580866809E+01  0.0000000000000E+00
 0.5228714871011E+00 -0.2937066271891E+01  0.0000000000000E+00
 0.5234612599699E+00 -0.2863559587694E+01  0.0000000000000E+00
 0.5243665797590E+00 -0.2790067100603E+01  0.0000000000000E+00
 0.5255809426347E+00 -0.2716594812945E+01  0.0000000000000E+00
 0.5270915750570E+00 -0.2643146234864E+01  0.0000000000000E+00
 0.5288879721288E+00 -0.2569726064901E+01  0.0000000000000E+00
 0.5309653276877E+00 -0.2496339061666E+01  0.0000000000000E+00
 0.5333263309971E+00 -0.2422989996067E+01  0.0000000000000E+00
 0.5359830336551E+00 -0.2349685803918E+01  0.0000000000000E+00
 0.5389588757154E+00 -0.2276436016165E+01  0.0000000000000E+00
 0.5422648410016E+00 -0.2203248992725E+01  0.0000000000000E+00
 0.5458969223914E+00 -0.2130130513309E+01  0.0000000000000E+00
 0.5498605517804E+00 -0.2057088440582E+01  0.0000000000000E+00
 0.5541717888738E+00 -0.1984133466365E+01  0.0000000000000E+00
 0.5588583463656E+00 -0.1911281600768E+01  0.0000000000000E+00
 0.5639612419790E+00 -0.1838554023784E+01  0.0000000000000E+00
 0.5695340491842E+00 -0.1765979519672E+01  0.0000000000000E+00
 0.5756285923119E+00 -0.1693591126067E+01  0.0000000000000E+00
 0.5822260734734E+00 -0.1621398208055E+01  0.0000000000000E+00
 0.5890640351717E+00 -0.1549304059579E+01  0.0000000000000E+00
 0.5958686358706E+00 -0.1477195909042E+01  0.0000000000000E+00
 0.6025452534077E+00 -0.1405034780453E+01  0.0000000000000E+00
 0.6089866412163E+00 -0.1332779095967E+01  0.0000000000000E+00
 0.5500000001390E+00 -0.4186859601281E+01  0.0000000000000E+00
 0.5500000002781E+00 -0.4113342086429E+01  0.0000000000000E+00
 0.5500000004171E+00 -0.4039824684257E+01  0.0000000000000E+00
 0.5500000005561E+00 -0.3966307217550E+01  0.0000000000000E+00
 0.5500000006952E+00 -0.3892789747717E+01  0.0000000000000E+00
 0.5500000008342E+00 -0.3819272288128E+01  0.0000000000000E+00
 0.5500000009732E+00 -0.3745754823288E+01  0.0000000000000E+00
 0.5500000011123E+00 -0.3672237366228E+01  0.0000000000000E+00
 0.5500000012513E+00 -0.3598719903615E+01  0.0000000000000E+00
 0.5500000013904E+00 -0.3525202280347E+01  0.0000000000000E+00
 0.5500000015294E+00 -0.3451684819509E+01  0.0000000000000E+00
 0.5500000016684E+00 -0.3378167379303E+01  0.0000000000000E+00
 0.5500000018075E+00 -0.3304649961005E+01  0.0000000000000E+00
 0.5500000019465E+00 -0.3231132803084E+01  0.0000000000000E+00
 0.5500000020855E+00 -0.3157615389387E+01  0.0000000000000E+00
 0.5500016859713E+00 -0.3084098002567E+01  0.0000000000000E+00
 0.5500817249519E+00 -0.3010580866809E+01  0.0000000000000E+00
 0.5503910389220E+00 -0.2937066271891E+01  0.0000000000000E+00
 0.5510118524605E+00 -0.2863559587694E+01  0.0000000000000E+00
 0.5519648206520E+00 -0.2790067100603E+01  0.0000000000000E+00
 0.5532430973556E+00 -0.2716594812945E+01  0.0000000000000E+00
 0.5548332367398E+00 -0.2643146234864E+01  0.0000000000000E+00
 0.5567241810181E+00 -0.2569726064901E+01  0.0000000000000E+00
 0.5589108710721E+00 -0.2496339061666E+01  0.0000000000000E+00
 0.5613961377056E+00 -0.2422989996067E+01  0.0000000000000E+00
 0.5641926668113E+00 -0.2349685803918E+01  0.0000000000000E+00
 0.5673251321297E+00 -0.2276436016165E+01  0.0000000000000E+00
 0.5708050955806E+00 -0.2203248992725E+01  0.0000000000000E+00
 0.5746283391406E+00 -0.2130130513309E+01  0.0000000000000E+00
 0.5788005805942E+00 -0.2057088440582E+01  0.0000000000000E+00
 0.5833387248945E+00 -0.1984133466365E+01  0.0000000000000E+00
 0.5882719432984E+00 -0.1911281600768E+01  0.0000000000000E+00
 0.5936434123565E+00 -0.1838554023784E+01  0.0000000000000E+00
 0.5995095251953E+00 -0.1765979519672E+01  0.0000000000000E+00
 0.6059248337417E+00 -0.1693591126067E+01  0.0000000000000E+00
 0.6128695507447E+00 -0.1621398208055E+01  0.0000000000000E+00
 0.6200674051547E+00 -0.1549304059578E+01  0.0000000000000E+00
 0.6272301427233E+00 -0.1477195909042E+01  0.0000000000000E+00
 0.6342581611739E+00 -0.1405034780452E+01  0.0000000000000E+00
 0.6410385693841E+00 -0.1332779095967E+01  0.0000000000000E+00
 0.5775000001321E+00 -0.4186859601281E+01  0.0000000000000E+00
 0.5775000002642E+00 -0.4113342086429E+01  0.0000000000000E+00
 0.5775000003963E+00 -0.4039824684257E+01  0.0000000000000E+00
 0.5775000005283E+00 -0.3966307217550E+01  0.0000000000000E+00
 0.5775000006604E+00 -0.3892789747717E+01  0.0000000000000E+00
 0.5775000007925E+00 -0.3819272288128E+01  0.0000000000000E+00
 0.5775000009246E+00 -0.3745754823288E+01  0.0000000000000E+00
 0.5775000010567E+00 -0.3672237366228E+01  0.0000000000000E+00
 0.5775000011888E+00 -0.3598719903615E+01  0.0000000000000E+00
 0.5775000013208E+00 -0.3525202280347E+01  0.0000000000000E+00
 0.5775000014529E+00 -0.3451684819509E+01  0.0000000000000E+00
 0.5775000015850E+00 -0.3378167379303E+01  0.0000000000000E+00
 0.5775000017171E+00 -0.3304649961005E+01  0.0000000000000E+00
 0.5775000018492E+00 -0.3231132803084E+01  0.0000000000000E+00
 0.5775000019813E+00 -0.3157615389387E+01  0.0000000000000E+00
 0.5775017700474E+00 -0.3084098002567E+01  0.0000000000000E+00
 0.5775858109631E+00 -0.3010580866809E+01  0.0000000000000E+00
 0.5779105906176E+00 -0.2937066271891E+01  0.0000000000000E+00
 0.5785624448188E+00 -0.2863559587694E+01  0.0000000000000E+00
 0.5795630614055E+00 -0.2790067100603E+01  0.0000000000000E+00
 0.5809052519297E+00 -0.2716594812945E+01  0.0000000000000E+00
 0.5825748982683E+00 -0.2643146234864E+01  0.0000000000000E+00
 0.5845603897456E+00 -0.2569726064901E+01  0.0000000000000E+00
 0.5868564142874E+00 -0.2496339061666E+01  0.0000000000000E+00
 0.5894659442373E+00 -0.2422989996067E+01  0.0000000000000E+00
 0.5924022997829E+00 -0.2349685803918E+01  0.0000000000000E+00
 0.5956913883518E+00 -0.2276436016165E+01  0.0000000000000E+00
 0.5993453499596E+00 -0.2203248992725E+01  0.0000000000000E+00
 0.6033597556817E+00 -0.2130130513309E+01  0.0000000000000E+00
 0.6077406091920E+00 -0.2057088440582E+01  0.0000000000000E+00
 0.6125056606912E+00 -0.1984133466365E+01  0.0000000000000E+00
 0.6176855399988E+00 -0.1911281600768E+01  0.0000000000000E+00
 0.6233255824932E+00 -0.1838554023784E+01  0.0000000000000E+00
 0.6294850009571E+00 -0.1765979519672E+01  0.0000000000000E+00
 0.6362210749138E+00 -0.1693591126067E+01  0.0000000000000E+00
 0.6435130277495E+00 -0.1621398208055E+01  0.0000000000000E+00
 0.6510707748624E+00 -0.1549304059578E+01  0.0000000000000E+00
 0.6585916492917E+00 -0.1477195909042E+01  0.0000000000000E+00
 0.6659710686472E+00 -0.1405034780452E+01  0.0000000000000E+00
 0.6730904972502E+00 -0.1332779095967E+01  0.0000000000000E+00
 0.6050000001251E+00 -0.4186859601281E+01  0.0000000000000E+00
 0.6050000002503E+00 -0.4113342086429E+01  0.0000000000000E+00
 0.6050000003754E+00 -0.4039824684257E+01  0.0000000000000E+00
 0.6050000005005E+00 -0.3966307217550E+01  0.0000000000000E+00
 0.6050000006257E+00 -0.3892789747717E+01  0.0000000000000E+00
 0.6050000007508E+00 -0.3819272288128E+01  0.0000000000000E+00
 0.6050000008759E+00 -0.3745754823288E+01  0.0000000000000E+00
 0.6050000010011E+00 -0.3672237366228E+01  0.0000000000000E+00
 0.6050000011262E+00 -0.3598719903615E+01  0.0000000000000E+00
 0.6050000012513E+00 -0.3525202280347E+01  0.0000000000000E+00
 0.6050000013765E+00 -0.3451684819509E+01  0.0000000000000E+00
 0.6050000015016E+00 -0.3378167379303E+01  0.0000000000000E+00
 0.6050000016267E+00 -0.3304649961005E+01  0.0000000000000E+00
 0.6050000017518E+00 -0.3231132803084E+01  0.0000000000000E+00
 0.6050000018770E+00 -0.3157615389387E+01  0.0000000000000E+00
 0.6050018541235E+00 -0.3084098002567E+01  0.0000000000000E+00
 0.6050898969743E+00 -0.3010580866809E+01  0.0000000000000E+00
 0.6054301423132E+00 -0.2937066271891E+01  0.0000000000000E+00
 0.6061130371772E+00 -0.2863559587694E+01  0.0000000000000E+00
 0.6071613021590E+00 -0.2790067100603E+01  0.0000000000000E+00
 0.6085674065038E+00 -0.2716594812945E+01  0.0000000000000E+00
 0.6103165597969E+00 -0.2643146234864E+01  0.0000000000000E+00
 0.6123965984732E+00 -0.2569726064901E+01  0.0000000000000E+00
 0.6148019575026E+00 -0.2496339061666E+01  0.0000000000000E+00
 0.6175357507690E+00 -0.2422989996067E+01  0.0000000000000E+00
 0.6206119327546E+00 -0.2349685803918E+01  0.0000000000000E+00
 0.6240576445739E+00 -0.2276436016165E+01  0.0000000000000E+00
 0.6278856043386E+00 -0.2203248992725E+01  0.0000000000000E+00
 0.6320911722229E+00 -0.2130130513309E+01  0.0000000000000E+00
 0.6366806377898E+00 -0.2057088440582E+01  0.0000000000000E+00
 0.6416725964878E+00 -0.1984133466364E+01  0.0000000000000E+00
 0.6470991366993E+00 -0.1911281600768E+01  0.0000000000000E+00
 0.6530077526300E+00 -0.1838554023784E+01  0.0000000000000E+00
 0.6594604767190E+00 -0.1765979519672E+01  0.0000000000000E+00
 0.6665173160858E+00 -0.1693591126067E+01  0.0000000000000E+00
 0.6741565047543E+00 -0.1621398208055E+01  0.0000000000000E+00
 0.6820741445701E+00 -0.1549304059578E+01  0.0000000000000E+00
 0.6899531558602E+00 -0.1477195909042E+01  0.0000000000000E+00
 0.6976839761205E+00 -0.1405034780452E+01  0.0000000000000E+00
 0.7051424251163E+00 -0.1332779095967E+01  0.0000000000000E+00
 0.6325000001182E+00 -0.4186859601281E+01  0.0000000000000E+00
 0.6325000002364E+00 -0.4113342086429E+01  0.0000000000000E+00
 0.6325000003545E+00 -0.4039824684257E+01  0.0000000000000E+00
 0.6325000004727E+00 -0.3966307217550E+01  0.0000000000000E+00
 0.6325000005909E+00 -0.3892789747717E+01  0.0000000000000E+00
 0.6325000007091E+00 -0.3819272288128E+01  0.0000000000000E+00
 0.6325000008273E+00 -0.3745754823288E+01  0.0000000000000E+00
 0.6325000009454E+00 -0.3672237366228E+01  0.0000000000000E+00
 0.6325000010636E+00 -0.3598719903615E+01  0.0000000000000E+00
 0.6325000011818E+00 -0.3525202280347E+01  0.0000000000000E+00
 0.6325000013000E+00 -0.3451684819509E+01  0.0000000000000E+00
 0.6325000014182E+00 -0.3378167379303E+01  0.0000000000000E+00
 0.6325000015363E+00 -0.3304649961005E+01  0.0000000000000E+00
 0.6325000016545E+00 -0.3231132803084E+01  0.0000000000000E+00
 0.6325000017727E+00 -0.3157615389387E+01  0.0000000000000E+00
 0.6325019381996E+00 -0.3084098002567E+01  0.0000000000000E+00
 0.6325939829855E+00 -0.3010580866809E+01  0.0000000000000E+00
 0.6329496940088E+00 -0.2937066271891E+01  0.0000000000000E+00
 0.6336636295355E+00 -0.2863559587694E+01  0.0000000000000E+00
 0.6347595429125E+00 -0.2790067100603E+01  0.0000000000000E+00
 0.6362295610779E+00 -0.2716594812945E+01  0.0000000000000E+00
 0.6380582213255E+00 -0.2643146234864E+01  0.0000000000000E+00
 0.6402328072008E+00 -0.2569726064901E+01  0.0000000000000E+00
 0.6427475007179E+00 -0.2496339061666E+01  0.0000000000000E+00
 0.6456055573008E+00 -0.2422989996067E+01  0.0000000000000E+00
 0.6488215657263E+00 -0.2349685803918E+01  0.0000000000000E+00
 0.6524239007960E+00 -0.2276436016165E+01  0.0000000000000E+00
 0.6564258587176E+00 -0.2203248992725E+01  0.0000000000000E+00
 0.6608225887640E+00 -0.2130130513309E+01  0.0000000000000E+00
 0.6656206663877E+00 -0.2057088440582E+01  0.0000000000000E+00
 0.6708395322845E+00 -0.1984133466364E+01  0.0000000000000E+00
 0.6765127333998E+00 -0.1911281600768E+01  0.0000000000000E+00
 0.6826899227668E+00 -0.1838554023784E+01  0.0000000000000E+00
 0.6894359524808E+00 -0.1765979519672E+01  0.0000000000000E+00
 0.6968135572579E+00 -0.1693591126067E+01  0.0000000000000E+00
 0.7047999817591E+00 -0.1621398208055E+01  0.0000000000000E+00
 0.7130775142778E+00 -0.1549304059578E+01  0.0000000000000E+00
 0.7213146624286E+00 -0.1477195909042E+01  0.0000000000000E+00
 0.7293968835938E+00 -0.1405034780452E+01  0.0000000000000E+00
 0.7371943529824E+00 -0.1332779095967E+01  0.0000000000000E+00
 0.6600000001112E+00 -0.4186859601281E+01  0.0000000000000E+00
 0.6600000002225E+00 -0.4113342086429E+01  0.0000000000000E+00
 0.6600000003337E+00 -0.4039824684257E+01  0.0000000000000E+00
 0.6600000004449E+00 -0.3966307217550E+01  0.0000000000000E+00
 0.6600000005561E+00 -0.3892789747717E+01  0.0000000000000E+00
 0.6600000006674E+00 -0.3819272288128E+01  0.0000000000000E+00
 0.6600000007786E+00 -0.3745754823288E+01  0.0000000000000E+00
 0.6600000008898E+00 -0.3672237366228E+01  0.0000000000000E+00
 0.6600000010011E+00 -0.3598719903615E+01  0.0000000000000E+00
 0.6600000011123E+00 -0.3525202280347E+01  0.0000000000000E+00
 0.6600000012235E+00 -0.3451684819509E+01  0.0000000000000E+00
 0.6600000013347E+00 -0.3378167379303E+01  0.0000000000000E+00
 0.6600000014460E+00 -0.3304649961005E+01  0.0000000000000E+00
 0.6600000015572E+00 -0.3231132803084E+01  0.0000000000000E+00
 0.6600000016684E+00 -0.3157615389387E+01  0.0000000000000E+00
 0.6600020222757E+00 -0.3084098002567E+01  0.0000000000000E+00
 0.6600980689967E+00 -0.3010580866809E+01  0.0000000000000E+00
 0.6604692457045E+00 -0.2937066271891E+01  0.0000000000000E+00
 0.6612142218938E+00 -0.2863559587694E+01  0.0000000000000E+00
 0.6623577836659E+00 -0.2790067100603E+01  0.0000000000000E+00
 0.6638917156520E+00 -0.2716594812945E+01  0.0000000000000E+00
 0.6657998828540E+00 -0.2643146234864E+01  0.0000000000000E+00
 0.6680690159284E+00 -0.2569726064901E+01  0.0000000000000E+00
 0.6706930439331E+00 -0.2496339061666E+01  0.0000000000000E+00
 0.6736753638325E+00 -0.2422989996067E+01  0.0000000000000E+00
 0.6770311986980E+00 -0.2349685803918E+01  0.0000000000000E+00
 0.6807901570181E+00 -0.2276436016165E+01  0.0000000000000E+00
 0.6849661130966E+00 -0.2203248992725E+01  0.0000000000000E+00
 0.6895540053052E+00 -0.2130130513309E+01  0.0000000000000E+00
 0.6945606949855E+00 -0.2057088440582E+01  0.0000000000000E+00
 0.7000064680811E+00 -0.1984133466364E+01  0.0000000000000E+00
 0.7059263301002E+00 -0.1911281600768E+01  0.0000000000000E+00
 0.7123720929035E+00 -0.1838554023784E+01  0.0000000000000E+00
 0.7194114282427E+00 -0.1765979519672E+01  0.0000000000000E+00
 0.7271097984299E+00 -0.1693591126067E+01  0.0000000000000E+00
 0.7354434587639E+00 -0.1621398208055E+01  0.0000000000000E+00
 0.7440808839855E+00 -0.1549304059578E+01  0.0000000000000E+00
 0.7526761689971E+00 -0.1477195909042E+01  0.0000000000000E+00
 0.7611097910671E+00 -0.1405034780452E+01  0.0000000000000E+00
 0.7692462808485E+00 -0.1332779095967E+01  0.0000000000000E+00
 0.6875000001043E+00 -0.4186859601281E+01  0.0000000000000E+00
 0.6875000002086E+00 -0.4113342086429E+01  0.0000000000000E+00
 0.6875000003128E+00 -0.4039824684257E+01  0.0000000000000E+00
 0.6875000004171E+00 -0.3966307217550E+01  0.0000000000000E+00
 0.6875000005214E+00 -0.3892789747717E+01  0.0000000000000E+00
 0.6875000006257E+00 -0.3819272288128E+01  0.0000000000000E+00
 0.6875000007299E+00 -0.3745754823288E+01  0.0000000000000E+00
 0.6875000008342E+00 -0.3672237366228E+01  0.0000000000000E+00
 0.6875000009385E+00 -0.3598719903615E+01  0.0000000000000E+00
 0.6875000010428E+00 -0.3525202280347E+01  0.0000000000000E+00
 0.6875000011470E+00 -0.3451684819509E+01  0.0000000000000E+00
 0.6875000012513E+00 -0.3378167379303E+01  0.0000000000000E+00
 0.6875000013556E+00 -0.3304649961005E+01  0.0000000000000E+00
 0.6875000014599E+00 -0.3231132803084E+01  0.0000000000000E+00
 0.6875000015641E+00 -0.3157615389387E+01  0.0000000000000E+00
 0.6875021063518E+00 -0.3084098002567E+01  0.0000000000000E+00
 0.6876021550079E+00 -0.3010580866809E+01  0.0000000000000E+00
 0.6879887974001E+00 -0.2937066271891E+01  0.0000000000000E+00
 0.6887648142521E+00 -0.2863559587694E+01  0.0000000000000E+00
 0.6899560244194E+00 -0.2790067100603E+01  0.0000000000000E+00
 0.6915538702260E+00 -0.2716594812945E+01  0.0000000000000E+00
 0.6935415443826E+00 -0.2643146234864E+01  0.0000000000000E+00
 0.6959052246560E+00 -0.2569726064901E+01  0.0000000000000E+00
 0.6986385871484E+00 -0.2496339061666E+01  0.0000000000000E+00
 0.7017451703643E+00 -0.2422989996067E+01  0.0000000000000E+00
 0.7052408316697E+00 -0.2349685803918E+01  0.0000000000000E+00
 0.7091564132403E+00 -0.2276436016165E+01  0.0000000000000E+00
 0.7135063674756E+00 -0.2203248992725E+01  0.0000000000000E+00
 0.7182854218463E+00 -0.2130130513309E+01  0.0000000000000E+00
 0.7235007235833E+00 -0.2057088440582E+01  0.0000000000000E+00
 0.7291734038778E+00 -0.1984133466364E+01  0.0000000000000E+00
 0.7353399268007E+00 -0.1911281600768E+01  0.0000000000000E+00
 0.7420542630403E+00 -0.1838554023784E+01  0.0000000000000E+00
 0.7493869040045E+00 -0.1765979519672E+01  0.0000000000000E+00
 0.7574060396020E+00 -0.1693591126067E+01  0.0000000000000E+00
 0.7660869357687E+00 -0.1621398208055E+01  0.0000000000000E+00
 0.7750842536932E+00 -0.1549304059578E+01  0.0000000000000E+00
 0.7840376755656E+00 -0.1477195909041E+01  0.0000000000000E+00
 0.7928226985404E+00 -0.1405034780452E+01  0.0000000000000E+00
 0.8012982087146E+00 -0.1332779095967E+01  0.0000000000000E+00
 0.7150000000973E+00 -0.4186859601281E+01  0.0000000000000E+00
 0.7150000001946E+00 -0.4113342086429E+01  0.0000000000000E+00
 0.7150000002920E+00 -0.4039824684257E+01  0.0000000000000E+00
 0.7150000003893E+00 -0.3966307217550E+01  0.0000000000000E+00
 0.7150000004866E+00 -0.3892789747717E+01  0.0000000000000E+00
 0.7150000005839E+00 -0.3819272288128E+01  0.0000000000000E+00
 0.7150000006813E+00 -0.3745754823288E+01  0.0000000000000E+00
 0.7150000007786E+00 -0.3672237366228E+01  0.0000000000000E+00
 0.7150000008759E+00 -0.3598719903615E+01  0.0000000000000E+00
 0.7150000009732E+00 -0.3525202280347E+01  0.0000000000000E+00
 0.7150000010706E+00 -0.3451684819509E+01  0.0000000000000E+00
 0.7150000011679E+00 -0.3378167379303E+01  0.0000000000000E+00
 0.7150000012652E+00 -0.3304649961005E+01  0.0000000000000E+00
 0.7150000013625E+00 -0.3231132803084E+01  0.0000000000000E+00
 0.7150000014599E+00 -0.3157615389387E+01  0.0000000000000E+00
 0.7150021904279E+00 -0.3084098002567E+01  0.0000000000000E+00
 0.7151062410191E+00 -0.3010580866809E+01  0.0000000000000E+00
 0.7155083490957E+00 -0.2937066271891E+01  0.0000000000000E+00
 0.7163154066104E+00 -0.2863559587694E+01  0.0000000000000E+00
 0.7175542651729E+00 -0.2790067100603E+01  0.0000000000000E+00
 0.7192160248001E+00 -0.2716594812945E+01  0.0000000000000E+00
 0.7212832059111E+00 -0.2643146234864E+01  0.0000000000000E+00
 0.7237414333836E+00 -0.2569726064901E+01  0.0000000000000E+00
 0.7265841303636E+00 -0.2496339061666E+01  0.0000000000000E+00
 0.7298149768960E+00 -0.2422989996067E+01  0.0000000000000E+00
 0.7334504646414E+00 -0.2349685803918E+01  0.0000000000000E+00
 0.7375226694624E+00 -0.2276436016165E+01  0.0000000000000E+00
 0.7420466218545E+00 -0.2203248992725E+01  0.0000000000000E+00
 0.7470168383875E+00 -0.2130130513309E+01  0.0000000000000E+00
 0.7524407521811E+00 -0.2057088440582E+01  0.0000000000000E+00
 0.7583403396744E+00 -0.1984133466364E+01  0.0000000000000E+00
 0.7647535235011E+00 -0.1911281600768E+01  0.0000000000000E+00
 0.7717364331770E+00 -0.1838554023784E+01  0.0000000000000E+00
 0.7793623797664E+00 -0.1765979519672E+01  0.0000000000000E+00
 0.7877022807740E+00 -0.1693591126067E+01  0.0000000000000E+00
 0.7967304127735E+00 -0.1621398208055E+01  0.0000000000000E+00
 0.8060876234009E+00 -0.1549304059578E+01  0.0000000000000E+00
 0.8153991821340E+00 -0.1477195909041E+01  0.0000000000000E+00
 0.8245356060137E+00 -0.1405034780452E+01  0.0000000000000E+00
 0.8333501365807E+00 -0.1332779095966E+01  0.0000000000000E+00
 0.7425000000904E+00 -0.4186859601281E+01  0.0000000000000E+00
 0.7425000001807E+00 -0.4113342086429E+01  0.0000000000000E+00
 0.7425000002711E+00 -0.4039824684257E+01  0.0000000000000E+00
 0.7425000003615E+00 -0.3966307217550E+01  0.0000000000000E+00
 0.7425000004519E+00 -0.3892789747717E+01  0.0000000000000E+00
 0.7425000005422E+00 -0.3819272288128E+01  0.0000000000000E+00
 0.7425000006326E+00 -0.3745754823288E+01  0.0000000000000E+00
 0.7425000007230E+00 -0.3672237366228E+01  0.0000000000000E+00
 0.7425000008134E+00 -0.3598719903615E+01  0.0000000000000E+00
 0.7425000009037E+00 -0.3525202280347E+01  0.0000000000000E+00
 0.7425000009941E+00 -0.3451684819509E+01  0.0000000000000E+00
 0.7425000010845E+00 -0.3378167379303E+01  0.0000000000000E+00
 0.7425000011748E+00 -0.3304649961005E+01  0.0000000000000E+00
 0.7425000012652E+00 -0.3231132803084E+01  0.0000000000000E+00
 0.7425000013556E+00 -0.3157615389387E+01  0.0000000000000E+00
 0.7425022745040E+00 -0.3084098002567E+01  0.0000000000000E+00
 0.7426103270303E+00 -0.3010580866809E+01  0.0000000000000E+00
 0.7430279007913E+00 -0.2937066271891E+01  0.0000000000000E+00
 0.7438659989687E+00 -0.2863559587694E+01  0.0000000000000E+00
 0.7451525059264E+00 -0.2790067100603E+01  0.0000000000000E+00
 0.7468781793742E+00 -0.2716594812945E+01  0.0000000000000E+00
 0.7490248674397E+00 -0.2643146234864E+01  0.0000000000000E+00
 0.7515776421111E+00 -0.2569726064901E+01  0.0000000000000E+00
 0.7545296735789E+00 -0.2496339061666E+01  0.0000000000000E+00
 0.7578847834277E+00 -0.2422989996067E+01  0.0000000000000E+00
 0.7616600976131E+00 -0.2349685803918E+01  0.0000000000000E+00
 0.7658889256845E+00 -0.2276436016165E+01  0.0000000000000E+00
 0.7705868762335E+00 -0.2203248992725E+01  0.0000000000000E+00
 0.7757482549286E+00 -0.2130130513309E+01  0.0000000000000E+00
 0.7813807807790E+00 -0.2057088440582E+01  0.0000000000000E+00
 0.7875072754711E+00 -0.1984133466364E+01  0.0000000000000E+00
 0.7941671202016E+00 -0.1911281600768E+01  0.0000000000000E+00
 0.8014186033138E+00 -0.1838554023784E+01  0.0000000000000E+00
 0.8093378555282E+00 -0.1765979519671E+01  0.0000000000000E+00
 0.8179985219461E+00 -0.1693591126067E+01  0.0000000000000E+00
 0.8273738897783E+00 -0.1621398208055E+01  0.0000000000000E+00
 0.8370909931086E+00 -0.1549304059578E+01  0.0000000000000E+00
 0.8467606887025E+00 -0.1477195909041E+01  0.0000000000000E+00
 0.8562485134870E+00 -0.1405034780452E+01  0.0000000000000E+00
 0.8654020644468E+00 -0.1332779095966E+01  0.0000000000000E+00
 0.7700000000834E+00 -0.4186859601281E+01  0.0000000000000E+00
 0.7700000001668E+00 -0.4113342086429E+01  0.0000000000000E+00
 0.7700000002503E+00 -0.4039824684257E+01  0.0000000000000E+00
 0.7700000003337E+00 -0.3966307217550E+01  0.0000000000000E+00
 0.7700000004171E+00 -0.3892789747717E+01  0.0000000000000E+00
 0.7700000005005E+00 -0.3819272288128E+01  0.0000000000000E+00
 0.7700000005839E+00 -0.3745754823288E+01  0.0000000000000E+00
 0.7700000006674E+00 -0.3672237366228E+01  0.0000000000000E+00
 0.7700000007508E+00 -0.3598719903615E+01  0.0000000000000E+00
 0.7700000008342E+00 -0.3525202280347E+01  0.0000000000000E+00
 0.7700000009176E+00 -0.3451684819509E+01  0.0000000000000E+00
 0.7700000010011E+00 -0.3378167379303E+01  0.0000000000000E+00
 0.7700000010845E+00 -0.3304649961005E+01  0.0000000000000E+00
 0.7700000011679E+00 -0.3231132803084E+01  0.0000000000000E+00
 0.7700000012513E+00 -0.3157615389387E+01  0.0000000000000E+00
 0.7700023585801E+00 -0.3084098002567E+01  0.0000000000000E+00
 0.7701144130415E+00 -0.3010580866809E+01  0.0000000000000E+00
 0.7705474524870E+00 -0.2937066271891E+01  0.0000000000000E+00
 0.7714165913271E+00 -0.2863559587694E+01  0.0000000000000E+00
 0.7727507466799E+00 -0.2790067100603E+01  0.0000000000000E+00
 0.7745403339483E+00 -0.2716594812945E+01  0.0000000000000E+00
 0.7767665289682E+00 -0.2643146234864E+01  0.0000000000000E+00
 0.7794138508387E+00 -0.2569726064901E+01  0.0000000000000E+00
 0.7824752167941E+00 -0.2496339061666E+01  0.0000000000000E+00
 0.7859545899595E+00 -0.2422989996067E+01  0.0000000000000E+00
 0.7898697305848E+00 -0.2349685803918E+01  0.0000000000000E+00
 0.7942551819066E+00 -0.2276436016165E+01  0.0000000000000E+00
 0.7991271306125E+00 -0.2203248992724E+01  0.0000000000000E+00
 0.8044796714698E+00 -0.2130130513309E+01  0.0000000000000E+00
 0.8103208093768E+00 -0.2057088440582E+01  0.0000000000000E+00
 0.8166742112677E+00 -0.1984133466364E+01  0.0000000000000E+00
 0.8235807169020E+00 -0.1911281600768E+01  0.0000000000000E+00
 0.8311007734505E+00 -0.1838554023784E+01  0.0000000000000E+00
 0.8393133312901E+00 -0.1765979519671E+01  0.0000000000000E+00
 0.8482947631181E+00 -0.1693591126067E+01  0.0000000000000E+00
 0.8580173667831E+00 -0.1621398208055E+01  0.0000000000000E+00
 0.8680943628163E+00 -0.1549304059578E+01  0.0000000000000E+00
 0.8781221952709E+00 -0.1477195909041E+01  0.0000000000000E+00
 0.8879614209602E+00 -0.1405034780452E+01  0.0000000000000E+00
 0.8974539923129E+00 -0.1332779095966E+01  0.0000000000000E+00
 0.7975000000765E+00 -0.4186859601281E+01  0.0000000000000E+00
 0.7975000001529E+00 -0.4113342086429E+01  0.0000000000000E+00
 0.7975000002294E+00 -0.4039824684257E+01  0.0000000000000E+00
 0.7975000003059E+00 -0.3966307217550E+01  0.0000000000000E+00
 0.7975000003823E+00 -0.3892789747717E+01  0.0000000000000E+00
 0.7975000004588E+00 -0.3819272288128E+01  0.0000000000000E+00
 0.7975000005353E+00 -0.3745754823288E+01  0.0000000000000E+00
 0.7975000006118E+00 -0.3672237366228E+01  0.0000000000000E+00
 0.7975000006882E+00 -0.3598719903615E+01  0.0000000000000E+00
 0.7975000007647E+00 -0.3525202280347E+01  0.0000000000000E+00
 0.7975000008412E+00 -0.3451684819509E+01  0.0000000000000E+00
 0.7975000009176E+00 -0.3378167379303E+01  0.0000000000000E+00
 0.7975000009941E+00 -0.3304649961005E+01  0.0000000000000E+00
 0.7975000010706E+00 -0.3231132803084E+01  0.0000000000000E+00
 0.7975000011470E+00 -0.3157615389387E+01  0.0000000000000E+00
 0.7975024426562E+00 -0.3084098002567E+01  0.0000000000000E+00
 0.7976184990527E+00 -0.3010580866809E+01  0.0000000000000E+00
 0.7980670041826E+00 -0.2937066271891E+01  0.0000000000000E+00
 0.7989671836854E+00 -0.2863559587694E+01  0.0000000000000E+00
 0.8003489874333E+00 -0.2790067100603E+01  0.0000000000000E+00
 0.8022024885224E+00 -0.2716594812945E+01  0.0000000000000E+00
 0.8045081904968E+00 -0.2643146234864E+01  0.0000000000000E+00
 0.8072500595663E+00 -0.2569726064901E+01  0.0000000000000E+00
 0.8104207600094E+00 -0.2496339061666E+01  0.0000000000000E+00
 0.8140243964912E+00 -0.2422989996067E+01  0.0000000000000E+00
 0.8180793635565E+00 -0.2349685803918E+01  0.0000000000000E+00
 0.8226214381287E+00 -0.2276436016165E+01  0.0000000000000E+00
 0.8276673849915E+00 -0.2203248992724E+01  0.0000000000000E+00
 0.8332110880109E+00 -0.2130130513309E+01  0.0000000000000E+00
 0.8392608379746E+00 -0.2057088440582E+01  0.0000000000000E+00
 0.8458411470644E+00 -0.1984133466364E+01  0.0000000000000E+00
 0.8529943136025E+00 -0.1911281600768E+01  0.0000000000000E+00
 0.8607829435873E+00 -0.1838554023783E+01  0.0000000000000E+00
 0.8692888070519E+00 -0.1765979519671E+01  0.0000000000000E+00
 0.8785910042902E+00 -0.1693591126067E+01  0.0000000000000E+00
 0.8886608437878E+00 -0.1621398208055E+01  0.0000000000000E+00
 0.8990977325239E+00 -0.1549304059578E+01  0.0000000000000E+00
 0.9094837018394E+00 -0.1477195909041E+01  0.0000000000000E+00
 0.9196743284335E+00 -0.1405034780452E+01  0.0000000000000E+00
 0.9295059201790E+00 -0.1332779095966E+01  0.0000000000000E+00
 0.8250000000695E+00 -0.4186859601281E+01  0.0000000000000E+00
 0.8250000001390E+00 -0.4113342086429E+01  0.0000000000000E+00
 0.8250000002086E+00 -0.4039824684257E+01  0.0000000000000E+00
 0.8250000002781E+00 -0.3966307217550E+01  0.0000000000000E+00
 0.8250000003476E+00 -0.3892789747717E+01  0.0000000000000E+00
 0.8250000004171E+00 -0.3819272288128E+01  0.0000000000000E+00
 0.8250000004866E+00 -0.3745754823288E+01  0.0000000000000E+00
 0.8250000005561E+00 -0.3672237366228E+01  0.0000000000000E+00
 0.8250000006257E+00 -0.3598719903615E+01  0.0000000000000E+00
 0.8250000006952E+00 -0.3525202280347E+01  0.0000000000000E+00
 0.8250000007647E+00 -0.3451684819509E+01  0.0000000000000E+00
 0.8250000008342E+00 -0.3378167379303E+01  0.0000000000000E+00
 0.8250000009037E+00 -0.3304649961005E+01  0.0000000000000E+00
 0.8250000009732E+00 -0.3231132803084E+01  0.0000000000000E+00
 0.8250000010428E+00 -0.3157615389387E+01  0.0000000000000E+00
 0.8250025267323E+00 -0.3084098002567E+01  0.0000000000000E+00
 0.8251225850639E+00 -0.3010580866809E+01  0.0000000000000E+00
 0.8255865558782E+00 -0.2937066271891E+01  0.0000000000000E+00
 0.8265177760437E+00 -0.2863559587694E+01  0.0000000000000E+00
 0.8279472281868E+00 -0.2790067100603E+01  0.0000000000000E+00
 0.8298646430965E+00 -0.2716594812945E+01  0.0000000000000E+00
 0.8322498520254E+00 -0.2643146234864E+01  0.0000000000000E+00
 0.8350862682939E+00 -0.2569726064901E+01  0.0000000000000E+00
 0.8383663032246E+00 -0.2496339061666E+01  0.0000000000000E+00
 0.8420942030230E+00 -0.2422989996067E+01  0.0000000000000E+00
 0.8462889965281E+00 -0.2349685803918E+01  0.0000000000000E+00
 0.8509876943508E+00 -0.2276436016165E+01  0.0000000000000E+00
 0.8562076393705E+00 -0.2203248992724E+01  0.0000000000000E+00
 0.8619425045521E+00 -0.2130130513309E+01  0.0000000000000E+00
 0.8682008665724E+00 -0.2057088440582E+01  0.0000000000000E+00
 0.8750080828610E+00 -0.1984133466364E+01  0.0000000000000E+00
 0.8824079103029E+00 -0.1911281600768E+01  0.0000000000000E+00
 0.8904651137241E+00 -0.1838554023783E+01  0.0000000000000E+00
 0.8992642828138E+00 -0.1765979519671E+01  0.0000000000000E+00
 0.9088872454622E+00 -0.1693591126067E+01  0.0000000000000E+00
 0.9193043207926E+00 -0.1621398208055E+01  0.0000000000000E+00
 0.9301011022316E+00 -0.1549304059578E+01  0.0000000000000E+00
 0.9408452084078E+00 -0.1477195909041E+01  0.0000000000000E+00
 0.9513872359068E+00 -0.1405034780452E+01  0.0000000000000E+00
 0.9615578480451E+00 -0.1332779095966E+01  0.0000000000000E+00
 0.8525000000626E+00 -0.4186859601281E+01  0.0000000000000E+00
 0.8525000001251E+00 -0.4113342086429E+01  0.0000000000000E+00
 0.8525000001877E+00 -0.4039824684257E+01  0.0000000000000E+00
 0.8525000002503E+00 -0.3966307217550E+01  0.0000000000000E+00
 0.8525000003128E+00 -0.3892789747717E+01  0.0000000000000E+00
 0.8525000003754E+00 -0.3819272288128E+01  0.0000000000000E+00
 0.8525000004380E+00 -0.3745754823288E+01  0.0000000000000E+00
 0.8525000005005E+00 -0.3672237366228E+01  0.0000000000000E+00
 0.8525000005631E+00 -0.3598719903615E+01  0.0000000000000E+00
 0.8525000006257E+00 -0.3525202280347E+01  0.0000000000000E+00
 0.8525000006882E+00 -0.3451684819509E+01  0.0000000000000E+00
 0.8525000007508E+00 -0.3378167379303E+01  0.0000000000000E+00
 0.8525000008134E+00 -0.3304649961005E+01  0.0000000000000E+00
 0.8525000008759E+00 -0.3231132803084E+01  0.0000000000000E+00
 0.8525000009385E+00 -0.3157615389387E+01  0.0000000000000E+00
 0.8525026108084E+00 -0.3084098002567E+01  0.0000000000000E+00
 0.8526266710751E+00 -0.3010580866809E+01  0.0000000000000E+00
 0.8531061075738E+00 -0.2937066271891E+01  0.0000000000000E+00
 0.8540683684020E+00 -0.2863559587694E+01  0.0000000000000E+00
 0.8555454689403E+00 -0.2790067100603E+01  0.0000000000000E+00
 0.8575267976705E+00 -0.2716594812945E+01  0.0000000000000E+00
 0.8599915135539E+00 -0.2643146234864E+01  0.0000000000000E+00
 0.8629224770215E+00 -0.2569726064901E+01  0.0000000000000E+00
 0.8663118464399E+00 -0.2496339061666E+01  0.0000000000000E+00
 0.8701640095547E+00 -0.2422989996067E+01  0.0000000000000E+00
 0.8744986294998E+00 -0.2349685803918E+01  0.0000000000000E+00
 0.8793539505729E+00 -0.2276436016165E+01  0.0000000000000E+00
 0.8847478937495E+00 -0.2203248992724E+01  0.0000000000000E+00
 0.8906739210932E+00 -0.2130130513309E+01  0.0000000000000E+00
 0.8971408951702E+00 -0.2057088440582E+01  0.0000000000000E+00
 0.9041750186577E+00 -0.1984133466364E+01  0.0000000000000E+00
 0.9118215070034E+00 -0.1911281600768E+01  0.0000000000000E+00
 0.9201472838608E+00 -0.1838554023783E+01  0.0000000000000E+00
 0.9292397585756E+00 -0.1765979519671E+01  0.0000000000000E+00
 0.9391834866342E+00 -0.1693591126067E+01  0.0000000000000E+00
 0.9499477977974E+00 -0.1621398208055E+01  0.0000000000000E+00
 0.9611044719393E+00 -0.1549304059578E+01  0.0000000000000E+00
 0.9722067149763E+00 -0.1477195909041E+01  0.0000000000000E+00
 0.9831001433801E+00 -0.1405034780452E+01  0.0000000000000E+00
 0.9936097759111E+00 -0.1332779095966E+01  0.0000000000000E+00
 0.8800000000556E+00 -0.4186859601281E+01  0.0000000000000E+00
 0.8800000001112E+00 -0.4113342086429E+01  0.0000000000000E+00
 0.8800000001668E+00 -0.4039824684257E+01  0.0000000000000E+00
 0.8800000002225E+00 -0.3966307217550E+01  0.0000000000000E+00
 0.8800000002781E+00 -0.3892789747717E+01  0.0000000000000E+00
 0.8800000003337E+00 -0.3819272288128E+01  0.0000000000000E+00
 0.8800000003893E+00 -0.3745754823288E+01  0.0000000000000E+00
 0.8800000004449E+00 -0.3672237366228E+01  0.0000000000000E+00
 0.8800000005005E+00 -0.3598719903615E+01  0.0000000000000E+00
 0.8800000005561E+00 -0.3525202280347E+01  0.0000000000000E+00
 0.8800000006118E+00 -0.3451684819509E+01  0.0000000000000E+00
 0.8800000006674E+00 -0.3378167379303E+01  0.0000000000000E+00
 0.8800000007230E+00 -0.3304649961005E+01  0.0000000000000E+00
 0.8800000007786E+00 -0.3231132803084E+01  0.0000000000000E+00
 0.8800000008342E+00 -0.3157615389387E+01  0.0000000000000E+00
 0.8800026948845E+00 -0.3084098002567E+01  0.0000000000000E+00
 0.8801307570862E+00 -0.3010580866809E+01  0.0000000000000E+00
 0.8806256592695E+00 -0.2937066271891E+01  0.0000000000000E+00
 0.8816189607603E+00 -0.2863559587694E+01  0.0000000000000E+00
 0.8831437096938E+00 -0.2790067100603E+01  0.0000000000000E+00
 0.8851889522446E+00 -0.2716594812945E+01  0.0000000000000E+00
 0.8877331750825E+00 -0.2643146234864E+01  0.0000000000000E+00
 0.8907586857491E+00 -0.2569726064901E+01  0.0000000000000E+00
 0.8942573896551E+00 -0.2496339061666E+01  0.0000000000000E+00
 0.8982338160864E+00 -0.2422989996067E+01  0.0000000000000E+00
 0.9027082624715E+00 -0.2349685803918E+01  0.0000000000000E+00
 0.9077202067950E+00 -0.2276436016165E+01  0.0000000000000E+00
 0.9132881481285E+00 -0.2203248992724E+01  0.0000000000000E+00
 0.9194053376344E+00 -0.2130130513309E+01  0.0000000000000E+00
 0.9260809237681E+00 -0.2057088440582E+01  0.0000000000000E+00
 0.9333419544543E+00 -0.1984133466364E+01  0.0000000000000E+00
 0.9412351037039E+00 -0.1911281600768E+01  0.0000000000000E+00
 0.9498294539976E+00 -0.1838554023783E+01  0.0000000000000E+00
 0.9592152343375E+00 -0.1765979519671E+01  0.0000000000000E+00
 0.9694797278063E+00 -0.1693591126067E+01  0.0000000000000E+00
 0.9805912748022E+00 -0.1621398208055E+01  0.0000000000000E+00
 0.9921078416470E+00 -0.1549304059578E+01  0.0000000000000E+00
 0.1003568221545E+01 -0.1477195909041E+01  0.0000000000000E+00
 0.1014813050853E+01 -0.1405034780452E+01  0.0000000000000E+00
 0.1025661703777E+01 -0.1332779095966E+01  0.0000000000000E+00
 0.9075000000487E+00 -0.4186859601281E+01  0.0000000000000E+00
 0.9075000000973E+00 -0.4113342086429E+01  0.0000000000000E+00
 0.9075000001460E+00 -0.4039824684257E+01  0.0000000000000E+00
 0.9075000001946E+00 -0.3966307217550E+01  0.0000000000000E+00
 0.9075000002433E+00 -0.3892789747717E+01  0.0000000000000E+00
 0.9075000002920E+00 -0.3819272288128E+01  0.0000000000000E+00
 0.9075000003406E+00 -0.3745754823288E+01  0.0000000000000E+00
 0.9075000003893E+00 -0.3672237366228E+01  0.0000000000000E+00
 0.9075000004380E+00 -0.3598719903615E+01  0.0000000000000E+00
 0.9075000004866E+00 -0.3525202280347E+01  0.0000000000000E+00
 0.9075000005353E+00 -0.3451684819509E+01  0.0000000000000E+00
 0.9075000005839E+00 -0.3378167379303E+01  0.0000000000000E+00
 0.9075000006326E+00 -0.3304649961005E+01  0.0000000000000E+00
 0.9075000006813E+00 -0.3231132803084E+01  0.0000000000000E+00
 0.9075000007299E+00 -0.3157615389387E+01  0.0000000000000E+00
 0.9075027789606E+00 -0.3084098002567E+01  0.0000000000000E+00
 0.9076348430974E+00 -0.3010580866809E+01  0.0000000000000E+00
 0.9081452109651E+00 -0.2937066271891E+01  0.0000000000000E+00
 0.9091695531186E+00 -0.2863559587694E+01  0.0000000000000E+00
 0.9107419504473E+00 -0.2790067100603E+01  0.0000000000000E+00
 0.9128511068187E+00 -0.2716594812945E+01  0.0000000000000E+00
 0.9154748366110E+00 -0.2643146234864E+01  0.0000000000000E+00
 0.9185948944766E+00 -0.2569726064901E+01  0.0000000000000E+00
 0.9222029328704E+00 -0.2496339061666E+01  0.0000000000000E+00
 0.9263036226182E+00 -0.2422989996067E+01  0.0000000000000E+00
 0.9309178954432E+00 -0.2349685803918E+01  0.0000000000000E+00
 0.9360864630172E+00 -0.2276436016165E+01  0.0000000000000E+00
 0.9418284025075E+00 -0.2203248992724E+01  0.0000000000000E+00
 0.9481367541755E+00 -0.2130130513309E+01  0.0000000000000E+00
 0.9550209523659E+00 -0.2057088440582E+01  0.0000000000000E+00
 0.9625088902510E+00 -0.1984133466364E+01  0.0000000000000E+00
 0.9706487004043E+00 -0.1911281600768E+01  0.0000000000000E+00
 0.9795116241343E+00 -0.1838554023783E+01  0.0000000000000E+00
 0.9891907100993E+00 -0.1765979519671E+01  0.0000000000000E+00
 0.9997759689783E+00 -0.1693591126066E+01  0.0000000000000E+00
 0.1011234751807E+01 -0.1621398208055E+01  0.0000000000000E+00
 0.1023111211355E+01 -0.1549304059578E+01  0.0000000000000E+00
 0.1034929728113E+01 -0.1477195909041E+01  0.0000000000000E+00
 0.1046525958327E+01 -0.1405034780452E+01  0.0000000000000E+00
 0.1057713631643E+01 -0.1332779095966E+01  0.0000000000000E+00
 0.9350000000417E+00 -0.4186859601281E+01  0.0000000000000E+00
 0.9350000000834E+00 -0.4113342086429E+01  0.0000000000000E+00
 0.9350000001251E+00 -0.4039824684257E+01  0.0000000000000E+00
 0.9350000001668E+00 -0.3966307217550E+01  0.0000000000000E+00
 0.9350000002086E+00 -0.3892789747717E+01  0.0000000000000E+00
 0.9350000002503E+00 -0.3819272288128E+01  0.0000000000000E+00
 0.9350000002920E+00 -0.3745754823288E+01  0.0000000000000E+00
 0.9350000003337E+00 -0.3672237366228E+01  0.0000000000000E+00
 0.9350000003754E+00 -0.3598719903615E+01  0.0000000000000E+00
 0.9350000004171E+00 -0.3525202280347E+01  0.0000000000000E+00
 0.9350000004588E+00 -0.3451684819509E+01  0.0000000000000E+00
 0.9350000005005E+00 -0.3378167379303E+01  0.0000000000000E+00
 0.9350000005422E+00 -0.3304649961005E+01  0.0000000000000E+00
 0.9350000005839E+00 -0.3231132803084E+01  0.0000000000000E+00
 0.9350000006257E+00 -0.3157615389387E+01  0.0000000000000E+00
 0.9350028630367E+00 -0.3084098002567E+01  0.0000000000000E+00
 0.9351389291086E+00 -0.3010580866809E+01  0.0000000000000E+00
 0.9356647626607E+00 -0.2937066271891E+01  0.0000000000000E+00
 0.9367201454770E+00 -0.2863559587694E+01  0.0000000000000E+00
 0.9383401912008E+00 -0.2790067100603E+01  0.0000000000000E+00
 0.9405132613928E+00 -0.2716594812945E+01  0.0000000000000E+00
 0.9432164981396E+00 -0.2643146234864E+01  0.0000000000000E+00
 0.9464311032042E+00 -0.2569726064901E+01  0.0000000000000E+00
 0.9501484760856E+00 -0.2496339061666E+01  0.0000000000000E+00
 0.9543734291499E+00 -0.2422989996067E+01  0.0000000000000E+00
 0.9591275284149E+00 -0.2349685803918E+01  0.0000000000000E+00
 0.9644527192393E+00 -0.2276436016165E+01  0.0000000000000E+00
 0.9703686568865E+00 -0.2203248992724E+01  0.0000000000000E+00
 0.9768681707167E+00 -0.2130130513309E+01  0.0000000000000E+00
 0.9839609809637E+00 -0.2057088440582E+01  0.0000000000000E+00
 0.9916758260476E+00 -0.1984133466364E+01  0.0000000000000E+00
 0.1000062297105E+01 -0.1911281600768E+01  0.0000000000000E+00
 0.1009193794271E+01 -0.1838554023783E+01  0.0000000000000E+00
 0.1019166185861E+01 -0.1765979519671E+01  0.0000000000000E+00
 0.1030072210150E+01 -0.1693591126066E+01  0.0000000000000E+00
 0.1041878228812E+01 -0.1621398208055E+01  0.0000000000000E+00
 0.1054114581062E+01 -0.1549304059578E+01  0.0000000000000E+00
 0.1066291234682E+01 -0.1477195909041E+01  0.0000000000000E+00
 0.1078238865800E+01 -0.1405034780452E+01  0.0000000000000E+00
 0.1089765559509E+01 -0.1332779095966E+01  0.0000000000000E+00
 0.9625000000348E+00 -0.4186859601281E+01  0.0000000000000E+00
 0.9625000000695E+00 -0.4113342086429E+01  0.0000000000000E+00
 0.9625000001043E+00 -0.4039824684257E+01  0.0000000000000E+00
 0.9625000001390E+00 -0.3966307217550E+01  0.0000000000000E+00
 0.9625000001738E+00 -0.3892789747717E+01  0.0000000000000E+00
 0.9625000002086E+00 -0.3819272288128E+01  0.0000000000000E+00
 0.9625000002433E+00 -0.3745754823288E+01  0.0000000000000E+00
 0.9625000002781E+00 -0.3672237366228E+01  0.0000000000000E+00
 0.9625000003128E+00 -0.3598719903615E+01  0.0000000000000E+00
 0.9625000003476E+00 -0.3525202280347E+01  0.0000000000000E+00
 0.9625000003823E+00 -0.3451684819509E+01  0.0000000000000E+00
 0.9625000004171E+00 -0.3378167379303E+01  0.0000000000000E+00
 0.9625000004519E+00 -0.3304649961005E+01  0.0000000000000E+00
 0.9625000004866E+00 -0.3231132803084E+01  0.0000000000000E+00
 0.9625000005214E+00 -0.3157615389387E+01  0.0000000000000E+00
 0.9625029471128E+00 -0.3084098002567E+01  0.0000000000000E+00
 0.9626430151198E+00 -0.3010580866809E+01  0.0000000000000E+00
 0.9631843143563E+00 -0.2937066271891E+01  0.0000000000000E+00
 0.9642707378353E+00 -0.2863559587694E+01  0.0000000000000E+00
 0.9659384319542E+00 -0.2790067100603E+01  0.0000000000000E+00
 0.9681754159669E+00 -0.2716594812945E+01  0.0000000000000E+00
 0.9709581596681E+00 -0.2643146234864E+01  0.0000000000000E+00
 0.9742673119318E+00 -0.2569726064901E+01  0.0000000000000E+00
 0.9780940193009E+00 -0.2496339061666E+01  0.0000000000000E+00
 0.9824432356817E+00 -0.2422989996067E+01  0.0000000000000E+00
 0.9873371613866E+00 -0.2349685803918E+01  0.0000000000000E+00
 0.9928189754614E+00 -0.2276436016165E+01  0.0000000000000E+00
 0.9989089112655E+00 -0.2203248992724E+01  0.0000000000000E+00
 0.1005599587258E+01 -0.2130130513309E+01  0.0000000000000E+00
 0.1012901009562E+01 -0.2057088440582E+01  0.0000000000000E+00
 0.1020842761844E+01 -0.1984133466364E+01  0.0000000000000E+00
 0.1029475893805E+01 -0.1911281600768E+01  0.0000000000000E+00
 0.1038875964408E+01 -0.1838554023783E+01  0.0000000000000E+00
 0.1049141661623E+01 -0.1765979519671E+01  0.0000000000000E+00
 0.1060368451322E+01 -0.1693591126066E+01  0.0000000000000E+00
 0.1072521705817E+01 -0.1621398208055E+01  0.0000000000000E+00
 0.1085117950770E+01 -0.1549304059578E+01  0.0000000000000E+00
 0.1097652741250E+01 -0.1477195909041E+01  0.0000000000000E+00
 0.1109951773273E+01 -0.1405034780452E+01  0.0000000000000E+00
 0.1121817487376E+01 -0.1332779095966E+01  0.0000000000000E+00
 0.9900000000278E+00 -0.4186859601281E+01  0.0000000000000E+00
 0.9900000000556E+00 -0.4113342086429E+01  0.0000000000000E+00
 0.9900000000834E+00 -0.4039824684257E+01  0.0000000000000E+00
 0.9900000001112E+00 -0.3966307217550E+01  0.0000000000000E+00
 0.9900000001390E+00 -0.3892789747717E+01  0.0000000000000E+00
 0.9900000001668E+00 -0.3819272288128E+01  0.0000000000000E+00
 0.9900000001946E+00 -0.3745754823288E+01  0.0000000000000E+00
 0.9900000002225E+00 -0.3672237366228E+01  0.0000000000000E+00
 0.9900000002503E+00 -0.3598719903615E+01  0.0000000000000E+00
 0.9900000002781E+00 -0.3525202280347E+01  0.0000000000000E+00
 0.9900000003059E+00 -0.3451684819509E+01  0.0000000000000E+00
 0.9900000003337E+00 -0.3378167379303E+01  0.0000000000000E+00
 0.9900000003615E+00 -0.3304649961005E+01  0.0000000000000E+00
 0.9900000003893E+00 -0.3231132803084E+01  0.0000000000000E+00
 0.9900000004171E+00 -0.3157615389387E+01  0.0000000000000E+00
 0.9900030311889E+00 -0.3084098002567E+01  0.0000000000000E+00
 0.9901471011310E+00 -0.3010580866809E+01  0.0000000000000E+00
 0.9907038660519E+00 -0.2937066271891E+01  0.0000000000000E+00
 0.9918213301936E+00 -0.2863559587694E+01  0.0000000000000E+00
 0.9935366727077E+00 -0.2790067100603E+01  0.0000000000000E+00
 0.9958375705410E+00 -0.2716594812945E+01  0.0000000000000E+00
 0.9986998211967E+00 -0.2643146234864E+01  0.0000000000000E+00
 0.1002103520659E+01 -0.2569726064901E+01  0.0000000000000E+00
 0.1006039562516E+01 -0.2496339061666E+01  0.0000000000000E+00
 0.1010513042213E+01 -0.2422989996067E+01  0.0000000000000E+00
 0.1015546794358E+01 -0.2349685803918E+01  0.0000000000000E+00
 0.1021185231684E+01 -0.2276436016165E+01  0.0000000000000E+00
 0.1027449165644E+01 -0.2203248992724E+01  0.0000000000000E+00
 0.1034331003799E+01 -0.2130130513309E+01  0.0000000000000E+00
 0.1041841038159E+01 -0.2057088440582E+01  0.0000000000000E+00
 0.1050009697641E+01 -0.1984133466364E+01  0.0000000000000E+00
 0.1058889490506E+01 -0.1911281600768E+01  0.0000000000000E+00
 0.1068558134545E+01 -0.1838554023783E+01  0.0000000000000E+00
 0.1079117137385E+01 -0.1765979519671E+01  0.0000000000000E+00
 0.1090664692494E+01 -0.1693591126066E+01  0.0000000000000E+00
 0.1103165182821E+01 -0.1621398208054E+01  0.0000000000000E+00
 0.1116121320478E+01 -0.1549304059577E+01  0.0000000000000E+00
 0.1129014247819E+01 -0.1477195909041E+01  0.0000000000000E+00
 0.1141664680747E+01 -0.1405034780452E+01  0.0000000000000E+00
 0.1153869415242E+01 -0.1332779095966E+01  0.0000000000000E+00
 0.1017500000021E+01 -0.4186859601281E+01  0.0000000000000E+00
 0.1017500000042E+01 -0.4113342086429E+01  0.0000000000000E+00
 0.1017500000063E+01 -0.4039824684257E+01  0.0000000000000E+00
 0.1017500000083E+01 -0.3966307217550E+01  0.0000000000000E+00
 0.1017500000104E+01 -0.3892789747717E+01  0.0000000000000E+00
 0.1017500000125E+01 -0.3819272288128E+01  0.0000000000000E+00
 0.1017500000146E+01 -0.3745754823288E+01  0.0000000000000E+00
 0.1017500000167E+01 -0.3672237366228E+01  0.0000000000000E+00
 0.1017500000188E+01 -0.3598719903615E+01  0.0000000000000E+00
 0.1017500000209E+01 -0.3525202280347E+01  0.0000000000000E+00
 0.1017500000229E+01 -0.3451684819509E+01  0.0000000000000E+00
 0.1017500000250E+01 -0.3378167379303E+01  0.0000000000000E+00
 0.1017500000271E+01 -0.3304649961005E+01  0.0000000000000E+00
 0.1017500000292E+01 -0.3231132803084E+01  0.0000000000000E+00
 0.1017500000313E+01 -0.3157615389387E+01  0.0000000000000E+00
 0.1017503115265E+01 -0.3084098002567E+01  0.0000000000000E+00
 0.1017651187142E+01 -0.3010580866809E+01  0.0000000000000E+00
 0.1018223417748E+01 -0.2937066271891E+01  0.0000000000000E+00
 0.1019371922552E+01 -0.2863559587694E+01  0.0000000000000E+00
 0.1021134913461E+01 -0.2790067100603E+01  0.0000000000000E+00
 0.1023499725115E+01 -0.2716594812945E+01  0.0000000000000E+00
 0.1026441482725E+01 -0.2643146234864E+01  0.0000000000000E+00
 0.1029939729387E+01 -0.2569726064901E+01  0.0000000000000E+00
 0.1033985105731E+01 -0.2496339061666E+01  0.0000000000000E+00
 0.1038582848745E+01 -0.2422989996067E+01  0.0000000000000E+00
 0.1043756427330E+01 -0.2349685803918E+01  0.0000000000000E+00
 0.1049551487906E+01 -0.2276436016165E+01  0.0000000000000E+00
 0.1055989420023E+01 -0.2203248992724E+01  0.0000000000000E+00
 0.1063062420340E+01 -0.2130130513309E+01  0.0000000000000E+00
 0.1070781066757E+01 -0.2057088440582E+01  0.0000000000000E+00
 0.1079176633438E+01 -0.1984133466364E+01  0.0000000000000E+00
 0.1088303087206E+01 -0.1911281600768E+01  0.0000000000000E+00
 0.1098240304681E+01 -0.1838554023783E+01  0.0000000000000E+00
 0.1109092613147E+01 -0.1765979519671E+01  0.0000000000000E+00
 0.1120960933667E+01 -0.1693591126066E+01  0.0000000000000E+00
 0.1133808659826E+01 -0.1621398208054E+01  0.0000000000000E+00
 0.1147124690185E+01 -0.1549304059577E+01  0.0000000000000E+00
 0.1160375754387E+01 -0.1477195909041E+01  0.0000000000000E+00
 0.1173377588220E+01 -0.1405034780452E+01  0.0000000000000E+00
 0.1185921343108E+01 -0.1332779095966E+01  0.0000000000000E+00
 0.1045000000014E+01 -0.4186859601281E+01  0.0000000000000E+00
 0.1045000000028E+01 -0.4113342086429E+01  0.0000000000000E+00
 0.1045000000042E+01 -0.4039824684257E+01  0.0000000000000E+00
 0.1045000000056E+01 -0.3966307217550E+01  0.0000000000000E+00
 0.1045000000070E+01 -0.3892789747717E+01  0.0000000000000E+00
 0.1045000000083E+01 -0.3819272288128E+01  0.0000000000000E+00
 0.1045000000097E+01 -0.3745754823288E+01  0.0000000000000E+00
 0.1045000000111E+01 -0.3672237366228E+01  0.0000000000000E+00
 0.1045000000125E+01 -0.3598719903615E+01  0.0000000000000E+00
 0.1045000000139E+01 -0.3525202280347E+01  0.0000000000000E+00
 0.1045000000153E+01 -0.3451684819509E+01  0.0000000000000E+00
 0.1045000000167E+01 -0.3378167379303E+01  0.0000000000000E+00
 0.1045000000181E+01 -0.3304649961005E+01  0.0000000000000E+00
 0.1045000000195E+01 -0.3231132803084E+01  0.0000000000000E+00
 0.1045000000209E+01 -0.3157615389387E+01  0.0000000000000E+00
 0.1045003199341E+01 -0.3084098002567E+01  0.0000000000000E+00
 0.1045155273153E+01 -0.3010580866809E+01  0.0000000000000E+00
 0.1045742969443E+01 -0.2937066271891E+01  0.0000000000000E+00
 0.1046922514910E+01 -0.2863559587694E+01  0.0000000000000E+00
 0.1048733154215E+01 -0.2790067100603E+01  0.0000000000000E+00
 0.1051161879689E+01 -0.2716594812945E+01  0.0000000000000E+00
 0.1054183144254E+01 -0.2643146234864E+01  0.0000000000000E+00
 0.1057775938115E+01 -0.2569726064901E+01  0.0000000000000E+00
 0.1061930648947E+01 -0.2496339061666E+01  0.0000000000000E+00
 0.1066652655277E+01 -0.2422989996067E+01  0.0000000000000E+00
 0.1071966060302E+01 -0.2349685803918E+01  0.0000000000000E+00
 0.1077917744128E+01 -0.2276436016165E+01  0.0000000000000E+00
 0.1084529674402E+01 -0.2203248992724E+01  0.0000000000000E+00
 0.1091793836881E+01 -0.2130130513309E+01  0.0000000000000E+00
 0.1099721095355E+01 -0.2057088440582E+01  0.0000000000000E+00
 0.1108343569234E+01 -0.1984133466364E+01  0.0000000000000E+00
 0.1117716683907E+01 -0.1911281600768E+01  0.0000000000000E+00
 0.1127922474818E+01 -0.1838554023783E+01  0.0000000000000E+00
 0.1139068088909E+01 -0.1765979519671E+01  0.0000000000000E+00
 0.1151257174839E+01 -0.1693591126066E+01  0.0000000000000E+00
 0.1164452136831E+01 -0.1621398208054E+01  0.0000000000000E+00
 0.1178128059893E+01 -0.1549304059577E+01  0.0000000000000E+00
 0.1191737260956E+01 -0.1477195909041E+01  0.0000000000000E+00
 0.1205090495693E+01 -0.1405034780452E+01  0.0000000000000E+00
 0.1217973270974E+01 -0.1332779095966E+01  0.0000000000000E+00
 0.1072500000007E+01 -0.4186859601281E+01  0.0000000000000E+00
 0.1072500000014E+01 -0.4113342086429E+01  0.0000000000000E+00
 0.1072500000021E+01 -0.4039824684257E+01  0.0000000000000E+00
 0.1072500000028E+01 -0.3966307217550E+01  0.0000000000000E+00
 0.1072500000035E+01 -0.3892789747717E+01  0.0000000000000E+00
 0.1072500000042E+01 -0.3819272288128E+01  0.0000000000000E+00
 0.1072500000049E+01 -0.3745754823288E+01  0.0000000000000E+00
 0.1072500000056E+01 -0.3672237366228E+01  0.0000000000000E+00
 0.1072500000063E+01 -0.3598719903615E+01  0.0000000000000E+00
 0.1072500000070E+01 -0.3525202280347E+01  0.0000000000000E+00
 0.1072500000076E+01 -0.3451684819509E+01  0.0000000000000E+00
 0.1072500000083E+01 -0.3378167379303E+01  0.0000000000000E+00
 0.1072500000090E+01 -0.3304649961005E+01  0.0000000000000E+00
 0.1072500000097E+01 -0.3231132803084E+01  0.0000000000000E+00
 0.1072500000104E+01 -0.3157615389387E+01  0.0000000000000E+00
 0.1072503283417E+01 -0.3084098002567E+01  0.0000000000000E+00
 0.1072659359165E+01 -0.3010580866809E+01  0.0000000000000E+00
 0.1073262521139E+01 -0.2937066271891E+01  0.0000000000000E+00
 0.1074473107269E+01 -0.2863559587694E+01  0.0000000000000E+00
 0.1076331394968E+01 -0.2790067100603E+01  0.0000000000000E+00
 0.1078824034263E+01 -0.2716594812945E+01  0.0000000000000E+00
 0.1081924805782E+01 -0.2643146234864E+01  0.0000000000000E+00
 0.1085612146842E+01 -0.2569726064901E+01  0.0000000000000E+00
 0.1089876192162E+01 -0.2496339061666E+01  0.0000000000000E+00
 0.1094722461809E+01 -0.2422989996067E+01  0.0000000000000E+00
 0.1100175693273E+01 -0.2349685803918E+01  0.0000000000000E+00
 0.1106284000350E+01 -0.2276436016165E+01  0.0000000000000E+00
 0.1113069928781E+01 -0.2203248992724E+01  0.0000000000000E+00
 0.1120525253422E+01 -0.2130130513309E+01  0.0000000000000E+00
 0.1128661123953E+01 -0.2057088440582E+01  0.0000000000000E+00
 0.1137510505031E+01 -0.1984133466364E+01  0.0000000000000E+00
 0.1147130280607E+01 -0.1911281600768E+01  0.0000000000000E+00
 0.1157604644955E+01 -0.1838554023783E+01  0.0000000000000E+00
 0.1169043564670E+01 -0.1765979519671E+01  0.0000000000000E+00
 0.1181553416011E+01 -0.1693591126066E+01  0.0000000000000E+00
 0.1195095613836E+01 -0.1621398208054E+01  0.0000000000000E+00
 0.1209131429601E+01 -0.1549304059577E+01  0.0000000000000E+00
 0.1223098767524E+01 -0.1477195909041E+01  0.0000000000000E+00
 0.1236803403166E+01 -0.1405034780452E+01  0.0000000000000E+00
 0.1250025198840E+01 -0.1332779095966E+01  0.0000000000000E+00
-0.6146632205864E+00 -0.1179245927773E+01  0.0000000000000E+00
-0.6133850625710E+00 -0.1098125561271E+01  0.0000000000000E+00
-0.6110781767176E+00 -0.1017031042899E+01  0.0000000000000E+00
-0.6075938972867E+00 -0.9359840196841E+00  0.0000000000000E+00
-0.6027748704429E+00 -0.8550138763628E+00  0.0000000000000E+00
-0.5964762431763E+00 -0.7741576168479E+00  0.0000000000000E+00
-0.5886096354219E+00 -0.6934549809652E+00  0.0000000000000E+00
-0.5792169622724E+00 -0.6129344720338E+00  0.0000000000000E+00
-0.5685607300787E+00 -0.5325891076342E+00  0.0000000000000E+00
-0.5571736404696E+00 -0.4523550909481E+00  0.0000000000000E+00
-0.5457865507829E+00 -0.3721210742731E+00  0.0000000000000E+00
-0.5351303183650E+00 -0.2917757099033E+00  0.0000000000000E+00
-0.5257376448667E+00 -0.2112552010127E+00  0.0000000000000E+00
-0.5178710366670E+00 -0.1305525651737E+00  0.0000000000000E+00
-0.5115724088858E+00 -0.4969630569897E-01  0.0000000000000E+00
-0.5067533814807E+00  0.3127383758862E-01  0.0000000000000E+00
-0.5032691014587E+00  0.1123208607782E+00  0.0000000000000E+00
-0.5009622149962E+00  0.1934153791321E+00  0.0000000000000E+00
-0.4996840563622E+00  0.2745357456241E+00  0.0000000000000E+00
-0.5823375735839E+00 -0.1178925948017E+01  0.0000000000000E+00
-0.5811517361345E+00 -0.1097485602229E+01  0.0000000000000E+00
-0.5789913143491E+00 -0.1016071105210E+01  0.0000000000000E+00
-0.5757154669679E+00 -0.9347041043687E+00  0.0000000000000E+00
-0.5711751219322E+00 -0.8534139844555E+00  0.0000000000000E+00
-0.5652330500847E+00 -0.7722377492156E+00  0.0000000000000E+00
-0.5578055229899E+00 -0.6912151378461E+00  0.0000000000000E+00
-0.5489322497722E+00 -0.6103746525257E+00  0.0000000000000E+00
-0.5388619207640E+00 -0.5297093095395E+00  0.0000000000000E+00
-0.5280992006759E+00 -0.4491553120599E+00  0.0000000000000E+00
-0.5173364805104E+00 -0.3686013145907E+00  0.0000000000000E+00
-0.5072661512780E+00 -0.2879359716328E+00  0.0000000000000E+00
-0.4983928777114E+00 -0.2070954863511E+00  0.0000000000000E+00
-0.4909653501714E+00 -0.1260728750229E+00  0.0000000000000E+00
-0.4850232778093E+00 -0.4489663982115E-01  0.0000000000000E+00
-0.4804829322123E+00  0.3639348006013E-01  0.0000000000000E+00
-0.4772070842400E+00  0.1177604808772E+00  0.0000000000000E+00
-0.4750466618455E+00  0.1991749778796E+00  0.0000000000000E+00
-0.4738608237776E+00  0.2806153236578E+00  0.0000000000000E+00
-0.5500080394828E+00 -0.1178622037865E+01  0.0000000000000E+00
-0.5489106355602E+00 -0.1096877782373E+01  0.0000000000000E+00
-0.5468927908727E+00 -0.1015159376255E+01  0.0000000000000E+00
-0.5438214886538E+00 -0.9334884672851E+00  0.0000000000000E+00
-0.5395559386310E+00 -0.8518944402257E+00  0.0000000000000E+00
-0.5339665355062E+00 -0.7704142986630E+00  0.0000000000000E+00
-0.5269742024711E+00 -0.6890877811968E+00  0.0000000000000E+00
-0.5186164426654E+00 -0.6079433889229E+00  0.0000000000000E+00
-0.5091281303716E+00 -0.5269741368961E+00  0.0000000000000E+00
-0.4989858933504E+00 -0.4461162282797E+00  0.0000000000000E+00
-0.4888436562517E+00 -0.3652583196731E+00  0.0000000000000E+00
-0.4793553437337E+00 -0.2842890676730E+00  0.0000000000000E+00
-0.4709975835792E+00 -0.2031446754356E+00  0.0000000000000E+00
-0.4640052500988E+00 -0.1218181580084E+00  0.0000000000000E+00
-0.4584158464595E+00 -0.4033801648185E-01  0.0000000000000E+00
-0.4541502958753E+00  0.4125601054745E-01  0.0000000000000E+00
-0.4510789930653E+00  0.1229269194944E+00  0.0000000000000E+00
-0.4490611477687E+00  0.2046453255965E+00  0.0000000000000E+00
-0.4479637432275E+00  0.2863895810799E+00  0.0000000000000E+00
-0.5176747919670E+00 -0.1178334388478E+01  0.0000000000000E+00
-0.5166621081398E+00 -0.1096302484021E+01  0.0000000000000E+00
-0.5147831271008E+00 -0.1014296429512E+01  0.0000000000000E+00
-0.5119126565776E+00 -0.9323378730696E+00  0.0000000000000E+00
-0.5079181880800E+00 -0.8504561994673E+00  0.0000000000000E+00
-0.5026777401640E+00 -0.7686884121413E+00  0.0000000000000E+00
-0.4961168876386E+00 -0.6870742491256E+00  0.0000000000000E+00
-0.4882709276467E+00 -0.6056422104914E+00  0.0000000000000E+00
-0.4793609184126E+00 -0.5243853101288E+00  0.0000000000000E+00
-0.4698354507598E+00 -0.4432397511925E+00  0.0000000000000E+00
-0.4603099830294E+00 -0.3620941922655E+00  0.0000000000000E+00
-0.4513999735711E+00 -0.2808372919280E+00  0.0000000000000E+00
-0.4435540132304E+00 -0.1994052533281E+00  0.0000000000000E+00
-0.4369931602597E+00 -0.1177910903493E+00  0.0000000000000E+00
-0.4317527118292E+00 -0.3602330305715E-01  0.0000000000000E+00
-0.4277582427703E+00  0.4585837051678E-01  0.0000000000000E+00
-0.4248877716559E+00  0.1278169269378E+00  0.0000000000000E+00
-0.4230087900078E+00  0.2098229814316E+00  0.0000000000000E+00
-0.4219961055620E+00  0.2918548858801E+00  0.0000000000000E+00
-0.4853380080548E+00 -0.1178063183023E+01  0.0000000000000E+00
-0.4844065078916E+00 -0.1095760073511E+01  0.0000000000000E+00
-0.4826628540306E+00 -0.1013482814487E+01  0.0000000000000E+00
-0.4799896786910E+00 -0.9312530543955E+00  0.0000000000000E+00
-0.4762627551584E+00 -0.8491001780208E+00  0.0000000000000E+00
-0.4713677258340E+00 -0.7670611886573E+00  0.0000000000000E+00
-0.4652348171335E+00 -0.6851758238060E+00  0.0000000000000E+00
-0.4578971201924E+00 -0.6034725825716E+00  0.0000000000000E+00
-0.4495618771738E+00 -0.5219444777461E+00  0.0000000000000E+00
-0.4406496419882E+00 -0.4405277124764E+00  0.0000000000000E+00
-0.4317374067250E+00 -0.3591109472153E+00  0.0000000000000E+00
-0.4234021634823E+00 -0.2775828424134E+00  0.0000000000000E+00
-0.4160644661923E+00 -0.1958796012112E+00  0.0000000000000E+00
-0.4099315570465E+00 -0.1139942363943E+00  0.0000000000000E+00
-0.4050365272076E+00 -0.3195524706260E-01  0.0000000000000E+00
-0.4013096031137E+00  0.5019762928550E-01  0.0000000000000E+00
-0.3986364271830E+00  0.1324273893569E+00  0.0000000000000E+00
-0.3968927727129E+00  0.2147046483665E+00  0.0000000000000E+00
-0.3959612719311E+00  0.2970077578713E+00  0.0000000000000E+00
-0.4529978651745E+00 -0.1177808595865E+01  0.0000000000000E+00
-0.4521441897514E+00 -0.1095250899568E+01  0.0000000000000E+00
-0.4505325041965E+00 -0.1012719054268E+01  0.0000000000000E+00
-0.4480532652313E+00 -0.9302347087123E+00  0.0000000000000E+00
-0.4445905279238E+00 -0.8478272476968E+00  0.0000000000000E+00
-0.4400375585254E+00 -0.7655336743824E+00  0.0000000000000E+00
-0.4343292350556E+00 -0.6833937257696E+00  0.0000000000000E+00
-0.4274964426286E+00 -0.6014359000561E+00  0.0000000000000E+00
-0.4197326073215E+00 -0.5196532090030E+00  0.0000000000000E+00
-0.4114302461080E+00 -0.4379818557497E+00  0.0000000000000E+00
-0.4031278848169E+00 -0.3563105025045E+00  0.0000000000000E+00
-0.3953640492856E+00 -0.2745278114734E+00  0.0000000000000E+00
-0.3885312565098E+00 -0.1925699857899E+00  0.0000000000000E+00
-0.3828229325947E+00 -0.1104300372093E+00  0.0000000000000E+00
-0.3782699626817E+00 -0.2813646392457E-01  0.0000000000000E+00
-0.3748072248130E+00  0.5427099706610E-01  0.0000000000000E+00
-0.3723279852565E+00  0.1367553426026E+00  0.0000000000000E+00
-0.3707162990926E+00  0.2192871878897E+00  0.0000000000000E+00
-0.3698626230510E+00  0.3018448841793E+00  0.0000000000000E+00
-0.4206545565374E+00 -0.1177570794880E+01  0.0000000000000E+00
-0.4198755400873E+00 -0.1094775297949E+01  0.0000000000000E+00
-0.4183926570604E+00 -0.1012005652488E+01  0.0000000000000E+00
-0.4161041886816E+00 -0.9292835075316E+00  0.0000000000000E+00
-0.4129024717991E+00 -0.8466382478836E+00  0.0000000000000E+00
-0.4086883965102E+00 -0.7641068765812E+00  0.0000000000000E+00
-0.4034014924306E+00 -0.6817291301575E+00  0.0000000000000E+00
-0.3970704386426E+00 -0.5995335059625E+00  0.0000000000000E+00
-0.3898748451289E+00 -0.5175130147949E+00  0.0000000000000E+00
-0.3821791919351E+00 -0.4356038597868E+00  0.0000000000000E+00
-0.3744835386638E+00 -0.3536947047861E+00  0.0000000000000E+00
-0.3672879449259E+00 -0.2716742136390E+00  0.0000000000000E+00
-0.3609568907891E+00 -0.1894785894719E+00  0.0000000000000E+00
-0.3556699862643E+00 -0.1071008430780E+00  0.0000000000000E+00
-0.3514559104608E+00 -0.2456947180318E-01  0.0000000000000E+00
-0.3482541930169E+00  0.5807578782172E-01  0.0000000000000E+00
-0.3459657240469E+00  0.1407979327608E+00  0.0000000000000E+00
-0.3444828404110E+00  0.2235675782092E+00  0.0000000000000E+00
-0.3437038233424E+00  0.3063630751341E+00  0.0000000000000E+00
-0.3883082762411E+00 -0.1177349938204E+01  0.0000000000000E+00
-0.3876009471235E+00 -0.1094333584921E+01  0.0000000000000E+00
-0.3862438950063E+00 -0.1011343083549E+01  0.0000000000000E+00
-0.3841432256237E+00 -0.9284000833865E+00  0.0000000000000E+00
-0.3811995576068E+00 -0.8455339692466E+00  0.0000000000000E+00
-0.3773214048994E+00 -0.7627817440508E+00  0.0000000000000E+00
-0.3724529487092E+00 -0.6801831438981E+00  0.0000000000000E+00
-0.3666206620752E+00 -0.5977666653515E+00  0.0000000000000E+00
-0.3599903388695E+00 -0.5155253183156E+00  0.0000000000000E+00
-0.3528984222012E+00 -0.4333953059157E+00  0.0000000000000E+00
-0.3458065054554E+00 -0.3512652935227E+00  0.0000000000000E+00
-0.3391761820256E+00 -0.2690239465056E+00  0.0000000000000E+00
-0.3333438950428E+00 -0.1866074679848E+00  0.0000000000000E+00
-0.3284754384073E+00 -0.1040088678596E+00  0.0000000000000E+00
-0.3245972851854E+00 -0.2125664268932E-01  0.0000000000000E+00
-0.3216536166071E+00  0.6160947142931E-01  0.0000000000000E+00
-0.3195529466334E+00  0.1445524715757E+00  0.0000000000000E+00
-0.3181958939071E+00  0.2275429729362E+00  0.0000000000000E+00
-0.3174885641708E+00  0.3105593262131E+00  0.0000000000000E+00
-0.3559592285778E+00 -0.1177146175326E+01  0.0000000000000E+00
-0.3553208194146E+00 -0.1093926059465E+01  0.0000000000000E+00
-0.3540868308174E+00 -0.1010731795922E+01  0.0000000000000E+00
-0.3521711930307E+00 -0.9275850342389E+00  0.0000000000000E+00
-0.3494828064657E+00 -0.8445151592370E+00  0.0000000000000E+00
-0.3459378089090E+00 -0.7615591737315E+00  0.0000000000000E+00
-0.3414850331533E+00 -0.6787568134207E+00  0.0000000000000E+00
-0.3361487461853E+00 -0.5961365741418E+00  0.0000000000000E+00
-0.3300809257594E+00 -0.5136914649741E+00  0.0000000000000E+00
-0.3235899780573E+00 -0.4313576890368E+00  0.0000000000000E+00
-0.3170990302776E+00 -0.3490239131059E+00  0.0000000000000E+00
-0.3110312096275E+00 -0.2665788039555E+00  0.0000000000000E+00
-0.3056949223106E+00 -0.1839585647001E+00  0.0000000000000E+00
-0.3012421461097E+00 -0.1011562044146E+00  0.0000000000000E+00
-0.2976971480385E+00 -0.1820021893247E-01  0.0000000000000E+00
-0.2950087609122E+00  0.6486965604994E-01  0.0000000000000E+00
-0.2930931225343E+00  0.1480164177185E+00  0.0000000000000E+00
-0.2918591333281E+00  0.2312106812512E+00  0.0000000000000E+00
-0.2912207235462E+00  0.3144307971066E+00  0.0000000000000E+00
-0.3236076203727E+00 -0.1176959645432E+01  0.0000000000000E+00
-0.3230355706320E+00 -0.1093552999950E+01  0.0000000000000E+00
-0.3219220850352E+00 -0.1010172207159E+01  0.0000000000000E+00
-0.3201889183408E+00 -0.9268389168223E+00  0.0000000000000E+00
-0.3177532527416E+00 -0.8435825137707E+00  0.0000000000000E+00
-0.3145388498667E+00 -0.7604400007212E+00  0.0000000000000E+00
-0.3104991940892E+00 -0.6774511130053E+00  0.0000000000000E+00
-0.3056563463339E+00 -0.5946443457954E+00  0.0000000000000E+00
-0.3001484682258E+00 -0.5120127074157E+00  0.0000000000000E+00
-0.2942559290150E+00 -0.4294924009797E+00  0.0000000000000E+00
-0.2883633897267E+00 -0.3469720945496E+00  0.0000000000000E+00
-0.2828555113944E+00 -0.2643404561856E+00  0.0000000000000E+00
-0.2780126632903E+00 -0.1815336889972E+00  0.0000000000000E+00
-0.2739730070675E+00 -0.9854480130419E-01  0.0000000000000E+00
-0.2707586036781E+00 -0.1540228827586E-01  0.0000000000000E+00
-0.2683229375175E+00  0.6785411475801E-01  0.0000000000000E+00
-0.2665897702320E+00  0.1511874050807E+00  0.0000000000000E+00
-0.2654762840261E+00  0.2345681978628E+00  0.0000000000000E+00
-0.2649042336669E+00  0.3179748433392E+00  0.0000000000000E+00
-0.2912536660710E+00 -0.1176790477710E+01  0.0000000000000E+00
-0.2907456296570E+00 -0.1093214664755E+01  0.0000000000000E+00
-0.2897503009658E+00 -0.1009664704829E+01  0.0000000000000E+00
-0.2881972592727E+00 -0.9261622478972E+00  0.0000000000000E+00
-0.2860119685514E+00 -0.8427366787975E+00  0.0000000000000E+00
-0.2831258142719E+00 -0.7594250001585E+00  0.0000000000000E+00
-0.2794969323826E+00 -0.6762669469790E+00  0.0000000000000E+00
-0.2751451777386E+00 -0.5932910138288E+00  0.0000000000000E+00
-0.2701948958265E+00 -0.5104902083470E+00  0.0000000000000E+00
-0.2648984189668E+00 -0.4278007336419E+00  0.0000000000000E+00
-0.2596019420296E+00 -0.3451112589420E+00  0.0000000000000E+00
-0.2546516598934E+00 -0.2623104534743E+00  0.0000000000000E+00
-0.2502999049005E+00 -0.1793345203434E+00  0.0000000000000E+00
-0.2466710225660E+00 -0.9617646718464E-01  0.0000000000000E+00
-0.2437848677719E+00 -0.1286478856466E-01  0.0000000000000E+00
-0.2415995764893E+00  0.7056078051910E-01  0.0000000000000E+00
-0.2400465342051E+00  0.1540632374383E+00  0.0000000000000E+00
-0.2390512049048E+00  0.2376131973566E+00  0.0000000000000E+00
-0.2385431678721E+00  0.3211890103064E+00  0.0000000000000E+00
-0.2588975848758E+00 -0.1176638790520E+01  0.0000000000000E+00
-0.2584514348923E+00 -0.1092911290598E+01  0.0000000000000E+00
-0.2575721362084E+00 -0.1009209644008E+01  0.0000000000000E+00
-0.2561970926179E+00 -0.9255555008964E+00  0.0000000000000E+00
-0.2542600498742E+00 -0.8419782461075E+00  0.0000000000000E+00
-0.2517000172863E+00 -0.7585148821905E+00  0.0000000000000E+00
-0.2484797823734E+00 -0.6752051438462E+00  0.0000000000000E+00
-0.2446169939132E+00 -0.5920775251035E+00  0.0000000000000E+00
-0.2402221812472E+00 -0.5091250329875E+00  0.0000000000000E+00
-0.2355196397695E+00 -0.4262838706018E+00  0.0000000000000E+00
-0.2308170982141E+00 -0.3434427082208E+00  0.0000000000000E+00
-0.2264222853240E+00 -0.2604902161173E+00  0.0000000000000E+00
-0.2225594965150E+00 -0.1773625973918E+00  0.0000000000000E+00
-0.2193392611568E+00 -0.9405285906584E-01  0.0000000000000E+00
-0.2167792280544E+00 -0.1058949516580E-01  0.0000000000000E+00
-0.2148421847494E+00  0.7298775960893E-01  0.0000000000000E+00
-0.2134671405677E+00  0.1566419027092E+00  0.0000000000000E+00
-0.2125878412748E+00  0.2403435492926E+00  0.0000000000000E+00
-0.2121416906726E+00  0.3240710492098E+00  0.0000000000000E+00
-0.2265396002550E+00 -0.1176504690970E+01  0.0000000000000E+00
-0.2261534332785E+00 -0.1092643091695E+01  0.0000000000000E+00
-0.2253882611815E+00 -0.1008807346019E+01  0.0000000000000E+00
-0.2241893122779E+00 -0.9250191042510E+00  0.0000000000000E+00
-0.2224986141016E+00 -0.8413077512389E+00  0.0000000000000E+00
-0.2202627997988E+00 -0.7577102894623E+00  0.0000000000000E+00
-0.2174493084560E+00 -0.6742664533583E+00  0.0000000000000E+00
-0.2140735827668E+00 -0.5910047364781E+00  0.0000000000000E+00
-0.2102323359199E+00 -0.5079181453036E+00  0.0000000000000E+00
-0.2061218263833E+00 -0.4249428829342E+00  0.0000000000000E+00
-0.2020113167692E+00 -0.3419676205689E+00  0.0000000000000E+00
-0.1981700696982E+00 -0.2588810294053E+00  0.0000000000000E+00
-0.1947943436601E+00 -0.1756193125402E+00  0.0000000000000E+00
-0.1919808518720E+00 -0.9217547645228E-01  0.0000000000000E+00
-0.1897450370548E+00 -0.8578014690528E-02  0.0000000000000E+00
-0.1880543383171E+00  0.7513333830921E-01  0.0000000000000E+00
-0.1868553888224E+00  0.1589215800678E+00  0.0000000000000E+00
-0.1860902161163E+00  0.2427573257374E+00  0.0000000000000E+00
-0.1857040485211E+00  0.3266189250080E+00  0.0000000000000E+00
-0.1941799400497E+00 -0.1176388274585E+01  0.0000000000000E+00
-0.1938520805015E+00 -0.1092410259098E+01  0.0000000000000E+00
-0.1931993594199E+00 -0.1008458097441E+01  0.0000000000000E+00
-0.1921748296420E+00 -0.9245534400649E+00  0.0000000000000E+00
-0.1907288004820E+00 -0.8407256718208E+00  0.0000000000000E+00
-0.1888155289237E+00 -0.7570117951279E+00  0.0000000000000E+00
-0.1864071056176E+00 -0.6734515441946E+00  0.0000000000000E+00
-0.1835167671670E+00 -0.5900734121569E+00  0.0000000000000E+00
-0.1802274106004E+00 -0.5068704050253E+00  0.0000000000000E+00
-0.1767072574573E+00 -0.4237787258958E+00  0.0000000000000E+00
-0.1731871042367E+00 -0.3406870467698E+00  0.0000000000000E+00
-0.1698977474458E+00 -0.2574840396476E+00  0.0000000000000E+00
-0.1670074086464E+00 -0.1741059076228E+00  0.0000000000000E+00
-0.1645989848950E+00 -0.9054565670324E-01  0.0000000000000E+00
-0.1626857128222E+00 -0.6831780023127E-02  0.0000000000000E+00
-0.1612396831009E+00  0.7699598821036E-01  0.0000000000000E+00
-0.1602151527318E+00  0.1609006455788E+00  0.0000000000000E+00
-0.1595624310412E+00  0.2448528072298E+00  0.0000000000000E+00
-0.1592345708744E+00  0.3288308227139E+00  0.0000000000000E+00
-0.1618188366807E+00 -0.1176289624985E+01  0.0000000000000E+00
-0.1615478413963E+00 -0.1092212960043E+01  0.0000000000000E+00
-0.1610061281651E+00 -0.1008162149129E+01  0.0000000000000E+00
-0.1601545743482E+00 -0.9241588428095E+00  0.0000000000000E+00
-0.1589517710402E+00 -0.8402324259419E+00  0.0000000000000E+00
-0.1573595990610E+00 -0.7564199008932E+00  0.0000000000000E+00
-0.1553548006218E+00 -0.6727610016777E+00  0.0000000000000E+00
-0.1529484062311E+00 -0.5892842210799E+00  0.0000000000000E+00
-0.1502094967515E+00 -0.5059825647107E+00  0.0000000000000E+00
-0.1472782567965E+00 -0.4227922356629E+00  0.0000000000000E+00
-0.1443470167639E+00 -0.3396019066179E+00  0.0000000000000E+00
-0.1416081070601E+00 -0.2563002502565E+00  0.0000000000000E+00
-0.1392017123206E+00 -0.1728234696695E+00  0.0000000000000E+00
-0.1371969134361E+00 -0.8916457046546E-01  0.0000000000000E+00
-0.1356047409424E+00 -0.5352045427417E-02  0.0000000000000E+00
-0.1344019370731E+00  0.7857437143128E-01  0.0000000000000E+00
-0.1335503826650E+00  0.1625776777437E+00  0.0000000000000E+00
-0.1330086688247E+00  0.2466284886535E+00  0.0000000000000E+00
-0.1327376729217E+00  0.3307051535930E+00  0.0000000000000E+00
-0.1294565253983E+00 -0.1176208813448E+01  0.0000000000000E+00
-0.1292411864641E+00 -0.1092051337089E+01  0.0000000000000E+00
-0.1288092731701E+00 -0.1007919714918E+01  0.0000000000000E+00
-0.1281294874025E+00 -0.9238355976011E+00  0.0000000000000E+00
-0.1271687020359E+00 -0.8398283699972E+00  0.0000000000000E+00
-0.1258964217254E+00 -0.7559350344316E+00  0.0000000000000E+00
-0.1242940402406E+00 -0.6721953247595E+00  0.0000000000000E+00
-0.1223703819904E+00 -0.5886377334774E+00  0.0000000000000E+00
-0.1201807116679E+00 -0.5052552658689E+00  0.0000000000000E+00
-0.1178371769611E+00 -0.4219841250242E+00  0.0000000000000E+00
-0.1154936421767E+00 -0.3387129841817E+00  0.0000000000000E+00
-0.1133039716300E+00 -0.2553305165795E+00  0.0000000000000E+00
-0.1113803130311E+00 -0.1717729253060E+00  0.0000000000000E+00
-0.1097779311010E+00 -0.8803321564312E-01  0.0000000000000E+00
-0.1085056502760E+00 -0.4139880085961E-02  0.0000000000000E+00
-0.1075448643481E+00  0.7986734751083E-01  0.0000000000000E+00
-0.1068650779893E+00  0.1639514648225E+00  0.0000000000000E+00
-0.1064331640861E+00  0.2480830869894E+00  0.0000000000000E+00
-0.1062178245334E+00  0.3322405633470E+00  0.0000000000000E+00
-0.9709324430840E-01 -0.1176145898689E+01  0.0000000000000E+00
-0.9693259191755E-01 -0.1091925507662E+01  0.0000000000000E+00
-0.9660950875430E-01 -0.1007730970950E+01  0.0000000000000E+00
-0.9610052123146E-01 -0.9235839392927E+00  0.0000000000000E+00
-0.9538078400334E-01 -0.8395137975525E+00  0.0000000000000E+00
-0.9442742555954E-01 -0.7555575480213E+00  0.0000000000000E+00
-0.9322649122599E-01 -0.6717549244308E+00  0.0000000000000E+00
-0.9178459930891E-01 -0.5881344190532E+00  0.0000000000000E+00
-0.9014319832780E-01 -0.5046890369170E+00  0.0000000000000E+00
-0.8838639904588E-01 -0.4213549811103E+00  0.0000000000000E+00
-0.8662959968642E-01 -0.3380209253053E+00  0.0000000000000E+00
-0.8498819848112E-01 -0.2545755431738E+00  0.0000000000000E+00
-0.8354630621523E-01 -0.1709550378026E+00  0.0000000000000E+00
-0.8234537143641E-01 -0.8715241421902E-01  0.0000000000000E+00
-0.8139201247807E-01 -0.3196164694228E-02  0.0000000000000E+00
-0.8067227468865E-01  0.8087397704071E-01  0.0000000000000E+00
-0.8016328657462E-01  0.1650210086939E+00  0.0000000000000E+00
-0.7984020280232E-01  0.2492155454030E+00  0.0000000000000E+00
-0.7967954979286E-01  0.3334359364282E+00  0.0000000000000E+00
-0.6472923382140E-01 -0.1176100926619E+01  0.0000000000000E+00
-0.6462253857726E-01 -0.1091835563588E+01  0.0000000000000E+00
-0.6440755614920E-01 -0.1007596054963E+01  0.0000000000000E+00
-0.6406863747714E-01 -0.9234040515362E+00  0.0000000000000E+00
-0.6358921899517E-01 -0.8392889381722E+00  0.0000000000000E+00
-0.6295405302690E-01 -0.7552877171396E+00  0.0000000000000E+00
-0.6215383645313E-01 -0.6714401220813E+00  0.0000000000000E+00
-0.6119298147473E-01 -0.5877746451094E+00  0.0000000000000E+00
-0.6009912043493E-01 -0.5042842910700E+00  0.0000000000000E+00
-0.5892832717247E-01 -0.4209052630496E+00  0.0000000000000E+00
-0.5775753383247E-01 -0.3375262350304E+00  0.0000000000000E+00
-0.5666367256850E-01 -0.2540358809941E+00  0.0000000000000E+00
-0.5570281724129E-01 -0.1703704040265E+00  0.0000000000000E+00
-0.5490260022224E-01 -0.8652280897287E-01  0.0000000000000E+00
-0.5426743373944E-01 -0.2521587944447E-02  0.0000000000000E+00
-0.5378801469616E-01  0.8159352541603E-01  0.0000000000000E+00
-0.5344909543291E-01  0.1657855288401E+00  0.0000000000000E+00
-0.5323411239580E-01  0.2500250374636E+00  0.0000000000000E+00
-0.5312741653305E-01  0.3342904004928E+00  0.0000000000000E+00
-0.3236473608673E-01 -0.1176073930167E+01  0.0000000000000E+00
-0.3231151074225E-01 -0.1091781570725E+01  0.0000000000000E+00
-0.3220414180319E-01 -0.1007515065743E+01  0.0000000000000E+00
-0.3203480473717E-01 -0.9232960660450E+00  0.0000000000000E+00
-0.3179521775803E-01 -0.8391539564979E+00  0.0000000000000E+00
-0.3147775702315E-01 -0.7551257393558E+00  0.0000000000000E+00
-0.3107777096723E-01 -0.6712511482086E+00  0.0000000000000E+00
-0.3059746568405E-01 -0.5875586750717E+00  0.0000000000000E+00
-0.3005065733864E-01 -0.5040413246819E+00  0.0000000000000E+00
-0.2946538284527E-01 -0.4206353001246E+00  0.0000000000000E+00
-0.2888010827436E-01 -0.3372292755679E+00  0.0000000000000E+00
-0.2833329970477E-01 -0.2537119251797E+00  0.0000000000000E+00
-0.2785299407277E-01 -0.1700194520450E+00  0.0000000000000E+00
-0.2745300757158E-01 -0.8614486090003E-01  0.0000000000000E+00
-0.2713554632216E-01 -0.2116643760018E-02  0.0000000000000E+00
-0.2689595878172E-01  0.8202546578529E-01  0.0000000000000E+00
-0.2672662112451E-01  0.1662444654814E+00  0.0000000000000E+00
-0.2661925157640E-01  0.2505109704632E+00  0.0000000000000E+00
-0.2656602561332E-01  0.3348033299045E+00  0.0000000000000E+00
 0.5582238603101E-08 -0.1176064929145E+01  0.0000000000000E+00
 0.4960748769495E-08 -0.1091763568694E+01  0.0000000000000E+00
 0.4343732432866E-08 -0.1007488062721E+01  0.0000000000000E+00
 0.3735549954647E-08 -0.9232600620628E+00  0.0000000000000E+00
 0.3142548509650E-08 -0.8391089515842E+00  0.0000000000000E+00
 0.2573668596438E-08 -0.7550717335353E+00  0.0000000000000E+00
 0.2040772407577E-08 -0.6711881414885E+00  0.0000000000000E+00
 0.1558046544304E-08 -0.5874866674269E+00  0.0000000000000E+00
 0.1139719687470E-08 -0.5039603160504E+00  0.0000000000000E+00
 0.7961283098685E-09 -0.4205452904441E+00  0.0000000000000E+00
 0.5300797238991E-09 -0.3371302648377E+00  0.0000000000000E+00
 0.3359349566239E-09 -0.2536039134613E+00  0.0000000000000E+00
 0.2020188105716E-09 -0.1699024393997E+00  0.0000000000000E+00
 0.1143966199395E-09 -0.8601884735283E-01  0.0000000000000E+00
 0.6005099690279E-10 -0.1981629303997E-02  0.0000000000000E+00
 0.2835452662725E-10  0.8216948117463E-01  0.0000000000000E+00
 0.1136281835831E-10  0.1663974818332E+00  0.0000000000000E+00
 0.3398426023553E-11  0.2506729878062E+00  0.0000000000000E+00
 0.5133240929992E-12  0.3349743482567E+00  0.0000000000000E+00
 0.3236474725121E-01 -0.1176073930165E+01  0.0000000000000E+00
 0.3231152066375E-01 -0.1091781570722E+01  0.0000000000000E+00
 0.3220415049066E-01 -0.1007515065739E+01  0.0000000000000E+00
 0.3203481220827E-01 -0.9232960660417E+00  0.0000000000000E+00
 0.3179522404313E-01 -0.8391539564960E+00  0.0000000000000E+00
 0.3147776217049E-01 -0.7551257393562E+00  0.0000000000000E+00
 0.3107777504878E-01 -0.6712511482121E+00  0.0000000000000E+00
 0.3059746880014E-01 -0.5875586750789E+00  0.0000000000000E+00
 0.3005065961808E-01 -0.5040413246926E+00  0.0000000000000E+00
 0.2946538443753E-01 -0.4206353001381E+00  0.0000000000000E+00
 0.2888010933452E-01 -0.3372292755830E+00  0.0000000000000E+00
 0.2833330037664E-01 -0.2537119251951E+00  0.0000000000000E+00
 0.2785299447681E-01 -0.1700194520597E+00  0.0000000000000E+00
 0.2745300780037E-01 -0.8614486091335E-01  0.0000000000000E+00
 0.2713554644227E-01 -0.2116643771438E-02  0.0000000000000E+00
 0.2689595883843E-01  0.8202546577601E-01  0.0000000000000E+00
 0.2672662114723E-01  0.1662444654744E+00  0.0000000000000E+00
 0.2661925158320E-01  0.2505109704585E+00  0.0000000000000E+00
 0.2656602561434E-01  0.3348033299022E+00  0.0000000000000E+00
 0.6472924498588E-01 -0.1176100926615E+01  0.0000000000000E+00
 0.6462254849876E-01 -0.1091835563582E+01  0.0000000000000E+00
 0.6440756483667E-01 -0.1007596054955E+01  0.0000000000000E+00
 0.6406864494824E-01 -0.9234040515296E+00  0.0000000000000E+00
 0.6358922528027E-01 -0.8392889381684E+00  0.0000000000000E+00
 0.6295405817423E-01 -0.7552877171404E+00  0.0000000000000E+00
 0.6215384053467E-01 -0.6714401220885E+00  0.0000000000000E+00
 0.6119298459082E-01 -0.5877746451237E+00  0.0000000000000E+00
 0.6009912271437E-01 -0.5042842910913E+00  0.0000000000000E+00
 0.5892832876473E-01 -0.4209052630765E+00  0.0000000000000E+00
 0.5775753489263E-01 -0.3375262350606E+00  0.0000000000000E+00
 0.5666367324036E-01 -0.2540358810250E+00  0.0000000000000E+00
 0.5570281764532E-01 -0.1703704040560E+00  0.0000000000000E+00
 0.5490260045104E-01 -0.8652280899949E-01  0.0000000000000E+00
 0.5426743385954E-01 -0.2521587967286E-02  0.0000000000000E+00
 0.5378801475287E-01  0.8159352539748E-01  0.0000000000000E+00
 0.5344909545563E-01  0.1657855288261E+00  0.0000000000000E+00
 0.5323411240259E-01  0.2500250374542E+00  0.0000000000000E+00
 0.5312741653408E-01  0.3342904004881E+00  0.0000000000000E+00
 0.9709325547288E-01 -0.1176145898683E+01  0.0000000000000E+00
 0.9693260183905E-01 -0.1091925507652E+01  0.0000000000000E+00
 0.9660951744177E-01 -0.1007730970939E+01  0.0000000000000E+00
 0.9610052870256E-01 -0.9235839392827E+00  0.0000000000000E+00
 0.9538079028844E-01 -0.8395137975467E+00  0.0000000000000E+00
 0.9442743070688E-01 -0.7555575480226E+00  0.0000000000000E+00
 0.9322649530754E-01 -0.6717549244415E+00  0.0000000000000E+00
 0.9178460242501E-01 -0.5881344190747E+00  0.0000000000000E+00
 0.9014320060724E-01 -0.5046890369490E+00  0.0000000000000E+00
 0.8838640063814E-01 -0.4213549811507E+00  0.0000000000000E+00
 0.8662960074658E-01 -0.3380209253506E+00  0.0000000000000E+00
 0.8498819915299E-01 -0.2545755432202E+00  0.0000000000000E+00
 0.8354630661927E-01 -0.1709550378469E+00  0.0000000000000E+00
 0.8234537166520E-01 -0.8715241425896E-01  0.0000000000000E+00
 0.8139201259817E-01 -0.3196164728487E-02  0.0000000000000E+00
 0.8067227474536E-01  0.8087397701289E-01  0.0000000000000E+00
 0.8016328659734E-01  0.1650210086728E+00  0.0000000000000E+00
 0.7984020280912E-01  0.2492155453889E+00  0.0000000000000E+00
 0.7967954979389E-01  0.3334359364211E+00  0.0000000000000E+00
 0.1294565365627E+00 -0.1176208813440E+01  0.0000000000000E+00
 0.1292411963856E+00 -0.1092051337076E+01  0.0000000000000E+00
 0.1288092818575E+00 -0.1007919714903E+01  0.0000000000000E+00
 0.1281294948736E+00 -0.9238355975878E+00  0.0000000000000E+00
 0.1271687083210E+00 -0.8398283699895E+00  0.0000000000000E+00
 0.1258964268727E+00 -0.7559350344332E+00  0.0000000000000E+00
 0.1242940443221E+00 -0.6721953247737E+00  0.0000000000000E+00
 0.1223703851065E+00 -0.5886377335061E+00  0.0000000000000E+00
 0.1201807139474E+00 -0.5052552659116E+00  0.0000000000000E+00
 0.1178371785533E+00 -0.4219841250780E+00  0.0000000000000E+00
 0.1154936432368E+00 -0.3387129842421E+00  0.0000000000000E+00
 0.1133039723019E+00 -0.2553305166413E+00  0.0000000000000E+00
 0.1113803134351E+00 -0.1717729253651E+00  0.0000000000000E+00
 0.1097779313298E+00 -0.8803321569638E-01  0.0000000000000E+00
 0.1085056503961E+00 -0.4139880131640E-02  0.0000000000000E+00
 0.1075448644048E+00  0.7986734747374E-01  0.0000000000000E+00
 0.1068650780120E+00  0.1639514647945E+00  0.0000000000000E+00
 0.1064331640929E+00  0.2480830869706E+00  0.0000000000000E+00
 0.1062178245344E+00  0.3322405633376E+00  0.0000000000000E+00
 0.1618188478452E+00 -0.1176289624975E+01  0.0000000000000E+00
 0.1615478513178E+00 -0.1092212960027E+01  0.0000000000000E+00
 0.1610061368526E+00 -0.1008162149110E+01  0.0000000000000E+00
 0.1601545818193E+00 -0.9241588427928E+00  0.0000000000000E+00
 0.1589517773253E+00 -0.8402324259322E+00  0.0000000000000E+00
 0.1573596042083E+00 -0.7564199008953E+00  0.0000000000000E+00
 0.1553548047034E+00 -0.6727610016955E+00  0.0000000000000E+00
 0.1529484093472E+00 -0.5892842211157E+00  0.0000000000000E+00
 0.1502094990309E+00 -0.5059825647640E+00  0.0000000000000E+00
 0.1472782583887E+00 -0.4227922357302E+00  0.0000000000000E+00
 0.1443470178240E+00 -0.3396019066934E+00  0.0000000000000E+00
 0.1416081077320E+00 -0.2563002503338E+00  0.0000000000000E+00
 0.1392017127246E+00 -0.1728234697433E+00  0.0000000000000E+00
 0.1371969136649E+00 -0.8916457053203E-01  0.0000000000000E+00
 0.1356047410625E+00 -0.5352045484516E-02  0.0000000000000E+00
 0.1344019371298E+00  0.7857437138492E-01  0.0000000000000E+00
 0.1335503826877E+00  0.1625776777087E+00  0.0000000000000E+00
 0.1330086688315E+00  0.2466284886301E+00  0.0000000000000E+00
 0.1327376729228E+00  0.3307051535812E+00  0.0000000000000E+00
 0.1941799512142E+00 -0.1176388274573E+01  0.0000000000000E+00
 0.1938520904230E+00 -0.1092410259078E+01  0.0000000000000E+00
 0.1931993681074E+00 -0.1008458097419E+01  0.0000000000000E+00
 0.1921748371131E+00 -0.9245534400449E+00  0.0000000000000E+00
 0.1907288067671E+00 -0.8407256718092E+00  0.0000000000000E+00
 0.1888155340711E+00 -0.7570117951304E+00  0.0000000000000E+00
 0.1864071096991E+00 -0.6734515442159E+00  0.0000000000000E+00
 0.1835167702831E+00 -0.5900734121999E+00  0.0000000000000E+00
 0.1802274128798E+00 -0.5068704050893E+00  0.0000000000000E+00
 0.1767072590495E+00 -0.4237787259765E+00  0.0000000000000E+00
 0.1731871052968E+00 -0.3406870468603E+00  0.0000000000000E+00
 0.1698977481177E+00 -0.2574840397403E+00  0.0000000000000E+00
 0.1670074090505E+00 -0.1741059077114E+00  0.0000000000000E+00
 0.1645989851238E+00 -0.9054565678312E-01  0.0000000000000E+00
 0.1626857129423E+00 -0.6831780091645E-02  0.0000000000000E+00
 0.1612396831576E+00  0.7699598815473E-01  0.0000000000000E+00
 0.1602151527545E+00  0.1609006455368E+00  0.0000000000000E+00
 0.1595624310480E+00  0.2448528072017E+00  0.0000000000000E+00
 0.1592345708754E+00  0.3288308226998E+00  0.0000000000000E+00
 0.2265396114195E+00 -0.1176504690955E+01  0.0000000000000E+00
 0.2261534432000E+00 -0.1092643091672E+01  0.0000000000000E+00
 0.2253882698689E+00 -0.1008807345993E+01  0.0000000000000E+00
 0.2241893197490E+00 -0.9250191042277E+00  0.0000000000000E+00
 0.2224986203867E+00 -0.8413077512254E+00  0.0000000000000E+00
 0.2202628049462E+00 -0.7577102894652E+00  0.0000000000000E+00
 0.2174493125376E+00 -0.6742664533833E+00  0.0000000000000E+00
 0.2140735858829E+00 -0.5910047365283E+00  0.0000000000000E+00
 0.2102323381994E+00 -0.5079181453782E+00  0.0000000000000E+00
 0.2061218279756E+00 -0.4249428830284E+00  0.0000000000000E+00
 0.2020113178294E+00 -0.3419676206746E+00  0.0000000000000E+00
 0.1981700703700E+00 -0.2588810295135E+00  0.0000000000000E+00
 0.1947943440642E+00 -0.1756193126435E+00  0.0000000000000E+00
 0.1919808521008E+00 -0.9217547654548E-01  0.0000000000000E+00
 0.1897450371749E+00 -0.8578014770466E-02  0.0000000000000E+00
 0.1880543383738E+00  0.7513333824430E-01  0.0000000000000E+00
 0.1868553888451E+00  0.1589215800187E+00  0.0000000000000E+00
 0.1860902161231E+00  0.2427573257046E+00  0.0000000000000E+00
 0.1857040485222E+00  0.3266189249916E+00  0.0000000000000E+00
 0.2588975960403E+00 -0.1176638790504E+01  0.0000000000000E+00
 0.2584514448138E+00 -0.1092911290572E+01  0.0000000000000E+00
 0.2575721448959E+00 -0.1009209643977E+01  0.0000000000000E+00
 0.2561971000890E+00 -0.9255555008698E+00  0.0000000000000E+00
 0.2542600561593E+00 -0.8419782460920E+00  0.0000000000000E+00
 0.2517000224336E+00 -0.7585148821938E+00  0.0000000000000E+00
 0.2484797864549E+00 -0.6752051438747E+00  0.0000000000000E+00
 0.2446169970293E+00 -0.5920775251608E+00  0.0000000000000E+00
 0.2402221835267E+00 -0.5091250330728E+00  0.0000000000000E+00
 0.2355196413617E+00 -0.4262838707095E+00  0.0000000000000E+00
 0.2308170992743E+00 -0.3434427083415E+00  0.0000000000000E+00
 0.2264222859959E+00 -0.2604902162409E+00  0.0000000000000E+00
 0.2225594969190E+00 -0.1773625975099E+00  0.0000000000000E+00
 0.2193392613856E+00 -0.9405285917235E-01  0.0000000000000E+00
 0.2167792281745E+00 -0.1058949525716E-01  0.0000000000000E+00
 0.2148421848061E+00  0.7298775953475E-01  0.0000000000000E+00
 0.2134671405904E+00  0.1566419026531E+00  0.0000000000000E+00
 0.2125878412816E+00  0.2403435492551E+00  0.0000000000000E+00
 0.2121416906736E+00  0.3240710491911E+00  0.0000000000000E+00
 0.2912536772355E+00 -0.1176790477692E+01  0.0000000000000E+00
 0.2907456395785E+00 -0.1093214664726E+01  0.0000000000000E+00
 0.2897503096532E+00 -0.1009664704795E+01  0.0000000000000E+00
 0.2881972667438E+00 -0.9261622478673E+00  0.0000000000000E+00
 0.2860119748365E+00 -0.8427366787801E+00  0.0000000000000E+00
 0.2831258194192E+00 -0.7594250001622E+00  0.0000000000000E+00
 0.2794969364642E+00 -0.6762669470111E+00  0.0000000000000E+00
 0.2751451808547E+00 -0.5932910138932E+00  0.0000000000000E+00
 0.2701948981060E+00 -0.5104902084429E+00  0.0000000000000E+00
 0.2648984205591E+00 -0.4278007337630E+00  0.0000000000000E+00
 0.2596019430898E+00 -0.3451112590778E+00  0.0000000000000E+00
 0.2546516605652E+00 -0.2623104536134E+00  0.0000000000000E+00
 0.2502999053046E+00 -0.1793345204763E+00  0.0000000000000E+00
 0.2466710227948E+00 -0.9617646730447E-01  0.0000000000000E+00
 0.2437848678920E+00 -0.1286478866744E-01  0.0000000000000E+00
 0.2415995765460E+00  0.7056078043565E-01  0.0000000000000E+00
 0.2400465342278E+00  0.1540632373752E+00  0.0000000000000E+00
 0.2390512049116E+00  0.2376131973144E+00  0.0000000000000E+00
 0.2385431678732E+00  0.3211890102853E+00  0.0000000000000E+00
 0.3236076315371E+00 -0.1176959645411E+01  0.0000000000000E+00
 0.3230355805535E+00 -0.1093552999917E+01  0.0000000000000E+00
 0.3219220937226E+00 -0.1010172207121E+01  0.0000000000000E+00
 0.3201889258119E+00 -0.9268389167890E+00  0.0000000000000E+00
 0.3177532590267E+00 -0.8435825137514E+00  0.0000000000000E+00
 0.3145388550141E+00 -0.7604400007254E+00  0.0000000000000E+00
 0.3104991981707E+00 -0.6774511130409E+00  0.0000000000000E+00
 0.3056563494499E+00 -0.5946443458670E+00  0.0000000000000E+00
 0.3001484705052E+00 -0.5120127075223E+00  0.0000000000000E+00
 0.2942559306073E+00 -0.4294924011143E+00  0.0000000000000E+00
 0.2883633907869E+00 -0.3469720947005E+00  0.0000000000000E+00
 0.2828555120663E+00 -0.2643404563401E+00  0.0000000000000E+00
 0.2780126636944E+00 -0.1815336891448E+00  0.0000000000000E+00
 0.2739730072963E+00 -0.9854480143733E-01  0.0000000000000E+00
 0.2707586037982E+00 -0.1540228839006E-01  0.0000000000000E+00
 0.2683229375742E+00  0.6785411466528E-01  0.0000000000000E+00
 0.2665897702547E+00  0.1511874050106E+00  0.0000000000000E+00
 0.2654762840329E+00  0.2345681978159E+00  0.0000000000000E+00
 0.2649042336679E+00  0.3179748433157E+00  0.0000000000000E+00
 0.3559592397423E+00 -0.1177146175304E+01  0.0000000000000E+00
 0.3553208293361E+00 -0.1093926059429E+01  0.0000000000000E+00
 0.3540868395049E+00 -0.1010731795881E+01  0.0000000000000E+00
 0.3521712005018E+00 -0.9275850342023E+00  0.0000000000000E+00
 0.3494828127508E+00 -0.8445151592157E+00  0.0000000000000E+00
 0.3459378140564E+00 -0.7615591737361E+00  0.0000000000000E+00
 0.3414850372349E+00 -0.6787568134599E+00  0.0000000000000E+00
 0.3361487493013E+00 -0.5961365742205E+00  0.0000000000000E+00
 0.3300809280388E+00 -0.5136914650914E+00  0.0000000000000E+00
 0.3235899796495E+00 -0.4313576891848E+00  0.0000000000000E+00
 0.3170990313377E+00 -0.3490239132719E+00  0.0000000000000E+00
 0.3110312102994E+00 -0.2665788041255E+00  0.0000000000000E+00
 0.3056949227147E+00 -0.1839585648625E+00  0.0000000000000E+00
 0.3012421463385E+00 -0.1011562045611E+00  0.0000000000000E+00
 0.2976971481586E+00 -0.1820021905809E-01  0.0000000000000E+00
 0.2950087609689E+00  0.6486965594795E-01  0.0000000000000E+00
 0.2930931225570E+00  0.1480164176414E+00  0.0000000000000E+00
 0.2918591333349E+00  0.2312106811997E+00  0.0000000000000E+00
 0.2912207235473E+00  0.3144307970808E+00  0.0000000000000E+00
 0.3883082874056E+00 -0.1177349938180E+01  0.0000000000000E+00
 0.3876009570450E+00 -0.1094333584881E+01  0.0000000000000E+00
 0.3862439036937E+00 -0.1011343083504E+01  0.0000000000000E+00
 0.3841432330948E+00 -0.9284000833465E+00  0.0000000000000E+00
 0.3811995638919E+00 -0.8455339692234E+00  0.0000000000000E+00
 0.3773214100467E+00 -0.7627817440558E+00  0.0000000000000E+00
 0.3724529527907E+00 -0.6801831439408E+00  0.0000000000000E+00
 0.3666206651913E+00 -0.5977666654374E+00  0.0000000000000E+00
 0.3599903411489E+00 -0.5155253184436E+00  0.0000000000000E+00
 0.3528984237935E+00 -0.4333953060771E+00  0.0000000000000E+00
 0.3458065065156E+00 -0.3512652937038E+00  0.0000000000000E+00
 0.3391761826974E+00 -0.2690239466911E+00  0.0000000000000E+00
 0.3333438954468E+00 -0.1866074681620E+00  0.0000000000000E+00
 0.3284754386361E+00 -0.1040088680194E+00  0.0000000000000E+00
 0.3245972853055E+00 -0.2125664282636E-01  0.0000000000000E+00
 0.3216536166638E+00  0.6160947131804E-01  0.0000000000000E+00
 0.3195529466561E+00  0.1445524714917E+00  0.0000000000000E+00
 0.3181958939139E+00  0.2275429728799E+00  0.0000000000000E+00
 0.3174885641719E+00  0.3105593261850E+00  0.0000000000000E+00
 0.4206545677019E+00 -0.1177570794854E+01  0.0000000000000E+00
 0.4198755500088E+00 -0.1094775297906E+01  0.0000000000000E+00
 0.4183926657479E+00 -0.1012005652439E+01  0.0000000000000E+00
 0.4161041961527E+00 -0.9292835074883E+00  0.0000000000000E+00
 0.4129024780842E+00 -0.8466382478585E+00  0.0000000000000E+00
 0.4086884016575E+00 -0.7641068765866E+00  0.0000000000000E+00
 0.4034014965121E+00 -0.6817291302038E+00  0.0000000000000E+00
 0.3970704417587E+00 -0.5995335060555E+00  0.0000000000000E+00
 0.3898748474083E+00 -0.5175130149336E+00  0.0000000000000E+00
 0.3821791935274E+00 -0.4356038599617E+00  0.0000000000000E+00
 0.3744835397240E+00 -0.3536947049823E+00  0.0000000000000E+00
 0.3672879455978E+00 -0.2716742138399E+00  0.0000000000000E+00
 0.3609568911932E+00 -0.1894785896638E+00  0.0000000000000E+00
 0.3556699864930E+00 -0.1071008432511E+00  0.0000000000000E+00
 0.3514559105809E+00 -0.2456947195164E-01  0.0000000000000E+00
 0.3482541930737E+00  0.5807578770118E-01  0.0000000000000E+00
 0.3459657240697E+00  0.1407979326698E+00  0.0000000000000E+00
 0.3444828404178E+00  0.2235675781483E+00  0.0000000000000E+00
 0.3437038233434E+00  0.3063630751036E+00  0.0000000000000E+00
 0.4529978763389E+00 -0.1177808595837E+01  0.0000000000000E+00
 0.4521441996729E+00 -0.1095250899522E+01  0.0000000000000E+00
 0.4505325128840E+00 -0.1012719054215E+01  0.0000000000000E+00
 0.4480532727024E+00 -0.9302347086656E+00  0.0000000000000E+00
 0.4445905342089E+00 -0.8478272476697E+00  0.0000000000000E+00
 0.4400375636727E+00 -0.7655336743882E+00  0.0000000000000E+00
 0.4343292391371E+00 -0.6833937258195E+00  0.0000000000000E+00
 0.4274964457447E+00 -0.6014359001563E+00  0.0000000000000E+00
 0.4197326096009E+00 -0.5196532091523E+00  0.0000000000000E+00
 0.4114302477002E+00 -0.4379818559381E+00  0.0000000000000E+00
 0.4031278858770E+00 -0.3563105027157E+00  0.0000000000000E+00
 0.3953640499575E+00 -0.2745278116898E+00  0.0000000000000E+00
 0.3885312569138E+00 -0.1925699859965E+00  0.0000000000000E+00
 0.3828229328235E+00 -0.1104300373957E+00  0.0000000000000E+00
 0.3782699628018E+00 -0.2813646408445E-01  0.0000000000000E+00
 0.3748072248697E+00  0.5427099693629E-01  0.0000000000000E+00
 0.3723279852793E+00  0.1367553425046E+00  0.0000000000000E+00
 0.3707162990994E+00  0.2192871878241E+00  0.0000000000000E+00
 0.3698626230520E+00  0.3018448841465E+00  0.0000000000000E+00
 0.4853380192193E+00 -0.1178063182993E+01  0.0000000000000E+00
 0.4844065178131E+00 -0.1095760073461E+01  0.0000000000000E+00
 0.4826628627181E+00 -0.1013482814431E+01  0.0000000000000E+00
 0.4799896861621E+00 -0.9312530543456E+00  0.0000000000000E+00
 0.4762627614435E+00 -0.8491001779919E+00  0.0000000000000E+00
 0.4713677309814E+00 -0.7670611886636E+00  0.0000000000000E+00
 0.4652348212151E+00 -0.6851758238594E+00  0.0000000000000E+00
 0.4578971233085E+00 -0.6034725826789E+00  0.0000000000000E+00
 0.4495618794533E+00 -0.5219444779061E+00  0.0000000000000E+00
 0.4406496435805E+00 -0.4405277126782E+00  0.0000000000000E+00
 0.4317374077852E+00 -0.3591109474417E+00  0.0000000000000E+00
 0.4234021641542E+00 -0.2775828426453E+00  0.0000000000000E+00
 0.4160644665964E+00 -0.1958796014326E+00  0.0000000000000E+00
 0.4099315572753E+00 -0.1139942365940E+00  0.0000000000000E+00
 0.4050365273277E+00 -0.3195524723390E-01  0.0000000000000E+00
 0.4013096031704E+00  0.5019762914641E-01  0.0000000000000E+00
 0.3986364272057E+00  0.1324273892518E+00  0.0000000000000E+00
 0.3968927727197E+00  0.2147046482963E+00  0.0000000000000E+00
 0.3959612719321E+00  0.2970077578361E+00  0.0000000000000E+00
 0.5176748031315E+00 -0.1178334388446E+01  0.0000000000000E+00
 0.5166621180613E+00 -0.1096302483968E+01  0.0000000000000E+00
 0.5147831357883E+00 -0.1014296429452E+01  0.0000000000000E+00
 0.5119126640487E+00 -0.9323378730163E+00  0.0000000000000E+00
 0.5079181943651E+00 -0.8504561994364E+00  0.0000000000000E+00
 0.5026777453114E+00 -0.7686884121479E+00  0.0000000000000E+00
 0.4961168917201E+00 -0.6870742491826E+00  0.0000000000000E+00
 0.4882709307628E+00 -0.6056422106060E+00  0.0000000000000E+00
 0.4793609206920E+00 -0.5243853102994E+00  0.0000000000000E+00
 0.4698354523520E+00 -0.4432397514078E+00  0.0000000000000E+00
 0.4603099840896E+00 -0.3620941925070E+00  0.0000000000000E+00
 0.4513999742430E+00 -0.2808372921753E+00  0.0000000000000E+00
 0.4435540136345E+00 -0.1994052535644E+00  0.0000000000000E+00
 0.4369931604885E+00 -0.1177910905623E+00  0.0000000000000E+00
 0.4317527119493E+00 -0.3602330323987E-01  0.0000000000000E+00
 0.4277582428270E+00  0.4585837036842E-01  0.0000000000000E+00
 0.4248877716786E+00  0.1278169268257E+00  0.0000000000000E+00
 0.4230087900146E+00  0.2098229813567E+00  0.0000000000000E+00
 0.4219961055631E+00  0.2918548858427E+00  0.0000000000000E+00
 0.5500080506473E+00 -0.1178622037831E+01  0.0000000000000E+00
 0.5489106454817E+00 -0.1096877782317E+01  0.0000000000000E+00
 0.5468927995602E+00 -0.1015159376191E+01  0.0000000000000E+00
 0.5438214961249E+00 -0.9334884672285E+00  0.0000000000000E+00
 0.5395559449161E+00 -0.8518944401928E+00  0.0000000000000E+00
 0.5339665406536E+00 -0.7704142986701E+00  0.0000000000000E+00
 0.5269742065526E+00 -0.6890877812573E+00  0.0000000000000E+00
 0.5186164457815E+00 -0.6079433890446E+00  0.0000000000000E+00
 0.5091281326510E+00 -0.5269741370774E+00  0.0000000000000E+00
 0.4989858949427E+00 -0.4461162285085E+00  0.0000000000000E+00
 0.4888436573119E+00 -0.3652583199297E+00  0.0000000000000E+00
 0.4793553444056E+00 -0.2842890679358E+00  0.0000000000000E+00
 0.4709975839832E+00 -0.2031446756866E+00  0.0000000000000E+00
 0.4640052503276E+00 -0.1218181582348E+00  0.0000000000000E+00
 0.4584158465796E+00 -0.4033801667599E-01  0.0000000000000E+00
 0.4541502959321E+00  0.4125601038982E-01  0.0000000000000E+00
 0.4510789930880E+00  0.1229269193754E+00  0.0000000000000E+00
 0.4490611477755E+00  0.2046453255169E+00  0.0000000000000E+00
 0.4479637432285E+00  0.2863895810401E+00  0.0000000000000E+00
 0.5823375847483E+00 -0.1178925947981E+01  0.0000000000000E+00
 0.5811517460560E+00 -0.1097485602170E+01  0.0000000000000E+00
 0.5789913230366E+00 -0.1016071105142E+01  0.0000000000000E+00
 0.5757154744390E+00 -0.9347041043087E+00  0.0000000000000E+00
 0.5711751282173E+00 -0.8534139844207E+00  0.0000000000000E+00
 0.5652330552321E+00 -0.7722377492231E+00  0.0000000000000E+00
 0.5578055270715E+00 -0.6912151379102E+00  0.0000000000000E+00
 0.5489322528883E+00 -0.6103746526545E+00  0.0000000000000E+00
 0.5388619230434E+00 -0.5297093097315E+00  0.0000000000000E+00
 0.5280992022682E+00 -0.4491553123021E+00  0.0000000000000E+00
 0.5173364815706E+00 -0.3686013148624E+00  0.0000000000000E+00
 0.5072661519498E+00 -0.2879359719111E+00  0.0000000000000E+00
 0.4983928781155E+00 -0.2070954866168E+00  0.0000000000000E+00
 0.4909653504001E+00 -0.1260728752625E+00  0.0000000000000E+00
 0.4850232779294E+00 -0.4489664002671E-01  0.0000000000000E+00
 0.4804829322690E+00  0.3639347989323E-01  0.0000000000000E+00
 0.4772070842627E+00  0.1177604807511E+00  0.0000000000000E+00
 0.4750466618523E+00  0.1991749777953E+00  0.0000000000000E+00
 0.4738608237786E+00  0.2806153236156E+00  0.0000000000000E+00
 0.6146632317509E+00 -0.1179245927735E+01  0.0000000000000E+00
 0.6133850724925E+00 -0.1098125561208E+01  0.0000000000000E+00
 0.6110781854051E+00 -0.1017031042828E+01  0.0000000000000E+00
 0.6075939047578E+00 -0.9359840196208E+00  0.0000000000000E+00
 0.6027748767280E+00 -0.8550138763261E+00  0.0000000000000E+00
 0.5964762483236E+00 -0.7741576168557E+00  0.0000000000000E+00
 0.5886096395034E+00 -0.6934549810328E+00  0.0000000000000E+00
 0.5792169653885E+00 -0.6129344721698E+00  0.0000000000000E+00
 0.5685607323581E+00 -0.5325891078368E+00  0.0000000000000E+00
 0.5571736420618E+00 -0.4523550912038E+00  0.0000000000000E+00
 0.5457865518431E+00 -0.3721210745598E+00  0.0000000000000E+00
 0.5351303190368E+00 -0.2917757101970E+00  0.0000000000000E+00
 0.5257376452707E+00 -0.2112552012932E+00  0.0000000000000E+00
 0.5178710368958E+00 -0.1305525654266E+00  0.0000000000000E+00
 0.5115724090060E+00 -0.4969630591594E-01  0.0000000000000E+00
 0.5067533815375E+00  0.3127383741244E-01  0.0000000000000E+00
 0.5032691014814E+00  0.1123208606451E+00  0.0000000000000E+00
 0.5009622150030E+00  0.1934153790431E+00  0.0000000000000E+00
 0.4996840563632E+00  0.2745357455796E+00  0.0000000000000E+00
-0.1278896502369E+01 -0.1151672018574E+01  0.0000000000000E+00
-0.1293535989863E+01 -0.1042706098075E+01  0.0000000000000E+00
-0.1306740260238E+01 -0.9335568306302E+00  0.0000000000000E+00
-0.1318644601968E+01 -0.8242604251989E+00  0.0000000000000E+00
-0.1329259354471E+01 -0.7148349793802E+00  0.0000000000000E+00
-0.1338484588244E+01 -0.6052883756386E+00  0.0000000000000E+00
-0.1346107409420E+01 -0.4956230009344E+00  0.0000000000000E+00
-0.1352038793124E+01 -0.3858563250419E+00  0.0000000000000E+00
-0.1356201221531E+01 -0.2760094404429E+00  0.0000000000000E+00
-0.1358419956471E+01 -0.1661003673666E+00  0.0000000000000E+00
-0.1358695454008E+01 -0.5615693613661E-01  0.0000000000000E+00
-0.1357550403351E+01  0.5379250691215E-01  0.0000000000000E+00
-0.1350073384709E+01  0.1634872031569E+00  0.0000000000000E+00
-0.1331799419446E+01  0.2718874909373E+00  0.0000000000000E+00
-0.1302044898758E+01  0.3776416251695E+00  0.0000000000000E+00
-0.1260837701565E+01  0.4793297455530E+00  0.0000000000000E+00
-0.1209962422649E+01  0.5763646246461E+00  0.0000000000000E+00
-0.1151420815372E+01  0.6687610104146E+00  0.0000000000000E+00
-0.1085923484021E+01  0.7560985800172E+00  0.0000000000000E+00
-0.1245637993229E+01 -0.1153140953534E+01  0.0000000000000E+00
-0.1259434638352E+01 -0.1045658265064E+01  0.0000000000000E+00
-0.1271814610865E+01 -0.9380032398803E+00  0.0000000000000E+00
-0.1282897842471E+01 -0.8302113205031E+00  0.0000000000000E+00
-0.1292685410739E+01 -0.7223011985908E+00  0.0000000000000E+00
-0.1301074620519E+01 -0.6142822893251E+00  0.0000000000000E+00
-0.1307858886474E+01 -0.5061589456413E+00  0.0000000000000E+00
-0.1312956191413E+01 -0.3979492180895E+00  0.0000000000000E+00
-0.1316307640679E+01 -0.2896727215968E+00  0.0000000000000E+00
-0.1317777205404E+01 -0.1813431702324E+00  0.0000000000000E+00
-0.1317405808375E+01 -0.7298106903875E-01  0.0000000000000E+00
-0.1315729119569E+01  0.3539258808897E-01  0.0000000000000E+00
-0.1308123727530E+01  0.1435341243932E+00  0.0000000000000E+00
-0.1290374195784E+01  0.2504589646731E+00  0.0000000000000E+00
-0.1261835217099E+01  0.3548850080857E+00  0.0000000000000E+00
-0.1222528306679E+01  0.4554650322152E+00  0.0000000000000E+00
-0.1174136108167E+01  0.5516407687444E+00  0.0000000000000E+00
-0.1118546301820E+01  0.6434246428656E+00  0.0000000000000E+00
-0.1056423855374E+01  0.7304173146964E+00  0.0000000000000E+00
-0.1212379484089E+01 -0.1154609888494E+01  0.0000000000000E+00
-0.1225333286841E+01 -0.1048610432053E+01  0.0000000000000E+00
-0.1236888961493E+01 -0.9424496491304E+00  0.0000000000000E+00
-0.1247151082973E+01 -0.8361622158072E+00  0.0000000000000E+00
-0.1256111467007E+01 -0.7297674178015E+00  0.0000000000000E+00
-0.1263664652793E+01 -0.6232762030117E+00  0.0000000000000E+00
-0.1269610363529E+01 -0.5166948903483E+00  0.0000000000000E+00
-0.1273873589703E+01 -0.4100421111372E+00  0.0000000000000E+00
-0.1276414059827E+01 -0.3033360027507E+00  0.0000000000000E+00
-0.1277134454338E+01 -0.1965859730982E+00  0.0000000000000E+00
-0.1276116162743E+01 -0.8980520194089E-01  0.0000000000000E+00
-0.1273907835787E+01  0.1699266926579E-01  0.0000000000000E+00
-0.1266174070351E+01  0.1235810456296E+00  0.0000000000000E+00
-0.1248948972122E+01  0.2290304384090E+00  0.0000000000000E+00
-0.1221625535439E+01  0.3321283910018E+00  0.0000000000000E+00
-0.1184218911793E+01  0.4316003188775E+00  0.0000000000000E+00
-0.1138309793685E+01  0.5269169128427E+00  0.0000000000000E+00
-0.1085671788268E+01  0.6180882753165E+00  0.0000000000000E+00
-0.1026924226726E+01  0.7047360493755E+00  0.0000000000000E+00
-0.1179120974948E+01 -0.1156078823454E+01  0.0000000000000E+00
-0.1191231935330E+01 -0.1051562599042E+01  0.0000000000000E+00
-0.1201963312121E+01 -0.9468960583805E+00  0.0000000000000E+00
-0.1211404323475E+01 -0.8421131111114E+00  0.0000000000000E+00
-0.1219537523275E+01 -0.7372336370121E+00  0.0000000000000E+00
-0.1226254685067E+01 -0.6322701166982E+00  0.0000000000000E+00
-0.1231361840583E+01 -0.5272308350552E+00  0.0000000000000E+00
-0.1234790987992E+01 -0.4221350041848E+00  0.0000000000000E+00
-0.1236520478975E+01 -0.3169992839045E+00  0.0000000000000E+00
-0.1236491703271E+01 -0.2118287759639E+00  0.0000000000000E+00
-0.1234826517111E+01 -0.1066293348430E+00  0.0000000000000E+00
-0.1232086552004E+01 -0.1407249557388E-02  0.0000000000000E+00
-0.1224224413172E+01  0.1036279668659E+00  0.0000000000000E+00
-0.1207523748460E+01  0.2076019121449E+00  0.0000000000000E+00
-0.1181415853780E+01  0.3093717739179E+00  0.0000000000000E+00
-0.1145909516907E+01  0.4077356055397E+00  0.0000000000000E+00
-0.1102483479202E+01  0.5021930569409E+00  0.0000000000000E+00
-0.1052797274716E+01  0.5927519077675E+00  0.0000000000000E+00
-0.9974245980785E+00  0.6790547840547E+00  0.0000000000000E+00
-0.1145862465808E+01 -0.1157547758415E+01  0.0000000000000E+00
-0.1157130583818E+01 -0.1054514766032E+01  0.0000000000000E+00
-0.1167037662748E+01 -0.9513424676306E+00  0.0000000000000E+00
-0.1175657563978E+01 -0.8480640064155E+00  0.0000000000000E+00
-0.1182963579544E+01 -0.7446998562227E+00  0.0000000000000E+00
-0.1188844717341E+01 -0.6412640303847E+00  0.0000000000000E+00
-0.1193113317638E+01 -0.5377667797621E+00  0.0000000000000E+00
-0.1195708386282E+01 -0.4342278972324E+00  0.0000000000000E+00
-0.1196626898123E+01 -0.3306625650584E+00  0.0000000000000E+00
-0.1195848952204E+01 -0.2270715788297E+00  0.0000000000000E+00
-0.1193536871478E+01 -0.1234534677452E+00  0.0000000000000E+00
-0.1190265268222E+01 -0.1980716838057E-01  0.0000000000000E+00
-0.1182274755993E+01  0.8367488810228E-01  0.0000000000000E+00
-0.1166098524797E+01  0.1861733858807E+00  0.0000000000000E+00
-0.1141206172121E+01  0.2866151568340E+00  0.0000000000000E+00
-0.1107600122020E+01  0.3838708922020E+00  0.0000000000000E+00
-0.1066657164720E+01  0.4774692010392E+00  0.0000000000000E+00
-0.1019922761165E+01  0.5674155402184E+00  0.0000000000000E+00
-0.9679249694309E+00  0.6533735187339E+00  0.0000000000000E+00
-0.1112603956668E+01 -0.1159016693375E+01  0.0000000000000E+00
-0.1123029232307E+01 -0.1057466933021E+01  0.0000000000000E+00
-0.1132112013376E+01 -0.9557888768807E+00  0.0000000000000E+00
-0.1139910804480E+01 -0.8540149017197E+00  0.0000000000000E+00
-0.1146389635812E+01 -0.7521660754333E+00  0.0000000000000E+00
-0.1151434749615E+01 -0.6502579440712E+00  0.0000000000000E+00
-0.1154864794692E+01 -0.5483027244690E+00  0.0000000000000E+00
-0.1156625784571E+01 -0.4463207902801E+00  0.0000000000000E+00
-0.1156733317270E+01 -0.3443258462123E+00  0.0000000000000E+00
-0.1155206201138E+01 -0.2423143816954E+00  0.0000000000000E+00
-0.1152247225846E+01 -0.1402776006473E+00  0.0000000000000E+00
-0.1148443984439E+01 -0.3820708720374E-01  0.0000000000000E+00
-0.1140325098814E+01  0.6372180933864E-01  0.0000000000000E+00
-0.1124673301135E+01  0.1647448596166E+00  0.0000000000000E+00
-0.1100996490462E+01  0.2638585397501E+00  0.0000000000000E+00
-0.1069290727134E+01  0.3600061788643E+00  0.0000000000000E+00
-0.1030830850237E+01  0.4527453451374E+00  0.0000000000000E+00
-0.9870482476130E+00  0.5420791726694E+00  0.0000000000000E+00
-0.9384253407834E+00  0.6276922534130E+00  0.0000000000000E+00
-0.1079345447527E+01 -0.1160485628335E+01  0.0000000000000E+00
-0.1088927880796E+01 -0.1060419100010E+01  0.0000000000000E+00
-0.1097186364004E+01 -0.9602352861308E+00  0.0000000000000E+00
-0.1104164044982E+01 -0.8599657970238E+00  0.0000000000000E+00
-0.1109815692080E+01 -0.7596322946440E+00  0.0000000000000E+00
-0.1114024781889E+01 -0.6592518577578E+00  0.0000000000000E+00
-0.1116616271746E+01 -0.5588386691759E+00  0.0000000000000E+00
-0.1117543182861E+01 -0.4584136833277E+00  0.0000000000000E+00
-0.1116839736418E+01 -0.3579891273662E+00  0.0000000000000E+00
-0.1114563450071E+01 -0.2575571845612E+00  0.0000000000000E+00
-0.1110957580214E+01 -0.1571017335495E+00  0.0000000000000E+00
-0.1106622700657E+01 -0.5660700602692E-01  0.0000000000000E+00
-0.1098375441635E+01  0.4376873057499E-01  0.0000000000000E+00
-0.1083248077473E+01  0.1433163333524E+00  0.0000000000000E+00
-0.1060786808803E+01  0.2411019226662E+00  0.0000000000000E+00
-0.1030981332248E+01  0.3361414655265E+00  0.0000000000000E+00
-0.9950045357551E+00  0.4280214892357E+00  0.0000000000000E+00
-0.9541737340612E+00  0.5167428051204E+00  0.0000000000000E+00
-0.9089257121358E+00  0.6020109880922E+00  0.0000000000000E+00
-0.1046086938387E+01 -0.1161954563296E+01  0.0000000000000E+00
-0.1054826529285E+01 -0.1063371266999E+01  0.0000000000000E+00
-0.1062260714631E+01 -0.9646816953809E+00  0.0000000000000E+00
-0.1068417285485E+01 -0.8659166923280E+00  0.0000000000000E+00
-0.1073241748349E+01 -0.7670985138546E+00  0.0000000000000E+00
-0.1076614814163E+01 -0.6682457714443E+00  0.0000000000000E+00
-0.1078367748801E+01 -0.5693746138828E+00  0.0000000000000E+00
-0.1078460581150E+01 -0.4705065763753E+00  0.0000000000000E+00
-0.1076946155566E+01 -0.3716524085200E+00  0.0000000000000E+00
-0.1073920699005E+01 -0.2727999874270E+00  0.0000000000000E+00
-0.1069667934581E+01 -0.1739258664516E+00  0.0000000000000E+00
-0.1064801416874E+01 -0.7500692485010E-01  0.0000000000000E+00
-0.1056425784456E+01  0.2381565181134E-01  0.0000000000000E+00
-0.1041822853810E+01  0.1218878070883E+00  0.0000000000000E+00
-0.1020577127143E+01  0.2183453055823E+00  0.0000000000000E+00
-0.9926719373617E+00  0.3122767521888E+00  0.0000000000000E+00
-0.9591782212728E+00  0.4032976333339E+00  0.0000000000000E+00
-0.9212992205094E+00  0.4914064375713E+00  0.0000000000000E+00
-0.8794260834883E+00  0.5763297227714E+00  0.0000000000000E+00
-0.1012828429247E+01 -0.1163423498256E+01  0.0000000000000E+00
-0.1020725177774E+01 -0.1066323433989E+01  0.0000000000000E+00
-0.1027335065259E+01 -0.9691281046309E+00  0.0000000000000E+00
-0.1032670525987E+01 -0.8718675876321E+00  0.0000000000000E+00
-0.1036667804617E+01 -0.7745647330652E+00  0.0000000000000E+00
-0.1039204846437E+01 -0.6772396851308E+00  0.0000000000000E+00
-0.1040119225855E+01 -0.5799105585897E+00  0.0000000000000E+00
-0.1039377979440E+01 -0.4825994694230E+00  0.0000000000000E+00
-0.1037052574714E+01 -0.3853156896739E+00  0.0000000000000E+00
-0.1033277947938E+01 -0.2880427902927E+00  0.0000000000000E+00
-0.1028378288949E+01 -0.1907499993537E+00  0.0000000000000E+00
-0.1022980133092E+01 -0.9340684367328E-01  0.0000000000000E+00
-0.1014476127276E+01  0.3862573047696E-02  0.0000000000000E+00
-0.1000397630148E+01  0.1004592808241E+00  0.0000000000000E+00
-0.9803674454841E+00  0.1955886884984E+00  0.0000000000000E+00
-0.9543625424755E+00  0.2884120388510E+00  0.0000000000000E+00
-0.9233519067904E+00  0.3785737774322E+00  0.0000000000000E+00
-0.8884247069577E+00  0.4660700700223E+00  0.0000000000000E+00
-0.8499264548408E+00  0.5506484574506E+00  0.0000000000000E+00
-0.9795699201063E+00 -0.1164892433216E+01  0.0000000000000E+00
-0.9866238262626E+00 -0.1069275600978E+01  0.0000000000000E+00
-0.9924094158868E+00 -0.9735745138810E+00  0.0000000000000E+00
-0.9969237664891E+00 -0.8778184829363E+00  0.0000000000000E+00
-0.1000093860885E+01 -0.7820309522758E+00  0.0000000000000E+00
-0.1001794878711E+01 -0.6862335988173E+00  0.0000000000000E+00
-0.1001870702910E+01 -0.5904465032966E+00  0.0000000000000E+00
-0.1000295377729E+01 -0.4946923624706E+00  0.0000000000000E+00
-0.9971589938620E+00 -0.3989789708278E+00  0.0000000000000E+00
-0.9926351968715E+00 -0.3032855931585E+00  0.0000000000000E+00
-0.9870886433164E+00 -0.2075741322559E+00  0.0000000000000E+00
-0.9811588493097E+00 -0.1118067624965E+00  0.0000000000000E+00
-0.9725264700973E+00 -0.1609050571595E-01  0.0000000000000E+00
-0.9589724064858E+00  0.7903075455998E-01  0.0000000000000E+00
-0.9401577638249E+00  0.1728320714145E+00  0.0000000000000E+00
-0.9160531475893E+00  0.2645473255133E+00  0.0000000000000E+00
-0.8875255923080E+00  0.3538499215304E+00  0.0000000000000E+00
-0.8555501934059E+00  0.4407337024732E+00  0.0000000000000E+00
-0.8204268261932E+00  0.5249671921297E+00  0.0000000000000E+00
-0.9463114109659E+00 -0.1166361368177E+01  0.0000000000000E+00
-0.9525224747514E+00 -0.1072227767967E+01  0.0000000000000E+00
-0.9574837665145E+00 -0.9780209231311E+00  0.0000000000000E+00
-0.9611770069914E+00 -0.8837693782404E+00  0.0000000000000E+00
-0.9635199171535E+00 -0.7894971714864E+00  0.0000000000000E+00
-0.9643849109855E+00 -0.6952275125039E+00  0.0000000000000E+00
-0.9636221799641E+00 -0.6009824480035E+00  0.0000000000000E+00
-0.9612127760186E+00 -0.5067852555182E+00  0.0000000000000E+00
-0.9572654130098E+00 -0.4126422519817E+00  0.0000000000000E+00
-0.9519924458049E+00 -0.3185283960243E+00  0.0000000000000E+00
-0.9457989976841E+00 -0.2243982651580E+00  0.0000000000000E+00
-0.9393375655272E+00 -0.1302066813196E+00  0.0000000000000E+00
-0.9305768129182E+00 -0.3604358447960E-01  0.0000000000000E+00
-0.9175471828235E+00  0.5760222829584E-01  0.0000000000000E+00
-0.8999480821656E+00  0.1500754543306E+00  0.0000000000000E+00
-0.8777437527031E+00  0.2406826121755E+00  0.0000000000000E+00
-0.8516992778257E+00  0.3291260656287E+00  0.0000000000000E+00
-0.8226756798541E+00  0.4153973349242E+00  0.0000000000000E+00
-0.7909271975457E+00  0.4992859268089E+00  0.0000000000000E+00
-0.9130529018256E+00 -0.1167830303137E+01  0.0000000000000E+00
-0.9184211232403E+00 -0.1075179934956E+01  0.0000000000000E+00
-0.9225581171422E+00 -0.9824673323812E+00  0.0000000000000E+00
-0.9254302474937E+00 -0.8897202735446E+00  0.0000000000000E+00
-0.9269459734218E+00 -0.7969633906971E+00  0.0000000000000E+00
-0.9269749432596E+00 -0.7042214261904E+00  0.0000000000000E+00
-0.9253736570186E+00 -0.6115183927104E+00  0.0000000000000E+00
-0.9221301743080E+00 -0.5188781485659E+00  0.0000000000000E+00
-0.9173718321577E+00 -0.4263055331355E+00  0.0000000000000E+00
-0.9113496947383E+00 -0.3337711988900E+00  0.0000000000000E+00
-0.9045093520517E+00 -0.2412223980602E+00  0.0000000000000E+00
-0.8975162817448E+00 -0.1486066001428E+00  0.0000000000000E+00
-0.8886271557392E+00 -0.5599666324325E-01  0.0000000000000E+00
-0.8761219591612E+00  0.3617370203170E-01  0.0000000000000E+00
-0.8597384005064E+00  0.1273188372467E+00  0.0000000000000E+00
-0.8394343578169E+00  0.2168178988378E+00  0.0000000000000E+00
-0.8158729633433E+00  0.3044022097269E+00  0.0000000000000E+00
-0.7898011663024E+00  0.3900609673752E+00  0.0000000000000E+00
-0.7614275688981E+00  0.4736046614881E+00  0.0000000000000E+00
-0.8797943926852E+00 -0.1169299238097E+01  0.0000000000000E+00
-0.8843197717291E+00 -0.1078132101946E+01  0.0000000000000E+00
-0.8876324677699E+00 -0.9869137416313E+00  0.0000000000000E+00
-0.8896834879960E+00 -0.8956711688487E+00  0.0000000000000E+00
-0.8903720296900E+00 -0.8044296099077E+00  0.0000000000000E+00
-0.8895649755337E+00 -0.7132153398769E+00  0.0000000000000E+00
-0.8871251340730E+00 -0.6220543374173E+00  0.0000000000000E+00
-0.8830475725975E+00 -0.5309710416135E+00  0.0000000000000E+00
-0.8774782513056E+00 -0.4399688142894E+00  0.0000000000000E+00
-0.8707069436717E+00 -0.3490140017558E+00  0.0000000000000E+00
-0.8632197064193E+00 -0.2580465309623E+00  0.0000000000000E+00
-0.8556949979624E+00 -0.1670065189660E+00  0.0000000000000E+00
-0.8466774985601E+00 -0.7594974200689E-01  0.0000000000000E+00
-0.8346967354989E+00  0.1474517576755E-01  0.0000000000000E+00
-0.8195287188472E+00  0.1045622201628E+00  0.0000000000000E+00
-0.8011249629307E+00  0.1929531855000E+00  0.0000000000000E+00
-0.7800466488610E+00  0.2796783538252E+00  0.0000000000000E+00
-0.7569266527506E+00  0.3647245998261E+00  0.0000000000000E+00
-0.7319279402506E+00  0.4479233961672E+00  0.0000000000000E+00
-0.8465358835449E+00 -0.1170768173058E+01  0.0000000000000E+00
-0.8502184202179E+00 -0.1081084268935E+01  0.0000000000000E+00
-0.8527068183976E+00 -0.9913601508814E+00  0.0000000000000E+00
-0.8539367284983E+00 -0.9016220641529E+00  0.0000000000000E+00
-0.8537980859583E+00 -0.8118958291183E+00  0.0000000000000E+00
-0.8521550078078E+00 -0.7222092535634E+00  0.0000000000000E+00
-0.8488766111274E+00 -0.6325902821242E+00  0.0000000000000E+00
-0.8439649708870E+00 -0.5430639346611E+00  0.0000000000000E+00
-0.8375846704535E+00 -0.4536320954433E+00  0.0000000000000E+00
-0.8300641926051E+00 -0.3642568046215E+00  0.0000000000000E+00
-0.8219300607870E+00 -0.2748706638644E+00  0.0000000000000E+00
-0.8138737141800E+00 -0.1854064377892E+00  0.0000000000000E+00
-0.8047278413810E+00 -0.9590282077054E-01  0.0000000000000E+00
-0.7932715118366E+00 -0.6683350496594E-02  0.0000000000000E+00
-0.7793190371880E+00  0.8180560307893E-01  0.0000000000000E+00
-0.7628155680445E+00  0.1690884721623E+00  0.0000000000000E+00
-0.7442203343786E+00  0.2549544979234E+00  0.0000000000000E+00
-0.7240521391988E+00  0.3393882322771E+00  0.0000000000000E+00
-0.7024283116030E+00  0.4222421308464E+00  0.0000000000000E+00
-0.8132773744045E+00 -0.1172237108018E+01  0.0000000000000E+00
-0.8161170687067E+00 -0.1084036435924E+01  0.0000000000000E+00
-0.8177811690253E+00 -0.9958065601315E+00  0.0000000000000E+00
-0.8181899690006E+00 -0.9075729594570E+00  0.0000000000000E+00
-0.8172241422266E+00 -0.8193620483289E+00  0.0000000000000E+00
-0.8147450400819E+00 -0.7312031672500E+00  0.0000000000000E+00
-0.8106280881819E+00 -0.6431262268311E+00  0.0000000000000E+00
-0.8048823691764E+00 -0.5551568277088E+00  0.0000000000000E+00
-0.7976910896013E+00 -0.4672953765972E+00  0.0000000000000E+00
-0.7894214415385E+00 -0.3794996074873E+00  0.0000000000000E+00
-0.7806404151546E+00 -0.2916947967666E+00  0.0000000000000E+00
-0.7720524303976E+00 -0.2038063566123E+00  0.0000000000000E+00
-0.7627781842019E+00 -0.1158558995342E+00  0.0000000000000E+00
-0.7518462881743E+00 -0.2811187676074E-01  0.0000000000000E+00
-0.7391093555288E+00  0.5904898599503E-01  0.0000000000000E+00
-0.7245061731583E+00  0.1452237588245E+00  0.0000000000000E+00
-0.7083940198962E+00  0.2302306420217E+00  0.0000000000000E+00
-0.6911776256471E+00  0.3140518647280E+00  0.0000000000000E+00
-0.6729286829555E+00  0.3965608655256E+00  0.0000000000000E+00
-0.7800188652641E+00 -0.1173706042978E+01  0.0000000000000E+00
-0.7820157171956E+00 -0.1086988602913E+01  0.0000000000000E+00
-0.7828555196530E+00 -0.1000252969382E+01  0.0000000000000E+00
-0.7824432095029E+00 -0.9135238547612E+00  0.0000000000000E+00
-0.7806501984949E+00 -0.8268282675395E+00  0.0000000000000E+00
-0.7773350723560E+00 -0.7401970809365E+00  0.0000000000000E+00
-0.7723795652363E+00 -0.6536621715381E+00  0.0000000000000E+00
-0.7657997674659E+00 -0.5672497207564E+00  0.0000000000000E+00
-0.7577975087492E+00 -0.4809586577510E+00  0.0000000000000E+00
-0.7487786904719E+00 -0.3947424103531E+00  0.0000000000000E+00
-0.7393507695222E+00 -0.3085189296687E+00  0.0000000000000E+00
-0.7302311466152E+00 -0.2222062754355E+00  0.0000000000000E+00
-0.7208285270228E+00 -0.1358089782978E+00  0.0000000000000E+00
-0.7104210645120E+00 -0.4954040302488E-01  0.0000000000000E+00
-0.6988996738695E+00  0.3629236891114E-01  0.0000000000000E+00
-0.6861967782721E+00  0.1213590454868E+00  0.0000000000000E+00
-0.6725677054139E+00  0.2055067861199E+00  0.0000000000000E+00
-0.6583031120953E+00  0.2887154971790E+00  0.0000000000000E+00
-0.6434290543080E+00  0.3708796002047E+00  0.0000000000000E+00
-0.7467603561238E+00 -0.1175174977939E+01  0.0000000000000E+00
-0.7479143656844E+00 -0.1089940769903E+01  0.0000000000000E+00
-0.7479298702806E+00 -0.1004699378632E+01  0.0000000000000E+00
-0.7466964500052E+00 -0.9194747500653E+00  0.0000000000000E+00
-0.7440762547632E+00 -0.8342944867502E+00  0.0000000000000E+00
-0.7399251046301E+00 -0.7491909946230E+00  0.0000000000000E+00
-0.7341310422907E+00 -0.6641981162450E+00  0.0000000000000E+00
-0.7267171657554E+00 -0.5793426138040E+00  0.0000000000000E+00
-0.7179039278971E+00 -0.4946219389049E+00  0.0000000000000E+00
-0.7081359394053E+00 -0.4099852132188E+00  0.0000000000000E+00
-0.6980611238899E+00 -0.3253430625709E+00  0.0000000000000E+00
-0.6884098628328E+00 -0.2406061942587E+00  0.0000000000000E+00
-0.6788788698437E+00 -0.1557620570615E+00  0.0000000000000E+00
-0.6689958408497E+00 -0.7096892928903E-01  0.0000000000000E+00
-0.6586899922103E+00  0.1353575182724E-01  0.0000000000000E+00
-0.6478873833859E+00  0.9749433214906E-01  0.0000000000000E+00
-0.6367413909315E+00  0.1807829302182E+00  0.0000000000000E+00
-0.6254285985435E+00  0.2633791296299E+00  0.0000000000000E+00
-0.6139294256604E+00  0.3451983348839E+00  0.0000000000000E+00
-0.7135018469834E+00 -0.1176643912899E+01  0.0000000000000E+00
-0.7138130141732E+00 -0.1092892936892E+01  0.0000000000000E+00
-0.7130042209083E+00 -0.1009145787882E+01  0.0000000000000E+00
-0.7109496905075E+00 -0.9254256453695E+00  0.0000000000000E+00
-0.7075023110315E+00 -0.8417607059608E+00  0.0000000000000E+00
-0.7025151369042E+00 -0.7581849083095E+00  0.0000000000000E+00
-0.6958825193452E+00 -0.6747340609519E+00  0.0000000000000E+00
-0.6876345640448E+00 -0.5914355068517E+00  0.0000000000000E+00
-0.6780103470450E+00 -0.5082852200588E+00  0.0000000000000E+00
-0.6674931883387E+00 -0.4252280160846E+00  0.0000000000000E+00
-0.6567714782575E+00 -0.3421671954730E+00  0.0000000000000E+00
-0.6465885790503E+00 -0.2590061130819E+00  0.0000000000000E+00
-0.6369292126646E+00 -0.1757151358251E+00  0.0000000000000E+00
-0.6275706171874E+00 -0.9239745555317E-01  0.0000000000000E+00
-0.6184803105511E+00 -0.9220865256651E-02  0.0000000000000E+00
-0.6095779884997E+00  0.7362961881131E-01  0.0000000000000E+00
-0.6009150764492E+00  0.1560590743164E+00  0.0000000000000E+00
-0.5925540849918E+00  0.2380427620809E+00  0.0000000000000E+00
-0.5844297970129E+00  0.3195170695631E+00  0.0000000000000E+00
-0.6802433378431E+00 -0.1178112847859E+01  0.0000000000000E+00
-0.6797116626621E+00 -0.1095845103881E+01  0.0000000000000E+00
-0.6780785715360E+00 -0.1013592197132E+01  0.0000000000000E+00
-0.6752029310098E+00 -0.9313765406736E+00  0.0000000000000E+00
-0.6709283672997E+00 -0.8492269251714E+00  0.0000000000000E+00
-0.6651051691783E+00 -0.7671788219961E+00  0.0000000000000E+00
-0.6576339963996E+00 -0.6852700056588E+00  0.0000000000000E+00
-0.6485519623343E+00 -0.6035283998993E+00  0.0000000000000E+00
-0.6381167661928E+00 -0.5219485012127E+00  0.0000000000000E+00
-0.6268504372721E+00 -0.4404708189504E+00  0.0000000000000E+00
-0.6154818326251E+00 -0.3589913283751E+00  0.0000000000000E+00
-0.6047672952679E+00 -0.2774060319051E+00  0.0000000000000E+00
-0.5949795554855E+00 -0.1956682145888E+00  0.0000000000000E+00
-0.5861453935251E+00 -0.1138259818173E+00  0.0000000000000E+00
-0.5782706288919E+00 -0.3197748234054E-01  0.0000000000000E+00
-0.5712685936135E+00  0.4976490547357E-01  0.0000000000000E+00
-0.5650887619668E+00  0.1313352184147E+00  0.0000000000000E+00
-0.5596795714400E+00  0.2127063945319E+00  0.0000000000000E+00
-0.5549301683653E+00  0.2938358042423E+00  0.0000000000000E+00
 0.6802433484435E+00 -0.1178112847849E+01  0.0000000000000E+00
 0.6797116720780E+00 -0.1095845103875E+01  0.0000000000000E+00
 0.6780785797770E+00 -0.1013592197145E+01  0.0000000000000E+00
 0.6752029380933E+00 -0.9313765407239E+00  0.0000000000000E+00
 0.6709283732554E+00 -0.8492269252769E+00  0.0000000000000E+00
 0.6651051740529E+00 -0.7671788221750E+00  0.0000000000000E+00
 0.6576340002627E+00 -0.6852700059262E+00  0.0000000000000E+00
 0.6485519652821E+00 -0.6035284002639E+00  0.0000000000000E+00
 0.6381167683488E+00 -0.5219485016727E+00  0.0000000000000E+00
 0.6268504387797E+00 -0.4404708194920E+00  0.0000000000000E+00
 0.6154818336317E+00 -0.3589913289766E+00  0.0000000000000E+00
 0.6047672959142E+00 -0.2774060325421E+00  0.0000000000000E+00
 0.5949795559123E+00 -0.1956682152389E+00  0.0000000000000E+00
 0.5861453938334E+00 -0.1138259824613E+00  0.0000000000000E+00
 0.5782706291498E+00 -0.3197748296223E-01  0.0000000000000E+00
 0.5712685938666E+00  0.4976490488478E-01  0.0000000000000E+00
 0.5650887622411E+00  0.1313352178655E+00  0.0000000000000E+00
 0.5596795717538E+00  0.2127063940286E+00  0.0000000000000E+00
 0.5549301687313E+00  0.2938358037924E+00  0.0000000000000E+00
 0.7135018570198E+00 -0.1176643912919E+01  0.0000000000000E+00
 0.7138130230836E+00 -0.1092892936945E+01  0.0000000000000E+00
 0.7130042287029E+00 -0.1009145787984E+01  0.0000000000000E+00
 0.7109496972034E+00 -0.9254256455366E+00  0.0000000000000E+00
 0.7075023166577E+00 -0.8417607062105E+00  0.0000000000000E+00
 0.7025151415061E+00 -0.7581849086590E+00  0.0000000000000E+00
 0.6958825229899E+00 -0.6747340614155E+00  0.0000000000000E+00
 0.6876345668242E+00 -0.5914355074377E+00  0.0000000000000E+00
 0.6780103490774E+00 -0.5082852207655E+00  0.0000000000000E+00
 0.6674931897617E+00 -0.4252280168988E+00  0.0000000000000E+00
 0.6567714792105E+00 -0.3421671963741E+00  0.0000000000000E+00
 0.6465885796710E+00 -0.2590061140468E+00  0.0000000000000E+00
 0.6369292131142E+00 -0.1757151368302E+00  0.0000000000000E+00
 0.6275706175752E+00 -0.9239745657483E-01  0.0000000000000E+00
 0.6184803109469E+00 -0.9220866271635E-02  0.0000000000000E+00
 0.6095779889493E+00  0.7362961781919E-01  0.0000000000000E+00
 0.6009150769751E+00  0.1560590733582E+00  0.0000000000000E+00
 0.5925540856125E+00  0.2380427611681E+00  0.0000000000000E+00
 0.5844297977438E+00  0.3195170687102E+00  0.0000000000000E+00
 0.7467603655960E+00 -0.1175174977988E+01  0.0000000000000E+00
 0.7479143740892E+00 -0.1089940770016E+01  0.0000000000000E+00
 0.7479298776287E+00 -0.1004699378822E+01  0.0000000000000E+00
 0.7466964563136E+00 -0.9194747503494E+00  0.0000000000000E+00
 0.7440762600600E+00 -0.8342944871440E+00  0.0000000000000E+00
 0.7399251089593E+00 -0.7491909951431E+00  0.0000000000000E+00
 0.7341310457170E+00 -0.6641981169049E+00  0.0000000000000E+00
 0.7267171683664E+00 -0.5793426146115E+00  0.0000000000000E+00
 0.7179039298061E+00 -0.4946219398584E+00  0.0000000000000E+00
 0.7081359407437E+00 -0.4099852143056E+00  0.0000000000000E+00
 0.6980611247893E+00 -0.3253430637716E+00  0.0000000000000E+00
 0.6884098634278E+00 -0.2406061955515E+00  0.0000000000000E+00
 0.6788788703161E+00 -0.1557620584214E+00  0.0000000000000E+00
 0.6689958413171E+00 -0.7096893068838E-01  0.0000000000000E+00
 0.6586899927439E+00  0.1353575041896E-01  0.0000000000000E+00
 0.6478873840319E+00  0.9749433075359E-01  0.0000000000000E+00
 0.6367413917090E+00  0.1807829288509E+00  0.0000000000000E+00
 0.6254285994712E+00  0.2633791283076E+00  0.0000000000000E+00
 0.6139294267563E+00  0.3451983336280E+00  0.0000000000000E+00
 0.7800188741723E+00 -0.1173706043058E+01  0.0000000000000E+00
 0.7820157250948E+00 -0.1086988603087E+01  0.0000000000000E+00
 0.7828555265545E+00 -0.1000252969661E+01  0.0000000000000E+00
 0.7824432154237E+00 -0.9135238551621E+00  0.0000000000000E+00
 0.7806502034623E+00 -0.8268282680776E+00  0.0000000000000E+00
 0.7773350764125E+00 -0.7401970816272E+00  0.0000000000000E+00
 0.7723795684441E+00 -0.6536621723942E+00  0.0000000000000E+00
 0.7657997699086E+00 -0.5672497217854E+00  0.0000000000000E+00
 0.7577975105347E+00 -0.4809586589513E+00  0.0000000000000E+00
 0.7487786917257E+00 -0.3947424117123E+00  0.0000000000000E+00
 0.7393507703682E+00 -0.3085189311692E+00  0.0000000000000E+00
 0.7302311471845E+00 -0.2222062770562E+00  0.0000000000000E+00
 0.7208285275179E+00 -0.1358089800127E+00  0.0000000000000E+00
 0.7104210650589E+00 -0.4954040480193E-01  0.0000000000000E+00
 0.6988996745410E+00  0.3629236710956E-01  0.0000000000000E+00
 0.6861967791145E+00  0.1213590436880E+00  0.0000000000000E+00
 0.6725677064430E+00  0.2055067843436E+00  0.0000000000000E+00
 0.6583031133299E+00  0.2887154954471E+00  0.0000000000000E+00
 0.6434290557688E+00  0.3708795985458E+00  0.0000000000000E+00
 0.8132773827486E+00 -0.1172237108128E+01  0.0000000000000E+00
 0.8161170761004E+00 -0.1084036436157E+01  0.0000000000000E+00
 0.8177811754804E+00 -0.9958065604997E+00  0.0000000000000E+00
 0.8181899745339E+00 -0.9075729599749E+00  0.0000000000000E+00
 0.8172241468646E+00 -0.8193620490111E+00  0.0000000000000E+00
 0.8147450438657E+00 -0.7312031681112E+00  0.0000000000000E+00
 0.8106280911713E+00 -0.6431262278835E+00  0.0000000000000E+00
 0.8048823714508E+00 -0.5551568289592E+00  0.0000000000000E+00
 0.7976910912633E+00 -0.4672953780442E+00  0.0000000000000E+00
 0.7894214427077E+00 -0.3794996091191E+00  0.0000000000000E+00
 0.7806404159470E+00 -0.2916947985667E+00  0.0000000000000E+00
 0.7720524309413E+00 -0.2038063585610E+00  0.0000000000000E+00
 0.7627781847198E+00 -0.1158559016039E+00  0.0000000000000E+00
 0.7518462888007E+00 -0.2811187891548E-01  0.0000000000000E+00
 0.7391093563381E+00  0.5904898380016E-01  0.0000000000000E+00
 0.7245061741971E+00  0.1452237566224E+00  0.0000000000000E+00
 0.7083940211769E+00  0.2302306398363E+00  0.0000000000000E+00
 0.6911776271886E+00  0.3140518625866E+00  0.0000000000000E+00
 0.6729286847813E+00  0.3965608634636E+00  0.0000000000000E+00
 0.8465358913249E+00 -0.1170768173198E+01  0.0000000000000E+00
 0.8502184271060E+00 -0.1081084269228E+01  0.0000000000000E+00
 0.8527068244062E+00 -0.9913601513384E+00  0.0000000000000E+00
 0.8539367336440E+00 -0.9016220647876E+00  0.0000000000000E+00
 0.8537980902669E+00 -0.8118958299447E+00  0.0000000000000E+00
 0.8521550113189E+00 -0.7222092545953E+00  0.0000000000000E+00
 0.8488766138984E+00 -0.6325902833728E+00  0.0000000000000E+00
 0.8439649729930E+00 -0.5430639361330E+00  0.0000000000000E+00
 0.8375846719920E+00 -0.4536320971370E+00  0.0000000000000E+00
 0.8300641936896E+00 -0.3642568065259E+00  0.0000000000000E+00
 0.8219300615258E+00 -0.2748706659642E+00  0.0000000000000E+00
 0.8138737146981E+00 -0.1854064400657E+00  0.0000000000000E+00
 0.8047278419217E+00 -0.9590282319517E-01  0.0000000000000E+00
 0.7932715125426E+00 -0.6683353029025E-02  0.0000000000000E+00
 0.7793190381351E+00  0.8180560049076E-01  0.0000000000000E+00
 0.7628155692797E+00  0.1690884695568E+00  0.0000000000000E+00
 0.7442203359109E+00  0.2549544953290E+00  0.0000000000000E+00
 0.7240521410473E+00  0.3393882297260E+00  0.0000000000000E+00
 0.7024283137938E+00  0.4222421283815E+00  0.0000000000000E+00
 0.8797943999012E+00 -0.1169299238267E+01  0.0000000000000E+00
 0.8843197781116E+00 -0.1078132102298E+01  0.0000000000000E+00
 0.8876324733320E+00 -0.9869137421770E+00  0.0000000000000E+00
 0.8896834927542E+00 -0.8956711696004E+00  0.0000000000000E+00
 0.8903720336692E+00 -0.8044296108782E+00  0.0000000000000E+00
 0.8895649787720E+00 -0.7132153410794E+00  0.0000000000000E+00
 0.8871251366255E+00 -0.6220543388621E+00  0.0000000000000E+00
 0.8830475745352E+00 -0.5309710433068E+00  0.0000000000000E+00
 0.8774782527206E+00 -0.4399688162299E+00  0.0000000000000E+00
 0.8707069446716E+00 -0.3490140039327E+00  0.0000000000000E+00
 0.8632197071046E+00 -0.2580465333617E+00  0.0000000000000E+00
 0.8556949984549E+00 -0.1670065215704E+00  0.0000000000000E+00
 0.8466774991235E+00 -0.7594974478642E-01  0.0000000000000E+00
 0.8346967362844E+00  0.1474517285743E-01  0.0000000000000E+00
 0.8195287199322E+00  0.1045622171814E+00  0.0000000000000E+00
 0.8011249643623E+00  0.1929531824912E+00  0.0000000000000E+00
 0.7800466506448E+00  0.2796783508217E+00  0.0000000000000E+00
 0.7569266549060E+00  0.3647245968655E+00  0.0000000000000E+00
 0.7319279428062E+00  0.4479233932993E+00  0.0000000000000E+00
 0.9130529084775E+00 -0.1167830303337E+01  0.0000000000000E+00
 0.9184211291173E+00 -0.1075179935369E+01  0.0000000000000E+00
 0.9225581222579E+00 -0.9824673330156E+00  0.0000000000000E+00
 0.9254302518643E+00 -0.8897202744131E+00  0.0000000000000E+00
 0.9269459770715E+00 -0.7969633918117E+00  0.0000000000000E+00
 0.9269749462252E+00 -0.7042214275634E+00  0.0000000000000E+00
 0.9253736593527E+00 -0.6115183943514E+00  0.0000000000000E+00
 0.9221301760774E+00 -0.5188781504806E+00  0.0000000000000E+00
 0.9173718334493E+00 -0.4263055353228E+00  0.0000000000000E+00
 0.9113496956536E+00 -0.3337712013394E+00  0.0000000000000E+00
 0.9045093526834E+00 -0.2412224007593E+00  0.0000000000000E+00
 0.8975162822117E+00 -0.1486066030751E+00  0.0000000000000E+00
 0.8886271563254E+00 -0.5599666637767E-01  0.0000000000000E+00
 0.8761219600262E+00  0.3617369874388E-01  0.0000000000000E+00
 0.8597384017292E+00  0.1273188338720E+00  0.0000000000000E+00
 0.8394343594449E+00  0.2168178954256E+00  0.0000000000000E+00
 0.8158729653788E+00  0.3044022063144E+00  0.0000000000000E+00
 0.7898011687647E+00  0.3900609640050E+00  0.0000000000000E+00
 0.7614275718187E+00  0.4736046582171E+00  0.0000000000000E+00
 0.9463114170538E+00 -0.1166361368407E+01  0.0000000000000E+00
 0.9525224801229E+00 -0.1072227768440E+01  0.0000000000000E+00
 0.9574837711837E+00 -0.9780209238543E+00  0.0000000000000E+00
 0.9611770109745E+00 -0.8837693792259E+00  0.0000000000000E+00
 0.9635199204738E+00 -0.7894971727453E+00  0.0000000000000E+00
 0.9643849136784E+00 -0.6952275140475E+00  0.0000000000000E+00
 0.9636221820798E+00 -0.6009824498407E+00  0.0000000000000E+00
 0.9612127776196E+00 -0.5067852576544E+00  0.0000000000000E+00
 0.9572654141779E+00 -0.4126422544157E+00  0.0000000000000E+00
 0.9519924466356E+00 -0.3185283987462E+00  0.0000000000000E+00
 0.9457989982622E+00 -0.2243982681568E+00  0.0000000000000E+00
 0.9393375659685E+00 -0.1302066845798E+00  0.0000000000000E+00
 0.9305768135273E+00 -0.3604358796892E-01  0.0000000000000E+00
 0.9175471837681E+00  0.5760222463033E-01  0.0000000000000E+00
 0.8999480835263E+00  0.1500754505626E+00  0.0000000000000E+00
 0.8777437545275E+00  0.2406826083600E+00  0.0000000000000E+00
 0.8516992801127E+00  0.3291260618070E+00  0.0000000000000E+00
 0.8226756826234E+00  0.4153973311445E+00  0.0000000000000E+00
 0.7909272008312E+00  0.4992859231349E+00  0.0000000000000E+00
 0.9795699256300E+00 -0.1164892433477E+01  0.0000000000000E+00
 0.9866238311285E+00 -0.1069275601510E+01  0.0000000000000E+00
 0.9924094201095E+00 -0.9735745146929E+00  0.0000000000000E+00
 0.9969237700846E+00 -0.8778184840386E+00  0.0000000000000E+00
 0.1000093863876E+01 -0.7820309536788E+00  0.0000000000000E+00
 0.1001794881132E+01 -0.6862336005316E+00  0.0000000000000E+00
 0.1001870704807E+01 -0.5904465053301E+00  0.0000000000000E+00
 0.1000295379162E+01 -0.4946923648282E+00  0.0000000000000E+00
 0.9971589949066E+00 -0.3989789735085E+00  0.0000000000000E+00
 0.9926351976176E+00 -0.3032855961530E+00  0.0000000000000E+00
 0.9870886438410E+00 -0.2075741355543E+00  0.0000000000000E+00
 0.9811588497253E+00 -0.1118067660845E+00  0.0000000000000E+00
 0.9725264707291E+00 -0.1609050956017E-01  0.0000000000000E+00
 0.9589724075099E+00  0.7903075051678E-01  0.0000000000000E+00
 0.9401577653233E+00  0.1728320672532E+00  0.0000000000000E+00
 0.9160531496101E+00  0.2645473212944E+00  0.0000000000000E+00
 0.8875255948467E+00  0.3538499172997E+00  0.0000000000000E+00
 0.8555501964822E+00  0.4407336982840E+00  0.0000000000000E+00
 0.8204268298437E+00  0.5249671880527E+00  0.0000000000000E+00
 0.1012828434206E+01 -0.1163423498546E+01  0.0000000000000E+00
 0.1020725182134E+01 -0.1066323434581E+01  0.0000000000000E+00
 0.1027335069035E+01 -0.9691281055316E+00  0.0000000000000E+00
 0.1032670529195E+01 -0.8718675888514E+00  0.0000000000000E+00
 0.1036667807278E+01 -0.7745647346124E+00  0.0000000000000E+00
 0.1039204848585E+01 -0.6772396870156E+00  0.0000000000000E+00
 0.1040119227534E+01 -0.5799105608194E+00  0.0000000000000E+00
 0.1039377980704E+01 -0.4825994720020E+00  0.0000000000000E+00
 0.1037052575635E+01 -0.3853156926014E+00  0.0000000000000E+00
 0.1033277948600E+01 -0.2880427935598E+00  0.0000000000000E+00
 0.1028378289420E+01 -0.1907500029518E+00  0.0000000000000E+00
 0.1022980133482E+01 -0.9340684758923E-01  0.0000000000000E+00
 0.1014476127931E+01  0.3862568848579E-02  0.0000000000000E+00
 0.1000397631252E+01  0.1004592764032E+00  0.0000000000000E+00
 0.9803674471204E+00  0.1955886839438E+00  0.0000000000000E+00
 0.9543625446928E+00  0.2884120342288E+00  0.0000000000000E+00
 0.9233519095806E+00  0.3785737727924E+00  0.0000000000000E+00
 0.8884247103409E+00  0.4660700654235E+00  0.0000000000000E+00
 0.8499264588562E+00  0.5506484529706E+00  0.0000000000000E+00
 0.1046086942783E+01 -0.1161954563616E+01  0.0000000000000E+00
 0.1054826533140E+01 -0.1063371267651E+01  0.0000000000000E+00
 0.1062260717961E+01 -0.9646816963702E+00  0.0000000000000E+00
 0.1068417288305E+01 -0.8659166936641E+00  0.0000000000000E+00
 0.1073241750681E+01 -0.7670985155459E+00  0.0000000000000E+00
 0.1076614816038E+01 -0.6682457734997E+00  0.0000000000000E+00
 0.1078367750261E+01 -0.5693746163087E+00  0.0000000000000E+00
 0.1078460582246E+01 -0.4705065791758E+00  0.0000000000000E+00
 0.1076946156364E+01 -0.3716524116943E+00  0.0000000000000E+00
 0.1073920699582E+01 -0.2727999909666E+00  0.0000000000000E+00
 0.1069667934999E+01 -0.1739258703494E+00  0.0000000000000E+00
 0.1064801417239E+01 -0.7500692909395E-01  0.0000000000000E+00
 0.1056425785133E+01  0.2381564725733E-01  0.0000000000000E+00
 0.1041822854994E+01  0.1218878022897E+00  0.0000000000000E+00
 0.1020577128917E+01  0.2183453006344E+00  0.0000000000000E+00
 0.9926719397754E+00  0.3122767471633E+00  0.0000000000000E+00
 0.9591782243146E+00  0.4032976282851E+00  0.0000000000000E+00
 0.9212992241996E+00  0.4914064325630E+00  0.0000000000000E+00
 0.8794260878687E+00  0.5763297178884E+00  0.0000000000000E+00
 0.1079345451359E+01 -0.1160485628686E+01  0.0000000000000E+00
 0.1088927884145E+01 -0.1060419100722E+01  0.0000000000000E+00
 0.1097186366887E+01 -0.9602352872088E+00  0.0000000000000E+00
 0.1104164047415E+01 -0.8599657984769E+00  0.0000000000000E+00
 0.1109815694083E+01 -0.7596322964795E+00  0.0000000000000E+00
 0.1114024783491E+01 -0.6592518599838E+00  0.0000000000000E+00
 0.1116616272988E+01 -0.5588386717980E+00  0.0000000000000E+00
 0.1117543183788E+01 -0.4584136863497E+00  0.0000000000000E+00
 0.1116839737092E+01 -0.3579891307872E+00  0.0000000000000E+00
 0.1114563450564E+01 -0.2575571883733E+00  0.0000000000000E+00
 0.1110957580577E+01 -0.1571017377469E+00  0.0000000000000E+00
 0.1106622700996E+01 -0.5660701059866E-01  0.0000000000000E+00
 0.1098375442335E+01  0.4376872566608E-01  0.0000000000000E+00
 0.1083248078735E+01  0.1433163281761E+00  0.0000000000000E+00
 0.1060786810715E+01  0.2411019173250E+00  0.0000000000000E+00
 0.1030981334858E+01  0.3361414600977E+00  0.0000000000000E+00
 0.9950045390485E+00  0.4280214837778E+00  0.0000000000000E+00
 0.9541737380583E+00  0.5167427997025E+00  0.0000000000000E+00
 0.9089257168812E+00  0.6020109828062E+00  0.0000000000000E+00
 0.1112603959935E+01 -0.1159016693756E+01  0.0000000000000E+00
 0.1123029235151E+01 -0.1057466933793E+01  0.0000000000000E+00
 0.1132112015813E+01 -0.9557888780475E+00  0.0000000000000E+00
 0.1139910806525E+01 -0.8540149032896E+00  0.0000000000000E+00
 0.1146389637485E+01 -0.7521660774130E+00  0.0000000000000E+00
 0.1151434750944E+01 -0.6502579464678E+00  0.0000000000000E+00
 0.1154864795715E+01 -0.5483027272873E+00  0.0000000000000E+00
 0.1156625785331E+01 -0.4463207935235E+00  0.0000000000000E+00
 0.1156733317821E+01 -0.3443258498800E+00  0.0000000000000E+00
 0.1155206201545E+01 -0.2423143857801E+00  0.0000000000000E+00
 0.1152247226156E+01 -0.1402776051444E+00  0.0000000000000E+00
 0.1148443984752E+01 -0.3820709210337E-01  0.0000000000000E+00
 0.1140325099537E+01  0.6372180407483E-01  0.0000000000000E+00
 0.1124673302477E+01  0.1647448540626E+00  0.0000000000000E+00
 0.1100996492512E+01  0.2638585340156E+00  0.0000000000000E+00
 0.1069290729941E+01  0.3600061730321E+00  0.0000000000000E+00
 0.1030830853782E+01  0.4527453392705E+00  0.0000000000000E+00
 0.9870482519170E+00  0.5420791668420E+00  0.0000000000000E+00
 0.9384253458937E+00  0.6276922477240E+00  0.0000000000000E+00
 0.1145862468511E+01 -0.1157547758825E+01  0.0000000000000E+00
 0.1157130586157E+01 -0.1054514766863E+01  0.0000000000000E+00
 0.1167037664739E+01 -0.9513424688861E+00  0.0000000000000E+00
 0.1175657565635E+01 -0.8480640081024E+00  0.0000000000000E+00
 0.1182963580888E+01 -0.7446998583466E+00  0.0000000000000E+00
 0.1188844718398E+01 -0.6412640329519E+00  0.0000000000000E+00
 0.1193113318443E+01 -0.5377667827766E+00  0.0000000000000E+00
 0.1195708386873E+01 -0.4342279006973E+00  0.0000000000000E+00
 0.1196626898550E+01 -0.3306625689729E+00  0.0000000000000E+00
 0.1195848952527E+01 -0.2270715831869E+00  0.0000000000000E+00
 0.1193536871735E+01 -0.1234534725419E+00  0.0000000000000E+00
 0.1190265268509E+01 -0.1980717360809E-01  0.0000000000000E+00
 0.1182274756738E+01  0.8367488248358E-01  0.0000000000000E+00
 0.1166098526219E+01  0.1861733799490E+00  0.0000000000000E+00
 0.1141206174309E+01  0.2866151507062E+00  0.0000000000000E+00
 0.1107600125023E+01  0.3838708859665E+00  0.0000000000000E+00
 0.1066657168516E+01  0.4774691947632E+00  0.0000000000000E+00
 0.1019922765776E+01  0.5674155339815E+00  0.0000000000000E+00
 0.9679249749061E+00  0.6533735126418E+00  0.0000000000000E+00
 0.1179120977088E+01 -0.1156078823895E+01  0.0000000000000E+00
 0.1191231937162E+01 -0.1051562599934E+01  0.0000000000000E+00
 0.1201963313665E+01 -0.9468960597248E+00  0.0000000000000E+00
 0.1211404324746E+01 -0.8421131129151E+00  0.0000000000000E+00
 0.1219537524290E+01 -0.7372336392801E+00  0.0000000000000E+00
 0.1226254685851E+01 -0.6322701194360E+00  0.0000000000000E+00
 0.1231361841170E+01 -0.5272308382660E+00  0.0000000000000E+00
 0.1234790988415E+01 -0.4221350078711E+00  0.0000000000000E+00
 0.1236520479278E+01 -0.3169992880658E+00  0.0000000000000E+00
 0.1236491703509E+01 -0.2118287805937E+00  0.0000000000000E+00
 0.1234826517314E+01 -0.1066293399394E+00  0.0000000000000E+00
 0.1232086552266E+01 -0.1407255112799E-02  0.0000000000000E+00
 0.1224224413940E+01  0.1036279608923E+00  0.0000000000000E+00
 0.1207523749961E+01  0.2076019058355E+00  0.0000000000000E+00
 0.1181415856106E+01  0.3093717673968E+00  0.0000000000000E+00
 0.1145909520106E+01  0.4077355989009E+00  0.0000000000000E+00
 0.1102483483250E+01  0.5021930502559E+00  0.0000000000000E+00
 0.1052797279634E+01  0.5927519011209E+00  0.0000000000000E+00
 0.9974246039186E+00  0.6790547775596E+00  0.0000000000000E+00
 0.1212379485664E+01 -0.1154609888965E+01  0.0000000000000E+00
 0.1225333288168E+01 -0.1048610433004E+01  0.0000000000000E+00
 0.1236888962590E+01 -0.9424496505634E+00  0.0000000000000E+00
 0.1247151083856E+01 -0.8361622177279E+00  0.0000000000000E+00
 0.1256111467692E+01 -0.7297674202137E+00  0.0000000000000E+00
 0.1263664653304E+01 -0.6232762059200E+00  0.0000000000000E+00
 0.1269610363897E+01 -0.5166948937553E+00  0.0000000000000E+00
 0.1273873589957E+01 -0.4100421150449E+00  0.0000000000000E+00
 0.1276414060007E+01 -0.3033360071587E+00  0.0000000000000E+00
 0.1277134454491E+01 -0.1965859780004E+00  0.0000000000000E+00
 0.1276116162893E+01 -0.8980520733696E-01  0.0000000000000E+00
 0.1273907836023E+01  0.1699266338249E-01  0.0000000000000E+00
 0.1266174071142E+01  0.1235810393011E+00  0.0000000000000E+00
 0.1248948973703E+01  0.2290304317219E+00  0.0000000000000E+00
 0.1221625537903E+01  0.3321283840874E+00  0.0000000000000E+00
 0.1184218915188E+01  0.4316003118353E+00  0.0000000000000E+00
 0.1138309797984E+01  0.5269169057486E+00  0.0000000000000E+00
 0.1085671793493E+01  0.6180882682604E+00  0.0000000000000E+00
 0.1026924232931E+01  0.7047360424775E+00  0.0000000000000E+00
 0.1245637994240E+01 -0.1153140954035E+01  0.0000000000000E+00
 0.1259434639173E+01 -0.1045658266075E+01  0.0000000000000E+00
 0.1271814611516E+01 -0.9380032414020E+00  0.0000000000000E+00
 0.1282897842966E+01 -0.8302113225406E+00  0.0000000000000E+00
 0.1292685411094E+01 -0.7223012011472E+00  0.0000000000000E+00
 0.1301074620757E+01 -0.6142822924041E+00  0.0000000000000E+00
 0.1307858886624E+01 -0.5061589492446E+00  0.0000000000000E+00
 0.1312956191499E+01 -0.3979492222187E+00  0.0000000000000E+00
 0.1316307640736E+01 -0.2896727262515E+00  0.0000000000000E+00
 0.1317777205473E+01 -0.1813431754072E+00  0.0000000000000E+00
 0.1317405808471E+01 -0.7298107473448E-01  0.0000000000000E+00
 0.1315729119780E+01  0.3539258187777E-01  0.0000000000000E+00
 0.1308123728344E+01  0.1435341177098E+00  0.0000000000000E+00
 0.1290374197445E+01  0.2504589576084E+00  0.0000000000000E+00
 0.1261835219700E+01  0.3548850007780E+00  0.0000000000000E+00
 0.1222528310271E+01  0.4554650247697E+00  0.0000000000000E+00
 0.1174136112718E+01  0.5516407612413E+00  0.0000000000000E+00
 0.1118546307352E+01  0.6434246353999E+00  0.0000000000000E+00
 0.1056423861944E+01  0.7304173073953E+00  0.0000000000000E+00
 0.1278896502817E+01 -0.1151672019104E+01  0.0000000000000E+00
 0.1293535990179E+01 -0.1042706099146E+01  0.0000000000000E+00
 0.1306740260442E+01 -0.9335568322407E+00  0.0000000000000E+00
 0.1318644602076E+01 -0.8242604273534E+00  0.0000000000000E+00
 0.1329259354497E+01 -0.7148349820807E+00  0.0000000000000E+00
 0.1338484588210E+01 -0.6052883788882E+00  0.0000000000000E+00
 0.1346107409351E+01 -0.4956230047339E+00  0.0000000000000E+00
 0.1352038793042E+01 -0.3858563293925E+00  0.0000000000000E+00
 0.1356201221464E+01 -0.2760094453444E+00  0.0000000000000E+00
 0.1358419956455E+01 -0.1661003728140E+00  0.0000000000000E+00
 0.1358695454050E+01 -0.5615694213201E-01  0.0000000000000E+00
 0.1357550403536E+01  0.5379250037306E-01  0.0000000000000E+00
 0.1350073385546E+01  0.1634871961186E+00  0.0000000000000E+00
 0.1331799421186E+01  0.2718874834949E+00  0.0000000000000E+00
 0.1302044901497E+01  0.3776416174686E+00  0.0000000000000E+00
 0.1260837705354E+01  0.4793297377041E+00  0.0000000000000E+00
 0.1209962427452E+01  0.5763646167340E+00  0.0000000000000E+00
 0.1151420821211E+01  0.6687610025394E+00  0.0000000000000E+00
 0.1085923490956E+01  0.7560985723131E+00  0.0000000000000E+00
-0.5241075387717E+00  0.3828365024885E+00  0.0000000000000E+00
-0.5489124003152E+00  0.4100062281915E+00  0.0000000000000E+00
-0.5737172618587E+00  0.4371759538945E+00  0.0000000000000E+00
-0.5985221234022E+00  0.4643456795974E+00  0.0000000000000E+00
-0.6233269849456E+00  0.4915154053004E+00  0.0000000000000E+00
-0.6481318464891E+00  0.5186851310034E+00  0.0000000000000E+00
-0.6729367080326E+00  0.5458548567064E+00  0.0000000000000E+00
-0.6977415695760E+00  0.5730245824093E+00  0.0000000000000E+00
-0.7225464311195E+00  0.6001943081123E+00  0.0000000000000E+00
-0.7473512926630E+00  0.6273640338153E+00  0.0000000000000E+00
-0.7721561542064E+00  0.6545337595182E+00  0.0000000000000E+00
-0.7969610157499E+00  0.6817034852212E+00  0.0000000000000E+00
-0.8217658772934E+00  0.7088732109242E+00  0.0000000000000E+00
-0.8465707388369E+00  0.7360429366271E+00  0.0000000000000E+00
-0.8713756003803E+00  0.7632126623301E+00  0.0000000000000E+00
-0.8961804619238E+00  0.7903823880331E+00  0.0000000000000E+00
-0.9209853234673E+00  0.8175521137361E+00  0.0000000000000E+00
-0.9457901850107E+00  0.8447218394390E+00  0.0000000000000E+00
-0.9705950465542E+00  0.8718915651420E+00  0.0000000000000E+00
-0.4973724741866E+00  0.3906327015564E+00  0.0000000000000E+00
-0.5212203820320E+00  0.4191990685373E+00  0.0000000000000E+00
-0.5450682898774E+00  0.4477654355183E+00  0.0000000000000E+00
-0.5689161977228E+00  0.4763318024992E+00  0.0000000000000E+00
-0.5927641055682E+00  0.5048981694801E+00  0.0000000000000E+00
-0.6166120134136E+00  0.5334645364611E+00  0.0000000000000E+00
-0.6404599212590E+00  0.5620309034420E+00  0.0000000000000E+00
-0.6643078291044E+00  0.5905972704229E+00  0.0000000000000E+00
-0.6881557369498E+00  0.6191636374039E+00  0.0000000000000E+00
-0.7120036447952E+00  0.6477300043848E+00  0.0000000000000E+00
-0.7358515526406E+00  0.6762963713657E+00  0.0000000000000E+00
-0.7596994604860E+00  0.7048627383467E+00  0.0000000000000E+00
-0.7835473683314E+00  0.7334291053276E+00  0.0000000000000E+00
-0.8073952761768E+00  0.7619954723085E+00  0.0000000000000E+00
-0.8312431840221E+00  0.7905618392895E+00  0.0000000000000E+00
-0.8550910918675E+00  0.8191282062704E+00  0.0000000000000E+00
-0.8789389997129E+00  0.8476945732514E+00  0.0000000000000E+00
-0.9027869075583E+00  0.8762609402323E+00  0.0000000000000E+00
-0.9266348154037E+00  0.9048273072132E+00  0.0000000000000E+00
-0.4704791810931E+00  0.3980072356707E+00  0.0000000000000E+00
-0.4932896417959E+00  0.4278699691922E+00  0.0000000000000E+00
-0.5161001024988E+00  0.4577327027136E+00  0.0000000000000E+00
-0.5389105632016E+00  0.4875954362350E+00  0.0000000000000E+00
-0.5617210239044E+00  0.5174581697564E+00  0.0000000000000E+00
-0.5845314846072E+00  0.5473209032779E+00  0.0000000000000E+00
-0.6073419453101E+00  0.5771836367993E+00  0.0000000000000E+00
-0.6301524060129E+00  0.6070463703207E+00  0.0000000000000E+00
-0.6529628667157E+00  0.6369091038421E+00  0.0000000000000E+00
-0.6757733274185E+00  0.6667718373635E+00  0.0000000000000E+00
-0.6985837881214E+00  0.6966345708850E+00  0.0000000000000E+00
-0.7213942488242E+00  0.7264973044064E+00  0.0000000000000E+00
-0.7442047095270E+00  0.7563600379278E+00  0.0000000000000E+00
-0.7670151702298E+00  0.7862227714492E+00  0.0000000000000E+00
-0.7898256309326E+00  0.8160855049706E+00  0.0000000000000E+00
-0.8126360916355E+00  0.8459482384921E+00  0.0000000000000E+00
-0.8354465523383E+00  0.8758109720135E+00  0.0000000000000E+00
-0.8582570130411E+00  0.9056737055349E+00  0.0000000000000E+00
-0.8810674737439E+00  0.9355364390563E+00  0.0000000000000E+00
-0.4434431133913E+00  0.4049623049046E+00  0.0000000000000E+00
-0.4651476228734E+00  0.4360271534721E+00  0.0000000000000E+00
-0.4868521323554E+00  0.4670920020396E+00  0.0000000000000E+00
-0.5085566418375E+00  0.4981568506071E+00  0.0000000000000E+00
-0.5302611513196E+00  0.5292216991746E+00  0.0000000000000E+00
-0.5519656608017E+00  0.5602865477421E+00  0.0000000000000E+00
-0.5736701702838E+00  0.5913513963096E+00  0.0000000000000E+00
-0.5953746797659E+00  0.6224162448771E+00  0.0000000000000E+00
-0.6170791892479E+00  0.6534810934446E+00  0.0000000000000E+00
-0.6387836987300E+00  0.6845459420121E+00  0.0000000000000E+00
-0.6604882082121E+00  0.7156107905796E+00  0.0000000000000E+00
-0.6821927176942E+00  0.7466756391471E+00  0.0000000000000E+00
-0.7038972271763E+00  0.7777404877146E+00  0.0000000000000E+00
-0.7256017366584E+00  0.8088053362822E+00  0.0000000000000E+00
-0.7473062461404E+00  0.8398701848497E+00  0.0000000000000E+00
-0.7690107556225E+00  0.8709350334172E+00  0.0000000000000E+00
-0.7907152651046E+00  0.9019998819847E+00  0.0000000000000E+00
-0.8124197745867E+00  0.9330647305522E+00  0.0000000000000E+00
-0.8341242840688E+00  0.9641295791197E+00  0.0000000000000E+00
-0.4162795944393E+00  0.4115031806360E+00  0.0000000000000E+00
-0.4368214338124E+00  0.4436848274892E+00  0.0000000000000E+00
-0.4573632731855E+00  0.4758664743423E+00  0.0000000000000E+00
-0.4779051125585E+00  0.5080481211954E+00  0.0000000000000E+00
-0.4984469519316E+00  0.5402297680486E+00  0.0000000000000E+00
-0.5189887913047E+00  0.5724114149017E+00  0.0000000000000E+00
-0.5395306306778E+00  0.6045930617548E+00  0.0000000000000E+00
-0.5600724700509E+00  0.6367747086080E+00  0.0000000000000E+00
-0.5806143094240E+00  0.6689563554611E+00  0.0000000000000E+00
-0.6011561487970E+00  0.7011380023142E+00  0.0000000000000E+00
-0.6216979881701E+00  0.7333196491674E+00  0.0000000000000E+00
-0.6422398275432E+00  0.7655012960205E+00  0.0000000000000E+00
-0.6627816669163E+00  0.7976829428736E+00  0.0000000000000E+00
-0.6833235062894E+00  0.8298645897268E+00  0.0000000000000E+00
-0.7038653456625E+00  0.8620462365799E+00  0.0000000000000E+00
-0.7244071850355E+00  0.8942278834330E+00  0.0000000000000E+00
-0.7449490244086E+00  0.9264095302862E+00  0.0000000000000E+00
-0.7654908637817E+00  0.9585911771393E+00  0.0000000000000E+00
-0.7860327031548E+00  0.9907728239924E+00  0.0000000000000E+00
-0.3890049746149E+00  0.4176409907798E+00  0.0000000000000E+00
-0.4083402172239E+00  0.4508687343098E+00  0.0000000000000E+00
-0.4276754598330E+00  0.4840964778399E+00  0.0000000000000E+00
-0.4470107024420E+00  0.5173242213700E+00  0.0000000000000E+00
-0.4663459450510E+00  0.5505519649000E+00  0.0000000000000E+00
-0.4856811876600E+00  0.5837797084301E+00  0.0000000000000E+00
-0.5050164302691E+00  0.6170074519601E+00  0.0000000000000E+00
-0.5243516728781E+00  0.6502351954902E+00  0.0000000000000E+00
-0.5436869154871E+00  0.6834629390203E+00  0.0000000000000E+00
-0.5630221580962E+00  0.7166906825503E+00  0.0000000000000E+00
-0.5823574007052E+00  0.7499184260804E+00  0.0000000000000E+00
-0.6016926433142E+00  0.7831461696105E+00  0.0000000000000E+00
-0.6210278859232E+00  0.8163739131405E+00  0.0000000000000E+00
-0.6403631285323E+00  0.8496016566706E+00  0.0000000000000E+00
-0.6596983711413E+00  0.8828294002006E+00  0.0000000000000E+00
-0.6790336137503E+00  0.9160571437307E+00  0.0000000000000E+00
-0.6983688563594E+00  0.9492848872608E+00  0.0000000000000E+00
-0.7177040989684E+00  0.9825126307908E+00  0.0000000000000E+00
-0.7370393415774E+00  0.1015740374321E+01  0.0000000000000E+00
-0.3616375814374E+00  0.4233950320155E+00  0.0000000000000E+00
-0.3797367705145E+00  0.4576208248420E+00  0.0000000000000E+00
-0.3978359595916E+00  0.4918466176685E+00  0.0000000000000E+00
-0.4159351486687E+00  0.5260724104950E+00  0.0000000000000E+00
-0.4340343377458E+00  0.5602982033215E+00  0.0000000000000E+00
-0.4521335268229E+00  0.5945239961480E+00  0.0000000000000E+00
-0.4702327159000E+00  0.6287497889745E+00  0.0000000000000E+00
-0.4883319049771E+00  0.6629755818010E+00  0.0000000000000E+00
-0.5064310940542E+00  0.6972013746275E+00  0.0000000000000E+00
-0.5245302831313E+00  0.7314271674540E+00  0.0000000000000E+00
-0.5426294722084E+00  0.7656529602805E+00  0.0000000000000E+00
-0.5607286612855E+00  0.7998787531070E+00  0.0000000000000E+00
-0.5788278503626E+00  0.8341045459335E+00  0.0000000000000E+00
-0.5969270394397E+00  0.8683303387600E+00  0.0000000000000E+00
-0.6150262285168E+00  0.9025561315865E+00  0.0000000000000E+00
-0.6331254175939E+00  0.9367819244129E+00  0.0000000000000E+00
-0.6512246066710E+00  0.9710077172394E+00  0.0000000000000E+00
-0.6693237957481E+00  0.1005233510066E+01  0.0000000000000E+00
-0.6874229848252E+00  0.1039459302892E+01  0.0000000000000E+00
-0.3341971102105E+00  0.4287924375866E+00  0.0000000000000E+00
-0.3510465988283E+00  0.4639985282286E+00  0.0000000000000E+00
-0.3678960874461E+00  0.4992046188705E+00  0.0000000000000E+00
-0.3847455760639E+00  0.5344107095124E+00  0.0000000000000E+00
-0.4015950646816E+00  0.5696168001544E+00  0.0000000000000E+00
-0.4184445532994E+00  0.6048228907963E+00  0.0000000000000E+00
-0.4352940419172E+00  0.6400289814383E+00  0.0000000000000E+00
-0.4521435305350E+00  0.6752350720802E+00  0.0000000000000E+00
-0.4689930191527E+00  0.7104411627221E+00  0.0000000000000E+00
-0.4858425077705E+00  0.7456472533641E+00  0.0000000000000E+00
-0.5026919963883E+00  0.7808533440060E+00  0.0000000000000E+00
-0.5195414850061E+00  0.8160594346480E+00  0.0000000000000E+00
-0.5363909736238E+00  0.8512655252899E+00  0.0000000000000E+00
-0.5532404622416E+00  0.8864716159318E+00  0.0000000000000E+00
-0.5700899508594E+00  0.9216777065738E+00  0.0000000000000E+00
-0.5869394394772E+00  0.9568837972157E+00  0.0000000000000E+00
-0.6037889280950E+00  0.9920898878576E+00  0.0000000000000E+00
-0.6206384167127E+00  0.1027295978500E+01  0.0000000000000E+00
-0.6374879053305E+00  0.1062502069142E+01  0.0000000000000E+00
-0.3066965706001E+00  0.4338489484850E+00  0.0000000000000E+00
-0.3222916391952E+00  0.4700363162541E+00  0.0000000000000E+00
-0.3378867077903E+00  0.5062236840232E+00  0.0000000000000E+00
-0.3534817763854E+00  0.5424110517923E+00  0.0000000000000E+00
-0.3690768449805E+00  0.5785984195614E+00  0.0000000000000E+00
-0.3846719135756E+00  0.6147857873305E+00  0.0000000000000E+00
-0.4002669821708E+00  0.6509731550996E+00  0.0000000000000E+00
-0.4158620507659E+00  0.6871605228687E+00  0.0000000000000E+00
-0.4314571193610E+00  0.7233478906379E+00  0.0000000000000E+00
-0.4470521879561E+00  0.7595352584070E+00  0.0000000000000E+00
-0.4626472565512E+00  0.7957226261761E+00  0.0000000000000E+00
-0.4782423251463E+00  0.8319099939452E+00  0.0000000000000E+00
-0.4938373937414E+00  0.8680973617143E+00  0.0000000000000E+00
-0.5094324623365E+00  0.9042847294834E+00  0.0000000000000E+00
-0.5250275309316E+00  0.9404720972525E+00  0.0000000000000E+00
-0.5406225995268E+00  0.9766594650216E+00  0.0000000000000E+00
-0.5562176681219E+00  0.1012846832791E+01  0.0000000000000E+00
-0.5718127367170E+00  0.1049034200560E+01  0.0000000000000E+00
-0.5874078053121E+00  0.1085221568329E+01  0.0000000000000E+00
-0.2791218293927E+00  0.4385208078592E+00  0.0000000000000E+00
-0.2934394861648E+00  0.4756494588749E+00  0.0000000000000E+00
-0.3077571429369E+00  0.5127781098906E+00  0.0000000000000E+00
-0.3220747997090E+00  0.5499067609063E+00  0.0000000000000E+00
-0.3363924564811E+00  0.5870354119220E+00  0.0000000000000E+00
-0.3507101132532E+00  0.6241640629377E+00  0.0000000000000E+00
-0.3650277700253E+00  0.6612927139534E+00  0.0000000000000E+00
-0.3793454267974E+00  0.6984213649692E+00  0.0000000000000E+00
-0.3936630835695E+00  0.7355500159849E+00  0.0000000000000E+00
-0.4079807403416E+00  0.7726786670006E+00  0.0000000000000E+00
-0.4222983971137E+00  0.8098073180163E+00  0.0000000000000E+00
-0.4366160538858E+00  0.8469359690320E+00  0.0000000000000E+00
-0.4509337106579E+00  0.8840646200477E+00  0.0000000000000E+00
-0.4652513674300E+00  0.9211932710634E+00  0.0000000000000E+00
-0.4795690242021E+00  0.9583219220791E+00  0.0000000000000E+00
-0.4938866809742E+00  0.9954505730948E+00  0.0000000000000E+00
-0.5082043377463E+00  0.1032579224111E+01  0.0000000000000E+00
-0.5225219945184E+00  0.1069707875126E+01  0.0000000000000E+00
-0.5368396512905E+00  0.1106836526142E+01  0.0000000000000E+00
-0.2514639251819E+00  0.4427693913927E+00  0.0000000000000E+00
-0.2644679291393E+00  0.4807632912527E+00  0.0000000000000E+00
-0.2774719330968E+00  0.5187571911127E+00  0.0000000000000E+00
-0.2904759370542E+00  0.5567510909728E+00  0.0000000000000E+00
-0.3034799410116E+00  0.5947449908328E+00  0.0000000000000E+00
-0.3164839449691E+00  0.6327388906929E+00  0.0000000000000E+00
-0.3294879489265E+00  0.6707327905529E+00  0.0000000000000E+00
-0.3424919528839E+00  0.7087266904129E+00  0.0000000000000E+00
-0.3554959568414E+00  0.7467205902730E+00  0.0000000000000E+00
-0.3684999607988E+00  0.7847144901330E+00  0.0000000000000E+00
-0.3815039647562E+00  0.8227083899931E+00  0.0000000000000E+00
-0.3945079687137E+00  0.8607022898531E+00  0.0000000000000E+00
-0.4075119726711E+00  0.8986961897131E+00  0.0000000000000E+00
-0.4205159766285E+00  0.9366900895732E+00  0.0000000000000E+00
-0.4335199805859E+00  0.9746839894332E+00  0.0000000000000E+00
-0.4465239845434E+00  0.1012677889293E+01  0.0000000000000E+00
-0.4595279885008E+00  0.1050671789153E+01  0.0000000000000E+00
-0.4725319924582E+00  0.1088665689013E+01  0.0000000000000E+00
-0.4855359964157E+00  0.1126659588873E+01  0.0000000000000E+00
-0.2237255065535E+00  0.4465773318235E+00  0.0000000000000E+00
-0.2353778815772E+00  0.4853454460208E+00  0.0000000000000E+00
-0.2470302566009E+00  0.5241135602180E+00  0.0000000000000E+00
-0.2586826316245E+00  0.5628816744153E+00  0.0000000000000E+00
-0.2703350066482E+00  0.6016497886126E+00  0.0000000000000E+00
-0.2819873816718E+00  0.6404179028098E+00  0.0000000000000E+00
-0.2936397566955E+00  0.6791860170071E+00  0.0000000000000E+00
-0.3052921317192E+00  0.7179541312043E+00  0.0000000000000E+00
-0.3169445067428E+00  0.7567222454016E+00  0.0000000000000E+00
-0.3285968817665E+00  0.7954903595989E+00  0.0000000000000E+00
-0.3402492567901E+00  0.8342584737961E+00  0.0000000000000E+00
-0.3519016318138E+00  0.8730265879934E+00  0.0000000000000E+00
-0.3635540068375E+00  0.9117947021907E+00  0.0000000000000E+00
-0.3752063818611E+00  0.9505628163879E+00  0.0000000000000E+00
-0.3868587568848E+00  0.9893309305852E+00  0.0000000000000E+00
-0.3985111319084E+00  0.1028099044782E+01  0.0000000000000E+00
-0.4101635069321E+00  0.1066867158980E+01  0.0000000000000E+00
-0.4218158819558E+00  0.1105635273177E+01  0.0000000000000E+00
-0.4334682569794E+00  0.1144403387374E+01  0.0000000000000E+00
-0.1959146411182E+00  0.4499388903646E+00  0.0000000000000E+00
-0.2061810087786E+00  0.4893865877542E+00  0.0000000000000E+00
-0.2164473764389E+00  0.5288342851439E+00  0.0000000000000E+00
-0.2267137440993E+00  0.5682819825336E+00  0.0000000000000E+00
-0.2369801117597E+00  0.6077296799233E+00  0.0000000000000E+00
-0.2472464794201E+00  0.6471773773130E+00  0.0000000000000E+00
-0.2575128470805E+00  0.6866250747027E+00  0.0000000000000E+00
-0.2677792147409E+00  0.7260727720924E+00  0.0000000000000E+00
-0.2780455824013E+00  0.7655204694820E+00  0.0000000000000E+00
-0.2883119500617E+00  0.8049681668717E+00  0.0000000000000E+00
-0.2985783177220E+00  0.8444158642614E+00  0.0000000000000E+00
-0.3088446853824E+00  0.8838635616511E+00  0.0000000000000E+00
-0.3191110530428E+00  0.9233112590408E+00  0.0000000000000E+00
-0.3293774207032E+00  0.9627589564305E+00  0.0000000000000E+00
-0.3396437883636E+00  0.1002206653820E+01  0.0000000000000E+00
-0.3499101560240E+00  0.1041654351210E+01  0.0000000000000E+00
-0.3601765236844E+00  0.1081102048600E+01  0.0000000000000E+00
-0.3704428913448E+00  0.1120549745989E+01  0.0000000000000E+00
-0.3807092590051E+00  0.1159997443379E+01  0.0000000000000E+00
-0.1680410293477E+00  0.4528534155756E+00  0.0000000000000E+00
-0.1768921543896E+00  0.4928873240860E+00  0.0000000000000E+00
-0.1857432794315E+00  0.5329212325965E+00  0.0000000000000E+00
-0.1945944044734E+00  0.5729551411069E+00  0.0000000000000E+00
-0.2034455295152E+00  0.6129890496173E+00  0.0000000000000E+00
-0.2122966545571E+00  0.6530229581278E+00  0.0000000000000E+00
-0.2211477795990E+00  0.6930568666382E+00  0.0000000000000E+00
-0.2299989046409E+00  0.7330907751486E+00  0.0000000000000E+00
-0.2388500296828E+00  0.7731246836591E+00  0.0000000000000E+00
-0.2477011547246E+00  0.8131585921695E+00  0.0000000000000E+00
-0.2565522797665E+00  0.8531925006799E+00  0.0000000000000E+00
-0.2654034048084E+00  0.8932264091904E+00  0.0000000000000E+00
-0.2742545298503E+00  0.9332603177008E+00  0.0000000000000E+00
-0.2831056548921E+00  0.9732942262112E+00  0.0000000000000E+00
-0.2919567799340E+00  0.1013328134722E+01  0.0000000000000E+00
-0.3008079049759E+00  0.1053362043232E+01  0.0000000000000E+00
-0.3096590300178E+00  0.1093395951743E+01  0.0000000000000E+00
-0.3185101550597E+00  0.1133429860253E+01  0.0000000000000E+00
-0.3273612801015E+00  0.1173463768763E+01  0.0000000000000E+00
-0.1401143208464E+00  0.4553218992365E+00  0.0000000000000E+00
-0.1475259700085E+00  0.4958513109285E+00  0.0000000000000E+00
-0.1549376191705E+00  0.5363807226205E+00  0.0000000000000E+00
-0.1623492683326E+00  0.5769101343125E+00  0.0000000000000E+00
-0.1697609174946E+00  0.6174395460045E+00  0.0000000000000E+00
-0.1771725666567E+00  0.6579689576965E+00  0.0000000000000E+00
-0.1845842158187E+00  0.6984983693885E+00  0.0000000000000E+00
-0.1919958649808E+00  0.7390277810805E+00  0.0000000000000E+00
-0.1994075141428E+00  0.7795571927725E+00  0.0000000000000E+00
-0.2068191633048E+00  0.8200866044646E+00  0.0000000000000E+00
-0.2142308124669E+00  0.8606160161566E+00  0.0000000000000E+00
-0.2216424616289E+00  0.9011454278486E+00  0.0000000000000E+00
-0.2290541107910E+00  0.9416748395406E+00  0.0000000000000E+00
-0.2364657599530E+00  0.9822042512326E+00  0.0000000000000E+00
-0.2438774091151E+00  0.1022733662925E+01  0.0000000000000E+00
-0.2512890582771E+00  0.1063263074617E+01  0.0000000000000E+00
-0.2587007074392E+00  0.1103792486309E+01  0.0000000000000E+00
-0.2661123566012E+00  0.1144321898001E+01  0.0000000000000E+00
-0.2735240057633E+00  0.1184851309693E+01  0.0000000000000E+00
-0.1121439916984E+00  0.4573452348171E+00  0.0000000000000E+00
-0.1180967026830E+00  0.4982817607989E+00  0.0000000000000E+00
-0.1240494136676E+00  0.5392182867806E+00  0.0000000000000E+00
-0.1300021246522E+00  0.5801548127624E+00  0.0000000000000E+00
-0.1359548356368E+00  0.6210913387441E+00  0.0000000000000E+00
-0.1419075466214E+00  0.6620278647259E+00  0.0000000000000E+00
-0.1478602576060E+00  0.7029643907077E+00  0.0000000000000E+00
-0.1538129685906E+00  0.7439009166894E+00  0.0000000000000E+00
-0.1597656795751E+00  0.7848374426712E+00  0.0000000000000E+00
-0.1657183905597E+00  0.8257739686529E+00  0.0000000000000E+00
-0.1716711015443E+00  0.8667104946347E+00  0.0000000000000E+00
-0.1776238125289E+00  0.9076470206164E+00  0.0000000000000E+00
-0.1835765235135E+00  0.9485835465982E+00  0.0000000000000E+00
-0.1895292344981E+00  0.9895200725800E+00  0.0000000000000E+00
-0.1954819454827E+00  0.1030456598562E+01  0.0000000000000E+00
-0.2014346564673E+00  0.1071393124543E+01  0.0000000000000E+00
-0.2073873674519E+00  0.1112329650525E+01  0.0000000000000E+00
-0.2133400784365E+00  0.1153266176507E+01  0.0000000000000E+00
-0.2192927894211E+00  0.1194202702489E+01  0.0000000000000E+00
-0.8413885627146E-01  0.4589235298149E+00  0.0000000000000E+00
-0.8861721895939E-01  0.5001800629532E+00  0.0000000000000E+00
-0.9309558164732E-01  0.5414365960915E+00  0.0000000000000E+00
-0.9757394433525E-01  0.5826931292297E+00  0.0000000000000E+00
-0.1020523070232E+00  0.6239496623680E+00  0.0000000000000E+00
-0.1065306697111E+00  0.6652061955063E+00  0.0000000000000E+00
-0.1110090323990E+00  0.7064627286446E+00  0.0000000000000E+00
-0.1154873950870E+00  0.7477192617829E+00  0.0000000000000E+00
-0.1199657577749E+00  0.7889757949212E+00  0.0000000000000E+00
-0.1244441204628E+00  0.8302323280595E+00  0.0000000000000E+00
-0.1289224831508E+00  0.8714888611978E+00  0.0000000000000E+00
-0.1334008458387E+00  0.9127453943361E+00  0.0000000000000E+00
-0.1378792085266E+00  0.9540019274744E+00  0.0000000000000E+00
-0.1423575712146E+00  0.9952584606127E+00  0.0000000000000E+00
-0.1468359339025E+00  0.1036514993751E+01  0.0000000000000E+00
-0.1513142965904E+00  0.1077771526889E+01  0.0000000000000E+00
-0.1557926592784E+00  0.1119028060028E+01  0.0000000000000E+00
-0.1602710219663E+00  0.1160284593166E+01  0.0000000000000E+00
-0.1647493846542E+00  0.1201541126304E+01  0.0000000000000E+00
-0.5610747836923E-01  0.4600556068131E+00  0.0000000000000E+00
-0.5909983820158E-01  0.5015447808148E+00  0.0000000000000E+00
-0.6209219803393E-01  0.5430339548165E+00  0.0000000000000E+00
-0.6508455786628E-01  0.5845231288182E+00  0.0000000000000E+00
-0.6807691769863E-01  0.6260123028200E+00  0.0000000000000E+00
-0.7106927753098E-01  0.6675014768217E+00  0.0000000000000E+00
-0.7406163736334E-01  0.7089906508234E+00  0.0000000000000E+00
-0.7705399719569E-01  0.7504798248252E+00  0.0000000000000E+00
-0.8004635702804E-01  0.7919689988269E+00  0.0000000000000E+00
-0.8303871686039E-01  0.8334581728286E+00  0.0000000000000E+00
-0.8603107669274E-01  0.8749473468303E+00  0.0000000000000E+00
-0.8902343652509E-01  0.9164365208321E+00  0.0000000000000E+00
-0.9201579635744E-01  0.9579256948338E+00  0.0000000000000E+00
-0.9500815618979E-01  0.9994148688355E+00  0.0000000000000E+00
-0.9800051602214E-01  0.1040904042837E+01  0.0000000000000E+00
-0.1009928758545E+00  0.1082393216839E+01  0.0000000000000E+00
-0.1039852356868E+00  0.1123882390841E+01  0.0000000000000E+00
-0.1069775955192E+00  0.1165371564842E+01  0.0000000000000E+00
-0.1099699553515E+00  0.1206860738844E+01  0.0000000000000E+00
-0.2805830974039E-01  0.4607386669267E+00  0.0000000000000E+00
-0.2955662089814E-01  0.5023709751786E+00  0.0000000000000E+00
-0.3105493205590E-01  0.5440032834305E+00  0.0000000000000E+00
-0.3255324321365E-01  0.5856355916824E+00  0.0000000000000E+00
-0.3405155437141E-01  0.6272678999343E+00  0.0000000000000E+00
-0.3554986552916E-01  0.6689002081862E+00  0.0000000000000E+00
-0.3704817668692E-01  0.7105325164381E+00  0.0000000000000E+00
-0.3854648784467E-01  0.7521648246900E+00  0.0000000000000E+00
-0.4004479900242E-01  0.7937971329419E+00  0.0000000000000E+00
-0.4154311016018E-01  0.8354294411938E+00  0.0000000000000E+00
-0.4304142131793E-01  0.8770617494457E+00  0.0000000000000E+00
-0.4453973247569E-01  0.9186940576976E+00  0.0000000000000E+00
-0.4603804363344E-01  0.9603263659495E+00  0.0000000000000E+00
-0.4753635479120E-01  0.1001958674201E+01  0.0000000000000E+00
-0.4903466594895E-01  0.1043590982453E+01  0.0000000000000E+00
-0.5053297710671E-01  0.1085223290705E+01  0.0000000000000E+00
-0.5203128826446E-01  0.1126855598957E+01  0.0000000000000E+00
-0.5352959942222E-01  0.1168487907209E+01  0.0000000000000E+00
-0.5502791057997E-01  0.1210120215461E+01  0.0000000000000E+00
 0.2860756622583E-09  0.4609678550140E+00  0.0000000000000E+00
 0.5721514265632E-09  0.5026493319786E+00  0.0000000000000E+00
 0.8582273643404E-09  0.5443308089433E+00  0.0000000000000E+00
 0.1144303288240E-08  0.5860122859079E+00  0.0000000000000E+00
 0.1430379267650E-08  0.6276937628726E+00  0.0000000000000E+00
 0.1716455108283E-08  0.6693752398372E+00  0.0000000000000E+00
 0.2002531059938E-08  0.7110567168019E+00  0.0000000000000E+00
 0.2288607011593E-08  0.7527381937665E+00  0.0000000000000E+00
 0.2574682879981E-08  0.7944196707312E+00  0.0000000000000E+00
 0.2860758831636E-08  0.8361011476958E+00  0.0000000000000E+00
 0.3146834755536E-08  0.8777826246605E+00  0.0000000000000E+00
 0.3432910790458E-08  0.9194641016251E+00  0.0000000000000E+00
 0.3718986714357E-08  0.9611455785898E+00  0.0000000000000E+00
 0.4005062638256E-08  0.1002827055554E+01  0.0000000000000E+00
 0.4291138673178E-08  0.1044508532519E+01  0.0000000000000E+00
 0.4577214430544E-08  0.1086190009484E+01  0.0000000000000E+00
 0.4863290520977E-08  0.1127871486448E+01  0.0000000000000E+00
 0.5149366278343E-08  0.1169552963413E+01  0.0000000000000E+00
 0.5435442368776E-08  0.1211234440378E+01  0.0000000000000E+00
 0.2805831031206E-01  0.4607386669015E+00  0.0000000000000E+00
 0.2955662204149E-01  0.5023709751282E+00  0.0000000000000E+00
 0.3105493377092E-01  0.5440032833549E+00  0.0000000000000E+00
 0.3255324550035E-01  0.5856355915817E+00  0.0000000000000E+00
 0.3405155722978E-01  0.6272678998084E+00  0.0000000000000E+00
 0.3554986895921E-01  0.6689002080351E+00  0.0000000000000E+00
 0.3704818068864E-01  0.7105325162618E+00  0.0000000000000E+00
 0.3854649241807E-01  0.7521648244885E+00  0.0000000000000E+00
 0.4004480414750E-01  0.7937971327152E+00  0.0000000000000E+00
 0.4154311587693E-01  0.8354294409419E+00  0.0000000000000E+00
 0.4304142760636E-01  0.8770617491687E+00  0.0000000000000E+00
 0.4453973933579E-01  0.9186940573954E+00  0.0000000000000E+00
 0.4603805106522E-01  0.9603263656221E+00  0.0000000000000E+00
 0.4753636279465E-01  0.1001958673849E+01  0.0000000000000E+00
 0.4903467452408E-01  0.1043590982076E+01  0.0000000000000E+00
 0.5053298625351E-01  0.1085223290302E+01  0.0000000000000E+00
 0.5203129798294E-01  0.1126855598529E+01  0.0000000000000E+00
 0.5352960971237E-01  0.1168487906756E+01  0.0000000000000E+00
 0.5502792144180E-01  0.1210120214982E+01  0.0000000000000E+00
 0.5610747893947E-01  0.4600556067638E+00  0.0000000000000E+00
 0.5909983934207E-01  0.5015447807163E+00  0.0000000000000E+00
 0.6209219974467E-01  0.5430339546687E+00  0.0000000000000E+00
 0.6508456014726E-01  0.5845231286212E+00  0.0000000000000E+00
 0.6807692054986E-01  0.6260123025737E+00  0.0000000000000E+00
 0.7106928095246E-01  0.6675014765262E+00  0.0000000000000E+00
 0.7406164135505E-01  0.7089906504786E+00  0.0000000000000E+00
 0.7705400175765E-01  0.7504798244311E+00  0.0000000000000E+00
 0.8004636216024E-01  0.7919689983836E+00  0.0000000000000E+00
 0.8303872256284E-01  0.8334581723360E+00  0.0000000000000E+00
 0.8603108296544E-01  0.8749473462885E+00  0.0000000000000E+00
 0.8902344336803E-01  0.9164365202410E+00  0.0000000000000E+00
 0.9201580377063E-01  0.9579256941934E+00  0.0000000000000E+00
 0.9500816417323E-01  0.9994148681459E+00  0.0000000000000E+00
 0.9800052457582E-01  0.1040904042098E+01  0.0000000000000E+00
 0.1009928849784E+00  0.1082393216051E+01  0.0000000000000E+00
 0.1039852453810E+00  0.1123882390003E+01  0.0000000000000E+00
 0.1069776057836E+00  0.1165371563956E+01  0.0000000000000E+00
 0.1099699661862E+00  0.1206860737908E+01  0.0000000000000E+00
 0.8413885683948E-01  0.4589235297423E+00  0.0000000000000E+00
 0.8861722009544E-01  0.5001800628080E+00  0.0000000000000E+00
 0.9309558335140E-01  0.5414365958738E+00  0.0000000000000E+00
 0.9757394660735E-01  0.5826931289395E+00  0.0000000000000E+00
 0.1020523098633E+00  0.6239496620052E+00  0.0000000000000E+00
 0.1065306731193E+00  0.6652061950710E+00  0.0000000000000E+00
 0.1110090363752E+00  0.7064627281367E+00  0.0000000000000E+00
 0.1154873996312E+00  0.7477192612024E+00  0.0000000000000E+00
 0.1199657628871E+00  0.7889757942682E+00  0.0000000000000E+00
 0.1244441261431E+00  0.8302323273339E+00  0.0000000000000E+00
 0.1289224893991E+00  0.8714888603996E+00  0.0000000000000E+00
 0.1334008526550E+00  0.9127453934654E+00  0.0000000000000E+00
 0.1378792159110E+00  0.9540019265311E+00  0.0000000000000E+00
 0.1423575791669E+00  0.9952584595968E+00  0.0000000000000E+00
 0.1468359424229E+00  0.1036514992663E+01  0.0000000000000E+00
 0.1513143056788E+00  0.1077771525728E+01  0.0000000000000E+00
 0.1557926689348E+00  0.1119028058794E+01  0.0000000000000E+00
 0.1602710321908E+00  0.1160284591860E+01  0.0000000000000E+00
 0.1647493954467E+00  0.1201541124925E+01  0.0000000000000E+00
 0.1121439922631E+00  0.4573452347218E+00  0.0000000000000E+00
 0.1180967038124E+00  0.4982817606082E+00  0.0000000000000E+00
 0.1240494153618E+00  0.5392182864946E+00  0.0000000000000E+00
 0.1300021269111E+00  0.5801548123811E+00  0.0000000000000E+00
 0.1359548384605E+00  0.6210913382675E+00  0.0000000000000E+00
 0.1419075500098E+00  0.6620278641539E+00  0.0000000000000E+00
 0.1478602615592E+00  0.7029643900404E+00  0.0000000000000E+00
 0.1538129731085E+00  0.7439009159268E+00  0.0000000000000E+00
 0.1597656846578E+00  0.7848374418132E+00  0.0000000000000E+00
 0.1657183962072E+00  0.8257739676996E+00  0.0000000000000E+00
 0.1716711077565E+00  0.8667104935861E+00  0.0000000000000E+00
 0.1776238193059E+00  0.9076470194725E+00  0.0000000000000E+00
 0.1835765308552E+00  0.9485835453589E+00  0.0000000000000E+00
 0.1895292424046E+00  0.9895200712454E+00  0.0000000000000E+00
 0.1954819539539E+00  0.1030456597132E+01  0.0000000000000E+00
 0.2014346655032E+00  0.1071393123018E+01  0.0000000000000E+00
 0.2073873770526E+00  0.1112329648905E+01  0.0000000000000E+00
 0.2133400886019E+00  0.1153266174791E+01  0.0000000000000E+00
 0.2192928001513E+00  0.1194202700677E+01  0.0000000000000E+00
 0.1401143214071E+00  0.4553218991187E+00  0.0000000000000E+00
 0.1475259711299E+00  0.4958513106929E+00  0.0000000000000E+00
 0.1549376208526E+00  0.5363807222671E+00  0.0000000000000E+00
 0.1623492705753E+00  0.5769101338413E+00  0.0000000000000E+00
 0.1697609202981E+00  0.6174395454155E+00  0.0000000000000E+00
 0.1771725700208E+00  0.6579689569897E+00  0.0000000000000E+00
 0.1845842197436E+00  0.6984983685639E+00  0.0000000000000E+00
 0.1919958694663E+00  0.7390277801381E+00  0.0000000000000E+00
 0.1994075191891E+00  0.7795571917124E+00  0.0000000000000E+00
 0.2068191689118E+00  0.8200866032866E+00  0.0000000000000E+00
 0.2142308186346E+00  0.8606160148608E+00  0.0000000000000E+00
 0.2216424683573E+00  0.9011454264350E+00  0.0000000000000E+00
 0.2290541180800E+00  0.9416748380092E+00  0.0000000000000E+00
 0.2364657678028E+00  0.9822042495834E+00  0.0000000000000E+00
 0.2438774175255E+00  0.1022733661158E+01  0.0000000000000E+00
 0.2512890672483E+00  0.1063263072732E+01  0.0000000000000E+00
 0.2587007169710E+00  0.1103792484306E+01  0.0000000000000E+00
 0.2661123666938E+00  0.1144321895880E+01  0.0000000000000E+00
 0.2735240164165E+00  0.1184851307454E+01  0.0000000000000E+00
 0.1680410299043E+00  0.4528534154353E+00  0.0000000000000E+00
 0.1768921555027E+00  0.4928873238054E+00  0.0000000000000E+00
 0.1857432811012E+00  0.5329212321756E+00  0.0000000000000E+00
 0.1945944066996E+00  0.5729551405457E+00  0.0000000000000E+00
 0.2034455322981E+00  0.6129890489159E+00  0.0000000000000E+00
 0.2122966578965E+00  0.6530229572860E+00  0.0000000000000E+00
 0.2211477834950E+00  0.6930568656562E+00  0.0000000000000E+00
 0.2299989090934E+00  0.7330907740263E+00  0.0000000000000E+00
 0.2388500346918E+00  0.7731246823965E+00  0.0000000000000E+00
 0.2477011602903E+00  0.8131585907666E+00  0.0000000000000E+00
 0.2565522858887E+00  0.8531924991368E+00  0.0000000000000E+00
 0.2654034114872E+00  0.8932264075069E+00  0.0000000000000E+00
 0.2742545370856E+00  0.9332603158771E+00  0.0000000000000E+00
 0.2831056626841E+00  0.9732942242472E+00  0.0000000000000E+00
 0.2919567882825E+00  0.1013328132617E+01  0.0000000000000E+00
 0.3008079138810E+00  0.1053362040987E+01  0.0000000000000E+00
 0.3096590394794E+00  0.1093395949358E+01  0.0000000000000E+00
 0.3185101650779E+00  0.1133429857728E+01  0.0000000000000E+00
 0.3273612906763E+00  0.1173463766098E+01  0.0000000000000E+00
 0.1959146416683E+00  0.4499388902022E+00  0.0000000000000E+00
 0.2061810098788E+00  0.4893865874296E+00  0.0000000000000E+00
 0.2164473780893E+00  0.5288342846570E+00  0.0000000000000E+00
 0.2267137462998E+00  0.5682819818844E+00  0.0000000000000E+00
 0.2369801145103E+00  0.6077296791117E+00  0.0000000000000E+00
 0.2472464827208E+00  0.6471773763391E+00  0.0000000000000E+00
 0.2575128509313E+00  0.6866250735665E+00  0.0000000000000E+00
 0.2677792191418E+00  0.7260727707939E+00  0.0000000000000E+00
 0.2780455873523E+00  0.7655204680212E+00  0.0000000000000E+00
 0.2883119555628E+00  0.8049681652486E+00  0.0000000000000E+00
 0.2985783237733E+00  0.8444158624760E+00  0.0000000000000E+00
 0.3088446919838E+00  0.8838635597034E+00  0.0000000000000E+00
 0.3191110601943E+00  0.9233112569307E+00  0.0000000000000E+00
 0.3293774284048E+00  0.9627589541581E+00  0.0000000000000E+00
 0.3396437966153E+00  0.1002206651385E+01  0.0000000000000E+00
 0.3499101648258E+00  0.1041654348613E+01  0.0000000000000E+00
 0.3601765330363E+00  0.1081102045840E+01  0.0000000000000E+00
 0.3704429012468E+00  0.1120549743068E+01  0.0000000000000E+00
 0.3807092694573E+00  0.1159997440295E+01  0.0000000000000E+00
 0.2237255070970E+00  0.4465773316393E+00  0.0000000000000E+00
 0.2353778826642E+00  0.4853454456524E+00  0.0000000000000E+00
 0.2470302582313E+00  0.5241135596654E+00  0.0000000000000E+00
 0.2586826337985E+00  0.5628816736785E+00  0.0000000000000E+00
 0.2703350093657E+00  0.6016497876915E+00  0.0000000000000E+00
 0.2819873849328E+00  0.6404179017046E+00  0.0000000000000E+00
 0.2936397605000E+00  0.6791860157177E+00  0.0000000000000E+00
 0.3052921360671E+00  0.7179541297307E+00  0.0000000000000E+00
 0.3169445116343E+00  0.7567222437438E+00  0.0000000000000E+00
 0.3285968872014E+00  0.7954903577569E+00  0.0000000000000E+00
 0.3402492627686E+00  0.8342584717699E+00  0.0000000000000E+00
 0.3519016383358E+00  0.8730265857830E+00  0.0000000000000E+00
 0.3635540139029E+00  0.9117946997960E+00  0.0000000000000E+00
 0.3752063894701E+00  0.9505628138091E+00  0.0000000000000E+00
 0.3868587650372E+00  0.9893309278222E+00  0.0000000000000E+00
 0.3985111406044E+00  0.1028099041835E+01  0.0000000000000E+00
 0.4101635161715E+00  0.1066867155848E+01  0.0000000000000E+00
 0.4218158917387E+00  0.1105635269861E+01  0.0000000000000E+00
 0.4334682673059E+00  0.1144403383874E+01  0.0000000000000E+00
 0.2514639257183E+00  0.4427693911874E+00  0.0000000000000E+00
 0.2644679302121E+00  0.4807632908421E+00  0.0000000000000E+00
 0.2774719347060E+00  0.5187571904969E+00  0.0000000000000E+00
 0.2904759391998E+00  0.5567510901517E+00  0.0000000000000E+00
 0.3034799436937E+00  0.5947449898064E+00  0.0000000000000E+00
 0.3164839481875E+00  0.6327388894612E+00  0.0000000000000E+00
 0.3294879526813E+00  0.6707327891159E+00  0.0000000000000E+00
 0.3424919571752E+00  0.7087266887707E+00  0.0000000000000E+00
 0.3554959616690E+00  0.7467205884254E+00  0.0000000000000E+00
 0.3684999661629E+00  0.7847144880802E+00  0.0000000000000E+00
 0.3815039706567E+00  0.8227083877350E+00  0.0000000000000E+00
 0.3945079751505E+00  0.8607022873897E+00  0.0000000000000E+00
 0.4075119796444E+00  0.8986961870445E+00  0.0000000000000E+00
 0.4205159841382E+00  0.9366900866992E+00  0.0000000000000E+00
 0.4335199886321E+00  0.9746839863540E+00  0.0000000000000E+00
 0.4465239931259E+00  0.1012677886009E+01  0.0000000000000E+00
 0.4595279976197E+00  0.1050671785664E+01  0.0000000000000E+00
 0.4725320021136E+00  0.1088665685318E+01  0.0000000000000E+00
 0.4855360066074E+00  0.1126659584973E+01  0.0000000000000E+00
 0.2791218299219E+00  0.4385208076351E+00  0.0000000000000E+00
 0.2934394872232E+00  0.4756494584267E+00  0.0000000000000E+00
 0.3077571445244E+00  0.5127781092184E+00  0.0000000000000E+00
 0.3220748018257E+00  0.5499067600100E+00  0.0000000000000E+00
 0.3363924591269E+00  0.5870354108016E+00  0.0000000000000E+00
 0.3507101164282E+00  0.6241640615933E+00  0.0000000000000E+00
 0.3650277737294E+00  0.6612927123849E+00  0.0000000000000E+00
 0.3793454310307E+00  0.6984213631766E+00  0.0000000000000E+00
 0.3936630883319E+00  0.7355500139682E+00  0.0000000000000E+00
 0.4079807456332E+00  0.7726786647598E+00  0.0000000000000E+00
 0.4222984029344E+00  0.8098073155515E+00  0.0000000000000E+00
 0.4366160602357E+00  0.8469359663431E+00  0.0000000000000E+00
 0.4509337175369E+00  0.8840646171348E+00  0.0000000000000E+00
 0.4652513748382E+00  0.9211932679264E+00  0.0000000000000E+00
 0.4795690321395E+00  0.9583219187180E+00  0.0000000000000E+00
 0.4938866894407E+00  0.9954505695097E+00  0.0000000000000E+00
 0.5082043467420E+00  0.1032579220301E+01  0.0000000000000E+00
 0.5225220040432E+00  0.1069707871093E+01  0.0000000000000E+00
 0.5368396613445E+00  0.1106836521885E+01  0.0000000000000E+00
 0.3066965711232E+00  0.4338489482471E+00  0.0000000000000E+00
 0.3222916402414E+00  0.4700363157784E+00  0.0000000000000E+00
 0.3378867093596E+00  0.5062236833096E+00  0.0000000000000E+00
 0.3534817784778E+00  0.5424110508409E+00  0.0000000000000E+00
 0.3690768475959E+00  0.5785984183721E+00  0.0000000000000E+00
 0.3846719167141E+00  0.6147857859034E+00  0.0000000000000E+00
 0.4002669858323E+00  0.6509731534347E+00  0.0000000000000E+00
 0.4158620549505E+00  0.6871605209659E+00  0.0000000000000E+00
 0.4314571240687E+00  0.7233478884972E+00  0.0000000000000E+00
 0.4470521931869E+00  0.7595352560285E+00  0.0000000000000E+00
 0.4626472623051E+00  0.7957226235597E+00  0.0000000000000E+00
 0.4782423314233E+00  0.8319099910910E+00  0.0000000000000E+00
 0.4938374005415E+00  0.8680973586222E+00  0.0000000000000E+00
 0.5094324696597E+00  0.9042847261535E+00  0.0000000000000E+00
 0.5250275387779E+00  0.9404720936848E+00  0.0000000000000E+00
 0.5406226078961E+00  0.9766594612160E+00  0.0000000000000E+00
 0.5562176770143E+00  0.1012846828747E+01  0.0000000000000E+00
 0.5718127461325E+00  0.1049034196279E+01  0.0000000000000E+00
 0.5874078152507E+00  0.1085221563810E+01  0.0000000000000E+00
 0.3341971107314E+00  0.4287924373437E+00  0.0000000000000E+00
 0.3510465998701E+00  0.4639985277428E+00  0.0000000000000E+00
 0.3678960890087E+00  0.4992046181418E+00  0.0000000000000E+00
 0.3847455781474E+00  0.5344107085408E+00  0.0000000000000E+00
 0.4015950672860E+00  0.5696167989399E+00  0.0000000000000E+00
 0.4184445564247E+00  0.6048228893389E+00  0.0000000000000E+00
 0.4352940455633E+00  0.6400289797380E+00  0.0000000000000E+00
 0.4521435347020E+00  0.6752350701370E+00  0.0000000000000E+00
 0.4689930238406E+00  0.7104411605360E+00  0.0000000000000E+00
 0.4858425129793E+00  0.7456472509351E+00  0.0000000000000E+00
 0.5026920021179E+00  0.7808533413341E+00  0.0000000000000E+00
 0.5195414912566E+00  0.8160594317332E+00  0.0000000000000E+00
 0.5363909803952E+00  0.8512655221322E+00  0.0000000000000E+00
 0.5532404695339E+00  0.8864716125313E+00  0.0000000000000E+00
 0.5700899586725E+00  0.9216777029303E+00  0.0000000000000E+00
 0.5869394478112E+00  0.9568837933293E+00  0.0000000000000E+00
 0.6037889369498E+00  0.9920898837284E+00  0.0000000000000E+00
 0.6206384260885E+00  0.1027295974127E+01  0.0000000000000E+00
 0.6374879152271E+00  0.1062502064526E+01  0.0000000000000E+00
 0.3616375819568E+00  0.4233950317695E+00  0.0000000000000E+00
 0.3797367715532E+00  0.4576208243499E+00  0.0000000000000E+00
 0.3978359611496E+00  0.4918466169303E+00  0.0000000000000E+00
 0.4159351507460E+00  0.5260724095108E+00  0.0000000000000E+00
 0.4340343403424E+00  0.5602982020912E+00  0.0000000000000E+00
 0.4521335299388E+00  0.5945239946716E+00  0.0000000000000E+00
 0.4702327195353E+00  0.6287497872521E+00  0.0000000000000E+00
 0.4883319091317E+00  0.6629755798325E+00  0.0000000000000E+00
 0.5064310987281E+00  0.6972013724129E+00  0.0000000000000E+00
 0.5245302883245E+00  0.7314271649934E+00  0.0000000000000E+00
 0.5426294779209E+00  0.7656529575738E+00  0.0000000000000E+00
 0.5607286675173E+00  0.7998787501542E+00  0.0000000000000E+00
 0.5788278571138E+00  0.8341045427347E+00  0.0000000000000E+00
 0.5969270467102E+00  0.8683303353151E+00  0.0000000000000E+00
 0.6150262363066E+00  0.9025561278956E+00  0.0000000000000E+00
 0.6331254259030E+00  0.9367819204760E+00  0.0000000000000E+00
 0.6512246154994E+00  0.9710077130564E+00  0.0000000000000E+00
 0.6693238050958E+00  0.1005233505637E+01  0.0000000000000E+00
 0.6874229946923E+00  0.1039459298217E+01  0.0000000000000E+00
 0.3890049751294E+00  0.4176409905240E+00  0.0000000000000E+00
 0.4083402182530E+00  0.4508687337983E+00  0.0000000000000E+00
 0.4276754613766E+00  0.4840964770726E+00  0.0000000000000E+00
 0.4470107045002E+00  0.5173242203469E+00  0.0000000000000E+00
 0.4663459476237E+00  0.5505519636212E+00  0.0000000000000E+00
 0.4856811907473E+00  0.5837797068956E+00  0.0000000000000E+00
 0.5050164338709E+00  0.6170074501699E+00  0.0000000000000E+00
 0.5243516769945E+00  0.6502351934442E+00  0.0000000000000E+00
 0.5436869201180E+00  0.6834629367185E+00  0.0000000000000E+00
 0.5630221632416E+00  0.7166906799928E+00  0.0000000000000E+00
 0.5823574063652E+00  0.7499184232671E+00  0.0000000000000E+00
 0.6016926494888E+00  0.7831461665414E+00  0.0000000000000E+00
 0.6210278926123E+00  0.8163739098157E+00  0.0000000000000E+00
 0.6403631357359E+00  0.8496016530900E+00  0.0000000000000E+00
 0.6596983788595E+00  0.8828293963643E+00  0.0000000000000E+00
 0.6790336219831E+00  0.9160571396386E+00  0.0000000000000E+00
 0.6983688651066E+00  0.9492848829129E+00  0.0000000000000E+00
 0.7177041082302E+00  0.9825126261872E+00  0.0000000000000E+00
 0.7370393513538E+00  0.1015740369462E+01  0.0000000000000E+00
 0.4162795949455E+00  0.4115031803644E+00  0.0000000000000E+00
 0.4368214348248E+00  0.4436848269459E+00  0.0000000000000E+00
 0.4573632747041E+00  0.4758664735274E+00  0.0000000000000E+00
 0.4779051145834E+00  0.5080481201089E+00  0.0000000000000E+00
 0.4984469544626E+00  0.5402297666905E+00  0.0000000000000E+00
 0.5189887943419E+00  0.5724114132720E+00  0.0000000000000E+00
 0.5395306342212E+00  0.6045930598535E+00  0.0000000000000E+00
 0.5600724741005E+00  0.6367747064350E+00  0.0000000000000E+00
 0.5806143139798E+00  0.6689563530165E+00  0.0000000000000E+00
 0.6011561538591E+00  0.7011379995980E+00  0.0000000000000E+00
 0.6216979937384E+00  0.7333196461795E+00  0.0000000000000E+00
 0.6422398336177E+00  0.7655012927610E+00  0.0000000000000E+00
 0.6627816734970E+00  0.7976829393425E+00  0.0000000000000E+00
 0.6833235133763E+00  0.8298645859240E+00  0.0000000000000E+00
 0.7038653532555E+00  0.8620462325056E+00  0.0000000000000E+00
 0.7244071931348E+00  0.8942278790871E+00  0.0000000000000E+00
 0.7449490330141E+00  0.9264095256686E+00  0.0000000000000E+00
 0.7654908728934E+00  0.9585911722501E+00  0.0000000000000E+00
 0.7860327127727E+00  0.9907728188316E+00  0.0000000000000E+00
 0.4434431138861E+00  0.4049623046123E+00  0.0000000000000E+00
 0.4651476238630E+00  0.4360271528875E+00  0.0000000000000E+00
 0.4868521338399E+00  0.4670920011626E+00  0.0000000000000E+00
 0.5085566438169E+00  0.4981568494378E+00  0.0000000000000E+00
 0.5302611537938E+00  0.5292216977130E+00  0.0000000000000E+00
 0.5519656637707E+00  0.5602865459881E+00  0.0000000000000E+00
 0.5736701737476E+00  0.5913513942633E+00  0.0000000000000E+00
 0.5953746837245E+00  0.6224162425385E+00  0.0000000000000E+00
 0.6170791937015E+00  0.6534810908137E+00  0.0000000000000E+00
 0.6387837036784E+00  0.6845459390888E+00  0.0000000000000E+00
 0.6604882136553E+00  0.7156107873640E+00  0.0000000000000E+00
 0.6821927236322E+00  0.7466756356392E+00  0.0000000000000E+00
 0.7038972336091E+00  0.7777404839143E+00  0.0000000000000E+00
 0.7256017435861E+00  0.8088053321895E+00  0.0000000000000E+00
 0.7473062535630E+00  0.8398701804647E+00  0.0000000000000E+00
 0.7690107635399E+00  0.8709350287399E+00  0.0000000000000E+00
 0.7907152735168E+00  0.9019998770150E+00  0.0000000000000E+00
 0.8124197834938E+00  0.9330647252902E+00  0.0000000000000E+00
 0.8341242934707E+00  0.9641295735654E+00  0.0000000000000E+00
 0.4704791815732E+00  0.3980072353552E+00  0.0000000000000E+00
 0.4932896427561E+00  0.4278699685610E+00  0.0000000000000E+00
 0.5161001039390E+00  0.4577327017669E+00  0.0000000000000E+00
 0.5389105651219E+00  0.4875954349727E+00  0.0000000000000E+00
 0.5617210263048E+00  0.5174581681785E+00  0.0000000000000E+00
 0.5845314874877E+00  0.5473209013844E+00  0.0000000000000E+00
 0.6073419486706E+00  0.5771836345902E+00  0.0000000000000E+00
 0.6301524098535E+00  0.6070463677961E+00  0.0000000000000E+00
 0.6529628710365E+00  0.6369091010019E+00  0.0000000000000E+00
 0.6757733322194E+00  0.6667718342078E+00  0.0000000000000E+00
 0.6985837934023E+00  0.6966345674136E+00  0.0000000000000E+00
 0.7213942545852E+00  0.7264973006194E+00  0.0000000000000E+00
 0.7442047157681E+00  0.7563600338253E+00  0.0000000000000E+00
 0.7670151769510E+00  0.7862227670311E+00  0.0000000000000E+00
 0.7898256381339E+00  0.8160855002370E+00  0.0000000000000E+00
 0.8126360993168E+00  0.8459482334428E+00  0.0000000000000E+00
 0.8354465604997E+00  0.8758109666487E+00  0.0000000000000E+00
 0.8582570216826E+00  0.9056736998545E+00  0.0000000000000E+00
 0.8810674828655E+00  0.9355364330604E+00  0.0000000000000E+00
 0.4973724746499E+00  0.3906327012162E+00  0.0000000000000E+00
 0.5212203829587E+00  0.4191990678570E+00  0.0000000000000E+00
 0.5450682912674E+00  0.4477654344978E+00  0.0000000000000E+00
 0.5689161995761E+00  0.4763318011386E+00  0.0000000000000E+00
 0.5927641078849E+00  0.5048981677794E+00  0.0000000000000E+00
 0.6166120161936E+00  0.5334645344202E+00  0.0000000000000E+00
 0.6404599245023E+00  0.5620309010610E+00  0.0000000000000E+00
 0.6643078328111E+00  0.5905972677017E+00  0.0000000000000E+00
 0.6881557411198E+00  0.6191636343425E+00  0.0000000000000E+00
 0.7120036494285E+00  0.6477300009833E+00  0.0000000000000E+00
 0.7358515577373E+00  0.6762963676241E+00  0.0000000000000E+00
 0.7596994660460E+00  0.7048627342649E+00  0.0000000000000E+00
 0.7835473743547E+00  0.7334291009057E+00  0.0000000000000E+00
 0.8073952826635E+00  0.7619954675465E+00  0.0000000000000E+00
 0.8312431909722E+00  0.7905618341873E+00  0.0000000000000E+00
 0.8550910992809E+00  0.8191282008280E+00  0.0000000000000E+00
 0.8789390075897E+00  0.8476945674688E+00  0.0000000000000E+00
 0.9027869158984E+00  0.8762609341096E+00  0.0000000000000E+00
 0.9266348242071E+00  0.9048273007504E+00  0.0000000000000E+00
 0.5241075392167E+00  0.3828365021242E+00  0.0000000000000E+00
 0.5489124012050E+00  0.4100062274629E+00  0.0000000000000E+00
 0.5737172631934E+00  0.4371759528015E+00  0.0000000000000E+00
 0.5985221251818E+00  0.4643456781402E+00  0.0000000000000E+00
 0.6233269871702E+00  0.4915154034788E+00  0.0000000000000E+00
 0.6481318491586E+00  0.5186851288175E+00  0.0000000000000E+00
 0.6729367111470E+00  0.5458548541562E+00  0.0000000000000E+00
 0.6977415731353E+00  0.5730245794948E+00  0.0000000000000E+00
 0.7225464351237E+00  0.6001943048335E+00  0.0000000000000E+00
 0.7473512971121E+00  0.6273640301721E+00  0.0000000000000E+00
 0.7721561591005E+00  0.6545337555108E+00  0.0000000000000E+00
 0.7969610210889E+00  0.6817034808494E+00  0.0000000000000E+00
 0.8217658830773E+00  0.7088732061881E+00  0.0000000000000E+00
 0.8465707450657E+00  0.7360429315268E+00  0.0000000000000E+00
 0.8713756070540E+00  0.7632126568654E+00  0.0000000000000E+00
 0.8961804690424E+00  0.7903823822041E+00  0.0000000000000E+00
 0.9209853310308E+00  0.8175521075427E+00  0.0000000000000E+00
 0.9457901930192E+00  0.8447218328814E+00  0.0000000000000E+00
 0.9705950550076E+00  0.8718915582200E+00  0.0000000000000E+00
</DataArray>
</Points>
<Cells>
<DataArray type="Int64" Name="connectivity" format="ascii">
0 11 438 243
243 438 439 244
244 439 440 245
245 440 441 246
246 441 442 247
247 442 443 248
248 443 444 249
249 444 445 250
250 445 446 251
251 446 447 252
252 447 448 253
253 448 449 254
254 449 450 255
255 450 451 256
256 451 452 257
257 452 453 258
258 453 454 259
259 454 455 260
260 455 456 261
261 456 457 262
262 457 458 263
263 458 459 264
264 459 460 265
265 460 461 266
266 461 462 267
267 462 463 268
268 463 464 269
269 464 465 270
270 465 466 271
271 466 467 272
272 467 468 273
273 468 469 274
274 469 470 275
275 470 471 276
276 471 472 277
277 472 473 278
278 473 474 279
279 474 475 280
280 475 476 281
281 476 477 282
282 477 89 3
11 12 478 438
438 478 479 439
439 479 480 440
440 480 481 441
441 481 482 442
442 482 483 443
443 483 484 444
444 484 485 445
445 485 486 446
446 486 487 447
447 487 488 448
448 488 489 449
449 489 490 450
450 490 491 451
451 491 492 452
452 492 493 453
453 493 494 454
454 494 495 455
455 495 496 456
456 496 497 457
457 497 498 458
458 498 499 459
459 499 500 460
460 500 501 461
461 501 502 462
462 502 503 463
463 503 504 464
464 504 505 465
465 505 506 466
466 506 507 467
467 507 508 468
468 508 509 469
469 509 510 470
470 510 511 471
471 511 512 472
472 512 513 473
473 513 514 474
474 514 515 475
475 515 516 476
476 516 517 477
477 517 90 89
12 13 518 478
478 518 519 479
479 519 520 480
480 520 521 481
481 521 522 482
482 522 523 483
483 523 524 484
484 524 525 485
485 525 526 486
486 526 527 487
487 527 528 488
488 528 529 489
489 529 530 490
490 530 531 491
491 531 532 492
492 532 533 493
493 533 534 494
494 534 535 495
495 535 536 496
496 536 537 497
497 537 538 498
498 538 539 499
499 539 540 500
500 540 541 501
501 541 542 502
502 542 543 503
503 543 544 504
504 544 545 505
505 545 546 506
506 546 547 507
507 547 548 508
508 548 549 509
509 549 550 510
510 550 551 511
511 551 552 512
512 552 553 513
513 553 554 514
514 554 555 515
515 555 556 516
516 556 557 517
517 557 91 90
13 14 558 518
518 558 559 519
519 559 560 520
520 560 561 521
521 561 562 522
522 562 563 523
523 563 564 524
524 564 565 525
525 565 566 526
526 566 567 527
527 567 568 528
528 568 569 529
529 569 570 530
530 570 571 531
531 571 572 532
532 572 573 533
533 573 574 534
534 574 575 535
535 575 576 536
536 576 577 537
537 577 578 538
538 578 579 539
539 579 580 540
540 580 581 541
541 581 582 542
542 582 583 543
543 583 584 544
544 584 585 545
545 585 586 546
546 586 587 547
547 587 588 548
548 588 589 549
549 589 590 550
550 590 591 551
551 591 592 552
552 592 593 553
553 593 594 554
554 594 595 555
555 595 596 556
556 596 597 557
557 597 92 91
14 15 598 558
558 598 599 559
559 599 600 560
560 600 601 561
561 601 602 562
562 602 603 563
563 603 604 564
564 604 605 565
565 605 606 566
566 606 607 567
567 607 608 568
568 608 609 569
569 609 610 570
570 610 611 571
571 611 612 572
572 612 613 573
573 613 614 574
574 614 615 575
575 615 616 576
576 616 617 577
577 617 618 578
578 618 619 579
579 619 620 580
580 620 621 581
581 621 622 582
582 622 623 583
583 623 624 584
584 624 625 585
585 625 626 586
586 626 627 587
587 627 628 588
588 628 629 589
589 629 630 590
590 630 631 591
591 631 632 592
592 632 633 593
593 633 634 594
594 634 635 595
595 635 636 596
596 636 637 597
597 637 93 92
15 16 638 598
598 638 639 599
599 639 640 600
600 640 641 601
601 641 642 602
602 642 643 603
603 643 644 604
604 644 645 605
605 645 646 606
606 646 647 607
607 647 648 608
608 648 649 609
609 649 650 610
610 650 651 611
611 651 652 612
612 652 653 613
613 653 654 614
614 654 655 615
615 655 656 616
616 656 657 617
617 657 658 618
618 658 659 619
619 659 660 620
620 660 661 621
621 661 662 622
622 662 663 623
623 663 664 624
624 664 665 625
625 665 666 626
626 666 667 627
627 667 668 628
628 668 669 629
629 669 670 630
630 670 671 631
631 671 672 632
632 672 673 633
633 673 674 634
634 674 675 635
635 675 676 636
636 676 677 637
637 677 94 93
16 17 678 638
638 678 679 639
639 679 680 640
640 680 681 641
641 681 682 642
642 682 683 643
643 683 684 644
644 684 685 645
645 685 686 646
646 686 687 647
647 687 688 648
648 688 689 649
649 689 690 650
650 690 691 651
651 691 692 652
652 692 693 653
653 693 694 654
654 694 695 655
655 695 696 656
656 696 697 657
657 697 698 658
658 698 699 659
659 699 700 660
660 700 701 661
661 701 702 662
662 702 703 663
663 703 704 664
664 704 705 665
665 705 706 666
666 706 707 667
667 707 708 668
668 708 709 669
669 709 710 670
670 710 711 671
671 711 712 672
672 712 713 673
673 713 714 674
674 714 715 675
675 715 716 676
676 716 717 677
677 717 95 94
17 18 718 678
678 718 719 679
679 719 720 680
680 720 721 681
681 721 722 682
682 722 723 683
683 723 724 684
684 724 725 685
685 725 726 686
686 726 727 687
687 727 728 688
688 728 729 689
689 729 730 690
690 730 731 691
691 731 732 692
692 732 733 693
693 733 734 694
694 734 735 695
695 735 736 696
696 736 737 697
697 737 738 698
698 738 739 699
699 739 740 700
700 740 741 701
701 741 742 702
702 742 743 703
703 743 744 704
704 744 745 705
705 745 746 706
706 746 747 707
707 747 748 708
708 748 749 709
709 749 750 710
710 750 751 711
711 751 752 712
712 752 753 713
713 753 754 714
714 754 755 715
715 755 756 716
716 756 757 717
717 757 96 95
18 19 758 718
718 758 759 719
719 759 760 720
720 760 761 721
721 761 762 722
722 762 763 723
723 763 764 724
724 764 765 725
725 765 766 726
726 766 767 727
727 767 768 728
728 768 769 729
729 769 770 730
730 770 771 731
731 771 772 732
732 772 773 733
733 773 774 734
734 774 775 735
735 775 776 736
736 776 777 737
737 777 778 738
738 778 779 739
739 779 780 740
740 780 781 741
741 781 782 742
742 782 783 743
743 783 784 744
744 784 785 745
745 785 786 746
746 786 787 747
747 787 788 748
748 788 789 749
749 789 790 750
750 790 791 751
751 791 792 752
752 792 793 753
753 793 794 754
754 794 795 755
755 795 796 756
756 796 797 757
757 797 97 96
19 20 798 758
758 798 799 759
759 799 800 760
760 800 801 761
761 801 802 762
762 802 803 763
763 803 804 764
764 804 805 765
765 805 806 766
766 806 807 767
767 807 808 768
768 808 809 769
769 809 810 770
770 810 811 771
771 811 812 772
772 812 813 773
773 813 814 774
774 814 815 775
775 815 816 776
776 816 817 777
777 817 818 778
778 818 819 779
779 819 820 780
780 820 821 781
781 821 822 782
782 822 823 783
783 823 824 784
784 824 825 785
785 825 826 786
786 826 827 787
787 827 828 788
788 828 829 789
789 829 830 790
790 830 831 791
791 831 832 792
792 832 833 793
793 833 834 794
794 834 835 795
795 835 836 796
796 836 837 797
797 837 98 97
20 21 838 798
798 838 839 799
799 839 840 800
800 840 841 801
801 841 842 802
802 842 843 803
803 843 844 804
804 844 845 805
805 845 846 806
806 846 847 807
807 847 848 808
808 848 849 809
809 849 850 810
810 850 851 811
811 851 852 812
812 852 853 813
813 853 854 814
814 854 855 815
815 855 856 816
816 856 857 817
817 857 858 818
818 858 859 819
819 859 860 820
820 860 861 821
821 861 862 822
822 862 863 823
823 863 864 824
824 864 865 825
825 865 866 826
826 866 867 827
827 867 868 828
828 868 869 829
829 869 870 830
830 870 871 831
831 871 872 832
832 872 873 833
833 873 874 834
834 874 875 835
835 875 876 836
836 876 877 837
837 877 99 98
21 22 878 838
838 878 879 839
839 879 880 840
840 880 881 841
841 881 882 842
842 882 883 843
843 883 884 844
844 884 885 845
845 885 886 846
846 886 887 847
847 887 888 848
848 888 889 849
849 889 890 850
850 890 891 851
851 891 892 852
852 892 893 853
853 893 894 854
854 894 895 855
855 895 896 856
856 896 897 857
857 897 898 858
858 898 899 859
859 899 900 860
860 900 901 861
861 901 902 862
862 902 903 863
863 903 904 864
864 904 905 865
865 905 906 866
866 906 907 867
867 907 908 868
868 908 909 869
869 909 910 870
870 910 911 871
871 911 912 872
872 912 913 873
873 913 914 874
874 914 915 875
875 915 916 876
876 916 917 877
877 917 100 99
22 23 918 878
878 918 919 879
879 919 920 880
880 920 921 881
881 921 922 882
882 922 923 883
883 923 924 884
884 924 925 885
885 925 926 886
886 926 927 887
887 927 928 888
888 928 929 889
889 929 930 890
890 930 931 891
891 931 932 892
892 932 933 893
893 933 934 894
894 934 935 895
895 935 936 896
896 936 937 897
897 937 938 898
898 938 939 899
899 939 940 900
900 940 941 901
901 941 942 902
902 942 943 903
903 943 944 904
904 944 945 905
905 945 946 906
906 946 947 907
907 947 948 908
908 948 949 909
909 949 950 910
910 950 951 911
911 951 952 912
912 952 953 913
913 953 954 914
914 954 955 915
915 955 956 916
916 956 957 917
917 957 101 100
23 24 958 918
918 958 959 919
919 959 960 920
920 960 961 921
921 961 962 922
922 962 963 923
923 963 964 924
924 964 965 925
925 965 966 926
926 966 967 927
927 967 968 928
928 968 969 929
929 969 970 930
930 970 971 931
931 971 972 932
932 972 973 933
933 973 974 934
934 974 975 935
935 975 976 936
936 976 977 937
937 977 978 938
938 978 979 939
939 979 980 940
940 980 981 941
941 981 982 942
942 982 983 943
943 983 984 944
944 984 985 945
945 985 986 946
946 986 987 947
947 987 988 948
948 988 989 949
949 989 990 950
950 990 991 951
951 991 992 952
952 992 993 953
953 993 994 954
954 994 995 955
955 995 996 956
956 996 997 957
957 997 102 101
24 25 998 958
958 998 999 959
959 999 1000 960
960 1000 1001 961
961 1001 1002 962
962 1002 1003 963
963 1003 1004 964
964 1004 1005 965
965 1005 1006 966
966 1006 1007 967
967 1007 1008 968
968 1008 1009 969
969 1009 1010 970
970 1010 1011 971
971 1011 1012 972
972 1012 1013 973
973 1013 1014 974
974 1014 1015 975
975 1015 1016 976
976 1016 1017 977
977 1017 1018 978
978 1018 1019 979
979 1019 1020 980
980 1020 1021 981
981 1021 1022 982
982 1022 1023 983
983 1023 1024 984
984 1024 1025 985
985 1025 1026 986
986 1026 1027 987
987 1027 1028 988
988 1028 1029 989
989 1029 1030 990
990 1030 1031 991
991 1031 1032 992
992 1032 1033 993
993 1033 1034 994
994 1034 1035 995
995 1035 1036 996
996 1036 1037 997
997 1037 103 102
25 26 1038 998
998 1038 1039 999
999 1039 1040 1000
1000 1040 1041 1001
1001 1041 1042 1002
1002 1042 1043 1003
1003 1043 1044 1004
1004 1044 1045 1005
1005 1045 1046 1006
1006 1046 1047 1007
1007 1047 1048 1008
1008 1048 1049 1009
1009 1049 1050 1010
1010 1050 1051 1011
1011 1051 1052 1012
1012 1052 1053 1013
1013 1053 1054 1014
1014 1054 1055 1015
1015 1055 1056 1016
1016 1056 1057 1017
1017 1057 1058 1018
1018 1058 1059 1019
1019 1059 1060 1020
1020 1060 1061 1021
1021 1061 1062 1022
1022 1062 1063 1023
1023 1063 1064 1024
1024 1064 1065 1025
1025 1065 1066 1026
1026 1066 1067 1027
1027 1067 1068 1028
1028 1068 1069 1029
1029 1069 1070 1030
1030 1070 1071 1031
1031 1071 1072 1032
1032 1072 1073 1033
1033 1073 1074 1034
1034 1074 1075 1035
1035 1075 1076 1036
1036 1076 1077 1037
1037 1077 104 103
26 27 1078 1038
1038 1078 1079 1039
1039 1079 1080 1040
1040 1080 1081 1041
1041 1081 1082 1042
1042 1082 1083 1043
1043 1083 1084 1044
1044 1084 1085 1045
1045 1085 1086 1046
1046 1086 1087 1047
1047 1087 1088 1048
1048 1088 1089 1049
1049 1089 1090 1050
1050 1090 1091 1051
1051 1091 1092 1052
1052 1092 1093 1053
1053 1093 1094 1054
1054 1094 1095 1055
1055 1095 1096 1056
1056 1096 1097 1057
1057 1097 1098 1058
1058 1098 1099 1059
1059 1099 1100 1060
1060 1100 1101 1061
1061 1101 1102 1062
1062 1102 1103 1063
1063 1103 1104 1064
1064 1104 1105 1065
1065 1105 1106 1066
1066 1106 1107 1067
1067 1107 1108 1068
1068 1108 1109 1069
1069 1109 1110 1070
1070 1110 1111 1071
1071 1111 1112 1072
1072 1112 1113 1073
1073 1113 1114 1074
1074 1114 1115 1075
1075 1115 1116 1076
1076 1116 1117 1077
1077 1117 105 104
27 28 1118 1078
1078 1118 1119 1079
1079 1119 1120 1080
1080 1120 1121 1081
1081 1121 1122 1082
1082 1122 1123 1083
1083 1123 1124 1084
1084 1124 1125 1085
1085 1125 1126 1086
1086 1126 1127 1087
1087 1127 1128 1088
1088 1128 1129 1089
1089 1129 1130 1090
1090 1130 1131 1091
1091 1131 1132 1092
1092 1132 1133 1093
1093 1133 1134 1094
1094 1134 1135 1095
1095 1135 1136 1096
1096 1136 1137 1097
1097 1137 1138 1098
1098 1138 1139 1099
1099 1139 1140 1100
1100 1140 1141 1101
1101 1141 1142 1102
1102 1142 1143 1103
1103 1143 1144 1104
1104 1144 1145 1105
1105 1145 1146 1106
1106 1146 1147 1107
1107 1147 1148 1108
1108 1148 1149 1109
1109 1149 1150 1110
1110 1150 1151 1111
1111 1151 1152 1112
1112 1152 1153 1113
1113 1153 1154 1114
1114 1154 1155 1115
1115 1155 1156 1116
1116 1156 1157 1117
1117 1157 106 105
28 29 1158 1118
1118 1158 1159 1119
1119 1159 1160 1120
1120 1160 1161 1121
1121 1161 1162 1122
1122 1162 1163 1123
1123 1163 1164 1124
1124 1164 1165 1125
1125 1165 1166 1126
1126 1166 1167 1127
1127 1167 1168 1128
1128 1168 1169 1129
1129 1169 1170 1130
1130 1170 1171 1131
1131 1171 1172 1132
1132 1172 1173 1133
1133 1173 1174 1134
1134 1174 1175 1135
1135 1175 1176 1136
1136 1176 1177 1137
1137 1177 1178 1138
1138 1178 1179 1139
1139 1179 1180 1140
1140 1180 1181 1141
1141 1181 1182 1142
1142 1182 1183 1143
1143 1183 1184 1144
1144 1184 1185 1145
1145 1185 1186 1146
1146 1186 1187 1147
1147 1187 1188 1148
1148 1188 1189 1149
1149 1189 1190 1150
1150 1190 1191 1151
1151 1191 1192 1152
1152 1192 1193 1153
1153 1193 1194 1154
1154 1194 1195 1155
1155 1195 1196 1156
1156 1196 1197 1157
1157 1197 107 106
29 30 1198 1158
1158 1198 1199 1159
1159 1199 1200 1160
1160 1200 1201 1161
1161 1201 1202 1162
1162 1202 1203 1163
1163 1203 1204 1164
1164 1204 1205 1165
1165 1205 1206 1166
1166 1206 1207 1167
1167 1207 1208 1168
1168 1208 1209 1169
1169 1209 1210 1170
1170 1210 1211 1171
1171 1211 1212 1172
1172 1212 1213 1173
1173 1213 1214 1174
1174 1214 1215 1175
1175 1215 1216 1176
1176 1216 1217 1177
1177 1217 1218 1178
1178 1218 1219 1179
1179 1219 1220 1180
1180 1220 1221 1181
1181 1221 1222 1182
1182 1222 1223 1183
1183 1223 1224 1184
1184 1224 1225 1185
1185 1225 1226 1186
1186 1226 1227 1187
1187 1227 1228 1188
1188 1228 1229 1189
1189 1229 1230 1190
1190 1230 1231 1191
1191 1231 1232 1192
1192 1232 1233 1193
1193 1233 1234 1194
1194 1234 1235 1195
1195 1235 1236 1196
1196 1236 1237 1197
1197 1237 4 107
30 31 1238 1198
1198 1238 1239 1199
1199 1239 1240 1200
1200 1240 1241 1201
1201 1241 1242 1202
1202 1242 1243 1203
1203 1243 1244 1204
1204 1244 1245 1205
1205 1245 1246 1206
1206 1246 1247 1207
1207 1247 1248 1208
1208 1248 1249 1209
1209 1249 1250 1210
1210 1250 1251 1211
1211 1251 1252 1212
1212 1252 1253 1213
1213 1253 1254 1214
1214 1254 1255 1215
1215 1255 1256 1216
1216 1256 1257 1217
1217 1257 1258 1218
1218 1258 1259 1219
1219 1259 1260 1220
1220 1260 1261 1221
1221 1261 1262 1222
1222 1262 1263 1223
1223 1263 1264 1224
1224 1264 1265 1225
1225 1265 1266 1226
1226 1266 1267 1227
1227 1267 1268 1228
1228 1268 1269 1229
1229 1269 1270 1230
1230 1270 1271 1231
1231 1271 1272 1232
1232 1272 1273 1233
1233 1273 1274 1234
1234 1274 1275 1235
1235 1275 1276 1236
1236 1276 1277 1237
1237 1277 108 4
31 32 1278 1238
1238 1278 1279 1239
1239 1279 1280 1240
1240 1280 1281 1241
1241 1281 1282 1242
1242 1282 1283 1243
1243 1283 1284 1244
1244 1284 1285 1245
1245 1285 1286 1246
1246 1286 1287 1247
1247 1287 1288 1248
1248 1288 1289 1249
1249 1289 1290 1250
1250 1290 1291 1251
1251 1291 1292 1252
1252 1292 1293 1253
1253 1293 1294 1254
1254 1294 1295 1255
1255 1295 1296 1256
1256 1296 1297 1257
1257 1297 1298 1258
1258 1298 1299 1259
1259 1299 1300 1260
1260 1300 1301 1261
1261 1301 1302 1262
1262 1302 1303 1263
1263 1303 1304 1264
1264 1304 1305 1265
1265 1305 1306 1266
1266 1306 1307 1267
1267 1307 1308 1268
1268 1308 1309 1269
1269 1309 1310 1270
1270 1310 1311 1271
1271 1311 1312 1272
1272 1312 1313 1273
1273 1313 1314 1274
1274 1314 1315 1275
1275 1315 1316 1276
1276 1316 1317 1277
1277 1317 109 108
32 33 1318 1278
1278 1318 1319 1279
1279 1319 1320 1280
1280 1320 1321 1281
1281 1321 1322 1282
1282 1322 1323 1283
1283 1323 1324 1284
1284 1324 1325 1285
1285 1325 1326 1286
1286 1326 1327 1287
1287 1327 1328 1288
1288 1328 1329 1289
1289 1329 1330 1290
1290 1330 1331 1291
1291 1331 1332 1292
1292 1332 1333 1293
1293 1333 1334 1294
1294 1334 1335 1295
1295 1335 1336 1296
1296 1336 1337 1297
1297 1337 1338 1298
1298 1338 1339 1299
1299 1339 1340 1300
1300 1340 1341 1301
1301 1341 1342 1302
1302 1342 1343 1303
1303 1343 1344 1304
1304 1344 1345 1305
1305 1345 1346 1306
1306 1346 1347 1307
1307 1347 1348 1308
1308 1348 1349 1309
1309 1349 1350 1310
1310 1350 1351 1311
1311 1351 1352 1312
1312 1352 1353 1313
1313 1353 1354 1314
1314 1354 1355 1315
1315 1355 1356 1316
1316 1356 1357 1317
1317 1357 110 109
33 34 1358 1318
1318 1358 1359 1319
1319 1359 1360 1320
1320 1360 1361 1321
1321 1361 1362 1322
1322 1362 1363 1323
1323 1363 1364 1324
1324 1364 1365 1325
1325 1365 1366 1326
1326 1366 1367 1327
1327 1367 1368 1328
1328 1368 1369 1329
1329 1369 1370 1330
1330 1370 1371 1331
1331 1371 1372 1332
1332 1372 1373 1333
1333 1373 1374 1334
1334 1374 1375 1335
1335 1375 1376 1336
1336 1376 1377 1337
1337 1377 1378 1338
1338 1378 1379 1339
1339 1379 1380 1340
1340 1380 1381 1341
1341 1381 1382 1342
1342 1382 1383 1343
1343 1383 1384 1344
1344 1384 1385 1345
1345 1385 1386 1346
1346 1386 1387 1347
1347 1387 1388 1348
1348 1388 1389 1349
1349 1389 1390 1350
1350 1390 1391 1351
1351 1391 1392 1352
1352 1392 1393 1353
1353 1393 1394 1354
1354 1394 1395 1355
1355 1395 1396 1356
1356 1396 1397 1357
1357 1397 111 110
34 35 1398 1358
1358 1398 1399 1359
1359 1399 1400 1360
1360 1400 1401 1361
1361 1401 1402 1362
1362 1402 1403 1363
1363 1403 1404 1364
1364 1404 1405 1365
1365 1405 1406 1366
1366 1406 1407 1367
1367 1407 1408 1368
1368 1408 1409 1369
1369 1409 1410 1370
1370 1410 1411 1371
1371 1411 1412 1372
1372 1412 1413 1373
1373 1413 1414 1374
1374 1414 1415 1375
1375 1415 1416 1376
1376 1416 1417 1377
1377 1417 1418 1378
1378 1418 1419 1379
1379 1419 1420 1380
1380 1420 1421 1381
1381 1421 1422 1382
1382 1422 1423 1383
1383 1423 1424 1384
1384 1424 1425 1385
1385 1425 1426 1386
1386 1426 1427 1387
1387 1427 1428 1388
1388 1428 1429 1389
1389 1429 1430 1390
1390 1430 1431 1391
1391 1431 1432 1392
1392 1432 1433 1393
1393 1433 1434 1394
1394 1434 1435 1395
1395 1435 1436 1396
1396 1436 1437 1397
1397 1437 112 111
35 36 1438 1398
1398 1438 1439 1399
1399 1439 1440 1400
1400 1440 1441 1401
1401 1441 1442 1402
1402 1442 1443 1403
1403 1443 1444 1404
1404 1444 1445 1405
1405 1445 1446 1406
1406 1446 1447 1407
1407 1447 1448 1408
1408 1448 1449 1409
1409 1449 1450 1410
1410 1450 1451 1411
1411 1451 1452 1412
1412 1452 1453 1413
1413 1453 1454 1414
1414 1454 1455 1415
1415 1455 1456 1416
1416 1456 1457 1417
1417 1457 1458 1418
1418 1458 1459 1419
1419 1459 1460 1420
1420 1460 1461 1421
1421 1461 1462 1422
1422 1462 1463 1423
1423 1463 1464 1424
1424 1464 1465 1425
1425 1465 1466 1426
1426 1466 1467 1427
1427 1467 1468 1428
1428 1468 1469 1429
1429 1469 1470 1430
1430 1470 1471 1431
1431 1471 1472 1432
1432 1472 1473 1433
1433 1473 1474 1434
1434 1474 1475 1435
1435 1475 1476 1436
1436 1476 1477 1437
1437 1477 113 112
36 37 1478 1438
1438 1478 1479 1439
1439 1479 1480 1440
1440 1480 1481 1441
1441 1481 1482 1442
1442 1482 1483 1443
1443 1483 1484 1444
1444 1484 1485 1445
1445 1485 1486 1446
1446 1486 1487 1447
1447 1487 1488 1448
1448 1488 1489 1449
1449 1489 1490 1450
1450 1490 1491 1451
1451 1491 1492 1452
1452 1492 1493 1453
1453 1493 1494 1454
1454 1494 1495 1455
1455 1495 1496 1456
1456 1496 1497 1457
1457 1497 1498 1458
1458 1498 1499 1459
1459 1499 1500 1460
1460 1500 1501 1461
1461 1501 1502 1462
1462 1502 1503 1463
1463 1503 1504 1464
1464 1504 1505 1465
1465 1505 1506 1466
1466 1506 1507 1467
1467 1507 1508 1468
1468 1508 1509 1469
1469 1509 1510 1470
1470 1510 1511 1471
1471 1511 1512 1472
1472 1512 1513 1473
1473 1513 1514 1474
1474 1514 1515 1475
1475 1515 1516 1476
1476 1516 1517 1477
1477 1517 114 113
37 38 1518 1478
1478 1518 1519 1479
1479 1519 1520 1480
1480 1520 1521 1481
1481 1521 1522 1482
1482 1522 1523 1483
1483 1523 1524 1484
1484 1524 1525 1485
1485 1525 1526 1486
1486 1526 1527 1487
1487 1527 1528 1488
1488 1528 1529 1489
1489 1529 1530 1490
1490 1530 1531 1491
1491 1531 1532 1492
1492 1532 1533 1493
1493 1533 1534 1494
1494 1534 1535 1495
1495 1535 1536 1496
1496 1536 1537 1497
1497 1537 1538 1498
1498 1538 1539 1499
1499 1539 1540 1500
1500 1540 1541 1501
1501 1541 1542 1502
1502 1542 1543 1503
1503 1543 1544 1504
1504 1544 1545 1505
1505 1545 1546 1506
1506 1546 1547 1507
1507 1547 1548 1508
1508 1548 1549 1509
1509 1549 1550 1510
1510 1550 1551 1511
1511 1551 1552 1512
1512 1552 1553 1513
1513 1553 1554 1514
1514 1554 1555 1515
1515 1555 1556 1516
1516 1556 1557 1517
1517 1557 115 114
38 39 1558 1518
1518 1558 1559 1519
1519 1559 1560 1520
1520 1560 1561 1521
1521 1561 1562 1522
1522 1562 1563 1523
1523 1563 1564 1524
1524 1564 1565 1525
1525 1565 1566 1526
1526 1566 1567 1527
1527 1567 1568 1528
1528 1568 1569 1529
1529 1569 1570 1530
1530 1570 1571 1531
1531 1571 1572 1532
1532 1572 1573 1533
1533 1573 1574 1534
1534 1574 1575 1535
1535 1575 1576 1536
1536 1576 1577 1537
1537 1577 1578 1538
1538 1578 1579 1539
1539 1579 1580 1540
1540 1580 1581 1541
1541 1581 1582 1542
1542 1582 1583 1543
1543 1583 1584 1544
1544 1584 1585 1545
1545 1585 1586 1546
1546 1586 1587 1547
1547 1587 1588 1548
1548 1588 1589 1549
1549 1589 1590 1550
1550 1590 1591 1551
1551 1591 1592 1552
1552 1592 1593 1553
1553 1593 1594 1554
1554 1594 1595 1555
1555 1595 1596 1556
1556 1596 1597 1557
1557 1597 116 115
39 40 1598 1558
1558 1598 1599 1559
1559 1599 1600 1560
1560 1600 1601 1561
1561 1601 1602 1562
1562 1602 1603 1563
1563 1603 1604 1564
1564 1604 1605 1565
1565 1605 1606 1566
1566 1606 1607 1567
1567 1607 1608 1568
1568 1608 1609 1569
1569 1609 1610 1570
1570 1610 1611 1571
1571 1611 1612 1572
1572 1612 1613 1573
1573 1613 1614 1574
1574 1614 1615 1575
1575 1615 1616 1576
1576 1616 1617 1577
1577 1617 1618 1578
1578 1618 1619 1579
1579 1619 1620 1580
1580 1620 1621 1581
1581 1621 1622 1582
1582 1622 1623 1583
1583 1623 1624 1584
1584 1624 1625 1585
1585 1625 1626 1586
1586 1626 1627 1587
1587 1627 1628 1588
1588 1628 1629 1589
1589 1629 1630 1590
1590 1630 1631 1591
1591 1631 1632 1592
1592 1632 1633 1593
1593 1633 1634 1594
1594 1634 1635 1595
1595 1635 1636 1596
1596 1636 1637 1597
1597 1637 117 116
40 41 1638 1598
1598 1638 1639 1599
1599 1639 1640 1600
1600 1640 1641 1601
1601 1641 1642 1602
1602 1642 1643 1603
1603 1643 1644 1604
1604 1644 1645 1605
1605 1645 1646 1606
1606 1646 1647 1607
1607 1647 1648 1608
1608 1648 1649 1609
1609 1649 1650 1610
1610 1650 1651 1611
1611 1651 1652 1612
1612 1652 1653 1613
1613 1653 1654 1614
1614 1654 1655 1615
1615 1655 1656 1616
1616 1656 1657 1617
1617 1657 1658 1618
1618 1658 1659 1619
1619 1659 1660 1620
1620 1660 1661 1621
1621 1661 1662 1622
1622 1662 1663 1623
1623 1663 1664 1624
1624 1664 1665 1625
1625 1665 1666 1626
1626 1666 1667 1627
1627 1667 1668 1628
1628 1668 1669 1629
1629 1669 1670 1630
1630 1670 1671 1631
1631 1671 1672 1632
1632 1672 1673 1633
1633 1673 1674 1634
1634 1674 1675 1635
1635 1675 1676 1636
1636 1676 1677 1637
1637 1677 118 117
41 42 1678 1638
1638 1678 1679 1639
1639 1679 1680 1640
1640 1680 1681 1641
1641 1681 1682 1642
1642 1682 1683 1643
1643 1683 1684 1644
1644 1684 1685 1645
1645 1685 1686 1646
1646 1686 1687 1647
1647 1687 1688 1648
1648 1688 1689 1649
1649 1689 1690 1650
1650 1690 1691 1651
1651 1691 1692 1652
1652 1692 1693 1653
1653 1693 1694 1654
1654 1694 1695 1655
1655 1695 1696 1656
1656 1696 1697 1657
1657 1697 1698 1658
1658 1698 1699 1659
1659 1699 1700 1660
1660 1700 1701 1661
1661 1701 1702 1662
1662 1702 1703 1663
1663 1703 1704 1664
1664 1704 1705 1665
1665 1705 1706 1666
1666 1706 1707 1667
1667 1707 1708 1668
1668 1708 1709 1669
1669 1709 1710 1670
1670 1710 1711 1671
1671 1711 1712 1672
1672 1712 1713 1673
1673 1713 1714 1674
1674 1714 1715 1675
1675 1715 1716 1676
1676 1716 1717 1677
1677 1717 119 118
42 43 1718 1678
1678 1718 1719 1679
1679 1719 1720 1680
1680 1720 1721 1681
1681 1721 1722 1682
1682 1722 1723 1683
1683 1723 1724 1684
1684 1724 1725 1685
1685 1725 1726 1686
1686 1726 1727 1687
1687 1727 1728 1688
1688 1728 1729 1689
1689 1729 1730 1690
1690 1730 1731 1691
1691 1731 1732 1692
1692 1732 1733 1693
1693 1733 1734 1694
1694 1734 1735 1695
1695 1735 1736 1696
1696 1736 1737 1697
1697 1737 1738 1698
1698 1738 1739 1699
1699 1739 1740 1700
1700 1740 1741 1701
1701 1741 1742 1702
1702 1742 1743 1703
1703 1743 1744 1704
1704 1744 1745 1705
1705 1745 1746 1706
1706 1746 1747 1707
1707 1747 1748 1708
1708 1748 1749 1709
1709 1749 1750 1710
1710 1750 1751 1711
1711 1751 1752 1712
1712 1752 1753 1713
1713 1753 1754 1714
1714 1754 1755 1715
1715 1755 1756 1716
1716 1756 1757 1717
1717 1757 120 119
43 44 1758 1718
1718 1758 1759 1719
1719 1759 1760 1720
1720 1760 1761 1721
1721 1761 1762 1722
1722 1762 1763 1723
1723 1763 1764 1724
1724 1764 1765 1725
1725 1765 1766 1726
1726 1766 1767 1727
1727 1767 1768 1728
1728 1768 1769 1729
1729 1769 1770 1730
1730 1770 1771 1731
1731 1771 1772 1732
1732 1772 1773 1733
1733 1773 1774 1734
1734 1774 1775 1735
1735 1775 1776 1736
1736 1776 1777 1737
1737 1777 1778 1738
1738 1778 1779 1739
1739 1779 1780 1740
1740 1780 1781 1741
1741 1781 1782 1742
1742 1782 1783 1743
1743 1783 1784 1744
1744 1784 1785 1745
1745 1785 1786 1746
1746 1786 1787 1747
1747 1787 1788 1748
1748 1788 1789 1749
1749 1789 1790 1750
1750 1790 1791 1751
1751 1791 1792 1752
1752 1792 1793 1753
1753 1793 1794 1754
1754 1794 1795 1755
1755 1795 1796 1756
1756 1796 1797 1757
1757 1797 121 120
44 45 1798 1758
1758 1798 1799 1759
1759 1799 1800 1760
1760 1800 1801 1761
1761 1801 1802 1762
1762 1802 1803 1763
1763 1803 1804 1764
1764 1804 1805 1765
1765 1805 1806 1766
1766 1806 1807 1767
1767 1807 1808 1768
1768 1808 1809 1769
1769 1809 1810 1770
1770 1810 1811 1771
1771 1811 1812 1772
1772 1812 1813 1773
1773 1813 1814 1774
1774 1814 1815 1775
1775 1815 1816 1776
1776 1816 1817 1777
1777 1817 1818 1778
1778 1818 1819 1779
1779 1819 1820 1780
1780 1820 1821 1781
1781 1821 1822 1782
1782 1822 1823 1783
1783 1823 1824 1784
1784 1824 1825 1785
1785 1825 1826 1786
1786 1826 1827 1787
1787 1827 1828 1788
1788 1828 1829 1789
1789 1829 1830 1790
1790 1830 1831 1791
1791 1831 1832 1792
1792 1832 1833 1793
1793 1833 1834 1794
1794 1834 1835 1795
1795 1835 1836 1796
1796 1836 1837 1797
1797 1837 122 121
45 46 1838 1798
1798 1838 1839 1799
1799 1839 1840 1800
1800 1840 1841 1801
1801 1841 1842 1802
1802 1842 1843 1803
1803 1843 1844 1804
1804 1844 1845 1805
1805 1845 1846 1806
1806 1846 1847 1807
1807 1847 1848 1808
1808 1848 1849 1809
1809 1849 1850 1810
1810 1850 1851 1811
1811 1851 1852 1812
1812 1852 1853 1813
1813 1853 1854 1814
1814 1854 1855 1815
1815 1855 1856 1816
1816 1856 1857 1817
1817 1857 1858 1818
1818 1858 1859 1819
1819 1859 1860 1820
1820 1860 1861 1821
1821 1861 1862 1822
1822 1862 1863 1823
1823 1863 1864 1824
1824 1864 1865 1825
1825 1865 1866 1826
1826 1866 1867 1827
1827 1867 1868 1828
1828 1868 1869 1829
1829 1869 1870 1830
1830 1870 1871 1831
1831 1871 1872 1832
1832 1872 1873 1833
1833 1873 1874 1834
1834 1874 1875 1835
1835 1875 1876 1836
1836 1876 1877 1837
1837 1877 123 122
46 47 1878 1838
1838 1878 1879 1839
1839 1879 1880 1840
1840 1880 1881 1841
1841 1881 1882 1842
1842 1882 1883 1843
1843 1883 1884 1844
1844 1884 1885 1845
1845 1885 1886 1846
1846 1886 1887 1847
1847 1887 1888 1848
1848 1888 1889 1849
1849 1889 1890 1850
1850 1890 1891 1851
1851 1891 1892 1852
1852 1892 1893 1853
1853 1893 1894 1854
1854 1894 1895 1855
1855 1895 1896 1856
1856 1896 1897 1857
1857 1897 1898 1858
1858 1898 1899 1859
1859 1899 1900 1860
1860 1900 1901 1861
1861 1901 1902 1862
1862 1902 1903 1863
1863 1903 1904 1864
1864 1904 1905 1865
1865 1905 1906 1866
1866 1906 1907 1867
1867 1907 1908 1868
1868 1908 1909 1869
1869 1909 1910 1870
1870 1910 1911 1871
1871 1911 1912 1872
1872 1912 1913 1873
1873 1913 1914 1874
1874 1914 1915 1875
1875 1915 1916 1876
1876 1916 1917 1877
1877 1917 124 123
47 48 1918 1878
1878 1918 1919 1879
1879 1919 1920 1880
1880 1920 1921 1881
1881 1921 1922 1882
1882 1922 1923 1883
1883 1923 1924 1884
1884 1924 1925 1885
1885 1925 1926 1886
1886 1926 1927 1887
1887 1927 1928 1888
1888 1928 1929 1889
1889 1929 1930 1890
1890 1930 1931 1891
1891 1931 1932 1892
1892 1932 1933 1893
1893 1933 1934 1894
1894 1934 1935 1895
1895 1935 1936 1896
1896 1936 1937 1897
1897 1937 1938 1898
1898 1938 1939 1899
1899 1939 1940 1900
1900 1940 1941 1901
1901 1941 1942 1902
1902 1942 1943 1903
1903 1943 1944 1904
1904 1944 1945 1905
1905 1945 1946 1906
1906 1946 1947 1907
1907 1947 1948 1908
1908 1948 1949 1909
1909 1949 1950 1910
1910 1950 1951 1911
1911 1951 1952 1912
1912 1952 1953 1913
1913 1953 1954 1914
1914 1954 1955 1915
1915 1955 1956 1916
1916 1956 1957 1917
1917 1957 125 124
48 49 1958 1918
1918 1958 1959 1919
1919 1959 1960 1920
1920 1960 1961 1921
1921 1961 1962 1922
1922 1962 1963 1923
1923 1963 1964 1924
1924 1964 1965 1925
1925 1965 1966 1926
1926 1966 1967 1927
1927 1967 1968 1928
1928 1968 1969 1929
1929 1969 1970 1930
1930 1970 1971 1931
1931 1971 1972 1932
1932 1972 1973 1933
1933 1973 1974 1934
1934 1974 1975 1935
1935 1975 1976 1936
1936 1976 1977 1937
1937 1977 1978 1938
1938 1978 1979 1939
1939 1979 1980 1940
1940 1980 1981 1941
1941 1981 1982 1942
1942 1982 1983 1943
1943 1983 1984 1944
1944 1984 1985 1945
1945 1985 1986 1946
1946 1986 1987 1947
1947 1987 1988 1948
1948 1988 1989 1949
1949 1989 1990 1950
1950 1990 1991 1951
1951 1991 1992 1952
1952 1992 1993 1953
1953 1993 1994 1954
1954 1994 1995 1955
1955 1995 1996 1956
1956 1996 1997 1957
1957 1997 126 125
49 1 1998 1958
1958 1998 1999 1959
1959 1999 2000 1960
1960 2000 2001 1961
1961 2001 2002 1962
1962 2002 2003 1963
1963 2003 2004 1964
1964 2004 2005 1965
1965 2005 2006 1966
1966 2006 2007 1967
1967 2007 2008 1968
1968 2008 2009 1969
1969 2009 2010 1970
1970 2010 2011 1971
1971 2011 2012 1972
1972 2012 2013 1973
1973 2013 2014 1974
1974 2014 2015 1975
1975 2015 2016 1976
1976 2016 2017 1977
1977 2017 2018 1978
1978 2018 2019 1979
1979 2019 2020 1980
1980 2020 2021 1981
1981 2021 2022 1982
1982 2022 2023 1983
1983 2023 2024 1984
1984 2024 2025 1985
1985 2025 2026 1986
1986 2026 2027 1987
1987 2027 2028 1988
1988 2028 2029 1989
1989 2029 2030 1990
1990 2030 2031 1991
1991 2031 2032 1992
1992 2032 2033 1993
1993 2033 2034 1994
1994 2034 2035 1995
1995 2035 2036 1996
1996 2036 2037 1997
1997 2037 127 126
1 50 2038 1998
1998 2038 2039 1999
1999 2039 2040 2000
2000 2040 2041 2001
2001 2041 2042 2002
2002 2042 2043 2003
2003 2043 2044 2004
2004 2044 2045 2005
2005 2045 2046 2006
2006 2046 2047 2007
2007 2047 2048 2008
2008 2048 2049 2009
2009 2049 2050 2010
2010 2050 2051 2011
2011 2051 2052 2012
2012 2052 2053 2013
2013 2053 2054 2014
2014 2054 2055 2015
2015 2055 2056 2016
2016 2056 2057 2017
2017 2057 2058 2018
2018 2058 2059 2019
2019 2059 2060 2020
2020 2060 2061 2021
2021 2061 2062 2022
2022 2062 2063 2023
2023 2063 2064 2024
2024 2064 2065 2025
2025 2065 2066 2026
2026 2066 2067 2027
2027 2067 2068 2028
2028 2068 2069 2029
2029 2069 2070 2030
2030 2070 2071 2031
2031 2071 2072 2032
2032 2072 2073 2033
2033 2073 2074 2034
2034 2074 2075 2035
2035 2075 2076 2036
2036 2076 2077 2037
2037 2077 128 127
50 51 2078 2038
2038 2078 2079 2039
2039 2079 2080 2040
2040 2080 2081 2041
2041 2081 2082 2042
2042 2082 2083 2043
2043 2083 2084 2044
2044 2084 2085 2045
2045 2085 2086 2046
2046 2086 2087 2047
2047 2087 2088 2048
2048 2088 2089 2049
2049 2089 2090 2050
2050 2090 2091 2051
2051 2091 2092 2052
2052 2092 2093 2053
2053 2093 2094 2054
2054 2094 2095 2055
2055 2095 2096 2056
2056 2096 2097 2057
2057 2097 2098 2058
2058 2098 2099 2059
2059 2099 2100 2060
2060 2100 2101 2061
2061 2101 2102 2062
2062 2102 2103 2063
2063 2103 2104 2064
2064 2104 2105 2065
2065 2105 2106 2066
2066 2106 2107 2067
2067 2107 2108 2068
2068 2108 2109 2069
2069 2109 2110 2070
2070 2110 2111 2071
2071 2111 2112 2072
2072 2112 2113 2073
2073 2113 2114 2074
2074 2114 2115 2075
2075 2115 2116 2076
2076 2116 2117 2077
2077 2117 129 128
51 52 2118 2078
2078 2118 2119 2079
2079 2119 2120 2080
2080 2120 2121 2081
2081 2121 2122 2082
2082 2122 2123 2083
2083 2123 2124 2084
2084 2124 2125 2085
2085 2125 2126 2086
2086 2126 2127 2087
2087 2127 2128 2088
2088 2128 2129 2089
2089 2129 2130 2090
2090 2130 2131 2091
2091 2131 2132 2092
2092 2132 2133 2093
2093 2133 2134 2094
2094 2134 2135 2095
2095 2135 2136 2096
2096 2136 2137 2097
2097 2137 2138 2098
2098 2138 2139 2099
2099 2139 2140 2100
2100 2140 2141 2101
2101 2141 2142 2102
2102 2142 2143 2103
2103 2143 2144 2104
2104 2144 2145 2105
2105 2145 2146 2106
2106 2146 2147 2107
2107 2147 2148 2108
2108 2148 2149 2109
2109 2149 2150 2110
2110 2150 2151 2111
2111 2151 2152 2112
2112 2152 2153 2113
2113 2153 2154 2114
2114 2154 2155 2115
2115 2155 2156 2116
2116 2156 2157 2117
2117 2157 130 129
52 53 2158 2118
2118 2158 2159 2119
2119 2159 2160 2120
2120 2160 2161 2121
2121 2161 2162 2122
2122 2162 2163 2123
2123 2163 2164 2124
2124 2164 2165 2125
2125 2165 2166 2126
2126 2166 2167 2127
2127 2167 2168 2128
2128 2168 2169 2129
2129 2169 2170 2130
2130 2170 2171 2131
2131 2171 2172 2132
2132 2172 2173 2133
2133 2173 2174 2134
2134 2174 2175 2135
2135 2175 2176 2136
2136 2176 2177 2137
2137 2177 2178 2138
2138 2178 2179 2139
2139 2179 2180 2140
2140 2180 2181 2141
2141 2181 2182 2142
2142 2182 2183 2143
2143 2183 2184 2144
2144 2184 2185 2145
2145 2185 2186 2146
2146 2186 2187 2147
2147 2187 2188 2148
2148 2188 2189 2149
2149 2189 2190 2150
2150 2190 2191 2151
2151 2191 2192 2152
2152 2192 2193 2153
2153 2193 2194 2154
2154 2194 2195 2155
2155 2195 2196 2156
2156 2196 2197 2157
2157 2197 131 130
53 54 2198 2158
2158 2198 2199 2159
2159 2199 2200 2160
2160 2200 2201 2161
2161 2201 2202 2162
2162 2202 2203 2163
2163 2203 2204 2164
2164 2204 2205 2165
2165 2205 2206 2166
2166 2206 2207 2167
2167 2207 2208 2168
2168 2208 2209 2169
2169 2209 2210 2170
2170 2210 2211 2171
2171 2211 2212 2172
2172 2212 2213 2173
2173 2213 2214 2174
2174 2214 2215 2175
2175 2215 2216 2176
2176 2216 2217 2177
2177 2217 2218 2178
2178 2218 2219 2179
2179 2219 2220 2180
2180 2220 2221 2181
2181 2221 2222 2182
2182 2222 2223 2183
2183 2223 2224 2184
2184 2224 2225 2185
2185 2225 2226 2186
2186 2226 2227 2187
2187 2227 2228 2188
2188 2228 2229 2189
2189 2229 2230 2190
2190 2230 2231 2191
2191 2231 2232 2192
2192 2232 2233 2193
2193 2233 2234 2194
2194 2234 2235 2195
2195 2235 2236 2196
2196 2236 2237 2197
2197 2237 132 131
54 55 2238 2198
2198 2238 2239 2199
2199 2239 2240 2200
2200 2240 2241 2201
2201 2241 2242 2202
2202 2242 2243 2203
2203 2243 2244 2204
2204 2244 2245 2205
2205 2245 2246 2206
2206 2246 2247 2207
2207 2247 2248 2208
2208 2248 2249 2209
2209 2249 2250 2210
2210 2250 2251 2211
2211 2251 2252 2212
2212 2252 2253 2213
2213 2253 2254 2214
2214 2254 2255 2215
2215 2255 2256 2216
2216 2256 2257 2217
2217 2257 2258 2218
2218 2258 2259 2219
2219 2259 2260 2220
2220 2260 2261 2221
2221 2261 2262 2222
2222 2262 2263 2223
2223 2263 2264 2224
2224 2264 2265 2225
2225 2265 2266 2226
2226 2266 2267 2227
2227 2267 2268 2228
2228 2268 2269 2229
2229 2269 2270 2230
2230 2270 2271 2231
2231 2271 2272 2232
2232 2272 2273 2233
2233 2273 2274 2234
2234 2274 2275 2235
2235 2275 2276 2236
2236 2276 2277 2237
2237 2277 133 132
55 56 2278 2238
2238 2278 2279 2239
2239 2279 2280 2240
2240 2280 2281 2241
2241 2281 2282 2242
2242 2282 2283 2243
2243 2283 2284 2244
2244 2284 2285 2245
2245 2285 2286 2246
2246 2286 2287 2247
2247 2287 2288 2248
2248 2288 2289 2249
2249 2289 2290 2250
2250 2290 2291 2251
2251 2291 2292 2252
2252 2292 2293 2253
2253 2293 2294 2254
2254 2294 2295 2255
2255 2295 2296 2256
2256 2296 2297 2257
2257 2297 2298 2258
2258 2298 2299 2259
2259 2299 2300 2260
2260 2300 2301 2261
2261 2301 2302 2262
2262 2302 2303 2263
2263 2303 2304 2264
2264 2304 2305 2265
2265 2305 2306 2266
2266 2306 2307 2267
2267 2307 2308 2268
2268 2308 2309 2269
2269 2309 2310 2270
2270 2310 2311 2271
2271 2311 2312 2272
2272 2312 2313 2273
2273 2313 2314 2274
2274 2314 2315 2275
2275 2315 2316 2276
2276 2316 2317 2277
2277 2317 134 133
56 57 2318 2278
2278 2318 2319 2279
2279 2319 2320 2280
2280 2320 2321 2281
2281 2321 2322 2282
2282 2322 2323 2283
2283 2323 2324 2284
2284 2324 2325 2285
2285 2325 2326 2286
2286 2326 2327 2287
2287 2327 2328 2288
2288 2328 2329 2289
2289 2329 2330 2290
2290 2330 2331 2291
2291 2331 2332 2292
2292 2332 2333 2293
2293 2333 2334 2294
2294 2334 2335 2295
2295 2335 2336 2296
2296 2336 2337 2297
2297 2337 2338 2298
2298 2338 2339 2299
2299 2339 2340 2300
2300 2340 2341 2301
2301 2341 2342 2302
2302 2342 2343 2303
2303 2343 2344 2304
2304 2344 2345 2305
2305 2345 2346 2306
2306 2346 2347 2307
2307 2347 2348 2308
2308 2348 2349 2309
2309 2349 2350 2310
2310 2350 2351 2311
2311 2351 2352 2312
2312 2352 2353 2313
2313 2353 2354 2314
2314 2354 2355 2315
2315 2355 2356 2316
2316 2356 2357 2317
2317 2357 135 134
57 58 2358 2318
2318 2358 2359 2319
2319 2359 2360 2320
2320 2360 2361 2321
2321 2361 2362 2322
2322 2362 2363 2323
2323 2363 2364 2324
2324 2364 2365 2325
2325 2365 2366 2326
2326 2366 2367 2327
2327 2367 2368 2328
2328 2368 2369 2329
2329 2369 2370 2330
2330 2370 2371 2331
2331 2371 2372 2332
2332 2372 2373 2333
2333 2373 2374 2334
2334 2374 2375 2335
2335 2375 2376 2336
2336 2376 2377 2337
2337 2377 2378 2338
2338 2378 2379 2339
2339 2379 2380 2340
2340 2380 2381 2341
2341 2381 2382 2342
2342 2382 2383 2343
2343 2383 2384 2344
2344 2384 2385 2345
2345 2385 2386 2346
2346 2386 2387 2347
2347 2387 2388 2348
2348 2388 2389 2349
2349 2389 2390 2350
2350 2390 2391 2351
2351 2391 2392 2352
2352 2392 2393 2353
2353 2393 2394 2354
2354 2394 2395 2355
2355 2395 2396 2356
2356 2396 2397 2357
2357 2397 136 135
58 59 2398 2358
2358 2398 2399 2359
2359 2399 2400 2360
2360 2400 2401 2361
2361 2401 2402 2362
2362 2402 2403 2363
2363 2403 2404 2364
2364 2404 2405 2365
2365 2405 2406 2366
2366 2406 2407 2367
2367 2407 2408 2368
2368 2408 2409 2369
2369 2409 2410 2370
2370 2410 2411 2371
2371 2411 2412 2372
2372 2412 2413 2373
2373 2413 2414 2374
2374 2414 2415 2375
2375 2415 2416 2376
2376 2416 2417 2377
2377 2417 2418 2378
2378 2418 2419 2379
2379 2419 2420 2380
2380 2420 2421 2381
2381 2421 2422 2382
2382 2422 2423 2383
2383 2423 2424 2384
2384 2424 2425 2385
2385 2425 2426 2386
2386 2426 2427 2387
2387 2427 2428 2388
2388 2428 2429 2389
2389 2429 2430 2390
2390 2430 2431 2391
2391 2431 2432 2392
2392 2432 2433 2393
2393 2433 2434 2394
2394 2434 2435 2395
2395 2435 2436 2396
2396 2436 2437 2397
2397 2437 137 136
59 60 2438 2398
2398 2438 2439 2399
2399 2439 2440 2400
2400 2440 2441 2401
2401 2441 2442 2402
2402 2442 2443 2403
2403 2443 2444 2404
2404 2444 2445 2405
2405 2445 2446 2406
2406 2446 2447 2407
2407 2447 2448 2408
2408 2448 2449 2409
2409 2449 2450 2410
2410 2450 2451 2411
2411 2451 2452 2412
2412 2452 2453 2413
2413 2453 2454 2414
2414 2454 2455 2415
2415 2455 2456 2416
2416 2456 2457 2417
2417 2457 2458 2418
2418 2458 2459 2419
2419 2459 2460 2420
2420 2460 2461 2421
2421 2461 2462 2422
2422 2462 2463 2423
2423 2463 2464 2424
2424 2464 2465 2425
2425 2465 2466 2426
2426 2466 2467 2427
2427 2467 2468 2428
2428 2468 2469 2429
2429 2469 2470 2430
2430 2470 2471 2431
2431 2471 2472 2432
2432 2472 2473 2433
2433 2473 2474 2434
2434 2474 2475 2435
2435 2475 2476 2436
2436 2476 2477 2437
2437 2477 138 137
60 61 2478 2438
2438 2478 2479 2439
2439 2479 2480 2440
2440 2480 2481 2441
2441 2481 2482 2442
2442 2482 2483 2443
2443 2483 2484 2444
2444 2484 2485 2445
2445 2485 2486 2446
2446 2486 2487 2447
2447 2487 2488 2448
2448 2488 2489 2449
2449 2489 2490 2450
2450 2490 2491 2451
2451 2491 2492 2452
2452 2492 2493 2453
2453 2493 2494 2454
2454 2494 2495 2455
2455 2495 2496 2456
2456 2496 2497 2457
2457 2497 2498 2458
2458 2498 2499 2459
2459 2499 2500 2460
2460 2500 2501 2461
2461 2501 2502 2462
2462 2502 2503 2463
2463 2503 2504 2464
2464 2504 2505 2465
2465 2505 2506 2466
2466 2506 2507 2467
2467 2507 2508 2468
2468 2508 2509 2469
2469 2509 2510 2470
2470 2510 2511 2471
2471 2511 2512 2472
2472 2512 2513 2473
2473 2513 2514 2474
2474 2514 2515 2475
2475 2515 2516 2476
2476 2516 2517 2477
2477 2517 139 138
61 62 2518 2478
2478 2518 2519 2479
2479 2519 2520 2480
2480 2520 2521 2481
2481 2521 2522 2482
2482 2522 2523 2483
2483 2523 2524 2484
2484 2524 2525 2485
2485 2525 2526 2486
2486 2526 2527 2487
2487 2527 2528 2488
2488 2528 2529 2489
2489 2529 2530 2490
2490 2530 2531 2491
2491 2531 2532 2492
2492 2532 2533 2493
2493 2533 2534 2494
2494 2534 2535 2495
2495 2535 2536 2496
2496 2536 2537 2497
2497 2537 2538 2498
2498 2538 2539 2499
2499 2539 2540 2500
2500 2540 2541 2501
2501 2541 2542 2502
2502 2542 2543 2503
2503 2543 2544 2504
2504 2544 2545 2505
2505 2545 2546 2506
2506 2546 2547 2507
2507 2547 2548 2508
2508 2548 2549 2509
2509 2549 2550 2510
2510 2550 2551 2511
2511 2551 2552 2512
2512 2552 2553 2513
2513 2553 2554 2514
2514 2554 2555 2515
2515 2555 2556 2516
2516 2556 2557 2517
2517 2557 140 139
62 63 2558 2518
2518 2558 2559 2519
2519 2559 2560 2520
2520 2560 2561 2521
2521 2561 2562 2522
2522 2562 2563 2523
2523 2563 2564 2524
2524 2564 2565 2525
2525 2565 2566 2526
2526 2566 2567 2527
2527 2567 2568 2528
2528 2568 2569 2529
2529 2569 2570 2530
2530 2570 2571 2531
2531 2571 2572 2532
2532 2572 2573 2533
2533 2573 2574 2534
2534 2574 2575 2535
2535 2575 2576 2536
2536 2576 2577 2537
2537 2577 2578 2538
2538 2578 2579 2539
2539 2579 2580 2540
2540 2580 2581 2541
2541 2581 2582 2542
2542 2582 2583 2543
2543 2583 2584 2544
2544 2584 2585 2545
2545 2585 2586 2546
2546 2586 2587 2547
2547 2587 2588 2548
2548 2588 2589 2549
2549 2589 2590 2550
2550 2590 2591 2551
2551 2591 2592 2552
2552 2592 2593 2553
2553 2593 2594 2554
2554 2594 2595 2555
2555 2595 2596 2556
2556 2596 2597 2557
2557 2597 141 140
63 64 2598 2558
2558 2598 2599 2559
2559 2599 2600 2560
2560 2600 2601 2561
2561 2601 2602 2562
2562 2602 2603 2563
2563 2603 2604 2564
2564 2604 2605 2565
2565 2605 2606 2566
2566 2606 2607 2567
2567 2607 2608 2568
2568 2608 2609 2569
2569 2609 2610 2570
2570 2610 2611 2571
2571 2611 2612 2572
2572 2612 2613 2573
2573 2613 2614 2574
2574 2614 2615 2575
2575 2615 2616 2576
2576 2616 2617 2577
2577 2617 2618 2578
2578 2618 2619 2579
2579 2619 2620 2580
2580 2620 2621 2581
2581 2621 2622 2582
2582 2622 2623 2583
2583 2623 2624 2584
2584 2624 2625 2585
2585 2625 2626 2586
2586 2626 2627 2587
2587 2627 2628 2588
2588 2628 2629 2589
2589 2629 2630 2590
2590 2630 2631 2591
2591 2631 2632 2592
2592 2632 2633 2593
2593 2633 2634 2594
2594 2634 2635 2595
2595 2635 2636 2596
2596 2636 2637 2597
2597 2637 142 141
64 65 2638 2598
2598 2638 2639 2599
2599 2639 2640 2600
2600 2640 2641 2601
2601 2641 2642 2602
2602 2642 2643 2603
2603 2643 2644 2604
2604 2644 2645 2605
2605 2645 2646 2606
2606 2646 2647 2607
2607 2647 2648 2608
2608 2648 2649 2609
2609 2649 2650 2610
2610 2650 2651 2611
2611 2651 2652 2612
2612 2652 2653 2613
2613 2653 2654 2614
2614 2654 2655 2615
2615 2655 2656 2616
2616 2656 2657 2617
2617 2657 2658 2618
2618 2658 2659 2619
2619 2659 2660 2620
2620 2660 2661 2621
2621 2661 2662 2622
2622 2662 2663 2623
2623 2663 2664 2624
2624 2664 2665 2625
2625 2665 2666 2626
2626 2666 2667 2627
2627 2667 2668 2628
2628 2668 2669 2629
2629 2669 2670 2630
2630 2670 2671 2631
2631 2671 2672 2632
2632 2672 2673 2633
2633 2673 2674 2634
2634 2674 2675 2635
2635 2675 2676 2636
2636 2676 2677 2637
2637 2677 143 142
65 66 2678 2638
2638 2678 2679 2639
2639 2679 2680 2640
2640 2680 2681 2641
2641 2681 2682 2642
2642 2682 2683 2643
2643 2683 2684 2644
2644 2684 2685 2645
2645 2685 2686 2646
2646 2686 2687 2647
2647 2687 2688 2648
2648 2688 2689 2649
2649 2689 2690 2650
2650 2690 2691 2651
2651 2691 2692 2652
2652 2692 2693 2653
2653 2693 2694 2654
2654 2694 2695 2655
2655 2695 2696 2656
2656 2696 2697 2657
2657 2697 2698 2658
2658 2698 2699 2659
2659 2699 2700 2660
2660 2700 2701 2661
2661 2701 2702 2662
2662 2702 2703 2663
2663 2703 2704 2664
2664 2704 2705 2665
2665 2705 2706 2666
2666 2706 2707 2667
2667 2707 2708 2668
2668 2708 2709 2669
2669 2709 2710 2670
2670 2710 2711 2671
2671 2711 2712 2672
2672 2712 2713 2673
2673 2713 2714 2674
2674 2714 2715 2675
2675 2715 2716 2676
2676 2716 2717 2677
2677 2717 144 143
66 67 2718 2678
2678 2718 2719 2679
2679 2719 2720 2680
2680 2720 2721 2681
2681 2721 2722 2682
2682 2722 2723 2683
2683 2723 2724 2684
2684 2724 2725 2685
2685 2725 2726 2686
2686 2726 2727 2687
2687 2727 2728 2688
2688 2728 2729 2689
2689 2729 2730 2690
2690 2730 2731 2691
2691 2731 2732 2692
2692 2732 2733 2693
2693 2733 2734 2694
2694 2734 2735 2695
2695 2735 2736 2696
2696 2736 2737 2697
2697 2737 2738 2698
2698 2738 2739 2699
2699 2739 2740 2700
2700 2740 2741 2701
2701 2741 2742 2702
2702 2742 2743 2703
2703 2743 2744 2704
2704 2744 2745 2705
2705 2745 2746 2706
2706 2746 2747 2707
2707 2747 2748 2708
2708 2748 2749 2709
2709 2749 2750 2710
2710 2750 2751 2711
2711 2751 2752 2712
2712 2752 2753 2713
2713 2753 2754 2714
2714 2754 2755 2715
2715 2755 2756 2716
2716 2756 2757 2717
2717 2757 145 144
67 68 2758 2718
2718 2758 2759 2719
2719 2759 2760 2720
2720 2760 2761 2721
2721 2761 2762 2722
2722 2762 2763 2723
2723 2763 2764 2724
2724 2764 2765 2725
2725 2765 2766 2726
2726 2766 2767 2727
2727 2767 2768 2728
2728 2768 2769 2729
2729 2769 2770 2730
2730 2770 2771 2731
2731 2771 2772 2732
2732 2772 2773 2733
2733 2773 2774 2734
2734 2774 2775 2735
2735 2775 2776 2736
2736 2776 2777 2737
2737 2777 2778 2738
2738 2778 2779 2739
2739 2779 2780 2740
2740 2780 2781 2741
2741 2781 2782 2742
2742 2782 2783 2743
2743 2783 2784 2744
2744 2784 2785 2745
2745 2785 2786 2746
2746 2786 2787 2747
2747 2787 2788 2748
2748 2788 2789 2749
2749 2789 2790 2750
2750 2790 2791 2751
2751 2791 2792 2752
2752 2792 2793 2753
2753 2793 2794 2754
2754 2794 2795 2755
2755 2795 2796 2756
2756 2796 2797 2757
2757 2797 146 145
68 69 2798 2758
2758 2798 2799 2759
2759 2799 2800 2760
2760 2800 2801 2761
2761 2801 2802 2762
2762 2802 2803 2763
2763 2803 2804 2764
2764 2804 2805 2765
2765 2805 2806 2766
2766 2806 2807 2767
2767 2807 2808 2768
2768 2808 2809 2769
2769 2809 2810 2770
2770 2810 2811 2771
2771 2811 2812 2772
2772 2812 2813 2773
2773 2813 2814 2774
2774 2814 2815 2775
2775 2815 2816 2776
2776 2816 2817 2777
2777 2817 2818 2778
2778 2818 2819 2779
2779 2819 2820 2780
2780 2820 2821 2781
2781 2821 2822 2782
2782 2822 2823 2783
2783 2823 2824 2784
2784 2824 2825 2785
2785 2825 2826 2786
2786 2826 2827 2787
2787 2827 2828 2788
2788 2828 2829 2789
2789 2829 2830 2790
2790 2830 2831 2791
2791 2831 2832 2792
2792 2832 2833 2793
2793 2833 2834 2794
2794 2834 2835 2795
2795 2835 2836 2796
2796 2836 2837 2797
2797 2837 5 146
69 70 2838 2798
2798 2838 2839 2799
2799 2839 2840 2800
2800 2840 2841 2801
2801 2841 2842 2802
2802 2842 2843 2803
2803 2843 2844 2804
2804 2844 2845 2805
2805 2845 2846 2806
2806 2846 2847 2807
2807 2847 2848 2808
2808 2848 2849 2809
2809 2849 2850 2810
2810 2850 2851 2811
2811 2851 2852 2812
2812 2852 2853 2813
2813 2853 2854 2814
2814 2854 2855 2815
2815 2855 2856 2816
2816 2856 2857 2817
2817 2857 2858 2818
2818 2858 2859 2819
2819 2859 2860 2820
2820 2860 2861 2821
2821 2861 2862 2822
2822 2862 2863 2823
2823 2863 2864 2824
2824 2864 2865 2825
2825 2865 2866 2826
2826 2866 2867 2827
2827 2867 2868 2828
2828 2868 2869 2829
2829 2869 2870 2830
2830 2870 2871 2831
2831 2871 2872 2832
2832 2872 2873 2833
2833 2873 2874 2834
2834 2874 2875 2835
2835 2875 2876 2836
2836 2876 2877 2837
2837 2877 147 5
70 71 2878 2838
2838 2878 2879 2839
2839 2879 2880 2840
2840 2880 2881 2841
2841 2881 2882 2842
2842 2882 2883 2843
2843 2883 2884 2844
2844 2884 2885 2845
2845 2885 2886 2846
2846 2886 2887 2847
2847 2887 2888 2848
2848 2888 2889 2849
2849 2889 2890 2850
2850 2890 2891 2851
2851 2891 2892 2852
2852 2892 2893 2853
2853 2893 2894 2854
2854 2894 2895 2855
2855 2895 2896 2856
2856 2896 2897 2857
2857 2897 2898 2858
2858 2898 2899 2859
2859 2899 2900 2860
2860 2900 2901 2861
2861 2901 2902 2862
2862 2902 2903 2863
2863 2903 2904 2864
2864 2904 2905 2865
2865 2905 2906 2866
2866 2906 2907 2867
2867 2907 2908 2868
2868 2908 2909 2869
2869 2909 2910 2870
2870 2910 2911 2871
2871 2911 2912 2872
2872 2912 2913 2873
2873 2913 2914 2874
2874 2914 2915 2875
2875 2915 2916 2876
2876 2916 2917 2877
2877 2917 148 147
71 72 2918 2878
2878 2918 2919 2879
2879 2919 2920 2880
2880 2920 2921 2881
2881 2921 2922 2882
2882 2922 2923 2883
2883 2923 2924 2884
2884 2924 2925 2885
2885 2925 2926 2886
2886 2926 2927 2887
2887 2927 2928 2888
2888 2928 2929 2889
2889 2929 2930 2890
2890 2930 2931 2891
2891 2931 2932 2892
2892 2932 2933 2893
2893 2933 2934 2894
2894 2934 2935 2895
2895 2935 2936 2896
2896 2936 2937 2897
2897 2937 2938 2898
2898 2938 2939 2899
2899 2939 2940 2900
2900 2940 2941 2901
2901 2941 2942 2902
2902 2942 2943 2903
2903 2943 2944 2904
2904 2944 2945 2905
2905 2945 2946 2906
2906 2946 2947 2907
2907 2947 2948 2908
2908 2948 2949 2909
2909 2949 2950 2910
2910 2950 2951 2911
2911 2951 2952 2912
2912 2952 2953 2913
2913 2953 2954 2914
2914 2954 2955 2915
2915 2955 2956 2916
2916 2956 2957 2917
2917 2957 149 148
72 73 2958 2918
2918 2958 2959 2919
2919 2959 2960 2920
2920 2960 2961 2921
2921 2961 2962 2922
2922 2962 2963 2923
2923 2963 2964 2924
2924 2964 2965 2925
2925 2965 2966 2926
2926 2966 2967 2927
2927 2967 2968 2928
2928 2968 2969 2929
2929 2969 2970 2930
2930 2970 2971 2931
2931 2971 2972 2932
2932 2972 2973 2933
2933 2973 2974 2934
2934 2974 2975 2935
2935 2975 2976 2936
2936 2976 2977 2937
2937 2977 2978 2938
2938 2978 2979 2939
2939 2979 2980 2940
2940 2980 2981 2941
2941 2981 2982 2942
2942 2982 2983 2943
2943 2983 2984 2944
2944 2984 2985 2945
2945 2985 2986 2946
2946 2986 2987 2947
2947 2987 2988 2948
2948 2988 2989 2949
2949 2989 2990 2950
2950 2990 2991 2951
2951 2991 2992 2952
2952 2992 2993 2953
2953 2993 2994 2954
2954 2994 2995 2955
2955 2995 2996 2956
2956 2996 2997 2957
2957 2997 150 149
73 74 2998 2958
2958 2998 2999 2959
2959 2999 3000 2960
2960 3000 3001 2961
2961 3001 3002 2962
2962 3002 3003 2963
2963 3003 3004 2964
2964 3004 3005 2965
2965 3005 3006 2966
2966 3006 3007 2967
2967 3007 3008 2968
2968 3008 3009 2969
2969 3009 3010 2970
2970 3010 3011 2971
2971 3011 3012 2972
2972 3012 3013 2973
2973 3013 3014 2974
2974 3014 3015 2975
2975 3015 3016 2976
2976 3016 3017 2977
2977 3017 3018 2978
2978 3018 3019 2979
2979 3019 3020 2980
2980 3020 3021 2981
2981 3021 3022 2982
2982 3022 3023 2983
2983 3023 3024 2984
2984 3024 3025 2985
2985 3025 3026 2986
2986 3026 3027 2987
2987 3027 3028 2988
2988 3028 3029 2989
2989 3029 3030 2990
2990 3030 3031 2991
2991 3031 3032 2992
2992 3032 3033 2993
2993 3033 3034 2994
2994 3034 3035 2995
2995 3035 3036 2996
2996 3036 3037 2997
2997 3037 151 150
74 75 3038 2998
2998 3038 3039 2999
2999 3039 3040 3000
3000 3040 3041 3001
3001 3041 3042 3002
3002 3042 3043 3003
3003 3043 3044 3004
3004 3044 3045 3005
3005 3045 3046 3006
3006 3046 3047 3007
3007 3047 3048 3008
3008 3048 3049 3009
3009 3049 3050 3010
3010 3050 3051 3011
3011 3051 3052 3012
3012 3052 3053 3013
3013 3053 3054 3014
3014 3054 3055 3015
3015 3055 3056 3016
3016 3056 3057 3017
3017 3057 3058 3018
3018 3058 3059 3019
3019 3059 3060 3020
3020 3060 3061 3021
3021 3061 3062 3022
3022 3062 3063 3023
3023 3063 3064 3024
3024 3064 3065 3025
3025 3065 3066 3026
3026 3066 3067 3027
3027 3067 3068 3028
3028 3068 3069 3029
3029 3069 3070 3030
3030 3070 3071 3031
3031 3071 3072 3032
3032 3072 3073 3033
3033 3073 3074 3034
3034 3074 3075 3035
3035 3075 3076 3036
3036 3076 3077 3037
3037 3077 152 151
75 76 3078 3038
3038 3078 3079 3039
3039 3079 3080 3040
3040 3080 3081 3041
3041 3081 3082 3042
3042 3082 3083 3043
3043 3083 3084 3044
3044 3084 3085 3045
3045 3085 3086 3046
3046 3086 3087 3047
3047 3087 3088 3048
3048 3088 3089 3049
3049 3089 3090 3050
3050 3090 3091 3051
3051 3091 3092 3052
3052 3092 3093 3053
3053 3093 3094 3054
3054 3094 3095 3055
3055 3095 3096 3056
3056 3096 3097 3057
3057 3097 3098 3058
3058 3098 3099 3059
3059 3099 3100 3060
3060 3100 3101 3061
3061 3101 3102 3062
3062 3102 3103 3063
3063 3103 3104 3064
3064 3104 3105 3065
3065 3105 3106 3066
3066 3106 3107 3067
3067 3107 3108 3068
3068 3108 3109 3069
3069 3109 3110 3070
3070 3110 3111 3071
3071 3111 3112 3072
3072 3112 3113 3073
3073 3113 3114 3074
3074 3114 3115 3075
3075 3115 3116 3076
3076 3116 3117 3077
3077 3117 153 152
76 77 3118 3078
3078 3118 3119 3079
3079 3119 3120 3080
3080 3120 3121 3081
3081 3121 3122 3082
3082 3122 3123 3083
3083 3123 3124 3084
3084 3124 3125 3085
3085 3125 3126 3086
3086 3126 3127 3087
3087 3127 3128 3088
3088 3128 3129 3089
3089 3129 3130 3090
3090 3130 3131 3091
3091 3131 3132 3092
3092 3132 3133 3093
3093 3133 3134 3094
3094 3134 3135 3095
3095 3135 3136 3096
3096 3136 3137 3097
3097 3137 3138 3098
3098 3138 3139 3099
3099 3139 3140 3100
3100 3140 3141 3101
3101 3141 3142 3102
3102 3142 3143 3103
3103 3143 3144 3104
3104 3144 3145 3105
3105 3145 3146 3106
3106 3146 3147 3107
3107 3147 3148 3108
3108 3148 3149 3109
3109 3149 3150 3110
3110 3150 3151 3111
3111 3151 3152 3112
3112 3152 3153 3113
3113 3153 3154 3114
3114 3154 3155 3115
3115 3155 3156 3116
3116 3156 3157 3117
3117 3157 154 153
77 78 3158 3118
3118 3158 3159 3119
3119 3159 3160 3120
3120 3160 3161 3121
3121 3161 3162 3122
3122 3162 3163 3123
3123 3163 3164 3124
3124 3164 3165 3125
3125 3165 3166 3126
3126 3166 3167 3127
3127 3167 3168 3128
3128 3168 3169 3129
3129 3169 3170 3130
3130 3170 3171 3131
3131 3171 3172 3132
3132 3172 3173 3133
3133 3173 3174 3134
3134 3174 3175 3135
3135 3175 3176 3136
3136 3176 3177 3137
3137 3177 3178 3138
3138 3178 3179 3139
3139 3179 3180 3140
3140 3180 3181 3141
3141 3181 3182 3142
3142 3182 3183 3143
3143 3183 3184 3144
3144 3184 3185 3145
3145 3185 3186 3146
3146 3186 3187 3147
3147 3187 3188 3148
3148 3188 3189 3149
3149 3189 3190 3150
3150 3190 3191 3151
3151 3191 3192 3152
3152 3192 3193 3153
3153 3193 3194 3154
3154 3194 3195 3155
3155 3195 3196 3156
3156 3196 3197 3157
3157 3197 155 154
78 79 3198 3158
3158 3198 3199 3159
3159 3199 3200 3160
3160 3200 3201 3161
3161 3201 3202 3162
3162 3202 3203 3163
3163 3203 3204 3164
3164 3204 3205 3165
3165 3205 3206 3166
3166 3206 3207 3167
3167 3207 3208 3168
3168 3208 3209 3169
3169 3209 3210 3170
3170 3210 3211 3171
3171 3211 3212 3172
3172 3212 3213 3173
3173 3213 3214 3174
3174 3214 3215 3175
3175 3215 3216 3176
3176 3216 3217 3177
3177 3217 3218 3178
3178 3218 3219 3179
3179 3219 3220 3180
3180 3220 3221 3181
3181 3221 3222 3182
3182 3222 3223 3183
3183 3223 3224 3184
3184 3224 3225 3185
3185 3225 3226 3186
3186 3226 3227 3187
3187 3227 3228 3188
3188 3228 3229 3189
3189 3229 3230 3190
3190 3230 3231 3191
3191 3231 3232 3192
3192 3232 3233 3193
3193 3233 3234 3194
3194 3234 3235 3195
3195 3235 3236 3196
3196 3236 3237 3197
3197 3237 156 155
79 80 3238 3198
3198 3238 3239 3199
3199 3239 3240 3200
3200 3240 3241 3201
3201 3241 3242 3202
3202 3242 3243 3203
3203 3243 3244 3204
3204 3244 3245 3205
3205 3245 3246 3206
3206 3246 3247 3207
3207 3247 3248 3208
3208 3248 3249 3209
3209 3249 3250 3210
3210 3250 3251 3211
3211 3251 3252 3212
3212 3252 3253 3213
3213 3253 3254 3214
3214 3254 3255 3215
3215 3255 3256 3216
3216 3256 3257 3217
3217 3257 3258 3218
3218 3258 3259 3219
3219 3259 3260 3220
3220 3260 3261 3221
3221 3261 3262 3222
3222 3262 3263 3223
3223 3263 3264 3224
3224 3264 3265 3225
3225 3265 3266 3226
3226 3266 3267 3227
3227 3267 3268 3228
3228 3268 3269 3229
3229 3269 3270 3230
3230 3270 3271 3231
3231 3271 3272 3232
3232 3272 3273 3233
3233 3273 3274 3234
3234 3274 3275 3235
3235 3275 3276 3236
3236 3276 3277 3237
3237 3277 157 156
80 81 3278 3238
3238 3278 3279 3239
3239 3279 3280 3240
3240 3280 3281 3241
3241 3281 3282 3242
3242 3282 3283 3243
3243 3283 3284 3244
3244 3284 3285 3245
3245 3285 3286 3246
3246 3286 3287 3247
3247 3287 3288 3248
3248 3288 3289 3249
3249 3289 3290 3250
3250 3290 3291 3251
3251 3291 3292 3252
3252 3292 3293 3253
3253 3293 3294 3254
3254 3294 3295 3255
3255 3295 3296 3256
3256 3296 3297 3257
3257 3297 3298 3258
3258 3298 3299 3259
3259 3299 3300 3260
3260 3300 3301 3261
3261 3301 3302 3262
3262 3302 3303 3263
3263 3303 3304 3264
3264 3304 3305 3265
3265 3305 3306 3266
3266 3306 3307 3267
3267 3307 3308 3268
3268 3308 3309 3269
3269 3309 3310 3270
3270 3310 3311 3271
3271 3311 3312 3272
3272 3312 3313 3273
3273 3313 3314 3274
3274 3314 3315 3275
3275 3315 3316 3276
3276 3316 3317 3277
3277 3317 158 157
81 82 3318 3278
3278 3318 3319 3279
3279 3319 3320 3280
3280 3320 3321 3281
3281 3321 3322 3282
3282 3322 3323 3283
3283 3323 3324 3284
3284 3324 3325 3285
3285 3325 3326 3286
3286 3326 3327 3287
3287 3327 3328 3288
3288 3328 3329 3289
3289 3329 3330 3290
3290 3330 3331 3291
3291 3331 3332 3292
3292 3332 3333 3293
3293 3333 3334 3294
3294 3334 3335 3295
3295 3335 3336 3296
3296 3336 3337 3297
3297 3337 3338 3298
3298 3338 3339 3299
3299 3339 3340 3300
3300 3340 3341 3301
3301 3341 3342 3302
3302 3342 3343 3303
3303 3343 3344 3304
3304 3344 3345 3305
3305 3345 3346 3306
3306 3346 3347 3307
3307 3347 3348 3308
3308 3348 3349 3309
3309 3349 3350 3310
3310 3350 3351 3311
3311 3351 3352 3312
3312 3352 3353 3313
3313 3353 3354 3314
3314 3354 3355 3315
3315 3355 3356 3316
3316 3356 3357 3317
3317 3357 159 158
82 83 3358 3318
3318 3358 3359 3319
3319 3359 3360 3320
3320 3360 3361 3321
3321 3361 3362 3322
3322 3362 3363 3323
3323 3363 3364 3324
3324 3364 3365 3325
3325 3365 3366 3326
3326 3366 3367 3327
3327 3367 3368 3328
3328 3368 3369 3329
3329 3369 3370 3330
3330 3370 3371 3331
3331 3371 3372 3332
3332 3372 3373 3333
3333 3373 3374 3334
3334 3374 3375 3335
3335 3375 3376 3336
3336 3376 3377 3337
3337 3377 3378 3338
3338 3378 3379 3339
3339 3379 3380 3340
3340 3380 3381 3341
3341 3381 3382 3342
3342 3382 3383 3343
3343 3383 3384 3344
3344 3384 3385 3345
3345 3385 3386 3346
3346 3386 3387 3347
3347 3387 3388 3348
3348 3388 3389 3349
3349 3389 3390 3350
3350 3390 3391 3351
3351 3391 3392 3352
3352 3392 3393 3353
3353 3393 3394 3354
3354 3394 3395 3355
3355 3395 3396 3356
3356 3396 3397 3357
3357 3397 160 159
83 84 3398 3358
3358 3398 3399 3359
3359 3399 3400 3360
3360 3400 3401 3361
3361 3401 3402 3362
3362 3402 3403 3363
3363 3403 3404 3364
3364 3404 3405 3365
3365 3405 3406 3366
3366 3406 3407 3367
3367 3407 3408 3368
3368 3408 3409 3369
3369 3409 3410 3370
3370 3410 3411 3371
3371 3411 3412 3372
3372 3412 3413 3373
3373 3413 3414 3374
3374 3414 3415 3375
3375 3415 3416 3376
3376 3416 3417 3377
3377 3417 3418 3378
3378 3418 3419 3379
3379 3419 3420 3380
3380 3420 3421 3381
3381 3421 3422 3382
3382 3422 3423 3383
3383 3423 3424 3384
3384 3424 3425 3385
3385 3425 3426 3386
3386 3426 3427 3387
3387 3427 3428 3388
3388 3428 3429 3389
3389 3429 3430 3390
3390 3430 3431 3391
3391 3431 3432 3392
3392 3432 3433 3393
3393 3433 3434 3394
3394 3434 3435 3395
3395 3435 3436 3396
3396 3436 3437 3397
3397 3437 161 160
84 85 3438 3398
3398 3438 3439 3399
3399 3439 3440 3400
3400 3440 3441 3401
3401 3441 3442 3402
3402 3442 3443 3403
3403 3443 3444 3404
3404 3444 3445 3405
3405 3445 3446 3406
3406 3446 3447 3407
3407 3447 3448 3408
3408 3448 3449 3409
3409 3449 3450 3410
3410 3450 3451 3411
3411 3451 3452 3412
3412 3452 3453 3413
3413 3453 3454 3414
3414 3454 3455 3415
3415 3455 3456 3416
3416 3456 3457 3417
3417 3457 3458 3418
3418 3458 3459 3419
3419 3459 3460 3420
3420 3460 3461 3421
3421 3461 3462 3422
3422 3462 3463 3423
3423 3463 3464 3424
3424 3464 3465 3425
3425 3465 3466 3426
3426 3466 3467 3427
3427 3467 3468 3428
3428 3468 3469 3429
3429 3469 3470 3430
3430 3470 3471 3431
3431 3471 3472 3432
3432 3472 3473 3433
3433 3473 3474 3434
3434 3474 3475 3435
3435 3475 3476 3436
3436 3476 3477 3437
3437 3477 162 161
85 86 3478 3438
3438 3478 3479 3439
3439 3479 3480 3440
3440 3480 3481 3441
3441 3481 3482 3442
3442 3482 3483 3443
3443 3483 3484 3444
3444 3484 3485 3445
3445 3485 3486 3446
3446 3486 3487 3447
3447 3487 3488 3448
3448 3488 3489 3449
3449 3489 3490 3450
3450 3490 3491 3451
3451 3491 3492 3452
3452 3492 3493 3453
3453 3493 3494 3454
3454 3494 3495 3455
3455 3495 3496 3456
3456 3496 3497 3457
3457 3497 3498 3458
3458 3498 3499 3459
3459 3499 3500 3460
3460 3500 3501 3461
3461 3501 3502 3462
3462 3502 3503 3463
3463 3503 3504 3464
3464 3504 3505 3465
3465 3505 3506 3466
3466 3506 3507 3467
3467 3507 3508 3468
3468 3508 3509 3469
3469 3509 3510 3470
3470 3510 3511 3471
3471 3511 3512 3472
3472 3512 3513 3473
3473 3513 3514 3474
3474 3514 3515 3475
3475 3515 3516 3476
3476 3516 3517 3477
3477 3517 163 162
86 87 3518 3478
3478 3518 3519 3479
3479 3519 3520 3480
3480 3520 3521 3481
3481 3521 3522 3482
3482 3522 3523 3483
3483 3523 3524 3484
3484 3524 3525 3485
3485 3525 3526 3486
3486 3526 3527 3487
3487 3527 3528 3488
3488 3528 3529 3489
3489 3529 3530 3490
3490 3530 3531 3491
3491 3531 3532 3492
3492 3532 3533 3493
3493 3533 3534 3494
3494 3534 3535 3495
3495 3535 3536 3496
3496 3536 3537 3497
3497 3537 3538 3498
3498 3538 3539 3499
3499 3539 3540 3500
3500 3540 3541 3501
3501 3541 3542 3502
3502 3542 3543 3503
3503 3543 3544 3504
3504 3544 3545 3505
3505 3545 3546 3506
3506 3546 3547 3507
3507 3547 3548 3508
3508 3548 3549 3509
3509 3549 3550 3510
3510 3550 3551 3511
3511 3551 3552 3512
3512 3552 3553 3513
3513 3553 3554 3514
3514 3554 3555 3515
3515 3555 3556 3516
3516 3556 3557 3517
3517 3557 164 163
87 88 3558 3518
3518 3558 3559 3519
3519 3559 3560 3520
3520 3560 3561 3521
3521 3561 3562 3522
3522 3562 3563 3523
3523 3563 3564 3524
3524 3564 3565 3525
3525 3565 3566 3526
3526 3566 3567 3527
3527 3567 3568 3528
3528 3568 3569 3529
3529 3569 3570 3530
3530 3570 3571 3531
3531 3571 3572 3532
3532 3572 3573 3533
3533 3573 3574 3534
3534 3574 3575 3535
3535 3575 3576 3536
3536 3576 3577 3537
3537 3577 3578 3538
3538 3578 3579 3539
3539 3579 3580 3540
3540 3580 3581 3541
3541 3581 3582 3542
3542 3582 3583 3543
3543 3583 3584 3544
3544 3584 3585 3545
3545 3585 3586 3546
3546 3586 3587 3547
3547 3587 3588 3548
3548 3588 3589 3549
3549 3589 3590 3550
3550 3590 3591 3551
3551 3591 3592 3552
3552 3592 3593 3553
3553 3593 3594 3554
3554 3594 3595 3555
3555 3595 3596 3556
3556 3596 3597 3557
3557 3597 165 164
88 2 322 3558
3558 322 321 3559
3559 321 320 3560
3560 320 319 3561
3561 319 318 3562
3562 318 317 3563
3563 317 316 3564
3564 316 315 3565
3565 315 314 3566
3566 314 313 3567
3567 313 312 3568
3568 312 311 3569
3569 311 310 3570
3570 310 309 3571
3571 309 308 3572
3572 308 307 3573
3573 307 306 3574
3574 306 305 3575
3575 305 304 3576
3576 304 303 3577
3577 303 302 3578
3578 302 301 3579
3579 301 300 3580
3580 300 299 3581
3581 299 298 3582
3582 298 297 3583
3583 297 296 3584
3584 296 295 3585
3585 295 294 3586
3586 294 293 3587
3587 293 292 3588
3588 292 291 3589
3589 291 290 3590
3590 290 289 3591
3591 289 288 3592
3592 288 287 3593
3593 287 286 3594
3594 286 285 3595
3595 285 284 3596
3596 284 283 3597
3597 283 6 165
4 108 3598 380
380 3598 3599 379
379 3599 3600 378
378 3600 3601 377
377 3601 3602 376
376 3602 3603 375
375 3603 3604 374
374 3604 3605 373
373 3605 3606 372
372 3606 3607 371
371 3607 3608 370
370 3608 3609 369
369 3609 3610 368
368 3610 3611 367
367 3611 3612 366
366 3612 3613 365
365 3613 3614 364
364 3614 3615 363
363 3615 3616 362
362 3616 323 9
108 109 3617 3598
3598 3617 3618 3599
3599 3618 3619 3600
3600 3619 3620 3601
3601 3620 3621 3602
3602 3621 3622 3603
3603 3622 3623 3604
3604 3623 3624 3605
3605 3624 3625 3606
3606 3625 3626 3607
3607 3626 3627 3608
3608 3627 3628 3609
3609 3628 3629 3610
3610 3629 3630 3611
3611 3630 3631 3612
3612 3631 3632 3613
3613 3632 3633 3614
3614 3633 3634 3615
3615 3634 3635 3616
3616 3635 324 323
109 110 3636 3617
3617 3636 3637 3618
3618 3637 3638 3619
3619 3638 3639 3620
3620 3639 3640 3621
3621 3640 3641 3622
3622 3641 3642 3623
3623 3642 3643 3624
3624 3643 3644 3625
3625 3644 3645 3626
3626 3645 3646 3627
3627 3646 3647 3628
3628 3647 3648 3629
3629 3648 3649 3630
3630 3649 3650 3631
3631 3650 3651 3632
3632 3651 3652 3633
3633 3652 3653 3634
3634 3653 3654 3635
3635 3654 325 324
110 111 3655 3636
3636 3655 3656 3637
3637 3656 3657 3638
3638 3657 3658 3639
3639 3658 3659 3640
3640 3659 3660 3641
3641 3660 3661 3642
3642 3661 3662 3643
3643 3662 3663 3644
3644 3663 3664 3645
3645 3664 3665 3646
3646 3665 3666 3647
3647 3666 3667 3648
3648 3667 3668 3649
3649 3668 3669 3650
3650 3669 3670 3651
3651 3670 3671 3652
3652 3671 3672 3653
3653 3672 3673 3654
3654 3673 326 325
111 112 3674 3655
3655 3674 3675 3656
3656 3675 3676 3657
3657 3676 3677 3658
3658 3677 3678 3659
3659 3678 3679 3660
3660 3679 3680 3661
3661 3680 3681 3662
3662 3681 3682 3663
3663 3682 3683 3664
3664 3683 3684 3665
3665 3684 3685 3666
3666 3685 3686 3667
3667 3686 3687 3668
3668 3687 3688 3669
3669 3688 3689 3670
3670 3689 3690 3671
3671 3690 3691 3672
3672 3691 3692 3673
3673 3692 327 326
112 113 3693 3674
3674 3693 3694 3675
3675 3694 3695 3676
3676 3695 3696 3677
3677 3696 3697 3678
3678 3697 3698 3679
3679 3698 3699 3680
3680 3699 3700 3681
3681 3700 3701 3682
3682 3701 3702 3683
3683 3702 3703 3684
3684 3703 3704 3685
3685 3704 3705 3686
3686 3705 3706 3687
3687 3706 3707 3688
3688 3707 3708 3689
3689 3708 3709 3690
3690 3709 3710 3691
3691 3710 3711 3692
3692 3711 328 327
113 114 3712 3693
3693 3712 3713 3694
3694 3713 3714 3695
3695 3714 3715 3696
3696 3715 3716 3697
3697 3716 3717 3698
3698 3717 3718 3699
3699 3718 3719 3700
3700 3719 3720 3701
3701 3720 3721 3702
3702 3721 3722 3703
3703 3722 3723 3704
3704 3723 3724 3705
3705 3724 3725 3706
3706 3725 3726 3707
3707 3726 3727 3708
3708 3727 3728 3709
3709 3728 3729 3710
3710 3729 3730 3711
3711 3730 329 328
114 115 3731 3712
3712 3731 3732 3713
3713 3732 3733 3714
3714 3733 3734 3715
3715 3734 3735 3716
3716 3735 3736 3717
3717 3736 3737 3718
3718 3737 3738 3719
3719 3738 3739 3720
3720 3739 3740 3721
3721 3740 3741 3722
3722 3741 3742 3723
3723 3742 3743 3724
3724 3743 3744 3725
3725 3744 3745 3726
3726 3745 3746 3727
3727 3746 3747 3728
3728 3747 3748 3729
3729 3748 3749 3730
3730 3749 330 329
115 116 3750 3731
3731 3750 3751 3732
3732 3751 3752 3733
3733 3752 3753 3734
3734 3753 3754 3735
3735 3754 3755 3736
3736 3755 3756 3737
3737 3756 3757 3738
3738 3757 3758 3739
3739 3758 3759 3740
3740 3759 3760 3741
3741 3760 3761 3742
3742 3761 3762 3743
3743 3762 3763 3744
3744 3763 3764 3745
3745 3764 3765 3746
3746 3765 3766 3747
3747 3766 3767 3748
3748 3767 3768 3749
3749 3768 331 330
116 117 3769 3750
3750 3769 3770 3751
3751 3770 3771 3752
3752 3771 3772 3753
3753 3772 3773 3754
3754 3773 3774 3755
3755 3774 3775 3756
3756 3775 3776 3757
3757 3776 3777 3758
3758 3777 3778 3759
3759 3778 3779 3760
3760 3779 3780 3761
3761 3780 3781 3762
3762 3781 3782 3763
3763 3782 3783 3764
3764 3783 3784 3765
3765 3784 3785 3766
3766 3785 3786 3767
3767 3786 3787 3768
3768 3787 332 331
117 118 3788 3769
3769 3788 3789 3770
3770 3789 3790 3771
3771 3790 3791 3772
3772 3791 3792 3773
3773 3792 3793 3774
3774 3793 3794 3775
3775 3794 3795 3776
3776 3795 3796 3777
3777 3796 3797 3778
3778 3797 3798 3779
3779 3798 3799 3780
3780 3799 3800 3781
3781 3800 3801 3782
3782 3801 3802 3783
3783 3802 3803 3784
3784 3803 3804 3785
3785 3804 3805 3786
3786 3805 3806 3787
3787 3806 333 332
118 119 3807 3788
3788 3807 3808 3789
3789 3808 3809 3790
3790 3809 3810 3791
3791 3810 3811 3792
3792 3811 3812 3793
3793 3812 3813 3794
3794 3813 3814 3795
3795 3814 3815 3796
3796 3815 3816 3797
3797 3816 3817 3798
3798 3817 3818 3799
3799 3818 3819 3800
3800 3819 3820 3801
3801 3820 3821 3802
3802 3821 3822 3803
3803 3822 3823 3804
3804 3823 3824 3805
3805 3824 3825 3806
3806 3825 334 333
119 120 3826 3807
3807 3826 3827 3808
3808 3827 3828 3809
3809 3828 3829 3810
3810 3829 3830 3811
3811 3830 3831 3812
3812 3831 3832 3813
3813 3832 3833 3814
3814 3833 3834 3815
3815 3834 3835 3816
3816 3835 3836 3817
3817 3836 3837 3818
3818 3837 3838 3819
3819 3838 3839 3820
3820 3839 3840 3821
3821 3840 3841 3822
3822 3841 3842 3823
3823 3842 3843 3824
3824 3843 3844 3825
3825 3844 335 334
120 121 3845 3826
3826 3845 3846 3827
3827 3846 3847 3828
3828 3847 3848 3829
3829 3848 3849 3830
3830 3849 3850 3831
3831 3850 3851 3832
3832 3851 3852 3833
3833 3852 3853 3834
3834 3853 3854 3835
3835 3854 3855 3836
3836 3855 3856 3837
3837 3856 3857 3838
3838 3857 3858 3839
3839 3858 3859 3840
3840 3859 3860 3841
3841 3860 3861 3842
3842 3861 3862 3843
3843 3862 3863 3844
3844 3863 336 335
121 122 3864 3845
3845 3864 3865 3846
3846 3865 3866 3847
3847 3866 3867 3848
3848 3867 3868 3849
3849 3868 3869 3850
3850 3869 3870 3851
3851 3870 3871 3852
3852 3871 3872 3853
3853 3872 3873 3854
3854 3873 3874 3855
3855 3874 3875 3856
3856 3875 3876 3857
3857 3876 3877 3858
3858 3877 3878 3859
3859 3878 3879 3860
3860 3879 3880 3861
3861 3880 3881 3862
3862 3881 3882 3863
3863 3882 337 336
122 123 3883 3864
3864 3883 3884 3865
3865 3884 3885 3866
3866 3885 3886 3867
3867 3886 3887 3868
3868 3887 3888 3869
3869 3888 3889 3870
3870 3889 3890 3871
3871 3890 3891 3872
3872 3891 3892 3873
3873 3892 3893 3874
3874 3893 3894 3875
3875 3894 3895 3876
3876 3895 3896 3877
3877 3896 3897 3878
3878 3897 3898 3879
3879 3898 3899 3880
3880 3899 3900 3881
3881 3900 3901 3882
3882 3901 338 337
123 124 3902 3883
3883 3902 3903 3884
3884 3903 3904 3885
3885 3904 3905 3886
3886 3905 3906 3887
3887 3906 3907 3888
3888 3907 3908 3889
3889 3908 3909 3890
3890 3909 3910 3891
3891 3910 3911 3892
3892 3911 3912 3893
3893 3912 3913 3894
3894 3913 3914 3895
3895 3914 3915 3896
3896 3915 3916 3897
3897 3916 3917 3898
3898 3917 3918 3899
3899 3918 3919 3900
3900 3919 3920 3901
3901 3920 339 338
124 125 3921 3902
3902 3921 3922 3903
3903 3922 3923 3904
3904 3923 3924 3905
3905 3924 3925 3906
3906 3925 3926 3907
3907 3926 3927 3908
3908 3927 3928 3909
3909 3928 3929 3910
3910 3929 3930 3911
3911 3930 3931 3912
3912 3931 3932 3913
3913 3932 3933 3914
3914 3933 3934 3915
3915 3934 3935 3916
3916 3935 3936 3917
3917 3936 3937 3918
3918 3937 3938 3919
3919 3938 3939 3920
3920 3939 340 339
125 126 3940 3921
3921 3940 3941 3922
3922 3941 3942 3923
3923 3942 3943 3924
3924 3943 3944 3925
3925 3944 3945 3926
3926 3945 3946 3927
3927 3946 3947 3928
3928 3947 3948 3929
3929 3948 3949 3930
3930 3949 3950 3931
3931 3950 3951 3932
3932 3951 3952 3933
3933 3952 3953 3934
3934 3953 3954 3935
3935 3954 3955 3936
3936 3955 3956 3937
3937 3956 3957 3938
3938 3957 3958 3939
3939 3958 341 340
126 127 3959 3940
3940 3959 3960 3941
3941 3960 3961 3942
3942 3961 3962 3943
3943 3962 3963 3944
3944 3963 3964 3945
3945 3964 3965 3946
3946 3965 3966 3947
3947 3966 3967 3948
3948 3967 3968 3949
3949 3968 3969 3950
3950 3969 3970 3951
3951 3970 3971 3952
3952 3971 3972 3953
3953 3972 3973 3954
3954 3973 3974 3955
3955 3974 3975 3956
3956 3975 3976 3957
3957 3976 3977 3958
3958 3977 342 341
127 128 3978 3959
3959 3978 3979 3960
3960 3979 3980 3961
3961 3980 3981 3962
3962 3981 3982 3963
3963 3982 3983 3964
3964 3983 3984 3965
3965 3984 3985 3966
3966 3985 3986 3967
3967 3986 3987 3968
3968 3987 3988 3969
3969 3988 3989 3970
3970 3989 3990 3971
3971 3990 3991 3972
3972 3991 3992 3973
3973 3992 3993 3974
3974 3993 3994 3975
3975 3994 3995 3976
3976 3995 3996 3977
3977 3996 343 342
128 129 3997 3978
3978 3997 3998 3979
3979 3998 3999 3980
3980 3999 4000 3981
3981 4000 4001 3982
3982 4001 4002 3983
3983 4002 4003 3984
3984 4003 4004 3985
3985 4004 4005 3986
3986 4005 4006 3987
3987 4006 4007 3988
3988 4007 4008 3989
3989 4008 4009 3990
3990 4009 4010 3991
3991 4010 4011 3992
3992 4011 4012 3993
3993 4012 4013 3994
3994 4013 4014 3995
3995 4014 4015 3996
3996 4015 344 343
129 130 4016 3997
3997 4016 4017 3998
3998 4017 4018 3999
3999 4018 4019 4000
4000 4019 4020 4001
4001 4020 4021 4002
4002 4021 4022 4003
4003 4022 4023 4004
4004 4023 4024 4005
4005 4024 4025 4006
4006 4025 4026 4007
4007 4026 4027 4008
4008 4027 4028 4009
4009 4028 4029 4010
4010 4029 4030 4011
4011 4030 4031 4012
4012 4031 4032 4013
4013 4032 4033 4014
4014 4033 4034 4015
4015 4034 345 344
130 131 4035 4016
4016 4035 4036 4017
4017 4036 4037 4018
4018 4037 4038 4019
4019 4038 4039 4020
4020 4039 4040 4021
4021 4040 4041 4022
4022 4041 4042 4023
4023 4042 4043 4024
4024 4043 4044 4025
4025 4044 4045 4026
4026 4045 4046 4027
4027 4046 4047 4028
4028 4047 4048 4029
4029 4048 4049 4030
4030 4049 4050 4031
4031 4050 4051 4032
4032 4051 4052 4033
4033 4052 4053 4034
4034 4053 346 345
131 132 4054 4035
4035 4054 4055 4036
4036 4055 4056 4037
4037 4056 4057 4038
4038 4057 4058 4039
4039 4058 4059 4040
4040 4059 4060 4041
4041 4060 4061 4042
4042 4061 4062 4043
4043 4062 4063 4044
4044 4063 4064 4045
4045 4064 4065 4046
4046 4065 4066 4047
4047 4066 4067 4048
4048 4067 4068 4049
4049 4068 4069 4050
4050 4069 4070 4051
4051 4070 4071 4052
4052 4071 4072 4053
4053 4072 347 346
132 133 4073 4054
4054 4073 4074 4055
4055 4074 4075 4056
4056 4075 4076 4057
4057 4076 4077 4058
4058 4077 4078 4059
4059 4078 4079 4060
4060 4079 4080 4061
4061 4080 4081 4062
4062 4081 4082 4063
4063 4082 4083 4064
4064 4083 4084 4065
4065 4084 4085 4066
4066 4085 4086 4067
4067 4086 4087 4068
4068 4087 4088 4069
4069 4088 4089 4070
4070 4089 4090 4071
4071 4090 4091 4072
4072 4091 348 347
133 134 4092 4073
4073 4092 4093 4074
4074 4093 4094 4075
4075 4094 4095 4076
4076 4095 4096 4077
4077 4096 4097 4078
4078 4097 4098 4079
4079 4098 4099 4080
4080 4099 4100 4081
4081 4100 4101 4082
4082 4101 4102 4083
4083 4102 4103 4084
4084 4103 4104 4085
4085 4104 4105 4086
4086 4105 4106 4087
4087 4106 4107 4088
4088 4107 4108 4089
4089 4108 4109 4090
4090 4109 4110 4091
4091 4110 349 348
134 135 4111 4092
4092 4111 4112 4093
4093 4112 4113 4094
4094 4113 4114 4095
4095 4114 4115 4096
4096 4115 4116 4097
4097 4116 4117 4098
4098 4117 4118 4099
4099 4118 4119 4100
4100 4119 4120 4101
4101 4120 4121 4102
4102 4121 4122 4103
4103 4122 4123 4104
4104 4123 4124 4105
4105 4124 4125 4106
4106 4125 4126 4107
4107 4126 4127 4108
4108 4127 4128 4109
4109 4128 4129 4110
4110 4129 350 349
135 136 4130 4111
4111 4130 4131 4112
4112 4131 4132 4113
4113 4132 4133 4114
4114 4133 4134 4115
4115 4134 4135 4116
4116 4135 4136 4117
4117 4136 4137 4118
4118 4137 4138 4119
4119 4138 4139 4120
4120 4139 4140 4121
4121 4140 4141 4122
4122 4141 4142 4123
4123 4142 4143 4124
4124 4143 4144 4125
4125 4144 4145 4126
4126 4145 4146 4127
4127 4146 4147 4128
4128 4147 4148 4129
4129 4148 351 350
136 137 4149 4130
4130 4149 4150 4131
4131 4150 4151 4132
4132 4151 4152 4133
4133 4152 4153 4134
4134 4153 4154 4135
4135 4154 4155 4136
4136 4155 4156 4137
4137 4156 4157 4138
4138 4157 4158 4139
4139 4158 4159 4140
4140 4159 4160 4141
4141 4160 4161 4142
4142 4161 4162 4143
4143 4162 4163 4144
4144 4163 4164 4145
4145 4164 4165 4146
4146 4165 4166 4147
4147 4166 4167 4148
4148 4167 352 351
137 138 4168 4149
4149 4168 4169 4150
4150 4169 4170 4151
4151 4170 4171 4152
4152 4171 4172 4153
4153 4172 4173 4154
4154 4173 4174 4155
4155 4174 4175 4156
4156 4175 4176 4157
4157 4176 4177 4158
4158 4177 4178 4159
4159 4178 4179 4160
4160 4179 4180 4161
4161 4180 4181 4162
4162 4181 4182 4163
4163 4182 4183 4164
4164 4183 4184 4165
4165 4184 4185 4166
4166 4185 4186 4167
4167 4186 353 352
138 139 4187 4168
4168 4187 4188 4169
4169 4188 4189 4170
4170 4189 4190 4171
4171 4190 4191 4172
4172 4191 4192 4173
4173 4192 4193 4174
4174 4193 4194 4175
4175 4194 4195 4176
4176 4195 4196 4177
4177 4196 4197 4178
4178 4197 4198 4179
4179 4198 4199 4180
4180 4199 4200 4181
4181 4200 4201 4182
4182 4201 4202 4183
4183 4202 4203 4184
4184 4203 4204 4185
4185 4204 4205 4186
4186 4205 354 353
139 140 4206 4187
4187 4206 4207 4188
4188 4207 4208 4189
4189 4208 4209 4190
4190 4209 4210 4191
4191 4210 4211 4192
4192 4211 4212 4193
4193 4212 4213 4194
4194 4213 4214 4195
4195 4214 4215 4196
4196 4215 4216 4197
4197 4216 4217 4198
4198 4217 4218 4199
4199 4218 4219 4200
4200 4219 4220 4201
4201 4220 4221 4202
4202 4221 4222 4203
4203 4222 4223 4204
4204 4223 4224 4205
4205 4224 355 354
140 141 4225 4206
4206 4225 4226 4207
4207 4226 4227 4208
4208 4227 4228 4209
4209 4228 4229 4210
4210 4229 4230 4211
4211 4230 4231 4212
4212 4231 4232 4213
4213 4232 4233 4214
4214 4233 4234 4215
4215 4234 4235 4216
4216 4235 4236 4217
4217 4236 4237 4218
4218 4237 4238 4219
4219 4238 4239 4220
4220 4239 4240 4221
4221 4240 4241 4222
4222 4241 4242 4223
4223 4242 4243 4224
4224 4243 356 355
141 142 4244 4225
4225 4244 4245 4226
4226 4245 4246 4227
4227 4246 4247 4228
4228 4247 4248 4229
4229 4248 4249 4230
4230 4249 4250 4231
4231 4250 4251 4232
4232 4251 4252 4233
4233 4252 4253 4234
4234 4253 4254 4235
4235 4254 4255 4236
4236 4255 4256 4237
4237 4256 4257 4238
4238 4257 4258 4239
4239 4258 4259 4240
4240 4259 4260 4241
4241 4260 4261 4242
4242 4261 4262 4243
4243 4262 357 356
142 143 4263 4244
4244 4263 4264 4245
4245 4264 4265 4246
4246 4265 4266 4247
4247 4266 4267 4248
4248 4267 4268 4249
4249 4268 4269 4250
4250 4269 4270 4251
4251 4270 4271 4252
4252 4271 4272 4253
4253 4272 4273 4254
4254 4273 4274 4255
4255 4274 4275 4256
4256 4275 4276 4257
4257 4276 4277 4258
4258 4277 4278 4259
4259 4278 4279 4260
4260 4279 4280 4261
4261 4280 4281 4262
4262 4281 358 357
143 144 4282 4263
4263 4282 4283 4264
4264 4283 4284 4265
4265 4284 4285 4266
4266 4285 4286 4267
4267 4286 4287 4268
4268 4287 4288 4269
4269 4288 4289 4270
4270 4289 4290 4271
4271 4290 4291 4272
4272 4291 4292 4273
4273 4292 4293 4274
4274 4293 4294 4275
4275 4294 4295 4276
4276 4295 4296 4277
4277 4296 4297 4278
4278 4297 4298 4279
4279 4298 4299 4280
4280 4299 4300 4281
4281 4300 359 358
144 145 4301 4282
4282 4301 4302 4283
4283 4302 4303 4284
4284 4303 4304 4285
4285 4304 4305 4286
4286 4305 4306 4287
4287 4306 4307 4288
4288 4307 4308 4289
4289 4308 4309 4290
4290 4309 4310 4291
4291 4310 4311 4292
4292 4311 4312 4293
4293 4312 4313 4294
4294 4313 4314 4295
4295 4314 4315 4296
4296 4315 4316 4297
4297 4316 4317 4298
4298 4317 4318 4299
4299 4318 4319 4300
4300 4319 360 359
145 146 4320 4301
4301 4320 4321 4302
4302 4321 4322 4303
4303 4322 4323 4304
4304 4323 4324 4305
4305 4324 4325 4306
4306 4325 4326 4307
4307 4326 4327 4308
4308 4327 4328 4309
4309 4328 4329 4310
4310 4329 4330 4311
4311 4330 4331 4312
4312 4331 4332 4313
4313 4332 4333 4314
4314 4333 4334 4315
4315 4334 4335 4316
4316 4335 4336 4317
4317 4336 4337 4318
4318 4337 4338 4319
4319 4338 361 360
146 5 399 4320
4320 399 398 4321
4321 398 397 4322
4322 397 396 4323
4323 396 395 4324
4324 395 394 4325
4325 394 393 4326
4326 393 392 4327
4327 392 391 4328
4328 391 390 4329
4329 390 389 4330
4330 389 388 4331
4331 388 387 4332
4332 387 386 4333
4333 386 385 4334
4334 385 384 4335
4335 384 383 4336
4336 383 382 4337
4337 382 381 4338
4338 381 10 361
3 89 4339 166
166 4339 4340 167
167 4340 4341 168
168 4341 4342 169
169 4342 4343 170
170 4343 4344 171
171 4344 4345 172
172 4345 4346 173
173 4346 4347 174
174 4347 4348 175
175 4348 4349 176
176 4349 4350 177
177 4350 4351 178
178 4351 4352 179
179 4352 4353 180
180 4353 4354 181
181 4354 4355 182
182 4355 4356 183
183 4356 4357 184
184 4357 418 7
89 90 4358 4339
4339 4358 4359 4340
4340 4359 4360 4341
4341 4360 4361 4342
4342 4361 4362 4343
4343 4362 4363 4344
4344 4363 4364 4345
4345 4364 4365 4346
4346 4365 4366 4347
4347 4366 4367 4348
4348 4367 4368 4349
4349 4368 4369 4350
4350 4369 4370 4351
4351 4370 4371 4352
4352 4371 4372 4353
4353 4372 4373 4354
4354 4373 4374 4355
4355 4374 4375 4356
4356 4375 4376 4357
4357 4376 417 418
90 91 4377 4358
4358 4377 4378 4359
4359 4378 4379 4360
4360 4379 4380 4361
4361 4380 4381 4362
4362 4381 4382 4363
4363 4382 4383 4364
4364 4383 4384 4365
4365 4384 4385 4366
4366 4385 4386 4367
4367 4386 4387 4368
4368 4387 4388 4369
4369 4388 4389 4370
4370 4389 4390 4371
4371 4390 4391 4372
4372 4391 4392 4373
4373 4392 4393 4374
4374 4393 4394 4375
4375 4394 4395 4376
4376 4395 416 417
91 92 4396 4377
4377 4396 4397 4378
4378 4397 4398 4379
4379 4398 4399 4380
4380 4399 4400 4381
4381 4400 4401 4382
4382 4401 4402 4383
4383 4402 4403 4384
4384 4403 4404 4385
4385 4404 4405 4386
4386 4405 4406 4387
4387 4406 4407 4388
4388 4407 4408 4389
4389 4408 4409 4390
4390 4409 4410 4391
4391 4410 4411 4392
4392 4411 4412 4393
4393 4412 4413 4394
4394 4413 4414 4395
4395 4414 415 416
92 93 4415 4396
4396 4415 4416 4397
4397 4416 4417 4398
4398 4417 4418 4399
4399 4418 4419 4400
4400 4419 4420 4401
4401 4420 4421 4402
4402 4421 4422 4403
4403 4422 4423 4404
4404 4423 4424 4405
4405 4424 4425 4406
4406 4425 4426 4407
4407 4426 4427 4408
4408 4427 4428 4409
4409 4428 4429 4410
4410 4429 4430 4411
4411 4430 4431 4412
4412 4431 4432 4413
4413 4432 4433 4414
4414 4433 414 415
93 94 4434 4415
4415 4434 4435 4416
4416 4435 4436 4417
4417 4436 4437 4418
4418 4437 4438 4419
4419 4438 4439 4420
4420 4439 4440 4421
4421 4440 4441 4422
4422 4441 4442 4423
4423 4442 4443 4424
4424 4443 4444 4425
4425 4444 4445 4426
4426 4445 4446 4427
4427 4446 4447 4428
4428 4447 4448 4429
4429 4448 4449 4430
4430 4449 4450 4431
4431 4450 4451 4432
4432 4451 4452 4433
4433 4452 413 414
94 95 4453 4434
4434 4453 4454 4435
4435 4454 4455 4436
4436 4455 4456 4437
4437 4456 4457 4438
4438 4457 4458 4439
4439 4458 4459 4440
4440 4459 4460 4441
4441 4460 4461 4442
4442 4461 4462 4443
4443 4462 4463 4444
4444 4463 4464 4445
4445 4464 4465 4446
4446 4465 4466 4447
4447 4466 4467 4448
4448 4467 4468 4449
4449 4468 4469 4450
4450 4469 4470 4451
4451 4470 4471 4452
4452 4471 412 413
95 96 4472 4453
4453 4472 4473 4454
4454 4473 4474 4455
4455 4474 4475 4456
4456 4475 4476 4457
4457 4476 4477 4458
4458 4477 4478 4459
4459 4478 4479 4460
4460 4479 4480 4461
4461 4480 4481 4462
4462 4481 4482 4463
4463 4482 4483 4464
4464 4483 4484 4465
4465 4484 4485 4466
4466 4485 4486 4467
4467 4486 4487 4468
4468 4487 4488 4469
4469 4488 4489 4470
4470 4489 4490 4471
4471 4490 411 412
96 97 4491 4472
4472 4491 4492 4473
4473 4492 4493 4474
4474 4493 4494 4475
4475 4494 4495 4476
4476 4495 4496 4477
4477 4496 4497 4478
4478 4497 4498 4479
4479 4498 4499 4480
4480 4499 4500 4481
4481 4500 4501 4482
4482 4501 4502 4483
4483 4502 4503 4484
4484 4503 4504 4485
4485 4504 4505 4486
4486 4505 4506 4487
4487 4506 4507 4488
4488 4507 4508 4489
4489 4508 4509 4490
4490 4509 410 411
97 98 4510 4491
4491 4510 4511 4492
4492 4511 4512 4493
4493 4512 4513 4494
4494 4513 4514 4495
4495 4514 4515 4496
4496 4515 4516 4497
4497 4516 4517 4498
4498 4517 4518 4499
4499 4518 4519 4500
4500 4519 4520 4501
4501 4520 4521 4502
4502 4521 4522 4503
4503 4522 4523 4504
4504 4523 4524 4505
4505 4524 4525 4506
4506 4525 4526 4507
4507 4526 4527 4508
4508 4527 4528 4509
4509 4528 409 410
98 99 4529 4510
4510 4529 4530 4511
4511 4530 4531 4512
4512 4531 4532 4513
4513 4532 4533 4514
4514 4533 4534 4515
4515 4534 4535 4516
4516 4535 4536 4517
4517 4536 4537 4518
4518 4537 4538 4519
4519 4538 4539 4520
4520 4539 4540 4521
4521 4540 4541 4522
4522 4541 4542 4523
4523 4542 4543 4524
4524 4543 4544 4525
4525 4544 4545 4526
4526 4545 4546 4527
4527 4546 4547 4528
4528 4547 408 409
99 100 4548 4529
4529 4548 4549 4530
4530 4549 4550 4531
4531 4550 4551 4532
4532 4551 4552 4533
4533 4552 4553 4534
4534 4553 4554 4535
4535 4554 4555 4536
4536 4555 4556 4537
4537 4556 4557 4538
4538 4557 4558 4539
4539 4558 4559 4540
4540 4559 4560 4541
4541 4560 4561 4542
4542 4561 4562 4543
4543 4562 4563 4544
4544 4563 4564 4545
4545 4564 4565 4546
4546 4565 4566 4547
4547 4566 407 408
100 101 4567 4548
4548 4567 4568 4549
4549 4568 4569 4550
4550 4569 4570 4551
4551 4570 4571 4552
4552 4571 4572 4553
4553 4572 4573 4554
4554 4573 4574 4555
4555 4574 4575 4556
4556 4575 4576 4557
4557 4576 4577 4558
4558 4577 4578 4559
4559 4578 4579 4560
4560 4579 4580 4561
4561 4580 4581 4562
4562 4581 4582 4563
4563 4582 4583 4564
4564 4583 4584 4565
4565 4584 4585 4566
4566 4585 406 407
101 102 4586 4567
4567 4586 4587 4568
4568 4587 4588 4569
4569 4588 4589 4570
4570 4589 4590 4571
4571 4590 4591 4572
4572 4591 4592 4573
4573 4592 4593 4574
4574 4593 4594 4575
4575 4594 4595 4576
4576 4595 4596 4577
4577 4596 4597 4578
4578 4597 4598 4579
4579 4598 4599 4580
4580 4599 4600 4581
4581 4600 4601 4582
4582 4601 4602 4583
4583 4602 4603 4584
4584 4603 4604 4585
4585 4604 405 406
102 103 4605 4586
4586 4605 4606 4587
4587 4606 4607 4588
4588 4607 4608 4589
4589 4608 4609 4590
4590 4609 4610 4591
4591 4610 4611 4592
4592 4611 4612 4593
4593 4612 4613 4594
4594 4613 4614 4595
4595 4614 4615 4596
4596 4615 4616 4597
4597 4616 4617 4598
4598 4617 4618 4599
4599 4618 4619 4600
4600 4619 4620 4601
4601 4620 4621 4602
4602 4621 4622 4603
4603 4622 4623 4604
4604 4623 404 405
103 104 4624 4605
4605 4624 4625 4606
4606 4625 4626 4607
4607 4626 4627 4608
4608 4627 4628 4609
4609 4628 4629 4610
4610 4629 4630 4611
4611 4630 4631 4612
4612 4631 4632 4613
4613 4632 4633 4614
4614 4633 4634 4615
4615 4634 4635 4616
4616 4635 4636 4617
4617 4636 4637 4618
4618 4637 4638 4619
4619 4638 4639 4620
4620 4639 4640 4621
4621 4640 4641 4622
4622 4641 4642 4623
4623 4642 403 404
104 105 4643 4624
4624 4643 4644 4625
4625 4644 4645 4626
4626 4645 4646 4627
4627 4646 4647 4628
4628 4647 4648 4629
4629 4648 4649 4630
4630 4649 4650 4631
4631 4650 4651 4632
4632 4651 4652 4633
4633 4652 4653 4634
4634 4653 4654 4635
4635 4654 4655 4636
4636 4655 4656 4637
4637 4656 4657 4638
4638 4657 4658 4639
4639 4658 4659 4640
4640 4659 4660 4641
4641 4660 4661 4642
4642 4661 402 403
105 106 4662 4643
4643 4662 4663 4644
4644 4663 4664 4645
4645 4664 4665 4646
4646 4665 4666 4647
4647 4666 4667 4648
4648 4667 4668 4649
4649 4668 4669 4650
4650 4669 4670 4651
4651 4670 4671 4652
4652 4671 4672 4653
4653 4672 4673 4654
4654 4673 4674 4655
4655 4674 4675 4656
4656 4675 4676 4657
4657 4676 4677 4658
4658 4677 4678 4659
4659 4678 4679 4660
4660 4679 4680 4661
4661 4680 401 402
106 107 4681 4662
4662 4681 4682 4663
4663 4682 4683 4664
4664 4683 4684 4665
4665 4684 4685 4666
4666 4685 4686 4667
4667 4686 4687 4668
4668 4687 4688 4669
4669 4688 4689 4670
4670 4689 4690 4671
4671 4690 4691 4672
4672 4691 4692 4673
4673 4692 4693 4674
4674 4693 4694 4675
4675 4694 4695 4676
4676 4695 4696 4677
4677 4696 4697 4678
4678 4697 4698 4679
4679 4698 4699 4680
4680 4699 400 401
107 4 380 4681
4681 380 379 4682
4682 379 378 4683
4683 378 377 4684
4684 377 376 4685
4685 376 375 4686
4686 375 374 4687
4687 374 373 4688
4688 373 372 4689
4689 372 371 4690
4690 371 370 4691
4691 370 369 4692
4692 369 368 4693
4693 368 367 4694
4694 367 366 4695
4695 366 365 4696
4696 365 364 4697
4697 364 363 4698
4698 363 362 4699
4699 362 9 400
5 147 4700 399
399 4700 4701 398
398 4701 4702 397
397 4702 4703 396
396 4703 4704 395
395 4704 4705 394
394 4705 4706 393
393 4706 4707 392
392 4707 4708 391
391 4708 4709 390
390 4709 4710 389
389 4710 4711 388
388 4711 4712 387
387 4712 4713 386
386 4713 4714 385
385 4714 4715 384
384 4715 4716 383
383 4716 4717 382
382 4717 4718 381
381 4718 419 10
147 148 4719 4700
4700 4719 4720 4701
4701 4720 4721 4702
4702 4721 4722 4703
4703 4722 4723 4704
4704 4723 4724 4705
4705 4724 4725 4706
4706 4725 4726 4707
4707 4726 4727 4708
4708 4727 4728 4709
4709 4728 4729 4710
4710 4729 4730 4711
4711 4730 4731 4712
4712 4731 4732 4713
4713 4732 4733 4714
4714 4733 4734 4715
4715 4734 4735 4716
4716 4735 4736 4717
4717 4736 4737 4718
4718 4737 420 419
148 149 4738 4719
4719 4738 4739 4720
4720 4739 4740 4721
4721 4740 4741 4722
4722 4741 4742 4723
4723 4742 4743 4724
4724 4743 4744 4725
4725 4744 4745 4726
4726 4745 4746 4727
4727 4746 4747 4728
4728 4747 4748 4729
4729 4748 4749 4730
4730 4749 4750 4731
4731 4750 4751 4732
4732 4751 4752 4733
4733 4752 4753 4734
4734 4753 4754 4735
4735 4754 4755 4736
4736 4755 4756 4737
4737 4756 421 420
149 150 4757 4738
4738 4757 4758 4739
4739 4758 4759 4740
4740 4759 4760 4741
4741 4760 4761 4742
4742 4761 4762 4743
4743 4762 4763 4744
4744 4763 4764 4745
4745 4764 4765 4746
4746 4765 4766 4747
4747 4766 4767 4748
4748 4767 4768 4749
4749 4768 4769 4750
4750 4769 4770 4751
4751 4770 4771 4752
4752 4771 4772 4753
4753 4772 4773 4754
4754 4773 4774 4755
4755 4774 4775 4756
4756 4775 422 421
150 151 4776 4757
4757 4776 4777 4758
4758 4777 4778 4759
4759 4778 4779 4760
4760 4779 4780 4761
4761 4780 4781 4762
4762 4781 4782 4763
4763 4782 4783 4764
4764 4783 4784 4765
4765 4784 4785 4766
4766 4785 4786 4767
4767 4786 4787 4768
4768 4787 4788 4769
4769 4788 4789 4770
4770 4789 4790 4771
4771 4790 4791 4772
4772 4791 4792 4773
4773 4792 4793 4774
4774 4793 4794 4775
4775 4794 423 422
151 152 4795 4776
4776 4795 4796 4777
4777 4796 4797 4778
4778 4797 4798 4779
4779 4798 4799 4780
4780 4799 4800 4781
4781 4800 4801 4782
4782 4801 4802 4783
4783 4802 4803 4784
4784 4803 4804 4785
4785 4804 4805 4786
4786 4805 4806 4787
4787 4806 4807 4788
4788 4807 4808 4789
4789 4808 4809 4790
4790 4809 4810 4791
4791 4810 4811 4792
4792 4811 4812 4793
4793 4812 4813 4794
4794 4813 424 423
152 153 4814 4795
4795 4814 4815 4796
4796 4815 4816 4797
4797 4816 4817 4798
4798 4817 4818 4799
4799 4818 4819 4800
4800 4819 4820 4801
4801 4820 4821 4802
4802 4821 4822 4803
4803 4822 4823 4804
4804 4823 4824 4805
4805 4824 4825 4806
4806 4825 4826 4807
4807 4826 4827 4808
4808 4827 4828 4809
4809 4828 4829 4810
4810 4829 4830 4811
4811 4830 4831 4812
4812 4831 4832 4813
4813 4832 425 424
153 154 4833 4814
4814 4833 4834 4815
4815 4834 4835 4816
4816 4835 4836 4817
4817 4836 4837 4818
4818 4837 4838 4819
4819 4838 4839 4820
4820 4839 4840 4821
4821 4840 4841 4822
4822 4841 4842 4823
4823 4842 4843 4824
4824 4843 4844 4825
4825 4844 4845 4826
4826 4845 4846 4827
4827 4846 4847 4828
4828 4847 4848 4829
4829 4848 4849 4830
4830 4849 4850 4831
4831 4850 4851 4832
4832 4851 426 425
154 155 4852 4833
4833 4852 4853 4834
4834 4853 4854 4835
4835 4854 4855 4836
4836 4855 4856 4837
4837 4856 4857 4838
4838 4857 4858 4839
4839 4858 4859 4840
4840 4859 4860 4841
4841 4860 4861 4842
4842 4861 4862 4843
4843 4862 4863 4844
4844 4863 4864 4845
4845 4864 4865 4846
4846 4865 4866 4847
4847 4866 4867 4848
4848 4867 4868 4849
4849 4868 4869 4850
4850 4869 4870 4851
4851 4870 427 426
155 156 4871 4852
4852 4871 4872 4853
4853 4872 4873 4854
4854 4873 4874 4855
4855 4874 4875 4856
4856 4875 4876 4857
4857 4876 4877 4858
4858 4877 4878 4859
4859 4878 4879 4860
4860 4879 4880 4861
4861 4880 4881 4862
4862 4881 4882 4863
4863 4882 4883 4864
4864 4883 4884 4865
4865 4884 4885 4866
4866 4885 4886 4867
4867 4886 4887 4868
4868 4887 4888 4869
4869 4888 4889 4870
4870 4889 428 427
156 157 4890 4871
4871 4890 4891 4872
4872 4891 4892 4873
4873 4892 4893 4874
4874 4893 4894 4875
4875 4894 4895 4876
4876 4895 4896 4877
4877 4896 4897 4878
4878 4897 4898 4879
4879 4898 4899 4880
4880 4899 4900 4881
4881 4900 4901 4882
4882 4901 4902 4883
4883 4902 4903 4884
4884 4903 4904 4885
4885 4904 4905 4886
4886 4905 4906 4887
4887 4906 4907 4888
4888 4907 4908 4889
4889 4908 429 428
157 158 4909 4890
4890 4909 4910 4891
4891 4910 4911 4892
4892 4911 4912 4893
4893 4912 4913 4894
4894 4913 4914 4895
4895 4914 4915 4896
4896 4915 4916 4897
4897 4916 4917 4898
4898 4917 4918 4899
4899 4918 4919 4900
4900 4919 4920 4901
4901 4920 4921 4902
4902 4921 4922 4903
4903 4922 4923 4904
4904 4923 4924 4905
4905 4924 4925 4906
4906 4925 4926 4907
4907 4926 4927 4908
4908 4927 430 429
158 159 4928 4909
4909 4928 4929 4910
4910 4929 4930 4911
4911 4930 4931 4912
4912 4931 4932 4913
4913 4932 4933 4914
4914 4933 4934 4915
4915 4934 4935 4916
4916 4935 4936 4917
4917 4936 4937 4918
4918 4937 4938 4919
4919 4938 4939 4920
4920 4939 4940 4921
4921 4940 4941 4922
4922 4941 4942 4923
4923 4942 4943 4924
4924 4943 4944 4925
4925 4944 4945 4926
4926 4945 4946 4927
4927 4946 431 430
159 160 4947 4928
4928 4947 4948 4929
4929 4948 4949 4930
4930 4949 4950 4931
4931 4950 4951 4932
4932 4951 4952 4933
4933 4952 4953 4934
4934 4953 4954 4935
4935 4954 4955 4936
4936 4955 4956 4937
4937 4956 4957 4938
4938 4957 4958 4939
4939 4958 4959 4940
4940 4959 4960 4941
4941 4960 4961 4942
4942 4961 4962 4943
4943 4962 4963 4944
4944 4963 4964 4945
4945 4964 4965 4946
4946 4965 432 431
160 161 4966 4947
4947 4966 4967 4948
4948 4967 4968 4949
4949 4968 4969 4950
4950 4969 4970 4951
4951 4970 4971 4952
4952 4971 4972 4953
4953 4972 4973 4954
4954 4973 4974 4955
4955 4974 4975 4956
4956 4975 4976 4957
4957 4976 4977 4958
4958 4977 4978 4959
4959 4978 4979 4960
4960 4979 4980 4961
4961 4980 4981 4962
4962 4981 4982 4963
4963 4982 4983 4964
4964 4983 4984 4965
4965 4984 433 432
161 162 4985 4966
4966 4985 4986 4967
4967 4986 4987 4968
4968 4987 4988 4969
4969 4988 4989 4970
4970 4989 4990 4971
4971 4990 4991 4972
4972 4991 4992 4973
4973 4992 4993 4974
4974 4993 4994 4975
4975 4994 4995 4976
4976 4995 4996 4977
4977 4996 4997 4978
4978 4997 4998 4979
4979 4998 4999 4980
4980 4999 5000 4981
4981 5000 5001 4982
4982 5001 5002 4983
4983 5002 5003 4984
4984 5003 434 433
162 163 5004 4985
4985 5004 5005 4986
4986 5005 5006 4987
4987 5006 5007 4988
4988 5007 5008 4989
4989 5008 5009 4990
4990 5009 5010 4991
4991 5010 5011 4992
4992 5011 5012 4993
4993 5012 5013 4994
4994 5013 5014 4995
4995 5014 5015 4996
4996 5015 5016 4997
4997 5016 5017 4998
4998 5017 5018 4999
4999 5018 5019 5000
5000 5019 5020 5001
5001 5020 5021 5002
5002 5021 5022 5003
5003 5022 435 434
163 164 5023 5004
5004 5023 5024 5005
5005 5024 5025 5006
5006 5025 5026 5007
5007 5026 5027 5008
5008 5027 5028 5009
5009 5028 5029 5010
5010 5029 5030 5011
5011 5030 5031 5012
5012 5031 5032 5013
5013 5032 5033 5014
5014 5033 5034 5015
5015 5034 5035 5016
5016 5035 5036 5017
5017 5036 5037 5018
5018 5037 5038 5019
5019 5038 5039 5020
5020 5039 5040 5021
5021 5040 5041 5022
5022 5041 436 435
164 165 5042 5023
5023 5042 5043 5024
5024 5043 5044 5025
5025 5044 5045 5026
5026 5045 5046 5027
5027 5046 5047 5028
5028 5047 5048 5029
5029 5048 5049 5030
5030 5049 5050 5031
5031 5050 5051 5032
5032 5051 5052 5033
5033 5052 5053 5034
5034 5053 5054 5035
5035 5054 5055 5036
5036 5055 5056 5037
5037 5056 5057 5038
5038 5057 5058 5039
5039 5058 5059 5040
5040 5059 5060 5041
5041 5060 437 436
165 6 242 5042
5042 242 241 5043
5043 241 240 5044
5044 240 239 5045
5045 239 238 5046
5046 238 237 5047
5047 237 236 5048
5048 236 235 5049
5049 235 234 5050
5050 234 233 5051
5051 233 232 5052
5052 232 231 5053
5053 231 230 5054
5054 230 229 5055
5055 229 228 5056
5056 228 227 5057
5057 227 226 5058
5058 226 225 5059
5059 225 224 5060
5060 224 8 437
9 323 5061 400
400 5061 5062 401
401 5062 5063 402
402 5063 5064 403
403 5064 5065 404
404 5065 5066 405
405 5066 5067 406
406 5067 5068 407
407 5068 5069 408
408 5069 5070 409
409 5070 5071 410
410 5071 5072 411
411 5072 5073 412
412 5073 5074 413
413 5074 5075 414
414 5075 5076 415
415 5076 5077 416
416 5077 5078 417
417 5078 5079 418
418 5079 185 7
323 324 5080 5061
5061 5080 5081 5062
5062 5081 5082 5063
5063 5082 5083 5064
5064 5083 5084 5065
5065 5084 5085 5066
5066 5085 5086 5067
5067 5086 5087 5068
5068 5087 5088 5069
5069 5088 5089 5070
5070 5089 5090 5071
5071 5090 5091 5072
5072 5091 5092 5073
5073 5092 5093 5074
5074 5093 5094 5075
5075 5094 5095 5076
5076 5095 5096 5077
5077 5096 5097 5078
5078 5097 5098 5079
5079 5098 186 185
324 325 5099 5080
5080 5099 5100 5081
5081 5100 5101 5082
5082 5101 5102 5083
5083 5102 5103 5084
5084 5103 5104 5085
5085 5104 5105 5086
5086 5105 5106 5087
5087 5106 5107 5088
5088 5107 5108 5089
5089 5108 5109 5090
5090 5109 5110 5091
5091 5110 5111 5092
5092 5111 5112 5093
5093 5112 5113 5094
5094 5113 5114 5095
5095 5114 5115 5096
5096 5115 5116 5097
5097 5116 5117 5098
5098 5117 187 186
325 326 5118 5099
5099 5118 5119 5100
5100 5119 5120 5101
5101 5120 5121 5102
5102 5121 5122 5103
5103 5122 5123 5104
5104 5123 5124 5105
5105 5124 5125 5106
5106 5125 5126 5107
5107 5126 5127 5108
5108 5127 5128 5109
5109 5128 5129 5110
5110 5129 5130 5111
5111 5130 5131 5112
5112 5131 5132 5113
5113 5132 5133 5114
5114 5133 5134 5115
5115 5134 5135 5116
5116 5135 5136 5117
5117 5136 188 187
326 327 5137 5118
5118 5137 5138 5119
5119 5138 5139 5120
5120 5139 5140 5121
5121 5140 5141 5122
5122 5141 5142 5123
5123 5142 5143 5124
5124 5143 5144 5125
5125 5144 5145 5126
5126 5145 5146 5127
5127 5146 5147 5128
5128 5147 5148 5129
5129 5148 5149 5130
5130 5149 5150 5131
5131 5150 5151 5132
5132 5151 5152 5133
5133 5152 5153 5134
5134 5153 5154 5135
5135 5154 5155 5136
5136 5155 189 188
327 328 5156 5137
5137 5156 5157 5138
5138 5157 5158 5139
5139 5158 5159 5140
5140 5159 5160 5141
5141 5160 5161 5142
5142 5161 5162 5143
5143 5162 5163 5144
5144 5163 5164 5145
5145 5164 5165 5146
5146 5165 5166 5147
5147 5166 5167 5148
5148 5167 5168 5149
5149 5168 5169 5150
5150 5169 5170 5151
5151 5170 5171 5152
5152 5171 5172 5153
5153 5172 5173 5154
5154 5173 5174 5155
5155 5174 190 189
328 329 5175 5156
5156 5175 5176 5157
5157 5176 5177 5158
5158 5177 5178 5159
5159 5178 5179 5160
5160 5179 5180 5161
5161 5180 5181 5162
5162 5181 5182 5163
5163 5182 5183 5164
5164 5183 5184 5165
5165 5184 5185 5166
5166 5185 5186 5167
5167 5186 5187 5168
5168 5187 5188 5169
5169 5188 5189 5170
5170 5189 5190 5171
5171 5190 5191 5172
5172 5191 5192 5173
5173 5192 5193 5174
5174 5193 191 190
329 330 5194 5175
5175 5194 5195 5176
5176 5195 5196 5177
5177 5196 5197 5178
5178 5197 5198 5179
5179 5198 5199 5180
5180 5199 5200 5181
5181 5200 5201 5182
5182 5201 5202 5183
5183 5202 5203 5184
5184 5203 5204 5185
5185 5204 5205 5186
5186 5205 5206 5187
5187 5206 5207 5188
5188 5207 5208 5189
5189 5208 5209 5190
5190 5209 5210 5191
5191 5210 5211 5192
5192 5211 5212 5193
5193 5212 192 191
330 331 5213 5194
5194 5213 5214 5195
5195 5214 5215 5196
5196 5215 5216 5197
5197 5216 5217 5198
5198 5217 5218 5199
5199 5218 5219 5200
5200 5219 5220 5201
5201 5220 5221 5202
5202 5221 5222 5203
5203 5222 5223 5204
5204 5223 5224 5205
5205 5224 5225 5206
5206 5225 5226 5207
5207 5226 5227 5208
5208 5227 5228 5209
5209 5228 5229 5210
5210 5229 5230 5211
5211 5230 5231 5212
5212 5231 193 192
331 332 5232 5213
5213 5232 5233 5214
5214 5233 5234 5215
5215 5234 5235 5216
5216 5235 5236 5217
5217 5236 5237 5218
5218 5237 5238 5219
5219 5238 5239 5220
5220 5239 5240 5221
5221 5240 5241 5222
5222 5241 5242 5223
5223 5242 5243 5224
5224 5243 5244 5225
5225 5244 5245 5226
5226 5245 5246 5227
5227 5246 5247 5228
5228 5247 5248 5229
5229 5248 5249 5230
5230 5249 5250 5231
5231 5250 194 193
332 333 5251 5232
5232 5251 5252 5233
5233 5252 5253 5234
5234 5253 5254 5235
5235 5254 5255 5236
5236 5255 5256 5237
5237 5256 5257 5238
5238 5257 5258 5239
5239 5258 5259 5240
5240 5259 5260 5241
5241 5260 5261 5242
5242 5261 5262 5243
5243 5262 5263 5244
5244 5263 5264 5245
5245 5264 5265 5246
5246 5265 5266 5247
5247 5266 5267 5248
5248 5267 5268 5249
5249 5268 5269 5250
5250 5269 195 194
333 334 5270 5251
5251 5270 5271 5252
5252 5271 5272 5253
5253 5272 5273 5254
5254 5273 5274 5255
5255 5274 5275 5256
5256 5275 5276 5257
5257 5276 5277 5258
5258 5277 5278 5259
5259 5278 5279 5260
5260 5279 5280 5261
5261 5280 5281 5262
5262 5281 5282 5263
5263 5282 5283 5264
5264 5283 5284 5265
5265 5284 5285 5266
5266 5285 5286 5267
5267 5286 5287 5268
5268 5287 5288 5269
5269 5288 196 195
334 335 5289 5270
5270 5289 5290 5271
5271 5290 5291 5272
5272 5291 5292 5273
5273 5292 5293 5274
5274 5293 5294 5275
5275 5294 5295 5276
5276 5295 5296 5277
5277 5296 5297 5278
5278 5297 5298 5279
5279 5298 5299 5280
5280 5299 5300 5281
5281 5300 5301 5282
5282 5301 5302 5283
5283 5302 5303 5284
5284 5303 5304 5285
5285 5304 5305 5286
5286 5305 5306 5287
5287 5306 5307 5288
5288 5307 197 196
335 336 5308 5289
5289 5308 5309 5290
5290 5309 5310 5291
5291 5310 5311 5292
5292 5311 5312 5293
5293 5312 5313 5294
5294 5313 5314 5295
5295 5314 5315 5296
5296 5315 5316 5297
5297 5316 5317 5298
5298 5317 5318 5299
5299 5318 5319 5300
5300 5319 5320 5301
5301 5320 5321 5302
5302 5321 5322 5303
5303 5322 5323 5304
5304 5323 5324 5305
5305 5324 5325 5306
5306 5325 5326 5307
5307 5326 198 197
336 337 5327 5308
5308 5327 5328 5309
5309 5328 5329 5310
5310 5329 5330 5311
5311 5330 5331 5312
5312 5331 5332 5313
5313 5332 5333 5314
5314 5333 5334 5315
5315 5334 5335 5316
5316 5335 5336 5317
5317 5336 5337 5318
5318 5337 5338 5319
5319 5338 5339 5320
5320 5339 5340 5321
5321 5340 5341 5322
5322 5341 5342 5323
5323 5342 5343 5324
5324 5343 5344 5325
5325 5344 5345 5326
5326 5345 199 198
337 338 5346 5327
5327 5346 5347 5328
5328 5347 5348 5329
5329 5348 5349 5330
5330 5349 5350 5331
5331 5350 5351 5332
5332 5351 5352 5333
5333 5352 5353 5334
5334 5353 5354 5335
5335 5354 5355 5336
5336 5355 5356 5337
5337 5356 5357 5338
5338 5357 5358 5339
5339 5358 5359 5340
5340 5359 5360 5341
5341 5360 5361 5342
5342 5361 5362 5343
5343 5362 5363 5344
5344 5363 5364 5345
5345 5364 200 199
338 339 5365 5346
5346 5365 5366 5347
5347 5366 5367 5348
5348 5367 5368 5349
5349 5368 5369 5350
5350 5369 5370 5351
5351 5370 5371 5352
5352 5371 5372 5353
5353 5372 5373 5354
5354 5373 5374 5355
5355 5374 5375 5356
5356 5375 5376 5357
5357 5376 5377 5358
5358 5377 5378 5359
5359 5378 5379 5360
5360 5379 5380 5361
5361 5380 5381 5362
5362 5381 5382 5363
5363 5382 5383 5364
5364 5383 201 200
339 340 5384 5365
5365 5384 5385 5366
5366 5385 5386 5367
5367 5386 5387 5368
5368 5387 5388 5369
5369 5388 5389 5370
5370 5389 5390 5371
5371 5390 5391 5372
5372 5391 5392 5373
5373 5392 5393 5374
5374 5393 5394 5375
5375 5394 5395 5376
5376 5395 5396 5377
5377 5396 5397 5378
5378 5397 5398 5379
5379 5398 5399 5380
5380 5399 5400 5381
5381 5400 5401 5382
5382 5401 5402 5383
5383 5402 202 201
340 341 5403 5384
5384 5403 5404 5385
5385 5404 5405 5386
5386 5405 5406 5387
5387 5406 5407 5388
5388 5407 5408 5389
5389 5408 5409 5390
5390 5409 5410 5391
5391 5410 5411 5392
5392 5411 5412 5393
5393 5412 5413 5394
5394 5413 5414 5395
5395 5414 5415 5396
5396 5415 5416 5397
5397 5416 5417 5398
5398 5417 5418 5399
5399 5418 5419 5400
5400 5419 5420 5401
5401 5420 5421 5402
5402 5421 203 202
341 342 5422 5403
5403 5422 5423 5404
5404 5423 5424 5405
5405 5424 5425 5406
5406 5425 5426 5407
5407 5426 5427 5408
5408 5427 5428 5409
5409 5428 5429 5410
5410 5429 5430 5411
5411 5430 5431 5412
5412 5431 5432 5413
5413 5432 5433 5414
5414 5433 5434 5415
5415 5434 5435 5416
5416 5435 5436 5417
5417 5436 5437 5418
5418 5437 5438 5419
5419 5438 5439 5420
5420 5439 5440 5421
5421 5440 204 203
342 343 5441 5422
5422 5441 5442 5423
5423 5442 5443 5424
5424 5443 5444 5425
5425 5444 5445 5426
5426 5445 5446 5427
5427 5446 5447 5428
5428 5447 5448 5429
5429 5448 5449 5430
5430 5449 5450 5431
5431 5450 5451 5432
5432 5451 5452 5433
5433 5452 5453 5434
5434 5453 5454 5435
5435 5454 5455 5436
5436 5455 5456 5437
5437 5456 5457 5438
5438 5457 5458 5439
5439 5458 5459 5440
5440 5459 205 204
343 344 5460 5441
5441 5460 5461 5442
5442 5461 5462 5443
5443 5462 5463 5444
5444 5463 5464 5445
5445 5464 5465 5446
5446 5465 5466 5447
5447 5466 5467 5448
5448 5467 5468 5449
5449 5468 5469 5450
5450 5469 5470 5451
5451 5470 5471 5452
5452 5471 5472 5453
5453 5472 5473 5454
5454 5473 5474 5455
5455 5474 5475 5456
5456 5475 5476 5457
5457 5476 5477 5458
5458 5477 5478 5459
5459 5478 206 205
344 345 5479 5460
5460 5479 5480 5461
5461 5480 5481 5462
5462 5481 5482 5463
5463 5482 5483 5464
5464 5483 5484 5465
5465 5484 5485 5466
5466 5485 5486 5467
5467 5486 5487 5468
5468 5487 5488 5469
5469 5488 5489 5470
5470 5489 5490 5471
5471 5490 5491 5472
5472 5491 5492 5473
5473 5492 5493 5474
5474 5493 5494 5475
5475 5494 5495 5476
5476 5495 5496 5477
5477 5496 5497 5478
5478 5497 207 206
345 346 5498 5479
5479 5498 5499 5480
5480 5499 5500 5481
5481 5500 5501 5482
5482 5501 5502 5483
5483 5502 5503 5484
5484 5503 5504 5485
5485 5504 5505 5486
5486 5505 5506 5487
5487 5506 5507 5488
5488 5507 5508 5489
5489 5508 5509 5490
5490 5509 5510 5491
5491 5510 5511 5492
5492 5511 5512 5493
5493 5512 5513 5494
5494 5513 5514 5495
5495 5514 5515 5496
5496 5515 5516 5497
5497 5516 208 207
346 347 5517 5498
5498 5517 5518 5499
5499 5518 5519 5500
5500 5519 5520 5501
5501 5520 5521 5502
5502 5521 5522 5503
5503 5522 5523 5504
5504 5523 5524 5505
5505 5524 5525 5506
5506 5525 5526 5507
5507 5526 5527 5508
5508 5527 5528 5509
5509 5528 5529 5510
5510 5529 5530 5511
5511 5530 5531 5512
5512 5531 5532 5513
5513 5532 5533 5514
5514 5533 5534 5515
5515 5534 5535 5516
5516 5535 209 208
347 348 5536 5517
5517 5536 5537 5518
5518 5537 5538 5519
5519 5538 5539 5520
5520 5539 5540 5521
5521 5540 5541 5522
5522 5541 5542 5523
5523 5542 5543 5524
5524 5543 5544 5525
5525 5544 5545 5526
5526 5545 5546 5527
5527 5546 5547 5528
5528 5547 5548 5529
5529 5548 5549 5530
5530 5549 5550 5531
5531 5550 5551 5532
5532 5551 5552 5533
5533 5552 5553 5534
5534 5553 5554 5535
5535 5554 210 209
348 349 5555 5536
5536 5555 5556 5537
5537 5556 5557 5538
5538 5557 5558 5539
5539 5558 5559 5540
5540 5559 5560 5541
5541 5560 5561 5542
5542 5561 5562 5543
5543 5562 5563 5544
5544 5563 5564 5545
5545 5564 5565 5546
5546 5565 5566 5547
5547 5566 5567 5548
5548 5567 5568 5549
5549 5568 5569 5550
5550 5569 5570 5551
5551 5570 5571 5552
5552 5571 5572 5553
5553 5572 5573 5554
5554 5573 211 210
349 350 5574 5555
5555 5574 5575 5556
5556 5575 5576 5557
5557 5576 5577 5558
5558 5577 5578 5559
5559 5578 5579 5560
5560 5579 5580 5561
5561 5580 5581 5562
5562 5581 5582 5563
5563 5582 5583 5564
5564 5583 5584 5565
5565 5584 5585 5566
5566 5585 5586 5567
5567 5586 5587 5568
5568 5587 5588 5569
5569 5588 5589 5570
5570 5589 5590 5571
5571 5590 5591 5572
5572 5591 5592 5573
5573 5592 212 211
350 351 5593 5574
5574 5593 5594 5575
5575 5594 5595 5576
5576 5595 5596 5577
5577 5596 5597 5578
5578 5597 5598 5579
5579 5598 5599 5580
5580 5599 5600 5581
5581 5600 5601 5582
5582 5601 5602 5583
5583 5602 5603 5584
5584 5603 5604 5585
5585 5604 5605 5586
5586 5605 5606 5587
5587 5606 5607 5588
5588 5607 5608 5589
5589 5608 5609 5590
5590 5609 5610 5591
5591 5610 5611 5592
5592 5611 213 212
351 352 5612 5593
5593 5612 5613 5594
5594 5613 5614 5595
5595 5614 5615 5596
5596 5615 5616 5597
5597 5616 5617 5598
5598 5617 5618 5599
5599 5618 5619 5600
5600 5619 5620 5601
5601 5620 5621 5602
5602 5621 5622 5603
5603 5622 5623 5604
5604 5623 5624 5605
5605 5624 5625 5606
5606 5625 5626 5607
5607 5626 5627 5608
5608 5627 5628 5609
5609 5628 5629 5610
5610 5629 5630 5611
5611 5630 214 213
352 353 5631 5612
5612 5631 5632 5613
5613 5632 5633 5614
5614 5633 5634 5615
5615 5634 5635 5616
5616 5635 5636 5617
5617 5636 5637 5618
5618 5637 5638 5619
5619 5638 5639 5620
5620 5639 5640 5621
5621 5640 5641 5622
5622 5641 5642 5623
5623 5642 5643 5624
5624 5643 5644 5625
5625 5644 5645 5626
5626 5645 5646 5627
5627 5646 5647 5628
5628 5647 5648 5629
5629 5648 5649 5630
5630 5649 215 214
353 354 5650 5631
5631 5650 5651 5632
5632 5651 5652 5633
5633 5652 5653 5634
5634 5653 5654 5635
5635 5654 5655 5636
5636 5655 5656 5637
5637 5656 5657 5638
5638 5657 5658 5639
5639 5658 5659 5640
5640 5659 5660 5641
5641 5660 5661 5642
5642 5661 5662 5643
5643 5662 5663 5644
5644 5663 5664 5645
5645 5664 5665 5646
5646 5665 5666 5647
5647 5666 5667 5648
5648 5667 5668 5649
5649 5668 216 215
354 355 5669 5650
5650 5669 5670 5651
5651 5670 5671 5652
5652 5671 5672 5653
5653 5672 5673 5654
5654 5673 5674 5655
5655 5674 5675 5656
5656 5675 5676 5657
5657 5676 5677 5658
5658 5677 5678 5659
5659 5678 5679 5660
5660 5679 5680 5661
5661 5680 5681 5662
5662 5681 5682 5663
5663 5682 5683 5664
5664 5683 5684 5665
5665 5684 5685 5666
5666 5685 5686 5667
5667 5686 5687 5668
5668 5687 217 216
355 356 5688 5669
5669 5688 5689 5670
5670 5689 5690 5671
5671 5690 5691 5672
5672 5691 5692 5673
5673 5692 5693 5674
5674 5693 5694 5675
5675 5694 5695 5676
5676 5695 5696 5677
5677 5696 5697 5678
5678 5697 5698 5679
5679 5698 5699 5680
5680 5699 5700 5681
5681 5700 5701 5682
5682 5701 5702 5683
5683 5702 5703 5684
5684 5703 5704 5685
5685 5704 5705 5686
5686 5705 5706 5687
5687 5706 218 217
356 357 5707 5688
5688 5707 5708 5689
5689 5708 5709 5690
5690 5709 5710 5691
5691 5710 5711 5692
5692 5711 5712 5693
5693 5712 5713 5694
5694 5713 5714 5695
5695 5714 5715 5696
5696 5715 5716 5697
5697 5716 5717 5698
5698 5717 5718 5699
5699 5718 5719 5700
5700 5719 5720 5701
5701 5720 5721 5702
5702 5721 5722 5703
5703 5722 5723 5704
5704 5723 5724 5705
5705 5724 5725 5706
5706 5725 219 218
357 358 5726 5707
5707 5726 5727 5708
5708 5727 5728 5709
5709 5728 5729 5710
5710 5729 5730 5711
5711 5730 5731 5712
5712 5731 5732 5713
5713 5732 5733 5714
5714 5733 5734 5715
5715 5734 5735 5716
5716 5735 5736 5717
5717 5736 5737 5718
5718 5737 5738 5719
5719 5738 5739 5720
5720 5739 5740 5721
5721 5740 5741 5722
5722 5741 5742 5723
5723 5742 5743 5724
5724 5743 5744 5725
5725 5744 220 219
358 359 5745 5726
5726 5745 5746 5727
5727 5746 5747 5728
5728 5747 5748 5729
5729 5748 5749 5730
5730 5749 5750 5731
5731 5750 5751 5732
5732 5751 5752 5733
5733 5752 5753 5734
5734 5753 5754 5735
5735 5754 5755 5736
5736 5755 5756 5737
5737 5756 5757 5738
5738 5757 5758 5739
5739 5758 5759 5740
5740 5759 5760 5741
5741 5760 5761 5742
5742 5761 5762 5743
5743 5762 5763 5744
5744 5763 221 220
359 360 5764 5745
5745 5764 5765 5746
5746 5765 5766 5747
5747 5766 5767 5748
5748 5767 5768 5749
5749 5768 5769 5750
5750 5769 5770 5751
5751 5770 5771 5752
5752 5771 5772 5753
5753 5772 5773 5754
5754 5773 5774 5755
5755 5774 5775 5756
5756 5775 5776 5757
5757 5776 5777 5758
5758 5777 5778 5759
5759 5778 5779 5760
5760 5779 5780 5761
5761 5780 5781 5762
5762 5781 5782 5763
5763 5782 222 221
360 361 5783 5764
5764 5783 5784 5765
5765 5784 5785 5766
5766 5785 5786 5767
5767 5786 5787 5768
5768 5787 5788 5769
5769 5788 5789 5770
5770 5789 5790 5771
5771 5790 5791 5772
5772 5791 5792 5773
5773 5792 5793 5774
5774 5793 5794 5775
5775 5794 5795 5776
5776 5795 5796 5777
5777 5796 5797 5778
5778 5797 5798 5779
5779 5798 5799 5780
5780 5799 5800 5781
5781 5800 5801 5782
5782 5801 223 222
361 10 419 5783
5783 419 420 5784
5784 420 421 5785
5785 421 422 5786
5786 422 423 5787
5787 423 424 5788
5788 424 425 5789
5789 425 426 5790
5790 426 427 5791
5791 427 428 5792
5792 428 429 5793
5793 429 430 5794
5794 430 431 5795
5795 431 432 5796
5796 432 433 5797
5797 433 434 5798
5798 434 435 5799
5799 435 436 5800
5800 436 437 5801
5801 437 8 223
</DataArray>
<DataArray type="Int64" Name="offsets" format="ascii">
4
8
12
16
20
24
28
32
36
40
44
48
52
56
60
64
68
72
76
80
84
88
92
96
100
104
108
112
116
120
124
128
132
136
140
144
148
152
156
160
164
168
172
176
180
184
188
192
196
200
204
208
212
216
220
224
228
232
236
240
244
248
252
256
260
264
268
272
276
280
284
288
292
296
300
304
308
312
316
320
324
328
332
336
340
344
348
352
356
360
364
368
372
376
380
384
388
392
396
400
404
408
412
416
420
424
428
432
436
440
444
448
452
456
460
464
468
472
476
480
484
488
492
496
500
504
508
512
516
520
524
528
532
536
540
544
548
552
556
560
564
568
572
576
580
584
588
592
596
600
604
608
612
616
620
624
628
632
636
640
644
648
652
656
660
664
668
672
676
680
684
688
692
696
700
704
708
712
716
720
724
728
732
736
740
744
748
752
756
760
764
768
772
776
780
784
788
792
796
800
804
808
812
816
820
824
828
832
836
840
844
848
852
856
860
864
868
872
876
880
884
888
892
896
900
904
908
912
916
920
924
928
932
936
940
944
948
952
956
960
964
968
972
976
980
984
988
992
996
1000
1004
1008
1012
1016
1020
1024
1028
1032
1036
1040
1044
1048
1052
1056
1060
1064
1068
1072
1076
1080
1084
1088
1092
1096
1100
1104
1108
1112
1116
1120
1124
1128
1132
1136
1140
1144
1148
1152
1156
1160
1164
1168
1172
1176
1180
1184
1188
1192
1196
1200
1204
1208
1212
1216
1220
1224
1228
1232
1236
1240
1244
1248
1252
1256
1260
1264
1268
1272
1276
1280
1284
1288
1292
1296
1300
1304
1308
1312
1316
1320
1324
1328
1332
1336
1340
1344
1348
1352
1356
1360
1364
1368
1372
1376
1380
1384
1388
1392
1396
1400
1404
1408
1412
1416
1420
1424
1428
1432
1436
1440
1444
1448
1452
1456
1460
1464
1468
1472
1476
1480
1484
1488
1492
1496
1500
1504
1508
1512
1516
1520
1524
1528
1532
1536
1540
1544
1548
1552
1556
1560
1564
1568
1572
1576
1580
1584
1588
1592
1596
1600
1604
1608
1612
1616
1620
1624
1628
1632
1636
1640
1644
1648
1652
1656
1660
1664
1668
1672
1676
1680
1684
1688
1692
1696
1700
1704
1708
1712
1716
1720
1724
1728
1732
1736
1740
1744
1748
1752
1756
1760
1764
1768
1772
1776
1780
1784
1788
1792
1796
1800
1804
1808
1812
1816
1820
1824
1828
1832
1836
1840
1844
1848
1852
1856
1860
1864
1868
1872
1876
1880
1884
1888
1892
1896
1900
1904
1908
1912
1916
1920
1924
1928
1932
1936
1940
1944
1948
1952
1956
1960
1964
1968
1972
1976
1980
1984
1988
1992
1996
2000
2004
2008
2012
2016
2020
2024
2028
2032
2036
2040
2044
2048
2052
2056
2060
2064
2068
2072
2076
2080
2084
2088
2092
2096
2100
2104
2108
2112
2116
2120
2124
2128
2132
2136
2140
2144
2148
2152
2156
2160
2164
2168
2172
2176
2180
2184
2188
2192
2196
2200
2204
2208
2212
2216
2220
2224
2228
2232
2236
2240
2244
2248
2252
2256
2260
2264
2268
2272
2276
2280
2284
2288
2292
2296
2300
2304
2308
2312
2316
2320
2324
2328
2332
2336
2340
2344
2348
2352
2356
2360
2364
2368
2372
2376
2380
2384
2388
2392
2396
2400
2404
2408
2412
2416
2420
2424
2428
2432
2436
2440
2444
2448
2452
2456
2460
2464
2468
2472
2476
2480
2484
2488
2492
2496
2500
2504
2508
2512
2516
2520
2524
2528
2532
2536
2540
2544
2548
2552
2556
2560
2564
2568
2572
2576
2580
2584
2588
2592
2596
2600
2604
2608
2612
2616
2620
2624
2628
2632
2636
2640
2644
2648
2652
2656
2660
2664
2668
2672
2676
2680
2684
2688
2692
2696
2700
2704
2708
2712
2716
2720
2724
2728
2732
2736
2740
2744
2748
2752
2756
2760
2764
2768
2772
2776
2780
2784
2788
2792
2796
2800
2804
2808
2812
2816
2820
2824
2828
2832
2836
2840
2844
2848
2852
2856
2860
2864
2868
2872
2876
2880
2884
2888
2892
2896
2900
2904
2908
2912
2916
2920
2924
2928
2932
2936
2940
2944
2948
2952
2956
2960
2964
2968
2972
2976
2980
2984
2988
2992
2996
3000
3004
3008
3012
3016
3020
3024
3028
3032
3036
3040
3044
3048
3052
3056
3060
3064
3068
3072
3076
3080
3084
3088
3092
3096
3100
3104
3108
3112
3116
3120
3124
3128
3132
3136
3140
3144
3148
3152
3156
3160
3164
3168
3172
3176
3180
3184
3188
3192
3196
3200
3204
3208
3212
3216
3220
3224
3228
3232
3236
3240
3244
3248
3252
3256
3260
3264
3268
3272
3276
3280
3284
3288
3292
3296
3300
3304
3308
3312
3316
3320
3324
3328
3332
3336
3340
3344
3348
3352
3356
3360
3364
3368
3372
3376
3380
3384
3388
3392
3396
3400
3404
3408
3412
3416
3420
3424
3428
3432
3436
3440
3444
3448
3452
3456
3460
3464
3468
3472
3476
3480
3484
3488
3492
3496
3500
3504
3508
3512
3516
3520
3524
3528
3532
3536
3540
3544
3548
3552
3556
3560
3564
3568
3572
3576
3580
3584
3588
3592
3596
3600
3604
3608
3612
3616
3620
3624
3628
3632
3636
3640
3644
3648
3652
3656
3660
3664
3668
3672
3676
3680
3684
3688
3692
3696
3700
3704
3708
3712
3716
3720
3724
3728
3732
3736
3740
3744
3748
3752
3756
3760
3764
3768
3772
3776
3780
3784
3788
3792
3796
3800
3804
3808
3812
3816
3820
3824
3828
3832
3836
3840
3844
3848
3852
3856
3860
3864
3868
3872
3876
3880
3884
3888
3892
3896
3900
3904
3908
3912
3916
3920
3924
3928
3932
3936
3940
3944
3948
3952
3956
3960
3964
3968
3972
3976
3980
3984
3988
3992
3996
4000
4004
4008
4012
4016
4020
4024
4028
4032
4036
4040
4044
4048
4052
4056
4060
4064
4068
4072
4076
4080
4084
4088
4092
4096
4100
4104
4108
4112
4116
4120
4124
4128
4132
4136
4140
4144
4148
4152
4156
4160
4164
4168
4172
4176
4180
4184
4188
4192
4196
4200
4204
4208
4212
4216
4220
4224
4228
4232
4236
4240
4244
4248
4252
4256
4260
4264
4268
4272
4276
4280
4284
4288
4292
4296
4300
4304
4308
4312
4316
4320
4324
4328
4332
4336
4340
4344
4348
4352
4356
4360
4364
4368
4372
4376
4380
4384
4388
4392
4396
4400
4404
4408
4412
4416
4420
4424
4428
4432
4436
4440
4444
4448
4452
4456
4460
4464
4468
4472
4476
4480
4484
4488
4492
4496
4500
4504
4508
4512
4516
4520
4524
4528
4532
4536
4540
4544
4548
4552
4556
4560
4564
4568
4572
4576
4580
4584
4588
4592
4596
4600
4604
4608
4612
4616
4620
4624
4628
4632
4636
4640
4644
4648
4652
4656
4660
4664
4668
4672
4676
4680
4684
4688
4692
4696
4700
4704
4708
4712
4716
4720
4724
4728
4732
4736
4740
4744
4748
4752
4756
4760
4764
4768
4772
4776
4780
4784
4788
4792
4796
4800
4804
4808
4812
4816
4820
4824
4828
4832
4836
4840
4844
4848
4852
4856
4860
4864
4868
4872
4876
4880
4884
4888
4892
4896
4900
4904
4908
4912
4916
4920
4924
4928
4932
4936
4940
4944
4948
4952
4956
4960
4964
4968
4972
4976
4980
4984
4988
4992
4996
5000
5004
5008
5012
5016
5020
5024
5028
5032
5036
5040
5044
5048
5052
5056
5060
5064
5068
5072
5076
5080
5084
5088
5092
5096
5100
5104
5108
5112
5116
5120
5124
5128
5132
5136
5140
5144
5148
5152
5156
5160
5164
5168
5172
5176
5180
5184
5188
5192
5196
5200
5204
5208
5212
5216
5220
5224
5228
5232
5236
5240
5244
5248
5252
5256
5260
5264
5268
5272
5276
5280
5284
5288
5292
5296
5300
5304
5308
5312
5316
5320
5324
5328
5332
5336
5340
5344
5348
5352
5356
5360
5364
5368
5372
5376
5380
5384
5388
5392
5396
5400
5404
5408
5412
5416
5420
5424
5428
5432
5436
5440
5444
5448
5452
5456
5460
5464
5468
5472
5476
5480
5484
5488
5492
5496
5500
5504
5508
5512
5516
5520
5524
5528
5532
5536
5540
5544
5548
5552
5556
5560
5564
5568
5572
5576
5580
5584
5588
5592
5596
5600
5604
5608
5612
5616
5620
5624
5628
5632
5636
5640
5644
5648
5652
5656
5660
5664
5668
5672
5676
5680
5684
5688
5692
5696
5700
5704
5708
5712
5716
5720
5724
5728
5732
5736
5740
5744
5748
5752
5756
5760
5764
5768
5772
5776
5780
5784
5788
5792
5796
5800
5804
5808
5812
5816
5820
5824
5828
5832
5836
5840
5844
5848
5852
5856
5860
5864
5868
5872
5876
5880
5884
5888
5892
5896
5900
5904
5908
5912
5916
5920
5924
5928
5932
5936
5940
5944
5948
5952
5956
5960
5964
5968
5972
5976
5980
5984
5988
5992
5996
6000
6004
6008
6012
6016
6020
6024
6028
6032
6036
6040
6044
6048
6052
6056
6060
6064
6068
6072
6076
6080
6084
6088
6092
6096
6100
6104
6108
6112
6116
6120
6124
6128
6132
6136
6140
6144
6148
6152
6156
6160
6164
6168
6172
6176
6180
6184
6188
6192
6196
6200
6204
6208
6212
6216
6220
6224
6228
6232
6236
6240
6244
6248
6252
6256
6260
6264
6268
6272
6276
6280
6284
6288
6292
6296
6300
6304
6308
6312
6316
6320
6324
6328
6332
6336
6340
6344
6348
6352
6356
6360
6364
6368
6372
6376
6380
6384
6388
6392
6396
6400
6404
6408
6412
6416
6420
6424
6428
6432
6436
6440
6444
6448
6452
6456
6460
6464
6468
6472
6476
6480
6484
6488
6492
6496
6500
6504
6508
6512
6516
6520
6524
6528
6532
6536
6540
6544
6548
6552
6556
6560
6564
6568
6572
6576
6580
6584
6588
6592
6596
6600
6604
6608
6612
6616
6620
6624
6628
6632
6636
6640
6644
6648
6652
6656
6660
6664
6668
6672
6676
6680
6684
6688
6692
6696
6700
6704
6708
6712
6716
6720
6724
6728
6732
6736
6740
6744
6748
6752
6756
6760
6764
6768
6772
6776
6780
6784
6788
6792
6796
6800
6804
6808
6812
6816
6820
6824
6828
6832
6836
6840
6844
6848
6852
6856
6860
6864
6868
6872
6876
6880
6884
6888
6892
6896
6900
6904
6908
6912
6916
6920
6924
6928
6932
6936
6940
6944
6948
6952
6956
6960
6964
6968
6972
6976
6980
6984
6988
6992
6996
7000
7004
7008
7012
7016
7020
7024
7028
7032
7036
7040
7044
7048
7052
7056
7060
7064
7068
7072
7076
7080
7084
7088
7092
7096
7100
7104
7108
7112
7116
7120
7124
7128
7132
7136
7140
7144
7148
7152
7156
7160
7164
7168
7172
7176
7180
7184
7188
7192
7196
7200
7204
7208
7212
7216
7220
7224
7228
7232
7236
7240
7244
7248
7252
7256
7260
7264
7268
7272
7276
7280
7284
7288
7292
7296
7300
7304
7308
7312
7316
7320
7324
7328
7332
7336
7340
7344
7348
7352
7356
7360
7364
7368
7372
7376
7380
7384
7388
7392
7396
7400
7404
7408
7412
7416
7420
7424
7428
7432
7436
7440
7444
7448
7452
7456
7460
7464
7468
7472
7476
7480
7484
7488
7492
7496
7500
7504
7508
7512
7516
7520
7524
7528
7532
7536
7540
7544
7548
7552
7556
7560
7564
7568
7572
7576
7580
7584
7588
7592
7596
7600
7604
7608
7612
7616
7620
7624
7628
7632
7636
7640
7644
7648
7652
7656
7660
7664
7668
7672
7676
7680
7684
7688
7692
7696
7700
7704
7708
7712
7716
7720
7724
7728
7732
7736
7740
7744
7748
7752
7756
7760
7764
7768
7772
7776
7780
7784
7788
7792
7796
7800
7804
7808
7812
7816
7820
7824
7828
7832
7836
7840
7844
7848
7852
7856
7860
7864
7868
7872
7876
7880
7884
7888
7892
7896
7900
7904
7908
7912
7916
7920
7924
7928
7932
7936
7940
7944
7948
7952
7956
7960
7964
7968
7972
7976
7980
7984
7988
7992
7996
8000
8004
8008
8012
8016
8020
8024
8028
8032
8036
8040
8044
8048
8052
8056
8060
8064
8068
8072
8076
8080
8084
8088
8092
8096
8100
8104
8108
8112
8116
8120
8124
8128
8132
8136
8140
8144
8148
8152
8156
8160
8164
8168
8172
8176
8180
8184
8188
8192
8196
8200
8204
8208
8212
8216
8220
8224
8228
8232
8236
8240
8244
8248
8252
8256
8260
8264
8268
8272
8276
8280
8284
8288
8292
8296
8300
8304
8308
8312
8316
8320
8324
8328
8332
8336
8340
8344
8348
8352
8356
8360
8364
8368
8372
8376
8380
8384
8388
8392
8396
8400
8404
8408
8412
8416
8420
8424
8428
8432
8436
8440
8444
8448
8452
8456
8460
8464
8468
8472
8476
8480
8484
8488
8492
8496
8500
8504
8508
8512
8516
8520
8524
8528
8532
8536
8540
8544
8548
8552
8556
8560
8564
8568
8572
8576
8580
8584
8588
8592
8596
8600
8604
8608
8612
8616
8620
8624
8628
8632
8636
8640
8644
8648
8652
8656
8660
8664
8668
8672
8676
8680
8684
8688
8692
8696
8700
8704
8708
8712
8716
8720
8724
8728
8732
8736
8740
8744
8748
8752
8756
8760
8764
8768
8772
8776
8780
8784
8788
8792
8796
8800
8804
8808
8812
8816
8820
8824
8828
8832
8836
8840
8844
8848
8852
8856
8860
8864
8868
8872
8876
8880
8884
8888
8892
8896
8900
8904
8908
8912
8916
8920
8924
8928
8932
8936
8940
8944
8948
8952
8956
8960
8964
8968
8972
8976
8980
8984
8988
8992
8996
9000
9004
9008
9012
9016
9020
9024
9028
9032
9036
9040
9044
9048
9052
9056
9060
9064
9068
9072
9076
9080
9084
9088
9092
9096
9100
9104
9108
9112
9116
9120
9124
9128
9132
9136
9140
9144
9148
9152
9156
9160
9164
9168
9172
9176
9180
9184
9188
9192
9196
9200
9204
9208
9212
9216
9220
9224
9228
9232
9236
9240
9244
9248
9252
9256
9260
9264
9268
9272
9276
9280
9284
9288
9292
9296
9300
9304
9308
9312
9316
9320
9324
9328
9332
9336
9340
9344
9348
9352
9356
9360
9364
9368
9372
9376
9380
9384
9388
9392
9396
9400
9404
9408
9412
9416
9420
9424
9428
9432
9436
9440
9444
9448
9452
9456
9460
9464
9468
9472
9476
9480
9484
9488
9492
9496
9500
9504
9508
9512
9516
9520
9524
9528
9532
9536
9540
9544
9548
9552
9556
9560
9564
9568
9572
9576
9580
9584
9588
9592
9596
9600
9604
9608
9612
9616
9620
9624
9628
9632
9636
9640
9644
9648
9652
9656
9660
9664
9668
9672
9676
9680
9684
9688
9692
9696
9700
9704
9708
9712
9716
9720
9724
9728
9732
9736
9740
9744
9748
9752
9756
9760
9764
9768
9772
9776
9780
9784
9788
9792
9796
9800
9804
9808
9812
9816
9820
9824
9828
9832
9836
9840
9844
9848
9852
9856
9860
9864
9868
9872
9876
9880
9884
9888
9892
9896
9900
9904
9908
9912
9916
9920
9924
9928
9932
9936
9940
9944
9948
9952
9956
9960
9964
9968
9972
9976
9980
9984
9988
9992
9996
10000
10004
10008
10012
10016
10020
10024
10028
10032
10036
10040
10044
10048
10052
10056
10060
10064
10068
10072
10076
10080
10084
10088
10092
10096
10100
10104
10108
10112
10116
10120
10124
10128
10132
10136
10140
10144
10148
10152
10156
10160
10164
10168
10172
10176
10180
10184
10188
10192
10196
10200
10204
10208
10212
10216
10220
10224
10228
10232
10236
10240
10244
10248
10252
10256
10260
10264
10268
10272
10276
10280
10284
10288
10292
10296
10300
10304
10308
10312
10316
10320
10324
10328
10332
10336
10340
10344
10348
10352
10356
10360
10364
10368
10372
10376
10380
10384
10388
10392
10396
10400
10404
10408
10412
10416
10420
10424
10428
10432
10436
10440
10444
10448
10452
10456
10460
10464
10468
10472
10476
10480
10484
10488
10492
10496
10500
10504
10508
10512
10516
10520
10524
10528
10532
10536
10540
10544
10548
10552
10556
10560
10564
10568
10572
10576
10580
10584
10588
10592
10596
10600
10604
10608
10612
10616
10620
10624
10628
10632
10636
10640
10644
10648
10652
10656
10660
10664
10668
10672
10676
10680
10684
10688
10692
10696
10700
10704
10708
10712
10716
10720
10724
10728
10732
10736
10740
10744
10748
10752
10756
10760
10764
10768
10772
10776
10780
10784
10788
10792
10796
10800
10804
10808
10812
10816
10820
10824
10828
10832
10836
10840
10844
10848
10852
10856
10860
10864
10868
10872
10876
10880
10884
10888
10892
10896
10900
10904
10908
10912
10916
10920
10924
10928
10932
10936
10940
10944
10948
10952
10956
10960
10964
10968
10972
10976
10980
10984
10988
10992
10996
11000
11004
11008
11012
11016
11020
11024
11028
11032
11036
11040
11044
11048
11052
11056
11060
11064
11068
11072
11076
11080
11084
11088
11092
11096
11100
11104
11108
11112
11116
11120
11124
11128
11132
11136
11140
11144
11148
11152
11156
11160
11164
11168
11172
11176
11180
11184
11188
11192
11196
11200
11204
11208
11212
11216
11220
11224
11228
11232
11236
11240
11244
11248
11252
11256
11260
11264
11268
11272
11276
11280
11284
11288
11292
11296
11300
11304
11308
11312
11316
11320
11324
11328
11332
11336
11340
11344
11348
11352
11356
11360
11364
11368
11372
11376
11380
11384
11388
11392
11396
11400
11404
11408
11412
11416
11420
11424
11428
11432
11436
11440
11444
11448
11452
11456
11460
11464
11468
11472
11476
11480
11484
11488
11492
11496
11500
11504
11508
11512
11516
11520
11524
11528
11532
11536
11540
11544
11548
11552
11556
11560
11564
11568
11572
11576
11580
11584
11588
11592
11596
11600
11604
11608
11612
11616
11620
11624
11628
11632
11636
11640
11644
11648
11652
11656
11660
11664
11668
11672
11676
11680
11684
11688
11692
11696
11700
11704
11708
11712
11716
11720
11724
11728
11732
11736
11740
11744
11748
11752
11756
11760
11764
11768
11772
11776
11780
11784
11788
11792
11796
11800
11804
11808
11812
11816
11820
11824
11828
11832
11836
11840
11844
11848
11852
11856
11860
11864
11868
11872
11876
11880
11884
11888
11892
11896
11900
11904
11908
11912
11916
11920
11924
11928
11932
11936
11940
11944
11948
11952
11956
11960
11964
11968
11972
11976
11980
11984
11988
11992
11996
12000
12004
12008
12012
12016
12020
12024
12028
12032
12036
12040
12044
12048
12052
12056
12060
12064
12068
12072
12076
12080
12084
12088
12092
12096
12100
12104
12108
12112
12116
12120
12124
12128
12132
12136
12140
12144
12148
12152
12156
12160
12164
12168
12172
12176
12180
12184
12188
12192
12196
12200
12204
12208
12212
12216
12220
12224
12228
12232
12236
12240
12244
12248
12252
12256
12260
12264
12268
12272
12276
12280
12284
12288
12292
12296
12300
12304
12308
12312
12316
12320
12324
12328
12332
12336
12340
12344
12348
12352
12356
12360
12364
12368
12372
12376
12380
12384
12388
12392
12396
12400
12404
12408
12412
12416
12420
12424
12428
12432
12436
12440
12444
12448
12452
12456
12460
12464
12468
12472
12476
12480
12484
12488
12492
12496
12500
12504
12508
12512
12516
12520
12524
12528
12532
12536
12540
12544
12548
12552
12556
12560
12564
12568
12572
12576
12580
12584
12588
12592
12596
12600
12604
12608
12612
12616
12620
12624
12628
12632
12636
12640
12644
12648
12652
12656
12660
12664
12668
12672
12676
12680
12684
12688
12692
12696
12700
12704
12708
12712
12716
12720
12724
12728
12732
12736
12740
12744
12748
12752
12756
12760
12764
12768
12772
12776
12780
12784
12788
12792
12796
12800
12804
12808
12812
12816
12820
12824
12828
12832
12836
12840
12844
12848
12852
12856
12860
12864
12868
12872
12876
12880
12884
12888
12892
12896
12900
12904
12908
12912
12916
12920
12924
12928
12932
12936
12940
12944
12948
12952
12956
12960
12964
12968
12972
12976
12980
12984
12988
12992
12996
13000
13004
13008
13012
13016
13020
13024
13028
13032
13036
13040
13044
13048
13052
13056
13060
13064
13068
13072
13076
13080
13084
13088
13092
13096
13100
13104
13108
13112
13116
13120
13124
13128
13132
13136
13140
13144
13148
13152
13156
13160
13164
13168
13172
13176
13180
13184
13188
13192
13196
13200
13204
13208
13212
13216
13220
13224
13228
13232
13236
13240
13244
13248
13252
13256
13260
13264
13268
13272
13276
13280
13284
13288
13292
13296
13300
13304
13308
13312
13316
13320
13324
13328
13332
13336
13340
13344
13348
13352
13356
13360
13364
13368
13372
13376
13380
13384
13388
13392
13396
13400
13404
13408
13412
13416
13420
13424
13428
13432
13436
13440
13444
13448
13452
13456
13460
13464
13468
13472
13476
13480
13484
13488
13492
13496
13500
13504
13508
13512
13516
13520
13524
13528
13532
13536
13540
13544
13548
13552
13556
13560
13564
13568
13572
13576
13580
13584
13588
13592
13596
13600
13604
13608
13612
13616
13620
13624
13628
13632
13636
13640
13644
13648
13652
13656
13660
13664
13668
13672
13676
13680
13684
13688
13692
13696
13700
13704
13708
13712
13716
13720
13724
13728
13732
13736
13740
13744
13748
13752
13756
13760
13764
13768
13772
13776
13780
13784
13788
13792
13796
13800
13804
13808
13812
13816
13820
13824
13828
13832
13836
13840
13844
13848
13852
13856
13860
13864
13868
13872
13876
13880
13884
13888
13892
13896
13900
13904
13908
13912
13916
13920
13924
13928
13932
13936
13940
13944
13948
13952
13956
13960
13964
13968
13972
13976
13980
13984
13988
13992
13996
14000
14004
14008
14012
14016
14020
14024
14028
14032
14036
14040
14044
14048
14052
14056
14060
14064
14068
14072
14076
14080
14084
14088
14092
14096
14100
14104
14108
14112
14116
14120
14124
14128
14132
14136
14140
14144
14148
14152
14156
14160
14164
14168
14172
14176
14180
14184
14188
14192
14196
14200
14204
14208
14212
14216
14220
14224
14228
14232
14236
14240
14244
14248
14252
14256
14260
14264
14268
14272
14276
14280
14284
14288
14292
14296
14300
14304
14308
14312
14316
14320
14324
14328
14332
14336
14340
14344
14348
14352
14356
14360
14364
14368
14372
14376
14380
14384
14388
14392
14396
14400
14404
14408
14412
14416
14420
14424
14428
14432
14436
14440
14444
14448
14452
14456
14460
14464
14468
14472
14476
14480
14484
14488
14492
14496
14500
14504
14508
14512
14516
14520
14524
14528
14532
14536
14540
14544
14548
14552
14556
14560
14564
14568
14572
14576
14580
14584
14588
14592
14596
14600
14604
14608
14612
14616
14620
14624
14628
14632
14636
14640
14644
14648
14652
14656
14660
14664
14668
14672
14676
14680
14684
14688
14692
14696
14700
14704
14708
14712
14716
14720
14724
14728
14732
14736
14740
14744
14748
14752
14756
14760
14764
14768
14772
14776
14780
14784
14788
14792
14796
14800
14804
14808
14812
14816
14820
14824
14828
14832
14836
14840
14844
14848
14852
14856
14860
14864
14868
14872
14876
14880
14884
14888
14892
14896
14900
14904
14908
14912
14916
14920
14924
14928
14932
14936
14940
14944
14948
14952
14956
14960
14964
14968
14972
14976
14980
14984
14988
14992
14996
15000
15004
15008
15012
15016
15020
15024
15028
15032
15036
15040
15044
15048
15052
15056
15060
15064
15068
15072
15076
15080
15084
15088
15092
15096
15100
15104
15108
15112
15116
15120
15124
15128
15132
15136
15140
15144
15148
15152
15156
15160
15164
15168
15172
15176
15180
15184
15188
15192
15196
15200
15204
15208
15212
15216
15220
15224
15228
15232
15236
15240
15244
15248
15252
15256
15260
15264
15268
15272
15276
15280
15284
15288
15292
15296
15300
15304
15308
15312
15316
15320
15324
15328
15332
15336
15340
15344
15348
15352
15356
15360
15364
15368
15372
15376
15380
15384
15388
15392
15396
15400
15404
15408
15412
15416
15420
15424
15428
15432
15436
15440
15444
15448
15452
15456
15460
15464
15468
15472
15476
15480
15484
15488
15492
15496
15500
15504
15508
15512
15516
15520
15524
15528
15532
15536
15540
15544
15548
15552
15556
15560
15564
15568
15572
15576
15580
15584
15588
15592
15596
15600
15604
15608
15612
15616
15620
15624
15628
15632
15636
15640
15644
15648
15652
15656
15660
15664
15668
15672
15676
15680
15684
15688
15692
15696
15700
15704
15708
15712
15716
15720
15724
15728
15732
15736
15740
15744
15748
15752
15756
15760
15764
15768
15772
15776
15780
15784
15788
15792
15796
15800
15804
15808
15812
15816
15820
15824
15828
15832
15836
15840
15844
15848
15852
15856
15860
15864
15868
15872
15876
15880
15884
15888
15892
15896
15900
15904
15908
15912
15916
15920
15924
15928
15932
15936
15940
15944
15948
15952
15956
15960
15964
15968
15972
15976
15980
15984
15988
15992
15996
16000
16004
16008
16012
16016
16020
16024
16028
16032
16036
16040
16044
16048
16052
16056
16060
16064
16068
16072
16076
16080
16084
16088
16092
16096
16100
16104
16108
16112
16116
16120
16124
16128
16132
16136
16140
16144
16148
16152
16156
16160
16164
16168
16172
16176
16180
16184
16188
16192
16196
16200
16204
16208
16212
16216
16220
16224
16228
16232
16236
16240
16244
16248
16252
16256
16260
16264
16268
16272
16276
16280
16284
16288
16292
16296
16300
16304
16308
16312
16316
16320
16324
16328
16332
16336
16340
16344
16348
16352
16356
16360
16364
16368
16372
16376
16380
16384
16388
16392
16396
16400
16404
16408
16412
16416
16420
16424
16428
16432
16436
16440
16444
16448
16452
16456
16460
16464
16468
16472
16476
16480
16484
16488
16492
16496
16500
16504
16508
16512
16516
16520
16524
16528
16532
16536
16540
16544
16548
16552
16556
16560
16564
16568
16572
16576
16580
16584
16588
16592
16596
16600
16604
16608
16612
16616
16620
16624
16628
16632
16636
16640
16644
16648
16652
16656
16660
16664
16668
16672
16676
16680
16684
16688
16692
16696
16700
16704
16708
16712
16716
16720
16724
16728
16732
16736
16740
16744
16748
16752
16756
16760
16764
16768
16772
16776
16780
16784
16788
16792
16796
16800
16804
16808
16812
16816
16820
16824
16828
16832
16836
16840
16844
16848
16852
16856
16860
16864
16868
16872
16876
16880
16884
16888
16892
16896
16900
16904
16908
16912
16916
16920
16924
16928
16932
16936
16940
16944
16948
16952
16956
16960
16964
16968
16972
16976
16980
16984
16988
16992
16996
17000
17004
17008
17012
17016
17020
17024
17028
17032
17036
17040
17044
17048
17052
17056
17060
17064
17068
17072
17076
17080
17084
17088
17092
17096
17100
17104
17108
17112
17116
17120
17124
17128
17132
17136
17140
17144
17148
17152
17156
17160
17164
17168
17172
17176
17180
17184
17188
17192
17196
17200
17204
17208
17212
17216
17220
17224
17228
17232
17236
17240
17244
17248
17252
17256
17260
17264
17268
17272
17276
17280
17284
17288
17292
17296
17300
17304
17308
17312
17316
17320
17324
17328
17332
17336
17340
17344
17348
17352
17356
17360
17364
17368
17372
17376
17380
17384
17388
17392
17396
17400
17404
17408
17412
17416
17420
17424
17428
17432
17436
17440
17444
17448
17452
17456
17460
17464
17468
17472
17476
17480
17484
17488
17492
17496
17500
17504
17508
17512
17516
17520
17524
17528
17532
17536
17540
17544
17548
17552
17556
17560
17564
17568
17572
17576
17580
17584
17588
17592
17596
17600
17604
17608
17612
17616
17620
17624
17628
17632
17636
17640
17644
17648
17652
17656
17660
17664
17668
17672
17676
17680
17684
17688
17692
17696
17700
17704
17708
17712
17716
17720
17724
17728
17732
17736
17740
17744
17748
17752
17756
17760
17764
17768
17772
17776
17780
17784
17788
17792
17796
17800
17804
17808
17812
17816
17820
17824
17828
17832
17836
17840
17844
17848
17852
17856
17860
17864
17868
17872
17876
17880
17884
17888
17892
17896
17900
17904
17908
17912
17916
17920
17924
17928
17932
17936
17940
17944
17948
17952
17956
17960
17964
17968
17972
17976
17980
17984
17988
17992
17996
18000
18004
18008
18012
18016
18020
18024
18028
18032
18036
18040
18044
18048
18052
18056
18060
18064
18068
18072
18076
18080
18084
18088
18092
18096
18100
18104
18108
18112
18116
18120
18124
18128
18132
18136
18140
18144
18148
18152
18156
18160
18164
18168
18172
18176
18180
18184
18188
18192
18196
18200
18204
18208
18212
18216
18220
18224
18228
18232
18236
18240
18244
18248
18252
18256
18260
18264
18268
18272
18276
18280
18284
18288
18292
18296
18300
18304
18308
18312
18316
18320
18324
18328
18332
18336
18340
18344
18348
18352
18356
18360
18364
18368
18372
18376
18380
18384
18388
18392
18396
18400
18404
18408
18412
18416
18420
18424
18428
18432
18436
18440
18444
18448
18452
18456
18460
18464
18468
18472
18476
18480
18484
18488
18492
18496
18500
18504
18508
18512
18516
18520
18524
18528
18532
18536
18540
18544
18548
18552
18556
18560
18564
18568
18572
18576
18580
18584
18588
18592
18596
18600
18604
18608
18612
18616
18620
18624
18628
18632
18636
18640
18644
18648
18652
18656
18660
18664
18668
18672
18676
18680
18684
18688
18692
18696
18700
18704
18708
18712
18716
18720
18724
18728
18732
18736
18740
18744
18748
18752
18756
18760
18764
18768
18772
18776
18780
18784
18788
18792
18796
18800
18804
18808
18812
18816
18820
18824
18828
18832
18836
18840
18844
18848
18852
18856
18860
18864
18868
18872
18876
18880
18884
18888
18892
18896
18900
18904
18908
18912
18916
18920
18924
18928
18932
18936
18940
18944
18948
18952
18956
18960
18964
18968
18972
18976
18980
18984
18988
18992
18996
19000
19004
19008
19012
19016
19020
19024
19028
19032
19036
19040
19044
19048
19052
19056
19060
19064
19068
19072
19076
19080
19084
19088
19092
19096
19100
19104
19108
19112
19116
19120
19124
19128
19132
19136
19140
19144
19148
19152
19156
19160
19164
19168
19172
19176
19180
19184
19188
19192
19196
19200
19204
19208
19212
19216
19220
19224
19228
19232
19236
19240
19244
19248
19252
19256
19260
19264
19268
19272
19276
19280
19284
19288
19292
19296
19300
19304
19308
19312
19316
19320
19324
19328
19332
19336
19340
19344
19348
19352
19356
19360
19364
19368
19372
19376
19380
19384
19388
19392
19396
19400
19404
19408
19412
19416
19420
19424
19428
19432
19436
19440
19444
19448
19452
19456
19460
19464
19468
19472
19476
19480
19484
19488
19492
19496
19500
19504
19508
19512
19516
19520
19524
19528
19532
19536
19540
19544
19548
19552
19556
19560
19564
19568
19572
19576
19580
19584
19588
19592
19596
19600
19604
19608
19612
19616
19620
19624
19628
19632
19636
19640
19644
19648
19652
19656
19660
19664
19668
19672
19676
19680
19684
19688
19692
19696
19700
19704
19708
19712
19716
19720
19724
19728
19732
19736
19740
19744
19748
19752
19756
19760
19764
19768
19772
19776
19780
19784
19788
19792
19796
19800
19804
19808
19812
19816
19820
19824
19828
19832
19836
19840
19844
19848
19852
19856
19860
19864
19868
19872
19876
19880
19884
19888
19892
19896
19900
19904
19908
19912
19916
19920
19924
19928
19932
19936
19940
19944
19948
19952
19956
19960
19964
19968
19972
19976
19980
19984
19988
19992
19996
20000
20004
20008
20012
20016
20020
20024
20028
20032
20036
20040
20044
20048
20052
20056
20060
20064
20068
20072
20076
20080
20084
20088
20092
20096
20100
20104
20108
20112
20116
20120
20124
20128
20132
20136
20140
20144
20148
20152
20156
20160
20164
20168
20172
20176
20180
20184
20188
20192
20196
20200
20204
20208
20212
20216
20220
20224
20228
20232
20236
20240
20244
20248
20252
20256
20260
20264
20268
20272
20276
20280
20284
20288
20292
20296
20300
20304
20308
20312
20316
20320
20324
20328
20332
20336
20340
20344
20348
20352
20356
20360
20364
20368
20372
20376
20380
20384
20388
20392
20396
20400
20404
20408
20412
20416
20420
20424
20428
20432
20436
20440
20444
20448
20452
20456
20460
20464
20468
20472
20476
20480
20484
20488
20492
20496
20500
20504
20508
20512
20516
20520
20524
20528
20532
20536
20540
20544
20548
20552
20556
20560
20564
20568
20572
20576
20580
20584
20588
20592
20596
20600
20604
20608
20612
20616
20620
20624
20628
20632
20636
20640
20644
20648
20652
20656
20660
20664
20668
20672
20676
20680
20684
20688
20692
20696
20700
20704
20708
20712
20716
20720
20724
20728
20732
20736
20740
20744
20748
20752
20756
20760
20764
20768
20772
20776
20780
20784
20788
20792
20796
20800
20804
20808
20812
20816
20820
20824
20828
20832
20836
20840
20844
20848
20852
20856
20860
20864
20868
20872
20876
20880
20884
20888
20892
20896
20900
20904
20908
20912
20916
20920
20924
20928
20932
20936
20940
20944
20948
20952
20956
20960
20964
20968
20972
20976
20980
20984
20988
20992
20996
21000
21004
21008
21012
21016
21020
21024
21028
21032
21036
21040
21044
21048
21052
21056
21060
21064
21068
21072
21076
21080
21084
21088
21092
21096
21100
21104
21108
21112
21116
21120
21124
21128
21132
21136
21140
21144
21148
21152
21156
21160
21164
21168
21172
21176
21180
21184
21188
21192
21196
21200
21204
21208
21212
21216
21220
21224
21228
21232
21236
21240
21244
21248
21252
21256
21260
21264
21268
21272
21276
21280
21284
21288
21292
21296
21300
21304
21308
21312
21316
21320
21324
21328
21332
21336
21340
21344
21348
21352
21356
21360
21364
21368
21372
21376
21380
21384
21388
21392
21396
21400
21404
21408
21412
21416
21420
21424
21428
21432
21436
21440
21444
21448
21452
21456
21460
21464
21468
21472
21476
21480
21484
21488
21492
21496
21500
21504
21508
21512
21516
21520
21524
21528
21532
21536
21540
21544
21548
21552
21556
21560
21564
21568
21572
21576
21580
21584
21588
21592
21596
21600
21604
21608
21612
21616
21620
21624
21628
21632
21636
21640
21644
21648
21652
21656
21660
21664
21668
21672
21676
21680
21684
21688
21692
21696
21700
21704
21708
21712
21716
21720
21724
21728
21732
21736
21740
21744
21748
21752
21756
21760
21764
21768
21772
21776
21780
21784
21788
21792
21796
21800
21804
21808
21812
21816
21820
21824
21828
21832
21836
21840
21844
21848
21852
21856
21860
21864
21868
21872
21876
21880
21884
21888
21892
21896
21900
21904
21908
21912
21916
21920
21924
21928
21932
21936
21940
21944
21948
21952
21956
21960
21964
21968
21972
21976
21980
21984
21988
21992
21996
22000
22004
22008
22012
22016
22020
22024
22028
22032
22036
22040
22044
22048
22052
22056
22060
22064
22068
22072
22076
22080
22084
22088
22092
22096
22100
22104
22108
22112
22116
22120
22124
22128
22132
22136
22140
22144
22148
22152
22156
22160
22164
22168
22172
22176
22180
22184
22188
22192
22196
22200
22204
22208
22212
22216
22220
22224
22228
22232
22236
22240
22244
22248
22252
22256
22260
22264
22268
22272
22276
22280
22284
22288
22292
22296
22300
22304
22308
22312
22316
22320
22324
22328
22332
22336
22340
22344
22348
22352
22356
22360
22364
22368
22372
22376
22380
22384
22388
22392
22396
22400
22404
22408
22412
22416
22420
22424
22428
22432
22436
22440
22444
22448
22452
22456
22460
22464
22468
22472
22476
22480
22484
22488
22492
22496
22500
22504
22508
22512
22516
22520
22524
22528
22532
22536
22540
22544
22548
22552
22556
22560
22564
22568
22572
22576
22580
22584
22588
22592
22596
22600
22604
22608
22612
22616
22620
22624
22628
22632
22636
22640
22644
22648
22652
22656
22660
22664
22668
22672
22676
22680
22684
22688
22692
22696
22700
22704
22708
22712
22716
22720
</DataArray>
<DataArray type="Int64" Name="types" format="ascii">
9
9
9
9
9
9
9
9
9
9
9
9
9
9
9
9
9
9
9
9
9
9
9
9
9
9
9
9
9
9
9
9
9
9
9
9
9
9
9
9
9
9
9
9
9
9
9
9
9
9
9
9
9
9
9
9
9
9
9
9
9
9
9
9
9
9
9
9
9
9
9
9
9
9
9
9
9
9
9
9
9
9
9
9
9
9
9
9
9
9
9
9
9
9
9
9
9
9
9
9
9
9
9
9
9
9
9
9
9
9
9
9
9
9
9
9
9
9
9
9
9
9
9
9
9
9
9
9
9
9
9
9
9
9
9
9
9
9
9
9
9
9
9
9
9
9
9
9
9
9
9
9
9
9
9
9
9
9
9
9
9
9
9
9
9
9
9
9
9
9
9
9
9
9
9
9
9
9
9
9
9
9
9
9
9
9
9
9
9
9
9
9
9
9
9
9
9
9
9
9
9
9
9
9
9
9
9
9
9
9
9
9
9
9
9
9
9
9
9
9
9
9
9
9
9
9
9
9
9
9
9
9
9
9
9
9
9
9
9
9
9
9
9
9
9
9
9
9
9
9
9
9
9
9
9
9
9
9
9
9
9
9
9
9
9
9
9
9
9
9
9
9
9
9
9
9
9
9
9
9
9
9
9
9
9
9
9
9
9
9
9
9
9
9
9
9
9
9
9
9
9
9
9
9
9
9
9
9
9
9
9
9
9
9
9
9
9
9
9
9
9
9
9
9
9
9
9
9
9
9
9
9
9
9
9
9
9
9
9
9
9
9
9
9
9
9
9
9
9
9
9
9
9
9
9
9
9
9
9
9
9
9
9
9
9
9
9
9
9
9
9
9
9
9
9
9
9
9
9
9
9
9
9
9
9
9
9
9
9
9
9
9
9
9
9
9
9
9
9
9
9
9
9
9
9
9
9
9
9
9
9
9
9
9
9
9
9
9
9
9
9
9
9
9
9
9
9
9
9
9
9
9
9
9
9
9
9
9
9
9
9
9
9
9
9
9
9
9
9
9
9
9
9
9
9
9
9
9
9
9
9
9
9
9
9
9
9
9
9
9
9
9
9
9
9
9
9
9
9
9
9
9
9
9
9
9
9
9
9
9
9
9
9
9
9
9
9
9
9
9
9
9
9
9
9
9
9
9
9
9
9
9
9
9
9
9
9
9
9
9
9
9
9
9
9
9
9
9
9
9
9
9
9
9
9
9
9
9
9
9
9
9
9
9
9
9
9
9
9
9
9
9
9
9
9
9
9
9
9
9
9
9
9
9
9
9
9
9
9
9
9
9
9
9
9
9
9
9
9
9
9
9
9
9
9
9
9
9
9
9
9
9
9
9
9
9
9
9
9
9
9
9
9
9
9
9
9
9
9
9
9
9
9
9
9
9
9
9
9
9
9
9
9
9
9
9
9
9
9
9
9
9
9
9
9
9
9
9
9
9
9
9
9
9
9
9
9
9
9
9
9
9
9
9
9
9
9
9
9
9
9
9
9
9
9
9
9
9
9
9
9
9
9
9
9
9
9
9
9
9
9
9
9
9
9
9
9
9
9
9
9
9
9
9
9
9
9
9
9
9
9
9
9
9
9
9
9
9
9
9
9
9
9
9
9
9
9
9
9
9
9
9
9
9
9
9
9
9
9
9
9
9
9
9
9
9
9
9
9
9
9
9
9
9
9
9
9
9
9
9
9
9
9
9
9
9
9
9
9
9
9
9
9
9
9
9
9
9
9
9
9
9
9
9
9
9
9
9
9
9
9
9
9
9
9
9
9
9
9
9
9
9
9
9
9
9
9
9
9
9
9
9
9
9
9
9
9
9
9
9
9
9
9
9
9
9
9
9
9
9
9
9
9
9
9
9
9
9
9
9
9
9
9
9
9
9
9
9
9
9
9
9
9
9
9
9
9
9
9
9
9
9
9
9
9
9
9
9
9
9
9
9
9
9
9
9
9
9
9
9
9
9
9
9
9
9
9
9
9
9
9
9
9
9
9
9
9
9
9
9
9
9
9
9
9
9
9
9
9
9
9
9
9
9
9
9
9
9
9
9
9
9
9
9
9
9
9
9
9
9
9
9
9
9
9
9
9
9
9
9
9
9
9
9
9
9
9
9
9
9
9
9
9
9
9
9
9
9
9
9
9
9
9
9
9
9
9
9
9
9
9
9
9
9
9
9
9
9
9
9
9
9
9
9
9
9
9
9
9
9
9
9
9
9
9
9
9
9
9
9
9
9
9
9
9
9
9
9
9
9
9
9
9
9
9
9
9
9
9
9
9
9
9
9
9
9
9
9
9
9
9
9
9
9
9
9
9
9
9
9
9
9
9
9
9
9
9
9
9
9
9
9
9
9
9
9
9
9
9
9
9
9
9
9
9
9
9
9
9
9
9
9
9
9
9
9
9
9
9
9
9
9
9
9
9
9
9
9
9
9
9
9
9
9
9
9
9
9
9
9
9
9
9
9
9
9
9
9
9
9
9
9
9
9
9
9
9
9
9
9
9
9
9
9
9
9
9
9
9
9
9
9
9
9
9
9
9
9
9
9
9
9
9
9
9
9
9
9
9
9
9
9
9
9
9
9
9
9
9
9
9
9
9
9
9
9
9
9
9
9
9
9
9
9
9
9
9
9
9
9
9
9
9
9
9
9
9
9
9
9
9
9
9
9
9
9
9
9
9
9
9
9
9
9
9
9
9
9
9
9
9
9
9
9
9
9
9
9
9
9
9
9
9
9
9
9
9
9
9
9
9
9
9
9
9
9
9
9
9
9
9
9
9
9
9
9
9
9
9
9
9
9
9
9
9
9
9
9
9
9
9
9
9
9
9
9
9
9
9
9
9
9
9
9
9
9
9
9
9
9
9
9
9
9
9
9
9
9
9
9
9
9
9
9
9
9
9
9
9
9
9
9
9
9
9
9
9
9
9
9
9
9
9
9
9
9
9
9
9
9
9
9
9
9
9
9
9
9
9
9
9
9
9
9
9
9
9
9
9
9
9
9
9
9
9
9
9
9
9
9
9
9
9
9
9
9
9
9
9
9
9
9
9
9
9
9
9
9
9
9
9
9
9
9
9
9
9
9
9
9
9
9
9
9
9
9
9
9
9
9
9
9
9
9
9
9
9
9
9
9
9
9
9
9
9
9
9
9
9
9
9
9
9
9
9
9
9
9
9
9
9
9
9
9
9
9
9
9
9
9
9
9
9
9
9
9
9
9
9
9
9
9
9
9
9
9
9
9
9
9
9
9
9
9
9
9
9
9
9
9
9
9
9
9
9
9
9
9
9
9
9
9
9
9
9
9
9
9
9
9
9
9
9
9
9
9
9
9
9
9
9
9
9
9
9
9
9
9
9
9
9
9
9
9
9
9
9
9
9
9
9
9
9
9
9
9
9
9
9
9
9
9
9
9
9
9
9
9
9
9
9
9
9
9
9
9
9
9
9
9
9
9
9
9
9
9
9
9
9
9
9
9
9
9
9
9
9
9
9
9
9
9
9
9
9
9
9
9
9
9
9
9
9
9
9
9
9
9
9
9
9
9
9
9
9
9
9
9
9
9
9
9
9
9
9
9
9
9
9
9
9
9
9
9
9
9
9
9
9
9
9
9
9
9
9
9
9
9
9
9
9
9
9
9
9
9
9
9
9
9
9
9
9
9
9
9
9
9
9
9
9
9
9
9
9
9
9
9
9
9
9
9
9
9
9
9
9
9
9
9
9
9
9
9
9
9
9
9
9
9
9
9
9
9
9
9
9
9
9
9
9
9
9
9
9
9
9
9
9
9
9
9
9
9
9
9
9
9
9
9
9
9
9
9
9
9
9
9
9
9
9
9
9
9
9
9
9
9
9
9
9
9
9
9
9
9
9
9
9
9
9
9
9
9
9
9
9
9
9
9
9
9
9
9
9
9
9
9
9
9
9
9
9
9
9
9
9
9
9
9
9
9
9
9
9
9
9
9
9
9
9
9
9
9
9
9
9
9
9
9
9
9
9
9
9
9
9
9
9
9
9
9
9
9
9
9
9
9
9
9
9
9
9
9
9
9
9
9
9
9
9
9
9
9
9
9
9
9
9
9
9
9
9
9
9
9
9
9
9
9
9
9
9
9
9
9
9
9
9
9
9
9
9
9
9
9
9
9
9
9
9
9
9
9
9
9
9
9
9
9
9
9
9
9
9
9
9
9
9
9
9
9
9
9
9
9
9
9
9
9
9
9
9
9
9
9
9
9
9
9
9
9
9
9
9
9
9
9
9
9
9
9
9
9
9
9
9
9
9
9
9
9
9
9
9
9
9
9
9
9
9
9
9
9
9
9
9
9
9
9
9
9
9
9
9
9
9
9
9
9
9
9
9
9
9
9
9
9
9
9
9
9
9
9
9
9
9
9
9
9
9
9
9
9
9
9
9
9
9
9
9
9
9
9
9
9
9
9
9
9
9
9
9
9
9
9
9
9
9
9
9
9
9
9
9
9
9
9
9
9
9
9
9
9
9
9
9
9
9
9
9
9
9
9
9
9
9
9
9
9
9
9
9
9
9
9
9
9
9
9
9
9
9
9
9
9
9
9
9
9
9
9
9
9
9
9
9
9
9
9
9
9
9
9
9
9
9
9
9
9
9
9
9
9
9
9
9
9
9
9
9
9
9
9
9
9
9
9
9
9
9
9
9
9
9
9
9
9
9
9
9
9
9
9
9
9
9
9
9
9
9
9
9
9
9
9
9
9
9
9
9
9
9
9
9
9
9
9
9
9
9
9
9
9
9
9
9
9
9
9
9
9
9
9
9
9
9
9
9
9
9
9
9
9
9
9
9
9
9
9
9
9
9
9
9
9
9
9
9
9
9
9
9
9
9
9
9
9
9
9
9
9
9
9
9
9
9
9
9
9
9
9
9
9
9
9
9
9
9
9
9
9
9
9
9
9
9
9
9
9
9
9
9
9
9
9
9
9
9
9
9
9
9
9
9
9
9
9
9
9
9
9
9
9
9
9
9
9
9
9
9
9
9
9
9
9
9
9
9
9
9
9
9
9
9
9
9
9
9
9
9
9
9
9
9
9
9
9
9
9
9
9
9
9
9
9
9
9
9
9
9
9
9
9
9
9
9
9
9
9
9
9
9
9
9
9
9
9
9
9
9
9
9
9
9
9
9
9
9
9
9
9
9
9
9
9
9
9
9
9
9
9
9
9
9
9
9
9
9
9
9
9
9
9
9
9
9
9
9
9
9
9
9
9
9
9
9
9
9
9
9
9
9
9
9
9
9
9
9
9
9
9
9
9
9
9
9
9
9
9
9
9
9
9
9
9
9
9
9
9
9
9
9
9
9
9
9
9
9
9
9
9
9
9
9
9
9
9
9
9
9
9
9
9
9
9
9
9
9
9
9
9
9
9
9
9
9
9
9
9
9
9
9
9
9
9
9
9
9
9
9
9
9
9
9
9
9
9
9
9
9
9
9
9
9
9
9
9
9
9
9
9
9
9
9
9
9
9
9
9
9
9
9
9
9
9
9
9
9
9
9
9
9
9
9
9
9
9
9
9
9
9
9
9
9
9
9
9
9
9
9
9
9
9
9
9
9
9
9
9
9
9
9
9
9
9
9
9
9
9
9
9
9
9
9
9
9
9
9
9
9
9
9
9
9
9
9
9
9
9
9
9
9
9
9
9
9
9
9
9
9
9
9
9
9
9
9
9
9
9
9
9
9
9
9
9
9
9
9
9
9
9
9
9
9
9
9
9
9
9
9
9
9
9
9
9
9
9
9
9
9
9
9
9
9
9
9
9
9
9
9
9
9
9
9
9
9
9
9
9
9
9
9
9
9
9
9
9
9
9
9
9
9
9
9
9
9
9
9
9
9
9
9
9
9
9
9
9
9
9
9
9
9
9
9
9
9
9
9
9
9
9
9
9
9
9
9
9
9
9
9
9
9
9
9
9
9
9
9
9
9
9
9
9
9
9
9
9
9
9
9
9
9
9
9
9
9
9
9
9
9
9
9
9
9
9
9
9
9
9
9
9
9
9
9
9
9
9
9
9
9
9
9
9
9
9
9
9
9
9
9
9
9
9
9
9
9
9
9
9
9
9
9
9
9
9
9
9
9
9
9
9
9
9
9
9
9
9
9
9
9
9
9
9
9
9
9
9
9
9
9
9
9
9
9
9
9
9
9
9
9
9
9
9
9
9
9
9
9
9
9
9
9
9
9
9
9
9
9
9
9
9
9
9
9
9
9
9
9
9
9
9
9
9
9
9
9
9
9
9
9
9
9
9
9
9
9
9
9
9
9
9
9
9
9
9
9
9
9
9
9
9
9
9
9
9
9
9
9
9
9
9
9
9
9
9
9
9
9
9
9
9
9
9
9
9
9
9
9
9
9
9
9
9
9
9
9
9
9
9
9
9
9
9
9
9
9
9
9
9
9
9
9
9
9
9
9
9
9
9
9
9
9
9
9
9
9
9
9
9
9
9
9
9
9
9
9
9
9
9
9
9
9
9
9
9
9
9
9
9
9
9
9
9
9
9
9
9
9
9
9
9
9
9
9
9
9
9
9
9
9
9
9
9
9
9
9
9
9
9
9
9
9
9
9
9
9
9
9
9
9
9
9
9
9
9
9
9
9
9
9
9
9
9
9
9
9
9
9
9
9
9
9
9
9
9
9
9
9
9
9
9
9
9
9
9
9
9
9
9
9
9
9
9
9
9
9
9
9
9
9
9
9
9
9
9
9
9
9
9
9
9
9
9
9
9
9
9
9
9
9
9
9
9
9
9
9
9
9
9
9
9
9
9
9
9
9
9
9
9
9
9
9
9
9
9
9
9
9
9
9
9
9
9
9
9
9
9
9
9
9
9
9
9
9
9
9
9
9
9
9
9
9
9
9
9
9
9
9
9
9
9
9
9
9
9
9
9
9
9
9
9
9
9
9
9
9
9
9
9
9
9
9
9
9
9
9
9
9
9
9
9
9
9
9
9
9
9
9
9
9
9
9
9
9
9
9
9
9
9
9
9
9
9
9
9
9
9
9
9
9
9
9
9
9
9
9
9
9
9
9
9
9
9
9
9
9
9
9
9
9
9
9
9
9
9
9
9
9
9
9
9
9
9
9
9
9
9
9
9
9
9
9
9
9
9
9
9
9
9
9
9
9
9
9
9
9
9
9
9
9
9
9
9
9
9
9
9
9
9
9
9
9
9
9
9
9
9
9
9
9
9
9
9
9
9
9
9
9
9
9
9
9
9
9
9
9
9
9
9
9
9
9
9
9
9
9
9
9
9
9
9
9
9
9
9
9
9
9
9
9
9
9
9
9
9
9
9
9
9
9
9
9
9
9
9
9
9
9
9
9
9
9
9
9
9
9
9
9
9
9
9
9
9
9
9
9
9
9
9
9
9
9
9
9
9
9
9
9
9
9
9
9
9
9
9
9
9
9
9
9
9
9
9
9
9
9
9
9
9
9
9
9
9
9
9
9
9
9
9
9
9
9
9
9
9
9
9
9
9
9
9
9
9
9
9
9
9
9
9
9
9
9
9
9
9
9
9
9
9
9
9
9
9
9
9
9
9
9
9
9
9
9
9
9
9
9
9
9
9
9
9
9
9
9
9
9
9
9
9
9
9
9
9
9
9
9
9
9
9
9
9
9
9
9
9
9
9
9
9
9
9
9
9
9
9
9
9
9
9
9
9
9
9
9
9
9
9
9
9
9
9
9
9
9
9
9
9
9
9
9
9
9
9
9
9
9
9
9
9
9
9
9
9
9
9
9
9
9
9
9
9
9
9
9
9
9
9
9
9
9
9
9
9
9
9
9
9
9
9
9
9
9
9
9
9
9
9
9
9
9
9
9
9
9
9
9
9
9
9
9
9
9
9
9
9
9
9
9
9
9
9
9
9
9
9
9
9
9
9
9
9
9
9
9
9
9
9
9
9
9
9
9
9
9
9
9
9
9
9
9
9
9
9
9
9
9
9
9
9
9
9
9
9
9
9
9
9
9
9
9
9
9
9
9
9
9
9
9
9
9
9
9
9
9
9
9
9
9
9
9
9
9
9
9
9
9
9
9
9
9
9
9
9
9
9
9
9
9
9
9
9
9
9
9
9
9
9
9
9
9
9
9
9
9
9
9
9
9
9
9
9
9
9
9
9
9
9
9
9
9
9
9
9
9
9
9
9
9
9
9
9
9
9
9
9
9
9
9
9
9
9
9
9
9
9
9
9
9
9
9
9
9
9
9
9
9
9
9
9
9
9
9
9
9
9
9
9
9
9
9
9
9
9
9
9
9
9
9
9
9
9
9
9
9
9
9
9
9
9
9
9
9
9
9
9
9
9
9
9
9
9
9
9
9
9
9
9
9
9
9
9
9
9
9
9
9
9
9
9
9
9
9
9
9
9
9
9
9
9
9
9
9
9
9
9
9
9
9
9
9
9
9
9
9
9
9
9
9
9
9
9
9
9
9
9
9
9
9
9
9
9
9
9
9
9
9
9
9
9
9
9
9
9
9
9
9
9
9
9
9
9
9
9
9
9
9
9
9
9
9
9
9
9
9
9
9
9
9
9
9
9
9
9
9
9
9
9
9
9
9
9
9
9
9
9
9
9
9
9
9
9
9
9
9
9
9
9
9
9
9
9
9
9
9
9
9
9
9
9
9
9
9
9
9
9
9
9
9
9
9
9
9
9
9
9
9
9
9
9
9
9
9
9
9
9
9
9
9
9
9
9
9
9
9
9
9
9
9
9
9
9
9
9
9
9
9
9
9
9
9
9
9
9
9
9
9
9
9
9
9
9
9
9
9
9
9
9
9
9
9
9
9
9
9
9
9
9
9
9
9
9
9
9
9
9
9
9
9
9
9
9
9
9
9
9
9
9
9
9
9
9
9
9
9
9
9
9
9
9
9
9
9
9
9
9
9
9
9
9
9
9
9
9
9
9
9
9
9
9
9
9
9
9
9
9
9
9
9
9
9
9
9
9
9
9
9
9
9
9
9
9
9
9
9
9
9
9
9
9
9
9
9
9
9
9
9
9
9
9
9
9
9
9
9
9
9
9
9
9
9
9
9
9
9
9
9
9
9
9
9
9
9
9
9
9
9
9
9
9
9
9
9
9
9
9
9
9
9
9
9
9
9
9
9
9
9
9
9
9
9
9
9
9
9
9
9
9
9
9
9
9
9
9
9
9
9
9
9
9
9
9
9
9
9
9
9
9
9
9
9
9
9
9
9
9
9
9
9
9
9
9
9
9
9
9
9
9
9
9
9
9
9
9
9
9
9
9
9
9
9
9
9
9
9
9
9
9
9
9
9
9
9
9
9
9
9
9
9
9
9
9
9
9
9
9
9
9
9
9
9
9
9
9
9
9
9
9
9
9
9
9
9
9
9
9
9
9
9
9
9
9
9
9
9
9
9
9
9
9
9
9
9
9
9
9
9
9
9
9
9
9
9
9
9
9
9
9
9
9
9
9
9
9
9
9
9
9
9
9
9
9
9
9
9
9
9
9
9
9
9
9
9
9
9
9
9
9
9
9
9
9
9
9
9
9
9
9
9
9
9
9
9
9
9
9
9
9
9
9
9
9
9
9
9
9
9
9
9
9
9
9
9
9
9
9
9
9
9
9
9
9
9
9
9
9
9
9
9
9
9
9
9
9
9
9
9
9
9
9
9
9
9
9
9
9
9
9
9
9
9
9
9
9
9
9
9
9
9
9
9
9
9
9
9
9
9
9
9
9
9
9
9
9
9
9
9
9
9
9
9
9
9
9
9
9
9
9
9
9
9
9
9
9
9
9
9
9
9
9
9
9
9
9
9
9
9
9
9
9
9
9
9
9
9
9
9
9
9
9
9
9
9
9
9
9
9
9
9
9
9
9
9
9
9
9
9
9
9
9
9
9
9
9
9
9
9
9
9
9
9
9
9
9
9
9
9
9
9
9
9
9
9
9
9
9
9
9
9
9
9
9
9
9
9
9
9
9
9
9
9
9
9
9
9
9
9
9
9
9
9
9
9
9
9
9
9
9
9
9
9
9
9
9
9
9
9
9
9
9
9
9
9
9
9
9
9
9
9
9
9
9
9
9
9
9
9
9
9
9
9
9
9
9
9
9
9
9
9
9
9
9
9
9
9
9
9
9
9
9
9
9
9
9
9
9
9
9
9
9
9
9
9
9
9
9
9
9
9
9
9
9
9
9
9
9
9
9
9
9
9
9
9
9
9
9
9
9
9
9
9
9
9
9
9
9
9
9
9
9
9
9
9
9
9
9
9
9
9
9
9
9
9
9
9
9
9
9
9
9
9
9
9
9
9
9
9
9
9
9
9
9
9
9
9
9
9
9
9
9
9
9
9
9
9
9
9
9
9
9
9
9
9
9
9
9
9
9
9
9
9
9
9
9
9
9
9
9
9
9
9
9
9
9
9
9
9
9
9
9
9
9
9
9
9
9
9
9
9
9
9
9
9
9
9
9
9
9
9
9
9
9
9
9
9
9
9
9
9
9
9
9
9
9
9
9
9
9
9
9
9
9
9
9
9
9
9
9
9
9
9
9
9
9
9
9
9
9
9
9
9
9
9
9
9
9
9
9
9
9
9
9
9
9
9
9
9
9
9
9
9
9
9
9
9
9
9
9
9
9
9
9
9
9
9
9
9
9
9
9
9
9
9
9
9
9
9
9
9
9
9
9
9
9
9
9
9
9
9
9
9
9
9
9
9
9
9
9
9
9
9
9
9
9
9
9
9
9
9
9
9
9
9
9
9
9
9
9
9
9
9
9
9
9
9
9
9
9
9
9
9
9
9
9
9
9
9
9
9
9
9
9
9
9
9
9
9
9
9
9
9
9
9
9
9
9
9
9
9
9
9
9
9
9
9
9
9
9
9
9
9
9
9
9
9
9
9
9
9
9
9
9
9
9
9
9
9
9
9
9
9
9
9
9
9
9
9
9
9
9
9
9
9
9
9
9
9
9
9
9
9
9
9
9
9
9
9
9
9
9
9
9
9
9
9
9
9
9
9
9
9
9
9
9
9
9
9
9
9
9
9
9
9
9
9
9
9
9
9
9
9
9
9
9
9
9
9
9
9
9
9
9
9
9
9
9
9
9
9
9
9
9
9
9
9
9
9
9
9
9
9
9
9
9
9
9
9
9
9
9
9
9
9
9
9
9
9
9
9
9
9
9
9
9
9
9
9
9
9
9
9
9
9
9
9
9
9
9
9
9
9
9
9
9
9
9
9
9
9
9
9
9
9
9
9
9
9
9
9
9
9
9
9
9
9
9
9
9
9
9
9
9
9
9
9
9
9
9
9
9
9
9
9
9
9
9
9
9
9
9
9
9
9
9
9
9
9
9
9
9
9
9
9
9
9
9
9
9
9
9
9
9
9
9
9
9
9
9
9
9
9
9
9
9
9
9
9
9
9
9
9
9
9
9
9
9
9
9
9
9
9
9
9
9
9
9
9
9
9
9
9
9
9
9
9
9
9
9
9
9
9
9
9
9
9
9
9
9
9
9
9
9
9
9
9
9
9
9
9
9
9
9
9
9
9
9
9
9
9
9
9
9
9
9
9
9
9
9
9
9
9
9
9
9
9
9
9
9
9
9
9
9
9
9
9
9
9
9
9
9
9
9
9
9
9
9
9
9
9
9
9
9
9
9
9
9
9
9
9
9
9
9
9
9
9
9
9
9
9
9
9
9
9
9
9
9
9
9
9
9
9
9
9
9
9
9
9
9
9
9
9
9
9
9
9
9
9
9
9
9
9
9
9
9
9
9
9
9
9
9
9
9
9
9
9
9
9
9
9
9
9
9
9
9
9
9
9
9
9
9
9
9
9
9
9
9
9
9
9
9
9
9
9
9
9
9
9
9
9
9
9
9
9
9
9
9
9
9
9
9
9
9
9
9
9
9
9
9
9
9
9
9
9
9
9
9
9
9
9
9
9
9
9
9
9
9
9
9
9
9
9
9
9
9
9
9
9
9
9
9
9
9
9
9
9
9
9
9
9
9
9
9
9
9
9
9
9
9
9
9
9
9
9
9
9
9
9
9
9
9
9
9
9
9
9
9
9
9
9
9
9
9
9
9
9
9
9
9
9
9
9
9
9
9
9
9
9
9
9
9
9
9
9
9
9
9
9
9
9
9
9
9
9
9
9
9
9
9
9
9
9
9
9
9
9
9
9
9
9
9
9
9
9
9
9
9
9
9
9
9
9
9
9
9
9
9
9
9
9
9
9
9
9
9
9
9
9
9
9
9
9
9
9
9
9
9
9
9
9
9
9
9
9
9
9
9
9
9
9
9
9
9
9
9
9
9
9
9
9
9
9
9
9
9
9
9
9
9
9
9
9
9
9
9
9
9
9
9
9
9
9
9
9
9
9
9
9
9
9
9
9
9
9
9
9
9
9
9
9
9
9
9
9
9
9
9
9
9
9
9
9
9
9
9
9
9
9
9
9
9
9
9
9
9
9
9
9
9
9
9
9
9
9
9
9
9
9
9
9
9
9
9
9
9
9
9
9
9
9
9
9
9
9
9
9
9
9
9
9
9
9
9
9
9
9
9
9
9
9
9
9
9
9
9
9
9
9
9
9
9
9
9
9
9
9
9
9
9
9
9
9
9
9
9
9
9
9
9
9
9
9
9
9
9
9
9
9
9
9
9
9
9
9
9
9
9
9
9
9
9
9
9
9
9
9
9
9
9
9
9
9
9
9
9
9
9
9
9
9
9
9
9
9
9
9
9
9
9
9
9
9
9
9
9
9
9
9
9
9
9
9
9
9
9
9
9
9
9
9
9
</DataArray>
</Cells>
<PointData Vectors="'U'">
<DataArray type="Float64" Name="U" NumberOfComponents="2" ComponentName0="U1" ComponentName1="U2" format="ascii">
-0.4789715383087E-37 -0.1189974940168E-36
-0.4482452486142E-39 -0.1248153153580E-37
-0.1790024914733E-37  0.4489639956895E-37
 0.8085450144320E-01  0.3254874926862E-01
 0.8082790556510E-01  0.9420264654800E-02
 0.9018062110680E-01 -0.3337631911698E-01
 0.1060675569672E+00 -0.8123451191071E-01
 0.1239795232410E+01 -0.3418854292986E+00
 0.1328953334724E+01 -0.3755756367250E+00
 0.9353278918773E+00 -0.4123640586551E+00
 0.1146380865083E+01 -0.3162187673772E+00
 0.1204449332339E-36  0.1659616081332E-36
 0.1143266824997E-36  0.1543022371455E-36
 0.1103288064596E-36  0.1415847549696E-36
 0.1065230004753E-36  0.1301607738019E-36
 0.1027101544817E-36  0.1201365606066E-36
 0.9891661728565E-37  0.1112911599347E-36
 0.9517833734812E-37  0.1033981536967E-36
 0.9151578336094E-37  0.9627486555676E-37
 0.8793702100477E-37  0.8978077515589E-37
 0.8444279086132E-37  0.8380818816530E-37
 0.8103000102038E-37  0.7827373782667E-37
 0.7769377096804E-37  0.7311195723414E-37
 0.7442855265241E-37  0.6827064706113E-37
 0.7122871880283E-37  0.6370756783878E-37
 0.6808885560021E-37  0.5938806561862E-37
 0.6500389484225E-37  0.5528334873702E-37
 0.6196916071744E-37  0.5136922054198E-37
 0.5898037246507E-37  0.4762513460406E-37
 0.5603362543292E-37  0.4403348085545E-37
 0.5312536269115E-37  0.4057903930090E-37
 0.5025234365735E-37  0.3724855696592E-37
 0.4741161303339E-37  0.3403041655517E-37
 0.4460047168095E-37  0.3091437442686E-37
 0.4181645006250E-37  0.2789135128019E-37
 0.3905728443235E-37  0.2495326357016E-37
 0.3632089568839E-37  0.2209288663353E-37
 0.3360537068113E-37  0.1930374275430E-37
 0.3090894573134E-37  0.1658000901862E-37
 0.2822999210188E-37  0.1391644100531E-37
 0.2556700318213E-37  0.1130830924888E-37
 0.2291858316558E-37  0.8751346082725E-38
 0.2028343702615E-37  0.6241700980192E-38
 0.1766036162339E-37  0.3775902901935E-38
 0.1504823779042E-37  0.1350828461082E-38
 0.1244602327890E-37 -0.1036325046012E-38
 0.9852746454963E-38 -0.3388062509223E-38
 0.7267500655855E-38 -0.5706610391987E-38
 0.4689439132320E-38 -0.7993933135301E-38
 0.2117770514552E-38 -0.1025174698074E-37
-0.3009300516731E-38 -0.1468453933934E-37
-0.5566043180287E-38 -0.1686180362927E-37
-0.8119079498103E-38 -0.1901414446753E-37
-0.1066897655887E-37 -0.2114217333545E-37
-0.1321626436557E-37 -0.2324629627565E-37
-0.1576143752980E-37 -0.2532671562204E-37
-0.1830495655011E-37 -0.2738343032753E-37
-0.2084724863244E-37 -0.2941623486726E-37
-0.2338870799231E-37 -0.3142471666432E-37
-0.2592969555434E-37 -0.3340825195338E-37
-0.2847053793494E-37 -0.3536599996510E-37
-0.3101152555465E-37 -0.3729689528164E-37
-0.3355290967528E-37 -0.3919963817990E-37
-0.3609489808740E-37 -0.4107268274682E-37
-0.3863764907999E-37 -0.4291422252279E-37
-0.4118126319371E-37 -0.4472217340931E-37
-0.4372577207777E-37 -0.4649415357576E-37
-0.4627112351194E-37 -0.4822746013312E-37
-0.4881716128369E-37 -0.4991904243807E-37
-0.5136359806716E-37 -0.5156547209896E-37
-0.5390997864044E-37 -0.5316291018843E-37
-0.5645562958645E-37 -0.5470707276785E-37
-0.5899958969866E-37 -0.5619319760164E-37
-0.6154051249896E-37 -0.5761601694768E-37
-0.6407652763359E-37 -0.5896974626470E-37
-0.6660504059723E-37 -0.6024810697261E-37
-0.6912243832609E-37 -0.6144441725084E-37
-0.7162364876208E-37 -0.6255181524669E-37
-0.7410147084017E-37 -0.6356373918636E-37
-0.7654554097247E-37 -0.6447491230402E-37
-0.7894072734296E-37 -0.6528334541984E-37
-0.8126465492852E-37 -0.6599446989484E-37
-0.8348405784526E-37 -0.6662996244904E-37
-0.8555020108189E-37 -0.6724760557145E-37
-0.8739681115997E-37 -0.6798939198432E-37
-0.8895946515295E-37 -0.6921025584590E-37
-0.9031213813764E-37 -0.7187241028673E-37
-0.9244215446250E-37 -0.7899649523468E-37
-0.1019922651015E-36 -0.1024549915307E-36
 0.8073439412120E-01  0.3119976498050E-01
 0.8065666280662E-01  0.2993708662011E-01
 0.8060583392370E-01  0.2871247817618E-01
 0.8057327293206E-01  0.2750716246864E-01
 0.8055297846058E-01  0.2631377456099E-01
 0.8054114016104E-01  0.2512933335559E-01
 0.8053541964949E-01  0.2395275036077E-01
 0.8053443397565E-01  0.2278377744584E-01
 0.8053741096285E-01  0.2162253403766E-01
 0.8054397025199E-01  0.2046928342643E-01
 0.8055398513797E-01  0.1932432344990E-01
 0.8056749452365E-01  0.1818793206954E-01
 0.8058464557962E-01  0.1706034038850E-01
 0.8060565523734E-01  0.1594171991812E-01
 0.8063078320654E-01  0.1483217757415E-01
 0.8066031179760E-01  0.1373175525332E-01
 0.8069452906330E-01  0.1264043290805E-01
 0.8073371239575E-01  0.1155813664691E-01
 0.8077810725721E-01  0.1048475821706E-01
 0.8088346234923E-01  0.8364021142067E-02
 0.8094615829024E-01  0.7315808889932E-02
 0.8101597998188E-01  0.6275351589337E-02
 0.8109309960545E-01  0.5242222507061E-02
 0.8117772715838E-01  0.4215971579477E-02
 0.8127008715194E-01  0.3196109995101E-02
 0.8137040483053E-01  0.2182109800729E-02
 0.8147889999374E-01  0.1173404997925E-02
 0.8159578394232E-01  0.1693933511801E-03
 0.8172125808078E-01 -0.8305618275828E-03
 0.8185551340145E-01 -0.1827130083128E-02
 0.8199873045184E-01 -0.2821012449405E-02
 0.8215107958702E-01 -0.3812940313590E-02
 0.8231272139455E-01 -0.4803674498476E-02
 0.8248380723044E-01 -0.5794004553097E-02
 0.8266447982980E-01 -0.6784748246354E-02
 0.8285487397309E-01 -0.7776751261455E-02
 0.8305511719538E-01 -0.8770887092276E-02
 0.8326533053301E-01 -0.9768057147988E-02
 0.8348562930630E-01 -0.1076919107567E-01
 0.8371612393970E-01 -0.1177524731489E-01
 0.8395692082362E-01 -0.1278721390263E-01
 0.8420812322427E-01 -0.1380610955225E-01
 0.8446983225045E-01 -0.1483298503552E-01
 0.8474214788779E-01 -0.1586892490368E-01
 0.8502517011309E-01 -0.1691504959098E-01
 0.8531900010345E-01 -0.1797251795361E-01
 0.8562374155624E-01 -0.1904253030661E-01
 0.8593950213577E-01 -0.2012633203469E-01
 0.8626639506388E-01 -0.2122521786564E-01
 0.8660454086653E-01 -0.2234053690777E-01
 0.8695406928224E-01 -0.2347369856469E-01
 0.8731512132406E-01 -0.2462617944262E-01
 0.8768785147249E-01 -0.2579953133432E-01
 0.8807242995363E-01 -0.2699539027523E-01
 0.8846904513639E-01 -0.2821548637892E-01
 0.8887790626567E-01 -0.2946165357255E-01
 0.8929924904633E-01 -0.3073583538129E-01
 0.8973334644636E-01 -0.3204008168788E-01
 0.9064127178816E-01 -0.3474762753325E-01
 0.9111684525629E-01 -0.3615685659083E-01
 0.9160767007490E-01 -0.3760694073533E-01
 0.9211441721992E-01 -0.3910129837544E-01
 0.9263797476249E-01 -0.4064379032027E-01
 0.9317947247858E-01 -0.4223883984746E-01
 0.9374033518668E-01 -0.4389157995750E-01
 0.9432237132648E-01 -0.4560805517362E-01
 0.9492790632533E-01 -0.4739550524320E-01
 0.9555998274381E-01 -0.4926277684317E-01
 0.9622266411520E-01 -0.5122094250183E-01
 0.9692150232127E-01 -0.5328426955938E-01
 0.9766426193617E-01 -0.5547180806948E-01
 0.9846203859904E-01 -0.5781012717772E-01
 0.9933094016345E-01 -0.6033830043785E-01
 0.1002944679667E+00 -0.6311755657440E-01
 0.1013862292349E+00 -0.6625156681865E-01
 0.1026526040772E+00 -0.6993293262838E-01
 0.1041425173811E+00 -0.7458447352559E-01
 0.8952361124155E-01  0.4008487165335E-01
 0.1044038992558E+00  0.4999305492110E-01
 0.1268078047493E+00  0.5859770734477E-01
 0.1555773417582E+00  0.6530567936771E-01
 0.1896780930144E+00  0.6994905183203E-01
 0.2283222679807E+00  0.7254547054421E-01
 0.2709673579347E+00  0.7316892365163E-01
 0.3172718405978E+00  0.7199373991178E-01
 0.3670911243511E+00  0.6924168405028E-01
 0.4204991300207E+00  0.6511065266156E-01
 0.4777779497581E+00  0.5991350581407E-01
 0.5392990548433E+00  0.5441306948941E-01
 0.6062593501101E+00  0.4576712960351E-01
 0.6799590952980E+00  0.2980734841174E-01
 0.7619245127818E+00  0.3048272567413E-02
 0.8564472165200E+00 -0.4062288669468E-01
 0.9617548993832E+00 -0.1027605645796E+00
 0.1066521587917E+01 -0.1774000030003E+00
 0.1161215013652E+01 -0.2584015028800E+00
 0.1271818760094E+01 -0.3845441144902E+00
 0.1298879751338E+01 -0.4255622451357E+00
 0.1321338129793E+01 -0.4642107020992E+00
 0.1339568023167E+01 -0.4998623281174E+00
 0.1353993662935E+01 -0.5319741278077E+00
 0.1365089278356E+01 -0.5600982796358E+00
 0.1373343713987E+01 -0.5839050745171E+00
 0.1379185875938E+01 -0.6032181882042E+00
 0.1382811994426E+01 -0.6180189331424E+00
 0.1384045332514E+01 -0.6282497833389E+00
 0.1383020752062E+01 -0.6338139027520E+00
 0.1380142198285E+01 -0.6346496026430E+00
 0.1375895785041E+01 -0.6307676870831E+00
 0.1370764272184E+01 -0.6222653169128E+00
 0.1365198976730E+01 -0.6093260680727E+00
 0.1359615711835E+01 -0.5922210961966E+00
 0.1354395890903E+01 -0.5713100769374E+00
 0.1349889305306E+01 -0.5470501488416E+00
 0.1346413431810E+01 -0.5200105519712E+00
 0.1344247251057E+01 -0.4908992498662E+00
 0.1343585020782E+01 -0.4606133544826E+00
 0.1344398723803E+01 -0.4303128415190E+00
 0.1346407273736E+01 -0.4015687160916E+00
 0.1349018150898E+01 -0.3770785464667E+00
 0.1351617660143E+01 -0.3590831364380E+00
 0.1354004454825E+01 -0.3467101378111E+00
 0.1356117318327E+01 -0.3380730556870E+00
 0.1357795939705E+01 -0.3322893201771E+00
 0.1358938346271E+01 -0.3288108501518E+00
 0.1359464889865E+01 -0.3272522645605E+00
 0.1359322257377E+01 -0.3273218031306E+00
 0.1358518378193E+01 -0.3287944933187E+00
 0.1357138393385E+01 -0.3315154379684E+00
 0.1355209033574E+01 -0.3353851190246E+00
 0.1352692299608E+01 -0.3402858357789E+00
 0.1349520905990E+01 -0.3460852615701E+00
 0.1345621688462E+01 -0.3526478856961E+00
 0.1340927949417E+01 -0.3598409438452E+00
 0.1335385469220E+01 -0.3675393305504E+00
 0.1312326296158E+01 -0.3921493535324E+00
 0.1291528697027E+01 -0.4088029998334E+00
 0.1266842504400E+01 -0.4251842035922E+00
 0.1238187775299E+01 -0.4406420528290E+00
 0.1205247420192E+01 -0.4540442617610E+00
 0.1167810551134E+01 -0.4640743175003E+00
 0.1126021683410E+01 -0.4697752120786E+00
 0.1080073415105E+01 -0.4702892108798E+00
 0.1030460343632E+01 -0.4664794588824E+00
 0.9775702280736E+00 -0.4600822191434E+00
 0.9212309242891E+00 -0.4505663096370E+00
 0.8613299148620E+00 -0.4375558770016E+00
 0.7976938184538E+00 -0.4207076842052E+00
 0.7300058182643E+00 -0.3995088538750E+00
 0.6577410975333E+00 -0.3732196442527E+00
 0.5800202441347E+00 -0.3408099171931E+00
 0.4952573640364E+00 -0.3002790359568E+00
 0.4000384704571E+00 -0.2478618591593E+00
 0.2877126721303E+00 -0.1714511680000E+00
 0.1000423973000E-02  0.1817068627242E-02
 0.1757789313299E-02  0.3183802934152E-02
 0.2532663722363E-02  0.4475804663358E-02
 0.3359907636920E-02  0.5711004561535E-02
 0.4260788223543E-02  0.6903984202894E-02
 0.5243647034333E-02  0.8060772767204E-02
 0.6313346416757E-02  0.9184197773043E-02
 0.7472091973891E-02  0.1027559479633E-01
 0.8720709544384E-02  0.1133545651899E-01
 0.1005907372912E-01  0.1236381593617E-01
 0.1148640881380E-01  0.1336043235281E-01
 0.1300147841767E-01  0.1432492852201E-01
 0.1460268708381E-01  0.1525687292968E-01
 0.1628815027349E-01  0.1615587461343E-01
 0.1805573341156E-01  0.1702177309134E-01
 0.1990336253646E-01  0.1785555187946E-01
 0.2183004427804E-01  0.1866220097478E-01
 0.2383522193455E-01  0.1944770466604E-01
 0.2591669730425E-01  0.2021221902469E-01
 0.2807055720689E-01  0.2095329582798E-01
 0.3029200144095E-01  0.2166827874669E-01
 0.3257589250095E-01  0.2235514266664E-01
 0.3491682927974E-01  0.2301260910766E-01
 0.3730922379781E-01  0.2364015846534E-01
 0.3974730275018E-01  0.2423806270852E-01
 0.4222503365713E-01  0.2480748653542E-01
 0.4473607769234E-01  0.2535057986200E-01
 0.4727382382391E-01  0.2586897501321E-01
 0.4983155209648E-01  0.2636401652491E-01
 0.5240255188475E-01  0.2683860707573E-01
 0.5498027774274E-01  0.2729722927058E-01
 0.5755843079934E-01  0.2774611881725E-01
 0.6013121241098E-01  0.2819353430324E-01
 0.6269357778149E-01  0.2864986226193E-01
 0.6524184058345E-01  0.2912671417011E-01
 0.6777522882135E-01  0.2963189359101E-01
 0.7029968381079E-01  0.3015654851501E-01
 0.7282457555972E-01  0.3069294064371E-01
 0.7536636320458E-01  0.3124814310664E-01
 0.7793419256123E-01  0.3185958038372E-01
 0.9334734513694E-01 -0.7531979047825E-01
 0.8722286975291E-01 -0.7087833735257E-01
 0.8210648333585E-01 -0.6752494192135E-01
 0.7770253620117E-01 -0.6460183300329E-01
 0.7372304384614E-01 -0.6196291280766E-01
 0.7005340591714E-01 -0.5953844384443E-01
 0.6661453075189E-01 -0.5730821348096E-01
 0.6335516826290E-01 -0.5524290456392E-01
 0.6023917014148E-01 -0.5330986246783E-01
 0.5724157341094E-01 -0.5148059577256E-01
 0.5434495158967E-01 -0.4973213543917E-01
 0.5153718273051E-01 -0.4804638144203E-01
 0.4880988751333E-01 -0.4640915668510E-01
 0.4615753771446E-01 -0.4480961945975E-01
 0.4357657836890E-01 -0.4324025500944E-01
 0.4106458383085E-01 -0.4169432918560E-01
 0.3862003851710E-01 -0.4016454977778E-01
 0.3624251494592E-01 -0.3864469370483E-01
 0.3393253792210E-01 -0.3713002414656E-01
 0.3169142044068E-01 -0.3561730662783E-01
 0.2952107684577E-01 -0.3410485926418E-01
 0.2742375160650E-01 -0.3259267129948E-01
 0.2540166387537E-01 -0.3108250094388E-01
 0.2345600902335E-01 -0.2957698072784E-01
 0.2158557510378E-01 -0.2807624294814E-01
 0.1978711277538E-01 -0.2657199987239E-01
 0.1805904193697E-01 -0.2505444479250E-01
 0.1640212038180E-01 -0.2351861927211E-01
 0.1481735486564E-01 -0.2196212876298E-01
 0.1330537848883E-01 -0.2038333462526E-01
 0.1186637790991E-01 -0.1878090788081E-01
 0.1049994949154E-01 -0.1715358581365E-01
 0.9204904542746E-02 -0.1549996512665E-01
 0.7978953178933E-02 -0.1381821121020E-01
 0.6818200737102E-02 -0.1210568224168E-01
 0.5716452266858E-02 -0.1035821917720E-01
 0.4663217668899E-02 -0.8568963389293E-02
 0.3642413506320E-02 -0.6725379672326E-02
 0.2618081545442E-02 -0.4800409687878E-02
 0.1532898965031E-02 -0.2757927189066E-02
 0.9484461174732E+00 -0.4171434373260E+00
 0.9612384676352E+00 -0.4211872117394E+00
 0.9736970981890E+00 -0.4245015352072E+00
 0.9858050037490E+00 -0.4271033242425E+00
 0.9975453613052E+00 -0.4290109565086E+00
 0.1008902080105E+01 -0.4302451675870E+00
 0.1019860123859E+01 -0.4308290705691E+00
 0.1030405767720E+01 -0.4307882604270E+00
 0.1040526626546E+01 -0.4301508100949E+00
 0.1050211810058E+01 -0.4289472004472E+00
 0.1059451892577E+01 -0.4272099731486E+00
 0.1068238923825E+01 -0.4249737246507E+00
 0.1076566465598E+01 -0.4222750372125E+00
 0.1084429648996E+01 -0.4191522905101E+00
 0.1091825235188E+01 -0.4156454205763E+00
 0.1098751683153E+01 -0.4117956498586E+00
 0.1105209197800E+01 -0.4076451933276E+00
 0.1111199769480E+01 -0.4032369532415E+00
 0.1116727198212E+01 -0.3986141995070E+00
 0.1121797099335E+01 -0.3938202483132E+00
 0.1126416880619E+01 -0.3888981205206E+00
 0.1130595660645E+01 -0.3838900980844E+00
 0.1134344139734E+01 -0.3788373862993E+00
 0.1137674455617E+01 -0.3737798138350E+00
 0.1140600014917E+01 -0.3687555385427E+00
 0.1143135295748E+01 -0.3638007716809E+00
 0.1145295624330E+01 -0.3589495341936E+00
 0.1147096930936E+01 -0.3542334450407E+00
 0.1148555492032E+01 -0.3496815399115E+00
 0.1149687661424E+01 -0.3453201231178E+00
 0.1150509601822E+01 -0.3411726301837E+00
 0.1151037033997E+01 -0.3372594915707E+00
 0.1151285014427E+01 -0.3335982136273E+00
 0.1151267760588E+01 -0.3302040224216E+00
 0.1150998725546E+01 -0.3270904257830E+00
 0.1150490694759E+01 -0.3242695319038E+00
 0.1149756135699E+01 -0.3217528893304E+00
 0.1148808543410E+01 -0.3195537071018E+00
 0.1147666444030E+01 -0.3176922201596E+00
 0.8772167722157E+00 -0.3818582479330E+00
 0.8196430751038E+00 -0.3512225560995E+00
 0.7629329835208E+00 -0.3207756709780E+00
 0.7072598489060E+00 -0.2908044280830E+00
 0.6527070935850E+00 -0.2615317703732E+00
 0.5993285358254E+00 -0.2331308212537E+00
 0.5472021869337E+00 -0.2057409433626E+00
 0.4964627912936E+00 -0.1794866588990E+00
 0.4473105809625E+00 -0.1544932052483E+00
 0.3999956681226E+00 -0.1308893443479E+00
 0.3547819308052E+00 -0.1087933382081E+00
 0.3119241439485E+00 -0.8830026682061E-01
 0.2716532447491E+00 -0.6947445100067E-01
 0.2341812166087E+00 -0.5235604982084E-01
 0.1997174973467E+00 -0.3698153839275E-01
 0.1684844237435E+00 -0.2341036443421E-01
 0.1407235633887E+00 -0.1175106840071E-01
 0.1166923502054E+00 -0.2185737912460E-02
 0.9665066482297E-01  0.5005388044945E-02
 0.1104985059615E+01 -0.3065158792081E+00
 0.1061362574745E+01 -0.2952924084442E+00
 0.1015871004784E+01 -0.2825701850749E+00
 0.9688676093584E+00 -0.2685220330231E+00
 0.9206514839004E+00 -0.2533557503634E+00
 0.8714632575638E+00 -0.2372942952920E+00
 0.8214786875791E+00 -0.2205697868446E+00
 0.7707946456380E+00 -0.2034088204333E+00
 0.7193933620946E+00 -0.1860116929613E+00
 0.6671311027563E+00 -0.1685329304313E+00
 0.6137701656780E+00 -0.1510849089616E+00
 0.5590632916476E+00 -0.1337834622513E+00
 0.5028667091493E+00 -0.1168058548966E+00
 0.4451996945575E+00 -0.1004196021556E+00
 0.3862523185826E+00 -0.8497293548116E-01
 0.3263781313090E+00 -0.7085796200305E-01
 0.2660918668796E+00 -0.5845507720264E-01
 0.2060699650626E+00 -0.4805769382830E-01
 0.1471366682465E+00 -0.3977064545822E-01
 0.9455132208743E+00 -0.4194207499554E+00
 0.9558251637540E+00 -0.4259726739761E+00
 0.9663077216105E+00 -0.4319368177259E+00
 0.9770065270683E+00 -0.4372464166292E+00
 0.9879708688451E+00 -0.4418237650589E+00
 0.9992563823897E+00 -0.4455832532612E+00
 0.1010926057873E+01 -0.4484312633873E+00
 0.1023050882451E+01 -0.4502660821675E+00
 0.1035710285529E+01 -0.4509774128718E+00
 0.1048992443002E+01 -0.4504456728883E+00
 0.1062994382224E+01 -0.4485410998080E+00
 0.1077821759129E+01 -0.4451226879607E+00
 0.1093588087664E+01 -0.4400369794063E+00
 0.1110413068290E+01 -0.4331167738990E+00
 0.1128419444135E+01 -0.4241799444142E+00
 0.1147727572851E+01 -0.4130287158902E+00
 0.1168446365390E+01 -0.3994505988354E+00
 0.1190661244357E+01 -0.3832213189284E+00
 0.1214417450190E+01 -0.3641195845102E+00
 0.1161270150872E+01 -0.3184418407327E+00
 0.1175504846804E+01 -0.3205072329860E+00
 0.1189029544953E+01 -0.3224991364238E+00
 0.1201840313058E+01 -0.3244683088280E+00
 0.1213946046082E+01 -0.3264529331521E+00
 0.1225362140593E+01 -0.3284865481232E+00
 0.1236108356509E+01 -0.3306001725634E+00
 0.1246208107689E+01 -0.3328230459002E+00
 0.1255688124005E+01 -0.3351826744724E+00
 0.1264578180802E+01 -0.3377046081660E+00
 0.1272910788050E+01 -0.3404121125269E+00
 0.1280720809922E+01 -0.3433258321300E+00
 0.1288045015741E+01 -0.3464635047202E+00
 0.1294921575594E+01 -0.3498397711942E+00
 0.1301389510134E+01 -0.3534661104154E+00
 0.1307488115810E+01 -0.3573509505095E+00
 0.1313256263965E+01 -0.3614998776561E+00
 0.1318732002971E+01 -0.3659166379673E+00
 0.1323949880536E+01 -0.3706023324625E+00
 0.8365423822882E-03  0.1511278899266E-02
 0.1640187683643E-02  0.2919059405701E-02
 0.2415086528519E-02  0.4186096015978E-02
 0.3248171426297E-02  0.5395224469561E-02
 0.4152440591910E-02  0.6557791495057E-02
 0.5138627578457E-02  0.7682337361386E-02
 0.6211370414370E-02  0.8772540654015E-02
 0.7373084915794E-02  0.9830315144680E-02
 0.8624634832245E-02  0.1085652416583E-01
 0.9965936060640E-02  0.1185145557520E-01
 0.1139623197337E-01  0.1281505236636E-01
 0.1291429706258E-01  0.1374707427578E-01
 0.1451853835663E-01  0.1464719359541E-01
 0.1620706336416E-01  0.1551509440083E-01
 0.1797771186025E-01  0.1635065877206E-01
 0.1982840321791E-01  0.1715408506505E-01
 0.2175825073456E-01  0.1792882708440E-01
 0.2376688310872E-01  0.1868103672478E-01
 0.2585218234918E-01  0.1941258893236E-01
 0.2801018570371E-01  0.2012219191743E-01
 0.3023600539353E-01  0.2080767909785E-01
 0.3252442822687E-01  0.2146716874509E-01
 0.3486999747555E-01  0.2209939684749E-01
 0.3726708400487E-01  0.2270382391992E-01
 0.3970988076201E-01  0.2328069761092E-01
 0.4219232484538E-01  0.2383115910498E-01
 0.4470803229746E-01  0.2435743288437E-01
 0.4725031756388E-01  0.2486130134851E-01
 0.4981237960397E-01  0.2534407880601E-01
 0.5238743218372E-01  0.2580844528223E-01
 0.5496885141438E-01  0.2625857989337E-01
 0.5755025544389E-01  0.2670029291956E-01
 0.6012575764944E-01  0.2714124004087E-01
 0.6269023124078E-01  0.2759095968037E-01
 0.6523990365470E-01  0.2805992279202E-01
 0.6777401406300E-01  0.2855458578214E-01
 0.7029818360494E-01  0.2906503056454E-01
 0.7282308459531E-01  0.2958089523878E-01
 0.7535859915371E-01  0.3010924006243E-01
 0.7794855603966E-01  0.3064004296888E-01
 0.7228412513642E-03  0.1338151451446E-02
 0.1517020571711E-02  0.2672681913450E-02
 0.2303169365819E-02  0.3916920595829E-02
 0.3139204748601E-02  0.5093172596126E-02
 0.4047417697995E-02  0.6223468129668E-02
 0.5036790685618E-02  0.7314607618632E-02
 0.6112594748748E-02  0.8371044447893E-02
 0.7277247957734E-02  0.9394943462622E-02
 0.8531697543004E-02  0.1038742233920E-01
 0.9875891139093E-02  0.1134894952003E-01
 0.1130909564225E-01  0.1227960812448E-01
 0.1283009801405E-01  0.1317926356504E-01
 0.1443731226541E-01  0.1404766251404E-01
 0.1612884215132E-01  0.1488452591210E-01
 0.1790256565297E-01  0.1568961146603E-01
 0.1975651219524E-01  0.1646259988827E-01
 0.2168979505251E-01  0.1720626591086E-01
 0.2370193793072E-01  0.1792677705613E-01
 0.2579083973156E-01  0.1862688367560E-01
 0.2795261005456E-01  0.1930617687764E-01
 0.3018236995086E-01  0.1996299788400E-01
 0.3247487933861E-01  0.2059568867467E-01
 0.3482464449940E-01  0.2120306374778E-01
 0.3722599987462E-01  0.2178459954228E-01
 0.3967310459630E-01  0.2234053338096E-01
 0.4215985465781E-01  0.2287199366016E-01
 0.4467981339943E-01  0.2338120621845E-01
 0.4722624965947E-01  0.2386998137710E-01
 0.4979232075375E-01  0.2433959066505E-01
 0.5237118532041E-01  0.2479251485795E-01
 0.5495615834925E-01  0.2523261451471E-01
 0.5754079944207E-01  0.2566525714977E-01
 0.6011916863268E-01  0.2609749180927E-01
 0.6268609183169E-01  0.2653804678776E-01
 0.6523777097220E-01  0.2699635987074E-01
 0.6777335461902E-01  0.2747779651196E-01
 0.7029864617174E-01  0.2797125862886E-01
 0.7282358632530E-01  0.2846541027700E-01
 0.7536161721444E-01  0.2895913366676E-01
 0.7795527347076E-01  0.2944313621595E-01
 0.6411144667840E-03  0.1218507601706E-02
 0.1405332686718E-02  0.2465423749173E-02
 0.2195110231730E-02  0.3665491561506E-02
 0.3034646464777E-02  0.4806270400725E-02
 0.3945921491723E-02  0.5901262411742E-02
 0.4938391159423E-02  0.6957804040902E-02
 0.6017113250117E-02  0.7979768507300E-02
 0.7184629318639E-02  0.8969454014403E-02
 0.8441907900916E-02  0.9928058349872E-02
 0.9788929394288E-02  0.1085615636787E-01
 0.1122497866136E-01  0.1175392104703E-01
 0.1274885616831E-01  0.1262128984814E-01
 0.1435898551435E-01  0.1345805630946E-01
 0.1605348587820E-01  0.1426393392315E-01
 0.1783031033574E-01  0.1503853899324E-01
 0.1968759780096E-01  0.1578126386117E-01
 0.2162439816387E-01  0.1649456124909E-01
 0.2364003898119E-01  0.1718455257130E-01
 0.2573238013043E-01  0.1785445079981E-01
 0.2789762673760E-01  0.1850446409293E-01
 0.3013096874269E-01  0.1913339534884E-01
 0.3242718167551E-01  0.1973984338298E-01
 0.3478075769509E-01  0.2032274234989E-01
 0.3718600525968E-01  0.2088161154863E-01
 0.3963705226821E-01  0.2141669053264E-01
 0.4212775347112E-01  0.2192908779030E-01
 0.4465162629671E-01  0.2242098306130E-01
 0.4720191071757E-01  0.2289414939945E-01
 0.4977174451610E-01  0.2334978819929E-01
 0.5235425330679E-01  0.2379018445665E-01
 0.5494271015311E-01  0.2421887969347E-01
 0.5753063611106E-01  0.2464079703789E-01
 0.6011205937330E-01  0.2506239475888E-01
 0.6268178372439E-01  0.2549164014635E-01
 0.6523598030328E-01  0.2593706193915E-01
 0.6777377645463E-01  0.2640304872171E-01
 0.7030091159826E-01  0.2687782534929E-01
 0.7282748469263E-01  0.2734843188605E-01
 0.7536861572850E-01  0.2781121043116E-01
 0.7795693883250E-01  0.2826190897503E-01
 0.5798728830065E-03  0.1125932268278E-02
 0.1308642603301E-02  0.2289624717335E-02
 0.2093536419662E-02  0.3434228288330E-02
 0.2934875258058E-02  0.4534033737525E-02
 0.3848506995396E-02  0.5591488227381E-02
 0.4843627368820E-02  0.6611961901792E-02
 0.5925058397395E-02  0.7598715227865E-02
 0.7095287349530E-02  0.8553777535742E-02
 0.8355288780398E-02  0.9478315491593E-02
 0.9705049893892E-02  0.1037292011468E-01
 0.1114386681856E-01  0.1123780498406E-01
 0.1267055051434E-01  0.1207294538541E-01
 0.1428353780221E-01  0.1287815448584E-01
 0.1598097932526E-01  0.1365311617545E-01
 0.1776091100045E-01  0.1439733855725E-01
 0.1962155040651E-01  0.1511007606419E-01
 0.2156185115374E-01  0.1579362172876E-01
 0.2358092572988E-01  0.1645401454077E-01
 0.2567656347361E-01  0.1709471032806E-01
 0.2784505367903E-01  0.1771633915649E-01
 0.3008168173119E-01  0.1831809081691E-01
 0.3238127082763E-01  0.1889882159239E-01
 0.3473832154950E-01  0.1945760632250E-01
 0.3714712956581E-01  0.1999402502645E-01
 0.3960179823318E-01  0.2050832656861E-01
 0.4209614757103E-01  0.2100158955846E-01
 0.4462366003474E-01  0.2147591693594E-01
 0.4717755917472E-01  0.2193300520048E-01
 0.4975097763422E-01  0.2237396126457E-01
 0.5233702622870E-01  0.2280087058576E-01
 0.5492895393000E-01  0.2321695997174E-01
 0.5752025844333E-01  0.2362671860627E-01
 0.6010494969065E-01  0.2403604062013E-01
 0.6267781406948E-01  0.2445219347711E-01
 0.6523499449451E-01  0.2488289342533E-01
 0.6777556609077E-01  0.2533174338512E-01
 0.7030520497180E-01  0.2578647953015E-01
 0.7283417681351E-01  0.2623327774719E-01
 0.7537705226388E-01  0.2666862338195E-01
 0.7795685199502E-01  0.2709144779592E-01
 0.5323342058792E-03  0.1049115568602E-02
 0.1226145697691E-02  0.2136957234064E-02
 0.2000221267872E-02  0.3222157016062E-02
 0.2840583467378E-02  0.4276359947429E-02
 0.3755557117870E-02  0.5293981597406E-02
 0.4752747466114E-02  0.6277047177452E-02
 0.5836557497870E-02  0.7227798579870E-02
 0.7009292397377E-02  0.8147803500565E-02
 0.8271869923613E-02  0.9038049159975E-02
 0.9624258451983E-02  0.9899068399529E-02
 0.1106575077389E-01  0.1073106457927E-01
 0.1259516316588E-01  0.1153401848449E-01
 0.1421094749893E-01  0.1230774010411E-01
 0.1591129310506E-01  0.1305187840975E-01
 0.1769430973806E-01  0.1376587395981E-01
 0.1955826027084E-01  0.1444893499902E-01
 0.2150198751159E-01  0.1510327062338E-01
 0.2352439692521E-01  0.1573481159666E-01
 0.2562319376208E-01  0.1634713096874E-01
 0.2779473206191E-01  0.1694114561676E-01
 0.3003439858476E-01  0.1751635626241E-01
 0.3233708469002E-01  0.1807185721728E-01
 0.3469731901888E-01  0.1860686947396E-01
 0.3710939861203E-01  0.1912104277268E-01
 0.3956741214995E-01  0.1961463780845E-01
 0.4206515503871E-01  0.2008869427626E-01
 0.4459608678904E-01  0.2054521832290E-01
 0.4715342511861E-01  0.2098580498672E-01
 0.4973030814874E-01  0.2141144832840E-01
 0.5231984592394E-01  0.2182402991737E-01
 0.5491527771492E-01  0.2222646883948E-01
 0.5751008879671E-01  0.2262283762846E-01
 0.6009827599390E-01  0.2301850060753E-01
 0.6267460502717E-01  0.2342008562327E-01
 0.6523517480774E-01  0.2383459615523E-01
 0.6777897440518E-01  0.2426499981043E-01
 0.7031158027444E-01  0.2469879652172E-01
 0.7284307345820E-01  0.2512204763900E-01
 0.7538633375838E-01  0.2553206134878E-01
 0.7795736262305E-01  0.2592898807916E-01
 0.4943866477178E-03  0.9823743371788E-03
 0.1155925432194E-02  0.2001286017424E-02
 0.1915761541093E-02  0.3026892808150E-02
 0.2752392551405E-02  0.4032674308707E-02
 0.3667405782324E-02  0.5008429214932E-02
 0.4665970498712E-02  0.5952870995025E-02
 0.5751739813346E-02  0.6866866577049E-02
 0.6926715354694E-02  0.7751373120591E-02
 0.8191685496075E-02  0.8607086713639E-02
 0.9546564766806E-02  0.9434410828314E-02
 0.1099062447633E-01  0.1023349374989E-01
 0.1252267779012E-01  0.1100429197506E-01
 0.1414119010420E-01  0.1174659525411E-01
 0.1584438831853E-01  0.1246002040166E-01
 0.1763043966210E-01  0.1314397445198E-01
 0.1949762424918E-01  0.1379767283272E-01
 0.2144467007558E-01  0.1442327493880E-01
 0.2347029296166E-01  0.1502658353230E-01
 0.2557211134591E-01  0.1561121258483E-01
 0.2774652595210E-01  0.1617827286350E-01
 0.2998902043007E-01  0.1672750953330E-01
 0.3229456526352E-01  0.1725822605023E-01
 0.3465773271532E-01  0.1776978394400E-01
 0.3707283506210E-01  0.1826190427787E-01
 0.3953395794074E-01  0.1873485870854E-01
 0.4203488394780E-01  0.1918964053745E-01
 0.4456906168894E-01  0.1962814613151E-01
 0.4712971260680E-01  0.2005185316250E-01
 0.4970998878492E-01  0.2046163022613E-01
 0.5230300994938E-01  0.2085915267424E-01
 0.5490201620524E-01  0.2124704096515E-01
 0.5750048687197E-01  0.2162897219152E-01
 0.6009240497083E-01  0.2200981799753E-01
 0.6267250464374E-01  0.2239562618747E-01
 0.6523681566976E-01  0.2279277781019E-01
 0.6778420016335E-01  0.2320373706774E-01
 0.7032004083491E-01  0.2361601603776E-01
 0.7285389580433E-01  0.2401598972869E-01
 0.7539665626934E-01  0.2440168570762E-01
 0.7795976049206E-01  0.2477338114446E-01
 0.4634303529461E-03  0.9225298954180E-03
 0.1096003902062E-02  0.1878336840809E-02
 0.1839995583181E-02  0.2845861214350E-02
 0.2670653604413E-02  0.3801962983008E-02
 0.3584322688053E-02  0.4734353171985E-02
 0.4583476771449E-02  0.5639130017776E-02
 0.5670721771309E-02  0.6515693900312E-02
 0.6847623702749E-02  0.7364283413813E-02
 0.8114769729647E-02  0.8185226238659E-02
 0.9471980221828E-02  0.8978738446336E-02
 0.1091848349102E-01  0.9744874524147E-02
 0.1245307839025E-01  0.1048354149575E-01
 0.1407423840740E-01  0.1119449654652E-01
 0.1578022092428E-01  0.1187732958229E-01
 0.1756923224018E-01  0.1253143857126E-01
 0.1943954820833E-01  0.1315607538458E-01
 0.2138978377051E-01  0.1375336319667E-01
 0.2341848467763E-01  0.1432896121296E-01
 0.2552318577800E-01  0.1488647552254E-01
 0.2770032040275E-01  0.1542714613381E-01
 0.2994546042252E-01  0.1595090793033E-01
 0.3225365976747E-01  0.1645724203125E-01
 0.3461954578492E-01  0.1694563797118E-01
 0.3703745869754E-01  0.1741588420370E-01
 0.3950149328744E-01  0.1786826005231E-01
 0.4200543163765E-01  0.1830370630246E-01
 0.4454272304252E-01  0.1872400125363E-01
 0.4710660146097E-01  0.1913049535401E-01
 0.4969023998719E-01  0.1952392396554E-01
 0.5228677561579E-01  0.1990575657939E-01
 0.5488945618452E-01  0.2027832593410E-01
 0.5749175757000E-01  0.2064493664784E-01
 0.6008764371894E-01  0.2101000521300E-01
 0.6267180099060E-01  0.2137905552709E-01
 0.6524015991609E-01  0.2175792551912E-01
 0.6779140560539E-01  0.2214869032252E-01
 0.7033061806542E-01  0.2253905927176E-01
 0.7286662163387E-01  0.2291589488909E-01
 0.7540843886304E-01  0.2327767142945E-01
 0.7796469231983E-01  0.2362435027195E-01
 0.4377502165378E-03  0.8676614563296E-03
 0.1044648071057E-02  0.1765129141584E-02
 0.1772370228847E-02  0.2676747237695E-02
 0.2595440942219E-02  0.3583001029999E-02
 0.3506477491176E-02  0.4471121056116E-02
 0.4505401650333E-02  0.5335428030284E-02
 0.5593597996001E-02  0.6173989791202E-02
 0.6772076213382E-02  0.6986288960962E-02
 0.8041153692013E-02  0.7772237690234E-02
 0.9400515612935E-02  0.8531823494984E-02
 0.1084932355856E-01  0.9264976368330E-02
 0.1238634851916E-01  0.9971533873376E-02
 0.1401006327571E-01  0.1065121199928E-01
 0.1571874495626E-01  0.1130357871523E-01
 0.1751062112507E-01  0.1192803877129E-01
 0.1938394761046E-01  0.1252389484071E-01
 0.2133723103855E-01  0.1309323684906E-01
 0.2336886600802E-01  0.1364156815510E-01
 0.2547630998309E-01  0.1417245434341E-01
 0.2765601893804E-01  0.1468721884960E-01
 0.2990364346284E-01  0.1518594240431E-01
 0.3221432117642E-01  0.1566825343363E-01
 0.3458274247642E-01  0.1613375335924E-01
 0.3700328663591E-01  0.1658229039966E-01
 0.3947006946164E-01  0.1701414660891E-01
 0.4197688456932E-01  0.1743020517720E-01
 0.4451719285449E-01  0.1783212126559E-01
 0.4708424887989E-01  0.1822111247518E-01
 0.4967125268277E-01  0.1859777702262E-01
 0.5227136383654E-01  0.1896338143914E-01
 0.5487784170927E-01  0.1931998303706E-01
 0.5748415793865E-01  0.1967053736493E-01
 0.6008424875619E-01  0.2001904194711E-01
 0.6267273340820E-01  0.2037054774527E-01
 0.6524541048124E-01  0.2073041762929E-01
 0.6780073497119E-01  0.2110042880518E-01
 0.7034339177576E-01  0.2146860191363E-01
 0.7288137888739E-01  0.2182232434569E-01
 0.7542211019770E-01  0.2216028815587E-01
 0.7797247630849E-01  0.2248204556619E-01
 0.4161696286935E-03  0.8165370453769E-03
 0.1000423117065E-02  0.1659550848576E-02
 0.1712170538629E-02  0.2517604997639E-02
 0.2526616061674E-02  0.3374528928603E-02
 0.3433928053581E-02  0.4217996636268E-02
 0.4431828193777E-02  0.5041293067752E-02
 0.5520436200700E-02  0.5841408841920E-02
 0.6700118531763E-02  0.6617105866871E-02
 0.7970862458844E-02  0.7367864629739E-02
 0.9332179207921E-02  0.8093419924045E-02
 0.1078313935814E-01  0.8793555855359E-02
 0.1232247083646E-01  0.9468025968085E-02
 0.1394863450435E-01  0.1011649929563E-01
 0.1565991466717E-01  0.1073852563053E-01
 0.1745454408017E-01  0.1133352571012E-01
 0.1933074728188E-01  0.1190085832475E-01
 0.2128692868863E-01  0.1244257791893E-01
 0.2332134896932E-01  0.1296402236437E-01
 0.2543139569165E-01  0.1346869413172E-01
 0.2761354096846E-01  0.1395796694068E-01
 0.2986350538602E-01  0.1443203254244E-01
 0.3217650830587E-01  0.1489063916611E-01
 0.3454730845072E-01  0.1533348277354E-01
 0.3697033352032E-01  0.1576046161227E-01
 0.3943973137916E-01  0.1617185455063E-01
 0.4194931852302E-01  0.1656848290799E-01
 0.4449257754409E-01  0.1695187587961E-01
 0.4706279099222E-01  0.1732311562197E-01
 0.4965319083305E-01  0.1768266226552E-01
 0.5225696273117E-01  0.1803158436967E-01
 0.5486737889790E-01  0.1837167701742E-01
 0.5747790335695E-01  0.1870556965528E-01
 0.6008243373851E-01  0.1903687455774E-01
 0.6267550139931E-01  0.1937021478627E-01
 0.6525274008060E-01  0.1971053462996E-01
 0.6781232544248E-01  0.2005937996488E-01
 0.7035848210790E-01  0.2040514223248E-01
 0.7289836638201E-01  0.2073571552130E-01
 0.7543804632416E-01  0.2104986716908E-01
 0.7798328763919E-01  0.2134679891856E-01
 0.3978526680261E-03  0.7683274560401E-03
 0.9621655693961E-03  0.1560074589222E-02
 0.1658647174685E-02  0.2366842742161E-02
 0.2463900040081E-02  0.3175352267404E-02
 0.3366630079629E-02  0.3974196601505E-02
 0.4362783928578E-02  0.4756198463601E-02
 0.5451274097587E-02  0.5517561953419E-02
 0.6631780186581E-02  0.6256417267978E-02
 0.7903912814461E-02  0.6971826709376E-02
 0.9266975157531E-02  0.7663264434394E-02
 0.1071992352487E-01  0.8330356757270E-02
 0.1226142686284E-01  0.8972764078365E-02
 0.1388992151556E-01  0.9590105097120E-02
 0.1560368585275E-01  0.1018191396637E-01
 0.1740094384084E-01  0.1074763194271E-01
 0.1927988082452E-01  0.1128667392937E-01
 0.2123880557335E-01  0.1180105429785E-01
 0.2327586009868E-01  0.1229593799992E-01
 0.2538836990007E-01  0.1277474827998E-01
 0.2757281940011E-01  0.1323888467606E-01
 0.2982499188367E-01  0.1368862236130E-01
 0.3214018557869E-01  0.1412380531872E-01
 0.3451323088936E-01  0.1454420698851E-01
 0.3693861168348E-01  0.1494976503158E-01
 0.3941051779570E-01  0.1534074878738E-01
 0.4192279900090E-01  0.1571791409185E-01
 0.4446896879337E-01  0.1608266294390E-01
 0.4704234438076E-01  0.1643594163938E-01
 0.4963619381165E-01  0.1677807350378E-01
 0.5224373095177E-01  0.1710993566785E-01
 0.5485824028011E-01  0.1743307461605E-01
 0.5747317298296E-01  0.1774981563132E-01
 0.6008237594246E-01  0.1806341638422E-01
 0.6268027174216E-01  0.1837811090928E-01
 0.6526229836171E-01  0.1869847012439E-01
 0.6782631095779E-01  0.1902585382168E-01
 0.7037603418937E-01  0.1934904912377E-01
 0.7291780710563E-01  0.1965642507484E-01
 0.7545656552070E-01  0.1994675421636E-01
 0.7799725488510E-01  0.2021899443065E-01
 0.3821869048574E-03  0.7224516396860E-03
 0.9289371126625E-03  0.1465572261172E-02
 0.1611081010816E-02  0.2223170603317E-02
 0.2406933184466E-02  0.2984386961908E-02
 0.3304457137349E-02  0.3738935884710E-02
 0.4298243173616E-02  0.4479585475550E-02
 0.5386118288545E-02  0.5202027647889E-02
 0.6567072872383E-02  0.5903879483443E-02
 0.7840311625495E-02  0.6583822803277E-02
 0.9204902278774E-02  0.7241077961260E-02
 0.1065966591762E-01  0.7875110548405E-02
 0.1220319684368E-01  0.8485483882932E-02
 0.1383389385617E-01  0.9071765091550E-02
 0.1555001660072E-01  0.9633474378721E-02
 0.1734976837572E-01  0.1017007502794E-01
 0.1923128988876E-01  0.1068103510981E-01
 0.2119280079124E-01  0.1116832353113E-01
 0.2323233783230E-01  0.1163692676259E-01
 0.2534717211828E-01  0.1209017712454E-01
 0.2753379853360E-01  0.1252948158595E-01
 0.2978805733827E-01  0.1295517682848E-01
 0.3210532259126E-01  0.1336718201908E-01
 0.3448049845773E-01  0.1376533218535E-01
 0.3690813128595E-01  0.1414959378895E-01
 0.3938246158581E-01  0.1452022031412E-01
 0.4189738175211E-01  0.1487789909906E-01
 0.4444644447251E-01  0.1522390487917E-01
 0.4702300757778E-01  0.1555904924713E-01
 0.4962037862644E-01  0.1588352161603E-01
 0.5223180072691E-01  0.1619801528346E-01
 0.5485056870039E-01  0.1650384178746E-01
 0.5747011449616E-01  0.1680304277687E-01
 0.6008422166784E-01  0.1709854864718E-01
 0.6268718409573E-01  0.1739423729007E-01
 0.6527421661174E-01  0.1769434137343E-01
 0.6784282200110E-01  0.1800006360880E-01
 0.7039620434924E-01  0.1830059250086E-01
 0.7293992442823E-01  0.1858474391073E-01
 0.7547794018170E-01  0.1885127310816E-01
 0.7801450529953E-01  0.1909900131685E-01
 0.3687114651021E-03  0.6784881989565E-03
 0.8999795891661E-03  0.1375193295713E-02
 0.1568812147347E-02  0.2085543908202E-02
 0.2355318200481E-02  0.2800672718534E-02
 0.3247222957599E-02  0.3511458039209E-02
 0.4238133530934E-02  0.4210883796151E-02
 0.5324945194387E-02  0.4894363346889E-02
 0.6505989864284E-02  0.5559128373276E-02
 0.7780054898617E-02  0.6203534530352E-02
 0.9145953230510E-02  0.6826567517991E-02
 0.1060235311810E-01  0.7427537271190E-02
 0.1214775967759E-01  0.8005910832940E-02
 0.1378052151471E-01  0.8561204529609E-02
 0.1549886765475E-01  0.9092925940920E-02
 0.1730097081306E-01  0.9600560132949E-02
 0.1918492341569E-01  0.1008362397897E-01
 0.2114886224750E-01  0.1054403559383E-01
 0.2319073051378E-01  0.1098659901439E-01
 0.2530775221126E-01  0.1141454707488E-01
 0.2749643226697E-01  0.1182928015693E-01
 0.2975266367850E-01  0.1223117899991E-01
 0.3207189357468E-01  0.1262022062068E-01
 0.3444910117254E-01  0.1299628737065E-01
 0.3687890043097E-01  0.1335936449004E-01
 0.3935559006713E-01  0.1370968363300E-01
 0.4187311336586E-01  0.1404786120497E-01
 0.4442506960246E-01  0.1437504548178E-01
 0.4700486252028E-01  0.1469191563927E-01
 0.4960584199205E-01  0.1499853119498E-01
 0.5222128062941E-01  0.1529540983077E-01
 0.5484448078877E-01  0.1558364147855E-01
 0.5746884818909E-01  0.1586500305593E-01
 0.6008809070914E-01  0.1614212169609E-01
 0.6269635531746E-01  0.1641854653091E-01
 0.6528861061709E-01  0.1669819873570E-01
 0.6786198383387E-01  0.1698214172452E-01
 0.7041915026292E-01  0.1725996172376E-01
 0.7296493176319E-01  0.1752090132700E-01
 0.7550241075933E-01  0.1776370256664E-01
 0.7803518308038E-01  0.1798714022946E-01
 0.3570713836311E-03  0.6361222763676E-03
 0.8746770421966E-03  0.1288283644608E-02
 0.1531249733714E-02  0.1953112988658E-02
 0.2308649107100E-02  0.2623370001321E-02
 0.3194701762331E-02  0.3291052856039E-02
 0.4182344533964E-02  0.3949527929072E-02
 0.5267703698579E-02  0.4594115830892E-02
 0.6448506445659E-02  0.5221785595722E-02
 0.7723127472477E-02  0.5830629941454E-02
 0.9090114074022E-02  0.6419428293593E-02
 0.1054796814275E-01  0.6987346697016E-02
 0.1209509289338E-01  0.7533760890741E-02
 0.1372977510296E-01  0.8058139073417E-02
 0.1545020253281E-01  0.8559977590626E-02
 0.1725450918848E-01  0.9038782226213E-02
 0.1914073690342E-01  0.9494113842974E-02
 0.2110694547460E-01  0.9927834974855E-02
 0.2315099484095E-01  0.1034456466860E-01
 0.2527006868896E-01  0.1074743003332E-01
 0.2746068258106E-01  0.1113781407380E-01
 0.2971877931635E-01  0.1151612765952E-01
 0.3203987682046E-01  0.1188239121509E-01
 0.3441903021509E-01  0.1223652196086E-01
 0.3685092526090E-01  0.1257851484114E-01
 0.3932992534606E-01  0.1290857429137E-01
 0.4185003189711E-01  0.1322724392907E-01
 0.4440489732502E-01  0.1353554704684E-01
 0.4698797595169E-01  0.1383403349163E-01
 0.4959266225529E-01  0.1412263764715E-01
 0.5221225808010E-01  0.1440171007192E-01
 0.5484007002525E-01  0.1467213187198E-01
 0.5746947047480E-01  0.1493543241523E-01
 0.6009408003172E-01  0.1519395643549E-01
 0.6270788274170E-01  0.1545094687409E-01
 0.6530558234210E-01  0.1571003365549E-01
 0.6788391454486E-01  0.1597215150294E-01
 0.7044502478321E-01  0.1622727681070E-01
 0.7299302926602E-01  0.1646506589625E-01
 0.7553019713101E-01  0.1668426344804E-01
 0.7805945426809E-01  0.1688366747087E-01
 0.3469877351131E-03  0.5951123877754E-03
 0.8525254507931E-03  0.1204330966085E-02
 0.1497871978491E-02  0.1825182014595E-02
 0.2266529421921E-02  0.2451749459743E-02
 0.3146644981533E-02  0.3077064733668E-02
 0.4130736811597E-02  0.3694969007959E-02
 0.5214318949848E-02  0.4300830236023E-02
 0.6394581181101E-02  0.4891464473028E-02
 0.7669503268613E-02  0.5464767187920E-02
 0.9037364188164E-02  0.6019345891543E-02
 0.1049649034901E-01  0.6554239702658E-02
 0.1204517267352E-01  0.7068741516527E-02
 0.1368162594896E-01  0.7562275833141E-02
 0.1540398749825E-01  0.8034329552019E-02
 0.1721034610812E-01  0.8484427940127E-02
 0.1909869172443E-01  0.8912171197626E-02
 0.2106701265105E-01  0.9319362275281E-02
 0.2311309462958E-01  0.9710433894441E-02
 0.2523408733796E-01  0.1008840298838E-01
 0.2742651827406E-01  0.1045462685024E-01
 0.2968637819481E-01  0.1080953536201E-01
 0.3200925411740E-01  0.1115318044471E-01
 0.3439027772223E-01  0.1148550355598E-01
 0.3682421004225E-01  0.1180650140736E-01
 0.3930548467041E-01  0.1211634656207E-01
 0.4182816750109E-01  0.1241550857845E-01
 0.4438596985918E-01  0.1270488777694E-01
 0.4697240075875E-01  0.1298490832486E-01
 0.4958090117546E-01  0.1325538468869E-01
 0.5220480160248E-01  0.1351650880609E-01
 0.5483740943146E-01  0.1376896500777E-01
 0.5747205687932E-01  0.1401405056863E-01
 0.6010226678186E-01  0.1425384580475E-01
 0.6272184667056E-01  0.1449130598366E-01
 0.6532522095154E-01  0.1472978517875E-01
 0.6790872350147E-01  0.1497009575280E-01
 0.7047397247886E-01  0.1520259554981E-01
 0.7302440378011E-01  0.1541734606130E-01
 0.7556150670037E-01  0.1561311307769E-01
 0.7808750558909E-01  0.1578876887737E-01
 0.3382375303634E-03  0.5552689869563E-03
 0.8331091697132E-03  0.1122926887795E-02
 0.1468221538284E-02  0.1701176361727E-02
 0.2228582825958E-02  0.2285178701976E-02
 0.3102794127604E-02  0.2868894960256E-02
 0.4083150719281E-02  0.3446682527575E-02
 0.5164696750474E-02  0.4014057275009E-02
 0.6344157818184E-02  0.4567775225559E-02
 0.7619146008107E-02  0.5105598021126E-02
 0.8987676494920E-02  0.5625998605877E-02
 0.1044789551581E-01  0.6127909780715E-02
 0.1199797392773E-01  0.6610552816382E-02
 0.1363604614210E-01  0.7073314505069E-02
 0.1536019145217E-01  0.7515674697460E-02
 0.1716844838420E-01  0.7937177168568E-02
 0.1905875450709E-01  0.8337457333784E-02
 0.2102903177779E-01  0.8718255458779E-02
 0.2307699981398E-01  0.9083817675878E-02
 0.2519978011748E-01  0.9437047714542E-02
 0.2739391391018E-01  0.9779270739770E-02
 0.2965543895614E-01  0.1011092679792E-01
 0.3198001022898E-01  0.1043208958609E-01
 0.3436283657921E-01  0.1074271591063E-01
 0.3679875724646E-01  0.1104279752521E-01
 0.3928228078115E-01  0.1133247128224E-01
 0.4180754306140E-01  0.1161213199163E-01
 0.4436831942846E-01  0.1188255944997E-01
 0.4695817723501E-01  0.1214405617923E-01
 0.4957060556252E-01  0.1239632218481E-01
 0.5219896284533E-01  0.1263939910313E-01
 0.5483655392616E-01  0.1287378570887E-01
 0.5747666458781E-01  0.1310056097654E-01
 0.6011271075192E-01  0.1332155622332E-01
 0.6273831229613E-01  0.1353945424300E-01
 0.6534760352154E-01  0.1375734517193E-01
 0.6793651035531E-01  0.1397592297330E-01
 0.7050612791123E-01  0.1418591831619E-01
 0.7305922994021E-01  0.1437779134078E-01
 0.7559653977679E-01  0.1455034422296E-01
 0.7811954109386E-01  0.1470255908062E-01
 0.3306398338164E-03  0.5164401893139E-03
 0.8160827550179E-03  0.1043740575927E-02
 0.1441899075870E-02  0.1580617140585E-02
 0.2194458795064E-02  0.2123108906208E-02
 0.3062890233083E-02  0.2666000291525E-02
 0.4039413894035E-02  0.3204172795856E-02
 0.5118728061338E-02  0.3733358663035E-02
 0.6297167587730E-02  0.4250329423385E-02
 0.7572010288150E-02  0.4752771004654E-02
 0.8941017943533E-02  0.5239059644834E-02
 0.1040215607629E-01  0.5708044608698E-02
 0.1195347042070E-01  0.6158888779231E-02
 0.1359300856148E-01  0.6590948550209E-02
 0.1531878579320E-01  0.7003699831482E-02
 0.1712878667788E-01  0.7396704450682E-02
 0.1902089658619E-01  0.7769629652907E-02
 0.2099297598410E-01  0.8124150848356E-02
 0.2304268563058E-01  0.8464328257133E-02
 0.2516712426326E-01  0.8792950539318E-02
 0.2736284895022E-01  0.9111305852741E-02
 0.2962594422967E-01  0.9419837417090E-02
 0.3195213242772E-01  0.9718632872870E-02
 0.3433670023039E-01  0.1000765710086E-01
 0.3677456763279E-01  0.1028689138089E-01
 0.3926032225940E-01  0.1055643385882E-01
 0.4178817480213E-01  0.1081660447756E-01
 0.4435196914943E-01  0.1106806532354E-01
 0.4694533426607E-01  0.1131100156510E-01
 0.4956180877751E-01  0.1154500428625E-01
 0.5219477839152E-01  0.1176997282767E-01
 0.5483754238152E-01  0.1198623074886E-01
 0.5748333460866E-01  0.1219465095474E-01
 0.6012545640846E-01  0.1239682894817E-01
 0.6275733122454E-01  0.1259518758050E-01
 0.6537279563381E-01  0.1279256249117E-01
 0.6796736456764E-01  0.1298953197713E-01
 0.7054161493221E-01  0.1317719154441E-01
 0.7309767131869E-01  0.1334639409640E-01
 0.7563549292401E-01  0.1349598703368E-01
 0.7815577872417E-01  0.1362508403112E-01
 0.3240459514887E-03  0.4785020077771E-03
 0.8011569631581E-03  0.9664999132670E-03
 0.1418556432207E-02  0.1463101431666E-02
 0.2163834985790E-02  0.1965062429812E-02
 0.3026680471667E-02  0.2467889468798E-02
 0.3999347537987E-02  0.2966974943661E-02
 0.5076293295886E-02  0.3458310916113E-02
 0.6253531692377E-02  0.3938743599110E-02
 0.7528042909339E-02  0.4405934356905E-02
 0.8897350197717E-02  0.4858199229189E-02
 0.1035924147895E-01  0.5294327611829E-02
 0.1191163495486E-01  0.5713438543697E-02
 0.1355248691030E-01  0.6114866370044E-02
 0.1527974427564E-01  0.6498086889511E-02
 0.1709133517004E-01  0.6862680180112E-02
 0.1898509352324E-01  0.7208342763572E-02
 0.2095882294272E-01  0.7536683935064E-02
 0.2301013194715E-01  0.7851579501090E-02
 0.2513610155764E-01  0.8155702155129E-02
 0.2733330703626E-01  0.8450299428195E-02
 0.2959788003226E-01  0.8735812261344E-02
 0.3192561009425E-01  0.9012336029463E-02
 0.3431186251871E-01  0.9279837878383E-02
 0.3675164033875E-01  0.9538284257368E-02
 0.3923961386718E-01  0.9787732443111E-02
 0.4177007287836E-01  0.1002842794271E-01
 0.4433693387563E-01  0.1026091825677E-01
 0.4693389043422E-01  0.1048527565746E-01
 0.4955453210147E-01  0.1070098782273E-01
 0.5219227137149E-01  0.1090781940663E-01
 0.5484039941559E-01  0.1110592821042E-01
 0.5749209361473E-01  0.1129599186471E-01
 0.6014053457355E-01  0.1147938131609E-01
 0.6277894272315E-01  0.1165826987462E-01
 0.6540085194505E-01  0.1183524634513E-01
 0.6800136535603E-01  0.1201077547560E-01
 0.7058054659162E-01  0.1217631036602E-01
 0.7313988106669E-01  0.1232309132517E-01
 0.7567856060295E-01  0.1245001267979E-01
 0.7819644828705E-01  0.1255632604821E-01
 0.3183323486993E-03  0.4413515149706E-03
 0.7880879338957E-03  0.8909778820077E-03
 0.1397890116096E-02  0.1348286956839E-02
 0.2136417605863E-02  0.1810621863260E-02
 0.2993922590458E-02  0.2274118748011E-02
 0.3962771443100E-02  0.2734655219577E-02
 0.5037266205617E-02  0.3188507778171E-02
 0.6213163813130E-02  0.3632642042477E-02
 0.7487184350872E-02  0.4064738379107E-02
 0.8856630470418E-02  0.4483086510863E-02
 0.1031911865202E-01  0.4886439466921E-02
 0.1187243960649E-01  0.5273887648355E-02
 0.1351445577024E-01  0.5644752448460E-02
 0.1524304288505E-01  0.5998514048504E-02
 0.1705607127157E-01  0.6334771669443E-02
 0.1895132469481E-01  0.6653249409124E-02
 0.2092655437880E-01  0.6955490045198E-02
 0.2297932271058E-01  0.7245187181094E-02
 0.2510669773498E-01  0.7524897463096E-02
 0.2730527540676E-01  0.7795825225436E-02
 0.2957123527211E-01  0.8058404968509E-02
 0.3190043438306E-01  0.8312734989459E-02
 0.3428831755951E-01  0.8558780201303E-02
 0.3672997298198E-01  0.8796488947905E-02
 0.3922015688193E-01  0.9025876272457E-02
 0.4175324194256E-01  0.9247114198309E-02
 0.4432322099386E-01  0.9460639031801E-02
 0.4692385504309E-01  0.9666414707821E-02
 0.4954878598043E-01  0.9863830918330E-02
 0.5219145289985E-01  0.1005252480011E-01
 0.5484513695423E-01  0.1023249699422E-01
 0.5750295551232E-01  0.1040423935011E-01
 0.6015796383388E-01  0.1056890786959E-01
 0.6280317476779E-01  0.1072843499212E-01
 0.6543181676772E-01  0.1088516908468E-01
 0.6803858193205E-01  0.1103946297008E-01
 0.7062302549251E-01  0.1118312089199E-01
 0.7318600202209E-01  0.1130776573277E-01
 0.7572593474327E-01  0.1141233701699E-01
 0.7824179212839E-01  0.1149621141724E-01
 0.3133954403062E-03  0.4049019521571E-03
 0.7766687888738E-03  0.8169825635190E-03
 0.1379635415599E-02  0.1235880160714E-02
 0.2111940591041E-02  0.1659420611848E-02
 0.2964387703657E-02  0.2084287103763E-02
 0.3929507877918E-02  0.2506810146874E-02
 0.5001517261475E-02  0.2923561553947E-02
 0.6175972509445E-02  0.3331658848275E-02
 0.7449370304561E-02  0.3728837456765E-02
 0.8818812453666E-02  0.4113391275923E-02
 0.1028175254586E-01  0.4484059507316E-02
 0.1183585600969E-01  0.4839919229867E-02
 0.1347889068398E-01  0.5180288437705E-02
 0.1520865974259E-01  0.5504656749092E-02
 0.1702297537887E-01  0.5812644092372E-02
 0.1891957294530E-01  0.6104001262529E-02
 0.2089615566054E-01  0.6380204899423E-02
 0.2295024549337E-01  0.6644769222144E-02
 0.2507890199866E-01  0.6900135441429E-02
 0.2727874442237E-01  0.7147463010752E-02
 0.2954600134538E-01  0.7387176919001E-02
 0.3187659795338E-01  0.7619374776363E-02
 0.3426605965178E-01  0.7844015928508E-02
 0.3670956177600E-01  0.8061028329971E-02
 0.3920194942543E-01  0.8270384173935E-02
 0.4173768168580E-01  0.8472183438414E-02
 0.4431083117251E-01  0.8666754858958E-02
 0.4691522906455E-01  0.8853958649676E-02
 0.4954457115477E-01  0.9033091799204E-02
 0.5219232335314E-01  0.9203670642652E-02
 0.5485175559186E-01  0.9365546444830E-02
 0.5751592278423E-01  0.9519033599938E-02
 0.6017775172551E-01  0.9665081359816E-02
 0.6283004496181E-01  0.9805388567095E-02
 0.6546572461047E-01  0.9942068461606E-02
 0.6807907401205E-01  0.1007536350499E-01
 0.7066914428414E-01  0.1019742183177E-01
 0.7323616723412E-01  0.1030024745951E-01
 0.7577780099532E-01  0.1038281917961E-01
 0.7829207001851E-01  0.1044462096594E-01
 0.3091476923237E-03  0.3690791633176E-03
 0.7667230633949E-03  0.7443496900521E-03
 0.1363561225795E-02  0.1125626902143E-02
 0.2090164124263E-02  0.1511134915691E-02
 0.2937861895250E-02  0.1898031499042E-02
 0.3899384501552E-02  0.2283064974583E-02
 0.4968916506574E-02  0.2663103606910E-02
 0.6141863431414E-02  0.3035439316175E-02
 0.7414533196053E-02  0.3397891648450E-02
 0.8783847296780E-02  0.3748785413127E-02
 0.1024710672880E-01  0.4086867000795E-02
 0.1180185568066E-01  0.4411215143076E-02
 0.1344576826865E-01  0.4721154173009E-02
 0.1517657504358E-01  0.5016188630139E-02
 0.1699203067613E-01  0.5295961320722E-02
 0.1888982430013E-01  0.5560249614653E-02
 0.2086761546148E-01  0.5810465088155E-02
 0.2292289112345E-01  0.6049945903845E-02
 0.2505270663140E-01  0.6281019034390E-02
 0.2725370718620E-01  0.6504798122083E-02
 0.2952217181532E-01  0.6721696502825E-02
 0.3185409476159E-01  0.6931808527482E-02
 0.3424508322696E-01  0.7135085664891E-02
 0.3669040166169E-01  0.7331434091620E-02
 0.3918498678817E-01  0.7520783223134E-02
 0.4172338735449E-01  0.7703162879267E-02
 0.4429975906308E-01  0.7878798050844E-02
 0.4690800601178E-01  0.8047449877028E-02
 0.4954187968238E-01  0.8208327768087E-02
 0.5219487350541E-01  0.8360833526746E-02
 0.5486024577901E-01  0.8504676069519E-02
 0.5753098763875E-01  0.8639999619464E-02
 0.6019989575246E-01  0.8767553656984E-02
 0.6285956129865E-01  0.8888809503960E-02
 0.6550260084504E-01  0.9005649766229E-02
 0.6812289199731E-01  0.9118207447647E-02
 0.7071898729897E-01  0.9218968581124E-02
 0.7329049920623E-01  0.9300309648808E-02
 0.7583433670494E-01  0.9361272868739E-02
 0.7834756124419E-01  0.9401351030698E-02
 0.3055146595212E-03  0.3338189500758E-03
 0.7580995342863E-03  0.6729370231051E-03
 0.1349465582831E-02  0.1017305143625E-02
 0.2070872838740E-02  0.1365477147960E-02
 0.2914146978786E-02  0.1715022434447E-02
 0.3872236477659E-02  0.2063071732696E-02
 0.4939335900619E-02  0.2406784246019E-02
 0.6110741298307E-02  0.2743640810659E-02
 0.7382603640033E-02  0.3071567894235E-02
 0.8751684593542E-02  0.3388944144492E-02
 0.1021514401378E-01  0.3694542284265E-02
 0.1177041037334E-01  0.3987456986607E-02
 0.1341506635936E-01  0.4267028607093E-02
 0.1514677103164E-01  0.4532782379093E-02
 0.1696322298357E-01  0.4784386671368E-02
 0.1886206773431E-01  0.5021645977509E-02
 0.2084092548610E-01  0.5245908483561E-02
 0.2289725338541E-01  0.5460340037428E-02
 0.2502810668460E-01  0.5667155062647E-02
 0.2723015924468E-01  0.5867421102563E-02
 0.2949974216446E-01  0.6061538493439E-02
 0.3183291991031E-01  0.6249596648564E-02
 0.3422538283457E-01  0.6431537749040E-02
 0.3667248645486E-01  0.6607245605496E-02
 0.3916926175027E-01  0.6776607554414E-02
 0.4171035024399E-01  0.6939585554642E-02
 0.4428999395715E-01  0.7096304856668E-02
 0.4690217274348E-01  0.7246432183345E-02
 0.4954069586481E-01  0.7389094329819E-02
 0.5219908553797E-01  0.7523584412321E-02
 0.5487058885804E-01  0.7649475335836E-02
 0.5754813300145E-01  0.7766747511839E-02
 0.6022438424165E-01  0.7875956566838E-02
 0.6289172289032E-01  0.7978351357649E-02
 0.6554246208597E-01  0.8075587513988E-02
 0.6817007812173E-01  0.8167689176149E-02
 0.7077262888696E-01  0.8247472820843E-02
 0.7334911894957E-01  0.8307683293866E-02
 0.7589569183488E-01  0.8347415185791E-02
 0.7840857175596E-01  0.8366264835269E-02
 0.3024327027621E-03  0.2990650785640E-03
 0.7506681167438E-03  0.6026200570448E-03
 0.1337171846361E-02  0.9107191733113E-03
 0.2053873917002E-02  0.1222190212044E-02
 0.2893060676656E-02  0.1534959878377E-02
 0.3847907949020E-02  0.1846507103724E-02
 0.4912651201348E-02  0.2154272181278E-02
 0.6082511624546E-02  0.2455933182708E-02
 0.7353511792621E-02  0.2749540881948E-02
 0.8722273346436E-02  0.3033547020046E-02
 0.1018582709504E-01  0.3306767741557E-02
 0.1174149245585E-01  0.3568327016707E-02
 0.1338676417906E-01  0.3817590651063E-02
 0.1511923200660E-01  0.4054110491904E-02
 0.1693654064817E-01  0.4277583563674E-02
 0.1883629499092E-01  0.4487842606074E-02
 0.2081608025048E-01  0.4686174589437E-02
 0.2287332878259E-01  0.4875577110875E-02
 0.2500509973419E-01  0.5058154139243E-02
 0.2720809835714E-01  0.5234927377987E-02
 0.2947870960996E-01  0.5406283497755E-02
 0.3181306954857E-01  0.5572306066597E-02
 0.3420695316191E-01  0.5732927351367E-02
 0.3665580900970E-01  0.5888008919160E-02
 0.3915476489952E-01  0.6037397290424E-02
 0.4169855817052E-01  0.6180989232304E-02
 0.4428152040186E-01  0.6318814417639E-02
 0.4689771020445E-01  0.6450449816952E-02
 0.4954099708601E-01  0.6574944419861E-02
 0.5220493393761E-01  0.6691488112158E-02
 0.5488275797025E-01  0.6799523501008E-02
 0.5756733336529E-01  0.6898872726650E-02
 0.6025119709549E-01  0.6989902548533E-02
 0.6292652051819E-01  0.7073643500320E-02
 0.6558531688376E-01  0.7151527119315E-02
 0.6822066605522E-01  0.7223468681883E-02
 0.7083013779349E-01  0.7282606972886E-02
 0.7341213064979E-01  0.7322048839312E-02
 0.7596205862135E-01  0.7340931815215E-02
 0.7847518257360E-01  0.7338991203679E-02
 0.2998472079192E-03  0.2647677558381E-03
 0.7443165851479E-03  0.5332886970258E-03
 0.1326525454960E-02  0.8056950084043E-03
 0.2038995213338E-02  0.1081042867413E-02
 0.2874436412879E-02  0.1357569615818E-02
 0.3826253013527E-02  0.1633070256194E-02
 0.4888743440845E-02  0.1905253695489E-02
 0.6057082194319E-02  0.2171998853931E-02
 0.7327188579660E-02  0.2431493624875E-02
 0.8695562885096E-02  0.2682278700500E-02
 0.1015911917858E-01  0.2923228634457E-02
 0.1171507529902E-01  0.3153508957014E-02
 0.1336084253084E-01  0.3372519933844E-02
 0.1509394436384E-01  0.3579845962475E-02
 0.1691197447410E-01  0.3775216115157E-02
 0.1881250044496E-01  0.3958492971583E-02
 0.2079307691250E-01  0.4130904863426E-02
 0.2285111635285E-01  0.4295285434876E-02
 0.2498368569471E-01  0.4453630620251E-02
 0.2718752432531E-01  0.4606917003990E-02
 0.2945907297563E-01  0.4755517506977E-02
 0.3179454081874E-01  0.4899509607311E-02
 0.3418978908660E-01  0.5038815713006E-02
 0.3664036139852E-01  0.5173275896266E-02
 0.3914148494861E-01  0.5302697628897E-02
 0.4168799592442E-01  0.5426915491676E-02
 0.4427431877808E-01  0.5545867884720E-02
 0.4689459410915E-01  0.5659046695020E-02
 0.4954275457305E-01  0.5765427779570E-02
 0.5221238629710E-01  0.5864102900560E-02
 0.5489671884844E-01  0.5954389526918E-02
 0.5758855552835E-01  0.6035956343546E-02
 0.6028030641164E-01  0.6108985406470E-02
 0.6296393719730E-01  0.6174292227840E-02
 0.6563116591838E-01  0.6233086412450E-02
 0.6827468229069E-01  0.6285173509219E-02
 0.7089157313938E-01  0.6324006548318E-02
 0.7347964276594E-01  0.6343041517949E-02
 0.7603357383837E-01  0.6341467903875E-02
 0.7854774399887E-01  0.6319058243724E-02
 0.2977111803459E-03  0.2308824496209E-03
 0.7389479335407E-03  0.4648446613034E-03
 0.1317391176695E-02  0.7020767123624E-03
 0.2026083471844E-02  0.9418258286677E-03
 0.2858122859342E-02  0.1182600009678E-02
 0.3807136318786E-02  0.1422480727162E-02
 0.4867500056385E-02  0.1659431636002E-02
 0.6034364297282E-02  0.1891532638988E-02
 0.7303566789556E-02  0.2117117789719E-02
 0.8671503721582E-02  0.2334829538190E-02
 0.1013498459153E-01  0.2543613780685E-02
 0.1169113366657E-01  0.2742688690610E-02
 0.1333728400583E-01  0.2931497465052E-02
 0.1507089665956E-01  0.3109662887770E-02
 0.1688951768699E-01  0.3276949662749E-02
 0.1879068100623E-01  0.3433252173018E-02
 0.2077191514412E-01  0.3579742994965E-02
 0.2283061752953E-01  0.3719096267205E-02
 0.2496386668202E-01  0.3853202560385E-02
 0.2716843887335E-01  0.3982994445677E-02
 0.2944083261185E-01  0.4108831504831E-02
 0.3177733184411E-01  0.4230785449611E-02
 0.3417388575792E-01  0.4348769474878E-02
 0.3662613510617E-01  0.4462603455608E-02
 0.3912940905135E-01  0.4572058030858E-02
 0.4167864570631E-01  0.4676908903204E-02
 0.4426836584471E-01  0.4777007634711E-02
 0.4689279557373E-01  0.4871765707446E-02
 0.4954593408763E-01  0.4960090405360E-02
 0.5222140403000E-01  0.5040980170025E-02
 0.5491243051365E-01  0.5113632005519E-02
 0.5761175922499E-01  0.5177565319925E-02
 0.6031167703273E-01  0.5232780890440E-02
 0.6300394855805E-01  0.5279881751233E-02
 0.6568000255396E-01  0.5319856929431E-02
 0.6833214552522E-01  0.5352400905347E-02
 0.7095698866203E-01  0.5371270941880E-02
 0.7355175014867E-01  0.5370262793186E-02
 0.7611039947436E-01  0.5348599816095E-02
 0.7862649616287E-01  0.5306065947346E-02
 0.2959841243772E-03  0.1973689626898E-03
 0.7344782365171E-03  0.3971994285461E-03
 0.1309650782217E-02  0.5997234236009E-03
 0.2015002677772E-02  0.8043485054702E-03
 0.2843983335664E-02  0.1009819150842E-02
 0.3790433371378E-02  0.1214476409405E-02
 0.4848815734036E-02  0.1416524308614E-02
 0.6014273746215E-02  0.1614241377396E-02
 0.7282582029098E-02  0.1806113822109E-02
 0.8650048332497E-02  0.1990895982940E-02
 0.1011338936008E-01  0.2167616092982E-02
 0.1166964409933E-01  0.2335554843612E-02
 0.1331607320119E-01  0.2494206210834E-02
 0.1505007969755E-01  0.2643237001039E-02
 0.1686916592758E-01  0.2782451225398E-02
 0.1877083605631E-01  0.2911777304686E-02
 0.2075259704068E-01  0.3032335157340E-02
 0.2281183604199E-01  0.3146643932713E-02
 0.2494564691823E-01  0.3256491688463E-02
 0.2715084557158E-01  0.3362768402258E-02
 0.2942399035761E-01  0.3465821144261E-02
 0.3176144175259E-01  0.3565716667921E-02
 0.3415923870473E-01  0.3662360109006E-02
 0.3661312123860E-01  0.3755552921790E-02
 0.3911852311935E-01  0.3845031525556E-02
 0.4167048754898E-01  0.3930516325716E-02
 0.4426363525346E-01  0.4011776601599E-02
 0.4689228170304E-01  0.4088148128075E-02
 0.4955049655705E-01  0.4158474090421E-02
 0.5223194301125E-01  0.4221664156947E-02
 0.5492984588631E-01  0.4276799121209E-02
 0.5763689767433E-01  0.4323252733243E-02
 0.6034526699035E-01  0.4360847258171E-02
 0.6304652323769E-01  0.4389975067706E-02
 0.6573181294358E-01  0.4411405273599E-02
 0.6839306748653E-01  0.4424719042326E-02
 0.7102643018243E-01  0.4423967895022E-02
 0.7362854344476E-01  0.4403274389267E-02
 0.7619268633287E-01  0.4361880738755E-02
 0.7871164679561E-01  0.4299575137717E-02
 0.2946311418851E-03  0.1641906985164E-03
 0.7308349046316E-03  0.3302725993008E-03
 0.1303201075771E-02  0.4985069408701E-03
 0.2005632558153E-02  0.6684362708109E-03
 0.2831895132790E-02  0.8390123614512E-03
 0.3776030637179E-02  0.1008811671815E-02
 0.4832593017749E-02  0.1176264330240E-02
 0.5996731700728E-02  0.1339843429110E-02
 0.7264173546307E-02  0.1498190908140E-02
 0.8631151862479E-02  0.1650180834633E-02
 0.1009430174812E-01  0.1794932989377E-02
 0.1165058528620E-01  0.1931799264289E-02
 0.1329719694229E-01  0.2060331584809E-02
 0.1503148663208E-01  0.2180246135657E-02
 0.1685091726939E-01  0.2291389911345E-02
 0.1875296741426E-01  0.2393727783428E-02
 0.2073512706145E-01  0.2488330236317E-02
 0.2279477784968E-01  0.2577565939161E-02
 0.2492903267256E-01  0.2663123399900E-02
 0.2713474979753E-01  0.2745851670597E-02
 0.2940854953891E-01  0.2826086483694E-02
 0.3174687073226E-01  0.2903890851741E-02
 0.3414584396724E-01  0.2979163440457E-02
 0.3660131074478E-01  0.3051689475440E-02
 0.3910881213974E-01  0.3121174119609E-02
 0.4166349972737E-01  0.3187286308620E-02
 0.4426009803833E-01  0.3249717709044E-02
 0.4689301613863E-01  0.3307733118195E-02
 0.4955639865294E-01  0.3360116043436E-02
 0.5224395415353E-01  0.3405691721792E-02
 0.5494891232582E-01  0.3443428636805E-02
 0.5766391804835E-01  0.3472558013795E-02
 0.6038102788937E-01  0.3492725778314E-02
 0.6309162313591E-01  0.3504114791777E-02
 0.6578657630150E-01  0.3507274175564E-02
 0.6845745270501E-01  0.3501668922816E-02
 0.7109993644575E-01  0.3481634251776E-02
 0.7371010607312E-01  0.3441605869100E-02
 0.7628057257848E-01  0.3380833870997E-02
 0.7880338423979E-01  0.3299109310069E-02
 0.2936222011774E-03  0.1313140721947E-03
 0.7279552532971E-03  0.2639905751984E-03
 0.1297952228337E-02  0.3983097465917E-03
 0.1997867234588E-02  0.5339281639299E-03
 0.2821748808677E-02  0.6699800124189E-03
 0.3763825492718E-02  0.8052556251104E-03
 0.4818742730384E-02  0.9383974798191E-03
 0.5981665322278E-02  0.1068068077223E-02
 0.7248284928477E-02  0.1193066806093E-02
 0.8614772747560E-02  0.1312393364548E-02
 0.1007769275126E-01  0.1425266687140E-02
 0.1163393841594E-01  0.1531117404708E-02
 0.1328064450343E-01  0.1629561858934E-02
 0.1501511308162E-01  0.1720370624153E-02
 0.1683477225539E-01  0.1803437274997E-02
 0.1873707932599E-01  0.1878765640287E-02
 0.2071951199665E-01  0.1947380039391E-02
 0.2277945110467E-01  0.2011503091332E-02
 0.2491403223268E-01  0.2072726766428E-02
 0.2712015872886E-01  0.2131861045415E-02
 0.2939451499815E-01  0.2189231778554E-02
 0.3173362011444E-01  0.2244899796594E-02
 0.3413369824983E-01  0.2298759253318E-02
 0.3659069465087E-01  0.2350581696071E-02
 0.3910026049490E-01  0.2400044303272E-02
 0.4165765915920E-01  0.2446768591549E-02
 0.4425772308384E-01  0.2490373396187E-02
 0.4689495957362E-01  0.2530057314181E-02
 0.4956359332533E-01  0.2564548576354E-02
 0.5225738392902E-01  0.2592592176520E-02
 0.5496957210708E-01  0.2613047899458E-02
 0.5769276187618E-01  0.2625007162307E-02
 0.6041890521578E-01  0.2627941194480E-02
 0.6313920363605E-01  0.2621823872792E-02
 0.6584426498582E-01  0.2606983571715E-02
 0.6852529857199E-01  0.2582765635567E-02
 0.7117753883952E-01  0.2543778129307E-02
 0.7379651299393E-01  0.2484756723589E-02
 0.7637418412304E-01  0.2404951159944E-02
 0.7890188379267E-01  0.2304154410067E-02
 0.2929315398388E-03  0.9870803287362E-04
 0.7257853227845E-03  0.1982854840261E-03
 0.1293826365558E-02  0.2990233765186E-03
 0.1991614023556E-02  0.4006749503805E-03
 0.2813447488756E-02  0.5025356162739E-03
 0.3753726074093E-02  0.6035905339624E-03
 0.4807184246501E-02  0.7026815735536E-03
 0.5969008285111E-02  0.7986548710747E-03
 0.7234864685920E-02  0.8904675772963E-03
 0.8600873259809E-02  0.9772493260225E-03
 0.1006353654327E-01  0.1058324393425E-02
 0.1161968750538E-01  0.1133208612980E-02
 0.1326640782233E-01  0.1201588499976E-02
 0.1500095724849E-01  0.1263293637306E-02
 0.1682073394856E-01  0.1318267628026E-02
 0.1872317847235E-01  0.1366555780942E-02
 0.2070576095592E-01  0.1409139489111E-02
 0.2276586613775E-01  0.1448099605472E-02
 0.2490065590144E-01  0.1484934563273E-02
 0.2710708136290E-01  0.1520417254422E-02
 0.2938189315013E-01  0.1554865324425E-02
 0.3172169248072E-01  0.1588339261467E-02
 0.3412279909272E-01  0.1620730975000E-02
 0.3658126430592E-01  0.1651801191464E-02
 0.3909285228484E-01  0.1681202647486E-02
 0.4165294179858E-01  0.1708513694868E-02
 0.4425647757621E-01  0.1733285229978E-02
 0.4689807024024E-01  0.1754654492320E-02
 0.4957203029955E-01  0.1771298854467E-02
 0.5227217484504E-01  0.1781887153752E-02
 0.5499176284454E-01  0.1785173861809E-02
 0.5772336538981E-01  0.1780112954454E-02
 0.6045883858859E-01  0.1766002138268E-02
 0.6318921375295E-01  0.1742606250946E-02
 0.6590484454552E-01  0.1710031515205E-02
 0.6859659527864E-01  0.1667499586112E-02
 0.7125926105083E-01  0.1609880538250E-02
 0.7388783019321E-01  0.1532197576322E-02
 0.7647363562266E-01  0.1433693193211E-02
 0.7900731004229E-01  0.1314160289155E-02
 0.2925371740255E-03  0.6634367253010E-04
 0.7242789009827E-03  0.1330942965006E-03
 0.1290756370794E-02  0.2005470645304E-03
 0.1986792375596E-02  0.2685374753641E-03
 0.2806906192682E-02  0.3365041585359E-03
 0.3745651059054E-02  0.4036103698488E-03
 0.4797845650407E-02  0.4688853806295E-03
 0.5958701166125E-02  0.5313529347388E-03
 0.7223866733115E-02  0.5901272400875E-03
 0.8589419976648E-02  0.6444708730252E-03
 0.1005181087364E-01  0.6938184054288E-03
 0.1160781970030E-01  0.7377763447107E-03
 0.1325448170391E-01  0.7761064377727E-03
 0.1498902003977E-01  0.8087014683390E-03
 0.1680880799169E-01  0.8355583091245E-03
 0.1871127399141E-01  0.8567662187352E-03
 0.2069388537395E-01  0.8732668034735E-03
 0.2275403546374E-01  0.8870032258607E-03
 0.2488891601472E-01  0.8993833140666E-03
 0.2709552855864E-01  0.9111449269534E-03
 0.2937069206036E-01  0.9225993489622E-03
 0.3171109179041E-01  0.9338087885821E-03
 0.3411314506009E-01  0.9446654339176E-03
 0.3657301163819E-01  0.9549223081847E-03
 0.3908657165303E-01  0.9642114860667E-03
 0.4164932302498E-01  0.9720725952826E-03
 0.4425632744128E-01  0.9779935981219E-03
 0.4690230437551E-01  0.9810553049764E-03
 0.4958165654278E-01  0.9798887033190E-03
 0.5228826588173E-01  0.9730905128987E-03
 0.5501541787161E-01  0.9593131157577E-03
 0.5775565982096E-01  0.9373751291903E-03
 0.6050076195828E-01  0.9064014983774E-03
 0.6324159622686E-01  0.8659474319062E-03
 0.6596827371268E-01  0.8158949793456E-03
 0.6867132568850E-01  0.7553375649415E-03
 0.7134511878821E-01  0.6793966176650E-03
 0.7398411454922E-01  0.5833711190663E-03
 0.7657903129145E-01  0.4664898588190E-03
 0.7911981772438E-01  0.3285424406601E-03
 0.2924204932497E-03  0.3419390210958E-04
 0.7233967112510E-03  0.6835809348370E-04
 0.1288684870264E-02  0.1027866068729E-03
 0.1983332942868E-02  0.1373852577600E-03
 0.2802051201043E-02  0.1717206339003E-03
 0.3739529409300E-02  0.2051194948028E-03
 0.4790663807260E-02  0.2367875883075E-03
 0.5950691734473E-02  0.2659202590285E-03
 0.7215250779208E-02  0.2917873663035E-03
 0.8580384179570E-02  0.3137864029562E-03
 0.1004249741627E-01  0.3314661322170E-03
 0.1159832554683E-01  0.3445283023656E-03
 0.1324486400975E-01  0.3528142717276E-03
 0.1497930518521E-01  0.3562837673391E-03
 0.1679900267205E-01  0.3549899167336E-03
 0.1870137751055E-01  0.3490682838842E-03
 0.2068389902893E-01  0.3394236660688E-03
 0.2274397380183E-01  0.3278653450881E-03
 0.2487882697610E-01  0.3157133537635E-03
 0.2708551309688E-01  0.3036725950370E-03
 0.2936092154200E-01  0.2920499500947E-03
 0.3170182352555E-01  0.2809115820212E-03
 0.3410473594282E-01  0.2701526863171E-03
 0.3656592942155E-01  0.2595219185832E-03
 0.3908140311647E-01  0.2486346781780E-03
 0.4164677802991E-01  0.2369964815718E-03
 0.4425723777321E-01  0.2240374776962E-03
 0.4690761667046E-01  0.2087870832468E-03
 0.4959241670715E-01  0.1898344679805E-03
 0.5230559289940E-01  0.1657082796232E-03
 0.5504046658370E-01  0.1349619361372E-03
 0.5778957165631E-01  0.9628056052338E-04
 0.6054460375942E-01  0.4861674419158E-04
 0.6329628756918E-01 -0.8685015233085E-05
 0.6603450434474E-01 -0.7596944789321E-04
 0.6874946517779E-01 -0.1542763585091E-03
 0.7143511957228E-01 -0.2482433803801E-03
 0.7408541383626E-01 -0.3623070101951E-03
 0.7669046544942E-01 -0.4972586719529E-03
 0.7923955198993E-01 -0.6533162747510E-03
 0.2925659245352E-03  0.2233180549353E-05
 0.7231057358588E-03  0.4021451871358E-05
 0.1287563372961E-02  0.5653401947395E-05
 0.1981176764146E-02  0.7095281529467E-05
 0.2798819470265E-02  0.8028756928904E-05
 0.3735300093344E-02  0.7931464053262E-05
 0.4785584369961E-02  0.6175820045924E-05
 0.5944935159300E-02  0.2122989762533E-05
 0.7208982639473E-02 -0.4803364316734E-05
 0.8573742187656E-02 -0.1506966223824E-04
 0.1003558207029E-01 -0.2900995051482E-04
 0.1159119923149E-01 -0.4682348892697E-04
 0.1323755583020E-01 -0.6858557795891E-04
 0.1497181934842E-01 -0.9426626894283E-04
 0.1679132898688E-01 -0.1237534910902E-03
 0.1869350318422E-01 -0.1568631878192E-03
 0.2067581807001E-01 -0.1927246115724E-03
 0.2273569810724E-01 -0.2296588705050E-03
 0.2487040530469E-01 -0.2664310900877E-03
 0.2707704975508E-01 -0.3023672739991E-03
 0.2935259326807E-01 -0.3371629214476E-03
 0.3169389485050E-01 -0.3707455577358E-03
 0.3409757297375E-01 -0.4032140913313E-03
 0.3656001155110E-01 -0.4348207197052E-03
 0.3907733190072E-01 -0.4659625530428E-03
 0.4164528220352E-01 -0.4971634136803E-03
 0.4425917325759E-01 -0.5290457246289E-03
 0.4691396070809E-01 -0.5626262977297E-03
 0.4960425355544E-01 -0.5993530787732E-03
 0.5232408902271E-01 -0.6407613841738E-03
 0.5506683475237E-01 -0.6883936675786E-03
 0.5782502285825E-01 -0.7436965882213E-03
 0.6059028702389E-01 -0.8078897960193E-03
 0.6335321806549E-01 -0.8818410347247E-03
 0.6610348132486E-01 -0.9661249786091E-03
 0.6883098145671E-01 -0.1061920098075E-02
 0.7152926256117E-01 -0.1173633271936E-02
 0.7419176674766E-01 -0.1305447383122E-02
 0.7680802285086E-01 -0.1458180873559E-02
 0.7936664848496E-01 -0.1632064071613E-02
 0.2929606534654E-03 -0.2956271450343E-04
 0.7233786518104E-03 -0.5996807556247E-04
 0.1287351542814E-02 -0.9093636922711E-04
 0.1980274556647E-02 -0.1224490513071E-03
 0.2797158100239E-02 -0.1547201796827E-03
 0.3732911805087E-02 -0.1881320654673E-03
 0.4782561740302E-02 -0.2231542933720E-03
 0.5941394151594E-02 -0.2602652792762E-03
 0.7205034478595E-02 -0.2998896398844E-03
 0.8569475631597E-02 -0.3423571447607E-03
 0.1003105521487E-01 -0.3878824025819E-03
 0.1158643878896E-01 -0.4365626610069E-03
 0.1323256163647E-01 -0.4883867679332E-03
 0.1496657222790E-01 -0.5432517468510E-03
 0.1678580070588E-01 -0.6009842256110E-03
 0.1868766773382E-01 -0.6613496836369E-03
 0.2066966105003E-01 -0.7235089331436E-03
 0.2272922761050E-01 -0.7859103488777E-03
 0.2486366969266E-01 -0.8474017973919E-03
 0.2707015539333E-01 -0.9073382140455E-03
 0.2934572089579E-01 -0.9654154369460E-03
 0.3168731478367E-01 -0.1021552245803E-02
 0.3409165905405E-01 -0.1075838647392E-02
 0.3655525332765E-01 -0.1128524035065E-02
 0.3907434428072E-01 -0.1180013709129E-02
 0.4164481152329E-01 -0.1230855909725E-02
 0.4426209859267E-01 -0.1281720263942E-02
 0.4692128939496E-01 -0.1333664493720E-02
 0.4961710837595E-01 -0.1388168781880E-02
 0.5234368500866E-01 -0.1446828181839E-02
 0.5509444481769E-01 -0.1511277892822E-02
 0.5786193105821E-01 -0.1583094728241E-02
 0.6063772946110E-01 -0.1663670701940E-02
 0.6341231174124E-01 -0.1754087734574E-02
 0.6617514242676E-01 -0.1855154145252E-02
 0.6891583437161E-01 -0.1968192948369E-02
 0.7162753837899E-01 -0.2097390249431E-02
 0.7430320288676E-01 -0.2246685992825E-02
 0.7693177886262E-01 -0.2416932839463E-02
 0.7950123340441E-01 -0.2608378896635E-02
 0.2935943924082E-03 -0.6121688303043E-04
 0.7241933607495E-03 -0.1236604058231E-03
 0.1288016584641E-02 -0.1870624498422E-03
 0.1980586104864E-02 -0.2513588358392E-03
 0.2797023856792E-02 -0.3166683230430E-03
 0.3732322689354E-02 -0.3832423339957E-03
 0.4781558999225E-02 -0.4513999922956E-03
 0.5940039053804E-02 -0.5214642035806E-03
 0.7203384995686E-02 -0.5937100132771E-03
 0.8567571673841E-02 -0.6683304196058E-03
 0.1002891191973E-01 -0.7454189693290E-03
 0.1158404627724E-01 -0.8249685301580E-03
 0.1322988941076E-01 -0.9068789720424E-03
 0.1496357664501E-01 -0.9909719601796E-03
 0.1678243442743E-01 -0.1077010821220E-02
 0.1868389048601E-01 -0.1164708856830E-02
 0.2066544896011E-01 -0.1253256264098E-02
 0.2272458386115E-01 -0.1341225972562E-02
 0.2485864106908E-01 -0.1427546436494E-02
 0.2706484904849E-01 -0.1511599666384E-02
 0.2934032020021E-01 -0.1593079823184E-02
 0.3168209437899E-01 -0.1671894473433E-02
 0.3408699898885E-01 -0.1748121640055E-02
 0.3655165175034E-01 -0.1822004146732E-02
 0.3907242792795E-01 -0.1893951034923E-02
 0.4164534294698E-01 -0.1964529903235E-02
 0.4426597891210E-01 -0.2034452082336E-02
 0.4692955539140E-01 -0.2104810708591E-02
 0.4963092139219E-01 -0.2177113104608E-02
 0.5236430960530E-01 -0.2253009656068E-02
 0.5512321616606E-01 -0.2334225079443E-02
 0.5790020972909E-01 -0.2422464727433E-02
 0.6068684351081E-01 -0.2519293272761E-02
 0.6347348629487E-01 -0.2626009109376E-02
 0.6624941814691E-01 -0.2743658421397E-02
 0.6900397568299E-01 -0.2873715102912E-02
 0.7172992892487E-01 -0.3020154303600E-02
 0.7441974270799E-01 -0.3186683550712E-02
 0.7706179954754E-01 -0.3374197368106E-02
 0.7964342357599E-01 -0.3582967305929E-02
 0.2944591883341E-03 -0.9275147297124E-04
 0.7255325984933E-03 -0.1871033123484E-03
 0.1289532728800E-02 -0.2828011240607E-03
 0.1982079737625E-02 -0.3797404724138E-03
 0.2798382749509E-02 -0.4779521751782E-03
 0.3733500082603E-02 -0.5775643982240E-03
 0.4782547818018E-02 -0.6787522205748E-03
 0.5940847888734E-02 -0.7816873728246E-03
 0.7204019559798E-02 -0.8864974136694E-03
 0.8568023180198E-02 -0.9932387551145E-03
 0.1002915211398E-01 -0.1101882771628E-02
 0.1158402791985E-01 -0.1212316165441E-02
 0.1322955075268E-01 -0.1324347858529E-02
 0.1496284861628E-01 -0.1437722304341E-02
 0.1678124962556E-01 -0.1552137910312E-02
 0.1868219340639E-01 -0.1667254381025E-02
 0.2066320526301E-01 -0.1782289479516E-02
 0.2272179077268E-01 -0.1895938429959E-02
 0.2485534266723E-01 -0.2007208425719E-02
 0.2706115203347E-01 -0.2115506855913E-02
 0.2933640921440E-01 -0.2220524255726E-02
 0.3167824691497E-01 -0.2322154518783E-02
 0.3408359973086E-01 -0.2420460564288E-02
 0.3654920581702E-01 -0.2515674805308E-02
 0.3907157226480E-01 -0.2608205469287E-02
 0.4164685481172E-01 -0.2698634325667E-02
 0.4427078021278E-01 -0.2787708769532E-02
 0.4693871154506E-01 -0.2876551654822E-02
 0.4964563217355E-01 -0.2966692085050E-02
 0.5238588990764E-01 -0.3059831135952E-02
 0.5515306540017E-01 -0.3157779639233E-02
 0.5793976834349E-01 -0.3262369810741E-02
 0.6073753637430E-01 -0.3375339382993E-02
 0.6353665300271E-01 -0.3498205834272E-02
 0.6632623150536E-01 -0.3632257938714E-02
 0.6909534881311E-01 -0.3779127284870E-02
 0.7183640714825E-01 -0.3942587757847E-02
 0.7454139740488E-01 -0.4126124892389E-02
 0.7719814168875E-01 -0.4330683194702E-02
 0.7979332658826E-01 -0.4556563556694E-02
 0.2955492642998E-03 -0.1241878301149E-03
 0.7273836127996E-03 -0.2503427651653E-03
 0.1291880802327E-02 -0.3782257622610E-03
 0.1984731885728E-02 -0.5076963886900E-03
 0.2801209664543E-02 -0.6387034238503E-03
 0.3736420274818E-02 -0.7712579835648E-03
 0.4785508359824E-02 -0.9053964173237E-03
 0.5943806377278E-02 -0.1041142982864E-02
 0.7206930303566E-02 -0.1178479668138E-02
 0.8570828847756E-02 -0.1317326679003E-02
 0.1003178071509E-01 -0.1457532529031E-02
 0.1158639421532E-01 -0.1598876491524E-02
 0.1323156096063E-01 -0.1741075098541E-02
 0.1496440740772E-01 -0.1883794215757E-02
 0.1678226868469E-01 -0.2026666115566E-02
 0.1868260112568E-01 -0.2169295813223E-02
 0.2066295592227E-01 -0.2310927211373E-02
 0.2272087466588E-01 -0.2450376056505E-02
 0.2485380009243E-01 -0.2586726775083E-02
 0.2705908803898E-01 -0.2719410637737E-02
 0.2933400837386E-01 -0.2848112712893E-02
 0.3167578808914E-01 -0.2972710809258E-02
 0.3408147063038E-01 -0.3093249622351E-02
 0.3654791683184E-01 -0.3209947270586E-02
 0.3907176882660E-01 -0.3323206529325E-02
 0.4164932724127E-01 -0.3433618033493E-02
 0.4427646979094E-01 -0.3541959459506E-02
 0.4694871133239E-01 -0.3649377457509E-02
 0.4966118005272E-01 -0.3757417248253E-02
 0.5240835171765E-01 -0.3867825656449E-02
 0.5518390660832E-01 -0.3982495978831E-02
 0.5798051252427E-01 -0.4103385478069E-02
 0.6078971002945E-01 -0.4232405381977E-02
 0.6360171659908E-01 -0.4371295128900E-02
 0.6640549781533E-01 -0.4521591297525E-02
 0.6918988855791E-01 -0.4685090487480E-02
 0.7194693678215E-01 -0.4865374918998E-02
 0.7466816874618E-01 -0.5065718509862E-02
 0.7734085277521E-01 -0.5287124384481E-02
 0.7995104096009E-01 -0.5529928904367E-02
 0.2968608899830E-03 -0.1555466321035E-03
 0.7297379004295E-03 -0.3134232347955E-03
 0.1295047876753E-02 -0.4734073101694E-03
 0.1988526713666E-02 -0.6353256934308E-03
 0.2805488051533E-02 -0.7990497055423E-03
 0.3741068296933E-02 -0.9644782813972E-03
 0.4790429178826E-02 -0.1131513274311E-02
 0.5948907932811E-02 -0.1300034495758E-02
 0.7212116181452E-02 -0.1469880030430E-02
 0.8575993293383E-02 -0.1640834364801E-02
 0.1003680772036E-01 -0.1812622810227E-02
 0.1159116001412E-01 -0.1984916420253E-02
 0.1323593908691E-01 -0.2157338400786E-02
 0.1496827556926E-01 -0.2329475132093E-02
 0.1678551692005E-01 -0.2500891956116E-02
 0.1868514095560E-01 -0.2671138462788E-02
 0.2066472942440E-01 -0.2839483693347E-02
 0.2272186430791E-01 -0.3004862664641E-02
 0.2485404138775E-01 -0.3166435907786E-02
 0.2705868323521E-01 -0.3323657314362E-02
 0.2933314066263E-01 -0.3476204791199E-02
 0.3167473621602E-01 -0.3623937736549E-02
 0.3408062369044E-01 -0.3766879539143E-02
 0.3654778871944E-01 -0.3905230127864E-02
 0.3907301163192E-01 -0.4039382129003E-02
 0.4165274256315E-01 -0.4169929631699E-02
 0.4428301668969E-01 -0.4297674662960E-02
 0.4695950931279E-01 -0.4423781501117E-02
 0.4967750455562E-01 -0.4549805472788E-02
 0.5243161991490E-01 -0.4677533848849E-02
 0.5521565164006E-01 -0.4808938414619E-02
 0.5802234419426E-01 -0.4946099438657E-02
 0.6084326123510E-01 -0.5091102036314E-02
 0.6366857513490E-01 -0.5245910690675E-02
 0.6648712442115E-01 -0.5412315470097E-02
 0.6928752075880E-01 -0.5592285824654E-02
 0.7206147202847E-01 -0.5789221850358E-02
 0.7480004886142E-01 -0.6006196222221E-02
 0.7748997095806E-01 -0.6244279894756E-02
 0.8011665634325E-01 -0.6503851098114E-02
 0.2983922777091E-03 -0.1868480103311E-03
 0.7325909965714E-03 -0.3763879684606E-03
 0.1299026984859E-02 -0.5684147348841E-03
 0.1993455820088E-02 -0.7627247774329E-03
 0.2811209663596E-02 -0.9591153153684E-03
 0.3747437736901E-02 -0.1157376702717E-02
 0.4797307122790E-02 -0.1357279465691E-02
 0.5956153638540E-02 -0.1558561289851E-02
 0.7219582997931E-02 -0.1760917715289E-02
 0.8583527106425E-02 -0.1963998034799E-02
 0.1004424826239E-01 -0.2167404305811E-02
 0.1159834456311E-01 -0.2370699005796E-02
 0.1324270796568E-01 -0.2573411567507E-02
 0.1497447894742E-01 -0.2775048469169E-02
 0.1679102258120E-01 -0.2975107764230E-02
 0.1868984289217E-01 -0.3173083263859E-02
 0.2066855679180E-01 -0.3368268601427E-02
 0.2272479094455E-01 -0.3559717361554E-02
 0.2485609709528E-01 -0.3746665461145E-02
 0.2705996637102E-01 -0.3928588423717E-02
 0.2933383175891E-01 -0.4105155482890E-02
 0.3167511242666E-01 -0.4276205425272E-02
 0.3408107382558E-01 -0.4441737323319E-02
 0.3654882834510E-01 -0.4601929043506E-02
 0.3907529756148E-01 -0.4757158332463E-02
 0.4165708573728E-01 -0.4908017230238E-02
 0.4429039216109E-01 -0.5055326034620E-02
 0.4697106159968E-01 -0.5200260217292E-02
 0.4969454584975E-01 -0.5344378809559E-02
 0.5245561884487E-01 -0.5489503799829E-02
 0.5524821039549E-01 -0.5637681077378E-02
 0.5806516173201E-01 -0.5791111560253E-02
 0.6089808153050E-01 -0.5952054514318E-02
 0.6373711981815E-01 -0.6122702697191E-02
 0.6657101040448E-01 -0.6305105797352E-02
 0.6938816193058E-01 -0.6501414494507E-02
 0.7217995719136E-01 -0.6714856273713E-02
 0.7493701997605E-01 -0.6948312994002E-02
 0.7764552498059E-01 -0.7202933310184E-02
 0.8029025374844E-01 -0.7479144070934E-02
 0.3001435012714E-03 -0.2181116629544E-03
 0.7359423113603E-03 -0.4392792458634E-03
 0.1303816900402E-02 -0.6633154389842E-03
 0.1999518002776E-02 -0.8899878751288E-03
 0.2818374349402E-02 -0.1119021877304E-02
 0.3755530586682E-02 -0.1350101599102E-02
 0.4806147243321E-02 -0.1582868357078E-02
 0.5965552212707E-02 -0.1816919302808E-02
 0.7229343409853E-02 -0.2051808437772E-02
 0.8593446868517E-02 -0.2287050376541E-02
 0.1005412263010E-01 -0.2522124119121E-02
 0.1160797151780E-01 -0.2756483618659E-02
 0.1325189421285E-01 -0.2989564567269E-02
 0.1498304667483E-01 -0.3220793610584E-02
 0.1679881683703E-01 -0.3449601609254E-02
 0.1869673960432E-01 -0.3675426648748E-02
 0.2067447158396E-01 -0.3897586888646E-02
 0.2272968832342E-01 -0.4115254353762E-02
 0.2486000031038E-01 -0.4327740066651E-02
 0.2706296886829E-01 -0.4534540498211E-02
 0.2933611017799E-01 -0.4735314916178E-02
 0.3167694086765E-01 -0.4929879455972E-02
 0.3408283912284E-01 -0.5118205974896E-02
 0.3655104584024E-01 -0.5300446460116E-02
 0.3907862674590E-01 -0.5476959041874E-02
 0.4166234479768E-01 -0.5648328132510E-02
 0.4429857014558E-01 -0.5815386073538E-02
 0.4698332635312E-01 -0.5979312811089E-02
 0.4971224521691E-01 -0.6141664249615E-02
 0.5248027273189E-01 -0.6304290875618E-02
 0.5528149113592E-01 -0.6469307803537E-02
 0.5810886014102E-01 -0.6639033830704E-02
 0.6095405723579E-01 -0.6815902411307E-02
 0.6380723483951E-01 -0.7002337878005E-02
 0.6665704625868E-01 -0.7200656080970E-02
 0.6949171884251E-01 -0.7413197860152E-02
 0.7230232625430E-01 -0.7643027607419E-02
 0.7507905409388E-01 -0.7892846909189E-02
 0.7780753408052E-01 -0.8163892755402E-02
 0.8047190578671E-01 -0.8456647824321E-02
 0.3021164355727E-03 -0.2493569618175E-03
 0.7397950096348E-03 -0.5021386209030E-03
 0.1309421976435E-02 -0.7581756525849E-03
 0.2006719084982E-02 -0.1017207599000E-02
 0.2826989896544E-02 -0.1278888987090E-02
 0.3765357121770E-02 -0.1542798961458E-02
 0.4816962717050E-02 -0.1808450701176E-02
 0.5977119965349E-02 -0.2075301671116E-02
 0.7241416906201E-02 -0.2342764957769E-02
 0.8605775142671E-02 -0.2610220970663E-02
 0.1006645625636E-01 -0.2877026071466E-02
 0.1162006892222E-01 -0.3142526134332E-02
 0.1326352819693E-01 -0.3406063620341E-02
 0.1499401113502E-01 -0.3666985906267E-02
 0.1680893374029E-01 -0.3924657225736E-02
 0.1870586640566E-01 -0.4178460419983E-02
 0.2068250988501E-01 -0.4427738612395E-02
 0.2273659270596E-01 -0.4671782737687E-02
 0.2486578672694E-01 -0.4909979108929E-02
 0.2706772490926E-01 -0.5141844795078E-02
 0.2934000741035E-01 -0.5367028058739E-02
 0.3168024889798E-01 -0.5585320543166E-02
 0.3408594110341E-01 -0.5796664139854E-02
 0.3655445493221E-01 -0.6001181231434E-02
 0.3908300296237E-01 -0.6199205619149E-02
 0.4166851130828E-01 -0.6391308454269E-02
 0.4430752777149E-01 -0.6578327753774E-02
 0.4699626429818E-01 -0.6761440921973E-02
 0.4973054555604E-01 -0.6942193436562E-02
 0.5250550612407E-01 -0.7122457506660E-02
 0.5531540082404E-01 -0.7304412008753E-02
 0.5815333124046E-01 -0.7490490328808E-02
 0.6101106946017E-01 -0.7683299814264E-02
 0.6387879718711E-01 -0.7885499656408E-02
 0.6674511353184E-01 -0.8099678773844E-02
 0.6959808804925E-01 -0.8328377653363E-02
 0.7242850239635E-01 -0.8574507148417E-02
 0.7522611262281E-01 -0.8840599308957E-02
 0.7797600786012E-01 -0.9127990990609E-02
 0.8066167691854E-01 -0.9437228510859E-02
 0.3043147157397E-03 -0.2806030558087E-03
 0.7441559313133E-03 -0.5650071550369E-03
 0.1315852039254E-02 -0.8530608122709E-03
 0.2015071800992E-02 -0.1144475457956E-02
 0.2837071925720E-02 -0.1438834839414E-02
 0.3776935814442E-02 -0.1735613106725E-02
 0.4829774780044E-02 -0.2034195327314E-02
 0.5990880749188E-02 -0.2333899370017E-02
 0.7255829767428E-02 -0.2633997630560E-02
 0.8620540433087E-02 -0.2933736728455E-02
 0.1008127967261E-01 -0.3232351018580E-02
 0.1163466915621E-01 -0.3529079132629E-02
 0.1327764398024E-01 -0.3823171292657E-02
 0.1500740790137E-01 -0.4113896676334E-02
 0.1682141017014E-01 -0.4400553942716E-02
 0.1871726120793E-01 -0.4682471618773E-02
 0.2069271027575E-01 -0.4959018752836E-02
 0.2274554286622E-01 -0.5229606275476E-02
 0.2487349467148E-01 -0.5493696463445E-02
 0.2707427151474E-01 -0.5750826998336E-02
 0.2934555805285E-01 -0.6000634385065E-02
 0.3168506728144E-01 -0.6242884169058E-02
 0.3409040498331E-01 -0.6477485712133E-02
 0.3655907327738E-01 -0.6704528196750E-02
 0.3908843403994E-01 -0.6924316440519E-02
 0.4167558083395E-01 -0.7137402670769E-02
 0.4431724587704E-01 -0.7344624081974E-02
 0.4700983927329E-01 -0.7547148214918E-02
 0.4974939192240E-01 -0.7746502317992E-02
 0.5253124437795E-01 -0.7944572926779E-02
 0.5534984550217E-01 -0.8143596538313E-02
 0.5819846388609E-01 -0.8346117200263E-02
 0.6106899412510E-01 -0.8554915403858E-02
 0.6395167645512E-01 -0.8772888361935E-02
 0.6683508443901E-01 -0.9002905272732E-02
 0.6970715536881E-01 -0.9247716307873E-02
 0.7255839744218E-01 -0.9510088407083E-02
 0.7537814593787E-01 -0.9792395102323E-02
 0.7815094611835E-01 -0.1009608569784E-01
 0.8085962370431E-01 -0.1042177872202E-01
 0.3067437149184E-03 -0.3118689729870E-03
 0.7490355508768E-03 -0.6279256475984E-03
 0.1323122336285E-02 -0.9480359352506E-03
 0.2024595739819E-02 -0.1271882370215E-02
 0.2848643835612E-02 -0.1598976850530E-02
 0.3790293281601E-02 -0.1928687362536E-02
 0.4844612676886E-02 -0.2260269832345E-02
 0.6006865906196E-02 -0.2592901858193E-02
 0.7272615005601E-02 -0.2925714964619E-02
 0.8637777116335E-02 -0.3257822337890E-02
 0.1009862843071E-01 -0.3588337175401E-02
 0.1165180884980E-01 -0.3916392104038E-02
 0.1329427922945E-01 -0.4241146594528E-02
 0.1502327564898E-01 -0.4561793216740E-02
 0.1683628575157E-01 -0.4877566611325E-02
 0.1873096445445E-01 -0.5187742387777E-02
 0.2070511378850E-01 -0.5491717021104E-02
 0.2275658007470E-01 -0.5789023155440E-02
 0.2488316512421E-01 -0.6079200212953E-02
 0.2708264861119E-01 -0.6361806892780E-02
 0.2935279993086E-01 -0.6636467508348E-02
 0.3169143037277E-01 -0.6902920173592E-02
 0.3409625993134E-01 -0.7161039383351E-02
 0.3656492279618E-01 -0.7410877694519E-02
 0.3909493227293E-01 -0.7652706382527E-02
 0.4168355342729E-01 -0.7887053089422E-02
 0.4432770955703E-01 -0.8114747577597E-02
 0.4702401881255E-01 -0.8336939895814E-02
 0.4976873210909E-01 -0.8555130728964E-02
 0.5255741419068E-01 -0.8771212859442E-02
 0.5538473071823E-01 -0.8987473487399E-02
 0.5824414423107E-01 -0.9206562633339E-02
 0.6112770201104E-01 -0.9431432591156E-02
 0.6402573465149E-01 -0.9665221514427E-02
 0.6692682144510E-01 -0.9911086317668E-02
 0.6981879530426E-01 -0.1017199743034E-01
 0.7269191123929E-01 -0.1045058760524E-01
 0.7553509287379E-01 -0.1074908326077E-01
 0.7833233863740E-01 -0.1106905996856E-01
 0.8106579505103E-01 -0.1141121799233E-01
 0.3094105404759E-03 -0.3431737237318E-03
 0.7544479754883E-03 -0.6909348681839E-03
 0.1331253537518E-02 -0.1043165996798E-02
 0.2035317346917E-02 -0.1399519180951E-02
 0.2861736798779E-02 -0.1759432287266E-02
 0.3805464267837E-02 -0.2122164759780E-02
 0.4861513625151E-02 -0.2486841280506E-02
 0.6025114210402E-02 -0.2852497731715E-02
 0.7291812285608E-02 -0.3218124188183E-02
 0.8657525343822E-02 -0.3582700717146E-02
 0.1011854299151E-01 -0.3945220446496E-02
 0.1167152876383E-01 -0.4304711659498E-02
 0.1331347509462E-01 -0.4660245080356E-02
 0.1504165603852E-01 -0.5010938803304E-02
 0.1685360275018E-01 -0.5355965527879E-02
 0.1874701903244E-01 -0.5694549826146E-02
 0.2071976384334E-01 -0.6026117656052E-02
 0.2276974806569E-01 -0.6350325736639E-02
 0.2489484172526E-01 -0.6666792342818E-02
 0.2709289908458E-01 -0.6975098010601E-02
 0.2936177420928E-01 -0.7274854777714E-02
 0.3169937629536E-01 -0.7565772301589E-02
 0.3410353932218E-01 -0.7847688140601E-02
 0.3657203000854E-01 -0.8120615014686E-02
 0.3910251484158E-01 -0.8384786237802E-02
 0.4169243413142E-01 -0.8640699244684E-02
 0.4433890873599E-01 -0.8889169670671E-02
 0.4703877476590E-01 -0.9131322144298E-02
 0.4978851727701E-01 -0.9368621899195E-02
 0.5258394418842E-01 -0.9602959142001E-02
 0.5541996200938E-01 -0.9836663982517E-02
 0.5829025603755E-01 -0.1007248682742E-01
 0.6118705883747E-01 -0.1031354968537E-01
 0.6410082601170E-01 -0.1056323418026E-01
 0.6702017682017E-01 -0.1082499250338E-01
 0.6993287040580E-01 -0.1110202641837E-01
 0.7282893095489E-01 -0.1139684434959E-01
 0.7569688013747E-01 -0.1171153751026E-01
 0.7852016491505E-01 -0.1204782300648E-01
 0.8128023245050E-01 -0.1240649353515E-01
 0.3123240488330E-03 -0.3745364071692E-03
 0.7604109822884E-03 -0.7540757962255E-03
 0.1340271791281E-02 -0.1138516319062E-02
 0.2047269984810E-02 -0.1527477194995E-02
 0.2876389809310E-02 -0.1920318913488E-02
 0.3822491664139E-02 -0.2316188743181E-02
 0.4880522795278E-02 -0.2714076919993E-02
 0.6045671806533E-02 -0.3112875391939E-02
 0.7313467826704E-02 -0.3511431826155E-02
 0.8679830914635E-02 -0.3908593474663E-02
 0.1014106857925E-01 -0.4303234759469E-02
 0.1169387363595E-01 -0.4694281740076E-02
 0.1333527605591E-01 -0.5080718945617E-02
 0.1506259357112E-01 -0.5461592690721E-02
 0.1687340594179E-01 -0.5836016349758E-02
 0.1876547016303E-01 -0.6203165834944E-02
 0.2073670616451E-01 -0.6562499208468E-02
 0.2278509298647E-01 -0.6913800277277E-02
 0.2490857076434E-01 -0.7256768415520E-02
 0.2710506881925E-01 -0.7591007251407E-02
 0.2937252549028E-01 -0.7916116841790E-02
 0.3170894710818E-01 -0.8231777707887E-02
 0.3411228098257E-01 -0.8537788712752E-02
 0.3658042636765E-01 -0.8834119789264E-02
 0.3911120423857E-01 -0.9120962058693E-02
 0.4170223349851E-01 -0.9398777211437E-02
 0.4435083876909E-01 -0.9668360011219E-02
 0.4705408396057E-01 -0.9930801455894E-02
 0.4980870263944E-01 -0.1018752187395E-01
 0.5261076557960E-01 -0.1044039927690E-01
 0.5545544545464E-01 -0.1069179791339E-01
 0.5833668105129E-01 -0.1094456194569E-01
 0.6124692538768E-01 -0.1120198008773E-01
 0.6417679682653E-01 -0.1146767940091E-01
 0.6711499217010E-01 -0.1174541490857E-01
 0.7004923056965E-01 -0.1203863123642E-01
 0.7296933028354E-01 -0.1234972249500E-01
 0.7586342162921E-01 -0.1268065723721E-01
 0.7871439383286E-01 -0.1303331106342E-01
 0.8150297020487E-01 -0.1340858122997E-01
 0.3154948796611E-03 -0.4059763232196E-03
 0.7669460964357E-03 -0.8173898730627E-03
 0.1350208836408E-02 -0.1234152979615E-02
 0.2060494054564E-02 -0.1655848735263E-02
 0.2892649783467E-02 -0.2081755665419E-02
 0.3841426562460E-02 -0.2510903910253E-02
 0.4901693305094E-02 -0.2942144924123E-02
 0.6068592143102E-02 -0.3374223732037E-02
 0.7337634282721E-02 -0.3805844288894E-02
 0.8704745117109E-02 -0.4235721374687E-02
 0.1016625500018E-01 -0.4662612398572E-02
 0.1171889199082E-01 -0.5085343822895E-02
 0.1335972973682E-01 -0.5502817117350E-02
 0.1508613541350E-01 -0.5914010103174E-02
 0.1689574245583E-01 -0.6317980001372E-02
 0.1878636526821E-01 -0.6713856951091E-02
 0.2075598867607E-01 -0.7101134311806E-02
 0.2280266332747E-01 -0.7479726646781E-02
 0.2492440115241E-01 -0.7849417224879E-02
 0.2711920671987E-01 -0.8209834476657E-02
 0.2938510189565E-01 -0.8560567179871E-02
 0.3172018895968E-01 -0.8901266421638E-02
 0.3412252742803E-01 -0.9231690965897E-02
 0.3659014858987E-01 -0.9551765320747E-02
 0.3912102869958E-01 -0.9861634426797E-02
 0.4171296812315E-01 -0.1016171883276E-01
 0.4436350107169E-01 -0.1045278568366E-01
 0.4706992890695E-01 -0.1073588388413E-01
 0.4982924820715E-01 -0.1101237883695E-01
 0.5263781288243E-01 -0.1128412589672E-01
 0.5549108830868E-01 -0.1155351360224E-01
 0.5838329945323E-01 -0.1182347204110E-01
 0.6130715769163E-01 -0.1209745250483E-01
 0.6425348529410E-01 -0.1237932869351E-01
 0.6721109794643E-01 -0.1267316584950E-01
 0.7016771227020E-01 -0.1298266336243E-01
 0.7311296855522E-01 -0.1331011121492E-01
 0.7603461765914E-01 -0.1365736862819E-01
 0.7891498324889E-01 -0.1402648863018E-01
 0.8173403563562E-01 -0.1441848688609E-01
 0.3189355107081E-03 -0.4375130927898E-03
 0.7740787125491E-03 -0.8809192722283E-03
 0.1361102174188E-02 -0.1330143248739E-02
 0.2075037181088E-02 -0.1784727738277E-02
 0.2910571714982E-02 -0.2243863367857E-02
 0.3862328346122E-02 -0.2706456789449E-02
 0.4925086227481E-02 -0.3171215165199E-02
 0.6093935897483E-02 -0.3636732846832E-02
 0.7364370598204E-02 -0.4101568474211E-02
 0.8732324536587E-02 -0.4564304807007E-02
 0.1019415642359E-01 -0.5023584335481E-02
 0.1174663591307E-01 -0.5478137119461E-02
 0.1338688668334E-01 -0.5926785334252E-02
 0.1511233119276E-01 -0.6368442213103E-02
 0.1692066159213E-01 -0.6802112567576E-02
 0.1880975381418E-01 -0.7226884168128E-02
 0.2077766137590E-01 -0.7642289438645E-02
 0.2282250983196E-01 -0.8048378021611E-02
 0.2494238437384E-01 -0.8445020430787E-02
 0.2713536471463E-01 -0.8831872079822E-02
 0.2939955513169E-01 -0.9208511602252E-02
 0.3173315222614E-01 -0.9574560771227E-02
 0.3413432608741E-01 -0.9929737248851E-02
 0.3660123897784E-01 -0.1027391784813E-01
 0.3913202263542E-01 -0.1060719764634E-01
 0.4172466118906E-01 -0.1092995085760E-01
 0.4437690377744E-01 -0.1124291031881E-01
 0.4708629855136E-01 -0.1154707417201E-01
 0.4985011960007E-01 -0.1184374232178E-01
 0.5266502473624E-01 -0.1213473612736E-01
 0.5552679973003E-01 -0.1242245739449E-01
 0.5842999040387E-01 -0.1270991294166E-01
 0.6136760728303E-01 -0.1300071117271E-01
 0.6433072140863E-01 -0.1329897262165E-01
 0.6730831294107E-01 -0.1360907976470E-01
 0.7028813772185E-01 -0.1393499891975E-01
 0.7325968973226E-01 -0.1427892629933E-01
 0.7621035404346E-01 -0.1464262606762E-01
 0.7912187950210E-01 -0.1502834990951E-01
 0.8197344927209E-01 -0.1543724781346E-01
 0.3226603351141E-03 -0.4691667889138E-03
 0.7818382634026E-03 -0.9447071942882E-03
 0.1372995304878E-02 -0.1426556065362E-02
 0.2090954466384E-02 -0.1914210399209E-02
 0.2930218887099E-02 -0.2406765504312E-02
 0.3885264815671E-02 -0.2902996668930E-02
 0.4950770608743E-02 -0.3401460029322E-02
 0.6121770889400E-02 -0.3900594770400E-02
 0.7393741836680E-02 -0.4398812383508E-02
 0.8762630826079E-02 -0.4894564259059E-02
 0.1022483112259E-01 -0.5386380553775E-02
 0.1177716078132E-01 -0.5872898762235E-02
 0.1341680010768E-01 -0.6352866212247E-02
 0.1514123276036E-01 -0.6825136104630E-02
 0.1694821461085E-01 -0.7288665171884E-02
 0.1883568713077E-01 -0.7742502742147E-02
 0.2080177618775E-01 -0.8186224642232E-02
 0.2284468538477E-01 -0.8620020565094E-02
 0.2496257441794E-01 -0.9043852175498E-02
 0.2715359773819E-01 -0.9457404533930E-02
 0.2941594053422E-01 -0.9860247721679E-02
 0.3174789163169E-01 -0.1025197477170E-01
 0.3414772951211E-01 -0.1063226168999E-01
 0.3661374573368E-01 -0.1100093575060E-01
 0.3914422706268E-01 -0.1135803885952E-01
 0.4173734302669E-01 -0.1170389398377E-01
 0.4439106242424E-01 -0.1203919309538E-01
 0.4710318907763E-01 -0.1236487476096E-01
 0.4987128893078E-01 -0.1268216229598E-01
 0.5269234480666E-01 -0.1299283083113E-01
 0.5556249161834E-01 -0.1329928315178E-01
 0.5847663269840E-01 -0.1360459207816E-01
 0.6142812154921E-01 -0.1391251607989E-01
 0.6440832690137E-01 -0.1422742143365E-01
 0.6740644377338E-01 -0.1455401423829E-01
 0.7041031396713E-01 -0.1489654001143E-01
 0.7340932128137E-01 -0.1525711170446E-01
 0.7639050106225E-01 -0.1563741382203E-01
 0.7933501681367E-01 -0.1603992060356E-01
 0.8222122501558E-01 -0.1646593473809E-01
 0.3266857637417E-03 -0.5009580820475E-03
 0.7902584410803E-03 -0.1008798193471E-02
 0.1385938035167E-02 -0.1523462562878E-02
 0.2108308816034E-02 -0.2044395880363E-02
 0.2951663143850E-02 -0.2570589055285E-02
 0.3910312349339E-02 -0.3100676488136E-02
 0.4978823494182E-02 -0.3633055280617E-02
 0.6152171977964E-02 -0.4166004245604E-02
 0.7425818976100E-02 -0.4697785752388E-02
 0.8795730435626E-02 -0.5226720787978E-02
 0.1025834117179E-01 -0.5751230363050E-02
 0.1181052496156E-01 -0.6269863974827E-02
 0.1344952559611E-01 -0.6781299291189E-02
 0.1517289392501E-01 -0.7284334717962E-02
 0.1697845449568E-01 -0.7777883836835E-02
 0.1886421820704E-01 -0.8260961981343E-02
 0.2082838679096E-01 -0.8733193282642E-02
 0.2286924487925E-01 -0.9194913091803E-02
 0.2498502768866E-01 -0.9646178682870E-02
 0.2717396369251E-01 -0.1008670791851E-01
 0.2943431709173E-01 -0.1051606439834E-01
 0.3176446634734E-01 -0.1093381347711E-01
 0.3416279556671E-01 -0.1133958944728E-01
 0.3662772325833E-01 -0.1173316868947E-01
 0.3915769002886E-01 -0.1211453708221E-01
 0.4175105167848E-01 -0.1248396180145E-01
 0.4440600066621E-01 -0.1284208762225E-01
 0.4712060475819E-01 -0.1318978466394E-01
 0.4989273576487E-01 -0.1352818810028E-01
 0.5271972279474E-01 -0.1385901370801E-01
 0.5559807957647E-01 -0.1418465162402E-01
 0.5852310555335E-01 -0.1450822823277E-01
 0.6148854419635E-01 -0.1483364317414E-01
 0.6448611525320E-01 -0.1516550576296E-01
 0.6750528438028E-01 -0.1550885116912E-01
 0.7053403188866E-01 -0.1586821627669E-01
 0.7356167290558E-01 -0.1624564138315E-01
 0.7657491225751E-01 -0.1664274804511E-01
 0.7955431656851E-01 -0.1706226005462E-01
 0.8247737027488E-01 -0.1750565410693E-01
 0.3310303558408E-03 -0.5329084032641E-03
 0.7993774773810E-03 -0.1073238544525E-02
 0.1399986864803E-02 -0.1620936657899E-02
 0.2127171345537E-02 -0.2175387098967E-02
 0.2974985223311E-02 -0.2735465420598E-02
 0.3937556096560E-02 -0.3299653805241E-02
 0.5009329956072E-02 -0.3866180983387E-02
 0.6185220935936E-02 -0.4433159529197E-02
 0.7460678665263E-02 -0.4998700695215E-02
 0.8831694295351E-02 -0.5560996489216E-02
 0.1029475209825E-01 -0.6118362697869E-02
 0.1184678945790E-01 -0.6669266220684E-02
 0.1348512077995E-01 -0.7212321057962E-02
 0.1520737015463E-01 -0.7746276771003E-02
 0.1701143569052E-01 -0.8270009323846E-02
 0.1889540146332E-01 -0.8782505017726E-02
 0.2085754842803E-01 -0.9283441737271E-02
 0.2289624506222E-01 -0.9773306717275E-02
 0.2500980289171E-01 -0.1025225784229E-01
 0.2719652338420E-01 -0.1072004942846E-01
 0.2945474744437E-01 -0.1117624116135E-01
 0.3178294006587E-01 -0.1162037230075E-01
 0.3417958759704E-01 -0.1205203591386E-01
 0.3664323243256E-01 -0.1247095668934E-01
 0.3917246702739E-01 -0.1287706215874E-01
 0.4176583346718E-01 -0.1327055963267E-01
 0.4442175100847E-01 -0.1365204069252E-01
 0.4713855885454E-01 -0.1402229818824E-01
 0.4991444816228E-01 -0.1438236722254E-01
 0.5274711556020E-01 -0.1473389023020E-01
 0.5563348401444E-01 -0.1507922967293E-01
 0.5856928954771E-01 -0.1542155118203E-01
 0.6154871585662E-01 -0.1576488453287E-01
 0.6456389180294E-01 -0.1611407738253E-01
 0.6760461552356E-01 -0.1647449809339E-01
 0.7065906514304E-01 -0.1685098669241E-01
 0.7371653511789E-01 -0.1724552142999E-01
 0.7676342304597E-01 -0.1765967914410E-01
 0.7977968645765E-01 -0.1809646378457E-01
 0.8274188606913E-01 -0.1855755083585E-01
 0.3357149823095E-03 -0.5650401298177E-03
 0.8092384921418E-03 -0.1138076659848E-02
 0.1415205462634E-02 -0.1719055717245E-02
 0.2147621874434E-02 -0.2307291612652E-02
 0.3000275155781E-02 -0.2901531443651E-02
 0.3967090202039E-02 -0.3500091854638E-02
 0.5042383117636E-02 -0.4101022490777E-02
 0.6221006293263E-02 -0.4702263235360E-02
 0.7498402933676E-02 -0.5301772361991E-02
 0.8870597446304E-02 -0.5897614957258E-02
 0.1033413248206E-01 -0.6488006395802E-02
 0.1188601751874E-01 -0.7071337324446E-02
 0.1352364496929E-01 -0.7646164940900E-02
 0.1524471824768E-01 -0.8211196654168E-02
 0.1704721381058E-01 -0.8765276949862E-02
 0.1892929250059E-01 -0.9307368559623E-02
 0.2088931769057E-01 -0.9837209095558E-02
 0.2292574435681E-01 -0.1035544449414E-01
 0.2503696089833E-01 -0.1086233877941E-01
 0.2722134043707E-01 -0.1135768686777E-01
 0.2947729785654E-01 -0.1184104761033E-01
 0.3180338104966E-01 -0.1231193630704E-01
 0.3419817457180E-01 -0.1276990588259E-01
 0.3666034087473E-01 -0.1321462916055E-01
 0.3918862139664E-01 -0.1364597363524E-01
 0.4178174356165E-01 -0.1406408326230E-01
 0.4443835556026E-01 -0.1446949089966E-01
 0.4715707456501E-01 -0.1486290349222E-01
 0.4993642380246E-01 -0.1524524388397E-01
 0.5277448836848E-01 -0.1561806638094E-01
 0.5566863141344E-01 -0.1598368931383E-01
 0.5861506774530E-01 -0.1634530120170E-01
 0.6160847486869E-01 -0.1670704847106E-01
 0.6464145398157E-01 -0.1707401000076E-01
 0.6770420433400E-01 -0.1745188966731E-01
 0.7078516901704E-01 -0.1784584164657E-01
 0.7387367763613E-01 -0.1825779258296E-01
 0.7695584911572E-01 -0.1868929455560E-01
 0.8001101945933E-01 -0.1914366648618E-01
 0.8301476709476E-01 -0.1962281156374E-01
 0.3407630269725E-03 -0.5973767984943E-03
 0.8198899204389E-03 -0.1203363569021E-02
 0.1431665244834E-02 -0.1817901321565E-02
 0.2169749517683E-02 -0.2440222624178E-02
 0.3027632729722E-02 -0.3068930557948E-02
 0.3999018056488E-02 -0.3702160709717E-02
 0.5078084164660E-02 -0.4337771508272E-02
 0.6259623139973E-02 -0.4973523219420E-02
 0.7539078845897E-02 -0.5607219604381E-02
 0.8912518612405E-02 -0.6236801732511E-02
 0.1037655350234E-01 -0.6860390447690E-02
 0.1192827419657E-01 -0.7476307559455E-02
 0.1356515874922E-01 -0.8083061270003E-02
 0.1528499597464E-01 -0.8679324294250E-02
 0.1708584532907E-01 -0.9263916378082E-02
 0.1896594782826E-01 -0.9835782623686E-02
 0.2092375228420E-01 -0.1039472683802E-01
 0.2295780266350E-01 -0.1094156103604E-01
 0.2506656458535E-01 -0.1147666141617E-01
 0.2724848117849E-01 -0.1199986813172E-01
 0.2950203816109E-01 -0.1251074280128E-01
 0.3182586214795E-01 -0.1300877947962E-01
 0.3421863119303E-01 -0.1349349267357E-01
 0.3667912316934E-01 -0.1396450386561E-01
 0.3920622469614E-01 -0.1442161955175E-01
 0.4179884653281E-01 -0.1486491755688E-01
 0.4445586679992E-01 -0.1529486710635E-01
 0.4717618601630E-01 -0.1571208095920E-01
 0.4995867119469E-01 -0.1611735741229E-01
 0.5280181627091E-01 -0.1651214716430E-01
 0.5570345576893E-01 -0.1689870653674E-01
 0.5866032702761E-01 -0.1728022839292E-01
 0.6166765826902E-01 -0.1766095955293E-01
 0.6471859171012E-01 -0.1804620008085E-01
 0.6780380391861E-01 -0.1844198931522E-01
 0.7091207920896E-01 -0.1885380531460E-01
 0.7403284757433E-01 -0.1928353313164E-01
 0.7715198456845E-01 -0.1973272198853E-01
 0.8024819263311E-01 -0.2020504552700E-01
 0.8329600175524E-01 -0.2070266848557E-01
 0.3462006327436E-03 -0.6299433534102E-03
 0.8313860324367E-03 -0.1269153475646E-02
 0.1449446070935E-02 -0.1917560147842E-02
 0.2193653385283E-02 -0.2574300131008E-02
 0.3057168027976E-02 -0.3237814079173E-02
 0.4033452568296E-02 -0.3906038567389E-02
 0.5116542333899E-02 -0.4576627239913E-02
 0.6301172876365E-02 -0.5247153501954E-02
 0.7582798089864E-02 -0.5915265645874E-02
 0.8957539705977E-02 -0.6578784726740E-02
 0.1042208842425E-01 -0.7235744212031E-02
 0.1197362585966E-01 -0.7884405694057E-02
 0.1360972353877E-01 -0.8523237196996E-02
 0.1532826169101E-01 -0.9150884982985E-02
 0.1712738724111E-01 -0.9766151380029E-02
 0.1900542457200E-01 -0.1036797024521E-01
 0.2096091077390E-01 -0.1095621849988E-01
 0.2299248113988E-01 -0.1153188213093E-01
 0.2509867865139E-01 -0.1209545602321E-01
 0.2727801449877E-01 -0.1264683068165E-01
 0.2952904167296E-01 -0.1318557462199E-01
 0.3185046078048E-01 -0.1371116397129E-01
 0.3424103797061E-01 -0.1422307723008E-01
 0.3669966105994E-01 -0.1472088583374E-01
 0.3922535705215E-01 -0.1520433515458E-01
 0.4181721689096E-01 -0.1567343496816E-01
 0.4447434834326E-01 -0.1612858675669E-01
 0.4719593929254E-01 -0.1657030137057E-01
 0.4998121097285E-01 -0.1699924037442E-01
 0.5282908562550E-01 -0.1741673484801E-01
 0.5573790023259E-01 -0.1782495986015E-01
 0.5870495967042E-01 -0.1822709178045E-01
 0.6172610303787E-01 -0.1862745846370E-01
 0.6479508800794E-01 -0.1903156765730E-01
 0.6790315306692E-01 -0.1944579104564E-01
 0.7103951054317E-01 -0.1987593837545E-01
 0.7419376740208E-01 -0.2032386229523E-01
 0.7735159975787E-01 -0.2079113320443E-01
 0.8049106569621E-01 -0.2128182503435E-01
 0.8358557215807E-01 -0.2179840384641E-01
 0.3520570013583E-03 -0.6627664365593E-03
 0.8437875631612E-03 -0.1335504409926E-02
 0.1468637076798E-02 -0.2018124998035E-02
 0.2219443402777E-02 -0.2709652250262E-02
 0.3089002035935E-02 -0.3408342669531E-02
 0.4070516447838E-02 -0.4111913171930E-02
 0.5157874864426E-02 -0.4817797624124E-02
 0.6345762895861E-02 -0.5523375231300E-02
 0.7629656487155E-02 -0.6226138748582E-02
 0.9005745258722E-02 -0.6923794617397E-02
 0.1047081202287E-01 -0.7614297583909E-02
 0.1202213965425E-01 -0.8295858988508E-02
 0.1365740111321E-01 -0.8966916568861E-02
 0.1537457392361E-01 -0.9626099165788E-02
 0.1717189670727E-01 -0.1027219956620E-01
 0.1904778016382E-01 -0.1090414716569E-01
 0.2100085231121E-01 -0.1152189931972E-01
 0.2302984196019E-01 -0.1212662434585E-01
 0.2513336940944E-01 -0.1271894276794E-01
 0.2731001168277E-01 -0.1329880101706E-01
 0.2955838507045E-01 -0.1386577916275E-01
 0.3187725888397E-01 -0.1441933934225E-01
 0.3426548125568E-01 -0.1495892718949E-01
 0.3672204359917E-01 -0.1548406622900E-01
 0.3924610746313E-01 -0.1599444153154E-01
 0.4183693959383E-01 -0.1648999391956E-01
 0.4449387570458E-01 -0.1697105402280E-01
 0.4721639349320E-01 -0.1743802386012E-01
 0.5000407727096E-01 -0.1789141643831E-01
 0.5285629576464E-01 -0.1833242689633E-01
 0.5577191897277E-01 -0.1876312856332E-01
 0.5874886520016E-01 -0.1918665812241E-01
 0.6178364765143E-01 -0.1960740168544E-01
 0.6487071986993E-01 -0.2003105711240E-01
 0.6800197610437E-01 -0.2046432143244E-01
 0.7116715563336E-01 -0.2091334110912E-01
 0.7435613263882E-01 -0.2137994415024E-01
 0.7755443875842E-01 -0.2186574842418E-01
 0.8073947934242E-01 -0.2237528063786E-01
 0.8388345409519E-01 -0.2291135518343E-01
 0.3583647576927E-03 -0.6958747315621E-03
 0.8571624738929E-03 -0.1402479000173E-02
 0.1489337667811E-02 -0.2119696007581E-02
 0.2247241266889E-02 -0.2846416755891E-02
 0.3123267321841E-02 -0.3580688005072E-02
 0.4110342492689E-02 -0.4319983396674E-02
 0.5202206894328E-02 -0.5061500664485E-02
 0.6393506183059E-02 -0.5802417679635E-02
 0.7679753411524E-02 -0.6540072866250E-02
 0.9057221769486E-02 -0.7272065198764E-02
 0.1052279993956E-01 -0.7996281107379E-02
 0.1207388291660E-01 -0.8710893133432E-02
 0.1370825309113E-01 -0.9414319748070E-02
 0.1542399093263E-01 -0.1010518218603E-01
 0.1721943067945E-01 -0.1078227208254E-01
 0.1909307201694E-01 -0.1144452149651E-01
 0.2104363634559E-01 -0.1209197587386E-01
 0.2306994805603E-01 -0.1272599462535E-01
 0.2517070455628E-01 -0.1334733126229E-01
 0.2734454621326E-01 -0.1395599415074E-01
 0.2959014824242E-01 -0.1455158008948E-01
 0.3190634281811E-01 -0.1513354179490E-01
 0.3429205322739E-01 -0.1570129593739E-01
 0.3674636724785E-01 -0.1625432117905E-01
 0.3926857405471E-01 -0.1679224417477E-01
 0.4185811051261E-01 -0.1731493707527E-01
 0.4451453703667E-01 -0.1782265777814E-01
 0.4723762180756E-01 -0.1831569363078E-01
 0.5002731917239E-01 -0.1879439793176E-01
 0.5288346081240E-01 -0.1925981354477E-01
 0.5580547927221E-01 -0.1971389053346E-01
 0.5879195256958E-01 -0.2015970035831E-01
 0.6184013400000E-01 -0.2060166090530E-01
 0.6494525948439E-01 -0.2104563786061E-01
 0.6809998295788E-01 -0.2149864174969E-01
 0.7129468352303E-01 -0.2196715692275E-01
 0.7451960924637E-01 -0.2245299221191E-01
 0.7776021637420E-01 -0.2295784148001E-01
 0.8099325324706E-01 -0.2348674495458E-01
 0.8418961704654E-01 -0.2404292139802E-01
 0.3651603926968E-03 -0.7292993739390E-03
 0.8715868724931E-03 -0.1470145392587E-02
 0.1511658700617E-02 -0.2222382075809E-02
 0.2277181552008E-02 -0.2984742872563E-02
 0.3160108786997E-02 -0.3755034681298E-02
 0.4153073857425E-02 -0.4530461002611E-02
 0.5249671280586E-02 -0.5307965858203E-02
 0.6444520806338E-02 -0.6084519263870E-02
 0.7733191100542E-02 -0.6857308269300E-02
 0.9112056959890E-02 -0.7623833675167E-02
 0.1057812796738E-01 -0.8381926018560E-02
 0.1212892253473E-01 -0.9129732120021E-02
 0.1376234038837E-01 -0.9865663372488E-02
 0.1547657025279E-01 -0.1058834398015E-01
 0.1727004551267E-01 -0.1129657327002E-01
 0.1914135718884E-01 -0.1198929335789E-01
 0.2108932232244E-01 -0.1266664569707E-01
 0.2311286283997E-01 -0.1333018988603E-01
 0.2521075291993E-01 -0.1398082011455E-01
 0.2738169354616E-01 -0.1461861309303E-01
 0.2962441410016E-01 -0.1524318802722E-01
 0.3193780322794E-01 -0.1585399341422E-01
 0.3432085182729E-01 -0.1645042165454E-01
 0.3677273591453E-01 -0.1703191057377E-01
 0.3929286427220E-01 -0.1759803147752E-01
 0.4188083684107E-01 -0.1814858949373E-01
 0.4453643383302E-01 -0.1868376939126E-01
 0.4725971258963E-01 -0.1920373941587E-01
 0.5005100222135E-01 -0.1970868306421E-01
 0.5291061165053E-01 -0.2019947496324E-01
 0.5583856388012E-01 -0.2067791965434E-01
 0.5883414269421E-01 -0.2114699560634E-01
 0.6189540974086E-01 -0.2161112206513E-01
 0.6501847587980E-01 -0.2207630486916E-01
 0.6819686951943E-01 -0.2254985023447E-01
 0.7142173835109E-01 -0.2303857635337E-01
 0.7468383068515E-01 -0.2354427480525E-01
 0.7796861456113E-01 -0.2406874588447E-01
 0.8125218366395E-01 -0.2461761391730E-01
 0.8450402428913E-01 -0.2519456971495E-01
 0.3724848029107E-03 -0.7630744450559E-03
 0.8871461271805E-03 -0.1538578356861E-02
 0.1535723887702E-02 -0.2326302571116E-02
 0.2309412984423E-02 -0.3124793380399E-02
 0.3199684479847E-02 -0.3931582397397E-02
 0.4198864285603E-02 -0.4743572592755E-02
 0.5300408314468E-02 -0.5557435721207E-02
 0.6498929280920E-02 -0.6369928577547E-02
 0.7790073843876E-02 -0.7178092123291E-02
 0.9170338929104E-02 -0.7979340878423E-02
 0.1063687126243E-01 -0.8771464205084E-02
 0.1218732426073E-01 -0.9552598031491E-02
 0.1381972264189E-01 -0.1032116004774E-01
 0.1553236821739E-01 -0.1107578871890E-01
 0.1732379656700E-01 -0.1181530028461E-01
 0.1919269203616E-01 -0.1253865449204E-01
 0.2113796937093E-01 -0.1324609689059E-01
 0.2315864991464E-01 -0.1393939661013E-01
 0.2525358418647E-01 -0.1461959649001E-01
 0.2742153085813E-01 -0.1528684835243E-01
 0.2966126835292E-01 -0.1594079996327E-01
 0.3197173485943E-01 -0.1658090142491E-01
 0.3435198063553E-01 -0.1720652636874E-01
 0.3680126092590E-01 -0.1781707684499E-01
 0.3931909499712E-01 -0.1841207317419E-01
 0.4190523743069E-01 -0.1899125666959E-01
 0.4455968157247E-01 -0.1955474033577E-01
 0.4728277041297E-01 -0.2010257066776E-01
 0.5007520997941E-01 -0.2063475277613E-01
 0.5293779802685E-01 -0.2115197794907E-01
 0.5587117363185E-01 -0.2165588265193E-01
 0.5887537139257E-01 -0.2214932260344E-01
 0.6194933116384E-01 -0.2263668393712E-01
 0.6509013710747E-01 -0.2312407891722E-01
 0.6829231841987E-01 -0.2361908443121E-01
 0.7154793812019E-01 -0.2412884158794E-01
 0.7484839461371E-01 -0.2465512139709E-01
 0.7817927808972E-01 -0.2519986208227E-01
 0.8151604043674E-01 -0.2576935409280E-01
 0.8482663326791E-01 -0.2636784351152E-01
 0.3803839497415E-03 -0.7972375720648E-03
 0.9039362175957E-03 -0.1607860626166E-02
 0.1561671466444E-02 -0.2431589377835E-02
 0.2344099901677E-02 -0.3266747096467E-02
 0.3242166462219E-02 -0.4110548464869E-02
 0.4247878273558E-02 -0.4959561779737E-02
 0.5354565298173E-02 -0.5810167403155E-02
 0.6556857774654E-02 -0.6658905413315E-02
 0.7850507030762E-02 -0.7502678996851E-02
 0.9232155199634E-02 -0.8338831388457E-02
 0.1069910347978E-01 -0.9165128066024E-02
 0.1224915197602E-01 -0.9979710744908E-02
 0.1388045760756E-01 -0.1078101796495E-01
 0.1559143947036E-01 -0.1156771439024E-01
 0.1738073780443E-01 -0.1233864267493E-01
 0.1924713186602E-01 -0.1309278784969E-01
 0.2118963598551E-01 -0.1383050771816E-01
 0.2320737277002E-01 -0.1455379044082E-01
 0.2529926860854E-01 -0.1526383568599E-01
 0.2746413676764E-01 -0.1596087746049E-01
 0.2970079924670E-01 -0.1664459868049E-01
 0.3200823632569E-01 -0.1731445747780E-01
 0.3438554868276E-01 -0.1796981502526E-01
 0.3683206091820E-01 -0.1861004374125E-01
 0.3934739257321E-01 -0.1923461873545E-01
 0.4193144303207E-01 -0.1984322247169E-01
 0.4458441028208E-01 -0.2043589961544E-01
 0.4730691707932E-01 -0.2101257445904E-01
 0.5010004560393E-01 -0.2157306718068E-01
 0.5296509079229E-01 -0.2211787208684E-01
 0.5590333034388E-01 -0.2264843530122E-01
 0.5891559277247E-01 -0.2316745846098E-01
 0.6200176665680E-01 -0.2367925608061E-01
 0.6516001308960E-01 -0.2419000646150E-01
 0.6838600035680E-01 -0.2470752354398E-01
 0.7167287368170E-01 -0.2523925152147E-01
 0.7501285925437E-01 -0.2578693007813E-01
 0.7839180923365E-01 -0.2635266631819E-01
 0.8178456306894E-01 -0.2694351127796E-01
 0.8515739646800E-01 -0.2756437085621E-01
 0.3889096686507E-03 -0.8318306632034E-03
 0.9220653791373E-03 -0.1678084534825E-02
 0.1589656182793E-02 -0.2538389370151E-02
 0.2381423913711E-02 -0.3410801813559E-02
 0.3287741707648E-02 -0.4292170691850E-02
 0.4300291125290E-02 -0.5178691580774E-02
 0.5412295940745E-02 -0.6066434377521E-02
 0.6618435125215E-02 -0.6951721747102E-02
 0.7914596038968E-02 -0.7831331268891E-02
 0.9297591647427E-02 -0.8702553532542E-02
 0.1076489583398E-01 -0.9563150255181E-02
 0.1231446691301E-01 -0.1041128753249E-01
 0.1394460053720E-01 -0.1124544043703E-01
 0.1565383647166E-01 -0.1206431231952E-01
 0.1744092138623E-01 -0.1286678191504E-01
 0.1930473058867E-01 -0.1365186714865E-01
 0.2124437970514E-01 -0.1442004619079E-01
 0.2325909447261E-01 -0.1517353578247E-01
 0.2534787669814E-01 -0.1591370072673E-01
 0.2750959103131E-01 -0.1664086452992E-01
 0.2974309726669E-01 -0.1735475223283E-01
 0.3204740982150E-01 -0.1805483698023E-01
 0.3442167019205E-01 -0.1874047459245E-01
 0.3686526163883E-01 -0.1941101511438E-01
 0.3937789272556E-01 -0.2006589573365E-01
 0.4195959642040E-01 -0.2070474698787E-01
 0.4461076499077E-01 -0.2132755100716E-01
 0.4733229254956E-01 -0.2193411208456E-01
 0.5012563341656E-01 -0.2252406156347E-01
 0.5299258424407E-01 -0.2309768530861E-01
 0.5593507998361E-01 -0.2365621788696E-01
 0.5895478310268E-01 -0.2420217458523E-01
 0.6205260086509E-01 -0.2473975600094E-01
 0.6522787928740E-01 -0.2527515892834E-01
 0.6847757616187E-01 -0.2581639068636E-01
 0.7179610808657E-01 -0.2637116735308E-01
 0.7517673952336E-01 -0.2694117633002E-01
 0.7860576131991E-01 -0.2752872176730E-01
 0.8205745510563E-01 -0.2814172117950E-01
 0.8549626309166E-01 -0.2878587323295E-01
 0.3981206678349E-03 -0.8669008175323E-03
 0.9416561125034E-03 -0.1749354037140E-02
 0.1619851649986E-02 -0.2646867422613E-02
 0.2421585779738E-02 -0.3557177794524E-02
 0.3336612999571E-02 -0.4476710699396E-02
 0.4356288844408E-02 -0.5401247047912E-02
 0.5473759522435E-02 -0.6326528180630E-02
 0.6683791634152E-02 -0.7248662644459E-02
 0.7982444948147E-02 -0.8164319397855E-02
 0.9366731311869E-02 -0.9070759235314E-02
 0.1083431608681E-01 -0.9965763289843E-02
 0.1238332683880E-01 -0.1084754255186E-01
 0.1401220354105E-01 -0.1171462534749E-01
 0.1571960900278E-01 -0.1256576662316E-01
 0.1750439727716E-01 -0.1339989088973E-01
 0.1936554037726E-01 -0.1421605640319E-01
 0.2130225679535E-01 -0.1501486964065E-01
 0.2331387735062E-01 -0.1579878540846E-01
 0.2539947890755E-01 -0.1656934198462E-01
 0.2755797421846E-01 -0.1732695985578E-01
 0.2978825480437E-01 -0.1807141347661E-01
 0.3208936078451E-01 -0.1880219848722E-01
 0.3446046424495E-01 -0.1951867322125E-01
 0.3690099564729E-01 -0.2022017373765E-01
 0.3941074035554E-01 -0.2090610819763E-01
 0.4198985238054E-01 -0.2157606429202E-01
 0.4463890604148E-01 -0.2222997012902E-01
 0.4735905575863E-01 -0.2286751535709E-01
 0.5015212042178E-01 -0.2348814190886E-01
 0.5302039854068E-01 -0.2409191878607E-01
 0.5596649610156E-01 -0.2467984979954E-01
 0.5899294520085E-01 -0.2525423158844E-01
 0.6210173964931E-01 -0.2581910528179E-01
 0.6529352135980E-01 -0.2638063121437E-01
 0.6856669986839E-01 -0.2694695480919E-01
 0.7191717646652E-01 -0.2752601880689E-01
 0.7533950308390E-01 -0.2811942298178E-01
 0.7882063130180E-01 -0.2872969261946E-01
 0.8233437557709E-01 -0.2936572435270E-01
 0.8584318093597E-01 -0.3003417407770E-01
 0.4080837689084E-03 -0.9025014617311E-03
 0.9628476514719E-03 -0.1821787218450E-02
 0.1652453154370E-02 -0.2757210098855E-02
 0.2464807508651E-02 -0.3706121941993E-02
 0.3388999780000E-02 -0.4664457729581E-02
 0.4416067792237E-02 -0.5627538130794E-02
 0.5539119766900E-02 -0.6590760157908E-02
 0.6753057600859E-02 -0.7550027036443E-02
 0.8054155062619E-02 -0.8501922007929E-02
 0.9439653084732E-02 -0.9443703688669E-02
 0.1090742746770E-01 -0.1037319900709E-01
 0.1245578520835E-01 -0.1128868621614E-01
 0.1408331494333E-01 -0.1218876450694E-01
 0.1578880367923E-01 -0.1307225359259E-01
 0.1757121286297E-01 -0.1393813332956E-01
 0.1942961134071E-01 -0.1478550942234E-01
 0.2136332193865E-01 -0.1561512428379E-01
 0.2337178268026E-01 -0.1642968007940E-01
 0.2545414530284E-01 -0.1723089683395E-01
 0.2760936736760E-01 -0.1801929957072E-01
 0.2983636579165E-01 -0.1879471967302E-01
 0.3213419750231E-01 -0.1955668317254E-01
 0.3450205436636E-01 -0.2030455948065E-01
 0.3693940190404E-01 -0.2103768017879E-01
 0.3944608919287E-01 -0.2175543497977E-01
 0.4202237752458E-01 -0.2245738015370E-01
 0.4466900922581E-01 -0.2314340134710E-01
 0.4738738526952E-01 -0.2381308259589E-01
 0.5017967772441E-01 -0.2446567992651E-01
 0.5304868214068E-01 -0.2510104108690E-01
 0.5599768349700E-01 -0.2571992313892E-01
 0.5903011335998E-01 -0.2632437298493E-01
 0.6214911593290E-01 -0.2691822442774E-01
 0.6535674105552E-01 -0.2750753904991E-01
 0.6865302296499E-01 -0.2810053219158E-01
 0.7203558706543E-01 -0.2870531042889E-01
 0.7550056559700E-01 -0.2932333293241E-01
 0.7903585334290E-01 -0.2995735745382E-01
 0.8261492513321E-01 -0.3061739524772E-01
 0.8619809622341E-01 -0.3131120387459E-01
 0.4188754600460E-03 -0.9386937857133E-03
 0.9857990100615E-03 -0.1895519447890E-02
 0.1687680993582E-02 -0.2869630202586E-02
 0.2511334679338E-02 -0.3857912788992E-02
 0.3445138874898E-02 -0.4855733005645E-02
 0.4479834020113E-02 -0.5857902752193E-02
 0.5608543350342E-02 -0.6859463154554E-02
 0.6826361558740E-02 -0.7856128296483E-02
 0.8129823232595E-02 -0.8844425738895E-02
 0.9516430282001E-02 -0.9821644808424E-02
 0.1098428753642E-01 -0.1078568785074E-01
 0.1253189029679E-01 -0.1173492443641E-01
 0.1415797863934E-01 -0.1266804291410E-01
 0.1586146347774E-01 -0.1358394100600E-01
 0.1764141258852E-01 -0.1448166319292E-01
 0.1949699121658E-01 -0.1536036927425E-01
 0.2142762793933E-01 -0.1622094477068E-01
 0.2343287037905E-01 -0.1706634817377E-01
 0.2551194523589E-01 -0.1789848934419E-01
 0.2766385163025E-01 -0.1871800536652E-01
 0.2988752530538E-01 -0.1952479217935E-01
 0.3218203066545E-01 -0.2031841440141E-01
 0.3454656802336E-01 -0.2109826169391E-01
 0.3698062523586E-01 -0.2186367175482E-01
 0.3948410128535E-01 -0.2261402816281E-01
 0.4205734991263E-01 -0.2334886971630E-01
 0.4470126570064E-01 -0.2406805454112E-01
 0.4741747971390E-01 -0.2477107431555E-01
 0.5020850178374E-01 -0.2545700755987E-01
 0.5307761419987E-01 -0.2612548153176E-01
 0.5602878206881E-01 -0.2677699519121E-01
 0.5906635880714E-01 -0.2741331744680E-01
 0.6219469655741E-01 -0.2803802606673E-01
 0.6541736349412E-01 -0.2865701489761E-01
 0.6873620049221E-01 -0.2927848685890E-01
 0.7215082281026E-01 -0.2991062884321E-01
 0.7565928871692E-01 -0.3055468088494E-01
 0.7925078310659E-01 -0.3121363578752E-01
 0.8289865593371E-01 -0.3189874089293E-01
 0.8656089045855E-01 -0.3261913397142E-01
 0.4305838572963E-03 -0.9755485762327E-03
 0.1010692767882E-02 -0.1970707376103E-02
 0.1725784446041E-02 -0.2984372431489E-02
 0.2561438957189E-02 -0.4012866485576E-02
 0.3505284988648E-02 -0.5050894698813E-02
 0.4547802158105E-02 -0.6092710049876E-02
 0.5682197966623E-02 -0.7132993059492E-02
 0.6903828177558E-02 -0.8167294530456E-02
 0.8209539969375E-02 -0.9192124797482E-02
 0.9597129108874E-02 -0.1020484244277E-01
 0.1106494700127E-01 -0.1120345797342E-01
 0.1261168432265E-01 -0.1218645773147E-01
 0.1423623346315E-01 -0.1315263791896E-01
 0.1593762728556E-01 -0.1410098736458E-01
 0.1771503762340E-01 -0.1503062398964E-01
 0.1956772509044E-01 -0.1594076771044E-01
 0.2149522544939E-01 -0.1683245371932E-01
 0.2349719871284E-01 -0.1770890532936E-01
 0.2557294702190E-01 -0.1857223001649E-01
 0.2772150790853E-01 -0.1942318429191E-01
 0.2994182914694E-01 -0.2026173624464E-01
 0.3223297286728E-01 -0.2108749742550E-01
 0.3459413603326E-01 -0.2189988739917E-01
 0.3702481566592E-01 -0.2269826159402E-01
 0.3952494630580E-01 -0.2348201153319E-01
 0.4209495844565E-01 -0.2425067516983E-01
 0.4473588164230E-01 -0.2500410175143E-01
 0.4744955795981E-01 -0.2574170862586E-01
 0.5023881542912E-01 -0.2646241096188E-01
 0.5310740684250E-01 -0.2716562268887E-01
 0.5605997077256E-01 -0.2785157963460E-01
 0.5910179567374E-01 -0.2852174935002E-01
 0.6223849018900E-01 -0.2917940612701E-01
 0.6547524623439E-01 -0.2983020176966E-01
 0.6881589888465E-01 -0.3048222980930E-01
 0.7226234606148E-01 -0.3114364898467E-01
 0.7581497326906E-01 -0.3181537118615E-01
 0.7946470074878E-01 -0.3250059967705E-01
 0.8318501087200E-01 -0.3321198144289E-01
 0.8693154258851E-01 -0.3396019412474E-01
 0.4433112058806E-03 -0.1013148587601E-02
 0.1037739803350E-02 -0.2047534057913E-02
 0.1767046483756E-02 -0.3101720450874E-02
 0.2615420750184E-02 -0.4171343990756E-02
 0.3569710813901E-02 -0.5250343542281E-02
 0.4620193712517E-02 -0.6332363701150E-02
 0.5760249860125E-02 -0.7411730078235E-02
 0.6985575802863E-02 -0.8483868475057E-02
 0.8293387361111E-02 -0.9545320145779E-02
 0.9681807037795E-02 -0.1059355730447E-01
 0.1114944851304E-01 -0.1162673414939E-01
 0.1269520257719E-01 -0.1264348021210E-01
 0.1431811257670E-01 -0.1364271829866E-01
 0.1601732948075E-01 -0.1462354106213E-01
 0.1779212556341E-01 -0.1558514805274E-01
 0.1964185515065E-01 -0.1652682455582E-01
 0.2156616272463E-01 -0.1744976123949E-01
 0.2356482402631E-01 -0.1835745411004E-01
 0.2563721763286E-01 -0.1925221558664E-01
 0.2778241649711E-01 -0.2013492865985E-01
 0.2999937340528E-01 -0.2100564095234E-01
 0.3228713805455E-01 -0.2186401924945E-01
 0.3464489187873E-01 -0.2270952298924E-01
 0.3707212759889E-01 -0.2354153786488E-01
 0.3956880065684E-01 -0.2435947918486E-01
 0.4213540199909E-01 -0.2516290348681E-01
 0.4477307759192E-01 -0.2595167377705E-01
 0.4748385894099E-01 -0.2672515640702E-01
 0.5027086855024E-01 -0.2748212398238E-01
 0.5313830719985E-01 -0.2822179200446E-01
 0.5609147157797E-01 -0.2894413638449E-01
 0.5913658739573E-01 -0.2965030738430E-01
 0.6228055637455E-01 -0.3034323254654E-01
 0.6553029020105E-01 -0.3102824445184E-01
 0.6889180693584E-01 -0.3171321597494E-01
 0.7236960390751E-01 -0.3240614081259E-01
 0.7596686164001E-01 -0.3310745304558E-01
 0.7967677872778E-01 -0.3382051167055E-01
 0.8347339588407E-01 -0.3455952542402E-01
 0.8730977816082E-01 -0.3533702158680E-01
 0.4571771056290E-03 -0.1051591647537E-02
 0.1067185253072E-02 -0.2126215589325E-02
 0.1811789348544E-02 -0.3222005803912E-02
 0.2673611893532E-02 -0.4333759710789E-02
 0.3638706538976E-02 -0.5454529096524E-02
 0.4697234588588E-02 -0.6577305183704E-02
 0.5842860732457E-02 -0.7696079557653E-02
 0.7071713612941E-02 -0.8806206867924E-02
 0.8381436807088E-02 -0.9904318245898E-02
 0.9770511126630E-02 -0.1098804958836E-01
 0.1123782545680E-01 -0.1205573648332E-01
 0.1278247257342E-01 -0.1310617843306E-01
 0.1440364288724E-01 -0.1413844323679E-01
 0.1610059954690E-01 -0.1515173947099E-01
 0.1787271017162E-01 -0.1614535573226E-01
 0.1971942048294E-01 -0.1711864703231E-01
 0.2164048541648E-01 -0.1807296441434E-01
 0.2363580050398E-01 -0.1901208366690E-01
 0.2570482241568E-01 -0.1993852886959E-01
 0.2784665673805E-01 -0.2085331604614E-01
 0.3006025400928E-01 -0.2175657929660E-01
 0.3234464092966E-01 -0.2264804865821E-01
 0.3469897092437E-01 -0.2352723351961E-01
 0.3712271884751E-01 -0.2439356315951E-01
 0.3961584635071E-01 -0.2524649424097E-01
 0.4217888826195E-01 -0.2608562420834E-01
 0.4481308743964E-01 -0.2691085671023E-01
 0.4752064107285E-01 -0.2772153623803E-01
 0.5030493835851E-01 -0.2851632112219E-01
 0.5317059908345E-01 -0.2929425247300E-01
 0.5612355327091E-01 -0.3005505988105E-01
 0.5917095342841E-01 -0.3079957085165E-01
 0.6232101567915E-01 -0.3153033089719E-01
 0.6558245296457E-01 -0.3225227715692E-01
 0.6896364952884E-01 -0.3297293813766E-01
 0.7247203919759E-01 -0.3369997419295E-01
 0.7611413210070E-01 -0.3443314036146E-01
 0.7988609066427E-01 -0.3517585245473E-01
 0.8376305699752E-01 -0.3594403155297E-01
 0.8769558552818E-01 -0.3675257232182E-01
 0.4723227220729E-03 -0.1090994785195E-02
 0.1099316069261E-02 -0.2207009809131E-02
 0.1860381109875E-02 -0.3345619212256E-02
 0.2736378167963E-02 -0.4500591857518E-02
 0.3712578452625E-02 -0.5663956614394E-02
 0.4779151620522E-02 -0.6828016751563E-02
 0.5930183936088E-02 -0.7986472140008E-02
 0.7162338396785E-02 -0.9134679144249E-02
 0.8473746610682E-02 -0.1026942929545E-01
 0.9863276320000E-02 -0.1138857726270E-01
 0.1133010077380E-01 -0.1249067893210E-01
 0.1287351323453E-01 -0.1357473014093E-01
 0.1449284450340E-01 -0.1463996123367E-01
 0.1618746172957E-01 -0.1568570796511E-01
 0.1795682116672E-01 -0.1671135452498E-01
 0.1980045691481E-01 -0.1771632902682E-01
 0.2171823641171E-01 -0.1870214675351E-01
 0.2371017997671E-01 -0.1967286941829E-01
 0.2577582485214E-01 -0.2063123868516E-01
 0.2791430670577E-01 -0.2157840943517E-01
 0.3012456628342E-01 -0.2251460846186E-01
 0.3240559631245E-01 -0.2343963648372E-01
 0.3475650953494E-01 -0.2435306276944E-01
 0.3717674949280E-01 -0.2525437412316E-01
 0.3966626964659E-01 -0.2614308779348E-01
 0.4222563225079E-01 -0.2701886739172E-01
 0.4485615699855E-01 -0.2788168853100E-01
 0.4756018117967E-01 -0.2873090920856E-01
 0.5034132910847E-01 -0.2956511007794E-01
 0.5320460413734E-01 -0.3038319243463E-01
 0.5615653490913E-01 -0.3118466581454E-01
 0.5920517606630E-01 -0.3197004346099E-01
 0.6236006087477E-01 -0.3274146641559E-01
 0.6563176435214E-01 -0.3350340669595E-01
 0.6903120592594E-01 -0.3426291652316E-01
 0.7256910418576E-01 -0.3502712125187E-01
 0.7625590543449E-01 -0.3579483379080E-01
 0.8009157627705E-01 -0.3656935295810E-01
 0.8405314275241E-01 -0.3736848499071E-01
 0.8808880553097E-01 -0.3820998394085E-01
 0.4889163609282E-03 -0.1131499804783E-02
 0.1134470673568E-02 -0.2290227851190E-02
 0.1913243296487E-02 -0.3473024999322E-02
 0.2804121324174E-02 -0.4672394811620E-02
 0.3791646236323E-02 -0.5879194346057E-02
 0.4866167856617E-02 -0.7085023786213E-02
 0.6022359884207E-02 -0.8283362953092E-02
 0.7257530984975E-02 -0.9469665288685E-02
 0.8570359491942E-02 -0.1064096488299E-01
 0.9960123787079E-02 -0.1179539402118E-01
 0.1142628584823E-01 -0.1293176765231E-01
 0.1296833413806E-01 -0.1404930293589E-01
 0.1458573023449E-01 -0.1514740895816E-01
 0.1627793473436E-01 -0.1622555887582E-01
 0.1804448406013E-01 -0.1728323812000E-01
 0.1988499691491E-01 -0.1831995027344E-01
 0.2179945572933E-01 -0.1933737758683E-01
 0.2378801178703E-01 -0.2033987272616E-01
 0.2585028637780E-01 -0.2133039985668E-01
 0.2798544293946E-01 -0.2231025751940E-01
 0.3019240451917E-01 -0.2327977032189E-01
 0.3247011846613E-01 -0.2423881613074E-01
 0.3481764409206E-01 -0.2518703357495E-01
 0.3723438056721E-01 -0.2612398134871E-01
 0.3972025942567E-01 -0.2704925808328E-01
 0.4227585446604E-01 -0.2796262175065E-01
 0.4490254211632E-01 -0.2886415580294E-01
 0.4760277285111E-01 -0.2975327366375E-01
 0.5038037115357E-01 -0.3062852392287E-01
 0.5324068228642E-01 -0.3148871451249E-01
 0.5619078867961E-01 -0.3233317620582E-01
 0.5923960709150E-01 -0.3316213433059E-01
 0.6239796890942E-01 -0.3397732174498E-01
 0.6567834472163E-01 -0.3478268994894E-01
 0.6909433252655E-01 -0.3558468202381E-01
 0.7266028232764E-01 -0.3638965528052E-01
 0.7639124911012E-01 -0.3719514032059E-01
 0.8029203502571E-01 -0.3800405146172E-01
 0.8434262868654E-01 -0.3883620499539E-01
 0.8848919780095E-01 -0.3971278314134E-01
 0.5071609619662E-03 -0.1173280942336E-02
 0.1173051376525E-02 -0.2376249687571E-02
 0.1970859622256E-02 -0.3604779604703E-02
 0.2877280084288E-02 -0.4849813751371E-02
 0.3876238399227E-02 -0.6100880951448E-02
 0.4958496327820E-02 -0.7348896032717E-02
 0.6119510646357E-02 -0.8587229479341E-02
 0.7357352409557E-02 -0.9811552669010E-02
 0.8671300109390E-02 -0.1101923501291E-01
 0.1006105936391E-01 -0.1220874690546E-01
 0.1152637949951E-01 -0.1337919920720E-01
 0.1306693483357E-01 -0.1453005288541E-01
 0.1468230513483E-01 -0.1566091006896E-01
 0.1637203146307E-01 -0.1677139038927E-01
 0.1813572004171E-01 -0.1786108534847E-01
 0.1997306955332E-01 -0.1892957542556E-01
 0.2188418048673E-01 -0.1997871137474E-01
 0.2386934273238E-01 -0.2101314055851E-01
 0.2592826628390E-01 -0.2203605329462E-01
 0.2806014024636E-01 -0.2304889518593E-01
 0.3026386157870E-01 -0.2405209220537E-01
 0.3253832039420E-01 -0.2504560441268E-01
 0.3488250990742E-01 -0.2602914848474E-01
 0.3729577255149E-01 -0.2700236958663E-01
 0.3977800528747E-01 -0.2796496997862E-01
 0.4232977866242E-01 -0.2891683306015E-01
 0.4495250627598E-01 -0.2985819056270E-01
 0.4764872414665E-01 -0.3078855999443E-01
 0.5042241920445E-01 -0.3170651304649E-01
 0.5327923127462E-01 -0.3261082379645E-01
 0.5622674185896E-01 -0.3350070287451E-01
 0.5927467384693E-01 -0.3437613601873E-01
 0.6243511331203E-01 -0.3523846978204E-01
 0.6572242566003E-01 -0.3609110413361E-01
 0.6915299160991E-01 -0.3693975109071E-01
 0.7274511758393E-01 -0.3778974169884E-01
 0.7651919319381E-01 -0.3863689708423E-01
 0.8048610470272E-01 -0.3948334176722E-01
 0.8463026890178E-01 -0.4035094042894E-01
 0.8889643498592E-01 -0.4126498072610E-01
 0.5273043473705E-03 -0.1216555586986E-02
 0.1215540458672E-02 -0.2465545340037E-02
 0.2033785667385E-02 -0.3741555459643E-02
 0.2956329286933E-02 -0.5033601701562E-02
 0.3966685152156E-02 -0.6329732409463E-02
 0.5056332037718E-02 -0.7620247034883E-02
 0.6221733769722E-02 -0.8898567686925E-02
 0.7461839925924E-02 -0.1016073168982E-01
 0.8776572710461E-02 -0.1140454447572E-01
 0.1016607218088E-01 -0.1262887363025E-01
 0.1163036712488E-01 -0.1383315868411E-01
 0.1316930424912E-01 -0.1501712314119E-01
 0.1478256608909E-01 -0.1618057404241E-01
 0.1646975877743E-01 -0.1732328539568E-01
 0.1823054590805E-01 -0.1844495901858E-01
 0.2006470052654E-01 -0.1954525297954E-01
 0.2197244494937E-01 -0.2062618689661E-01
 0.2395421711061E-01 -0.2169270511844E-01
 0.2600982173354E-01 -0.2274822617539E-01
 0.2813847160521E-01 -0.2379434422831E-01
 0.3033902854993E-01 -0.2483158798059E-01
 0.3261031311471E-01 -0.2586000275075E-01
 0.3495124002919E-01 -0.2687939078509E-01
 0.3736108367685E-01 -0.2788949831588E-01
 0.3983969535347E-01 -0.2889015480468E-01
 0.4238762920931E-01 -0.2988140289837E-01
 0.4500631764212E-01 -0.3086366750267E-01
 0.4769835456929E-01 -0.3183662560248E-01
 0.5046784965299E-01 -0.3279893700763E-01
 0.5332068506798E-01 -0.3374941543191E-01
 0.5626487752196E-01 -0.3468722940152E-01
 0.5931088423149E-01 -0.3561219951216E-01
 0.6247197639239E-01 -0.3652534104295E-01
 0.6576437284987E-01 -0.3742950840053E-01
 0.6920728629864E-01 -0.3832958880712E-01
 0.7282325551605E-01 -0.3922961882465E-01
 0.7663875680868E-01 -0.4012318923439E-01
 0.8067224381355E-01 -0.4101104211868E-01
 0.8491453810395E-01 -0.4191698147765E-01
 0.8931007542291E-01 -0.4287119793564E-01
 0.5496535066624E-03 -0.1261599614626E-02
 0.1262521101695E-02 -0.2558704265652E-02
 0.2102659054315E-02 -0.3884171860505E-02
 0.3041775893383E-02 -0.5224638892561E-02
 0.4063307851355E-02 -0.6566547381534E-02
 0.5159841979439E-02 -0.7899730850168E-02
 0.6329095477908E-02 -0.9217885973814E-02
 0.7571003098761E-02 -0.1051759014553E-01
 0.8886159059067E-02 -0.1179718857970E-01
 0.1027513356637E-01 -0.1305599966944E-01
 0.1173822003941E-01 -0.1429381779234E-01
 0.1327542019953E-01 -0.1551064262728E-01
 0.1488650142685E-01 -0.1670649505677E-01
 0.1657111726959E-01 -0.1788131030552E-01
 0.1832897402003E-01 -0.1903490460922E-01
 0.2015991224831E-01 -0.2016701399494E-01
 0.2206428068046E-01 -0.2127982626105E-01
 0.2404267689977E-01 -0.2237858341113E-01
 0.2609500793326E-01 -0.2346693222952E-01
 0.2822050820684E-01 -0.2454661433344E-01
 0.3041799447372E-01 -0.2561825952436E-01
 0.3268620491564E-01 -0.2668199879702E-01
 0.3502396393597E-01 -0.2773772594356E-01
 0.3743046802392E-01 -0.2878530271883E-01
 0.3990551376829E-01 -0.2982471057616E-01
 0.4244962802382E-01 -0.3085618780126E-01
 0.4506424551653E-01 -0.3188040156006E-01
 0.4775199123586E-01 -0.3289725019802E-01
 0.5051705682636E-01 -0.3390555649860E-01
 0.5336551088430E-01 -0.3490426183846E-01
 0.5630573360262E-01 -0.3589259180056E-01
 0.5934882998269E-01 -0.3687030624999E-01
 0.6250916037169E-01 -0.3783818518226E-01
 0.6580471020341E-01 -0.3879859507361E-01
 0.6925750222035E-01 -0.3975555666345E-01
 0.7289449868837E-01 -0.4071156126013E-01
 0.7674899271780E-01 -0.4165736033110E-01
 0.8084872214549E-01 -0.4259147809216E-01
 0.8519355681004E-01 -0.4353930318453E-01
 0.8972951201990E-01 -0.4453683403608E-01
 0.5745949334638E-03 -0.1308769842252E-02
 0.1314704710060E-02 -0.2656476717753E-02
 0.2178209040074E-02 -0.4033634877810E-02
 0.3134149927293E-02 -0.5423953755495E-02
 0.4166404013546E-02 -0.6812209342667E-02
 0.5269153152296E-02 -0.8188034880443E-02
 0.6441623560355E-02 -0.9545696504015E-02
 0.7684820228337E-02 -0.1088250623089E-01
 0.9000016812101E-02 -0.1219744831218E-01
 0.1038819632419E-01 -0.1349033519101E-01
 0.1184989506206E-01 -0.1476133303198E-01
 0.1338524900573E-01 -0.1601072488708E-01
 0.1499409054453E-01 -0.1723875100107E-01
 0.1667610100448E-01 -0.1844551385558E-01
 0.1843101226418E-01 -0.1963094878652E-01
 0.2025872400286E-01 -0.2079487053243E-01
 0.2215971681176E-01 -0.2193963365697E-01
 0.2413476211636E-01 -0.2307077670853E-01
 0.2618387851610E-01 -0.2419217215970E-01
 0.2830631967775E-01 -0.2530570441167E-01
 0.3050084616515E-01 -0.2641209865759E-01
 0.3276610059116E-01 -0.2751156855062E-01
 0.3510080610806E-01 -0.2860410351908E-01
 0.3750407341002E-01 -0.2968969509701E-01
 0.3997563789362E-01 -0.3076850267947E-01
 0.4251599106886E-01 -0.3184099890849E-01
 0.4512655617898E-01 -0.3290814603916E-01
 0.4780996418260E-01 -0.3397013161322E-01
 0.5057044804166E-01 -0.3502602566446E-01
 0.5341420460751E-01 -0.3607499985697E-01
 0.5634989988000E-01 -0.3711645823272E-01
 0.5938918751464E-01 -0.3815023747818E-01
 0.6254739625139E-01 -0.3917702657698E-01
 0.6584414379995E-01 -0.4019882919323E-01
 0.6930415525586E-01 -0.4121884042509E-01
 0.7295887962860E-01 -0.4223781761253E-01
 0.7684905924745E-01 -0.4324300543689E-01
 0.8101362799128E-01 -0.4422957732366E-01
 0.8546499437111E-01 -0.4522375450085E-01
 0.9015388829801E-01 -0.4626829759411E-01
 0.6026242630160E-03 -0.1358537792504E-02
 0.1372966524982E-02 -0.2759832938775E-02
 0.2261263295849E-02 -0.4191188657746E-02
 0.3233987535490E-02 -0.5632743766254E-02
 0.4276226905771E-02 -0.7067682879233E-02
 0.5384338876202E-02 -0.8485867470331E-02
 0.6559300473560E-02 -0.9882503649583E-02
 0.7803235458997E-02 -0.1125584028737E-01
 0.9118078528458E-02 -0.1260558505669E-01
 0.1050519448381E-01 -0.1393207195711E-01
 0.1196533439664E-01 -0.1523584404350E-01
 0.1349874523170E-01 -0.1651746719786E-01
 0.1510530350129E-01 -0.1777740270079E-01
 0.1678469717992E-01 -0.1901592594110E-01
 0.1853666397542E-01 -0.2023309769531E-01
 0.2036115215001E-01 -0.2142881369543E-01
 0.2225878046252E-01 -0.2260559372761E-01
 0.2423051141402E-01 -0.2376926985608E-01
 0.2627648621177E-01 -0.2492393422151E-01
 0.2839597454390E-01 -0.2607160436464E-01
 0.3058766814873E-01 -0.2721308965214E-01
 0.3285010064955E-01 -0.2834867904465E-01
 0.3518188445893E-01 -0.2947845958228E-01
 0.3758203905595E-01 -0.3060256675477E-01
 0.4005023519759E-01 -0.3172136504216E-01
 0.4258692442128E-01 -0.3283560217827E-01
 0.4519350810475E-01 -0.3394659140718E-01
 0.4787260076050E-01 -0.3505488234768E-01
 0.5062843734421E-01 -0.3615988507074E-01
 0.5346728435056E-01 -0.3726111819982E-01
 0.5639801245263E-01 -0.3835830823096E-01
 0.5943271550502E-01 -0.3945154147638E-01
 0.6258754894814E-01 -0.4054161437711E-01
 0.6588358330209E-01 -0.4163037554948E-01
 0.6934804333663E-01 -0.4272035338749E-01
 0.7301675388360E-01 -0.4381051066064E-01
 0.7693833170677E-01 -0.4488393022002E-01
 0.8116490782228E-01 -0.4593096971823E-01
 0.8572594687359E-01 -0.4697731133462E-01
 0.9058196178413E-01 -0.4807333491022E-01
 0.6343905916499E-03 -0.1411542008888E-02
 0.1438391627648E-02 -0.2870049342328E-02
 0.2352747544112E-02 -0.4358380387454E-02
 0.3341802238490E-02 -0.5852392258760E-02
 0.4392959035146E-02 -0.7334000368215E-02
 0.5505404249325E-02 -0.8793938952119E-02
 0.6682057402582E-02 -0.1022878954222E-01
 0.7926156946749E-02 -0.1163792551417E-01
 0.9240251490405E-02 -0.1302183505040E-01
 0.1062604361820E-01 -0.1438138033148E-01
 0.1208446585646E-01 -0.1571747226338E-01
 0.1361585154457E-01 -0.1703095008522E-01
 0.1522010054258E-01 -0.1832249348645E-01
 0.1689688562310E-01 -0.1959255653406E-01
 0.1864592775091E-01 -0.2084133496376E-01
 0.2046721035934E-01 -0.2206881111027E-01
 0.2236149734327E-01 -0.2327766939449E-01
 0.2432996301256E-01 -0.2447403034579E-01
 0.2637288390934E-01 -0.2566219502287E-01
 0.2848954100354E-01 -0.2684429742552E-01
 0.3067854272122E-01 -0.2802121244254E-01
 0.3293830046993E-01 -0.2919329168992E-01
 0.3526730859904E-01 -0.3036071968177E-01
 0.3766449302217E-01 -0.3152379036047E-01
 0.4012945985153E-01 -0.3268310181180E-01
 0.4266261993240E-01 -0.3383971924419E-01
 0.4526534657210E-01 -0.3499536491725E-01
 0.4794021909670E-01 -0.3615102709327E-01
 0.5069143783173E-01 -0.3730655566371E-01
 0.5352528194829E-01 -0.3846194565455E-01
 0.5645074528061E-01 -0.3961741203221E-01
 0.5948024841125E-01 -0.4077349947557E-01
 0.6263061701174E-01 -0.4193136803314E-01
 0.6592415759321E-01 -0.4309301353738E-01
 0.6939029794726E-01 -0.4426061098914E-01
 0.7306891326923E-01 -0.4543148448187E-01
 0.7701656856970E-01 -0.4658404833388E-01
 0.8130046660668E-01 -0.4770207588910E-01
 0.8597279283378E-01 -0.4880841706588E-01
 0.9101187924606E-01 -0.4996151035612E-01
 0.6707646504416E-03 -0.1468671934314E-02
 0.1512332957647E-02 -0.2988836186525E-02
 0.2453669959804E-02 -0.4537139870858E-02
 0.3458039266371E-02 -0.6084473556072E-02
 0.4516679848139E-02 -0.7612233987930E-02
 0.5632272396344E-02 -0.9112935328475E-02
 0.6809770204234E-02 -0.1058499720041E-01
 0.8053456444643E-02 -0.1202905801623E-01
 0.9366418498202E-02 -0.1344640381739E-01
 0.1075064181303E-01 -0.1483840655746E-01
 0.1220720348079E-01 -0.1620632001850E-01
 0.1373649870857E-01 -0.1755123739174E-01
 0.1533843149426E-01 -0.1887404927975E-01
 0.1701263800573E-01 -0.2017539479017E-01
 0.1875879704269E-01 -0.2145561934530E-01
 0.2057690983056E-01 -0.2271480360091E-01
 0.2246789259755E-01 -0.2395579887443E-01
 0.2443315609170E-01 -0.2518500705575E-01
 0.2647312625855E-01 -0.2640692063877E-01
 0.2858708809032E-01 -0.2762376326584E-01
 0.3077355014164E-01 -0.2883644671218E-01
 0.3303078936342E-01 -0.3004536636648E-01
 0.3535717788951E-01 -0.3125080237747E-01
 0.3775154940302E-01 -0.3245322277150E-01
 0.4021344905901E-01 -0.3365348954276E-01
 0.4274325052622E-01 -0.3485302897855E-01
 0.4534229770035E-01 -0.3605403122718E-01
 0.4801312062542E-01 -0.3725800152302E-01
 0.5075985249006E-01 -0.3846533411990E-01
 0.5358873218795E-01 -0.3967664056218E-01
 0.5650879841828E-01 -0.4089281073505E-01
 0.5953268515510E-01 -0.4211509135141E-01
 0.6267772520175E-01 -0.4334532000538E-01
 0.6596722056954E-01 -0.4458604191265E-01
 0.6943242775182E-01 -0.4583957522406E-01
 0.7311671391163E-01 -0.4710208067556E-01
 0.7708414900810E-01 -0.4834717249215E-01
 0.8141837687341E-01 -0.4955014266407E-01
 0.8620104574638E-01 -0.5072743670017E-01
 0.9144080209708E-01 -0.5194493069773E-01
 0.7129469465789E-03 -0.1531207833155E-02
 0.1596480500912E-02 -0.3118529872957E-02
 0.2565075648695E-02 -0.4729870016751E-02
 0.3583007309698E-02 -0.6330732314394E-02
 0.4647330150132E-02 -0.7903447384079E-02
 0.5764774105070E-02 -0.9443485169487E-02
 0.6942258138062E-02 -0.1095151222722E-01
 0.8184970590533E-02 -0.1242948664789E-01
 0.9496439770423E-02 -0.1387946086591E-01
 0.1087887134959E-01 -0.1530327048147E-01
 0.1233344859194E-01 -0.1670247018433E-01
 0.1386060573883E-01 -0.1807837707183E-01
 0.1546023496636E-01 -0.1943207944003E-01
 0.1713191661034E-01 -0.2076440852490E-01
 0.1887525934704E-01 -0.2207588191258E-01
 0.2069025942112E-01 -0.2336670069260E-01
 0.2257799196183E-01 -0.2463989150045E-01
 0.2454013285643E-01 -0.2590212852910E-01
 0.2657727201489E-01 -0.2715806821395E-01
 0.2868868731429E-01 -0.2840998215055E-01
 0.3087276892044E-01 -0.2965877706391E-01
 0.3312764946382E-01 -0.3090486635347E-01
 0.3545157922389E-01 -0.3214862334066E-01
 0.3784330526460E-01 -0.3339070827525E-01
 0.4030231915798E-01 -0.3463227985456E-01
 0.4282896521180E-01 -0.3587516981013E-01
 0.4542456199611E-01 -0.3712209420000E-01
 0.4809158172519E-01 -0.3837515267232E-01
 0.5083406349343E-01 -0.3963539003608E-01
 0.5365815961846E-01 -0.4090418215267E-01
 0.5657288263128E-01 -0.4218329809387E-01
 0.5959097235462E-01 -0.4347496240665E-01
 0.6273010839805E-01 -0.4478205801878E-01
 0.6601434272605E-01 -0.4610817770523E-01
 0.6947634304443E-01 -0.4745647257461E-01
 0.7316220321990E-01 -0.4882282792675E-01
 0.7714239314983E-01 -0.5017663150799E-01
 0.8151727455577E-01 -0.5148313510352E-01
 0.8640526282556E-01 -0.5274724123948E-01
 0.9186427764920E-01 -0.5403937146623E-01
 0.7626450831314E-03 -0.1601065402317E-02
 0.1692932827568E-02 -0.3262386542456E-02
 0.2687945407988E-02 -0.4939531428432E-02
 0.3716783941344E-02 -0.6593012940494E-02
 0.4784679862686E-02 -0.8208623283551E-02
 0.5902644067737E-02 -0.9786122808091E-02
 0.7079285939735E-02 -0.1132864431515E-01
 0.8320504105761E-02 -0.1283940314378E-01
 0.9630156041485E-02 -0.1432113500933E-01
 0.1101060112633E-01 -0.1577606388577E-01
 0.1246309134401E-01 -0.1720598650550E-01
 0.1398808027444E-01 -0.1861240288575E-01
 0.1558543732073E-01 -0.1999657870671E-01
 0.1725467241625E-01 -0.2135954438144E-01
 0.1899529469330E-01 -0.2270202272764E-01
 0.2080726553738E-01 -0.2402437438082E-01
 0.2269182337399E-01 -0.2532982174256E-01
 0.2465094160252E-01 -0.2662530064376E-01
 0.2668538741415E-01 -0.2791558836330E-01
 0.2879441486106E-01 -0.2920294054839E-01
 0.3097627613198E-01 -0.3048819952258E-01
 0.3322895433298E-01 -0.3177176417381E-01
 0.3555058445260E-01 -0.3305409999269E-01
 0.3793983730666E-01 -0.3433608215501E-01
 0.4039616155812E-01 -0.3561920247158E-01
 0.4291988392908E-01 -0.3690574281820E-01
 0.4551230753284E-01 -0.3819900009854E-01
 0.4817584453645E-01 -0.3950174129710E-01
 0.5091441994965E-01 -0.4081576546327E-01
 0.5373406281340E-01 -0.4214336437234E-01
 0.5664370018208E-01 -0.4348740481201E-01
 0.5965608170926E-01 -0.4485139270261E-01
 0.6278908576042E-01 -0.4623966975517E-01
 0.6606728485542E-01 -0.4765745556684E-01
 0.6952434710156E-01 -0.4910959760700E-01
 0.7320821294584E-01 -0.5059304231354E-01
 0.7719395425040E-01 -0.5207462107756E-01
 0.8159705832469E-01 -0.5350929670293E-01
 0.8657916346345E-01 -0.5488388738047E-01
 0.9227518810735E-01 -0.5626607946013E-01
 0.8223749140471E-03 -0.1681248496659E-02
 0.1804239405865E-02 -0.3425032539204E-02
 0.2822995832944E-02 -0.5169670032907E-02
 0.3859100157704E-02 -0.6873102886688E-02
 0.4928311865639E-02 -0.8528572195968E-02
 0.6045526016022E-02 -0.1014125360391E-01
 0.7220569196258E-02 -0.1171660920362E-01
 0.8459835141913E-02 -0.1325893323436E-01
 0.9767392850419E-02 -0.1477151071644E-01
 0.1114568979812E-01 -0.1625684955063E-01
 0.1259601281563E-01 -0.1771691463621E-01
 0.1411881928469E-01 -0.1915333712240E-01
 0.1571395141626E-01 -0.2056753068922E-01
 0.1738084219846E-01 -0.2196072927752E-01
 0.1911887293563E-01 -0.2333390697580E-01
 0.2092793152262E-01 -0.2468765026734E-01
 0.2280941925620E-01 -0.2602542046249E-01
 0.2476564131985E-01 -0.2735440353413E-01
 0.2679755096671E-01 -0.2867942893332E-01
 0.2890435438533E-01 -0.3000263877438E-01
 0.3108414759738E-01 -0.3132472963378E-01
 0.3333476712010E-01 -0.3264604839783E-01
 0.3565424733791E-01 -0.3396715662420E-01
 0.3804119821657E-01 -0.3528917443767E-01
 0.4049503860020E-01 -0.3661396847179E-01
 0.4301609241056E-01 -0.3794431557903E-01
 0.4560566295472E-01 -0.3928414243243E-01
 0.4826610706944E-01 -0.4063694667585E-01
 0.5100122409316E-01 -0.4200537733077E-01
 0.5381689599899E-01 -0.4339279287857E-01
 0.5672192164731E-01 -0.4480338622201E-01
 0.5972898147337E-01 -0.4624227035124E-01
 0.6285602468562E-01 -0.4771569330386E-01
 0.6612795187291E-01 -0.4923113494548E-01
 0.6957908228197E-01 -0.5079612351484E-01
 0.7325836416261E-01 -0.5241036969436E-01
 0.7724321231063E-01 -0.5404119285934E-01
 0.8166003898304E-01 -0.5563600702636E-01
 0.8671632016999E-01 -0.5715718067028E-01
 0.9266203783111E-01 -0.5865472051134E-01
 0.8959908248306E-03 -0.1776749681247E-02
 0.1933319296252E-02 -0.3613141440656E-02
 0.2970317736624E-02 -0.5424250903601E-02
 0.4009236737398E-02 -0.7172453463811E-02
 0.5077639434628E-02 -0.8863849165620E-02
 0.6192984733496E-02 -0.1050912507719E-01
 0.7365783110641E-02 -0.1211551084258E-01
 0.8602723035532E-02 -0.1368813017628E-01
 0.9907965802904E-02 -0.1523062566231E-01
 0.1128398960543E-01 -0.1674566117959E-01
 0.1273208767046E-01 -0.1823528389216E-01
 0.1425271030458E-01 -0.1970119434841E-01
 0.1584567529552E-01 -0.2114491346243E-01
 0.1751034426935E-01 -0.2256787420899E-01
 0.1924594899516E-01 -0.2397136076220E-01
 0.2105225603192E-01 -0.2535629456317E-01
 0.2293081989532E-01 -0.2672646179723E-01
 0.2488430874197E-01 -0.2808928774420E-01
 0.2691386017766E-01 -0.2944954115144E-01
 0.2901860031448E-01 -0.3080910144191E-01
 0.3119645767056E-01 -0.3216841238198E-01
 0.3344513807294E-01 -0.3352773138916E-01
 0.3576259990103E-01 -0.3488772991835E-01
 0.3814741265463E-01 -0.3624981362668E-01
 0.4059897944939E-01 -0.3761627343527E-01
 0.4311763734022E-01 -0.3899042666037E-01
 0.4570471059016E-01 -0.4037686880820E-01
 0.4836251273469E-01 -0.4177987445476E-01
 0.5109471592822E-01 -0.4320302331643E-01
 0.5390704802472E-01 -0.4465088586486E-01
 0.5680815864520E-01 -0.4612921436638E-01
 0.5981060229494E-01 -0.4764506976074E-01
 0.6293229524173E-01 -0.4920707673193E-01
 0.6619832621383E-01 -0.5082562366524E-01
 0.6964342856965E-01 -0.5251194265940E-01
 0.7331691952716E-01 -0.5427036033481E-01
 0.7729647079405E-01 -0.5607287214192E-01
 0.8171263128440E-01 -0.5786727042446E-01
 0.8681223107055E-01 -0.5959036429513E-01
 0.9300634187749E-01 -0.6124824303319E-01
 0.9896514592694E-03 -0.1896521211945E-02
 0.2082987116044E-02 -0.3836343379179E-02
 0.3128795925327E-02 -0.5706960822945E-02
 0.4166029144030E-02 -0.7491815184344E-02
 0.5231962205653E-02 -0.9214732751869E-02
 0.6344516750583E-02 -0.1088979113061E-01
 0.7514577539571E-02 -0.1252532801683E-01
 0.8748917640856E-02 -0.1412697177732E-01
 0.1005168660769E-01 -0.1569846925337E-01
 0.1142535086298E-01 -0.1724250453186E-01
 0.1287118731291E-01 -0.1876110955123E-01
 0.1438963348961E-01 -0.2025598594605E-01
 0.1598049129641E-01 -0.2172870776502E-01
 0.1764307253422E-01 -0.2318088241021E-01
 0.1937645453504E-01 -0.2461416739298E-01
 0.2118022937201E-01 -0.2602999428916E-01
 0.2305607878360E-01 -0.2743264288065E-01
 0.2500704941981E-01 -0.2882977005174E-01
 0.2703444075729E-01 -0.3022589002153E-01
 0.2913726131001E-01 -0.3162239165158E-01
 0.3131327821793E-01 -0.3301933400616E-01
 0.3356010118232E-01 -0.3441685788508E-01
 0.3587564800518E-01 -0.3581577481354E-01
 0.3825847274213E-01 -0.3721783020125E-01
 0.4070797614410E-01 -0.3862579994411E-01
 0.4322452226557E-01 -0.4004359048989E-01
 0.4580948010332E-01 -0.4147649035324E-01
 0.4846513941062E-01 -0.4292956834237E-01
 0.5119505625908E-01 -0.4440739169300E-01
 0.5400481879530E-01 -0.4591587917926E-01
 0.5690293240275E-01 -0.4746257587526E-01
 0.5990179741051E-01 -0.4905683552121E-01
 0.6301921841004E-01 -0.5071014738760E-01
 0.6628038060858E-01 -0.5243643212091E-01
 0.6972036304992E-01 -0.5425154945171E-01
 0.7338846661079E-01 -0.5616620279055E-01
 0.7736154706119E-01 -0.5816123317880E-01
 0.8176730661471E-01 -0.6019885625898E-01
 0.8686942458662E-01 -0.6220662816852E-01
 0.9327941615955E-01 -0.6411057714692E-01
 0.1113612243206E-02 -0.2058402612008E-02
 0.2254317956048E-02 -0.4107783438151E-02
 0.3295439465675E-02 -0.6019294640339E-02
 0.4328174357772E-02 -0.7831169397015E-02
 0.5390492065263E-02 -0.9581244481530E-02
 0.6499566699331E-02 -0.1128304688992E-01
 0.7666601438009E-02 -0.1294592476496E-01
 0.8898166778917E-02 -0.1457535397280E-01
 0.1019837099958E-01 -0.1617498489030E-01
 0.1156962647515E-01 -0.1774735902748E-01
 0.1301318356958E-01 -0.1929439590914E-01
 0.1452946466353E-01 -0.2081772470996E-01
 0.1611826671881E-01 -0.2231890765642E-01
 0.1777888897286E-01 -0.2379966551812E-01
 0.1951028325361E-01 -0.2526206682540E-01
 0.2131182561843E-01 -0.2670832547297E-01
 0.2318527186400E-01 -0.2814355127785E-01
 0.2513401561684E-01 -0.2957563094201E-01
 0.2715945865178E-01 -0.3100847217413E-01
 0.2926046304026E-01 -0.3244262968445E-01
 0.3143467625760E-01 -0.3387763554300E-01
 0.3367966976508E-01 -0.3531351416669E-01
 0.3599336604169E-01 -0.3675127069646E-01
 0.3837433277293E-01 -0.3819305978281E-01
 0.4082197986021E-01 -0.3964221842711E-01
 0.4333670506276E-01 -0.4110330192573E-01
 0.4591994337338E-01 -0.4258229482171E-01
 0.4857398793896E-01 -0.4408502689455E-01
 0.5130230805939E-01 -0.4561707518559E-01
 0.5411039311282E-01 -0.4718583653672E-01
 0.5700663925983E-01 -0.4880087574073E-01
 0.6000329443241E-01 -0.5047417735750E-01
 0.6311801540456E-01 -0.5222057841313E-01
 0.6637597821138E-01 -0.5405818258281E-01
 0.6981276743667E-01 -0.5600799105095E-01
 0.7347756631453E-01 -0.5808861064568E-01
 0.7744630098911E-01 -0.6029241953668E-01
 0.8184302669047E-01 -0.6261088413207E-01
 0.8690869830653E-01 -0.6501543542823E-01
 0.9344102855835E-01 -0.6733732004843E-01
 0.1285389030489E-02 -0.2304037240138E-02
 0.2441631890292E-02 -0.4439729724183E-02
 0.3465850666977E-02 -0.6357416338563E-02
 0.4494834748979E-02 -0.8191039015610E-02
 0.5552164759336E-02 -0.9962636448528E-02
 0.6657651545646E-02 -0.1168855807004E-01
 0.7821493808635E-02 -0.1337701518518E-01
 0.9050235412405E-02 -0.1503310157898E-01
 0.1034784384837E-01 -0.1666007065320E-01
 0.1171667760040E-01 -0.1826018112760E-01
 0.1315795238712E-01 -0.1983513988333E-01
 0.1467207917349E-01 -0.2138642896838E-01
 0.1625885804073E-01 -0.2291553084487E-01
 0.1791761657802E-01 -0.2442417379444E-01
 0.1964726431079E-01 -0.2591476705341E-01
 0.2144698536438E-01 -0.2739069772191E-01
 0.2331851563764E-01 -0.2885861013882E-01
 0.2526543592210E-01 -0.3032662085969E-01
 0.2728913395977E-01 -0.3179734569712E-01
 0.2938834879423E-01 -0.3327001605055E-01
 0.3156070970062E-01 -0.3474352779946E-01
 0.3380383081469E-01 -0.3621783729808E-01
 0.3611569076953E-01 -0.3769422793631E-01
 0.3849490256426E-01 -0.3917534651559E-01
 0.4094089709372E-01 -0.4066518445504E-01
 0.4345409857400E-01 -0.4216903866488E-01
 0.4603601173884E-01 -0.4369356615678E-01
 0.4868896934188E-01 -0.4524522714034E-01
 0.5141641569729E-01 -0.4683058802104E-01
 0.5422381345533E-01 -0.4845866448299E-01
 0.5711951055393E-01 -0.5014125164782E-01
 0.6011564811613E-01 -0.5189326755636E-01
 0.6322972453753E-01 -0.5373338884982E-01
 0.6648687780722E-01 -0.5568452464539E-01
 0.6992298532967E-01 -0.5777333279808E-01
 0.7358874157107E-01 -0.6002502650748E-01
 0.7755638416004E-01 -0.6244935924224E-01
 0.8195953628698E-01 -0.6506163133906E-01
 0.8698669527354E-01 -0.6797539361377E-01
 0.9345824109821E-01 -0.7104776507832E-01
 0.9804692422689E-01  0.3781712314064E-02
 0.1192552634424E+00 -0.3624698763479E-02
 0.1443153307944E+00 -0.1345961808229E-01
 0.1730021652566E+00 -0.2543385560466E-01
 0.2050833523633E+00 -0.3935155287199E-01
 0.2403346961204E+00 -0.5508779697424E-01
 0.2785448290189E+00 -0.7256565059747E-01
 0.3195104676166E+00 -0.9173181897733E-01
 0.3630232393968E+00 -0.1125329844213E+00
 0.4088558434804E+00 -0.1348983535136E+00
 0.4567586501121E+00 -0.1587335574794E+00
 0.5064730796240E+00 -0.1839245213037E+00
 0.5577543032476E+00 -0.2103489575490E+00
 0.6104045637657E+00 -0.2378832724400E+00
 0.6642856131222E+00 -0.2663990168434E+00
 0.7193080727370E+00 -0.2957494933394E+00
 0.7753980869876E+00 -0.3257523600496E+00
 0.8324445037847E+00 -0.3561764521919E+00
 0.8902402228887E+00 -0.3867423821420E+00
 0.9947079309837E-01  0.2582294865307E-02
 0.1218628998824E+00 -0.5024622540779E-02
 0.1479685208742E+00 -0.1510562785388E-01
 0.1775938527680E+00 -0.2736658052120E-01
 0.2105307846227E+00 -0.4159984726289E-01
 0.2465719579844E+00 -0.5766557005545E-01
 0.2855167545782E+00 -0.7547032655072E-01
 0.3271680656386E+00 -0.9494489875841E-01
 0.3713215082766E+00 -0.1160234118225E+00
 0.4177541474402E+00 -0.1386284699203E+00
 0.4662222077378E+00 -0.1626653259743E+00
 0.5164734214915E+00 -0.1880238629296E+00
 0.5682688603482E+00 -0.2145853839345E+00
 0.6214125884692E+00 -0.2422261900281E+00
 0.6757619988259E+00 -0.2708130899229E+00
 0.7312156094579E+00 -0.3001915390450E+00
 0.7876794575085E+00 -0.3301710186342E+00
 0.8450162908445E+00 -0.3605170525348E+00
 0.9029938610089E+00 -0.3909582583638E+00
 0.1009172592601E+00  0.1401241599754E-02
 0.1245083894783E+00 -0.6387294866981E-02
 0.1516729696688E+00 -0.1669123299360E-01
 0.1822472618468E+00 -0.2921083430069E-01
 0.2160459903496E+00 -0.4372871316572E-01
 0.2528780203448E+00 -0.6009149349925E-01
 0.2925531381739E+00 -0.7819043694107E-01
 0.3348804031371E+00 -0.9794130029301E-01
 0.3796597427220E+00 -0.1192661422131E+00
 0.4266731519740E+00 -0.1420807834541E+00
 0.4756834667854E+00 -0.1662894933158E+00
 0.5264455751565E+00 -0.1917846732788E+00
 0.5787266162363E+00 -0.2184495252738E+00
 0.6323321083496E+00 -0.2461587112067E+00
 0.6871144145731E+00 -0.2747735401814E+00
 0.7429595832501E+00 -0.3041317563280E+00
 0.7997541106279E+00 -0.3340361595379E+00
 0.8573375152312E+00 -0.3642504428315E+00
 0.9154524586390E+00 -0.3945035725010E+00
 0.1023820077274E+00  0.2373201178853E-03
 0.1271843086890E+00 -0.7715136854620E-02
 0.1554188187338E+00 -0.1821841870539E-01
 0.1869503495379E+00 -0.3096888853117E-01
 0.2216153446118E+00 -0.4574057264867E-01
 0.2592380590804E+00 -0.6236805435208E-01
 0.2996382655794E+00 -0.8072847235058E-01
 0.3426311097145E+00 -0.1007234663086E+00
 0.3880210673878E+00 -0.1222634870671E+00
 0.4355955664530E+00 -0.1452574715561E+00
 0.4851247288300E+00 -0.1696079333436E+00
 0.5363712399211E+00 -0.1952084642153E+00
 0.5891084018512E+00 -0.2219426585901E+00
 0.6431428898602E+00 -0.2496823708304E+00
 0.6983216307026E+00 -0.2782829020245E+00
 0.7545181874150E+00 -0.3075746454704E+00
 0.8116005906206E+00 -0.3373546154699E+00
 0.8693864820283E+00 -0.3673837740143E+00
 0.9275956939498E+00 -0.3973935223128E+00
 0.1038611398349E+00 -0.9104703564421E-03
 0.1298834796004E+00 -0.9009761099131E-02
 0.1591963249097E+00 -0.1968925713614E-01
 0.1916913395878E+00 -0.3264305122419E-01
 0.2272254702874E+00 -0.4763805288659E-01
 0.2656375047567E+00 -0.6449812219591E-01
 0.3067566805515E+00 -0.8308747956008E-01
 0.3504040706626E+00 -0.1032945512560E+00
 0.3963888640368E+00 -0.1250186548451E+00
 0.4445043512978E+00 -0.1481617271071E+00
 0.4945285148942E+00 -0.1726237713538E+00
 0.5462323517555E+00 -0.1982983236031E+00
 0.5993953959334E+00 -0.2250680728406E+00
 0.6538252840593E+00 -0.2528011336986E+00
 0.7093633221845E+00 -0.2813464901437E+00
 0.7658708779089E+00 -0.3105274882220E+00
 0.8231984631557E+00 -0.3401356077631E+00
 0.8811434147408E+00 -0.3699296973297E+00
 0.9394054733994E+00 -0.3996444095200E+00
 0.1053510002066E+00 -0.2042958598579E-02
 0.1325989984960E+00 -0.1027257300032E-01
 0.1629960027058E+00 -0.2110569134180E-01
 0.1964587248077E+00 -0.3423574965963E-01
 0.2328632969074E+00 -0.4942401880319E-01
 0.2720621005265E+00 -0.6648497348741E-01
 0.3138932461103E+00 -0.8527108088984E-01
 0.3581834954416E+00 -0.1056584574391E+00
 0.4047468429185E+00 -0.1275357637901E+00
 0.4533827961470E+00 -0.1507978361138E+00
 0.5038776853579E+00 -0.1753414556733E+00
 0.5560112434836E+00 -0.2010589710117E+00
 0.6095693135973E+00 -0.2278310375493E+00
 0.6643604021716E+00 -0.2555212786835E+00
 0.7202202024054E+00 -0.2839721460829E+00
 0.7769983089505E+00 -0.3130001121341E+00
 0.8345287523003E+00 -0.3423915280346E+00
 0.8925902958285E+00 -0.3719036681589E+00
 0.9508652350016E+00 -0.4012746583781E+00
 0.1068481136009E+00 -0.3160939732813E-02
 0.1353242247103E+00 -0.1150488174636E-01
 0.1668086571689E+00 -0.2246964086540E-01
 0.2012413080651E+00 -0.3574951774547E-01
 0.2385160826245E+00 -0.5110160223685E-01
 0.2784979318177E+00 -0.6833230358154E-01
 0.3210331716809E+00 -0.8728348411603E-01
 0.3659539427075E+00 -0.1078198396359E+00
 0.4130790666311E+00 -0.1298198566672E+00
 0.4622145516718E+00 -0.1531711981235E+00
 0.5131554896854E+00 -0.1777667762346E+00
 0.5656907132219E+00 -0.2034967362267E+00
 0.6196124752342E+00 -0.2302387183464E+00
 0.6747301597763E+00 -0.2578512314937E+00
 0.7308739918405E+00 -0.2861700198126E+00
 0.7878823384745E+00 -0.3150048668612E+00
 0.8455738814502E+00 -0.3441373691010E+00
 0.9037105752374E+00 -0.3733235711532E+00
 0.9619596360799E+00 -0.4023048060855E+00
 0.1083491540277E+00 -0.4265215539245E-02
 0.1380527765084E+00 -0.1270798616174E-01
 0.1706254158274E+00 -0.2378306163079E-01
 0.2060282545706E+00 -0.3718703754227E-01
 0.2441714784095E+00 -0.5267422493423E-01
 0.2849315000941E+00 -0.7004425492009E-01
 0.3281621001676E+00 -0.8912950752807E-01
 0.3737004197500E+00 -0.1097841331951E+00
 0.4213700652651E+00 -0.1318769333733E+00
 0.4709837659908E+00 -0.1552883615503E+00
 0.5223457291866E+00 -0.1799068871666E+00
 0.5752542091127E+00 -0.2056195487579E+00
 0.6295079995701E+00 -0.2323001143466E+00
 0.6849174539165E+00 -0.2598014497449E+00
 0.7413075852290E+00 -0.2879524622611E+00
 0.7985061803980E+00 -0.3165564230284E+00
 0.8563177609910E+00 -0.3453904644172E+00
 0.9144891823489E+00 -0.3742095219061E+00
 0.9726746458809E+00 -0.4027576263605E+00
 0.1098509294146E+00 -0.5356616442799E-02
 0.1407785257132E+00 -0.1388321755970E-01
 0.1744377418285E+00 -0.2504798967734E-01
 0.2108091188809E+00 -0.3855116677024E-01
 0.2498175614015E+00 -0.5414561479863E-01
 0.2913497594564E+00 -0.7162542533155E-01
 0.3352661469786E+00 -0.9081458448428E-01
 0.3814084247044E+00 -0.1115575545243E+00
 0.4296048832410E+00 -0.1337139475180E+00
 0.4796751387753E+00 -0.1571570108094E+00
 0.5314328188770E+00 -0.1817702730744E+00
 0.5846858929627E+00 -0.2074368690138E+00
 0.6392398563766E+00 -0.2340259455979E+00
 0.6949061950351E+00 -0.2613842779461E+00
 0.7515050572956E+00 -0.2893338420000E+00
 0.8088543718073E+00 -0.3176715488287E+00
 0.8667457020284E+00 -0.3461702547730E+00
 0.9249124181546E+00 -0.3745837348424E+00
 0.9829975038700E+00 -0.4026581008200E+00
 0.1113503771102E+00 -0.6436013321983E-02
 0.1434956022007E+00 -0.1503196761257E-01
 0.1782374548571E+00 -0.2626657328447E-01
 0.2155738823136E+00 -0.3984496586861E-01
 0.2554428855347E+00 -0.5551982488600E-01
 0.2977401778245E+00 -0.7308088121418E-01
 0.3423319710694E+00 -0.9234477212696E-01
 0.3890640278624E+00 -0.1131471055938E+00
 0.4377691719681E+00 -0.1353388043273E+00
 0.4882740260402E+00 -0.1587859520367E+00
 0.5404019031015E+00 -0.1833667134135E+00
 0.5939707605523E+00 -0.2089596221733E+00
 0.6487929829937E+00 -0.2354285535799E+00
 0.7046814119048E+00 -0.2626138147929E+00
 0.7614517489648E+00 -0.2903303810176E+00
 0.8189128331438E+00 -0.3183689234422E+00
 0.8768444539980E+00 -0.3464981197334E+00
 0.9349680002043E+00 -0.3744704141616E+00
 0.9929168183311E+00 -0.4020333525815E+00
 0.1128445639147E+00 -0.7504323611943E-02
 0.1461983991881E+00 -0.1615570434065E-01
 0.1820167463057E+00 -0.2744109295700E-01
 0.2203129786646E+00 -0.4107171489209E-01
 0.2610365157455E+00 -0.5680124359259E-01
 0.3040907772844E+00 -0.7441616022624E-01
 0.3493468200562E+00 -0.9372674664259E-01
 0.3966539210991E+00 -0.1145605607094E+00
 0.4458492434119E+00 -0.1367603360762E+00
 0.4967664971327E+00 -0.1601850720692E+00
 0.5492389133712E+00 -0.1847072184514E+00
 0.6030946948149E+00 -0.2102001058920E+00
 0.6581533261665E+00 -0.2365217785184E+00
 0.7142292757376E+00 -0.2635057612783E+00
 0.7711342686674E+00 -0.2909599788298E+00
 0.8286688460557E+00 -0.3186689530995E+00
 0.8866021699094E+00 -0.3463972121524E+00
 0.9446450385894E+00 -0.3738956288426E+00
 0.1002422571250E+01 -0.4009125320626E+00
 0.1143306902021E+00 -0.8562514918186E-02
 0.1488815836726E+00 -0.1725598257621E-01
 0.1857681994929E+00 -0.2857397557362E-01
 0.2250173254930E+00 -0.4223492650224E-01
 0.2665880695031E+00 -0.5799460280174E-01
 0.3103901843136E+00 -0.7563727266166E-01
 0.3562985878975E+00 -0.9496779659075E-01
 0.4041654821956E+00 -0.1158064499840E+00
 0.4538321402537E+00 -0.1379882726382E+00
 0.5051394092891E+00 -0.1613652917572E+00
 0.5579306445143E+00 -0.1858039606235E+00
 0.6120445388885E+00 -0.2111718961567E+00
 0.6673079067227E+00 -0.2373208385549E+00
 0.7235371517749E+00 -0.2640772750588E+00
 0.7805405284529E+00 -0.2912420487945E+00
 0.8381110771560E+00 -0.3185936023616E+00
 0.8960084292066E+00 -0.3458922998342E+00
 0.9539340759492E+00 -0.3728871684729E+00
 0.1011506168809E+01 -0.3993266764513E+00
 0.1158060959255E+00 -0.9611606805118E-02
 0.1515401083730E+00 -0.1833445000143E-01
 0.1894848096115E+00 -0.2966780281226E-01
 0.2296783530094E+00 -0.4333835321267E-01
 0.2720877540549E+00 -0.5910498049051E-01
 0.3166276740382E+00 -0.7675069678138E-01
 0.3631758647798E+00 -0.9607580879724E-01
 0.4115868290925E+00 -0.1168940334173E+00
 0.4617056931258E+00 -0.1390332007777E+00
 0.5133804659389E+00 -0.1623385070183E+00
 0.5664648112033E+00 -0.1866701940396E+00
 0.6208081468583E+00 -0.2118897430997E+00
 0.6762448604546E+00 -0.2378422017529E+00
 0.7325936273067E+00 -0.2643468214284E+00
 0.7896597590342E+00 -0.2911973545233E+00
 0.8472295849971E+00 -0.3181662253308E+00
 0.9050542475424E+00 -0.3450095989095E+00
 0.9628271114301E+00 -0.3714743766538E+00
 0.1020160488000E+01 -0.3973085584078E+00
 0.1172682678314E+00 -0.1065267154695E-01
 0.1541692249739E+00 -0.1939285034542E-01
 0.1931600041034E+00 -0.3072531560505E-01
 0.2342880320888E+00 -0.4438599035393E-01
 0.2775264014914E+00 -0.6013779901132E-01
 0.3227932110667E+00 -0.7776336945343E-01
 0.3699679822383E+00 -0.9705924866466E-01
 0.4189068677637E+00 -0.1178332682142E+00
 0.4694585695351E+00 -0.1399065157148E+00
 0.5214782645968E+00 -0.1631175219383E+00
 0.5748300921538E+00 -0.1873201668750E+00
 0.6293744209792E+00 -0.2123694615694E+00
 0.6849534654273E+00 -0.2381034554937E+00
 0.7413885275415E+00 -0.2643340244815E+00
 0.7984825155658E+00 -0.2908478480115E+00
 0.8560158212319E+00 -0.3174113965355E+00
 0.9137320823163E+00 -0.3437766000150E+00
 0.9713176216627E+00 -0.3696879727589E+00
 0.1028379923083E+01 -0.3948924997631E+00
 0.1187148473882E+00 -0.1168683426291E-01
 0.1567644982884E+00 -0.2043302468284E-01
 0.1967876634526E+00 -0.3174941573810E-01
 0.2388389017480E+00 -0.4538207573835E-01
 0.2828955021490E+00 -0.6109881985965E-01
 0.3288774874786E+00 -0.7868267293282E-01
 0.3766650541467E+00 -0.9792713600720E-01
 0.4261153345151E+00 -0.1186347709083E+00
 0.4770803156366E+00 -0.1406203670278E+00
 0.5294223360542E+00 -0.1637159763553E+00
 0.5830161643832E+00 -0.1877690291987E+00
 0.6377333384349E+00 -0.2126278188226E+00
 0.6934241592971E+00 -0.2381231750773E+00
 0.7499129230711E+00 -0.2640595192450E+00
 0.8070006774020E+00 -0.2902165089863E+00
 0.8644626279140E+00 -0.3163547404881E+00
 0.9220358354909E+00 -0.3422218885915E+00
 0.9794005787120E+00 -0.3675598591115E+00
 0.1036160425717E+01 -0.3921141549670E+00
 0.1201436391910E+00 -0.1271527275273E-01
 0.1593218213601E+00 -0.2145691159077E-01
 0.2003621429627E+00 -0.3274316561017E-01
 0.2433240972783E+00 -0.4633108709436E-01
 0.2881872381427E+00 -0.6199413599271E-01
 0.3348719603269E+00 -0.7951641892949E-01
 0.3832580165441E+00 -0.9868901778361E-01
 0.4332028363896E+00 -0.1193097759841E+00
 0.4845613953930E+00 -0.1411876008871E+00
 0.5372031803873E+00 -0.1641482700674E+00
 0.5910137340914E+00 -0.1880327382675E+00
 0.6458759751778E+00 -0.2126824209408E+00
 0.7016485549626E+00 -0.2379207923342E+00
 0.7581591376344E+00 -0.2635448044700E+00
 0.8152074503828E+00 -0.2893271840542E+00
 0.8725642390600E+00 -0.3150227581887E+00
 0.9299608611314E+00 -0.3403749567897E+00
 0.9870724709913E+00 -0.3651229113945E+00
 0.1043499545284E+01 -0.3890102702598E+00
 0.1215526193388E+00 -0.1373921706755E-01
 0.1618374303938E+00 -0.2246654631059E-01
 0.2038782937007E+00 -0.3370978632313E-01
 0.2477373763317E+00 -0.4723773735052E-01
 0.2933945132348E+00 -0.6283016164238E-01
 0.3407688836104E+00 -0.8027282982426E-01
 0.3897386599190E+00 -0.9935493760946E-01
 0.4401608819697E+00 -0.1198700909848E+00
 0.4918932181370E+00 -0.1416216987361E+00
 0.5448122895869E+00 -0.1644294838604E+00
 0.5988145527795E+00 -0.1881279614660E+00
 0.6537945142089E+00 -0.2125515980315E+00
 0.7096194404895E+00 -0.2375164641410E+00
 0.7661207404779E+00 -0.2628120959345E+00
 0.8230973541173E+00 -0.2882044259502E+00
 0.8803162670829E+00 -0.3134426519303E+00
 0.9375039564441E+00 -0.3382660102906E+00
 0.9943313047500E+00 -0.3624107599123E+00
 0.1050396447489E+01 -0.3856184303369E+00
 0.1229399437997E+00 -0.1475994905604E-01
 0.1643079198757E+00 -0.2346405948100E-01
 0.2073314835248E+00 -0.3465265498844E-01
 0.2520731445616E+00 -0.4810696890641E-01
 0.2985109813835E+00 -0.6361362097255E-01
 0.3465613378446E+00 -0.8096051860724E-01
 0.3960996579364E+00 -0.9993540388221E-01
 0.4469819075015E+00 -0.1203280502128E+00
 0.4990681604879E+00 -0.1419367147452E+00
 0.5522421638511E+00 -0.1645752997719E+00
 0.6064114267361E+00 -0.1880719792126E+00
 0.6614822474279E+00 -0.2122542902226E+00
 0.7173307732711E+00 -0.2369309423550E+00
 0.7737925338695E+00 -0.2618841812141E+00
 0.8306662051782E+00 -0.2868733333934E+00
 0.8877156851614E+00 -0.3116421486952E+00
 0.9446633474813E+00 -0.3359257707450E+00
 0.1001176597704E+01 -0.3594575632154E+00
 0.1056851922396E+01 -0.3819767934763E+00
 0.1243039566325E+00 -0.1577880197009E-01
 0.1667302576546E+00 -0.2445167570352E-01
 0.2107176178924E+00 -0.3557530168586E-01
 0.2563264804026E+00 -0.4894394745943E-01
 0.3035310734054E+00 -0.6435153624342E-01
 0.3522432564898E+00 -0.8158846828477E-01
 0.4023345916841E+00 -0.1004413573603E+00
 0.4536592972686E+00 -0.1206964679580E+00
 0.5060795814342E+00 -0.1421472130413E+00
 0.5594863202529E+00 -0.1646019215924E+00
 0.6137982184795E+00 -0.1878825887310E+00
 0.6689335694325E+00 -0.2118099351619E+00
 0.7247776664578E+00 -0.2361854456655E+00
 0.7811705333244E+00 -0.2607842763074E+00
 0.8379110932003E+00 -0.2853593920780E+00
 0.8947608019455E+00 -0.3096493233272E+00
 0.9514386655082E+00 -0.3333852760904E+00
 0.1007609360483E+01 -0.3562977777105E+00
 0.1062868377244E+01 -0.3781238207528E+00
 0.1256431980314E+00 -0.1679716023426E-01
 0.1691017999732E+00 -0.2543171222426E-01
 0.2140331604750E+00 -0.3648140656565E-01
 0.2604931590533E+00 -0.4975405605843E-01
 0.3084500218331E+00 -0.6505121629374E-01
 0.3578094493270E+00 -0.8216601167960E-01
 0.4084379695679E+00 -0.1008841392224E+00
 0.4601873984081E+00 -0.1209885923714E+00
 0.5129218308668E+00 -0.1422682058838E+00
 0.5665392941577E+00 -0.1645259967661E+00
 0.6209698405856E+00 -0.1875780097661E+00
 0.6761439636644E+00 -0.2112383579523E+00
 0.7319563679292E+00 -0.2353015341365E+00
 0.7882519405995E+00 -0.2595358848114E+00
 0.8448303496865E+00 -0.2836883176386E+00
 0.9014512282163E+00 -0.3074924228201E+00
 0.9578309133955E+00 -0.3306756810977E+00
 0.1013632065278E+01 -0.3529659259067E+00
 0.1068449812834E+01 -0.3740980031831E+00
 0.1269564122032E+00 -0.1781645947838E-01
 0.1714203065098E+00 -0.2640657800525E-01
 0.2172751536857E+00 -0.3737479757646E-01
 0.2645696757807E+00 -0.5054289005409E-01
 0.3132638840839E+00 -0.6572024615342E-01
 0.3632556229064E+00 -0.8270281254033E-01
 0.4144052429981E+00 -0.1012754606010E+00
 0.4665615303615E+00 -0.1212180610340E+00
 0.5195902518193E+00 -0.1423150938708E+00
 0.5733966337046E+00 -0.1643645407694E+00
 0.6279222422253E+00 -0.1871767932677E+00
 0.6831099811681E+00 -0.2105596644568E+00
 0.7388642319333E+00 -0.2343009872827E+00
 0.7950351094030E+00 -0.2581626604813E+00
 0.8514235093063E+00 -0.2818859015922E+00
 0.9077878351975E+00 -0.3051996931346E+00
 0.9638424218182E+00 -0.3278280603595E+00
 0.1019248600604E+01 -0.3494963670001E+00
 0.1073601782567E+01 -0.3699375855783E+00
 0.1282425551415E+00 -0.1883818693959E-01
 0.1736839555915E+00 -0.2737877347148E-01
 0.2204412393528E+00 -0.3825944932354E-01
 0.2685532688209E+00 -0.5131625364438E-01
 0.3179695642394E+00 -0.6636647862338E-01
 0.3685783983944E+00 -0.8320884888136E-01
 0.4202328182588E+00 -0.1016273745602E+00
 0.4727779894428E+00 -0.1213988592204E+00
 0.5260811769996E+00 -0.1423036091837E+00
 0.5800548880165E+00 -0.1641348649645E+00
 0.6346523891107E+00 -0.1866977340028E+00
 0.6898292126187E+00 -0.2097941388699E+00
 0.7454996839545E+00 -0.2332056865195E+00
 0.8015195042638E+00 -0.2566882740002E+00
 0.8576912640674E+00 -0.2799778611854E+00
 0.9137727049470E+00 -0.3027992097632E+00
 0.9694767957751E+00 -0.3248732151793E+00
 0.1024464212749E+01 -0.3459230721368E+00
 0.1078331327270E+01 -0.3656802860259E+00
 0.1295008023967E+00 -0.1986388234216E-01
 0.1758913597915E+00 -0.2835089122486E-01
 0.2235296798013E+00 -0.3913948357197E-01
 0.2724419421210E+00 -0.5208015872127E-01
 0.3225648336354E+00 -0.6699802865222E-01
 0.3737753269907E+00 -0.8369439944163E-01
 0.4259180647273E+00 -0.1019522514226E+00
 0.4788340487200E+00 -0.1215452817620E+00
 0.5323919198469E+00 -0.1422497627827E+00
 0.5865115893892E+00 -0.1638545088527E+00
 0.6411582370622E+00 -0.1861597880358E+00
 0.6963002537311E+00 -0.2089621465115E+00
 0.7518621787659E+00 -0.2320375029452E+00
 0.8077056523761E+00 -0.2551362849471E+00
 0.8636354101206E+00 -0.2779896942369E+00
 0.9194090726579E+00 -0.3003187133432E+00
 0.9747388513442E+00 -0.3218414860105E+00
 0.1029285433367E+01 -0.3422794042546E+00
 0.1082646882422E+01 -0.3613630191276E+00
 0.1307305569944E+00 -0.2089513937868E-01
 0.1780415822211E+00 -0.2932561804945E-01
 0.2265393797158E+00 -0.4001917195915E-01
 0.2762344882680E+00 -0.5284082677743E-01
 0.3270483505465E+00 -0.6762327137643E-01
 0.3788449031498E+00 -0.8417003415703E-01
 0.4314593196753E+00 -0.1022627583225E+00
 0.4847279534768E+00 -0.1216718993648E+00
 0.5385207604321E+00 -0.1421697964040E+00
 0.5927652298081E+00 -0.1635411776130E+00
 0.6474386995186E+00 -0.1855819960275E+00
 0.7025226642649E+00 -0.2080840428610E+00
 0.7579521517338E+00 -0.2308181915323E+00
 0.8135950883558E+00 -0.2535300200693E+00
 0.8692587871111E+00 -0.2759465401094E+00
 0.9247012609161E+00 -0.2977854515486E+00
 0.9796345428919E+00 -0.3187625718369E+00
 0.1033719992971E+01 -0.3385979059161E+00
 0.1086558165121E+01 -0.3570216397275E+00
 0.1319314577168E+00 -0.2193360794130E-01
 0.1801341539491E+00 -0.3030573858896E-01
 0.2294699093056E+00 -0.4090294156359E-01
 0.2799305121103E+00 -0.5360469471595E-01
 0.3314196794191E+00 -0.6825084475028E-01
 0.3837865760375E+00 -0.8464660955645E-01
 0.4368558901152E+00 -0.1025718438264E+00
 0.4904589128072E+00 -0.1217935301508E+00
 0.5444669268699E+00 -0.1420801401008E+00
 0.5988152325515E+00 -0.1632126857059E+00
 0.6534936097789E+00 -0.1849834132271E+00
 0.7084969213582E+00 -0.2071800898218E+00
 0.7637709639753E+00 -0.2295692927886E+00
 0.8191902923912E+00 -0.2518924589037E+00
 0.8745652105555E+00 -0.2738730477593E+00
 0.9296546065903E+00 -0.2952260281269E+00
 0.9841708817830E+00 -0.3156653578084E+00
 0.1037776723173E+01 -0.3349101005575E+00
 0.1090076046602E+01 -0.3526907090910E+00
 0.1331033880232E+00 -0.2298099727574E-01
 0.1821690930785E+00 -0.3129414113821E-01
 0.2323215293686E+00 -0.4179538406474E-01
 0.2835304555807E+00 -0.5437842549185E-01
 0.3356793100288E+00 -0.6888965774352E-01
 0.3886007595033E+00 -0.8513526999178E-01
 0.4421080519518E+00 -0.1028927284065E+00
 0.4960270876563E+00 -0.1219252170939E+00
 0.5502305726440E+00 -0.1419973759544E+00
 0.6046619193679E+00 -0.1628869072265E+00
 0.6593236784793E+00 -0.1843830470084E+00
 0.7142243675940E+00 -0.2062703802853E+00
 0.7693208415796E+00 -0.2283120431230E+00
 0.8244946217948E+00 -0.2502461280139E+00
 0.8795593971829E+00 -0.2717932520103E+00
 0.9342753805210E+00 -0.2926662601189E+00
 0.9883558476389E+00 -0.3125777529042E+00
 0.1041465450613E+01 -0.3312463091924E+00
 0.1093212411575E+01 -0.3484032815053E+00
 0.1342464859732E+00 -0.2403908027228E-01
 0.1841469261559E+00 -0.3229382609227E-01
 0.2350952189862E+00 -0.4270126937350E-01
 0.2870356243295E+00 -0.5516892465712E-01
 0.3398286769969E+00 -0.6954890518553E-01
 0.3932888408789E+00 -0.8564745564664E-01
 0.4472170467249E+00 -0.1032389015166E+00
 0.5014335756607E+00 -0.1220822119256E+00
 0.5558127503365E+00 -0.1419382084354E+00
 0.6103064738593E+00 -0.1625817335431E+00
 0.6649304470142E+00 -0.1837998027099E+00
 0.7197071544416E+00 -0.2053747720818E+00
 0.7746048093124E+00 -0.2270672952803E+00
 0.8295122361078E+00 -0.2486130052634E+00
 0.8842468832627E+00 -0.2697304592913E+00
 0.9385707003073E+00 -0.2901310442988E+00
 0.9921982934913E+00 -0.3095265384413E+00
 0.1044796885012E+01 -0.3276354824132E+00
 0.1095980007366E+01 -0.3441907124467E+00
 0.1353611556419E+00 -0.2510969915640E-01
 0.1860687127615E+00 -0.3330791771504E-01
 0.2377927066889E+00 -0.4362556478363E-01
 0.2904482167411E+00 -0.5598336404530E-01
 0.3438701799070E+00 -0.7023809044442E-01
 0.3978531885795E+00 -0.8619491830987E-01
 0.4521850757676E+00 -0.1036241260028E+00
 0.5066803925801E+00 -0.1222799660150E+00
 0.5612153816124E+00 -0.1419194418036E+00
 0.6157509010299E+00 -0.1623150386758E+00
 0.6703162369335E+00 -0.1832524385663E+00
 0.7249481810063E+00 -0.2045128326680E+00
 0.7796266184066E+00 -0.2258554507484E+00
 0.8342480149231E+00 -0.2470144362777E+00
 0.8886339348284E+00 -0.2677071448880E+00
 0.9425484353423E+00 -0.2876442345850E+00
 0.9957078448336E+00 -0.3065372285287E+00
 0.1047782502986E+01 -0.3241050484331E+00
 0.1098392286159E+01 -0.3400824917685E+00
 0.1364480805989E+00 -0.2619477298518E-01
 0.1879360743834E+00 -0.3433968021259E-01
 0.2404165063788E+00 -0.4457346111171E-01
 0.2937713566239E+00 -0.5682921422251E-01
 0.3478072053637E+00 -0.7096705739945E-01
 0.4022971600695E+00 -0.8678974600155E-01
 0.4570152937522E+00 -0.1040624504937E+00
 0.5117704528513E+00 -0.1225341284287E+00
 0.5664412266516E+00 -0.1419579643496E+00
 0.6209979869252E+00 -0.1621046519518E+00
 0.6754840999399E+00 -0.1827595292813E+00
 0.7299510331664E+00 -0.2037037944480E+00
 0.7843906735162E+00 -0.2246964044225E+00
 0.8387074731267E+00 -0.2454710631802E+00
 0.8927274541888E+00 -0.2657448606954E+00
 0.9462171085906E+00 -0.2852285279416E+00
 0.9988947976441E+00 -0.3036339383505E+00
 0.1050434434049E+01 -0.3206807710444E+00
 0.1100463249767E+01 -0.3361060946247E+00
 0.1375082403402E+00 -0.2729630733544E-01
 0.1897512288203E+00 -0.3539253914093E-01
 0.2429699588090E+00 -0.4555040737471E-01
 0.2970091294409E+00 -0.5771428737342E-01
 0.3516441497943E+00 -0.7174603314499E-01
 0.4066251080096E+00 -0.8744439752223E-01
 0.4617117985939E+00 -0.1045682305190E+00
 0.5167075455181E+00 -0.1228605517077E+00
 0.5714938487143E+00 -0.1420707399129E+00
 0.6260512536648E+00 -0.1619683384583E+00
 0.6804377635899E+00 -0.1823394393318E+00
 0.7347199179205E+00 -0.2029665231791E+00
 0.7889019529194E+00 -0.2236095059563E+00
 0.8428966663729E+00 -0.2440027716682E+00
 0.8965348744505E+00 -0.2638641596878E+00
 0.9495857869593E+00 -0.2829053645713E+00
 0.1001770008188E+01 -0.3008392676130E+00
 0.1052765343413E+01 -0.3173866256159E+00
 0.1102207295446E+01 -0.3322868561916E+00
 0.1385429308103E+00 -0.2841640690048E-01
 0.1915170319709E+00 -0.3647010987170E-01
 0.2454572804678E+00 -0.4656215640816E-01
 0.3001666236225E+00 -0.5864679303962E-01
 0.3553864443711E+00 -0.7258568334465E-01
 0.4108423861092E+00 -0.8817174816879E-01
 0.4662796196460E+00 -0.1051561589886E+00
 0.5214963080298E+00 -0.1232753054771E+00
 0.5763775769813E+00 -0.1422748062384E+00
 0.6309149138416E+00 -0.1619237862005E+00
 0.6851815777790E+00 -0.1820103044998E+00
 0.7392595991521E+00 -0.2023194985021E+00
 0.7931659285568E+00 -0.2226135385574E+00
 0.8468220924235E+00 -0.2426286586801E+00
 0.9000640460140E+00 -0.2620845381950E+00
 0.9526639641341E+00 -0.2806948386837E+00
 0.1004344780762E+01 -0.2981741938997E+00
 0.1054788317593E+01 -0.3142446930291E+00
 0.1103639069630E+01 -0.3286478590783E+00
 0.1395537905455E+00 -0.2955729194807E-01
 0.1932370291629E+00 -0.3757623543892E-01
 0.2478836215324E+00 -0.4761482451867E-01
 0.3032499777576E+00 -0.5963540960401E-01
 0.3590405821944E+00 -0.7349718232721E-01
 0.4149553545645E+00 -0.8898514782925E-01
 0.4707247041129E+00 -0.1058413065978E+00
 0.5261421979909E+00 -0.1237946980514E+00
 0.5810974679151E+00 -0.1425872799278E+00
 0.6355938248400E+00 -0.1619885989778E+00
 0.6897204633981E+00 -0.1817900197334E+00
 0.7435753375558E+00 -0.2017808049370E+00
 0.7971884894639E+00 -0.2217267163463E+00
 0.8504905905386E+00 -0.2413670259160E+00
 0.9033231138465E+00 -0.2604244019098E+00
 0.9554614324573E+00 -0.2786156196809E+00
 0.1006630754453E+01 -0.2956579653784E+00
 0.1056516759705E+01 -0.3112750757110E+00
 0.1104773323948E+01 -0.3252098597881E+00
 0.1405428345137E+00 -0.3072132008000E-01
 0.1949155186292E+00 -0.3871503723332E-01
 0.2502551345711E+00 -0.4871496947849E-01
 0.3062664341403E+00 -0.6068937523313E-01
 0.3626141475092E+00 -0.7449230034440E-01
 0.4189713847694E+00 -0.8989849271666E-01
 0.4750539016427E+00 -0.1066391726785E+00
 0.5306514631896E+00 -0.1244353062043E+00
 0.5856592656980E+00 -0.1430253679551E+00
 0.6400934437650E+00 -0.1621802941495E+00
 0.6940598645595E+00 -0.1816962306343E+00
 0.7476728381857E+00 -0.2013681290445E+00
 0.8009758745027E+00 -0.2209666986968E+00
 0.8539092442190E+00 -0.2402354052830E+00
 0.9063203850742E+00 -0.2589010667351E+00
 0.9579881376031E+00 -0.2766848865622E+00
 0.1008639784193E+01 -0.2933079778660E+00
 0.1057964310914E+01 -0.3084958029889E+00
 0.1105624792258E+01 -0.3219913306025E+00
 0.1415124996772E+00 -0.3191101535771E-01
 0.1965576317215E+00 -0.3989098334663E-01
 0.2525790565821E+00 -0.4986969237366E-01
 0.3092243986715E+00 -0.6181860228159E-01
 0.3661158448943E+00 -0.7558351007995E-01
 0.4228988597105E+00 -0.9092631148917E-01
 0.4792749422297E+00 -0.1075657467562E+00
 0.5350311037787E+00 -0.1252140134573E+00
 0.5900693542944E+00 -0.1436063867357E+00
 0.6444197738545E+00 -0.1625163072260E+00
 0.6982056938836E+00 -0.1817463291296E+00
 0.7515581961973E+00 -0.2010987600907E+00
 0.8045346094715E+00 -0.2203506199802E+00
 0.8570852847604E+00 -0.2392506298709E+00
 0.9090641768610E+00 -0.2575308262144E+00
 0.9602539926440E+00 -0.2749183044853E+00
 0.1010383793806E+01 -0.2911396348500E+00
 0.1059144793470E+01 -0.3059227033846E+00
 0.1106208171635E+01 -0.3190085770267E+00
 0.1424657060611E+00 -0.3312910898673E-01
 0.1981694330907E+00 -0.4110898394192E-01
 0.2548638052440E+00 -0.5108677263154E-01
 0.3121335071633E+00 -0.6303382160298E-01
 0.3695555299748E+00 -0.7678411545172E-01
 0.4267471746046E+00 -0.9208386718312E-01
 0.4833964153874E+00 -0.1086375809867E+00
 0.5392888380657E+00 -0.1261480560499E+00
 0.5943347157684E+00 -0.1443477870405E+00
 0.6485793195485E+00 -0.1630140008390E+00
 0.7021642885636E+00 -0.1819574500638E+00
 0.7552378600403E+00 -0.2009895784360E+00
 0.8078714767540E+00 -0.2198951067956E+00
 0.8600260357646E+00 -0.2384289301521E+00
 0.9115626781703E+00 -0.2563291044896E+00
 0.9622686552893E+00 -0.2733300641428E+00
 0.1011874586060E+01 -0.2891661476482E+00
 0.1060072194957E+01 -0.3035691343749E+00
 0.1106538240934E+01 -0.3162757890589E+00
 0.1434059438893E+00 -0.3437859902996E-01
 0.1997580500173E+00 -0.4237452635197E-01
 0.2571190922638E+00 -0.5237484799052E-01
 0.3150046957775E+00 -0.6434675994696E-01
 0.3729442364587E+00 -0.7810840327623E-01
 0.4305267292986E+00 -0.9338727392185E-01
 0.4874277384938E+00 -0.1098718732628E+00
 0.5434330558657E+00 -0.1272550763054E+00
 0.5984628755584E+00 -0.1452671858272E+00
 0.6525790273533E+00 -0.1636906828393E+00
 0.7059423507795E+00 -0.1823464780697E+00
 0.7587185761952E+00 -0.2010570496818E+00
 0.8109934841190E+00 -0.2196162589000E+00
 0.8627388931883E+00 -0.2377860409297E+00
 0.9138238328771E+00 -0.2553107531387E+00
 0.9640412239257E+00 -0.2719331460215E+00
 0.1013123512681E+01 -0.2873983241139E+00
 0.1060760641733E+01 -0.3014454657846E+00
 0.1106630174744E+01 -0.3138049499000E+00
 0.1443373989373E+00 -0.3566284139747E-01
 0.2013318334830E+00 -0.4369388499442E-01
 0.2593560464346E+00 -0.5374365283342E-01
 0.3178502694603E+00 -0.6577035981548E-01
 0.3762941985516E+00 -0.7957181610641E-01
 0.4342489188041E+00 -0.9485363329563E-01
 0.4913791250001E+00 -0.1112865621318E+00
 0.5474727763409E+00 -0.1285531829934E+00
 0.6024618572624E+00 -0.1463824021592E+00
 0.6564262409789E+00 -0.1645636285207E+00
 0.7095469032838E+00 -0.1829300622706E+00
 0.7620073489666E+00 -0.2013172205279E+00
 0.8139078367902E+00 -0.2195296113218E+00
 0.8652313886080E+00 -0.2373371041129E+00
 0.9158553770872E+00 -0.2544904930334E+00
 0.9655799111081E+00 -0.2707399807221E+00
 0.1014140871663E+01 -0.2858445347718E+00
 0.1061224257382E+01 -0.2995578530879E+00
 0.1106500163204E+01 -0.3116051743721E+00
 0.1452651472228E+00 -0.3698574743994E-01
 0.2029005629914E+00 -0.4507442686098E-01
 0.2615873421611E+00 -0.5520436364832E-01
 0.3206839594330E+00 -0.6731900250848E-01
 0.3796188719965E+00 -0.8119115672704E-01
 0.4379261111944E+00 -0.9650118499147E-01
 0.4952615378592E+00 -0.1129004319975E+00
 0.5514175882001E+00 -0.1300610160961E+00
 0.6063401199819E+00 -0.1477114943770E+00
 0.6601286395616E+00 -0.1656501082433E+00
 0.7129852285644E+00 -0.1837246451026E+00
 0.7651113717503E+00 -0.2017857476340E+00
 0.8166218807429E+00 -0.2196501144664E+00
 0.8675111518566E+00 -0.2370965619452E+00
 0.9176651729440E+00 -0.2538825493141E+00
 0.9668919459958E+00 -0.2697646192887E+00
 0.1014934667449E+01 -0.2845113216522E+00
 0.1061476456338E+01 -0.2979060963766E+00
 0.1106166605142E+01 -0.3096801425240E+00
 0.1461955111206E+00 -0.3835199051775E-01
 0.2044756748963E+00 -0.4652542679224E-01
 0.2638272491947E+00 -0.5676980180511E-01
 0.3235210027946E+00 -0.6900882447003E-01
 0.3829329380960E+00 -0.8298479870370E-01
 0.4415716251943E+00 -0.9834948374127E-01
 0.4990866359803E+00 -0.1147332367786E+00
 0.5552775879590E+00 -0.1317978071920E+00
 0.6101065029434E+00 -0.1492727996228E+00
 0.6636941881280E+00 -0.1669674100576E+00
 0.7162648268071E+00 -0.1847464919068E+00
 0.7680379833387E+00 -0.2024779458910E+00
 0.8191430238723E+00 -0.2199921682102E+00
 0.8695859020835E+00 -0.2370780354857E+00
 0.9192611484112E+00 -0.2535002633068E+00
 0.9679852091190E+00 -0.2690210907553E+00
 0.1015508802313E+01 -0.2834141732942E+00
 0.1061526194585E+01 -0.2964755466694E+00
 0.1105653129954E+01 -0.3080206048932E+00
 0.8753538021802E-01  0.3620946367055E-01
 0.1023484240098E+00  0.4371580490330E-01
 0.1247366056085E+00  0.5030972457697E-01
 0.1534248594516E+00  0.5527288274931E-01
 0.1873412306892E+00  0.5837347169228E-01
 0.2256836215496E+00  0.5954367291465E-01
 0.2678945211583E+00  0.5878129519404E-01
 0.3136113554926E+00  0.5618671251920E-01
 0.3626569331735E+00  0.5190851240620E-01
 0.4150570289322E+00  0.4607957139516E-01
 0.4710174623392E+00  0.3894864251675E-01
 0.5308431171280E+00  0.3109182329822E-01
 0.5956524741476E+00  0.1957066276979E-01
 0.6666822477116E+00  0.2162292719142E-03
 0.7454122324134E+00 -0.3058826785286E-01
 0.8355875559987E+00 -0.7747834356331E-01
 0.9364586310929E+00 -0.1398868530306E+00
 0.1038934086661E+01 -0.2114550892552E+00
 0.1133771374964E+01 -0.2870713363009E+00
 0.8613442884272E-01  0.3326887448829E-01
 0.1007104365918E+00  0.3834865524708E-01
 0.1230145053781E+00  0.4293490855706E-01
 0.1515712013628E+00  0.4615014035076E-01
 0.1852796810435E+00  0.4767628518523E-01
 0.2233217560691E+00  0.4737669269908E-01
 0.2651253493822E+00  0.4518165439300E-01
 0.3103088344882E+00  0.4112014259915E-01
 0.3586671503375E+00  0.3527048390485E-01
 0.4101831533681E+00  0.2770038160939E-01
 0.4650060556700E+00  0.1856690214693E-01
 0.5234031535557E+00  0.8284080754984E-02
 0.5864386524334E+00 -0.6038690098524E-02
 0.6553367793779E+00 -0.2847557687199E-01
 0.7315652973971E+00 -0.6222812203516E-01
 0.8182675040888E+00 -0.1105929091671E+00
 0.9150692239802E+00 -0.1721035703707E+00
 0.1014653155330E+01 -0.2407388088470E+00
 0.1108693527361E+01 -0.3118638801950E+00
 0.8523596776716E-01  0.3074477670635E-01
 0.9953032079854E-01  0.3377834285336E-01
 0.1216660351977E+00  0.3640545580543E-01
 0.1500474636238E+00  0.3788836541532E-01
 0.1835255026688E+00  0.3783471539490E-01
 0.2212674809483E+00  0.3604614894367E-01
 0.2626877898019E+00  0.3239461832032E-01
 0.3073884517822E+00  0.2684428608553E-01
 0.3551408819411E+00  0.1940779908833E-01
 0.4058938634309E+00  0.1008763369002E-01
 0.4597553875505E+00 -0.1044855287149E-02
 0.5169641867722E+00 -0.1370580584129E-01
 0.5785533064867E+00 -0.3066086493349E-01
 0.6457402603791E+00 -0.5569428198194E-01
 0.7199242901240E+00 -0.9148159153385E-01
 0.8036756417457E+00 -0.1402886491943E+00
 0.8967588797565E+00 -0.2002647516784E+00
 0.9932728213438E+00 -0.2659463036129E+00
 0.1085920592269E+01 -0.3330562874065E+00
 0.8473924848399E-01  0.2849551056661E-01
 0.9878777711536E-01  0.2980502306831E-01
 0.1207108724056E+00  0.3063541725342E-01
 0.1488761636430E+00  0.3043424944110E-01
 0.1821040951803E+00  0.2881937066827E-01
 0.2195456884706E+00  0.2554589625891E-01
 0.2606041071971E+00  0.2043693490859E-01
 0.3048678694545E+00  0.1340010060845E-01
 0.3520896438695E+00  0.4388794207712E-02
 0.4021920380106E+00 -0.6652807351640E-02
 0.4552515987060E+00 -0.1972393178734E-01
 0.5114825148868E+00 -0.3464097380488E-01
 0.5718913098939E+00 -0.5397223403982E-01
 0.6376723445047E+00 -0.8111484603541E-01
 0.7101121226952E+00 -0.1182284273381E+00
 0.7912702122184E+00 -0.1668112382627E+00
 0.8809499655529E+00 -0.2248851636915E+00
 0.9743814995463E+00 -0.2875940559724E+00
 0.1065254754188E+01 -0.3510121020915E+00
 0.8456644043725E-01  0.2644289939485E-01
 0.9844178226664E-01  0.2629891671814E-01
 0.1201467523581E+00  0.2551699128410E-01
 0.1480715347766E+00  0.2372611998477E-01
 0.1810335040244E+00  0.2059466465067E-01
 0.2181750261588E+00  0.1586274312230E-01
 0.2588905795943E+00  0.9317273207554E-02
 0.3027584759354E+00  0.8189876143186E-03
 0.3495170607217E+00 -0.9729134910301E-02
 0.3990687329321E+00 -0.2243047868358E-01
 0.4514646375900E+00 -0.3733731570345E-01
 0.5068935422231E+00 -0.5433610626115E-01
 0.5663298726434E+00 -0.7575218799716E-01
 0.6309244143376E+00 -0.1045585215937E+00
 0.7018243527903E+00 -0.1424526578523E+00
 0.7806510442082E+00 -0.1903652900671E+00
 0.8672025162438E+00 -0.2463295582848E+00
 0.9576129279369E+00 -0.3060855243274E+00
 0.1046472067410E+01 -0.3660631260669E+00
 0.8465579091333E-01  0.2453987358344E-01
 0.9844782244667E-01  0.2316704404737E-01
 0.1199569190629E+00  0.2095616298798E-01
 0.1476358363860E+00  0.1769476764385E-01
 0.1803240284609E+00  0.1311874879146E-01
 0.2171674824682E+00  0.6976798625224E-02
 0.2575573696375E+00 -0.9635853103902E-03
 0.3010653761317E+00 -0.1087710000703E-01
 0.3474193902951E+00 -0.2290061024836E-01
 0.3965057735258E+00 -0.3717274829203E-01
 0.4483532437367E+00 -0.5378109270641E-01
 0.5031218492859E+00 -0.7265691065382E-01
 0.5617441423743E+00 -0.9585955870651E-01
 0.6253087281152E+00 -0.1259372287194E+00
 0.6948114885257E+00 -0.1641897727497E+00
 0.7715055452160E+00 -0.2111312222761E+00
 0.8551661213801E+00 -0.2648834516290E+00
 0.9426510978283E+00 -0.3217447308241E+00
 0.1029350876192E+01 -0.3785009340409E+00
 0.8495788675167E-01  0.2275519385068E-01
 0.9876262905202E-01  0.2034115778674E-01
 0.1201166713323E+00  0.1687402748624E-01
 0.1475610557820E+00  0.1227304153778E-01
 0.1799773691920E+00  0.6344906463190E-02
 0.2165281269192E+00 -0.1137997881666E-02
 0.2566083887455E+00 -0.1041242079080E-01
 0.2997875367487E+00 -0.2167567043442E-01
 0.3457863555968E+00 -0.3509286569732E-01
 0.3944778590941E+00 -0.5082526580468E-01
 0.4458692656574E+00 -0.6897983738128E-01
 0.5000880674476E+00 -0.8951318733270E-01
 0.5580141807963E+00 -0.1142126881065E+00
 0.6206589693209E+00 -0.1452213920716E+00
 0.6888652366826E+00 -0.1835048274989E+00
 0.7635808738996E+00 -0.2292745540082E+00
 0.8445542207700E+00 -0.2807839001245E+00
 0.9292240354031E+00 -0.3348408973633E+00
 0.1013683305778E+01 -0.3885794926909E+00
 0.8543271997530E-01  0.2106703798974E-01
 0.9934586756791E-01  0.1776968993272E-01
 0.1205972034014E+00  0.1320533889312E-01
 0.1478315001353E+00  0.7399146246149E-02
 0.1799872288408E+00  0.2249956220619E-03
 0.2162549633375E+00 -0.8512750032540E-02
 0.2560412851861E+00 -0.1904305777084E-01
 0.2989180455898E+00 -0.3157353294960E-01
 0.3446019762232E+00 -0.4628576306804E-01
 0.3929543972157E+00 -0.6335167923387E-01
 0.4439608363494E+00 -0.8288433365799E-01
 0.4977129594251E+00 -0.1048515148809E+00
 0.5550278548518E+00 -0.1307743390790E+00
 0.6168283063393E+00 -0.1624212008631E+00
 0.6838090486962E+00 -0.2004813894180E+00
 0.7566675746180E+00 -0.2449508300666E+00
 0.8351280654059E+00 -0.2942362081787E+00
 0.9170970971681E+00 -0.3456040155500E+00
 0.9992787779496E+00 -0.3965215575284E+00
 0.8604756541528E-01  0.1945956666424E-01
 0.1001605874199E+00  0.1541284544124E-01
 0.1213678872995E+00  0.9896156920685E-02
 0.1484260463160E+00  0.3017695019493E-02
 0.1803405258014E+00 -0.5288323027811E-02
 0.2163393164516E+00 -0.1518191610927E-01
 0.2558476051568E+00 -0.2687554233980E-01
 0.2984444603889E+00 -0.4057634314532E-01
 0.3438453578927E+00 -0.5647138406944E-01
 0.3919009723594E+00 -0.7473262398571E-01
 0.4425745294228E+00 -0.9546867532259E-01
 0.4959196790470E+00 -0.1186486555858E+00
 0.5526817536320E+00 -0.1455408943608E+00
 0.6136870257341E+00 -0.1775749157814E+00
 0.6794914804501E+00 -0.2152152690793E+00
 0.7505891326263E+00 -0.2583085250877E+00
 0.8266860325354E+00 -0.3054236810632E+00
 0.9060670907664E+00 -0.3542353420575E+00
 0.9859646858308E+00 -0.4025245100418E+00
 0.8677539925392E-01  0.1792094861943E-01
 0.1011731967138E+00  0.1323937572427E-01
 0.1223976257390E+00  0.6901705806395E-02
 0.1493198902713E+00 -0.9203785090181E-03
 0.1810187273690E+00 -0.1024031855384E-01
 0.2167665749615E+00 -0.2118186324236E-01
 0.2560132144105E+00 -0.3393507258840E-01
 0.2983492532599E+00 -0.4869785859802E-01
 0.3434914142089E+00 -0.6565323042676E-01
 0.3912804627614E+00 -0.8496426469387E-01
 0.4416567431247E+00 -0.1067272296232E+00
 0.4946349250209E+00 -0.1309060299926E+00
 0.5508811805052E+00 -0.1585345392259E+00
 0.6111202945749E+00 -0.1907412019944E+00
 0.6757814147998E+00 -0.2278106666208E+00
 0.7451949173539E+00 -0.2694908246806E+00
 0.8190561455475E+00 -0.3145137263798E+00
 0.8959574909596E+00 -0.3609145304835E+00
 0.9735858558178E+00 -0.4067651418730E+00
 0.8759370449074E-01  0.1644213810237E-01
 0.1023532472382E+00  0.1122438047993E-01
 0.1236556606073E+00  0.4184587237858E-02
 0.1504858570329E+00 -0.4458359360590E-02
 0.1819990924052E+00 -0.1467360735907E-01
 0.2175170973540E+00 -0.2654978942101E-01
 0.2565189220922E+00 -0.4025092847854E-01
 0.2986103586404E+00 -0.5595897723600E-01
 0.3435115260942E+00 -0.7384513105017E-01
 0.3910538710784E+00 -0.9405658859370E-01
 0.4411545491405E+00 -0.1166717205526E+00
 0.4937894442967E+00 -0.1416451625356E+00
 0.5495397243642E+00 -0.1697974895777E+00
 0.6090262057451E+00 -0.2019938691353E+00
 0.6725645336349E+00 -0.2383776471478E+00
 0.7403552048844E+00 -0.2786367599838E+00
 0.8120906470028E+00 -0.3216618133334E+00
 0.8866145874568E+00 -0.3658045644850E+00
 0.9620035325525E+00 -0.4094033688698E+00
 0.8848355643454E-01  0.1501607906100E-01
 0.1036731548070E+00  0.9347757164589E-02
 0.1251120550147E+00  0.1713338575728E-02
 0.1518953726052E+00 -0.7634439782168E-02
 0.1832557537073E+00 -0.1862798329746E-01
 0.2185671488641E+00 -0.3132298796728E-01
 0.2573412187561E+00 -0.4585551069113E-01
 0.2992017969058E+00 -0.6238668634377E-01
 0.3438741554123E+00 -0.8106997285198E-01
 0.3911809463358E+00 -0.1020315983510E+00
 0.4410161908926E+00 -0.1253285244983E+00
 0.4933181641970E+00 -0.1509039164739E+00
 0.5485786646925E+00 -0.1793876135938E+00
 0.6073141246226E+00 -0.2114181102196E+00
 0.6697406546527E+00 -0.2470303960387E+00
 0.7359575415578E+00 -0.2858819423353E+00
 0.8056619312361E+00 -0.3270141131902E+00
 0.8779043587311E+00 -0.3690552046624E+00
 0.9510941936404E+00 -0.4105850609073E+00
 0.8942891538043E-01  0.1363716561761E-01
 0.1051079102129E+00  0.7593077764601E-02
 0.1267379764672E+00 -0.5387194058592E-03
 0.1535191856298E+00 -0.1048241652542E-01
 0.1847606315393E+00 -0.2214047938205E-01
 0.2198897955721E+00 -0.3553837279825E-01
 0.2584530526534E+00 -0.5078352575457E-01
 0.3000943345514E+00 -0.6801301771114E-01
 0.3445454215484E+00 -0.8735836982513E-01
 0.3916206631583E+00 -0.1089215082936E+00
 0.4411913621907E+00 -0.1327362024869E+00
 0.4931601227914E+00 -0.1587333387928E+00
 0.5479263419196E+00 -0.1873750035090E+00
 0.6059033187476E+00 -0.2191076968194E+00
 0.6672216900445E+00 -0.2538859519347E+00
 0.7319040079011E+00 -0.2913590515393E+00
 0.7996593971682E+00 -0.3307093064640E+00
 0.8697098808593E+00 -0.3708054231845E+00
 0.9407483244091E+00 -0.4104441741435E+00
 0.9041607505387E-01  0.1230086480182E-01
 0.1066348052301E+00  0.5946757979118E-02
 0.1285058572228E+00 -0.2594401228510E-02
 0.1553279060448E+00 -0.1303233604346E-01
 0.1864841929143E+00 -0.2524554671429E-01
 0.2214557198511E+00 -0.3923218581691E-01
 0.2598245915971E+00 -0.5507131407560E-01
 0.3012561454183E+00 -0.7287406802510E-01
 0.3454896425297E+00 -0.9274735768327E-01
 0.3923316042881E+00 -0.1147670185016E+00
 0.4416313512027E+00 -0.1389432692088E+00
 0.4932582957169E+00 -0.1651949682820E+00
 0.5475175588272E+00 -0.1938391886522E+00
 0.6047218471567E+00 -0.2251627794228E+00
 0.6649300808425E+00 -0.2590632365623E+00
 0.7281091192611E+00 -0.2951981863216E+00
 0.7939869341043E+00 -0.3328798844141E+00
 0.8619291085266E+00 -0.3711851591933E+00
 0.9308691919315E+00 -0.4091043451072E+00
 0.9143322958916E-01  0.1100344721110E-01
 0.1082331835431E+00  0.4397433932756E-02
 0.1303894783658E+00 -0.4473388617046E-02
 0.1572924099358E+00 -0.1531106448500E-01
 0.1883960779612E+00 -0.2797528210194E-01
 0.2232339438401E+00 -0.4243982416654E-01
 0.2614239386809E+00 -0.5875630165704E-01
 0.3026534471836E+00 -0.7700911346945E-01
 0.3466698394142E+00 -0.9727917160928E-01
 0.3932722753782E+00 -0.1196157182879E+00
 0.4422890994057E+00 -0.1440061973705E+00
 0.4935593661577E+00 -0.1703585029101E+00
 0.5472930344076E+00 -0.1988667658148E+00
 0.6037056854078E+00 -0.2296880361528E+00
 0.6627976354288E+00 -0.2626822368494E+00
 0.7244982274790E+00 -0.2975271622730E+00
 0.7885608640648E+00 -0.3336532052770E+00
 0.8544728852215E+00 -0.3703166748540E+00
 0.9213715974189E+00 -0.4066800755227E+00
 0.9247013111649E-01  0.9741793346375E-02
 0.1098842195045E+00  0.2935492674792E-02
 0.1323640070297E+00 -0.6192812248371E-02
 0.1593841464298E+00 -0.1734277715398E-01
 0.1904656147851E+00 -0.3035966570460E-01
 0.2251924596596E+00 -0.4519574233842E-01
 0.2632177854402E+00 -0.6187655215800E-01
 0.3042510977405E+00 -0.8045982652043E-01
 0.3480482038655E+00 -0.1010001389933E+00
 0.3944013713529E+00 -0.1235206522383E+00
 0.4431192022368E+00 -0.1479876638351E+00
 0.4940134491215E+00 -0.1742997726292E+00
 0.5471988808580E+00 -0.2025493043835E+00
 0.6027980462871E+00 -0.2327909283543E+00
 0.6607647497580E+00 -0.2648631648272E+00
 0.7210064220014E+00 -0.2984717589935E+00
 0.7833082790575E+00 -0.3331525876691E+00
 0.8472630621968E+00 -0.3683158166511E+00
 0.9121805134948E+00 -0.4032776580299E+00
 0.9351781613519E-01  0.8513259720572E-02
 0.1115707243630E+00  0.1552721133980E-02
 0.1344060066810E+00 -0.7767708087409E-02
 0.1615753736463E+00 -0.1914937344788E-01
 0.1926622417595E+00 -0.3242678775213E-01
 0.2272987705477E+00 -0.4753340027956E-01
 0.2651719956017E+00 -0.6447039521758E-01
 0.3060131445820E+00 -0.8326958987918E-01
 0.3495865328210E+00 -0.1039596970710E+00
 0.3956780109962E+00 -0.1265390672399E+00
 0.4440778706770E+00 -0.1509550489464E+00
 0.4945737625771E+00 -0.1770990191100E+00
 0.5471860374558E+00 -0.2049814905947E+00
 0.6019487423328E+00 -0.2345799135101E+00
 0.6587800019701E+00 -0.2657251555386E+00
 0.7175780603799E+00 -0.2981557909885E+00
 0.7781659553143E+00 -0.3314986066658E+00
 0.8402306566124E+00 -0.3652938177120E+00
 0.9032294033757E+00 -0.3989960556864E+00
 0.9456838029949E-01  0.7315587311855E-02
 0.1132769791117E+00  0.2420710354145E-03
 0.1364934372352E+00 -0.9211380242681E-02
 0.1638393444749E+00 -0.2075081731897E-01
 0.1949558542027E+00 -0.3420306551612E-01
 0.2295203473599E+00 -0.4948523603793E-01
 0.2672521166385E+00 -0.6657611231876E-01
 0.3079033268473E+00 -0.8548288762533E-01
 0.3512466383870E+00 -0.1062095329202E+00
 0.3970619608607E+00 -0.1287313380704E+00
 0.4451228760744E+00 -0.1529792043668E+00
 0.4951962513069E+00 -0.1788395121929E+00
 0.5472095856273E+00 -0.2062596096427E+00
 0.6011133736651E+00 -0.2351627224468E+00
 0.6567996313286E+00 -0.2653842474902E+00
 0.7141673116508E+00 -0.2966994098935E+00
 0.7730804569842E+00 -0.3288110705178E+00
 0.8333143579323E+00 -0.3613603291061E+00
 0.8944577730544E+00 -0.3939289111587E+00
 0.9561479150415E-01  0.6146949734683E-02
 0.1149885953793E+00 -0.1002548924131E-02
 0.1386056573662E+00 -0.1053560178535E-01
 0.1661504721187E+00 -0.2216547606295E-01
 0.1973170782481E+00 -0.3571343312652E-01
 0.2318250077058E+00 -0.5108265896814E-01
 0.2694238169470E+00 -0.6823166306309E-01
 0.3098855236255E+00 -0.8714475535781E-01
 0.3529907566498E+00 -0.1078027944650E+00
 0.3985138732126E+00 -0.1301600934791E+00
 0.4462135114545E+00 -0.1541334663759E+00
 0.4958391944443E+00 -0.1796065479148E+00
 0.5472279578266E+00 -0.2064804959359E+00
 0.6002521486932E+00 -0.2346451501358E+00
 0.6547863395730E+00 -0.2639513595124E+00
 0.7107377596804E+00 -0.2942149900901E+00
 0.7680120126395E+00 -0.3252043931733E+00
 0.8264611707491E+00 -0.3566337683533E+00
 0.8858070510048E+00 -0.3881693954070E+00
 0.1494531626441E+00 -0.4147368025843E-01
 0.2105714515698E+00 -0.5024546617200E-01
 0.2728742837711E+00 -0.6129369666158E-01
 0.3353858706649E+00 -0.7446660233103E-01
 0.3973397751977E+00 -0.8940131059292E-01
 0.4581772379919E+00 -0.1056470232238E+00
 0.5175308168048E+00 -0.1227516561157E+00
 0.5752144878698E+00 -0.1403232802039E+00
 0.6312180026139E+00 -0.1580671381540E+00
 0.6856884508124E+00 -0.1757921554627E+00
 0.7388681407477E+00 -0.1933793881631E+00
 0.7909873767784E+00 -0.2107233078850E+00
 0.8421261841528E+00 -0.2276543621972E+00
 0.8922329802429E+00 -0.2439636330149E+00
 0.9411820441596E+00 -0.2594407856651E+00
 0.9887857943639E+00 -0.2738785817700E+00
 0.1034837080318E+01 -0.2870980989561E+00
 0.1079098178370E+01 -0.2989473469647E+00
 0.1121271095258E+01 -0.3093591831714E+00
 0.1518627613359E+00 -0.4324196478461E-01
 0.2152593266823E+00 -0.5257605706750E-01
 0.2799229261852E+00 -0.6437760565441E-01
 0.3447053834490E+00 -0.7843196046455E-01
 0.4087459044772E+00 -0.9429067211037E-01
 0.4714446807252E+00 -0.1114208832608E+00
 0.5324267684161E+00 -0.1293039137115E+00
 0.5915171212407E+00 -0.1475022734741E+00
 0.6487204265832E+00 -0.1656955109805E+00
 0.7041916313069E+00 -0.1836823213875E+00
 0.7581721091491E+00 -0.2013460044155E+00
 0.8108884920430E+00 -0.2185933794977E+00
 0.8623632897783E+00 -0.2352362160550E+00
 0.9124842643936E+00 -0.2510557864882E+00
 0.9611040280947E+00 -0.2658637356431E+00
 0.1008029131931E+01 -0.2794880808917E+00
 0.1053094034730E+01 -0.2918100977961E+00
 0.1096130769367E+01 -0.3027619931390E+00
 0.1136962381919E+01 -0.3123577205039E+00
 0.1543815193457E+00 -0.4509343106099E-01
 0.2201665003783E+00 -0.5507706306360E-01
 0.2872759905228E+00 -0.6775198486423E-01
 0.3543720331766E+00 -0.8281492605675E-01
 0.4204967779935E+00 -0.9971266058878E-01
 0.4850152844177E+00 -0.1178175503258E+00
 0.5475539913399E+00 -0.1365383871426E+00
 0.6079577176802E+00 -0.1553919619092E+00
 0.6662533382612E+00 -0.1740356542126E+00
 0.7226091398261E+00 -0.1922630869636E+00
 0.7772697890630E+00 -0.2099656333114E+00
 0.8304616452069E+00 -0.2270688628660E+00
 0.8821559146592E+00 -0.2433617658175E+00
 0.9321881024407E+00 -0.2586145559218E+00
 0.9803961878868E+00 -0.2726685992195E+00
 0.1026588864454E+01 -0.2853973513297E+00
 0.1070648249330E+01 -0.2967532260791E+00
 0.1112488337373E+01 -0.3067410893100E+00
 0.1151992770346E+01 -0.3153655082743E+00
 0.1570303928373E+00 -0.4704193827454E-01
 0.2253302368605E+00 -0.5778219961187E-01
 0.2949761349281E+00 -0.7147019188115E-01
 0.3644231032727E+00 -0.8768581782444E-01
 0.4326175121285E+00 -0.1057477851100E+00
 0.4988987949149E+00 -0.1249203586859E+00
 0.5629067499828E+00 -0.1445351071049E+00
 0.6245170807203E+00 -0.1640652151198E+00
 0.6837873646692E+00 -0.1831517435326E+00
 0.7409052394365E+00 -0.2015900733515E+00
 0.7961228899843E+00 -0.2192865751880E+00
 0.8496694137706E+00 -0.2361926708938E+00
 0.9014708082310E+00 -0.2520700990251E+00
 0.9513184006069E+00 -0.2666766785808E+00
 0.9990422128324E+00 -0.2798906083961E+00
 0.1044459234821E+01 -0.2916371912341E+00
 0.1087502091550E+01 -0.3019401390259E+00
 0.1128150419554E+01 -0.3108565585948E+00
 0.1166322954136E+01 -0.3184019114418E+00
 0.1598358469604E+00 -0.4910373643695E-01
 0.2307941177159E+00 -0.6073082774787E-01
 0.3030704424068E+00 -0.7559553701581E-01
 0.3748972539984E+00 -0.9312585826520E-01
 0.4451310886663E+00 -0.1124863198880E+00
 0.5131000213664E+00 -0.1328195991574E+00
 0.5784727611475E+00 -0.1533774702116E+00
 0.6411691465023E+00 -0.1735946563735E+00
 0.7012869961537E+00 -0.1931045567418E+00
 0.7590394890598E+00 -0.2117131190658E+00
 0.8146902120391E+00 -0.2293497627681E+00
 0.8684733971362E+00 -0.2459994298195E+00
 0.9202756081919E+00 -0.2613915849992E+00
 0.9698513206580E+00 -0.2752695200453E+00
 0.1017027519059E+01 -0.2875536694815E+00
 0.1061632906444E+01 -0.2982243053518E+00
 0.1103645812751E+01 -0.3073753122541E+00
 0.1143099879314E+01 -0.3151192723795E+00
 0.1179937849128E+01 -0.3214989950532E+00
 0.1628308128128E+00 -0.5129831327614E-01
 0.2366090458990E+00 -0.6397044100662E-01
 0.3116106788822E+00 -0.8020306716668E-01
 0.3858336231437E+00 -0.9922894357171E-01
 0.4580568392051E+00 -0.1200291202657E+00
 0.5276170903871E+00 -0.1416122008438E+00
 0.5942316251816E+00 -0.1631509061155E+00
 0.6578798251947E+00 -0.1840506936749E+00
 0.7187099319392E+00 -0.2039493500600E+00
 0.7769665531008E+00 -0.2226743411033E+00
 0.8329277848336E+00 -0.2401871915789E+00
 0.8868344525148E+00 -0.2565142326670E+00
 0.9385388172721E+00 -0.2713468493434E+00
 0.9877644822218E+00 -0.2844106675320E+00
 0.1034338198555E+01 -0.2956724630514E+00
 0.1078100757028E+01 -0.3051700019593E+00
 0.1119071130794E+01 -0.3130712529165E+00
 0.1157328979331E+01 -0.3195505975553E+00
 0.1192837207948E+01 -0.3246911721816E+00
 0.1660561131609E+00 -0.5364960622788E-01
 0.2428342866929E+00 -0.6755905137454E-01
 0.3206532261371E+00 -0.8538231865844E-01
 0.3972705894017E+00 -0.1061036053385E+00
 0.4714084641859E+00 -0.1284883192824E+00
 0.5424393592500E+00 -0.1514009576136E+00
 0.6101531208173E+00 -0.1739409812397E+00
 0.6746059439395E+00 -0.1954990870816E+00
 0.7360066967821E+00 -0.2157334554917E+00
 0.7946363463678E+00 -0.2345061456042E+00
 0.8507892999182E+00 -0.2518204853096E+00
 0.9047131444686E+00 -0.2677517584993E+00
 0.9562300134397E+00 -0.2819465724581E+00
 0.1005037073353E+01 -0.2941089421951E+00
 0.1050961672126E+01 -0.3042554655467E+00
 0.1093855928912E+01 -0.3124846675268E+00
 0.1133774998724E+01 -0.3190437048184E+00
 0.1170839224687E+01 -0.3241753776550E+00
 0.1205030903089E+01 -0.3280110731496E+00
 0.1695623484949E+00 -0.5618747270218E-01
 0.2495386121616E+00 -0.7156829221301E-01
 0.3302586895209E+00 -0.9124070942204E-01
 0.4092439606495E+00 -0.1138753140832E+00
 0.4851914920693E+00 -0.1379877354006E+00
 0.5575449653069E+00 -0.1622930915256E+00
 0.6261954495271E+00 -0.1858307578198E+00
 0.6912944187203E+00 -0.2079979622318E+00
 0.7531206489159E+00 -0.2284936445181E+00
 0.8119945932663E+00 -0.2472293105158E+00
 0.8682268912033E+00 -0.2642597751540E+00
 0.9220704841428E+00 -0.2797159054929E+00
 0.9733204702150E+00 -0.2931919157347E+00
 0.1021650560055E+01 -0.3043656504921E+00
 0.1066888223456E+01 -0.3133066024906E+00
 0.1108895691164E+01 -0.3201772434930E+00
 0.1147760568231E+01 -0.3253088932182E+00
 0.1183640063361E+01 -0.3290180912584E+00
 0.1216536183859E+01 -0.3314887671177E+00
 0.1734123678129E+00 -0.5894971118244E-01
 0.2568015462403E+00 -0.7608753837951E-01
 0.3404910319906E+00 -0.9790784165082E-01
 0.4217843802756E+00 -0.1226890236119E+00
 0.4994000295543E+00 -0.1486627608232E+00
 0.5728980269758E+00 -0.1743978318741E+00
 0.6423035668345E+00 -0.1988971957275E+00
 0.7078818393633E+00 -0.2215942402265E+00
 0.7699885276657E+00 -0.2422533805270E+00
 0.8289838802468E+00 -0.2608513341408E+00
 0.8851922834009E+00 -0.2775030561825E+00
 0.9388689481926E+00 -0.2923999476985E+00
 0.9897840184990E+00 -0.3050752574708E+00
 0.1037589588789E+01 -0.3151755400862E+00
 0.1082111965360E+01 -0.3228255764264E+00
 0.1123222143430E+01 -0.3282543881646E+00
 0.1161036984199E+01 -0.3318815375897E+00
 0.1195747560838E+01 -0.3341011362771E+00
 0.1227375980052E+01 -0.3351514253189E+00
 0.1776845130727E+00 -0.6198493787646E-01
 0.2647146666154E+00 -0.8122955898978E-01
 0.3514159751477E+00 -0.1055410054798E+00
 0.4349136473467E+00 -0.1327118421938E+00
 0.5140126504873E+00 -0.1606592898276E+00
 0.5884455711214E+00 -0.1878225642669E+00
 0.6584078345328E+00 -0.2132063802355E+00
 0.7242947181595E+00 -0.2363195544163E+00
 0.7865417014993E+00 -0.2570202043145E+00
 0.8455452433459E+00 -0.2753653054488E+00
 0.9016382608144E+00 -0.2915361651481E+00
 0.9550736503344E+00 -0.3057871806168E+00
 0.1005597938930E+01 -0.3175810889120E+00
 0.1052842669448E+01 -0.3265274666072E+00
 0.1096631292128E+01 -0.3328079027138E+00
 0.1136842230861E+01 -0.3367197132979E+00
 0.1173618767916E+01 -0.3387736666712E+00
 0.1207183213392E+01 -0.3394439054501E+00
 0.1237577737582E+01 -0.3390231084454E+00
 0.1824769216083E+00 -0.6535682422378E-01
 0.2733828539149E+00 -0.8713848171096E-01
 0.3630982323384E+00 -0.1143322815007E+00
 0.4486395128951E+00 -0.1441355288523E+00
 0.5289872807983E+00 -0.1741309635375E+00
 0.6041143934647E+00 -0.2026669422307E+00
 0.6744233709635E+00 -0.2288074259549E+00
 0.7404507196409E+00 -0.2521859154155E+00
 0.8027082502698E+00 -0.2727836577430E+00
 0.8616202533816E+00 -0.2907496042249E+00
 0.9175203201619E+00 -0.3063334928230E+00
 0.9706534930231E+00 -0.3198520171855E+00
 0.1020743688788E+01 -0.3306870215568E+00
 0.1067402557507E+01 -0.3384049763031E+00
 0.1110448924701E+01 -0.3432448972023E+00
 0.1149767394249E+01 -0.3455732607035E+00
 0.1185525050290E+01 -0.3459938940886E+00
 0.1217972909307E+01 -0.3450622653499E+00
 0.1247172524865E+01 -0.3431245651462E+00
 0.1879133135961E+00 -0.6915056727296E-01
 0.2829252458033E+00 -0.9400133802950E-01
 0.3755968404155E+00 -0.1245177362251E+00
 0.4629483296683E+00 -0.1571781242707E+00
 0.5442550179366E+00 -0.1892335304775E+00
 0.6198083046941E+00 -0.2190142094661E+00
 0.6902506750711E+00 -0.2457251348153E+00
 0.7562612206080E+00 -0.2691817122930E+00
 0.8184159162200E+00 -0.2895143323323E+00
 0.8771534337251E+00 -0.3069687328175E+00
 0.9327982924745E+00 -0.3218594635717E+00
 0.9855821158542E+00 -0.3345614456958E+00
 0.1035207354421E+01 -0.3443648673212E+00
 0.1081266326646E+01 -0.3507868479082E+00
 0.1123571663180E+01 -0.3541236932053E+00
 0.1162013023152E+01 -0.3548111644955E+00
 0.1196778773710E+01 -0.3535469886781E+00
 0.1228146016957E+01 -0.3509682598509E+00
 0.1256194281349E+01 -0.3474730603763E+00
 0.1941509228215E+00 -0.7348318496372E-01
 0.2934753664189E+00 -0.1020653497199E+00
 0.3889573251735E+00 -0.1363892304187E+00
 0.4777947015169E+00 -0.1720831991220E+00
 0.5597130832827E+00 -0.2061143589155E+00
 0.6354066548683E+00 -0.2369189944976E+00
 0.7057783264195E+00 -0.2639520390716E+00
 0.7716354680494E+00 -0.2872691317496E+00
 0.8335957415322E+00 -0.3071647317247E+00
 0.8920946858263E+00 -0.3239754371359E+00
 0.9474376716315E+00 -0.3380706486477E+00
 0.9998384939270E+00 -0.3498766848950E+00
 0.1048979776261E+01 -0.3585817001268E+00
 0.1094435158646E+01 -0.3636475726897E+00
 0.1136009931854E+01 -0.3654272654791E+00
 0.1173597814646E+01 -0.3644254349890E+00
 0.1207405926590E+01 -0.3614336386207E+00
 0.1237734591543E+01 -0.3571699785535E+00
 0.1264679152165E+01 -0.3520822734123E+00
 0.2013916141475E+00 -0.7852075077510E-01
 0.3051792597237E+00 -0.1116647712897E+00
 0.4031984515174E+00 -0.1503091060539E+00
 0.4930870789162E+00 -0.1891133771243E+00
 0.5752177863070E+00 -0.2248940851667E+00
 0.6507657561977E+00 -0.2563913575433E+00
 0.7208886927271E+00 -0.2834416561075E+00
 0.7864862544807E+00 -0.3063845813665E+00
 0.8481858609588E+00 -0.3256724650702E+00
 0.9064012654485E+00 -0.3417138899781E+00
 0.9614104242684E+00 -0.3549181928700E+00
 0.1013407109165E+01 -0.3657548250789E+00
 0.1062056345042E+01 -0.3733008016970E+00
 0.1106913889788E+01 -0.3769577237350E+00
 0.1147777182144E+01 -0.3771344108022E+00
 0.1184543108608E+01 -0.3744038010388E+00
 0.1217434860979E+01 -0.3696503549000E+00
 0.1246772711505E+01 -0.3636715797157E+00
 0.1272664895458E+01 -0.3569623117547E+00
 0.2098979439596E+00 -0.8450899796325E-01
 0.3181888783127E+00 -0.1232645969968E+00
 0.4182894867798E+00 -0.1667263704288E+00
 0.5086683852882E+00 -0.2085311294606E+00
 0.5905800260492E+00 -0.2456360226309E+00
 0.6657258338656E+00 -0.2773792403740E+00
 0.7354672018770E+00 -0.3041065485371E+00
 0.8007362445931E+00 -0.3264438846164E+00
 0.8621345255869E+00 -0.3449653321083E+00
 0.9200389248855E+00 -0.3601232787888E+00
 0.9746951833165E+00 -0.3723501564450E+00
 0.1026277707863E+01 -0.3821502952103E+00
 0.1074436501172E+01 -0.3884824316040E+00
 0.1118710350150E+01 -0.3906841592465E+00
 0.1158889201044E+01 -0.3892196164426E+00
 0.1194872257072E+01 -0.3847295473016E+00
 0.1226895747583E+01 -0.3781894865822E+00
 0.1255295975333E+01 -0.3704734815310E+00
 0.1280190375776E+01 -0.3621198920677E+00
 0.2200169609691E+00 -0.9183314863533E-01
 0.3326441452646E+00 -0.1375343588564E+00
 0.4341102462259E+00 -0.1861887309681E+00
 0.5242926559866E+00 -0.2305499104584E+00
 0.6055694425086E+00 -0.2683013950730E+00
 0.6801267587937E+00 -0.2997560832787E+00
 0.7494140551697E+00 -0.3258278468383E+00
 0.8143227667376E+00 -0.3473512362282E+00
 0.8754016452731E+00 -0.3649668351737E+00
 0.9329820969047E+00 -0.3791409816214E+00
 0.9872769133996E+00 -0.3903135188129E+00
 0.1038444717898E+01 -0.3990161331432E+00
 0.1086122968850E+01 -0.4040844068028E+00
 0.1129834508998E+01 -0.4047899883010E+00
 0.1169363354073E+01 -0.4016527099860E+00
 0.1204610087397E+01 -0.3953812855613E+00
 0.1235820233711E+01 -0.3870393283473E+00
 0.1263341216096E+01 -0.3775727674742E+00
 0.1287295165298E+01 -0.3675587283221E+00
 0.2322181219774E+00 -0.1011428700871E+00
 0.3486239614812E+00 -0.1554884768669E+00
 0.4503813775012E+00 -0.2093136194273E+00
 0.5396059593077E+00 -0.2552325481727E+00
 0.6199402983279E+00 -0.2926907982596E+00
 0.6938333034562E+00 -0.3233414285391E+00
 0.7626521579881E+00 -0.3484730950918E+00
 0.8271997684014E+00 -0.3690083973040E+00
 0.8879586558775E+00 -0.3856003666629E+00
 0.9452134056772E+00 -0.3987048855456E+00
 0.9991462451021E+00 -0.4087558872829E+00
 0.1049906403558E+01 -0.4163051836125E+00
 0.1097120705781E+01 -0.4200625163589E+00
 0.1140297387285E+01 -0.4192341258316E+00
 0.1179217789981E+01 -0.4143981508735E+00
 0.1213782532969E+01 -0.4063325776702E+00
 0.1244241401931E+01 -0.3961843620124E+00
 0.1270946483737E+01 -0.3849637953782E+00
 0.1294019338808E+01 -0.3732802710085E+00
 0.2471408708947E+00 -0.1137165286701E+00
 0.3660188628215E+00 -0.1786942909522E+00
 0.4665394372041E+00 -0.2366710112515E+00
 0.5541745216311E+00 -0.2822196855065E+00
 0.6334979323003E+00 -0.3184991564078E+00
 0.7067482312254E+00 -0.3479415683030E+00
 0.7751295271922E+00 -0.3719129542730E+00
 0.8393365292449E+00 -0.3913203232082E+00
 0.8997874736397E+00 -0.4067914551738E+00
 0.9567229009129E+00 -0.4187549344761E+00
 0.1010298740340E+01 -0.4276271157780E+00
 0.1060663773087E+01 -0.4339716890415E+00
 0.1107435389049E+01 -0.4363706453431E+00
 0.1150109636407E+01 -0.4339700808285E+00
 0.1188470676515E+01 -0.4274136719332E+00
 0.1222416611542E+01 -0.4175515758403E+00
 0.1252194039570E+01 -0.4056054843419E+00
 0.1278151456801E+01 -0.3926392145815E+00
 0.1300403423626E+01 -0.3792845998509E+00
 0.2657361950723E+00 -0.1322556864544E+00
 0.3840236416452E+00 -0.2101366117927E+00
 0.4816480749788E+00 -0.2674853298864E+00
 0.5677024424000E+00 -0.3109087631696E+00
 0.6461158070926E+00 -0.3454244640196E+00
 0.7188153530415E+00 -0.3733808547540E+00
 0.7868148819644E+00 -0.3960281465593E+00
 0.8507154483828E+00 -0.4141972336480E+00
 0.9108789579023E+00 -0.4284687981717E+00
 0.9675075244384E+00 -0.4392334250498E+00
 0.1020734443664E+01 -0.4468818295852E+00
 0.1070719099729E+01 -0.4519737308358E+00
 0.1117070947553E+01 -0.4529610047123E+00
 0.1159279292669E+01 -0.4489420928876E+00
 0.1197140099898E+01 -0.4406481448029E+00
 0.1230541280029E+01 -0.4290016412755E+00
 0.1259714788485E+01 -0.4152803888046E+00
 0.1284997821114E+01 -0.4005895547941E+00
 0.1306490336771E+01 -0.3855740989150E+00
 0.9600630117407E+00 -0.4252367825906E+00
 0.9717574489895E+00 -0.4330006842115E+00
 0.9836232280050E+00 -0.4402785795197E+00
 0.9956896942581E+00 -0.4469836654108E+00
 0.1008001604843E+01 -0.4530353586630E+00
 0.1020609928356E+01 -0.4583482082742E+00
 0.1033573175464E+01 -0.4628288858458E+00
 0.1046957284476E+01 -0.4663752798697E+00
 0.1060835801828E+01 -0.4688759003974E+00
 0.1075289829516E+01 -0.4702092496324E+00
 0.1090407673073E+01 -0.4702430923929E+00
 0.1106284007612E+01 -0.4688336691455E+00
 0.1123018344538E+01 -0.4658249545373E+00
 0.1140712507414E+01 -0.4610481628286E+00
 0.1159466782886E+01 -0.4543218605467E+00
 0.1179374404597E+01 -0.4454533595369E+00
 0.1200514790548E+01 -0.4342421467288E+00
 0.1222946052712E+01 -0.4204869991423E+00
 0.1246712216709E+01 -0.4039879956237E+00
 0.9742377937295E+00 -0.4303031754885E+00
 0.9872710156951E+00 -0.4391315583918E+00
 0.1000441013634E+01 -0.4475826320176E+00
 0.1013791655970E+01 -0.4555550136787E+00
 0.1027360582302E+01 -0.4629616549491E+00
 0.1041191669657E+01 -0.4697147301886E+00
 0.1055335294931E+01 -0.4757205473834E+00
 0.1069848582733E+01 -0.4808770743253E+00
 0.1084795169206E+01 -0.4850727808123E+00
 0.1100244806916E+01 -0.4881858854043E+00
 0.1116272627572E+01 -0.4900837737230E+00
 0.1132957923044E+01 -0.4906225633973E+00
 0.1150382278309E+01 -0.4896469249285E+00
 0.1168626909254E+01 -0.4869903721979E+00
 0.1187769118164E+01 -0.4824763618723E+00
 0.1207878082577E+01 -0.4759205984002E+00
 0.1229010413476E+01 -0.4671350147382E+00
 0.1251208503771E+01 -0.4559323407977E+00
 0.1274495880076E+01 -0.4421306207972E+00
 0.9879894595363E+00 -0.4345395513562E+00
 0.1002304238052E+01 -0.4443372753668E+00
 0.1016715671358E+01 -0.4538291394136E+00
 0.1031271289949E+01 -0.4629309790713E+00
 0.1046007174279E+01 -0.4715552514953E+00
 0.1060959543462E+01 -0.4796136664175E+00
 0.1076168968546E+01 -0.4870127836738E+00
 0.1091681074195E+01 -0.4936515026338E+00
 0.1107546499918E+01 -0.4994195225867E+00
 0.1123820375521E+01 -0.5041964776307E+00
 0.1140561432004E+01 -0.5078514613630E+00
 0.1157830679350E+01 -0.5102428897213E+00
 0.1175689587714E+01 -0.5112187692918E+00
 0.1194197749544E+01 -0.5106175261437E+00
 0.1213410132354E+01 -0.5082695900796E+00
 0.1233374192603E+01 -0.5039999119686E+00
 0.1254127677774E+01 -0.4976312950062E+00
 0.1275696869287E+01 -0.4889881942704E+00
 0.1298097526638E+01 -0.4779012642128E+00
 0.1001310988367E+01 -0.4379453825651E+00
 0.1016830064597E+01 -0.4485944445308E+00
 0.1032411706923E+01 -0.4589998007176E+00
 0.1048094610785E+01 -0.4690899481553E+00
 0.1063909272409E+01 -0.4787848438902E+00
 0.1079883756433E+01 -0.4879991137694E+00
 0.1096047509459E+01 -0.4966416481935E+00
 0.1112432878793E+01 -0.5046137843168E+00
 0.1129075329471E+01 -0.5118079866318E+00
 0.1146013060647E+01 -0.5181070227055E+00
 0.1163286194245E+01 -0.5233836040114E+00
 0.1180935602293E+01 -0.5275004576887E+00
 0.1199001396768E+01 -0.5303108692714E+00
 0.1217521152496E+01 -0.5316597747875E+00
 0.1236528016681E+01 -0.5313854781614E+00
 0.1256049026009E+01 -0.5293219843421E+00
 0.1276103875871E+01 -0.5253017929840E+00
 0.1296704838221E+01 -0.5191589156131E+00
 0.1317858171040E+01 -0.5107313170451E+00
 0.1014190210871E+01 -0.4405319785332E+00
 0.1030836169902E+01 -0.4519060983077E+00
 0.1047511826914E+01 -0.4630909070445E+00
 0.1064243325051E+01 -0.4740256669448E+00
 0.1081051364066E+01 -0.4846385308672E+00
 0.1097953590173E+01 -0.4948500391285E+00
 0.1114966977092E+01 -0.5045735924820E+00
 0.1132109183041E+01 -0.5137147908080E+00
 0.1149398983497E+01 -0.5221705237205E+00
 0.1166856081611E+01 -0.5298283517608E+00
 0.1184500525832E+01 -0.5365662745190E+00
 0.1202351843377E+01 -0.5422529284299E+00
 0.1220427976351E+01 -0.5467482432693E+00
 0.1238744124951E+01 -0.5499045858735E+00
 0.1257311659333E+01 -0.5515683888423E+00
 0.1276137285397E+01 -0.5515821941076E+00
 0.1295222725899E+01 -0.5497869596439E+00
 0.1314565047575E+01 -0.5460242918571E+00
 0.1334157838639E+01 -0.5401380375574E+00
 0.1026618334742E+01 -0.4423209336974E+00
 0.1044318928421E+01 -0.4542913774437E+00
 0.1062015496740E+01 -0.4661197230313E+00
 0.1079720316949E+01 -0.4777537503491E+00
 0.1097441984107E+01 -0.4891298462706E+00
 0.1115185709369E+01 -0.5001755813393E+00
 0.1132954544737E+01 -0.5108105602783E+00
 0.1150750305378E+01 -0.5209462477474E+00
 0.1168573982969E+01 -0.5304854884530E+00
 0.1186425728641E+01 -0.5393221027111E+00
 0.1204304535966E+01 -0.5473407673617E+00
 0.1222207740699E+01 -0.5544172606037E+00
 0.1240130435661E+01 -0.5604191064753E+00
 0.1258064907917E+01 -0.5652066226197E+00
 0.1276000217775E+01 -0.5686343369566E+00
 0.1293922054674E+01 -0.5705526914120E+00
 0.1311812957993E+01 -0.5708098880479E+00
 0.1329652907144E+01 -0.5692536970752E+00
 0.1347419827339E+01 -0.5657330349678E+00
 0.1038591655595E+01 -0.4433422175644E+00
 0.1057285738641E+01 -0.4557847056142E+00
 0.1075939777421E+01 -0.4681240958192E+00
 0.1094552210412E+01 -0.4803152174713E+00
 0.1113118341799E+01 -0.4923021275801E+00
 0.1131629625439E+01 -0.5040198356638E+00
 0.1150074056577E+01 -0.5153950535735E+00
 0.1168436677177E+01 -0.5263462488575E+00
 0.1186699886694E+01 -0.5367833919878E+00
 0.1204843529621E+01 -0.5466077086350E+00
 0.1222844824003E+01 -0.5557116170317E+00
 0.1240678215333E+01 -0.5639789483966E+00
 0.1258315241077E+01 -0.5712854884067E+00
 0.1275724487684E+01 -0.5774998368287E+00
 0.1292871719707E+01 -0.5824845436636E+00
 0.1309720244062E+01 -0.5860974412477E+00
 0.1326231538958E+01 -0.5881930713744E+00
 0.1342366068950E+01 -0.5886241323611E+00
 0.1358084036426E+01 -0.5872430784561E+00
 0.1050112098775E+01 -0.4436331332477E+00
 0.1069754299847E+01 -0.4564333328209E+00
 0.1089317319959E+01 -0.4691601214361E+00
 0.1108786157310E+01 -0.4817742715546E+00
 0.1128142339623E+01 -0.4942268246520E+00
 0.1147362761304E+01 -0.5064601098159E+00
 0.1166419551325E+01 -0.5184082828971E+00
 0.1185280245472E+01 -0.5299974072602E+00
 0.1203907980831E+01 -0.5411452966962E+00
 0.1222261645945E+01 -0.5517613273560E+00
 0.1240296012352E+01 -0.5617463684185E+00
 0.1257961904085E+01 -0.5709929197216E+00
 0.1275206464516E+01 -0.5793854976270E+00
 0.1291973570883E+01 -0.5868012705891E+00
 0.1308204429807E+01 -0.5931109103526E+00
 0.1323838365599E+01 -0.5981795943251E+00
 0.1338813788729E+01 -0.6018680762817E+00
 0.1353069333322E+01 -0.6040337733627E+00
 0.1366545232376E+01 -0.6045319347195E+00
 0.1061176381598E+01 -0.4432306448061E+00
 0.1081730647133E+01 -0.4562820695952E+00
 0.1102162918050E+01 -0.4692796347187E+00
 0.1122445182539E+01 -0.4821892238758E+00
 0.1142545030318E+01 -0.4949681763830E+00
 0.1162424329114E+01 -0.5075658071727E+00
 0.1182038766730E+01 -0.5199237179770E+00
 0.1201337775118E+01 -0.5319758207015E+00
 0.1220264616190E+01 -0.5436481787839E+00
 0.1238756565991E+01 -0.5548588031108E+00
 0.1256745209764E+01 -0.5655175150772E+00
 0.1274156888533E+01 -0.5755259556674E+00
 0.1290913338212E+01 -0.5847777873149E+00
 0.1306932546171E+01 -0.5931591077928E+00
 0.1322129824841E+01 -0.6005490704262E+00
 0.1336419074973E+01 -0.6068206810577E+00
 0.1349714198062E+01 -0.6118417206481E+00
 0.1361930670737E+01 -0.6154757037489E+00
 0.1372987516814E+01 -0.6175827378656E+00
 0.1071749190001E+01 -0.4421536255934E+00
 0.1093155586454E+01 -0.4553377461490E+00
 0.1114393731995E+01 -0.4684771731285E+00
 0.1135423131438E+01 -0.4815424200397E+00
 0.1156197646201E+01 -0.4944967228026E+00
 0.1176664121070E+01 -0.5072962381408E+00
 0.1196761711038E+01 -0.5198901645740E+00
 0.1216421606181E+01 -0.5322206738971E+00
 0.1235567004305E+01 -0.5442226928218E+00
 0.1254113289350E+01 -0.5558236174141E+00
 0.1271968432245E+01 -0.5669430418728E+00
 0.1289033652783E+01 -0.5774925687451E+00
 0.1305204377330E+01 -0.5873757527244E+00
 0.1320371504773E+01 -0.5964882172603E+00
 0.1334422958139E+01 -0.6047179707981E+00
 0.1347245459683E+01 -0.6119459333776E+00
 0.1358726439034E+01 -0.6180466534785E+00
 0.1368755971873E+01 -0.6228891301221E+00
 0.1377228783447E+01 -0.6263374001527E+00
 0.1081799199146E+01 -0.4404259339935E+00
 0.1103976610410E+01 -0.4536152848559E+00
 0.1125936792660E+01 -0.4667584556452E+00
 0.1147627517456E+01 -0.4798302276137E+00
 0.1168989563724E+01 -0.4927994384399E+00
 0.1189955323090E+01 -0.5056289961250E+00
 0.1210447959592E+01 -0.5182758648996E+00
 0.1230380948982E+01 -0.5306909062309E+00
 0.1249657908799E+01 -0.5428185734226E+00
 0.1268172705405E+01 -0.5545965019418E+00
 0.1285809869391E+01 -0.5659550482829E+00
 0.1302445368523E+01 -0.5768168305760E+00
 0.1317947781931E+01 -0.5870963244688E+00
 0.1332179892853E+01 -0.5966995709353E+00
 0.1345000672366E+01 -0.6055240563050E+00
 0.1356267567800E+01 -0.6134588222946E+00
 0.1365838938426E+01 -0.6203848451961E+00
 0.1373576403445E+01 -0.6261756704528E+00
 0.1379346571843E+01 -0.6306981957554E+00
 0.1091308360190E+01 -0.4380825812649E+00
 0.1114166212825E+01 -0.4511500823379E+00
 0.1136755900958E+01 -0.4641590870279E+00
 0.1159014448672E+01 -0.4770881970827E+00
 0.1180870588504E+01 -0.4899114525160E+00
 0.1202243339569E+01 -0.5025982650278E+00
 0.1223041013191E+01 -0.5151133309306E+00
 0.1243160554785E+01 -0.5274164090124E+00
 0.1262487181040E+01 -0.5394619336686E+00
 0.1280894325715E+01 -0.5511984719967E+00
 0.1298243945353E+01 -0.5625680495214E+00
 0.1314387254984E+01 -0.5735053793936E+00
 0.1329165962849E+01 -0.5839370433781E+00
 0.1342414049919E+01 -0.5937806930432E+00
 0.1353960091524E+01 -0.6029443645073E+00
 0.1363630041731E+01 -0.6113260232453E+00
 0.1371250297711E+01 -0.6188134675749E+00
 0.1376650712479E+01 -0.6252847196009E+00
 0.1379667019653E+01 -0.6306091148834E+00
 0.1100266891843E+01 -0.4351661595470E+00
 0.1123711791834E+01 -0.4479910178126E+00
 0.1146836285699E+01 -0.4607343479006E+00
 0.1169567829918E+01 -0.4733779603053E+00
 0.1191824450642E+01 -0.4859004977996E+00
 0.1213513283432E+01 -0.4982773704318E+00
 0.1234529423882E+01 -0.5104806607045E+00
 0.1254755049598E+01 -0.5224788865104E+00
 0.1274058804960E+01 -0.5342365702071E+00
 0.1292295482679E+01 -0.5457135925362E+00
 0.1309306072568E+01 -0.5568643259313E+00
 0.1324918273807E+01 -0.5676365562712E+00
 0.1338947579118E+01 -0.5779702243874E+00
 0.1351199031632E+01 -0.5877960540363E+00
 0.1361469718012E+01 -0.5970341826029E+00
 0.1369551983655E+01 -0.6055929694476E+00
 0.1375237230655E+01 -0.6133682131771E+00
 0.1378320004454E+01 -0.6202430588419E+00
 0.1378601997355E+01 -0.6260889185763E+00
 0.1108669795636E+01 -0.4317240728676E+00
 0.1132608638340E+01 -0.4441951357832E+00
 0.1156174030874E+01 -0.4565514041532E+00
 0.1179285170997E+01 -0.4687771175314E+00
 0.1201850926578E+01 -0.4808547031510E+00
 0.1223768333656E+01 -0.4927647798830E+00
 0.1244921293426E+01 -0.5044861210896E+00
 0.1265179456276E+01 -0.5159954657593E+00
 0.1284397300941E+01 -0.5272671083756E+00
 0.1302413452414E+01 -0.5382722182981E+00
 0.1319050320318E+01 -0.5489778500407E+00
 0.1334114176715E+01 -0.5593456177768E+00
 0.1347395826209E+01 -0.5693300305836E+00
 0.1358672044729E+01 -0.5788765284447E+00
 0.1367707961688E+01 -0.5879193299047E+00
 0.1374260509897E+01 -0.5963793010446E+00
 0.1378082946950E+01 -0.6041621692348E+00
 0.1378930271652E+01 -0.6111574983469E+00
 0.1376565193191E+01 -0.6172388428892E+00
 0.1116514988766E+01 -0.4278068282876E+00
 0.1140856166493E+01 -0.4398244703500E+00
 0.1164770419115E+01 -0.4516846835139E+00
 0.1188170054047E+01 -0.4633732250225E+00
 0.1210956443191E+01 -0.4748752977698E+00
 0.1233018490342E+01 -0.4861756761060E+00
 0.1254231189141E+01 -0.4972587867830E+00
 0.1274454269003E+01 -0.5081086377750E+00
 0.1293530938185E+01 -0.5187085123264E+00
 0.1311286762546E+01 -0.5290403544853E+00
 0.1327528757458E+01 -0.5390837730144E+00
 0.1342044818801E+01 -0.5488145919951E+00
 0.1354603678312E+01 -0.5582028889491E+00
 0.1364955636377E+01 -0.5672104979484E+00
 0.1372834388016E+01 -0.5757880323990E+00
 0.1377960281752E+01 -0.5838716148194E+00
 0.1380045280565E+01 -0.5913796865893E+00
 0.1378799674480E+01 -0.5982104607276E+00
 0.1373940221940E+01 -0.6042406660406E+00
 0.1123802260742E+01 -0.4234670615019E+00
 0.1148455797166E+01 -0.4349443626134E+00
 0.1172628788716E+01 -0.4462134963265E+00
 0.1196228017064E+01 -0.4572607557951E+00
 0.1219149048732E+01 -0.4680729802519E+00
 0.1241274699171E+01 -0.4786378375420E+00
 0.1262473485870E+01 -0.4889440706818E+00
 0.1282598063727E+01 -0.4989816085474E+00
 0.1301483639061E+01 -0.5087414521985E+00
 0.1318946379277E+01 -0.5182152457556E+00
 0.1334781869737E+01 -0.5273944282764E+00
 0.1348763721963E+01 -0.5362688468410E+00
 0.1360642515760E+01 -0.5448246996343E+00
 0.1370145370671E+01 -0.5530416854605E+00
 0.1376976590811E+01 -0.5608892878012E+00
 0.1380819985128E+01 -0.5683222566298E+00
 0.1381343546383E+01 -0.5752756073584E+00
 0.1378207014345E+01 -0.5816598233016E+00
 0.1371072289806E+01 -0.5873572937815E+00
 0.1130533029759E+01 -0.4187587991969E+00
 0.1155410453365E+01 -0.4296222501515E+00
 0.1179753807118E+01 -0.4402203327222E+00
 0.1203465653618E+01 -0.4505389035235E+00
 0.1226437394954E+01 -0.4605652550380E+00
 0.1248547775741E+01 -0.4702885670895E+00
 0.1269661286549E+01 -0.4797003447288E+00
 0.1289626448539E+01 -0.4887947558461E+00
 0.1308273952862E+01 -0.4975687841562E+00
 0.1325414635818E+01 -0.5060221014204E+00
 0.1340837292221E+01 -0.5141565374900E+00
 0.1354306372000E+01 -0.5219749897921E+00
 0.1365559682900E+01 -0.5294795686859E+00
 0.1374306357832E+01 -0.5366687307961E+00
 0.1380225568646E+01 -0.5435331326862E+00
 0.1382966801861E+01 -0.5500499985914E+00
 0.1382152902248E+01 -0.5561760523700E+00
 0.1377387288459E+01 -0.5618396307751E+00
 0.1368266270907E+01 -0.5669334352777E+00
 0.1136710040975E+01 -0.4137369495449E+00
 0.1161723965790E+01 -0.4239269328274E+00
 0.1186150648457E+01 -0.4337898911974E+00
 0.1209889642506E+01 -0.4433103765726E+00
 0.1232829714048E+01 -0.4524750180676E+00
 0.1254847436259E+01 -0.4612731291503E+00
 0.1275805615329E+01 -0.4696973335230E+00
 0.1295551513872E+01 -0.4777441421249E+00
 0.1313914819041E+01 -0.4854144125260E+00
 0.1330705292550E+01 -0.4927136062542E+00
 0.1345710038870E+01 -0.4996517265902E+00
 0.1358690342748E+01 -0.5062427660156E+00
 0.1369378073751E+01 -0.5125034142846E+00
 0.1377471765054E+01 -0.5184506709993E+00
 0.1382632704054E+01 -0.5240978754467E+00
 0.1384481821834E+01 -0.5294485480996E+00
 0.1382598969139E+01 -0.5344874738376E+00
 0.1376527207238E+01 -0.5391690313847E+00
 0.1365785213698E+01 -0.5434042473064E+00
 0.1142337237885E+01 -0.4084568009617E+00
 0.1167400841813E+01 -0.4179278536288E+00
 0.1191824728141E+01 -0.4270081083849E+00
 0.1215506534530E+01 -0.4356801532630E+00
 0.1238333763949E+01 -0.4439290323425E+00
 0.1260182526522E+01 -0.4517429720043E+00
 0.1280916067759E+01 -0.4591141601924E+00
 0.1300383039024E+01 -0.4660395336084E+00
 0.1318415436096E+01 -0.4725215301307E+00
 0.1334826102568E+01 -0.4785687513632E+00
 0.1349405665707E+01 -0.4841964490819E+00
 0.1361918745516E+01 -0.4894266926952E+00
 0.1372099262301E+01 -0.4942879802111E+00
 0.1379644688676E+01 -0.4988139020838E+00
 0.1384209209217E+01 -0.5030402255353E+00
 0.1385396106774E+01 -0.5069994074869E+00
 0.1382750617788E+01 -0.5107110829253E+00
 0.1375756667165E+01 -0.5141668835427E+00
 0.1363844037023E+01 -0.5173095247014E+00
 0.1147419535382E+01 -0.4029735463958E+00
 0.1172445869535E+01 -0.4116944230943E+00
 0.1196781221583E+01 -0.4199612409247E+00
 0.1220322290658E+01 -0.4277542779671E+00
 0.1242956518543E+01 -0.4350564019925E+00
 0.1264561028577E+01 -0.4418538655703E+00
 0.1285001329703E+01 -0.4481371784336E+00
 0.1304129742490E+01 -0.4539020346738E+00
 0.1321783464690E+01 -0.4591502836049E+00
 0.1337782148672E+01 -0.4638909311782E+00
 0.1351924807626E+01 -0.4681411408224E+00
 0.1363985796649E+01 -0.4719271613605E+00
 0.1373709523536E+01 -0.4752850295319E+00
 0.1380803432506E+01 -0.4782607443799E+00
 0.1384928690091E+01 -0.4809093302969E+00
 0.1385687975258E+01 -0.4832916786618E+00
 0.1382610124687E+01 -0.4854670876139E+00
 0.1375133226989E+01 -0.4874776710639E+00
 0.1362594642551E+01 -0.4893192881561E+00
 0.1151964283641E+01 -0.3973423441249E+00
 0.1176867053339E+01 -0.4052963683623E+00
 0.1201029442339E+01 -0.4127363693238E+00
 0.1224348074922E+01 -0.4196403636834E+00
 0.1246711357052E+01 -0.4259889036652E+00
 0.1267998644746E+01 -0.4317658917561E+00
 0.1288079176118E+01 -0.4369594763055E+00
 0.1306810738606E+01 -0.4415630237098E+00
 0.1324037998785E+01 -0.4455761848585E+00
 0.1339590368071E+01 -0.4490060855465E+00
 0.1353279207011E+01 -0.4518686733489E+00
 0.1364894070766E+01 -0.4541902438353E+00
 0.1374197548593E+01 -0.4560091361620E+00
 0.1380918017728E+01 -0.4573775057961E+00
 0.1384739266782E+01 -0.4583628898317E+00
 0.1385285366916E+01 -0.4590488354090E+00
 0.1382098355612E+01 -0.4595328044775E+00
 0.1374605358541E+01 -0.4599169967022E+00
 0.1362074484048E+01 -0.4602806331247E+00
 0.1155986405200E+01 -0.3916191070820E+00
 0.1180685682921E+01 -0.3988054419101E+00
 0.1204597501166E+01 -0.4054236414567E+00
 0.1227619119227E+01 -0.4114499340930E+00
 0.1249640713250E+01 -0.4168629428095E+00
 0.1270544782872E+01 -0.4216444897090E+00
 0.1290205330802E+01 -0.4257804624930E+00
 0.1308486814007E+01 -0.4292617476638E+00
 0.1325242820660E+01 -0.4320852658722E+00
 0.1340314373540E+01 -0.4342551683948E+00
 0.1353527690976E+01 -0.4357842757476E+00
 0.1364691134868E+01 -0.4366958638838E+00
 0.1373590913398E+01 -0.4370259314649E+00
 0.1379984831261E+01 -0.4368261087125E+00
 0.1383592887449E+01 -0.4361673738103E+00
 0.1384082596398E+01 -0.4351446603564E+00
 0.1381045024948E+01 -0.4338820408211E+00
 0.1373953691161E+01 -0.4325366877112E+00
 0.1362088099454E+01 -0.4312937985742E+00
 0.1159502933159E+01 -0.3858578316989E+00
 0.1183925753348E+01 -0.3922904324359E+00
 0.1207516911206E+01 -0.3981089558179E+00
 0.1230174909215E+01 -0.4032887261624E+00
 0.1251792353613E+01 -0.4078073552489E+00
 0.1272255587916E+01 -0.4116455448596E+00
 0.1291444108917E+01 -0.4147879188528E+00
 0.1309229798947E+01 -0.4172238902913E+00
 0.1325475966068E+01 -0.4189486046064E+00
 0.1340036137560E+01 -0.4199640278380E+00
 0.1352752497509E+01 -0.4202802792109E+00
 0.1363453783701E+01 -0.4199173501739E+00
 0.1371952338667E+01 -0.4189074207404E+00
 0.1378039798726E+01 -0.4172980989103E+00
 0.1381480508199E+01 -0.4151571066177E+00
 0.1382000939790E+01 -0.4125792824136E+00
 0.1379271639527E+01 -0.4096974144464E+00
 0.1372873690872E+01 -0.4066995336604E+00
 0.1362229179719E+01 -0.4038578768463E+00
 0.1162531363180E+01 -0.3801097220693E+00
 0.1186610889178E+01 -0.3858156797134E+00
 0.1209818189345E+01 -0.3908717996769E+00
 0.1232053596089E+01 -0.3952537211719E+00
 0.1253212771597E+01 -0.3989394073058E+00
 0.1273186548875E+01 -0.4019099984114E+00
 0.1291860557371E+01 -0.4041506673182E+00
 0.1309114707139E+01 -0.4056514826750E+00
 0.1324822564910E+01 -0.4064083275896E+00
 0.1338850617539E+01 -0.4064239509975E+00
 0.1351057384727E+01 -0.4057092615138E+00
 0.1361292308097E+01 -0.4042850228821E+00
 0.1369394298564E+01 -0.4021841968352E+00
 0.1375189753382E+01 -0.3994553390585E+00
 0.1378489730581E+01 -0.3961677595629E+00
 0.1379085733114E+01 -0.3924197763878E+00
 0.1376743067677E+01 -0.3883527184628E+00
 0.1371189585531E+01 -0.3841766225093E+00
 0.1362094710342E+01 -0.3802222642692E+00
 0.1165089687921E+01 -0.3744229359178E+00
 0.1188764565293E+01 -0.3794407769490E+00
 0.1211531231729E+01 -0.3837847880019E+00
 0.1233292481261E+01 -0.3874323349186E+00
 0.1253947720178E+01 -0.3903633478387E+00
 0.1273393002963E+01 -0.3925613063569E+00
 0.1291520845164E+01 -0.3940142148437E+00
 0.1308219935158E+01 -0.3947155815466E+00
 0.1323374823164E+01 -0.3946654683525E+00
 0.1336865633991E+01 -0.3938717145246E+00
 0.1348567836904E+01 -0.3923514756458E+00
 0.1358352114036E+01 -0.3901332765003E+00
 0.1366084404892E+01 -0.3872598761363E+00
 0.1371626289587E+01 -0.3837924215025E+00
 0.1374836060437E+01 -0.3798166941255E+00
 0.1375571260372E+01 -0.3754528836730E+00
 0.1373694508243E+01 -0.3708716152381E+00
 0.1369087478680E+01 -0.3663218360712E+00
 0.1361686763613E+01 -0.3621836670601E+00
 0.1167196335439E+01 -0.3688422901582E+00
 0.1190410147449E+01 -0.3732201855825E+00
 0.1212685394155E+01 -0.3769130893723E+00
 0.1233928039591E+01 -0.3799015109419E+00
 0.1254042034392E+01 -0.3821689512945E+00
 0.1272929545891E+01 -0.3837030954667E+00
 0.1290490948356E+01 -0.3844969858842E+00
 0.1306624757142E+01 -0.3845501998429E+00
 0.1321227636293E+01 -0.3838701231049E+00
 0.1334194578533E+01 -0.3824734519779E+00
 0.1345419360187E+01 -0.3803880929093E+00
 0.1354795417682E+01 -0.3776556806031E+00
 0.1362217393597E+01 -0.3743350200811E+00
 0.1367583799274E+01 -0.3705068955415E+00
 0.1370801631343E+01 -0.3662809090740E+00
 0.1371794573976E+01 -0.3618053569124E+00
 0.1370518171868E+01 -0.3572816630573E+00
 0.1366989379069E+01 -0.3529853985392E+00
 0.1361349794140E+01 -0.3492955389106E+00
 0.1168870108700E+01 -0.3634090687678E+00
 0.1191570951738E+01 -0.3672030503664E+00
 0.1213309587282E+01 -0.3703141973117E+00
 0.1233995918733E+01 -0.3727273901013E+00
 0.1253539337925E+01 -0.3744310280175E+00
 0.1271849150016E+01 -0.3754184768292E+00
 0.1288834728703E+01 -0.3756894613302E+00
 0.1304405665852E+01 -0.3752514310314E+00
 0.1318472100299E+01 -0.3741210099492E+00
 0.1330945371442E+01 -0.3723256749058E+00
 0.1341739153167E+01 -0.3699058245681E+00
 0.1350771285732E+01 -0.3669174219187E+00
 0.1357966651234E+01 -0.3634354226684E+00
 0.1363261666478E+01 -0.3595582372632E+00
 0.1366611365860E+01 -0.3554134909244E+00
 0.1368000752634E+01 -0.3511652689591E+00
 0.1367463334012E+01 -0.3470226059805E+00
 0.1365111848114E+01 -0.3432474408386E+00
 0.1361187943436E+01 -0.3401538518445E+00
 0.1170130293472E+01 -0.3581607176939E+00
 0.1192270619569E+01 -0.3614327688948E+00
 0.1213432787507E+01 -0.3640373563309E+00
 0.1233531407576E+01 -0.3659646023915E+00
 0.1252482234899E+01 -0.3672086541546E+00
 0.1270202767845E+01 -0.3677694104502E+00
 0.1286612526524E+01 -0.3676541004210E+00
 0.1301633376148E+01 -0.3668787481376E+00
 0.1315190131079E+01 -0.3654696512492E+00
 0.1327211611752E+01 -0.3634650163775E+00
 0.1337632326493E+01 -0.3609168795462E+00
 0.1346395004582E+01 -0.3578934163105E+00
 0.1353454314327E+01 -0.3544817115906E+00
 0.1358782268537E+01 -0.3507909921688E+00
 0.1362376061424E+01 -0.3469561734388E+00
 0.1364269384712E+01 -0.3431412165970E+00
 0.1364548486745E+01 -0.3395409683761E+00
 0.1363373687499E+01 -0.3363782091452E+00
 0.1361001826541E+01 -0.3338888062770E+00
 0.1170997241373E+01 -0.3531308069263E+00
 0.1192534428708E+01 -0.3559470927315E+00
 0.1213085905112E+01 -0.3581238197043E+00
 0.1232571656156E+01 -0.3596567405021E+00
 0.1250914647142E+01 -0.3605460057867E+00
 0.1268041521897E+01 -0.3607981894331E+00
 0.1283882911049E+01 -0.3604279836334E+00
 0.1298373836199E+01 -0.3594596289059E+00
 0.1311454482415E+01 -0.3579282383399E+00
 0.1323071506739E+01 -0.3558811576348E+00
 0.1333180026848E+01 -0.3533794495500E+00
 0.1341746461548E+01 -0.3504995263420E+00
 0.1348752452425E+01 -0.3473348716177E+00
 0.1354200163408E+01 -0.3439976689216E+00
 0.1358119295264E+01 -0.3406199411830E+00
 0.1360576063409E+01 -0.3373534253916E+00
 0.1361683915891E+01 -0.3343667566846E+00
 0.1361614139421E+01 -0.3318376131741E+00
 0.1360601620471E+01 -0.3299377403896E+00
 0.1171493985005E+01 -0.3483490033989E+00
 0.1192392556071E+01 -0.3507782234893E+00
 0.1212306398016E+01 -0.3526070757721E+00
 0.1231161332517E+01 -0.3538367647017E+00
 0.1248888210781E+01 -0.3544730880269E+00
 0.1265423549768E+01 -0.3545287828599E+00
 0.1280709716085E+01 -0.3540252430209E+00
 0.1294695273542E+01 -0.3529937677361E+00
 0.1307335776285E+01 -0.3514765624211E+00
 0.1318595135536E+01 -0.3495276464764E+00
 0.1328447637561E+01 -0.3472137286638E+00
 0.1336880688651E+01 -0.3446150151114E+00
 0.1343898370665E+01 -0.3418258132251E+00
 0.1349525872187E+01 -0.3389546675111E+00
 0.1353814763314E+01 -0.3361235867895E+00
 0.1356848818062E+01 -0.3334656845166E+00
 0.1358749492754E+01 -0.3311203028872E+00
 0.1359679239920E+01 -0.3292247830011E+00
 0.1359840078567E+01 -0.3279028997742E+00
 0.1171649623111E+01 -0.3438412631552E+00
 0.1191886654868E+01 -0.3459533549117E+00
 0.1211147550102E+01 -0.3475137014649E+00
 0.1229364148309E+01 -0.3485281820702E+00
 0.1246475629954E+01 -0.3490073664570E+00
 0.1262428811810E+01 -0.3489691758147E+00
 0.1277178001264E+01 -0.3484405036952E+00
 0.1290685129849E+01 -0.3474581365930E+00
 0.1302920417751E+01 -0.3460692992098E+00
 0.1313863620688E+01 -0.3443320123287E+00
 0.1323505844345E+01 -0.3423153124467E+00
 0.1331851894096E+01 -0.3400992683662E+00
 0.1338923108473E+01 -0.3377746331844E+00
 0.1344760566444E+01 -0.3354418773678E+00
 0.1349428425188E+01 -0.3332092555394E+00
 0.1353016897808E+01 -0.3311894899550E+00
 0.1355644034292E+01 -0.3294947044447E+00
 0.1357455186594E+01 -0.3282295494842E+00
 0.1358619210230E+01 -0.3274831481722E+00
 0.1171504425926E+01 -0.3396304616428E+00
 0.1191079544831E+01 -0.3414960560462E+00
 0.1209692128584E+01 -0.3428654151141E+00
 0.1227279942577E+01 -0.3437478034725E+00
 0.1243790709574E+01 -0.3441573724727E+00
 0.1259181675407E+01 -0.3441160766940E+00
 0.1273418893393E+01 -0.3436550338022E+00
 0.1286477002666E+01 -0.3428149634882E+00
 0.1298339656629E+01 -0.3416461797312E+00
 0.1309000536485E+01 -0.3402083701427E+00
 0.1318464827266E+01 -0.3385702084920E+00
 0.1326751026318E+01 -0.3368087230617E+00
 0.1333892938496E+01 -0.3350082687139E+00
 0.1339941660306E+01 -0.3332589066996E+00
 0.1344967253850E+01 -0.3316539842963E+00
 0.1349059672141E+01 -0.3302867508891E+00
 0.1352328373276E+01 -0.3292459883461E+00
 0.1354900080847E+01 -0.3286108911549E+00
 0.1356914467814E+01 -0.3284457303766E+00
 0.1171099991271E+01 -0.3357363276286E+00
 0.1190036464116E+01 -0.3374264653112E+00
 0.1208025782023E+01 -0.3386801966699E+00
 0.1225011469734E+01 -0.3395084905028E+00
 0.1240949973523E+01 -0.3399278083715E+00
 0.1255808961243E+01 -0.3399630967810E+00
 0.1269565795577E+01 -0.3396486332816E+00
 0.1282206870138E+01 -0.3390278039260E+00
 0.1293727770369E+01 -0.3381524686781E+00
 0.1304134025286E+01 -0.3370821885627E+00
 0.1313442211460E+01 -0.3358833412501E+00
 0.1321681204436E+01 -0.3346280335487E+00
 0.1328893386937E+01 -0.3333926757994E+00
 0.1335135603849E+01 -0.3322560874271E+00
 0.1340479611593E+01 -0.3312970446527E+00
 0.1345011726260E+01 -0.3305912709706E+00
 0.1348831379526E+01 -0.3302080088191E+00
 0.1352048362131E+01 -0.3302064694162E+00
 0.1354778692126E+01 -0.3306325029456E+00
 0.1170442616843E+01 -0.3321727057022E+00
 0.1188755695647E+01 -0.3337565595664E+00
 0.1206138745197E+01 -0.3349669058997E+00
 0.1222541399197E+01 -0.3358144087790E+00
 0.1237929363498E+01 -0.3363166148074E+00
 0.1252280806975E+01 -0.3365006024169E+00
 0.1265583843169E+01 -0.3364029212194E+00
 0.1277835451633E+01 -0.3360684942204E+00
 0.1289041435102E+01 -0.3355493326467E+00
 0.1299216953359E+01 -0.3349033061995E+00
 0.1308387284540E+01 -0.3341929348284E+00
 0.1316588570832E+01 -0.3334840698443E+00
 0.1323868362351E+01 -0.3328443402833E+00
 0.1330285789488E+01 -0.3323412838716E+00
 0.1335911197674E+01 -0.3320401493662E+00
 0.1340825108456E+01 -0.3320014480703E+00
 0.1345116412966E+01 -0.3322784522539E+00
 0.1348879793985E+01 -0.3329149344383E+00
 0.1352212296096E+01 -0.3339434934139E+00
 0.1169531759974E+01 -0.3289508669272E+00
 0.1187222423607E+01 -0.3304947016750E+00
 0.1204002265765E+01 -0.3317292781616E+00
 0.1219828290739E+01 -0.3326628651615E+00
 0.1234676433462E+01 -0.3333132751350E+00
 0.1248535383726E+01 -0.3337093172840E+00
 0.1261403144164E+01 -0.3338892133622E+00
 0.1273285766112E+01 -0.3338984522260E+00
 0.1284197287533E+01 -0.3337879246225E+00
 0.1294160148408E+01 -0.3336124389366E+00
 0.1303205671844E+01 -0.3334294097265E+00
 0.1311374392431E+01 -0.3332975327863E+00
 0.1318716090622E+01 -0.3332753260926E+00
 0.1325289426791E+01 -0.3334194906765E+00
 0.1331161101191E+01 -0.3337831159284E+00
 0.1336404504583E+01 -0.3344138235242E+00
 0.1341097959542E+01 -0.3353520206610E+00
 0.1345322655778E+01 -0.3366295764698E+00
 0.1349160527088E+01 -0.3382693082713E+00
 0.1168370576573E+01 -0.3260813942529E+00
 0.1185428384055E+01 -0.3276480273999E+00
 0.1201596501669E+01 -0.3289679875694E+00
 0.1216841995049E+01 -0.3300456455139E+00
 0.1231152229717E+01 -0.3308994000205E+00
 0.1244526006929E+01 -0.3315601627445E+00
 0.1256969761222E+01 -0.3320675980100E+00
 0.1268496665846E+01 -0.3324668747174E+00
 0.1279126804640E+01 -0.3328065800477E+00
 0.1288887541867E+01 -0.3331372769497E+00
 0.1297813779882E+01 -0.3335103269746E+00
 0.1305947963181E+01 -0.3339767439607E+00
 0.1313339758695E+01 -0.3345859789225E+00
 0.1320045369390E+01 -0.3353846201797E+00
 0.1326126462125E+01 -0.3364150468858E+00
 0.1331648759444E+01 -0.3377141149862E+00
 0.1336680346801E+01 -0.3393119616473E+00
 0.1341290246958E+01 -0.3412310682479E+00
 0.1345547444035E+01 -0.3434861777596E+00
 0.1166965371445E+01 -0.3235756168379E+00
 0.1183370203631E+01 -0.3252233052258E+00
 0.1198908760407E+01 -0.3266804210991E+00
 0.1213562501161E+01 -0.3279483232149E+00
 0.1227330995339E+01 -0.3290483108253E+00
 0.1240221484471E+01 -0.3300148078451E+00
 0.1252246536411E+01 -0.3308885842320E+00
 0.1263424195992E+01 -0.3317134291337E+00
 0.1273778399968E+01 -0.3325344028210E+00
 0.1283339280869E+01 -0.3333967796940E+00
 0.1292143209987E+01 -0.3343451803245E+00
 0.1300232558545E+01 -0.3354227072594E+00
 0.1307655164843E+01 -0.3366700363892E+00
 0.1314463503161E+01 -0.3381244819631E+00
 0.1320713570033E+01 -0.3398190830121E+00
 0.1326463500776E+01 -0.3417817494419E+00
 0.1331772089690E+01 -0.3440345137897E+00
 0.1336696921675E+01 -0.3465926728607E+00
 0.1341294519119E+01 -0.3494636640345E+00
 0.1165322373763E+01 -0.3214482609392E+00
 0.1181043553285E+01 -0.3232271975346E+00
 0.1195927276877E+01 -0.3248587066734E+00
 0.1209975038376E+01 -0.3263473811503E+00
 0.1223195756043E+01 -0.3277236556372E+00
 0.1235601367209E+01 -0.3290258613707E+00
 0.1247207934887E+01 -0.3302946181903E+00
 0.1258036256713E+01 -0.3315707355712E+00
 0.1268112269242E+01 -0.3328944255148E+00
 0.1277467121875E+01 -0.3343047830088E+00
 0.1286137004300E+01 -0.3358392587634E+00
 0.1294162744944E+01 -0.3375330694665E+00
 0.1301589192751E+01 -0.3394185740749E+00
 0.1308464391027E+01 -0.3415246672592E+00
 0.1314838548535E+01 -0.3438762364563E+00
 0.1320762843194E+01 -0.3464937269705E+00
 0.1326287920082E+01 -0.3493927233604E+00
 0.1331462569553E+01 -0.3525836666836E+00
 0.1336328961933E+01 -0.3560696347499E+00
 0.1163439947491E+01 -0.3197230555937E+00
 0.1178431929801E+01 -0.3216643967764E+00
 0.1192636964263E+01 -0.3234809786063E+00
 0.1206068532072E+01 -0.3252054835499E+00
 0.1218735625906E+01 -0.3268778138855E+00
 0.1230651715900E+01 -0.3285373212288E+00
 0.1241834537692E+01 -0.3302215131134E+00
 0.1252306364766E+01 -0.3319661920995E+00
 0.1262093889384E+01 -0.3338055093683E+00
 0.1271228022937E+01 -0.3357718002700E+00
 0.1279743567326E+01 -0.3378952519530E+00
 0.1287678760671E+01 -0.3402034920847E+00
 0.1295074695030E+01 -0.3427211747101E+00
 0.1301974610980E+01 -0.3454696250040E+00
 0.1308423078327E+01 -0.3484665939446E+00
 0.1314465034763E+01 -0.3517261351972E+00
 0.1320144738616E+01 -0.3552586917366E+00
 0.1325503839306E+01 -0.3590709149189E+00
 0.1330581018054E+01 -0.3631674209628E+00
</DataArray>
</PointData>
   <DataArray type="Float64" Name="Load" NumberOfComponents="1"    ComponentName0="Load" format="ascii">
 0.1010996378836E+02
 0.9117608717906E+01
 0.8287521947980E+01
 0.7939186574471E+01
 0.7646355809611E+01
 0.7406532266538E+01
 0.7186523831696E+01
 0.6977340149849E+01
 0.6772479837929E+01
 0.6568658732586E+01
 0.6363892686113E+01
 0.6157107474823E+01
 0.5947853449660E+01
 0.5736319213342E+01
 0.5523813402639E+01
 0.5314150143270E+01
 0.5105420458336E+01
 0.4881206056105E+01
 0.4627699352361E+01
 0.4346084672811E+01
 0.4043536192053E+01
 0.3726973105369E+01
 0.3401566548287E+01
 0.3071064784611E+01
 0.2738396279639E+01
 0.2406095684134E+01
 0.2076580481291E+01
 0.1753669079229E+01
 0.1443208866950E+01
 0.1151216864554E+01
 0.8832630440429E+00
 0.6451071604297E+00
 0.4428571941098E+00
 0.2828205715633E+00
 0.1711385842460E+00
 0.1124410223141E+00
 0.1109895685715E+00
 0.1628144942072E+00
 0.3032812643506E+00
 0.4173449970822E+00
 0.1201946318958E+01
 0.8538045995695E+01
 0.8806567710665E+01
 0.8154107608862E+01
 0.7733353102167E+01
 0.7441698661856E+01
 0.7191575908555E+01
 0.6968457872910E+01
 0.6757917224059E+01
 0.6553689406241E+01
 0.6351784539690E+01
 0.6149932014479E+01
 0.5946803025274E+01
 0.5741737927272E+01
 0.5534697188266E+01
 0.5326114658633E+01
 0.5115528018474E+01
 0.4899293425196E+01
 0.4670722425337E+01
 0.4424023030325E+01
 0.4157802223041E+01
 0.3874722594739E+01
 0.3578984404650E+01
 0.3274587073650E+01
 0.2964908340295E+01
 0.2652826064318E+01
 0.2341016568581E+01
 0.2032383084523E+01
 0.1730496203942E+01
 0.1439696659421E+01
 0.1164769395989E+01
 0.9105934722558E+00
 0.6820532808308E+00
 0.4840250378538E+00
 0.3212278164025E+00
 0.1978376079412E+00
 0.1175602699210E+00
 0.8212797429419E-01
 0.9265315927310E-01
 0.1347236529905E+00
 0.1354971372392E+00
 0.6905209799806E+00
 0.7573630540729E+01
 0.8147340655001E+01
 0.7891848269268E+01
 0.7502183172049E+01
 0.7214310712751E+01
 0.6967802077181E+01
 0.6745183127199E+01
 0.6536145367708E+01
 0.6333991811772E+01
 0.6134903890856E+01
 0.5936473549969E+01
 0.5737250139477E+01
 0.5536398423354E+01
 0.5333514736236E+01
 0.5127935259125E+01
 0.4917530811154E+01
 0.4699272510379E+01
 0.4470972307677E+01
 0.4230878018822E+01
 0.3977524879631E+01
 0.3711215670621E+01
 0.3434057138213E+01
 0.3148862973289E+01
 0.2858466665665E+01
 0.2565548176495E+01
 0.2272783827282E+01
 0.1983094554398E+01
 0.1699677992122E+01
 0.1425985388501E+01
 0.1165822281313E+01
 0.9232475564693E+00
 0.7023139245367E+00
 0.5068984118936E+00
 0.3405389503944E+00
 0.2063545625981E+00
 0.1072456525454E+00
 0.4818811869238E-01
 0.3918288962391E-01
 0.6270311604534E-01
 0.5028639127250E-01
 0.4125348643856E+00
 0.6887374298292E+01
 0.7501296107390E+01
 0.7508845777545E+01
 0.7233663400852E+01
 0.6967659107524E+01
 0.6732891688848E+01
 0.6516248965271E+01
 0.6311346749640E+01
 0.6112955770312E+01
 0.5917666292992E+01
 0.5723252668240E+01
 0.5528256209038E+01
 0.5331717481083E+01
 0.5132846531798E+01
 0.4930271951020E+01
 0.4721503513328E+01
 0.4504496909381E+01
 0.4279293899105E+01
 0.4046187001471E+01
 0.3804199537410E+01
 0.3552607486241E+01
 0.3292094646409E+01
 0.3024424792117E+01
 0.2751823177613E+01
 0.2476662679785E+01
 0.2201458348458E+01
 0.1928930719506E+01
 0.1661876048075E+01
 0.1403107744504E+01
 0.1155661128847E+01
 0.9228218939871E+00
 0.7078864909885E+00
 0.5139426178361E+00
 0.3437609771549E+00
 0.1999118728212E+00
 0.8607551500386E-01
 0.3566999308965E-01
 0.8645622022848E-01
 0.1383909500286E+00
 0.1079989169925E+00
 0.2234515735228E+00
 0.6351379231228E+01
 0.6925685519909E+01
 0.7079364444260E+01
 0.6924912874766E+01
 0.6703114721720E+01
 0.6487044503464E+01
 0.6281200120264E+01
 0.6083220499851E+01
 0.5890260979280E+01
 0.5699817629914E+01
 0.5510063873999E+01
 0.5319676071779E+01
 0.5127636150619E+01
 0.4932883341166E+01
 0.4733747389548E+01
 0.4527940503630E+01
 0.4314292847336E+01
 0.4093977750322E+01
 0.3868307238212E+01
 0.3636807262999E+01
 0.3398406031677E+01
 0.3152913345242E+01
 0.2901247021534E+01
 0.2645033397989E+01
 0.2386266154680E+01
 0.2127183399237E+01
 0.1870198663206E+01
 0.1617704799606E+01
 0.1372000840841E+01
 0.1135501677944E+01
 0.9108256599114E+00
 0.7006239621995E+00
 0.5073983470698E+00
 0.3334825158755E+00
 0.1814840370891E+00
 0.5972585845251E-01
 0.7343997507681E-01
 0.1551985940802E+00
 0.2134513704029E+00
 0.1794530007934E+00
 0.1117778220315E+00
 0.5905822607630E+01
 0.6419175995951E+01
 0.6645448483809E+01
 0.6589635595899E+01
 0.6421856644483E+01
 0.6231364417167E+01
 0.6040132140541E+01
 0.5851667999767E+01
 0.5665749597664E+01
 0.5481190066109E+01
 0.5296763946249E+01
 0.5111409441742E+01
 0.4924144385756E+01
 0.4733799000909E+01
 0.4538696926723E+01
 0.4336958245407E+01
 0.4128090194406E+01
 0.3913831461967E+01
 0.3695973810362E+01
 0.3474430038225E+01
 0.3248091529176E+01
 0.3016274758350E+01
 0.2779260837219E+01
 0.2538129306397E+01
 0.2294460584379E+01
 0.2050147293111E+01
 0.1807245520807E+01
 0.1567753129732E+01
 0.1333527534884E+01
 0.1106473806543E+01
 0.8886591508541E+00
 0.6822187792854E+00
 0.4892572179527E+00
 0.3119755593411E+00
 0.1538281366100E+00
 0.4462610932870E-01
 0.1258650134072E+00
 0.2218649825395E+00
 0.2819031569344E+00
 0.2538129289221E+00
 0.1472625565618E+00
 0.5519110455109E+01
 0.5970023345141E+01
 0.6226066660891E+01
 0.6242307609137E+01
 0.6127783488996E+01
 0.5967203351159E+01
 0.5793623931182E+01
 0.5616814149803E+01
 0.5439402896976E+01
 0.5261705939913E+01
 0.5083267763590E+01
 0.4903398058273E+01
 0.4721254730018E+01
 0.4535711960442E+01
 0.4345267371814E+01
 0.4148493226296E+01
 0.3945393927147E+01
 0.3737970296695E+01
 0.3528205107253E+01
 0.3316274121672E+01
 0.3101155533738E+01
 0.2881912187719E+01
 0.2658367326476E+01
 0.2431125630657E+01
 0.2201351577571E+01
 0.1970560780999E+01
 0.1740433239028E+01
 0.1512586481803E+01
 0.1288487774461E+01
 0.1069618880082E+01
 0.8576060214546E+00
 0.6541995736277E+00
 0.4612861824622E+00
 0.2812642092889E+00
 0.1201007346151E+00
 0.6724860958723E-01
 0.1829613021759E+00
 0.2871873559255E+00
 0.3491659356758E+00
 0.3317161462990E+00
 0.2472865055457E+00
 0.5173058105226E+01
 0.5566589535702E+01
 0.5828305048087E+01
 0.5893567777551E+01
 0.5825910056544E+01
 0.5696430469400E+01
 0.5542520245534E+01
 0.5378999748509E+01
 0.5211325818392E+01
 0.5041370656569E+01
 0.4869544562218E+01
 0.4695618234943E+01
 0.4518985142340E+01
 0.4338684890326E+01
 0.4153487868265E+01
 0.3962395824903E+01
 0.3765769753178E+01
 0.3565707047246E+01
 0.3364226439507E+01
 0.3161665901280E+01
 0.2957124333164E+01
 0.2749551280860E+01
 0.2538449743951E+01
 0.2324025098107E+01
 0.2107045027213E+01
 0.1888643044060E+01
 0.1670124005217E+01
 0.1452744520510E+01
 0.1237623895588E+01
 0.1025891983902E+01
 0.8188334714193E+00
 0.6179395707574E+00
 0.4250607179730E+00
 0.2432485304270E+00
 0.8606328369258E-01
 0.1130691671350E+00
 0.2432753034939E+00
 0.3530173350266E+00
 0.4181552378942E+00
 0.4126853529077E+00
 0.3503648275500E+00
 0.4856487141389E+01
 0.5199381536818E+01
 0.5453642572897E+01
 0.5550145288590E+01
 0.5520941864114E+01
 0.5421255093708E+01
 0.5287861886079E+01
 0.5138721668561E+01
 0.4981732640179E+01
 0.4820261770302E+01
 0.4655611739285E+01
 0.4488073228015E+01
 0.4317351213203E+01
 0.4142736027915E+01
 0.3963316705794E+01
 0.3778478194716E+01
 0.3588834697629E+01
 0.3396489556688E+01
 0.3203415214687E+01
 0.3010037454740E+01
 0.2815569816797E+01
 0.2618924639527E+01
 0.2419383642229E+01
 0.2216822650038E+01
 0.2011644416980E+01
 0.1804612856716E+01
 0.1596671183182E+01
 0.1388738237239E+01
 0.1181623314080E+01
 0.9761657624849E+00
 0.7733975232610E+00
 0.5746712522356E+00
 0.3820092427808E+00
 0.1999654527673E+00
 0.6786273719606E-01
 0.1679980385740E+00
 0.3065643723295E+00
 0.4206449855918E+00
 0.4899886271849E+00
 0.4959857746953E+00
 0.4500141758116E+00
 0.4562151157562E+01
 0.4861061063299E+01
 0.5101087366083E+01
 0.5215849294075E+01
 0.5216661269779E+01
 0.5143906545969E+01
 0.5030808793371E+01
 0.4896581362657E+01
 0.4750922596960E+01
 0.4598517183227E+01
 0.4441526863237E+01
 0.4280786807146E+01
 0.4116364062780E+01
 0.3947852089587E+01
 0.3774671552296E+01
 0.3596539720848E+01
 0.3414250014425E+01
 0.3229862921181E+01
 0.3045262574696E+01
 0.2860910159515E+01
 0.2676112338798E+01
 0.2489781080016E+01
 0.2301044557914E+01
 0.2109508796755E+01
 0.1915249096198E+01
 0.1718683010129E+01
 0.1520413535937E+01
 0.1321047623804E+01
 0.1121120318332E+01
 0.9212349509157E+00
 0.7222512140335E+00
 0.5255056733777E+00
 0.3334809743905E+00
 0.1542801516695E+00
 0.8822905559763E-01
 0.2283420509562E+00
 0.3727780291227E+00
 0.4907364097628E+00
 0.5648846739874E+00
 0.5810534661188E+00
 0.5465642449682E+00
 0.4285139439887E+01
 0.4546033103262E+01
 0.4768688712153E+01
 0.4892544134236E+01
 0.4915824991626E+01
 0.4866393038639E+01
 0.4772542801790E+01
 0.4653238999112E+01
 0.4519253341857E+01
 0.4376321347652E+01
 0.4227379223125E+01
 0.4073798015427E+01
 0.3916030860282E+01
 0.3753999352969E+01
 0.3587448787306E+01
 0.3416380770184E+01
 0.3241715467512E+01
 0.3065445315514E+01
 0.2889346459835E+01
 0.2713879593343E+01
 0.2538419137169E+01
 0.2361890682234E+01
 0.2183313364677E+01
 0.2002072216314E+01
 0.1817953349303E+01
 0.1631056865409E+01
 0.1441671599743E+01
 0.1250120181516E+01
 0.1056697741024E+01
 0.8618213180149E+00
 0.6662545643605E+00
 0.4714577611200E+00
 0.2808693440898E+00
 0.1121946016810E+00
 0.1359193604413E+00
 0.2927544729949E+00
 0.4418282258259E+00
 0.5635145026448E+00
 0.6426831341863E+00
 0.6675607453781E+00
 0.6411432209792E+00
 0.4021995495159E+01
 0.4250025058263E+01
 0.4454245567948E+01
 0.4580878206456E+01
 0.4620286365438E+01
 0.4590380235772E+01
 0.4514179678753E+01
 0.4409369565902E+01
 0.4287115588466E+01
 0.4153890660919E+01
 0.4013281302262E+01
 0.3867156845549E+01
 0.3716356122562E+01
 0.3561132123250E+01
 0.3401535726235E+01
 0.3237810021673E+01
 0.3070964547842E+01
 0.2902911753474E+01
 0.2735312419844E+01
 0.2568602672669E+01
 0.2402200599201E+01
 0.2235046849823E+01
 0.2066079644005E+01
 0.1894501666475E+01
 0.1719846008902E+01
 0.1541926327797E+01
 0.1360745543560E+01
 0.1176370243478E+01
 0.9888888216313E+00
 0.7985789156049E+00
 0.6061861452649E+00
 0.4134825498706E+00
 0.2258930228423E+00
 0.8958167419548E-01
 0.1948726340989E+00
 0.3604868926636E+00
 0.5135466855262E+00
 0.6389351733936E+00
 0.7231023514265E+00
 0.7553647915137E+00
 0.7348206201838E+00
 0.3770205131898E+01
 0.3969746926950E+01
 0.4155622691652E+01
 0.4280776766450E+01
 0.4331183567738E+01
 0.4317160839110E+01
 0.4256708039272E+01
 0.4165623948816E+01
 0.4054909877544E+01
 0.3931459318888E+01
 0.3799360509387E+01
 0.3660920486511E+01
 0.3517342892847E+01
 0.3369198730386E+01
 0.3216818191700E+01
 0.3060648147567E+01
 0.2901760387529E+01
 0.2741982693738E+01
 0.2582859683685E+01
 0.2424787063091E+01
 0.2267205710095E+01
 0.2109066423113E+01
 0.1949243516215E+01
 0.1786787294805E+01
 0.1621010404480E+01
 0.1451470781537E+01
 0.1277914083630E+01
 0.1100178992206E+01
 0.9181793426883E+00
 0.7320996326043E+00
 0.5427569917297E+00
 0.3525363858633E+00
 0.1713924506808E+00
 0.1073098274329E+00
 0.2595520339597E+00
 0.4309952044218E+00
 0.5876970931967E+00
 0.7168125060571E+00
 0.8058531746015E+00
 0.8444411240575E+00
 0.8284680425292E+00
 0.3527886186845E+01
 0.3702636263007E+01
 0.3870877021508E+01
 0.3991758815412E+01
 0.4049122883414E+01
 0.4047677437329E+01
 0.4000957170034E+01
 0.3922598677546E+01
 0.3823026365565E+01
 0.3709266405735E+01
 0.3585751485863E+01
 0.3455149915877E+01
 0.3318993446063E+01
 0.3178145492129E+01
 0.3033185024494E+01
 0.2884729372591E+01
 0.2733892223738E+01
 0.2582415736694E+01
 0.2431730844867E+01
 0.2282182589611E+01
 0.2133217417761E+01
 0.1983788635449E+01
 0.1832716369406E+01
 0.1678921461136E+01
 0.1521524509762E+01
 0.1359856684486E+01
 0.1193434159604E+01
 0.1021895030587E+01
 0.8450100219169E+00
 0.6629191726048E+00
 0.4766292049891E+00
 0.2897034291174E+00
 0.1239741027067E+00
 0.1555375651509E+00
 0.3278944095242E+00
 0.5038235273487E+00
 0.6639995260236E+00
 0.7968960868770E+00
 0.8906814094578E+00
 0.9348319549645E+00
 0.9227584054990E+00
 0.3293593385034E+01
 0.3446671667888E+01
 0.3598294137908E+01
 0.3713134410273E+01
 0.3774331892970E+01
 0.3782570076690E+01
 0.3747588013779E+01
 0.3680815833599E+01
 0.3591828518111E+01
 0.3487544707263E+01
 0.3372589223540E+01
 0.3249906755036E+01
 0.3121309459540E+01
 0.2987919116638E+01
 0.2850530581278E+01
 0.2709901791267E+01
 0.2567172318016E+01
 0.2423999380416E+01
 0.2281704084456E+01
 0.2140574318127E+01
 0.2000048296699E+01
 0.1859073478433E+01
 0.1716420873811E+01
 0.1570899210932E+01
 0.1421461222090E+01
 0.1267237633328E+01
 0.1107541169975E+01
 0.9418353702146E+00
 0.7697791073358E+00
 0.5915238032479E+00
 0.4084453193863E+00
 0.2265172917300E+00
 0.1007995126460E+00
 0.2166465592940E+00
 0.3988446099894E+00
 0.5785647245070E+00
 0.7421528751731E+00
 0.8789135631880E+00
 0.9773764436283E+00
 0.1026613349830E+01
 0.1018192771891E+01
 0.3066191560373E+01
 0.3200237364509E+01
 0.3336383980608E+01
 0.3444124211506E+01
 0.3506778201816E+01
 0.3522230960522E+01
 0.3497099726597E+01
 0.3440712480061E+01
 0.3361641176150E+01
 0.3266511560591E+01
 0.3160003149079E+01
 0.3045250397559E+01
 0.2924291733280E+01
 0.2798467971203E+01
 0.2668755922336E+01
 0.2536026975148E+01
 0.2401433274227E+01
 0.2266548216095E+01
 0.2132587228853E+01
 0.1999777018759E+01
 0.1867536706309E+01
 0.1734799874227E+01
 0.1600290610596E+01
 0.1462718556554E+01
 0.1320888771185E+01
 0.1173754798132E+01
 0.1020449636114E+01
 0.8602867207040E+00
 0.6928451253060E+00
 0.5183587444884E+00
 0.3388849733803E+00
 0.1659644882898E+00
 0.1209640724048E+00
 0.2835410401808E+00
 0.4717179442235E+00
 0.6548466652823E+00
 0.8218519701310E+00
 0.9625907448085E+00
 0.1065763440621E+01
 0.1119877353673E+01
 0.1115128787532E+01
 0.2844770883996E+01
 0.2962024688358E+01
 0.3083859878542E+01
 0.3183929732873E+01
 0.3246257429255E+01
 0.3266856879163E+01
 0.3249845169514E+01
 0.3202637799006E+01
 0.3132742925821E+01
 0.3046361884675E+01
 0.2948112270929E+01
 0.2841235466136E+01
 0.2727939605055E+01
 0.2609742576498E+01
 0.2487769175796E+01
 0.2362979210551E+01
 0.2236525730086E+01
 0.2109899192435E+01
 0.1984213193505E+01
 0.1859630794436E+01
 0.1735543553228E+01
 0.1610863947630E+01
 0.1484269601412E+01
 0.1354380745165E+01
 0.1219871318759E+01
 0.1079537706404E+01
 0.9323542322930E+00
 0.7775069905228E+00
 0.6145297652630E+00
 0.4438403641720E+00
 0.2687999173451E+00
 0.1161227112593E+00
 0.1715426943440E+00
 0.3535638424607E+00
 0.5460016153625E+00
 0.7323278518886E+00
 0.9028002218029E+00
 0.1047659602382E+01
 0.1155685597987E+01
 0.1214722509494E+01
 0.1213803340661E+01
 0.2628588707169E+01
 0.2730959984315E+01
 0.2839612435082E+01
 0.2931772889446E+01
 0.2992456467072E+01
 0.3016495146071E+01
 0.3006050461639E+01
 0.2966855794947E+01
 0.2905362284716E+01
 0.2827263366707E+01
 0.2737021433618E+01
 0.2637909669210E+01
 0.2532250222325E+01
 0.2421695623927E+01
 0.2307485429857E+01
 0.2190644605210E+01
 0.2072316430194E+01
 0.1953908743190E+01
 0.1836436547030E+01
 0.1719997745333E+01
 0.1603949750538E+01
 0.1487177645611E+01
 0.1368312015611E+01
 0.1245890733700E+01
 0.1118469890446E+01
 0.9847054528557E+00
 0.8434312018180E+00
 0.6937269449959E+00
 0.5351209656686E+00
 0.3683780431326E+00
 0.1996159953615E+00
 0.9873700623892E-01
 0.2344546195636E+00
 0.4254586485968E+00
 0.6212799510412E+00
 0.8106963247958E+00
 0.9847187763967E+00
 0.1133864172017E+01
 0.1246979779988E+01
 0.1311242275246E+01
 0.1314342080926E+01
 0.2417028734112E+01
 0.2506151378331E+01
 0.2602683571428E+01
 0.2686916724788E+01
 0.2744997908167E+01
 0.2771081753444E+01
 0.2765835409129E+01
 0.2733551596742E+01
 0.2679676996858E+01
 0.2609353640405E+01
 0.2526818677823E+01
 0.2435312129047E+01
 0.2337217831275E+01
 0.2234281767470E+01
 0.2127826427030E+01
 0.2018920257098E+01
 0.1908686730677E+01
 0.1798450699521E+01
 0.1689131081529E+01
 0.1580759644598E+01
 0.1472654509625E+01
 0.1363667973642E+01
 0.1252382378206E+01
 0.1137258180866E+01
 0.1016743909209E+01
 0.8893685574620E+00
 0.7538403099826E+00
 0.6091520196811E+00
 0.4548764614744E+00
 0.2924238420647E+00
 0.1348807590859E+00
 0.1294071700972E+00
 0.3024732997798E+00
 0.4984879260177E+00
 0.6972015615759E+00
 0.8896686140036E+00
 0.1067354154533E+01
 0.1220966789666E+01
 0.1339465525606E+01
 0.1409490855215E+01
 0.1416720330659E+01
 0.2209571760832E+01
 0.2286849100288E+01
 0.2372242941606E+01
 0.2448674804027E+01
 0.2503470611183E+01
 0.2530471969476E+01
 0.2529232939208E+01
 0.2502839779758E+01
 0.2455815681247E+01
 0.2392739206924E+01
 0.2317573670533E+01
 0.2233472251727E+01
 0.2142833241762E+01
 0.2047457418664E+01
 0.1948720304243E+01
 0.1847713680809E+01
 0.1745531650753E+01
 0.1643415036853E+01
 0.1542188432513E+01
 0.1441816746144E+01
 0.1341574719532E+01
 0.1240277233240E+01
 0.1136456745625E+01
 0.1028499458363E+01
 0.9147538405986E+00
 0.7936319683226E+00
 0.6637277404291E+00
 0.5239643882926E+00
 0.3740286054453E+00
 0.2166184665919E+00
 0.8758367521514E-01
 0.1862807049970E+00
 0.3728970541080E+00
 0.5721470645749E+00
 0.7734631135025E+00
 0.9689882737573E+00
 0.1150479381483E+01
 0.1308771482197E+01
 0.1432910654412E+01
 0.1509601404545E+01
 0.1520308135791E+01
 0.2005774307186E+01
 0.2072415605323E+01
 0.2147567433767E+01
 0.2216413943871E+01
 0.2267450287604E+01
 0.2294464272133E+01
 0.2296206589906E+01
 0.2274773563054E+01
 0.2233861150517E+01
 0.2177495825457E+01
 0.2109337159777E+01
 0.2032409221288E+01
 0.1949083643656E+01
 0.1861180786565E+01
 0.1770101646047E+01
 0.1676942746803E+01
 0.1582759702914E+01
 0.1488707681321E+01
 0.1395518010798E+01
 0.1303088085160E+01
 0.1210645921574E+01
 0.1116964926870E+01
 0.1020525654054E+01
 0.9196416001135E+00
 0.8125659675730E+00
 0.6976002957839E+00
 0.5732309323862E+00
 0.4383256323542E+00
 0.2927931798033E+00
 0.1423835207014E+00
 0.9215570982570E-01
 0.2523418438877E+00
 0.4444882414857E+00
 0.6460556580416E+00
 0.8497986377730E+00
 0.1048427807096E+01
 0.1233885268406E+01
 0.1397134596044E+01
 0.1527146552846E+01
 0.1611250259857E+01
 0.1627252646202E+01
 0.1805252745636E+01
 0.1862302840730E+01
 0.1928023775415E+01
 0.1989553167534E+01
 0.2036513032672E+01
 0.2062818732940E+01
 0.2066665708030E+01
 0.2049354132019E+01
 0.2013854858279E+01
 0.1963670137698E+01
 0.1902141437135E+01
 0.1832132245301E+01
 0.1755953009029E+01
 0.1675412478940E+01
 0.1591912222730E+01
 0.1506536545409E+01
 0.1420293959774E+01
 0.1334251905941E+01
 0.1249048891710E+01
 0.1164514087944E+01
 0.1079825919259E+01
 0.9937126257473E+00
 0.9046004067062E+00
 0.8107300447627E+00
 0.7102614716354E+00
 0.6013877822586E+00
 0.4824879183711E+00
 0.3523811203003E+00
 0.2113933611029E+00
 0.7584262617688E-01
 0.1439679451843E+00
 0.3218718484654E+00
 0.5165566915377E+00
 0.7199089364479E+00
 0.9259748517319E+00
 0.1127779702099E+01
 0.1317404957672E+01
 0.1485867297953E+01
 0.1622347703803E+01
 0.1713352604890E+01
 0.1742579492284E+01
 0.1607671328809E+01
 0.1656034772457E+01
 0.1713053965528E+01
 0.1767560654610E+01
 0.1810243948894E+01
 0.1835270964403E+01
 0.1840478391295E+01
 0.1826539682100E+01
 0.1795802129138E+01
 0.1751282402927E+01
 0.1696001894632E+01
 0.1632641805968E+01
 0.1563423476158E+01
 0.1490117188871E+01
 0.1414103060611E+01
 0.1336437956978E+01
 0.1258075305448E+01
 0.1179992480526E+01
 0.1102735105353E+01
 0.1026063290562E+01
 0.9491032600874E+00
 0.8705345553325E+00
 0.7887260664065E+00
 0.7018442879665E+00
 0.6079549081858E+00
 0.5051393412304E+00
 0.3916585180454E+00
 0.2662701505510E+00
 0.1301657345896E+00
 0.5857496083040E-01
 0.2105245356427E+00
 0.3927945078073E+00
 0.5886560756135E+00
 0.7934541476272E+00
 0.1001784198703E+01
 0.1206863212871E+01
 0.1400869270545E+01
 0.1574912389168E+01
 0.1718195121050E+01
 0.1817551125668E+01
 0.1859585578629E+01
 0.1412733029197E+01
 0.1453193819921E+01
 0.1502163157725E+01
 0.1549949760202E+01
 0.1588242430471E+01
 0.1611542662808E+01
 0.1617482467560E+01
 0.1606254097457E+01
 0.1579678087178E+01
 0.1540330446472E+01
 0.1490920007002E+01
 0.1433932473143E+01
 0.1371478498940E+01
 0.1305267494228E+01
 0.1236639150859E+01
 0.1166609574247E+01
 0.1096069946724E+01
 0.1025905192648E+01
 0.9565676193988E+00
 0.8877472856401E+00
 0.8185157178999E+00
 0.7475002660028E+00
 0.6730090939499E+00
 0.5931315183963E+00
 0.5058352948199E+00
 0.4090808113777E+00
 0.3009824187833E+00
 0.1801614691186E+00
 0.5066938092549E-01
 0.1152345284223E+00
 0.2812840749829E+00
 0.4641660000108E+00
 0.6604669830363E+00
 0.8664764865030E+00
 0.1077043204985E+01
 0.1285511643568E+01
 0.1484146312053E+01
 0.1664134498725E+01
 0.1814792134036E+01
 0.1923581896524E+01
 0.1978205788899E+01
 0.1220172438574E+01
 0.1253410222695E+01
 0.1294909612789E+01
 0.1336274754885E+01
 0.1370125276972E+01
 0.1391349717281E+01
 0.1397495049783E+01
 0.1388395564968E+01
 0.1365434632981E+01
 0.1330795412485E+01
 0.1286888663386E+01
 0.1235998591702E+01
 0.1180109526120E+01
 0.1120852078653E+01
 0.1059509782689E+01
 0.9970468249784E+00
 0.9342861366190E+00
 0.8720180904393E+00
 0.8106011048791E+00
 0.7496541330675E+00
 0.6881916732533E+00
 0.6247856867144E+00
 0.5576805455821E+00
 0.4848860335006E+00
 0.4042691912525E+00
 0.3136601429256E+00
 0.2109839317869E+00
 0.9447622140369E-01
 0.3941512161193E-01
 0.1875711025144E+00
 0.3534005516344E+00
 0.5354684096808E+00
 0.7317451231760E+00
 0.9387911396897E+00
 0.1151587319065E+01
 0.1363577088472E+01
 0.1567104995887E+01
 0.1753443637827E+01
 0.1912108635649E+01
 0.2031102738497E+01
 0.2098540678049E+01
 0.1029750198159E+01
 0.1056353628305E+01
 0.1090896375629E+01
 0.1126126704970E+01
 0.1155528599931E+01
 0.1174408948595E+01
 0.1180321643556E+01
 0.1172846138187E+01
 0.1153009767062E+01
 0.1122651126320E+01
 0.1083902343263E+01
 0.1038846209890E+01
 0.9893306775502E+00
 0.9368942518887E+00
 0.8827522101501E+00
 0.8278083961941E+00
 0.7728133240111E+00
 0.7184616510871E+00
 0.6650177223200E+00
 0.6120287949572E+00
 0.5584510323981E+00
 0.5028000317655E+00
 0.4432581078254E+00
 0.3777638785052E+00
 0.3041064930529E+00
 0.2200472036799E+00
 0.1235527430888E+00
 0.1810808022570E-01
 0.1176186099436E+00
 0.2626118807471E+00
 0.4258338149350E+00
 0.6063760560410E+00
 0.8022957939583E+00
 0.1010237322181E+01
 0.1225269146950E+01
 0.1440923501214E+01
 0.1649625194541E+01
 0.1842748556355E+01
 0.2010031989175E+01
 0.2139886088683E+01
 0.2220596846001E+01
 0.8412485838950E+00
 0.8617263808204E+00
 0.8897643874456E+00
 0.9191298548573E+00
 0.9441095986037E+00
 0.9604451198620E+00
 0.9657669786388E+00
 0.9594851328137E+00
 0.9423431752098E+00
 0.9158824062639E+00
 0.8819793570435E+00
 0.8425209285839E+00
 0.7992143363263E+00
 0.7534979917666E+00
 0.7065116212590E+00
 0.6590946015455E+00
 0.6119245446422E+00
 0.5656019735382E+00
 0.5202991195841E+00
 0.4754938119991E+00
 0.4300881182422E+00
 0.3825524451278E+00
 0.3310367164957E+00
 0.2734858494121E+00
 0.2078345976371E+00
 0.1326557546210E+00
 0.5398301584438E-01
 0.8155879579497E-01
 0.1982334284113E+00
 0.3382292575061E+00
 0.4980961866182E+00
 0.6766645946448E+00
 0.8719598490190E+00
 0.1080674321122E+01
 0.1297955530348E+01
 0.1517425244127E+01
 0.1731593504918E+01
 0.1931946112742E+01
 0.2108433079551E+01
 0.2249766600207E+01
 0.2344339363043E+01
 0.6544679839589E+00
 0.6692581345671E+00
 0.6911868252575E+00
 0.7149391522681E+00
 0.7355503192284E+00
 0.7492022322331E+00
 0.7536538906842E+00
 0.7482155766593E+00
 0.7334110285177E+00
 0.7105301541878E+00
 0.6812204410288E+00
 0.6471846388565E+00
 0.6099924211788E+00
 0.5709824292536E+00
 0.5312205057801E+00
 0.4914871485401E+00
 0.4523967196643E+00
 0.4144666764586E+00
 0.3777887504057E+00
 0.3417883073220E+00
 0.3053472114555E+00
 0.2669693537347E+00
 0.2249685073274E+00
 0.1778428713602E+00
 0.1255997118044E+00
 0.7776855233467E-01
 0.8670229811828E-01
 0.1669157448813E+00
 0.2789224052391E+00
 0.4137940041031E+00
 0.5699173175814E+00
 0.7461705996066E+00
 0.9406053974367E+00
 0.1149978378966E+01
 0.1369525400090E+01
 0.1592965239807E+01
 0.1812899549892E+01
 0.2020927371134E+01
 0.2207185827117E+01
 0.2360615068872E+01
 0.2469710442149E+01
 0.4692241179844E+00
 0.4787015594104E+00
 0.4948646557390E+00
 0.5132411925631E+00
 0.5295707293554E+00
 0.5404739897626E+00
 0.5438749850639E+00
 0.5390409445276E+00
 0.5263333639795E+00
 0.5068380288803E+00
 0.4820077743810E+00
 0.4533860030205E+00
 0.4224258139496E+00
 0.3903891557263E+00
 0.3582981813238E+00
 0.3269154607084E+00
 0.2968430894104E+00
 0.2685694206401E+00
 0.2421653870943E+00
 0.2170995877427E+00
 0.1924354352697E+00
 0.1671856252911E+00
 0.1410180283715E+00
 0.1161467299948E+00
 0.1021866755669E+00
 0.1179680948041E+00
 0.1706730940399E+00
 0.2528000079098E+00
 0.3594143322167E+00
 0.4890455285255E+00
 0.6411314093449E+00
 0.8147715529874E+00
 0.1008122517374E+01
 0.1218040276514E+01
 0.1439867994791E+01
 0.1667433111535E+01
 0.1893435111227E+01
 0.2109582574042E+01
 0.2306172435800E+01
 0.2472322560883E+01
 0.2596638765633E+01
 0.2853461665749E+00
 0.2898292803121E+00
 0.3005244482199E+00
 0.3137720983853E+00
 0.3259932875394E+00
 0.3342393213422E+00
 0.3366211382783E+00
 0.3324122111892E+00
 0.3218762300319E+00
 0.3059657080881E+00
 0.2860158492143E+00
 0.2635013243542E+00
 0.2398751677583E+00
 0.2164786930510E+00
 0.1944957690035E+00
 0.1749229588260E+00
 0.1586026080713E+00
 0.1461353968577E+00
 0.1375457111335E+00
 0.1322770929852E+00
 0.1296800944515E+00
 0.1296663972089E+00
 0.1334133069654E+00
 0.1439042242934E+00
 0.1656768599262E+00
 0.2033913128438E+00
 0.2604136030120E+00
 0.3387449404078E+00
 0.4396331544199E+00
 0.5638565647483E+00
 0.7116321314388E+00
 0.8823750348821E+00
 0.1074419711287E+01
 0.1284763437533E+01
 0.1508881317907E+01
 0.1740723828602E+01
 0.1973094114487E+01
 0.2197803738663E+01
 0.2405283307731E+01
 0.2584791391001E+01
 0.2725045377904E+01
 0.1026805474920E+00
 0.1024375504479E+00
 0.1079368251047E+00
 0.1165479082302E+00
 0.1254371998325E+00
 0.1320400948469E+00
 0.1346705968698E+00
 0.1327566729252E+00
 0.1267634886919E+00
 0.1179951772801E+00
 0.1083946958032E+00
 0.1003239718051E+00
 0.9612633840013E-01
 0.9730581229097E-01
 0.1038283905188E+00
 0.1144032369462E+00
 0.1273789366989E+00
 0.1413054145680E+00
 0.1552072757967E+00
 0.1687144353624E+00
 0.1820184269480E+00
 0.1958643380552E+00
 0.2116601490409E+00
 0.2316528891285E+00
 0.2590172099046E+00
 0.2976555193395E+00
 0.3516567238872E+00
 0.4246788852125E+00
 0.5195588273344E+00
 0.6381636483708E+00
 0.7813521176283E+00
 0.9489124719101E+00
 0.1139421449777E+01
 0.1350062426328E+01
 0.1576470856809E+01
 0.1812736720734E+01
 0.2051772614796E+01
 0.2285485479333E+01
 0.2504415357883E+01
 0.2697930217640E+01
 0.2854847878018E+01
 0.7898402817235E-01
 0.8373847435268E-01
 0.8336556481165E-01
 0.8132372080067E-01
 0.8086241347860E-01
 0.8393458764045E-01
 0.9094020528365E-01
 0.1013870944625E+00
 0.1146134117233E+00
 0.1300165893835E+00
 0.1469988403500E+00
 0.1649195743628E+00
 0.1831258295983E+00
 0.2010197828603E+00
 0.2181211928416E+00
 0.2341065433393E+00
 0.2487470718291E+00
 0.2618557240606E+00
 0.2734759799213E+00
 0.2840292469235E+00
 0.2942660119878E+00
 0.3052518193014E+00
 0.3184453678464E+00
 0.3358481041784E+00
 0.3601542221469E+00
 0.3947750175375E+00
 0.4436129430157E+00
 0.5106051716209E+00
 0.5991999423246E+00
 0.7119414803459E+00
 0.8502526920060E+00
 0.1014335345741E+01
 0.1203066446495E+01
 0.1413861769373E+01
 0.1642548540974E+01
 0.1883374681942E+01
 0.2129368535964E+01
 0.2372524802550E+01
 0.2603470128502E+01
 0.2811651537205E+01
 0.2985963455244E+01
 0.2596848453771E+00
 0.2687690047453E+00
 0.2732039641826E+00
 0.2752769091120E+00
 0.2771973659839E+00
 0.2806395585000E+00
 0.2865511359379E+00
 0.2951868361032E+00
 0.3062710363890E+00
 0.3191947882813E+00
 0.3331914930199E+00
 0.3474725319390E+00
 0.3613229146471E+00
 0.3741632543298E+00
 0.3855863647599E+00
 0.3953744013635E+00
 0.4034273603834E+00
 0.4097083791127E+00
 0.4144224653219E+00
 0.4181508709295E+00
 0.4217917450616E+00
 0.4265226026051E+00
 0.4338382476724E+00
 0.4456566397073E+00
 0.4644558070149E+00
 0.4933614732270E+00
 0.5360716286159E+00
 0.5965582595360E+00
 0.6785856827673E+00
 0.7851919428808E+00
 0.9183183560629E+00
 0.1078612841757E+01
 0.1265306462416E+01
 0.1476095056295E+01
 0.1707031897684E+01
 0.1952543454435E+01
 0.2205781164622E+01
 0.2458820392434E+01
 0.2702352158000E+01
 0.2925870478902E+01
 0.3118311171188E+01
 0.4396275573712E+00
 0.4529049268008E+00
 0.4620523264859E+00
 0.4687255998030E+00
 0.4745594774073E+00
 0.4808327001070E+00
 0.4883023739467E+00
 0.4971937597031E+00
 0.5072955876627E+00
 0.5181035761370E+00
 0.5289673503819E+00
 0.5392149356586E+00
 0.5482450198083E+00
 0.5555879027606E+00
 0.5609418303481E+00
 0.5641909124543E+00
 0.5653437425454E+00
 0.5644868387211E+00
 0.5619460320819E+00
 0.5584076440272E+00
 0.5548644903315E+00
 0.5525751916674E+00
 0.5530839647937E+00
 0.5582986568726E+00
 0.5706075558885E+00
 0.5929843668736E+00
 0.6289905672072E+00
 0.6825930022586E+00
 0.7577628782687E+00
 0.8579389003867E+00
 0.9855537188969E+00
 0.1141730412121E+01
 0.1326105522341E+01
 0.1536704288437E+01
 0.1769843370070E+01
 0.2020150947080E+01
 0.2280910471848E+01
 0.2544271687502E+01
 0.2800967672525E+01
 0.3040504278509E+01
 0.3251813674271E+01
 0.6189325346943E+00
 0.6363034288749E+00
 0.6500720923768E+00
 0.6613535202466E+00
 0.6712757853670E+00
 0.6807272296072E+00
 0.6902207672329E+00
 0.6998735962367E+00
 0.7094715918624E+00
 0.7185776871575E+00
 0.7266487682926E+00
 0.7331381613950E+00
 0.7375734560790E+00
 0.7396090458331E+00
 0.7390583496754E+00
 0.7359108321441E+00
 0.7302813222760E+00
 0.7223724830205E+00
 0.7126164489235E+00
 0.7017817567161E+00
 0.6909291754098E+00
 0.6813762718516E+00
 0.6747107914514E+00
 0.6728526850963E+00
 0.6781546424851E+00
 0.6935097715444E+00
 0.7223970142862E+00
 0.7687811700584E+00
 0.8367948195172E+00
 0.9302256119444E+00
 0.1051981801226E+01
 0.1203688969272E+01
 0.1385439474536E+01
 0.1595639454150E+01
 0.1830909776833E+01
 0.2086106580064E+01
 0.2354656336653E+01
 0.2628777899194E+01
 0.2899223544074E+01
 0.3155472075360E+01
 0.3386398496278E+01
 0.7977256221398E+00
 0.8191254603346E+00
 0.8374546784560E+00
 0.8533304754958E+00
 0.8674059742474E+00
 0.8801854521974E+00
 0.8919211299979E+00
 0.9025941123308E+00
 0.9119596495926E+00
 0.9196275587100E+00
 0.9251509243876E+00
 0.9281049313856E+00
 0.9281473129874E+00
 0.9250596319822E+00
 0.9187731476226E+00
 0.9093833373897E+00
 0.8971092976784E+00
 0.8822650780798E+00
 0.8653802786969E+00
 0.8472918495696E+00
 0.8291112914697E+00
 0.8121983240150E+00
 0.7981741336327E+00
 0.7889749734853E+00
 0.7869413338292E+00
 0.7949241023798E+00
 0.8163557372886E+00
 0.8552101781168E+00
 0.9157608267348E+00
 0.1002113469729E+01
 0.1117643184757E+01
 0.1264504551074E+01
 0.1443295853675E+01
 0.1652858320295E+01
 0.1890161906722E+01
 0.2150320664833E+01
 0.2426917726344E+01
 0.2712237035281E+01
 0.2997026430310E+01
 0.3270694839669E+01
 0.3521999042346E+01
 0.9761296330168E+00
 0.1001527290565E+01
 0.1024387715205E+01
 0.1044856963734E+01
 0.1063132838518E+01
 0.1079340898610E+01
 0.1093465003479E+01
 0.1105335222811E+01
 0.1114660142162E+01
 0.1121083502517E+01
 0.1124246338813E+01
 0.1123841863011E+01
 0.1119657239066E+01
 0.1111602028000E+01
 0.1099726256234E+01
 0.1084231285273E+01
 0.1065438711582E+01
 0.1043770325038E+01
 0.1019846828576E+01
 0.9945638166972E+00
 0.9690709894882E+00
 0.9447569464135E+00
 0.9232659460884E+00
 0.9065479961640E+00
 0.8969408275743E+00
 0.8972739580243E+00
 0.9109566257189E+00
 0.9419826570764E+00
 0.9947562098182E+00
 0.1073681489786E+01
 0.1182595730872E+01
 0.1324208367285E+01
 0.1499674026554E+01
 0.1708326439082E+01
 0.1947534251541E+01
 0.2212703834592E+01
 0.2497591868540E+01
 0.2794544944592E+01
 0.3094282019337E+01
 0.3386095325311E+01
 0.3658555370677E+01
 0.1154264472438E+01
 0.1183660964071E+01
 0.1211054063610E+01
 0.1236136050172E+01
 0.1258662152467E+01
 0.1278383100843E+01
 0.1295010168506E+01
 0.1308213450290E+01
 0.1317644952337E+01
 0.1322974098559E+01
 0.1323924461501E+01
 0.1320304635209E+01
 0.1312030567184E+01
 0.1299140141099E+01
 0.1281802456393E+01
 0.1260324228701E+01
 0.1235127775809E+01
 0.1206739437666E+01
 0.1175865796524E+01
 0.1143453259620E+01
 0.1110679594833E+01
 0.1078951052586E+01
 0.1049924938594E+01
 0.1025559531809E+01
 0.1008192156255E+01
 0.1000641859917E+01
 0.1006309282407E+01
 0.1029216413781E+01
 0.1073892471429E+01
 0.1145026278455E+01
 0.1246914717954E+01
 0.1382847176338E+01
 0.1554585613732E+01
 0.1762017378089E+01
 0.2002964889519E+01
 0.2273166542209E+01
 0.2566573434150E+01
 0.2875594377373E+01
 0.3190894317481E+01
 0.3501597997984E+01
 0.3796014811903E+01
 0.1332247719935E+01
 0.1365675220234E+01
 0.1397632672175E+01
 0.1427369105419E+01
 0.1454204730569E+01
 0.1477517677832E+01
 0.1496744124911E+01
 0.1511389049384E+01
 0.1521042338806E+01
 0.1525394698989E+01
 0.1524249588807E+01
 0.1517529949418E+01
 0.1505280531384E+01
 0.1487667908044E+01
 0.1464980298682E+01
 0.1437628954219E+01
 0.1406134998179E+01
 0.1371126253105E+01
 0.1333390456545E+01
 0.1293917932555E+01
 0.1253905611126E+01
 0.1214767266928E+01
 0.1178163469519E+01
 0.1146053714187E+01
 0.1120773192970E+01
 0.1105135234602E+01
 0.1102540489461E+01
 0.1117044606068E+01
 0.1153297684471E+01
 0.1216262332046E+01
 0.1310693312489E+01
 0.1440483965244E+01
 0.1608055190693E+01
 0.1813913189265E+01
 0.2056395537367E+01
 0.2331618642693E+01
 0.2633753740985E+01
 0.2955274046091E+01
 0.3286764934269E+01
 0.3617128910191E+01
 0.3934332485260E+01
 0.1510195266113E+01
 0.1547716453469E+01
 0.1584299701196E+01
 0.1618755515223E+01
 0.1649972130391E+01
 0.1676955527150E+01
 0.1698865276532E+01
 0.1715039010739E+01
 0.1725002648562E+01
 0.1728467280065E+01
 0.1725316342659E+01
 0.1715587881270E+01
 0.1699456390431E+01
 0.1677217777550E+01
 0.1649279327849E+01
 0.1616155769487E+01
 0.1578464917080E+01
 0.1536932960849E+01
 0.1492424244906E+01
 0.1445966537791E+01
 0.1398767619848E+01
 0.1352239193715E+01
 0.1308035340837E+01
 0.1268108650977E+01
 0.1234787787938E+01
 0.1210880950191E+01
 0.1199792993264E+01
 0.1205616052656E+01
 0.1233117008504E+01
 0.1287522592229E+01
 0.1374043325181E+01
 0.1497198920495E+01
 0.1660121280538E+01
 0.1864005140324E+01
 0.2107771795485E+01
 0.2387969078532E+01
 0.2699019982602E+01
 0.3033467668896E+01
 0.3381792329389E+01
 0.3732615510748E+01
 0.4073471752559E+01
 0.1688221954946E+01
 0.1729929669020E+01
 0.1771229698714E+01
 0.1810493395638E+01
 0.1846175829559E+01
 0.1876909432178E+01
 0.1901576333918E+01
 0.1919347134852E+01
 0.1929685350929E+01
 0.1932324945549E+01
 0.1927232188987E+01
 0.1914562876998E+01
 0.1894623234633E+01
 0.1867839535781E+01
 0.1834738050608E+01
 0.1795935709937E+01
 0.1752144673577E+01
 0.1704186248351E+01
 0.1652996841758E+01
 0.1599635345424E+01
 0.1545312321221E+01
 0.1491427988900E+01
 0.1439620038974E+01
 0.1391825151408E+01
 0.1350359085311E+01
 0.1318022416092E+01
 0.1298224946186E+01
 0.1295095636976E+01
 0.1313513324186E+01
 0.1358959212635E+01
 0.1437096223993E+01
 0.1553090687892E+01
 0.1710837657473E+01
 0.1912294739568E+01
 0.2157043617429E+01
 0.2442125688758E+01
 0.2762254485440E+01
 0.3110052978078E+01
 0.3475870994435E+01
 0.3847986382900E+01
 0.4213404644671E+01
 0.1866442231772E+01
 0.1912459441254E+01
 0.1958596798384E+01
 0.2002780644242E+01
 0.2043027544600E+01
 0.2077593094765E+01
 0.2105081717552E+01
 0.2124499729822E+01
 0.2135253171723E+01
 0.2137104757954E+01
 0.2130109249046E+01
 0.2114544784804E+01
 0.2090852405342E+01
 0.2059590210592E+01
 0.2021403369349E+01
 0.1977009525305E+01
 0.1927212585017E+01
 0.1872925537364E+01
 0.1815152227273E+01
 0.1754976353653E+01
 0.1693603237978E+01
 0.1632412185303E+01
 0.1573014309663E+01
 0.1517320556812E+01
 0.1467625777164E+01
 0.1426717950788E+01
 0.1398009693323E+01
 0.1385664779157E+01
 0.1394667971097E+01
 0.1430744509484E+01
 0.1500004388103E+01
 0.1608277926019E+01
 0.1760274986733E+01
 0.1958795093277E+01
 0.2204166042567E+01
 0.2493995167148E+01
 0.2823333998280E+01
 0.3184900677169E+01
 0.3568890547041E+01
 0.3963170907919E+01
 0.4354112290691E+01
 0.2044970807188E+01
 0.2095450892140E+01
 0.2146575948963E+01
 0.2195816143600E+01
 0.2240740005773E+01
 0.2279221107245E+01
 0.2309586498453E+01
 0.2330683474326E+01
 0.2341868981356E+01
 0.2342943836001E+01
 0.2334059805137E+01
 0.2315623935958E+01
 0.2288216265244E+01
 0.2252528590733E+01
 0.2209324868669E+01
 0.2159421731001E+01
 0.2103711959780E+01
 0.2043196582452E+01
 0.1978942130626E+01
 0.1912050728320E+01
 0.1843714377250E+01
 0.1775281896774E+01
 0.1708327270966E+01
 0.1644725085905E+01
 0.1586739838595E+01
 0.1537139803956E+01
 0.1499335742585E+01
 0.1477521956283E+01
 0.1476781576641E+01
 0.1503072078312E+01
 0.1562942593886E+01
 0.1662901162867E+01
 0.1808522832611E+01
 0.2003532643661E+01
 0.2249100240447E+01
 0.2543483201693E+01
 0.2882129020871E+01
 0.3257873331869E+01
 0.3660734717530E+01
 0.4078098851725E+01
 0.4495585377767E+01
 0.2223923350270E+01
 0.2279050711139E+01
 0.2335344196632E+01
 0.2389801067052E+01
 0.2439527952737E+01
 0.2482009335448E+01
 0.2515295991001E+01
 0.2538084195503E+01
 0.2549693855926E+01
 0.2549976862359E+01
 0.2539193427136E+01
 0.2517888031935E+01
 0.2486784939791E+01
 0.2446711866738E+01
 0.2398551363194E+01
 0.2343217049171E+01
 0.2281687414097E+01
 0.2215047658203E+01
 0.2144422111158E+01
 0.2070924847674E+01
 0.1995726367058E+01
 0.1920135233930E+01
 0.1845677335244E+01
 0.1774179480892E+01
 0.1707865034955E+01
 0.1649473517157E+01
 0.1602406824661E+01
 0.1570883252401E+01
 0.1560074963640E+01
 0.1576158063355E+01
 0.1626109728111E+01
 0.1717124968316E+01
 0.1855692071790E+01
 0.2046549345330E+01
 0.2291814927300E+01
 0.2590494836780E+01
 0.2938503183011E+01
 0.3328824181314E+01
 0.3751280209106E+01
 0.4192699871939E+01
 0.4637824667411E+01
 0.2403417226365E+01
 0.2463408240113E+01
 0.2525082046440E+01
 0.2584940281844E+01
 0.2639609263619E+01
 0.2686175497103E+01
 0.2722415629434E+01
 0.2746886039175E+01
 0.2758885650560E+01
 0.2758334225631E+01
 0.2745614850642E+01
 0.2721419892337E+01
 0.2686624019617E+01
 0.2642193324845E+01
 0.2589128583336E+01
 0.2528438065297E+01
 0.2461182472677E+01
 0.2388527084627E+01
 0.2311649009306E+01
 0.2231667711371E+01
 0.2149723896280E+01
 0.2067075890823E+01
 0.1985190091816E+01
 0.1905833342515E+01
 0.1831175829857E+01
 0.1763917446397E+01
 0.1707441981335E+01
 0.1665982918563E+01
 0.1644790122644E+01
 0.1650242567865E+01
 0.1689730725431E+01
 0.1771140457184E+01
 0.1901917754468E+01
 0.2087905349483E+01
 0.2332288229868E+01
 0.2634935111801E+01
 0.2992312691288E+01
 0.3397595856969E+01
 0.3840395412113E+01
 0.4306902942357E+01
 0.4780841593009E+01
 0.2583572296587E+01
 0.2648676649509E+01
 0.2715974933022E+01
 0.2781443862558E+01
 0.2841206185106E+01
 0.2891939835521E+01
 0.2931150950957E+01
 0.2957270781801E+01
 0.2969597771621E+01
 0.2968140432925E+01
 0.2953422202984E+01
 0.2926295626386E+01
 0.2887792756480E+01
 0.2839020597176E+01
 0.2781097472787E+01
 0.2715123545029E+01
 0.2642237870625E+01
 0.2563681485690E+01
 0.2480679149004E+01
 0.2394349098005E+01
 0.2305793868761E+01
 0.2216211370029E+01
 0.2126996707050E+01
 0.2039843824914E+01
 0.1956856484906E+01
 0.1880682337898E+01
 0.1814675635307E+01
 0.1763073920311E+01
 0.1731191231993E+01
 0.1725591193138E+01
 0.1754058727615E+01
 0.1825168138334E+01
 0.1947362460488E+01
 0.2127682277663E+01
 0.2370510090144E+01
 0.2676710046147E+01
 0.3043405868401E+01
 0.3464018996306E+01
 0.3927938951183E+01
 0.4420635691743E+01
 0.4924658964254E+01
 0.2764511798534E+01
 0.2835014235697E+01
 0.2908214834894E+01
 0.2979528736726E+01
 0.3044546653448E+01
 0.3099525833964E+01
 0.3141707584736E+01
 0.3169417144054E+01
 0.3181977978236E+01
 0.3179512602672E+01
 0.3162705371567E+01
 0.3132583009545E+01
 0.3090342521421E+01
 0.3037234222730E+01
 0.2974492836685E+01
 0.2903307133511E+01
 0.2824890262356E+01
 0.2740554471930E+01
 0.2651566972015E+01
 0.2559038149007E+01
 0.2464023958735E+01
 0.2367651558613E+01
 0.2271232596918E+01
 0.2176374501985E+01
 0.2085100224156E+01
 0.1999990882687E+01
 0.1924357600430E+01
 0.1862428445755E+01
 0.1819565704365E+01
 0.1802496691885E+01
 0.1819377460908E+01
 0.1879461125056E+01
 0.1992220201731E+01
 0.2165987181086E+01
 0.2406485327408E+01
 0.2715728061788E+01
 0.3091622819847E+01
 0.3527910736852E+01
 0.4013758040648E+01
 0.4533823654958E+01
 0.5069311805459E+01
 0.2946363330983E+01
 0.3022585874138E+01
 0.3102002071777E+01
 0.3179420490130E+01
 0.3249865705292E+01
 0.3309160933391E+01
 0.3354291176510E+01
 0.3383500012557E+01
 0.3396167106930E+01
 0.3392558926115E+01
 0.3373544400749E+01
 0.3340339949273E+01
 0.3294315405165E+01
 0.3236866393060E+01
 0.3169342206072E+01
 0.3093016293104E+01
 0.3009171183110E+01
 0.2919185583019E+01
 0.2824363932311E+01
 0.2725802203244E+01
 0.2624501394374E+01
 0.2521507492480E+01
 0.2418036229534E+01
 0.2315594290528E+01
 0.2216108379358E+01
 0.2122077192753E+01
 0.2036752992137E+01
 0.1964338341860E+01
 0.1910225232787E+01
 0.1881280717576E+01
 0.1886003825431E+01
 0.1934308720245E+01
 0.2036720924896E+01
 0.2202957297013E+01
 0.2440237502318E+01
 0.2751901962920E+01
 0.3136795275909E+01
 0.3589073071926E+01
 0.4097686617329E+01
 0.4646389437602E+01
 0.5214848357954E+01
 0.3129259969517E+01
 0.3211564669468E+01
 0.3297547330997E+01
 0.3381355363874E+01
 0.3457406979962E+01
 0.3521077220224E+01
 0.3569107188066E+01
 0.3599689494822E+01
 0.3612297641879E+01
 0.3607377023959E+01
 0.3586007849258E+01
 0.3549612975686E+01
 0.3499742897418E+01
 0.3437939817206E+01
 0.3365664848867E+01
 0.3284271403844E+01
 0.3195106180730E+01
 0.3099609401283E+01
 0.2999117555873E+01
 0.2894705784002E+01
 0.2787311870589E+01
 0.2677890213907E+01
 0.2567547970775E+01
 0.2457676355614E+01
 0.2350089455265E+01
 0.2247186149668E+01
 0.2152141995742E+01
 0.2069115439812E+01
 0.2003506801670E+01
 0.1962295645507E+01
 0.1954290686523E+01
 0.1990040386788E+01
 0.2081135669964E+01
 0.2238765729892E+01
 0.2471813762726E+01
 0.2785151630214E+01
 0.3178746675045E+01
 0.3647291041155E+01
 0.4179543207135E+01
 0.4758251803497E+01
 0.5361331278043E+01
 0.3313341545672E+01
 0.3402133852035E+01
 0.3495073977326E+01
 0.3585582479538E+01
 0.3667424313722E+01
 0.3735512047104E+01
 0.3786360509433E+01
 0.3818149737241E+01
 0.3830492065835E+01
 0.3824052144395E+01
 0.3800151065192E+01
 0.3760435721562E+01
 0.3706644612782E+01
 0.3640466673548E+01
 0.3563470892610E+01
 0.3477084988012E+01
 0.3382714074492E+01
 0.3281854788297E+01
 0.3175870613758E+01
 0.3065809682940E+01
 0.2952538533831E+01
 0.2836909664979E+01
 0.2719908917716E+01
 0.2602796946395E+01
 0.2487258066934E+01
 0.2375572579767E+01
 0.2270819446327E+01
 0.2177091722227E+01
 0.2099773619121E+01
 0.2045926433143E+01
 0.2024629851944E+01
 0.2047030108677E+01
 0.2125782438345E+01
 0.2273628201312E+01
 0.2501290893687E+01
 0.2815407639074E+01
 0.3217292581711E+01
 0.3702330713826E+01
 0.4259128458637E+01
 0.4869324702079E+01
 0.5508839086029E+01
 0.3498756129520E+01
 0.3594488981438E+01
 0.3694820711223E+01
 0.3792366332948E+01
 0.3880183422160E+01
 0.3952708540079E+01
 0.4006254813123E+01
 0.4039037433361E+01
 0.4050860931700E+01
 0.4042655159945E+01
 0.4016014351101E+01
 0.3972827373774E+01
 0.3915027049714E+01
 0.3844447635632E+01
 0.3762760544367E+01
 0.3671461041346E+01
 0.3572006320108E+01
 0.3465944220184E+01
 0.3354660380888E+01
 0.3239170110712E+01
 0.3120261006236E+01
 0.2998673582297E+01
 0.2875259683467E+01
 0.2751134124064E+01
 0.2627833708015E+01
 0.2507500210395E+01
 0.2393094168650E+01
 0.2288619275668E+01
 0.2199415915321E+01
 0.2132592476255E+01
 0.2097455210449E+01
 0.2105701141279E+01
 0.2171032820072E+01
 0.2307811027331E+01
 0.2528782845241E+01
 0.2842616082745E+01
 0.3252241574308E+01
 0.3753936899756E+01
 0.4336222228131E+01
 0.4979516271141E+01
 0.5657467921264E+01
 0.3685661765310E+01
 0.3788840532095E+01
 0.3897044653793E+01
 0.4001989601103E+01
 0.4095963658865E+01
 0.4172915930593E+01
 0.4228991565694E+01
 0.4262499942478E+01
 0.4273500595855E+01
 0.4263240328309E+01
 0.4233621002918E+01
 0.4186791090737E+01
 0.4124882381479E+01
 0.4049870971232E+01
 0.3963523405437E+01
 0.3867394466050E+01
 0.3762986473332E+01
 0.3651893211465E+01
 0.3535517968035E+01
 0.3414837899457E+01
 0.3290554431867E+01
 0.3163286372590E+01
 0.3033739108969E+01
 0.2902866352110E+01
 0.2772039312894E+01
 0.2643240360615E+01
 0.2519288019412E+01
 0.2404069961231E+01
 0.2302851537844E+01
 0.2222749402964E+01
 0.2173245995527E+01
 0.2166531139570E+01
 0.2217319420531E+01
 0.2341640492210E+01
 0.2554450070352E+01
 0.2866744979128E+01
 0.3283396810645E+01
 0.3801830490496E+01
 0.4410580006564E+01
 0.5088727860449E+01
 0.5807333701874E+01
 0.3874228522533E+01
 0.3985416954767E+01
 0.4102024953529E+01
 0.4214756310319E+01
 0.4315059825825E+01
 0.4396389629126E+01
 0.4454768592519E+01
 0.4488672928406E+01
 0.4498490554316E+01
 0.4485842789336E+01
 0.4452975216596E+01
 0.4402312390725E+01
 0.4336187287309E+01
 0.4256711722237E+01
 0.4165737886296E+01
 0.4064870608638E+01
 0.3955649752967E+01
 0.3839709826312E+01
 0.3718467724225E+01
 0.3592857752698E+01
 0.3463488538171E+01
 0.3330847958640E+01
 0.3195482885545E+01
 0.3058170924742E+01
 0.2920099577901E+01
 0.2783070317942E+01
 0.2649734567583E+01
 0.2523834724225E+01
 0.2410526258273E+01
 0.2316890729236E+01
 0.2252530122054E+01
 0.2230057640001E+01
 0.2265144113225E+01
 0.2375513790779E+01
 0.2578511068621E+01
 0.2887792771659E+01
 0.3310558602583E+01
 0.3845705305275E+01
 0.4481928294932E+01
 0.5196853107008E+01
 0.5958574850355E+01
 0.4064640941772E+01
 0.4184468332898E+01
 0.4310067030941E+01
 0.4430995415799E+01
 0.4537783991722E+01
 0.4623390928000E+01
 0.4683778066847E+01
 0.4717677416152E+01
 0.4725890323171E+01
 0.4710475778351E+01
 0.4674059866773E+01
 0.4619357525619E+01
 0.4548901839685E+01
 0.4464930978917E+01
 0.4369370732335E+01
 0.4263864910613E+01
 0.4149982709409E+01
 0.4029394282097E+01
 0.3903526713583E+01
 0.3773267545610E+01
 0.3639126713473E+01
 0.3501452592189E+01
 0.3360622078155E+01
 0.3217222213647E+01
 0.3072239008459E+01
 0.2927271350723E+01
 0.2784777341775E+01
 0.2648322451143E+01
 0.2522913685176E+01
 0.2415549275826E+01
 0.2335887521752E+01
 0.2296883854065E+01
 0.2315087125179E+01
 0.2409911704346E+01
 0.2601256592057E+01
 0.2905799600426E+01
 0.3333528546253E+01
 0.3885224333553E+01
 0.4549958197369E+01
 0.5303776965316E+01
 0.6111355871519E+01
 0.4257100977351E+01
 0.4386270785580E+01
 0.4521507603403E+01
 0.4651064842373E+01
 0.4764467245718E+01
 0.4854186181451E+01
 0.4916203763514E+01
 0.4949616151244E+01
 0.4955735807337E+01
 0.4937127546807E+01
 0.4896834174032E+01
 0.4837871864460E+01
 0.4762968470359E+01
 0.4674475266486E+01
 0.4574376674145E+01
 0.4464342683096E+01
 0.4345963008427E+01
 0.4220938654459E+01
 0.4090704275845E+01
 0.3956097684528E+01
 0.3817525107541E+01
 0.3675187636510E+01
 0.3529281544477E+01
 0.3380189716980E+01
 0.3228679660568E+01
 0.3076126304087E+01
 0.2924767567170E+01
 0.2777958268807E+01
 0.2640514656555E+01
 0.2519298217478E+01
 0.2423953373897E+01
 0.2367684707755E+01
 0.2367816934442E+01
 0.2445413154816E+01
 0.2623067019501E+01
 0.2920862203525E+01
 0.3352116102591E+01
 0.3920015457887E+01
 0.4614315920124E+01
 0.5409374154737E+01
 0.6265872211520E+01
 0.4451831569415E+01
 0.4591131812831E+01
 0.4736720665168E+01
 0.4875356030793E+01
 0.4995461272480E+01
 0.5089045258815E+01
 0.5152217380694E+01
 0.5184569134058E+01
 0.5188035108311E+01
 0.5165757996196E+01
 0.5121231291977E+01
 0.5057778321749E+01
 0.4978311043751E+01
 0.4885276064809E+01
 0.4780698217793E+01
 0.4666259018149E+01
 0.4543559342229E+01
 0.4414326696463E+01
 0.4280001684188E+01
 0.4141370539850E+01
 0.3998731767900E+01
 0.3852132326735E+01
 0.3701578249617E+01
 0.3547235898054E+01
 0.3389638546900E+01
 0.3229916726532E+01
 0.3070061308886E+01
 0.2913181167146E+01
 0.2763855960548E+01
 0.2628751599732E+01
 0.2517421088238E+01
 0.2443213028935E+01
 0.2424100923119E+01
 0.2482711743524E+01
 0.2644433448863E+01
 0.2933153466631E+01
 0.3366148994531E+01
 0.3949667420551E+01
 0.4674588065211E+01
 0.5513505049381E+01
 0.6422357265519E+01
 0.4649081019746E+01
 0.4799396837753E+01
 0.4956124637777E+01
 0.5104299020152E+01
 0.5231139573364E+01
 0.5328238997961E+01
 0.5391973689831E+01
 0.5422588191866E+01
 0.5422763734735E+01
 0.5396295051806E+01
 0.5347155863253E+01
 0.5278975876664E+01
 0.5194834071561E+01
 0.5097249483638E+01
 0.4988265590653E+01
 0.4869558849952E+01
 0.4742731481321E+01
 0.4609533787230E+01
 0.4471411918159E+01
 0.4329099971631E+01
 0.4182785830077E+01
 0.4032356521255E+01
 0.3877619480821E+01
 0.3718513804849E+01
 0.3555324680260E+01
 0.3388919474398E+01
 0.3221015934389E+01
 0.3054440814454E+01
 0.2893488207103E+01
 0.2744564116524E+01
 0.2617044845627E+01
 0.2524305738209E+01
 0.2484816689555E+01
 0.2522634304147E+01
 0.2665983112320E+01
 0.2942947764788E+01
 0.3375489090358E+01
 0.3973728573831E+01
 0.4730279288406E+01
 0.5616002931262E+01
 0.6581092374795E+01
 0.4849128403020E+01
 0.5011457279711E+01
 0.5180190955211E+01
 0.5338368068795E+01
 0.5471898070848E+01
 0.5572035296622E+01
 0.5635604225123E+01
 0.5663690447713E+01
 0.5659859202206E+01
 0.5628630831003E+01
 0.5574481615116E+01
 0.5501338241217E+01
 0.5412422106457E+01
 0.5310296115421E+01
 0.5196996856837E+01
 0.5074177178174E+01
 0.4943430481436E+01
 0.4806527028050E+01
 0.4664919573834E+01
 0.4519290972635E+01
 0.4369716785738E+01
 0.4215919462806E+01
 0.4057500971087E+01
 0.3894164465417E+01
 0.3725935730469E+01
 0.3553402743366E+01
 0.3377985805461E+01
 0.3202193423073E+01
 0.3029982646902E+01
 0.2867429893059E+01
 0.2723641436117E+01
 0.2611889834136E+01
 0.2550963867000E+01
 0.2566161425698E+01
 0.2688509605610E+01
 0.2950653847393E+01
 0.3380054494374E+01
 0.3991714035138E+01
 0.4780784229812E+01
 0.5716634608684E+01
 0.6742421080720E+01
 0.5052290325190E+01
 0.5227760601149E+01
 0.5409454407066E+01
 0.5578087764268E+01
 0.5718154707011E+01
 0.5820693364213E+01
 0.5883209171893E+01
 0.5907850552668E+01
 0.5899215044759E+01
 0.5862617697721E+01
 0.5803049090399E+01
 0.5724712747262E+01
 0.5630939355023E+01
 0.5524301085184E+01
 0.5406798212741E+01
 0.5280039463747E+01
 0.5145599060046E+01
 0.5005265506754E+01
 0.4860500938318E+01
 0.4711939459878E+01
 0.4559543858907E+01
 0.4402868573218E+01
 0.4241304945025E+01
 0.4074314058368E+01
 0.3901654274989E+01
 0.3723621479901E+01
 0.3541317111019E+01
 0.3356896515817E+01
 0.3173926707976E+01
 0.2998079965779E+01
 0.2838091047419E+01
 0.2706987885833E+01
 0.2623676189488E+01
 0.2614449876387E+01
 0.2713008143157E+01
 0.2956857435747E+01
 0.3379850161250E+01
 0.4003117713807E+01
 0.4825390980427E+01
 0.5814979760340E+01
 0.6906747516187E+01
 0.5258929453579E+01
 0.5448822919759E+01
 0.5644525631519E+01
 0.5824039482215E+01
 0.5970347466327E+01
 0.6074455510930E+01
 0.6134847062738E+01
 0.6154991573652E+01
 0.6140674314403E+01
 0.6098064342372E+01
 0.6032663638296E+01
 0.5948919533443E+01
 0.5850229549861E+01
 0.5739134311428E+01
 0.5617564467154E+01
 0.5487062203512E+01
 0.5349172156658E+01
 0.5205700754279E+01
 0.5058124261644E+01
 0.4907032253088E+01
 0.4752275527526E+01
 0.4593238311330E+01
 0.4429098104565E+01
 0.4259070861870E+01
 0.4082643628983E+01
 0.3899812131846E+01
 0.3711341756807E+01
 0.3519002440249E+01
 0.3325917999225E+01
 0.3137278091819E+01
 0.2961336565539E+01
 0.2810722587340E+01
 0.2704233569850E+01
 0.2668856286188E+01
 0.2740717306536E+01
 0.2962371621198E+01
 0.3375021025720E+01
 0.4007405764016E+01
 0.4863344637162E+01
 0.5910394879478E+01
 0.7073992123467E+01
 0.5469465404791E+01
 0.5675244984402E+01
 0.5886106225226E+01
 0.6076867900682E+01
 0.6228929996032E+01
 0.6333535670451E+01
 0.6390521850341E+01
 0.6404974483044E+01
 0.6384022721984E+01
 0.6334732084677E+01
 0.6263093819991E+01
 0.6173751122007E+01
 0.6070116116604E+01
 0.5954650982363E+01
 0.5829179700907E+01
 0.5695153684250E+01
 0.5554077689928E+01
 0.5407777420946E+01
 0.5257750266435E+01
 0.5104547287152E+01
 0.4947909234973E+01
 0.4787049128365E+01
 0.4620929575125E+01
 0.4448521987989E+01
 0.4269043246280E+01
 0.4082186705949E+01
 0.3888370236886E+01
 0.3688950481161E+01
 0.3486556512590E+01
 0.3285814468903E+01
 0.3094380811679E+01
 0.2924319837775E+01
 0.2794073511133E+01
 0.2730962423036E+01
 0.2773164150088E+01
 0.2968309002769E+01
 0.3365889859494E+01
 0.4004127304935E+01
 0.4893593173451E+01
 0.6002761925096E+01
 0.7243907513378E+01
 0.5684388811392E+01
 0.5907732602581E+01
 0.6135007012176E+01
 0.6337287022437E+01
 0.6494363635475E+01
 0.6598103637728E+01
 0.6650166913845E+01
 0.6657586294351E+01
 0.6628981679790E+01
 0.6572331667760E+01
 0.6494070417004E+01
 0.6398972482785E+01
 0.6290402664975E+01
 0.6170692239638E+01
 0.6041518089912E+01
 0.5904214910762E+01
 0.5760237525660E+01
 0.5611434207679E+01
 0.5459332948231E+01
 0.5304454119640E+01
 0.5146431347850E+01
 0.4984306562685E+01
 0.4816828837954E+01
 0.4642729915425E+01
 0.4460963693148E+01
 0.4270926115582E+01
 0.4072683430514E+01
 0.3867157436285E+01
 0.3656434755072E+01
 0.3444496892186E+01
 0.3238281043811E+01
 0.3049109470617E+01
 0.2894801473939E+01
 0.2802600062969E+01
 0.2812217897488E+01
 0.2976154270969E+01
 0.3353078863689E+01
 0.3992793214066E+01
 0.4915428291742E+01
 0.6090225599478E+01
 0.7425052332501E+01
 0.5904279734786E+01
 0.6147123014527E+01
 0.6392170067765E+01
 0.6606084739993E+01
 0.6767104156846E+01
 0.6868263757543E+01
 0.6913625593743E+01
 0.6912527043828E+01
 0.6875201642584E+01
 0.6810520886672E+01
 0.6725286255813E+01
 0.6624321679122E+01
 0.6510873815816E+01
 0.6387086038644E+01
 0.6254444853872E+01
 0.6114140688013E+01
 0.5967568664373E+01
 0.5816605090924E+01
 0.5662820729074E+01
 0.5506714804943E+01
 0.5347817421976E+01
 0.5185000514750E+01
 0.5016803669566E+01
 0.4841728830522E+01
 0.4658481199800E+01
 0.4466172812918E+01
 0.4264523284997E+01
 0.4054006538146E+01
 0.3836125542557E+01
 0.3614138843457E+01
 0.3394139872968E+01
 0.3186522654161E+01
 0.3008198761420E+01
 0.2885876332280E+01
 0.2860143365286E+01
 0.2987873849192E+01
 0.3337572432484E+01
 0.3973158695466E+01
 0.4927448663528E+01
 0.6173928351890E+01
 0.7611475169707E+01
 0.6129832112906E+01
 0.6394419288733E+01
 0.6658695090673E+01
 0.6884124301886E+01
 0.7047580819487E+01
 0.7144026550307E+01
 0.7180627986709E+01
 0.7169396060208E+01
 0.7122256317951E+01
 0.7048903475642E+01
 0.6956397085475E+01
 0.6849511185781E+01
 0.6731296357342E+01
 0.6603648129616E+01
 0.6467817270343E+01
 0.6324820824477E+01
 0.6175984657512E+01
 0.6023220893374E+01
 0.5868158048783E+01
 0.5711285228527E+01
 0.5552032852700E+01
 0.5389104747446E+01
 0.5220838108552E+01
 0.5045520789053E+01
 0.4861631806663E+01
 0.4668022723455E+01
 0.4464082379024E+01
 0.4249834642680E+01
 0.4026167219957E+01
 0.3795543986263E+01
 0.3563091674016E+01
 0.3338084474681E+01
 0.3136226872037E+01
 0.2983196248514E+01
 0.2919661429026E+01
 0.3006023189998E+01
 0.3320914145661E+01
 0.3945093768436E+01
 0.4928581032858E+01
 0.6252711844198E+01
 0.7804198024090E+01
 0.6361886729584E+01
 0.6650835642860E+01
 0.6935870571344E+01
 0.7172339947205E+01
 0.7336164391093E+01
 0.7425271558708E+01
 0.7450764027324E+01
 0.7427678313517E+01
 0.7369638519275E+01
 0.7287029751122E+01
 0.7187023755567E+01
 0.7074229956002E+01
 0.6951420698302E+01
 0.6820183070549E+01
 0.6681485662552E+01
 0.6536141405133E+01
 0.6385397261343E+01
 0.6231211270987E+01
 0.6075287508063E+01
 0.5918117023050E+01
 0.5759034000843E+01
 0.5596576657220E+01
 0.5428890463930E+01
 0.5254071710351E+01
 0.5070405134966E+01
 0.4876516529422E+01
 0.4671492403769E+01
 0.4454917658520E+01
 0.4227046120783E+01
 0.3989486573092E+01
 0.3746283438816E+01
 0.3505400081444E+01
 0.3281025763471E+01
 0.3097282368281E+01
 0.2994005974636E+01
 0.3033889108613E+01
 0.3305375069167E+01
 0.3908868059493E+01
 0.4917439175327E+01
 0.6324989563928E+01
 0.8004522366919E+01
 0.6601476441248E+01
 0.6917857785015E+01
 0.7225209760169E+01
 0.7471722221658E+01
 0.7633119540535E+01
 0.7711699646507E+01
 0.7723453427965E+01
 0.7686732105081E+01
 0.7616758644408E+01
 0.7524399552453E+01
 0.7416755930614E+01
 0.7298146289633E+01
 0.7170982549300E+01
 0.7036485134890E+01
 0.6895294220828E+01
 0.6747986049949E+01
 0.6595718331244E+01
 0.6440507206960E+01
 0.6284152712895E+01
 0.6127160218203E+01
 0.5968769894262E+01
 0.5807357348249E+01
 0.5640891357506E+01
 0.5467307201964E+01
 0.5284737816553E+01
 0.5091630375039E+01
 0.4886811644681E+01
 0.4669454250748E+01
 0.4439176150376E+01
 0.4196687315687E+01
 0.3944849030269E+01
 0.3690132286746E+01
 0.3444903397053E+01
 0.3231187140815E+01
 0.3086980551087E+01
 0.3075635758672E+01
 0.3294232780725E+01
 0.3865330915408E+01
 0.4892354187582E+01
 0.6388917918122E+01
 0.8213963079417E+01
 0.6849889395107E+01
 0.7197324085069E+01
 0.7528490375212E+01
 0.7783285691169E+01
 0.7938535452083E+01
 0.8002773285049E+01
 0.7997913970324E+01
 0.7945779960567E+01
 0.7862946950639E+01
 0.7760468025730E+01
 0.7645157548280E+01
 0.7520911528012E+01
 0.7389704727847E+01
 0.7252338922767E+01
 0.7109081457861E+01
 0.6960237034115E+01
 0.6806861958024E+01
 0.6651044142024E+01
 0.6494702029272E+01
 0.6338366824856E+01
 0.6181184619942E+01
 0.6021372025538E+01
 0.5856741767000E+01
 0.5685108200815E+01
 0.5504506631772E+01
 0.5313266108274E+01
 0.5110011612246E+01
 0.4893547938825E+01
 0.4662875476970E+01
 0.4417784388040E+01
 0.4159875824583E+01
 0.3893968446216E+01
 0.3630312445278E+01
 0.3388294287961E+01
 0.3203006492346E+01
 0.3136463558233E+01
 0.3292112825062E+01
 0.3816240570345E+01
 0.4851547520468E+01
 0.6442193050854E+01
 0.8434336055403E+01
 0.7108759251280E+01
 0.7491535841207E+01
 0.7847794682481E+01
 0.8108007335513E+01
 0.8252226752133E+01
 0.8297644378495E+01
 0.8273131082348E+01
 0.8203905267026E+01
 0.8107460895027E+01
 0.7994654731138E+01
 0.7871774175361E+01
 0.7742164572597E+01
 0.7607298945350E+01
 0.7467519415339E+01
 0.7322680011945E+01
 0.7172776084426E+01
 0.7018746843025E+01
 0.6862765925854E+01
 0.6706893541180E+01
 0.6551695615467E+01
 0.6396220529514E+01
 0.6238530687423E+01
 0.6076310991771E+01
 0.5907306393248E+01
 0.5729521416309E+01
 0.5541241220941E+01
 0.5340963046088E+01
 0.5127187807417E+01
 0.4898340440227E+01
 0.4653299381924E+01
 0.4392362924236E+01
 0.4118574340912E+01
 0.3839809539168E+01
 0.3572301754703E+01
 0.3347157311648E+01
 0.3222766597338E+01
 0.3305406358635E+01
 0.3764820781229E+01
 0.4793335354399E+01
 0.6481826833170E+01
 0.8667862184535E+01
 0.7380196947423E+01
 0.7803408368405E+01
 0.8185541799767E+01
 0.8446716960760E+01
 0.8573595272616E+01
 0.8595071509284E+01
 0.8547833714992E+01
 0.8460057824001E+01
 0.8349498733037E+01
 0.8226356405102E+01
 0.8096142344089E+01
 0.7961537203995E+01
 0.7823467405859E+01
 0.7681791129587E+01
 0.7535915391027E+01
 0.7385484572466E+01
 0.7231298901920E+01
 0.7075629861437E+01
 0.6920701630160E+01
 0.6767118444943E+01
 0.6613822379861E+01
 0.6458729038306E+01
 0.6299434397246E+01
 0.6133679343471E+01
 0.5959517812709E+01
 0.5775278708405E+01
 0.5579421609816E+01
 0.5370228167143E+01
 0.5145616931440E+01
 0.4903598240067E+01
 0.4643170405905E+01
 0.4365533115476E+01
 0.4075991763979E+01
 0.3787176334480E+01
 0.3525168066873E+01
 0.3342273083890E+01
 0.3342765147172E+01
 0.3716593386936E+01
 0.4716510853787E+01
 0.6503872962219E+01
 0.8917300447796E+01
 0.7666988143027E+01
 0.8136679329021E+01
 0.8544494369980E+01
 0.8799910312266E+01
 0.8901442850900E+01
 0.8893333073515E+01
 0.8820484229563E+01
 0.8713071784663E+01
 0.8588220222891E+01
 0.8454963478153E+01
 0.8317800869070E+01
 0.8178660177455E+01
 0.8037904041484E+01
 0.7894905936231E+01
 0.7748603074815E+01
 0.7598242677795E+01
 0.7444454075705E+01
 0.7289613252826E+01
 0.7136125783772E+01
 0.6984628562886E+01
 0.6833942508062E+01
 0.6681849446081E+01
 0.6525910701274E+01
 0.6363945216018E+01
 0.6194149961047E+01
 0.6014997145010E+01
 0.5825013707924E+01
 0.5622367638389E+01
 0.5404569660222E+01
 0.5168847422052E+01
 0.4912959486220E+01
 0.4636267962890E+01
 0.4341405415604E+01
 0.4037067178306E+01
 0.3743399874663E+01
 0.3504150550468E+01
 0.3415638480079E+01
 0.3680587246024E+01
 0.4621101219881E+01
 0.6503099776322E+01
 0.9186132362604E+01
 0.7972897719769E+01
 0.8496196510667E+01
 0.8927702209645E+01
 0.9167439827710E+01
 0.9233728746629E+01
 0.9190150919220E+01
 0.9089292873482E+01
 0.8961698991360E+01
 0.8822774623059E+01
 0.8679880167847E+01
 0.8536304057164E+01
 0.8393170105361E+01
 0.8250295253969E+01
 0.8106599003336E+01
 0.7960543132916E+01
 0.7810926854466E+01
 0.7658161307543E+01
 0.7504722092665E+01
 0.7353202528159E+01
 0.7204251500981E+01
 0.7056547075003E+01
 0.6907761619090E+01
 0.6755498441147E+01
 0.6597756922384E+01
 0.6432983246884E+01
 0.6259901367170E+01
 0.6077222997837E+01
 0.5883128287289E+01
 0.5674849886032E+01
 0.5448965798070E+01
 0.5202123985118E+01
 0.4931948279192E+01
 0.4638423500980E+01
 0.4326163936643E+01
 0.4008728572516E+01
 0.3719041680012E+01
 0.3538792348963E+01
 0.3671016957987E+01
 0.4509848487597E+01
 0.6472651697817E+01
 0.9478826757907E+01
 0.8303154865769E+01
 0.8888312550018E+01
 0.9338306190805E+01
 0.9548016504085E+01
 0.9567277686064E+01
 0.9482652090526E+01
 0.9352269069577E+01
 0.9204658905460E+01
 0.9052335308324E+01
 0.8900547678899E+01
 0.8751236619000E+01
 0.8604717227006E+01
 0.8460320170251E+01
 0.8316582242533E+01
 0.8171511126944E+01
 0.8023404531318E+01
 0.7872385609079E+01
 0.7721002905488E+01
 0.7572021823525E+01
 0.7426059270012E+01
 0.7281623265712E+01
 0.7136322455089E+01
 0.6987911104061E+01
 0.6834695454963E+01
 0.6675487252564E+01
 0.6509374281080E+01
 0.6335378352419E+01
 0.6151835620282E+01
 0.5955862345162E+01
 0.5743572978784E+01
 0.5510713995315E+01
 0.5253380353705E+01
 0.4969091270737E+01
 0.4658487770742E+01
 0.4328314089301E+01
 0.3998963378654E+01
 0.3730726301013E+01
 0.3709443794337E+01
 0.4391038664332E+01
 0.6403875720667E+01
 0.9801241995671E+01
 0.8665254890856E+01
 0.9321412467470E+01
 0.9779046004442E+01
 0.9938432579737E+01
 0.9897476842257E+01
 0.9767413812158E+01
 0.9607319080007E+01
 0.9440702988286E+01
 0.9276139639926E+01
 0.9116469738656E+01
 0.8962229948472E+01
 0.8812974333788E+01
 0.8667650722520E+01
 0.8524534617683E+01
 0.8381243469554E+01
 0.8235524275821E+01
 0.8087111078108E+01
 0.7938559422314E+01
 0.7792749950786E+01
 0.7650188734845E+01
 0.7509187037966E+01
 0.7367374201466E+01
 0.7222810228151E+01
 0.7074262091465E+01
 0.6921029082401E+01
 0.6762670479013E+01
 0.6598644275467E+01
 0.6427600444299E+01
 0.6246732221967E+01
 0.6051934935571E+01
 0.5838353147948E+01
 0.5600885152789E+01
 0.5334943031810E+01
 0.5037611596869E+01
 0.4709203501422E+01
 0.4356940761523E+01
 0.4013856206155E+01
 0.3827243067054E+01
 0.4283731215897E+01
 0.6286861445303E+01
 0.1016129765137E+02
 0.9070342259633E+01
 0.9806569059648E+01
 0.1025115348125E+02
 0.1033240695830E+02
 0.1021807191471E+02
 0.1004065205947E+02
 0.9852387618952E+01
 0.9668687863707E+01
 0.9493532648953E+01
 0.9327239204237E+01
 0.9168979268364E+01
 0.9017647358037E+01
 0.8871952440621E+01
 0.8730088862747E+01
 0.8589414497930E+01
 0.8447098385867E+01
 0.8302343622615E+01
 0.8157576952770E+01
 0.8015661993064E+01
 0.7876865052502E+01
 0.7739290447621E+01
 0.7600739660368E+01
 0.7459795621356E+01
 0.7315869052866E+01
 0.7168867228658E+01
 0.7018912578339E+01
 0.6866015135143E+01
 0.6709303821621E+01
 0.6546273051706E+01
 0.6372907822484E+01
 0.6184151169908E+01
 0.5974167231621E+01
 0.5736797926222E+01
 0.5466319436178E+01
 0.5157741574243E+01
 0.4806174809993E+01
 0.4414167223954E+01
 0.4067955591897E+01
 0.4226877383296E+01
 0.6113250768528E+01
 0.1057027104658E+02
 0.9535719116418E+01
 0.1035818607430E+02
 0.1075198401175E+02
 0.1071903048220E+02
 0.1052131123447E+02
 0.1029860108877E+02
 0.1008561660856E+02
 0.9887652479772E+01
 0.9704012976767E+01
 0.9532563670494E+01
 0.9371261053450E+01
 0.9218488309633E+01
 0.9072887872805E+01
 0.8932814869680E+01
 0.8795601118455E+01
 0.8657872487031E+01
 0.8518112968462E+01
 0.8378359568030E+01
 0.8241188676719E+01
 0.8106430701569E+01
 0.7972026571249E+01
 0.7836212723826E+01
 0.7698391777372E+01
 0.7558828053697E+01
 0.7418146047269E+01
 0.7277091527275E+01
 0.7136315166489E+01
 0.6995586582869E+01
 0.6852956281253E+01
 0.6704880926268E+01
 0.6546613456864E+01
 0.6372179756063E+01
 0.6174547251305E+01
 0.5946228723884E+01
 0.5678819816805E+01
 0.5358537630548E+01
 0.4959603319562E+01
 0.4488881408540E+01
 0.4293538401012E+01
 0.5885585725554E+01
 0.1104577728613E+02
 0.1008968247923E+02
 0.1099398636584E+02
 0.1127008945451E+02
 0.1108116342998E+02
 0.1079889099767E+02
 0.1053802447871E+02
 0.1030547476841E+02
 0.1009690472102E+02
 0.9907275772887E+01
 0.9732288070677E+01
 0.9568949973808E+01
 0.9415311035779E+01
 0.9270126241569E+01
 0.9132202003290E+01
 0.8999228823795E+01
 0.8867471961607E+01
 0.8734473263187E+01
 0.8601389669397E+01
 0.8469984793556E+01
 0.8339379287053E+01
 0.8207528382729E+01
 0.8073542194961E+01
 0.7938029724962E+01
 0.7802335947449E+01
 0.7667890553451E+01
 0.7536072617935E+01
 0.7408207246079E+01
 0.7284845078298E+01
 0.7164882567614E+01
 0.7045719709761E+01
 0.6923549612279E+01
 0.6792989174041E+01
 0.6646952493377E+01
 0.6477409542679E+01
 0.6275064522636E+01
 0.6022420451474E+01
 0.5675789464308E+01
 0.5160408518278E+01
 0.4609099632422E+01
 0.5644611954204E+01
 0.1161998143935E+02
 0.1078160779567E+02
 0.1173182880261E+02
 0.1177533096609E+02
 0.1139545690947E+02
 0.1104418626166E+02
 0.1075651422610E+02
 0.1051087701711E+02
 0.1029612163786E+02
 0.1010324005560E+02
 0.9926415807792E+01
 0.9762033050716E+01
 0.9608009597745E+01
 0.9463364995626E+01
 0.9327647767896E+01
 0.9199490260260E+01
 0.9075304916328E+01
 0.8951501330450E+01
 0.8827428923504E+01
 0.8703029549033E+01
 0.8576389597468E+01
 0.8445955599677E+01
 0.8312406965588E+01
 0.8178024119514E+01
 0.8045456313491E+01
 0.7917000199441E+01
 0.7794609713311E+01
 0.7680215589922E+01
 0.7575234810929E+01
 0.7479753362976E+01
 0.7392709594989E+01
 0.7311985394735E+01
 0.7233636873312E+01
 0.7151475134034E+01
 0.7058065743956E+01
 0.6946044718323E+01
 0.6800538441474E+01
 0.6577764887709E+01
 0.6157220425147E+01
 0.5369425630069E+01
 0.5542531312293E+01
 0.1236555353721E+02
 0.1170529072230E+02
 0.1257325443824E+02
 0.1220116756583E+02
 0.1163943410137E+02
 0.1125481271706E+02
 0.1095209882807E+02
 0.1070153334195E+02
 0.1048536945012E+02
 0.1029207730446E+02
 0.1011512376321E+02
 0.9950619743942E+01
 0.9796576375886E+01
 0.9652369564223E+01
 0.9518472967403E+01
 0.9395226146246E+01
 0.9280377794266E+01
 0.9169292118625E+01
 0.9057700854271E+01
 0.8941770779021E+01
 0.8818346651853E+01
 0.8687461501590E+01
 0.8552381420323E+01
 0.8417546617313E+01
 0.8287095633318E+01
 0.8164237389628E+01
 0.8051371309362E+01
 0.7950772555555E+01
 0.7864682447928E+01
 0.7794837618716E+01
 0.7742501922028E+01
 0.7708084194563E+01
 0.7690001073308E+01
 0.7684103181964E+01
 0.7684480879023E+01
 0.7687426195472E+01
 0.7688570610015E+01
 0.7660102926848E+01
 0.7525710295047E+01
 0.6852053866488E+01
 0.6009893176741E+01
 0.1349466779074E+02
 0.1306165322852E+02
 0.1342810386903E+02
 0.1242977067812E+02
 0.1181616180033E+02
 0.1142823243666E+02
 0.1112426958132E+02
 0.1087807117122E+02
 0.1066507699889E+02
 0.1047425188473E+02
 0.1029875974215E+02
 0.1013495240672E+02
 0.9981111920423E+01
 0.9837029175815E+01
 0.9704012342296E+01
 0.9584769711493E+01
 0.9480917008100E+01
 0.9387956553005E+01
 0.9294248004932E+01
 0.9188312632484E+01
 0.9066320416815E+01
 0.8932133680344E+01
 0.8792890361992E+01
 0.8655598798282E+01
 0.8525974439841E+01
 0.8408198396954E+01
 0.8304982997040E+01
 0.8218313302902E+01
 0.8150901355727E+01
 0.8106918347607E+01
 0.8091072517806E+01
 0.8107078104679E+01
 0.8156683345864E+01
 0.8239092026312E+01
 0.8351253505760E+01
 0.8491159766040E+01
 0.8671751161745E+01
 0.8899304014342E+01
 0.9210020821339E+01
 0.9361938522991E+01
 0.8008747285161E+01
 0.1579493924188E+02
 0.1536815457734E+02
 0.1373067177097E+02
 0.1244390324185E+02
 0.1194343232665E+02
 0.1155877151777E+02
 0.1127652004143E+02
 0.1104118944389E+02
 0.1083631062485E+02
 0.1065044528906E+02
 0.1047786060264E+02
 0.1031540484925E+02
 0.1016183393097E+02
 0.1001738029073E+02
 0.9883877743155E+01
 0.9765847960941E+01
 0.9673488080213E+01
 0.9607665287196E+01
 0.9540700491515E+01
 0.9445555671081E+01
 0.9321473853475E+01
 0.9179905032705E+01
 0.9033154303168E+01
 0.8890987093554E+01
 0.8760607061097E+01
 0.8647231886935E+01
 0.8554084610750E+01
 0.8481489283734E+01
 0.8431375248368E+01
 0.8412190552953E+01
 0.8433715520181E+01
 0.8503242119592E+01
 0.8626822597151E+01
 0.8808924819606E+01
 0.9050549729271E+01
 0.9350254771388E+01
 0.9716419834979E+01
 0.1026003120394E+02
 0.1105268896429E+02
 0.1273045915965E+02
 0.1340335707304E+02
 0.2312679322898E+02
 0.2801092418167E+00
 0.5233293546184E+00
 0.7321810172244E+00
 0.9137527203908E+00
 0.1075693105087E+01
 0.1224103461284E+01
 0.1363578594756E+01
 0.1497287597915E+01
 0.1627056818773E+01
 0.1753502421267E+01
 0.1876237422269E+01
 0.1994095360022E+01
 0.2105576423957E+01
 0.2209131395755E+01
 0.2302740683286E+01
 0.2383333275133E+01
 0.2446569604255E+01
 0.2487162931858E+01
 0.2499526009320E+01
 0.2481249992434E+01
 0.2885039758670E+00
 0.5353884725274E+00
 0.7483095307097E+00
 0.9338573471106E+00
 0.1099160606059E+01
 0.1250111710741E+01
 0.1391171630265E+01
 0.1525430952648E+01
 0.1654698330201E+01
 0.1779645986699E+01
 0.1899989668335E+01
 0.2014696886446E+01
 0.2122463795074E+01
 0.2221735191937E+01
 0.2310365629066E+01
 0.2385216097874E+01
 0.2441999511316E+01
 0.2475775073687E+01
 0.2482301148209E+01
 0.2458136582238E+01
 0.2960288654188E+00
 0.5461198725388E+00
 0.7625662880537E+00
 0.9515853169663E+00
 0.1119906320062E+01
 0.1273143988747E+01
 0.1415600661873E+01
 0.1550276621009E+01
 0.1678956238961E+01
 0.1802345524298E+01
 0.1920242339492E+01
 0.2031756938539E+01
 0.2135672401489E+01
 0.2230425037754E+01
 0.2313800988111E+01
 0.2382643333565E+01
 0.2432832806926E+01
 0.2459966948683E+01
 0.2460330318945E+01
 0.2431024472520E+01
 0.3028931576511E+00
 0.5554873693592E+00
 0.7749648455712E+00
 0.9670098895964E+00
 0.1137996820143E+01
 0.1293265259022E+01
 0.1436932681114E+01
 0.1571894105259E+01
 0.1699894814186E+01
 0.1821658884263E+01
 0.1937054804226E+01
 0.2045297289985E+01
 0.2145225408677E+01
 0.2235263481947E+01
 0.2313168534879E+01
 0.2375831686545E+01
 0.2419384831165E+01
 0.2439838301518E+01
 0.2433894084675E+01
 0.2399748773090E+01
 0.3091608521973E+00
 0.5635852318943E+00
 0.7855512116288E+00
 0.9801952949702E+00
 0.1153508335692E+01
 0.1310552076454E+01
 0.1455245435568E+01
 0.1590360844997E+01
 0.1717589163728E+01
 0.1837658557803E+01
 0.1950489321928E+01
 0.2055373342961E+01
 0.2151187788847E+01
 0.2236352555172E+01
 0.2308630696231E+01
 0.2365014622103E+01
 0.2401894061443E+01
 0.2415648335058E+01
 0.2403495345533E+01
 0.2364518686387E+01
 0.3148745847979E+00
 0.5704835317800E+00
 0.7943990161410E+00
 0.9912147473964E+00
 0.1166522693090E+01
 0.1325090880352E+01
 0.1470626639796E+01
 0.1605764587754E+01
 0.1732126002713E+01
 0.1850428166077E+01
 0.1960625825373E+01
 0.2062067240523E+01
 0.2153659119748E+01
 0.2233828606851E+01
 0.2300375394870E+01
 0.2350422044215E+01
 0.2380618395726E+01
 0.2387724340637E+01
 0.2369458481754E+01
 0.2325550854995E+01
 0.3200657096521E+00
 0.5762444552870E+00
 0.8015841011119E+00
 0.1000151621616E+01
 0.1177129449229E+01
 0.1336976587888E+01
 0.1483173896376E+01
 0.1618203802938E+01
 0.1743603563114E+01
 0.1860065247423E+01
 0.1967562874787E+01
 0.2065485951937E+01
 0.2152767385437E+01
 0.2227854326037E+01
 0.2288605908148E+01
 0.2332293330560E+01
 0.2355834650448E+01
 0.2356366373832E+01
 0.2332057301584E+01
 0.2283086155362E+01
 0.3247604514052E+00
 0.5809244076580E+00
 0.8071831015007E+00
 0.1007094856605E+01
 0.1185426016866E+01
 0.1346312623525E+01
 0.1492994456190E+01
 0.1627787745017E+01
 0.1752132290782E+01
 0.1866681985187E+01
 0.1971417430599E+01
 0.2065758465539E+01
 0.2148663765511E+01
 0.2218611991168E+01
 0.2273538836521E+01
 0.2310877971757E+01
 0.2327818095655E+01
 0.2321854875421E+01
 0.2291546275282E+01
 0.2237376488787E+01
 0.3289824550432E+00
 0.5845768337828E+00
 0.8112729879518E+00
 0.1012137669742E+01
 0.1191516627281E+01
 0.1353210774289E+01
 0.1500205102346E+01
 0.1634636483237E+01
 0.1757835019205E+01
 0.1870405116792E+01
 0.1972323617296E+01
 0.2063032826754E+01
 0.2141518072776E+01
 0.2206299238568E+01
 0.2255401641940E+01
 0.2286430047323E+01
 0.2296839284425E+01
 0.2284458333827E+01
 0.2248176786846E+01
 0.2188685320948E+01
 0.3327542344150E+00
 0.5872539128343E+00
 0.8139315583893E+00
 0.1015376998592E+01
 0.1195511717127E+01
 0.1357790790084E+01
 0.1504931948099E+01
 0.1638880721669E+01
 0.1760846687140E+01
 0.1871375180332E+01
 0.1970430993708E+01
 0.2057473179753E+01
 0.2131515062724E+01
 0.2191125649829E+01
 0.2234429258744E+01
 0.2259205345439E+01
 0.2263164609932E+01
 0.2244440015027E+01
 0.2202203247431E+01
 0.2137289066112E+01
 0.3360979963965E+00
 0.5890077202353E+00
 0.8152379898773E+00
 0.1016913404721E+01
 0.1197527538763E+01
 0.1360180007731E+01
 0.1507310101323E+01
 0.1640661410675E+01
 0.1761313708546E+01
 0.1869745370661E+01
 0.1965902609190E+01
 0.2049257021347E+01
 0.2118851296329E+01
 0.2173309642517E+01
 0.2210861388427E+01
 0.2229459986024E+01
 0.2227057963852E+01
 0.2202062360452E+01
 0.2153885328656E+01
 0.2083466372249E+01
 0.3390361542206E+00
 0.5898910119663E+00
 0.8152733425637E+00
 0.1016851137676E+01
 0.1197685926141E+01
 0.1360512985016E+01
 0.1507483219997E+01
 0.1640129151048E+01
 0.1759393076905E+01
 0.1865680156069E+01
 0.1958913002956E+01
 0.2038572670682E+01
 0.2103732368523E+01
 0.2153075839523E+01
 0.2184940514455E+01
 0.2197449872542E+01
 0.2188782150047E+01
 0.2157589636861E+01
 0.2103488571930E+01
 0.2027495256413E+01
 0.3415916462768E+00
 0.5899577575729E+00
 0.8141209654860E+00
 0.1015298248949E+01
 0.1196114135401E+01
 0.1358931145610E+01
 0.1505602988505E+01
 0.1637443451484E+01
 0.1755251299240E+01
 0.1859353779075E+01
 0.1949646230951E+01
 0.2025616933794E+01
 0.2086370463886E+01
 0.2130652871613E+01
 0.2156910411257E+01
 0.2163430343308E+01
 0.2148599689716E+01
 0.2111288872364E+01
 0.2051286113350E+01
 0.1969662443458E+01
 0.3437881386664E+00
 0.5892635003144E+00
 0.8118668052202E+00
 0.1012366697770E+01
 0.1192944707526E+01
 0.1355582413803E+01
 0.1501828527943E+01
 0.1632771878244E+01
 0.1749063223176E+01
 0.1850948710979E+01
 0.1938293961039E+01
 0.2010592966922E+01
 0.2066982221820E+01
 0.2106271556211E+01
 0.2127014964600E+01
 0.2127655816405E+01
 0.2106773039341E+01
 0.2063430196669E+01
 0.1997559532178E+01
 0.1910267586507E+01
 0.3456501546606E+00
 0.5878655977856E+00
 0.8085996326881E+00
 0.1008172431379E+01
 0.1188315331820E+01
 0.1350620837876E+01
 0.1496325764885E+01
 0.1626289143818E+01
 0.1741010816365E+01
 0.1840654114489E+01
 0.1925053666079E+01
 0.1993708333958E+01
 0.2045786867742E+01
 0.2080163348041E+01
 0.2095497143745E+01
 0.2090379299250E+01
 0.2063564397539E+01
 0.2014286615444E+01
 0.1942598091643E+01
 0.1849623158150E+01
 0.3472031576712E+00
 0.5858233809391E+00
 0.8044112068042E+00
 0.1002835437558E+01
 0.1182368702466E+01
 0.1344206204145E+01
 0.1489266777150E+01
 0.1618176167217E+01
 0.1731281936017E+01
 0.1828664343794E+01
 0.1910126922258E+01
 0.1975173234409E+01
 0.2023004548019E+01
 0.2052558959618E+01
 0.2062598009956E+01
 0.2051851725937E+01
 0.2019235132243E+01
 0.1964133108610E+01
 0.1886697139251E+01
 0.1788053220746E+01
 0.3484736013845E+00
 0.5831982572363E+00
 0.7993963916313E+00
 0.9964797740330E+00
 0.1175252368259E+01
 0.1336503647037E+01
 0.1480829132378E+01
 0.1608619130819E+01
 0.1720069115850E+01
 0.1815177502189E+01
 0.1893717816018E+01
 0.1955198882111E+01
 0.1998854824635E+01
 0.2023687093430E+01
 0.2028555723834E+01
 0.2012321139698E+01
 0.1974044875915E+01
 0.1913245259920E+01
 0.1830156135138E+01
 0.1725891489954E+01
 0.3494889624847E+00
 0.5800537801974E+00
 0.7936532471066E+00
 0.9892335877677E+00
 0.1167118584897E+01
 0.1327683266760E+01
 0.1471195236696E+01
 0.1597808555856E+01
 0.1707568392443E+01
 0.1800394071874E+01
 0.1876031459742E+01
 0.1933996016583E+01
 0.1973555295726E+01
 0.1993773250348E+01
 0.1993604538219E+01
 0.1972031744107E+01
 0.1928250380004E+01
 0.1861897616285E+01
 0.1773276401758E+01
 0.1663479025385E+01
 0.3502777637041E+00
 0.5764557024183E+00
 0.7872831107429E+00
 0.9812291379688E+00
 0.1158124180707E+01
 0.1317919765615E+01
 0.1460551706716E+01
 0.1585938411091E+01
 0.1693978182866E+01
 0.1784515619366E+01
 0.1857272605660E+01
 0.1911773520321E+01
 0.1947320303191E+01
 0.1963038575290E+01
 0.1957973754060E+01
 0.1931222834086E+01
 0.1882104188138E+01
 0.1810361853783E+01
 0.1716358670461E+01
 0.1601161586185E+01
 0.3508695946392E+00
 0.5724720275517E+00
 0.7803906880391E+00
 0.9726028384730E+00
 0.1148430448697E+01
 0.1307392114525E+01
 0.1449088776556E+01
 0.1573205266107E+01
 0.1679498222305E+01
 0.1767743578781E+01
 0.1837644350556E+01
 0.1888737124904E+01
 0.1920359705537E+01
 0.1931698723885E+01
 0.1921886642474E+01
 0.1890127648332E+01
 0.1835853199627E+01
 0.1758904820265E+01
 0.1659700516689E+01
 0.1539286661402E+01
 0.3512951368010E+00
 0.5681730754734E+00
 0.7730841692843E+00
 0.9634953360225E+00
 0.1138203078485E+01
 0.1296283260875E+01
 0.1436999749519E+01
 0.1559807497443E+01
 0.1664328567030E+01
 0.1750278113024E+01
 0.1817346924035E+01
 0.1865088191724E+01
 0.1892877698933E+01
 0.1899962738430E+01
 0.1885559337941E+01
 0.1848972172071E+01
 0.1789737195730E+01
 0.1707786485412E+01
 0.1603593582494E+01
 0.1478199577027E+01
 0.3515861990519E+00
 0.5636315747078E+00
 0.7654753908277E+00
 0.9540516415070E+00
 0.1127612141620E+01
 0.1284779887601E+01
 0.1424480501763E+01
 0.1545944552905E+01
 0.1648668665671E+01
 0.1732317052207E+01
 0.1796576554711E+01
 0.1841022557036E+01
 0.1865071674339E+01
 0.1868031925134E+01
 0.1849199706287E+01
 0.1807973912005E+01
 0.1743987359817E+01
 0.1657257908126E+01
 0.1548320024741E+01
 0.1418234753051E+01
 0.3517757694797E+00
 0.5589227966381E+00
 0.7576800596985E+00
 0.9444213317313E+00
 0.1116832143413E+01
 0.1273072231899E+01
 0.1411729042895E+01
 0.1531816277009E+01
 0.1632716500347E+01
 0.1714054909103E+01
 0.1775524411697E+01
 0.1816729435870E+01
 0.1837131103428E+01
 0.1836098726969E+01
 0.1813006188833E+01
 0.1767340655903E+01
 0.1698824806084E+01
 0.1607559164591E+01
 0.1494148492412E+01
 0.1359707542784E+01
 0.3518980903528E+00
 0.5541247473917E+00
 0.7498180620799E+00
 0.9347588401295E+00
 0.1106042153922E+01
 0.1261353970258E+01
 0.1398945136109E+01
 0.1517622298349E+01
 0.1616667798461E+01
 0.1695681973166E+01
 0.1754375623109E+01
 0.1792390385394E+01
 0.1809236451643E+01
 0.1804345588724E+01
 0.1777166620964E+01
 0.1727269220887E+01
 0.1654459128096E+01
 0.1558917233780E+01
 0.1441330729335E+01
 0.1302911050891E+01
 0.3519887637905E+00
 0.5493184354908E+00
 0.7420138784182E+00
 0.9252238557825E+00
 0.1095426029828E+01
 0.1249822174026E+01
 0.1386329977137E+01
 0.1503561476650E+01
 0.1600715314341E+01
 0.1677383485491E+01
 0.1733308377001E+01
 0.1768178333601E+01
 0.1781558120687E+01
 0.1772943810347E+01
 0.1741857015793E+01
 0.1687944183733E+01
 0.1611086984963E+01
 0.1511544125659E+01
 0.1390098999786E+01
 0.1248112510974E+01
 0.3520848970785E+00
 0.5445882366193E+00
 0.7343971310776E+00
 0.9159818512570E+00
 0.1085172737700E+01
 0.1238677336630E+01
 0.1374085927360E+01
 0.1489831403546E+01
 0.1585048177757E+01
 0.1659338897938E+01
 0.1712493114762E+01
 0.1744256686396E+01
 0.1754255429194E+01
 0.1742052386145E+01
 0.1707240298586E+01
 0.1649536578629E+01
 0.1568890774390E+01
 0.1465635405946E+01
 0.1340663931356E+01
 0.1195548791920E+01
 0.3522252988274E+00
 0.5400223817738E+00
 0.7271032949578E+00
 0.9072047614878E+00
 0.1075476787705E+01
 0.1228123470013E+01
 0.1362416291943E+01
 0.1476627946763E+01
 0.1569851303341E+01
 0.1641721219887E+01
 0.1692091832392E+01
 0.1720778536152E+01
 0.1727475650447E+01
 0.1711816832324E+01
 0.1673464975282E+01
 0.1612202543545E+01
 0.1528037405004E+01
 0.1421369057189E+01
 0.1293212742544E+01
 0.1145422121065E+01
 0.3524507404046E+00
 0.5357136019027E+00
 0.7202746075262E+00
 0.8990718379596E+00
 0.1066538784886E+01
 0.1218368263651E+01
 0.1351525128928E+01
 0.1464144822424E+01
 0.1555304850684E+01
 0.1624696454917E+01
 0.1672257510803E+01
 0.1697886009088E+01
 0.1701353143382E+01
 0.1682368015902E+01
 0.1640663719265E+01
 0.1576081885416E+01
 0.1488677115190E+01
 0.1378904630803E+01
 0.1247908003788E+01
 0.1097896413016E+01
 0.3528043026536E+00
 0.5317599720408E+00
 0.7140612221822E+00
 0.8917707031735E+00
 0.1058566100032E+01
 0.1209623291448E+01
 0.1341617066184E+01
 0.1452573170089E+01
 0.1541583712750E+01
 0.1608423116961E+01
 0.1653133689148E+01
 0.1675709793394E+01
 0.1676008624860E+01
 0.1653820996890E+01
 0.1608951833471E+01
 0.1541296489259E+01
 0.1450942243362E+01
 0.1338382598046E+01
 0.1204887044059E+01
 0.1053094149972E+01
 0.3533318323987E+00
 0.5282660114329E+00
 0.7086226582275E+00
 0.8854986314512E+00
 0.1051773657142E+01
 0.1202104245715E+01
 0.1332897099292E+01
 0.1442101103210E+01
 0.1528857007197E+01
 0.1593051811094E+01
 0.1634854198428E+01
 0.1654368917361E+01
 0.1651548686760E+01
 0.1626273950573E+01
 0.1578425550903E+01
 0.1507948488192E+01
 0.1414945918967E+01
 0.1299923839768E+01
 0.1164261861668E+01
 0.1011094037861E+01
 0.3540825488955E+00
 0.5253441187485E+00
 0.7041296161736E+00
 0.8804640834098E+00
 0.1046384826655E+01
 0.1196031168524E+01
 0.1325570338165E+01
 0.1432913205002E+01
 0.1517287538383E+01
 0.1578724845828E+01
 0.1617543050148E+01
 0.1633970849437E+01
 0.1628065715371E+01
 0.1599807312248E+01
 0.1549160137090E+01
 0.1476117980097E+01
 0.1380780666061E+01
 0.1263629426274E+01
 0.1126119065143E+01
 0.9719288572539E+00
 0.3551098549501E+00
 0.5231164495238E+00
 0.7007662385010E+00
 0.8768885101792E+00
 0.1042632390573E+01
 0.1191628628414E+01
 0.1319841654917E+01
 0.1425189930931E+01
 0.1507031186124E+01
 0.1565575811123E+01
 0.1601314413279E+01
 0.1614611943117E+01
 0.1605638407560E+01
 0.1574483406964E+01
 0.1521207810669E+01
 0.1445859849376E+01
 0.1348516486215E+01
 0.1229581501638E+01
 0.1090519942281E+01
 0.9355826405800E+00
 0.3564724373406E+00
 0.5217173909497E+00
 0.6987329131028E+00
 0.8750084272039E+00
 0.1040759517874E+01
 0.1189125770870E+01
 0.1315915178816E+01
 0.1419106884691E+01
 0.1498236192245E+01
 0.1553729052746E+01
 0.1586272549755E+01
 0.1596378149031E+01
 0.1584333101354E+01
 0.1550347083486E+01
 0.1494595765299E+01
 0.1417199150063E+01
 0.1318197200354E+01
 0.1197845498998E+01
 0.1057505755516E+01
 0.9019907728289E+00
 0.3582357919852E+00
 0.5212968614317E+00
 0.6982497311485E+00
 0.8750777175052E+00
 0.1041020645236E+01
 0.1188756148022E+01
 0.1313993582560E+01
 0.1414833946025E+01
 0.1491042350502E+01
 0.1543299033208E+01
 0.1572511553366E+01
 0.1579345739609E+01
 0.1564206018000E+01
 0.1527428266543E+01
 0.1469325301245E+01
 0.1390124601250E+01
 0.1289833141257E+01
 0.1168471665009E+01
 0.1027114247766E+01
 0.8710596276570E+00
 0.3604744155134E+00
 0.5220247911711E+00
 0.6995606963160E+00
 0.8773700379177E+00
 0.1043682076457E+01
 0.1190757208421E+01
 0.1314277088741E+01
 0.1412534209934E+01
 0.1485580089240E+01
 0.1534389603470E+01
 0.1560114807658E+01
 0.1563581414423E+01
 0.1545305862724E+01
 0.1505747352848E+01
 0.1445374456476E+01
 0.1364580389548E+01
 0.1263386331172E+01
 0.1141492849837E+01
 0.9994027495545E+00
 0.8427109442743E+00
 0.3632751051957E+00
 0.5240972897808E+00
 0.7029387192720E+00
 0.8821809428857E+00
 0.1049022033462E+01
 0.1195369305132E+01
 0.1316962146459E+01
 0.1412362677077E+01
 0.1481969438552E+01
 0.1527093277059E+01
 0.1549154368442E+01
 0.1549141548114E+01
 0.1527674658984E+01
 0.1485323689380E+01
 0.1422708870432E+01
 0.1340460399736E+01
 0.1238741591895E+01
 0.1116908999749E+01
 0.9744792307234E+00
 0.8169135589912E+00
 0.3667422394147E+00
 0.5277456343074E+00
 0.7086907996884E+00
 0.8898291468965E+00
 0.1057329680974E+01
 0.1202834315539E+01
 0.1322239725630E+01
 0.1414464600978E+01
 0.1480318822040E+01
 0.1521490572907E+01
 0.1539690527505E+01
 0.1536071226683E+01
 0.1511345387149E+01
 0.1466179258474E+01
 0.1401310301674E+01
 0.1317617803011E+01
 0.1215658209151E+01
 0.1094629048193E+01
 0.9525406791524E+00
 0.7937586581815E+00
 0.3710078949477E+00
 0.5332478241965E+00
 0.7171630770370E+00
 0.9006539465110E+00
 0.1068903834331E+01
 0.1213393894574E+01
 0.1330293053144E+01
 0.1418973394088E+01
 0.1480723506942E+01
 0.1517649394532E+01
 0.1531771944851E+01
 0.1524403687210E+01
 0.1496339263360E+01
 0.1448329818138E+01
 0.1381195706471E+01
 0.1295962520084E+01
 0.1193692151475E+01
 0.1074307638453E+01
 0.9338891546622E+00
 0.7737014234973E+00
 0.3762496462683E+00
 0.5409563259222E+00
 0.7287268115418E+00
 0.9150132564040E+00
 0.1084051568140E+01
 0.1227287144083E+01
 0.1341295178412E+01
 0.1426007364039E+01
 0.1483263868312E+01
 0.1515624260700E+01
 0.1525436109012E+01
 0.1514161757866E+01
 0.1482662811572E+01
 0.1431777962324E+01
 0.1362380221982E+01
 0.1275567403485E+01
 0.1172510734690E+01
 0.1054616349747E+01
 0.9188900617974E+00
 0.7582624477864E+00
 0.3828081117225E+00
 0.5512080763516E+00
 0.7437715224908E+00
 0.9332843346145E+00
 0.1103082978330E+01
 0.1244750000322E+01
 0.1355406329468E+01
 0.1435665164649E+01
 0.1488000429938E+01
 0.1515459175310E+01
 0.1520707802505E+01
 0.1505359105045E+01
 0.1470314322624E+01
 0.1416496194039E+01
 0.1344869760098E+01
 0.1256489538891E+01
 0.1152507291330E+01
 0.1034060917532E+01
 0.9036121355257E+00
 0.7541333189858E+00
 0.2697350775018E+00
 0.3920474209903E+00
 0.2901658922295E+00
 0.1631708024898E+00
 0.3620268494467E-01
 0.8064686012748E-01
 0.1826737983279E+00
 0.2669368814245E+00
 0.3310202005029E+00
 0.3726441325020E+00
 0.3881171121245E+00
 0.3709057685579E+00
 0.3332334206936E+00
 0.2961151648734E+00
 0.2856463556553E+00
 0.3783379403578E+00
 0.4635264030791E+00
 0.4032483477911E+00
 0.3123249181020E+00
 0.2649635732499E+00
 0.1794746692935E+00
 0.2788924939047E+00
 0.2019094259665E+00
 0.8892426413680E-01
 0.2893354222384E-01
 0.1417237233419E+00
 0.2442310896798E+00
 0.3331922782966E+00
 0.4062198281020E+00
 0.4611526944667E+00
 0.4952803924630E+00
 0.5066219941519E+00
 0.5091347624083E+00
 0.5259998714253E+00
 0.5923873222298E+00
 0.7582442047303E+00
 0.8932619802010E+00
 0.8368644004305E+00
 0.6827350891025E+00
 0.5558262692303E+00
 0.1083611492736E+00
 0.1668634026956E+00
 0.1076908695058E+00
 0.9334168780192E-02
 0.1002282449155E+00
 0.2090756270441E+00
 0.3118580835964E+00
 0.4052281482396E+00
 0.4868893255796E+00
 0.5551250063351E+00
 0.6087032456100E+00
 0.6480894418242E+00
 0.6871010834159E+00
 0.7502789062831E+00
 0.8675549521921E+00
 0.1065197110807E+01
 0.1220961627178E+01
 0.1184820781067E+01
 0.1022571379047E+01
 0.8550808793841E+00
 0.5099264473140E-01
 0.6837697135497E-01
 0.1321746142384E-01
 0.7438340611510E-01
 0.1761724824311E+00
 0.2814108492034E+00
 0.3843829573734E+00
 0.4818209158625E+00
 0.5716407084658E+00
 0.6526865374126E+00
 0.7248293937682E+00
 0.7899061906535E+00
 0.8604418450694E+00
 0.9588279862684E+00
 0.1108081986831E+01
 0.1318280604159E+01
 0.1481917191049E+01
 0.1466854740143E+01
 0.1314372501238E+01
 0.1129020979611E+01
 0.7301144401914E-02
 0.1790912593229E-01
 0.7699967580183E-01
 0.1591494592165E+00
 0.2551859133562E+00
 0.3573724295434E+00
 0.4605726647344E+00
 0.5617346410785E+00
 0.6590739936398E+00
 0.7519178243937E+00
 0.8408409802883E+00
 0.9282244765754E+00
 0.1024370476439E+01
 0.1148337890609E+01
 0.1316824964622E+01
 0.1529481316541E+01
 0.1694259038190E+01
 0.1697433903107E+01
 0.1561514836348E+01
 0.1372173773441E+01
 0.3765430436581E-01
 0.9182825403469E-01
 0.1605961498830E+00
 0.2423723188707E+00
 0.3353823968967E+00
 0.4355409181481E+00
 0.5391568030498E+00
 0.6437211878858E+00
 0.7478036675487E+00
 0.8510956893764E+00
 0.9545154743161E+00
 0.1060364534274E+01
 0.1176437565566E+01
 0.1318265010082E+01
 0.1497350326789E+01
 0.1706840828907E+01
 0.1868903515375E+01
 0.1886874134472E+01
 0.1769571471383E+01
 0.1584809409627E+01
 0.7139701641720E-01
 0.1562918395978E+00
 0.2371983730485E+00
 0.3222768863124E+00
 0.4149361908916E+00
 0.5144258456629E+00
 0.6188427675811E+00
 0.7265367260353E+00
 0.8365147041903E+00
 0.9487258560732E+00
 0.1064150527965E+01
 0.1184642239851E+01
 0.1315586493599E+01
 0.1469227042806E+01
 0.1652948197975E+01
 0.1856050325591E+01
 0.2013136878845E+01
 0.2042658286583E+01
 0.1943850200340E+01
 0.1768805730298E+01
 0.1005743355670E+00
 0.2123604988031E+00
 0.3067771608726E+00
 0.3977617833035E+00
 0.4923629799727E+00
 0.5925952567912E+00
 0.6983434723750E+00
 0.8089686191581E+00
 0.9239888027586E+00
 0.1043542389420E+01
 0.1168491843312E+01
 0.1300074443037E+01
 0.1441558620745E+01
 0.1602295512486E+01
 0.1786471097993E+01
 0.1981336131530E+01
 0.2132125423779E+01
 0.2170384431151E+01
 0.2088922769169E+01
 0.1926521004688E+01
 0.1259386960301E+00
 0.2611921870306E+00
 0.3695728735539E+00
 0.4681856395333E+00
 0.5665325583828E+00
 0.6687892308334E+00
 0.7764403247344E+00
 0.8898655081682E+00
 0.1009119847845E+01
 0.1134492722393E+01
 0.1266638751781E+01
 0.1406147982247E+01
 0.1554535650307E+01
 0.1718688733081E+01
 0.1900356101528E+01
 0.2085954078396E+01
 0.2229704871878E+01
 0.2274351775502E+01
 0.2208643186356E+01
 0.2060371656115E+01
 0.1481456952794E+00
 0.3037643772540E+00
 0.4259424211017E+00
 0.5332098570180E+00
 0.6366210334933E+00
 0.7419590066397E+00
 0.8520400800079E+00
 0.9681723912834E+00
 0.1090925136790E+01
 0.1220713975086E+01
 0.1357959418397E+01
 0.1502655953178E+01
 0.1654935125365E+01
 0.1819633005203E+01
 0.1996684949093E+01
 0.2172489536937E+01
 0.2308829569420E+01
 0.2357946668969E+01
 0.2306260337916E+01
 0.2172677698954E+01
 0.1677139902015E+00
 0.3408921492319E+00
 0.4762846461325E+00
 0.5926948066330E+00
 0.7020509077903E+00
 0.8112674348259E+00
 0.9242056045404E+00
 0.1042959490094E+01
 0.1168553988739E+01
 0.1301509711943E+01
 0.1442023937300E+01
 0.1589588891447E+01
 0.1743293650827E+01
 0.1906301913944E+01
 0.2077245722065E+01
 0.2243048555259E+01
 0.2371847631104E+01
 0.2423900208090E+01
 0.2384535780319E+01
 0.2265607441701E+01
 0.1850522416456E+00
 0.3732543157772E+00
 0.5210029312521E+00
 0.6466318468534E+00
 0.7624377218865E+00
 0.8760712361810E+00
 0.9921656077614E+00
 0.1113438558623E+01
 0.1241292272925E+01
 0.1376330421960E+01
 0.1518555638575E+01
 0.1667064807503E+01
 0.1820201552830E+01
 0.1979793774774E+01
 0.2143587407270E+01
 0.2299385124099E+01
 0.2420676299038E+01
 0.2474462814663E+01
 0.2445842635809E+01
 0.2341164343221E+01
 0.2004842404575E+00
 0.4014173494337E+00
 0.5604867556841E+00
 0.6950988418297E+00
 0.8175468577251E+00
 0.9358970280249E+00
 0.1055310609547E+01
 0.1178967552597E+01
 0.1308561814152E+01
 0.1444757457416E+01
 0.1587396945808E+01
 0.1735285425952E+01
 0.1886268053350E+01
 0.2041128928757E+01
 0.2197067024334E+01
 0.2342989191911E+01
 0.2456916323813E+01
 0.2511522177450E+01
 0.2492242193105E+01
 0.2401190990754E+01
 0.2142682891847E+00
 0.4258556746671E+00
 0.5951032901127E+00
 0.7382308708356E+00
 0.8672598968566E+00
 0.9904167609083E+00
 0.1113181285236E+01
 0.1239046741658E+01
 0.1369915215532E+01
 0.1506489121654E+01
 0.1648485256178E+01
 0.1794508984442E+01
 0.1942104337975E+01
 0.2091257981281E+01
 0.2238891809449E+01
 0.2375151165141E+01
 0.2481927596967E+01
 0.2536680408520E+01
 0.2525538923351E+01
 0.2447379366067E+01
 0.2266117816694E+00
 0.4469684313458E+00
 0.6251943947058E+00
 0.7762008450733E+00
 0.9115487992708E+00
 0.1039425007979E+01
 0.1165453307534E+01
 0.1293309519081E+01
 0.1425027408878E+01
 0.1561327970658E+01
 0.1701834940613E+01
 0.1845032201669E+01
 0.1988315638628E+01
 0.2131075743209E+01
 0.2270160104015E+01
 0.2397015841992E+01
 0.2496881637697E+01
 0.2551299777666E+01
 0.2547313070750E+01
 0.2481281275816E+01
 0.2376821049434E+00
 0.4650931153570E+00
 0.6510765827212E+00
 0.8092067146112E+00
 0.9504562024434E+00
 0.1082818917380E+01
 0.1211921178769E+01
 0.1341510505905E+01
 0.1473685475819E+01
 0.1609169105513E+01
 0.1747522921641E+01
 0.1887176108433E+01
 0.2025494505872E+01
 0.2161434620424E+01
 0.2291904093444E+01
 0.2409639849733E+01
 0.2502809057788E+01
 0.2556523524560E+01
 0.2558924959931E+01
 0.2504311157073E+01
 0.2476145877733E+00
 0.4805165905061E+00
 0.6730426418972E+00
 0.8374633812423E+00
 0.9840804086746E+00
 0.1120580880683E+01
 0.1252482309303E+01
 0.1383512771602E+01
 0.1515778170939E+01
 0.1649989937269E+01
 0.1785676905087E+01
 0.1921272969235E+01
 0.2054209270145E+01
 0.2183144985925E+01
 0.2305127512678E+01
 0.2414071842831E+01
 0.2500672539826E+01
 0.2553290938090E+01
 0.2561472206241E+01
 0.2517724055844E+01
 0.2565180193583E+00
 0.4934832712435E+00
 0.6913650877968E+00
 0.8611979546140E+00
 0.1012564351414E+01
 0.1152763321566E+01
 0.1287121770183E+01
 0.1419275135578E+01
 0.1551286501011E+01
 0.1683842281283E+01
 0.1816466927015E+01
 0.1947654553474E+01
 0.2074986293540E+01
 0.2196952471017E+01
 0.2310797323137E+01
 0.2411443201279E+01
 0.2491556705503E+01
 0.2542396129500E+01
 0.2555689171326E+01
 0.2522514958102E+01
 0.2644760475159E+00
 0.5042047006223E+00
 0.7062985749098E+00
 0.8806511310475E+00
 0.1036086351113E+01
 0.1179475033655E+01
 0.1315897684245E+01
 0.1448839387329E+01
 0.1580276072112E+01
 0.1710849440706E+01
 0.1840100483038E+01
 0.1966644768587E+01
 0.2088292085592E+01
 0.2203496859055E+01
 0.2309768079046E+01
 0.2402888059527E+01
 0.2476964056810E+01
 0.2525052480880E+01
 0.2541693913501E+01
 0.2519049732022E+01
 0.2715597995528E+00
 0.5128353797153E+00
 0.7181070359417E+00
 0.8960777268275E+00
 0.1054851042666E+01
 0.1200868897824E+01
 0.1338926816105E+01
 0.1472317003937E+01
 0.1602888592428E+01
 0.1731211425896E+01
 0.1856832602658E+01
 0.1978545494525E+01
 0.2094526965376E+01
 0.2203288300735E+01
 0.2302677052069E+01
 0.2389288474387E+01
 0.2458345992680E+01
 0.2504011256012E+01
 0.2520800296851E+01
 0.2506316603245E+01
 0.3935670365992E+00
 0.5688674556229E+00
 0.7698194587791E+00
 0.9649613107741E+00
 0.1136497303365E+01
 0.1276093999657E+01
 0.1381590679993E+01
 0.1454509598632E+01
 0.1498182917614E+01
 0.1516351571798E+01
 0.1512211562885E+01
 0.1487945157007E+01
 0.1444688195069E+01
 0.1383613897299E+01
 0.1306017088620E+01
 0.1212901895241E+01
 0.1105465799189E+01
 0.9852484261585E+00
 0.8573028072840E+00
 0.7418707867519E+00
 0.4064650923853E+00
 0.5941100406512E+00
 0.8072608894602E+00
 0.1010600655601E+01
 0.1184730238573E+01
 0.1321571840041E+01
 0.1419991747331E+01
 0.1482755226561E+01
 0.1514337976348E+01
 0.1519391783768E+01
 0.1501819723439E+01
 0.1464408484061E+01
 0.1408684313642E+01
 0.1336269600621E+01
 0.1248982237192E+01
 0.1148194582762E+01
 0.1035843030353E+01
 0.9148517115070E+00
 0.7941780764116E+00
 0.6734491387411E+00
 0.4212138692774E+00
 0.6244813884724E+00
 0.8517961790274E+00
 0.1063649788686E+01
 0.1239481201584E+01
 0.1371903825201E+01
 0.1461268337737E+01
 0.1511945306264E+01
 0.1529807191165E+01
 0.1520570650497E+01
 0.1488898378321E+01
 0.1438117563843E+01
 0.1370092566740E+01
 0.1286873672279E+01
 0.1190781292894E+01
 0.1083711222097E+01
 0.9683397662549E+00
 0.8485965851934E+00
 0.7283156538357E+00
 0.5971672181604E+00
 0.4385306088455E+00
 0.6608270430894E+00
 0.9043537411797E+00
 0.1124816943454E+01
 0.1300995312257E+01
 0.1426863376257E+01
 0.1504823960570E+01
 0.1541272062999E+01
 0.1543729041083E+01
 0.1519084248686E+01
 0.1472758795259E+01
 0.1408552195020E+01
 0.1328598253232E+01
 0.1235346419630E+01
 0.1131573773389E+01
 0.1019533848869E+01
 0.9021387743685E+00
 0.7819454483455E+00
 0.6587929383422E+00
 0.5232009577526E+00
 0.4590549114017E+00
 0.7043721396008E+00
 0.9660339838297E+00
 0.1194787391949E+01
 0.1369379599579E+01
 0.1486001703353E+01
 0.1549809459497E+01
 0.1569685150961E+01
 0.1555032096712E+01
 0.1513967196624E+01
 0.1452615943624E+01
 0.1375142211869E+01
 0.1283854240336E+01
 0.1181528131656E+01
 0.1071221945122E+01
 0.9552078372765E+00
 0.8359082166260E+00
 0.7144636938451E+00
 0.5892424174550E+00
 0.4534849301482E+00
 0.4835375179686E+00
 0.7565464264139E+00
 0.1038103238262E+01
 0.1274209804036E+01
 0.1444541500306E+01
 0.1548581649689E+01
 0.1595068723120E+01
 0.1595863826347E+01
 0.1562441210956E+01
 0.1504126783949E+01
 0.1427624162529E+01
 0.1337298280921E+01
 0.1235496146338E+01
 0.1125191142373E+01
 0.1009486690596E+01
 0.8903407591776E+00
 0.7695306804893E+00
 0.6472949638366E+00
 0.5216598103976E+00
 0.3885959364135E+00
 0.5128922611187E+00
 0.8190507304980E+00
 0.1121956488157E+01
 0.1363645154904E+01
 0.1526110314115E+01
 0.1613496675549E+01
 0.1639083540064E+01
 0.1618200098341E+01
 0.1564497490801E+01
 0.1488385368298E+01
 0.1396926012732E+01
 0.1294456233359E+01
 0.1183189012540E+01
 0.1066140307840E+01
 0.9462354978729E+00
 0.8249511570375E+00
 0.7034752211782E+00
 0.5815030644455E+00
 0.4572235007360E+00
 0.3287285045110E+00
 0.5482559066468E+00
 0.8939199609126E+00
 0.1219103480621E+01
 0.1463481770945E+01
 0.1613327696300E+01
 0.1679173889579E+01
 0.1679919919160E+01
 0.1634797487074E+01
 0.1559598285304E+01
 0.1465541088120E+01
 0.1359714919701E+01
 0.1246134578907E+01
 0.1126690389305E+01
 0.1004293803621E+01
 0.8815251762484E+00
 0.7593086854067E+00
 0.6383173288447E+00
 0.5179183379661E+00
 0.3966218498474E+00
 0.2739907949712E+00
 0.5910622407595E+00
 0.9836034685399E+00
 0.1331140509665E+01
 0.1573816053304E+01
 0.1704898329273E+01
 0.1743459078906E+01
 0.1715182728769E+01
 0.1643495369379E+01
 0.1546066325124E+01
 0.1434450821230E+01
 0.1315310129579E+01
 0.1191995270297E+01
 0.1065899217195E+01
 0.9397140517686E+00
 0.8155585155722E+00
 0.6937780072692E+00
 0.5745875320629E+00
 0.4571363470378E+00
 0.3402608443543E+00
 0.2244594064580E+00
 0.6431424123599E+00
 0.1091064519206E+01
 0.1459694298910E+01
 0.1694275077270E+01
 0.1798789990826E+01
 0.1803485917666E+01
 0.1741992392245E+01
 0.1641934650167E+01
 0.1522257294142E+01
 0.1394135761120E+01
 0.1263236732719E+01
 0.1131894186812E+01
 0.1000879331016E+01
 0.8725957884453E+00
 0.7486255092437E+00
 0.6287352829966E+00
 0.5127195943461E+00
 0.3995600795917E+00
 0.2883650097499E+00
 0.1801789663381E+00
 0.7068660065323E+00
 0.1219904495688E+01
 0.1606312877161E+01
 0.1823747693609E+01
 0.1891966648082E+01
 0.1855540030759E+01
 0.1757008940736E+01
 0.1627686430763E+01
 0.1486713074832E+01
 0.1343903452203E+01
 0.1203298233006E+01
 0.1065910624175E+01
 0.9318565355390E+00
 0.8032365705639E+00
 0.6810558868358E+00
 0.5645237888407E+00
 0.4530398369695E+00
 0.3454371979651E+00
 0.2410293070888E+00
 0.1411482765037E+00
 0.7853459259855E+00
 0.1374516383706E+01
 0.1772258338022E+01
 0.1959970105682E+01
 0.1980038006614E+01
 0.1894945992438E+01
 0.1756546792019E+01
 0.1598469682575E+01
 0.1438359855429E+01
 0.1283469566174E+01
 0.1135624604178E+01
 0.9943474284019E+00
 0.8591935566709E+00
 0.7320001620347E+00
 0.6131819133488E+00
 0.5014307405769E+00
 0.3957705277989E+00
 0.2948898960932E+00
 0.1982475489292E+00
 0.1073088488190E+00
 0.8827459305418E+00
 0.1560267644702E+01
 0.1958113626234E+01
 0.2098878454228E+01
 0.2056818465910E+01
 0.1916042955589E+01
 0.1736848697605E+01
 0.1552479953925E+01
 0.1376730300767E+01
 0.1213048163935E+01
 0.1060676455713E+01
 0.9176981044601E+00
 0.7833479871120E+00
 0.6592771015480E+00
 0.5453087126277E+00
 0.4396750650527E+00
 0.3410391416792E+00
 0.2479399487862E+00
 0.1599321100868E+00
 0.7854049533339E-01
 0.1004759796133E+01
 0.1783694841600E+01
 0.2163025373652E+01
 0.2233586336342E+01
 0.2113831059801E+01
 0.1912388328822E+01
 0.1694614618692E+01
 0.1488820200295E+01
 0.1302152025611E+01
 0.1133365806403E+01
 0.9791930827054E+00
 0.8365860317060E+00
 0.7048207547337E+00
 0.5854457823447E+00
 0.4776898731939E+00
 0.3794014011699E+00
 0.2888910177562E+00
 0.2045328085440E+00
 0.1259328270862E+00
 0.5466619002239E-01
 0.1159392831422E+01
 0.2052638620764E+01
 0.2383193887504E+01
 0.2352778632247E+01
 0.2139917812224E+01
 0.1877475237108E+01
 0.1627866091287E+01
 0.1407940970813E+01
 0.1215790916755E+01
 0.1045566157024E+01
 0.8920946831253E+00
 0.7516908790649E+00
 0.6241039678431E+00
 0.5108358148237E+00
 0.4105061683585E+00
 0.3206776543576E+00
 0.2393053572476E+00
 0.1645641843069E+00
 0.9605976934586E-01
 0.3546896726553E-01
 0.1358309633859E+01
 0.2376024051689E+01
 0.2608763302914E+01
 0.2438225793857E+01
 0.2121563093671E+01
 0.1806403921009E+01
 0.1537101454140E+01
 0.1311784545008E+01
 0.1119449998779E+01
 0.9510319433418E+00
 0.8003722318731E+00
 0.6636816425920E+00
 0.5416334055701E+00
 0.4356920649961E+00
 0.3438438297032E+00
 0.2634946135836E+00
 0.1922154888760E+00
 0.1279127604509E+00
 0.7011261742318E-01
 0.2073334298987E-01
 0.1619385318313E+01
 0.2762444556764E+01
 0.2816696813196E+01
 0.2461805644589E+01
 0.2045295115620E+01
 0.1699267437328E+01
 0.1425821445373E+01
 0.1203301948697E+01
 0.1015211088583E+01
 0.8511996652137E+00
 0.7050070931587E+00
 0.5731681205660E+00
 0.4577438991805E+00
 0.3601312230691E+00
 0.2776679668515E+00
 0.2077673309097E+00
 0.1475370207001E+00
 0.9448023743924E-01
 0.4792157679625E-01
 0.1036550607971E-01
 0.1971816649330E+01
 0.3211814276805E+01
 0.2955950417490E+01
 0.2382667354809E+01
 0.1908599685686E+01
 0.1563247395493E+01
 0.1299166505491E+01
 0.1085696785830E+01
 0.9050913588636E+00
 0.7474513222941E+00
 0.6069398082255E+00
 0.4806787804923E+00
 0.3726100276839E+00
 0.2840734008334E+00
 0.2117861100581E+00
 0.1533501918188E+00
 0.1052031868021E+00
 0.6424275824870E-01
 0.2939315471333E-01
 0.4852036680278E-02
 0.2470967020443E+01
 0.3691415609603E+01
 0.2891467133273E+01
 0.2184898617925E+01
 0.1729211014257E+01
 0.1407938151437E+01
 0.1162298810188E+01
 0.9617922968778E+00
 0.7908923617450E+00
 0.6410656292097E+00
 0.5071229733356E+00
 0.3866611873230E+00
 0.2861490302893E+00
 0.2070768618681E+00
 0.1458100666868E+00
 0.1001330049817E+00
 0.6521904152426E-01
 0.3721364471491E-01
 0.1465694913738E-01
 0.3955437584802E-02
 0.3219081880579E+01
 0.3716289998314E+01
 0.2537343979365E+01
 0.1923217271728E+01
 0.1526039647644E+01
 0.1242089317783E+01
 0.1019123390071E+01
 0.8340245822828E+00
 0.6741706922992E+00
 0.5330799405807E+00
 0.4066850374160E+00
 0.2918547956106E+00
 0.1973959054529E+00
 0.1279315605367E+00
 0.7946721736602E-01
 0.4824175408244E-01
 0.2766037945690E-01
 0.1341227043033E-01
 0.3765944536290E-02
 0.1903556595097E-02
 0.2479060940817E+01
 0.2482871475634E+01
 0.2478461984809E+01
 0.2468021532319E+01
 0.2448976684914E+01
 0.2420086334530E+01
 0.2380108683650E+01
 0.2327752658780E+01
 0.2261608498450E+01
 0.2180141867106E+01
 0.2081697325560E+01
 0.1964516719383E+01
 0.1826782561269E+01
 0.1666710418840E+01
 0.1482734690618E+01
 0.1273869492735E+01
 0.1040406421573E+01
 0.7852893189461E+00
 0.5175902371606E+00
 0.2726030117844E+00
 0.2445785302242E+01
 0.2458976840138E+01
 0.2455303938197E+01
 0.2443301633973E+01
 0.2423285695545E+01
 0.2393857953395E+01
 0.2353535388381E+01
 0.2300801262463E+01
 0.2234098976575E+01
 0.2151812878397E+01
 0.2052276812873E+01
 0.1933811265474E+01
 0.1794799016823E+01
 0.1633817370139E+01
 0.1449857179290E+01
 0.1242677240479E+01
 0.1013372473038E+01
 0.7654450800622E+00
 0.5077964752412E+00
 0.2808392327119E+00
 0.2410245911103E+01
 0.2421889426789E+01
 0.2422036473900E+01
 0.2411116107611E+01
 0.2390958766754E+01
 0.2361137617794E+01
 0.2320439284561E+01
 0.2267396835947E+01
 0.2200443795906E+01
 0.2117972472388E+01
 0.2018375180292E+01
 0.1900102975193E+01
 0.1761756966567E+01
 0.1602225618043E+01
 0.1420884293011E+01
 0.1217878090120E+01
 0.9945634153060E+00
 0.7543779928741E+00
 0.5067830375670E+00
 0.2914506883059E+00
 0.2373493961037E+01
 0.2381489918077E+01
 0.2381432699759E+01
 0.2371432485724E+01
 0.2351580416114E+01
 0.2321696397790E+01
 0.2280871349793E+01
 0.2227817258233E+01
 0.2161073253805E+01
 0.2079118393755E+01
 0.1980449734340E+01
 0.1863660284392E+01
 0.1727535606196E+01
 0.1571179783672E+01
 0.1394179130474E+01
 0.1196824268003E+01
 0.9804619094942E+00
 0.7484446697319E+00
 0.5098783286926E+00
 0.3024558242889E+00
 0.2334013550878E+01
 0.2338075709393E+01
 0.2336126491766E+01
 0.2325595677047E+01
 0.2305653999026E+01
 0.2275712573077E+01
 0.2234929289809E+01
 0.2182158361833E+01
 0.2116073314580E+01
 0.2035275233192E+01
 0.1938382808178E+01
 0.1824118003850E+01
 0.1691399638465E+01
 0.1539452550918E+01
 0.1367940508851E+01
 0.1177145037704E+01
 0.9682985562103E+00
 0.7444928947158E+00
 0.5143276295088E+00
 0.3131182168002E+00
 0.2291365871617E+01
 0.2291501941507E+01
 0.2286758692523E+01
 0.2274652122877E+01
 0.2253884143086E+01
 0.2223563305442E+01
 0.2182765431106E+01
 0.2130411791830E+01
 0.2065287429529E+01
 0.1986112531327E+01
 0.1891620443211E+01
 0.1780637142028E+01
 0.1652164852376E+01
 0.1505474214535E+01
 0.1340213451521E+01
 0.1156565690612E+01
 0.9555639034959E+00
 0.7399979444675E+00
 0.5179918082999E+00
 0.3224805550198E+00
 0.2245390540795E+01
 0.2241584855280E+01
 0.2233532233243E+01
 0.2219070702154E+01
 0.2196770476184E+01
 0.2165570386246E+01
 0.2124481744804E+01
 0.2072455177714E+01
 0.2008360331699E+01
 0.1931019332981E+01
 0.1839263222138E+01
 0.1731996652983E+01
 0.1608267603120E+01
 0.1467343777801E+01
 0.1308805456202E+01
 0.1132688432173E+01
 0.9397933228313E+00
 0.7325954163503E+00
 0.5187588676920E+00
 0.3292358923412E+00
 0.2196107847267E+01
 0.2188240915509E+01
 0.2176492232269E+01
 0.2159064262424E+01
 0.2134572312742E+01
 0.2101913504309E+01
 0.2060083085462E+01
 0.2008067451843E+01
 0.1944809277329E+01
 0.1869218885974E+01
 0.1780210037393E+01
 0.1676748267721E+01
 0.1557906703307E+01
 0.1422930405340E+01
 0.1271319671723E+01
 0.1102968107750E+01
 0.9184724984599E+00
 0.7200413219925E+00
 0.5149080103124E+00
 0.3322966153516E+00
 0.2143641859327E+01
 0.2131503181463E+01
 0.2115712785825E+01
 0.2094803021809E+01
 0.2067522831709E+01
 0.2032815766720E+01
 0.1989714995549E+01
 0.1937264610931E+01
 0.1874484188098E+01
 0.1800367044017E+01
 0.1713900484307E+01
 0.1614099881268E+01
 0.1500053338340E+01
 0.1370979217801E+01
 0.1226308757854E+01
 0.1065831265122E+01
 0.8900181835887E+00
 0.7009368786820E+00
 0.5055605744368E+00
 0.3315149207902E+00
 0.2088221970205E+01
 0.2071576771721E+01
 0.2051452448207E+01
 0.2026669005244E+01
 0.1996151131780E+01
 0.1958949382031E+01
 0.1914182896681E+01
 0.1860983323686E+01
 0.1798461626035E+01
 0.1725697591096E+01
 0.1641746800696E+01
 0.1545661046657E+01
 0.1436521462971E+01
 0.1313488776584E+01
 0.1175884883472E+01
 0.1023344812995E+01
 0.8561553753122E+00
 0.6761868861398E+00
 0.4901975893044E+00
 0.3252742559167E+00
 0.2030093017964E+01
 0.2008680433418E+01
 0.1983939616610E+01
 0.1954944243941E+01
 0.1920814181987E+01
 0.1880747820932E+01
 0.1833990736376E+01
 0.1779794084146E+01
 0.1717382644482E+01
 0.1645936388950E+01
 0.1564584573389E+01
 0.1472411579635E+01
 0.1368476418966E+01
 0.1251852709823E+01
 0.1121705739297E+01
 0.9774480394525E+00
 0.8190924487584E+00
 0.6482178081037E+00
 0.4713597982136E+00
 0.3157144796434E+00
 0.1969520187193E+01
 0.1943070643773E+01
 0.1913425574740E+01
 0.1879888657758E+01
 0.1841782484584E+01
 0.1798479644043E+01
 0.1749383948727E+01
 0.1693896624532E+01
 0.1631383479996E+01
 0.1561148206777E+01
 0.1482413150928E+01
 0.1394309113251E+01
 0.1295878396851E+01
 0.1186100477810E+01
 0.1063959927072E+01
 0.9286015356754E+00
 0.7796965531719E+00
 0.6184442105264E+00
 0.4510601756267E+00
 0.3045402061296E+00
 0.1906793099512E+01
 0.1875045174809E+01
 0.1840207522947E+01
 0.1801795688107E+01
 0.1759335171774E+01
 0.1712388047321E+01
 0.1660539721308E+01
 0.1603368667907E+01
 0.1540411234580E+01
 0.1471126432519E+01
 0.1394862993430E+01
 0.1310831533763E+01
 0.1218087668446E+01
 0.1115537736618E+01
 0.1001990049508E+01
 0.8763009700762E+00
 0.7377441629253E+00
 0.5870296704749E+00
 0.4297995342242E+00
 0.2921223064752E+00
 0.1842227249078E+01
 0.1804937829796E+01
 0.1764627793990E+01
 0.1721006279413E+01
 0.1673795605609E+01
 0.1622753320609E+01
 0.1567661440103E+01
 0.1508297859835E+01
 0.1444398608821E+01
 0.1375614798957E+01
 0.1301466356107E+01
 0.1221295472686E+01
 0.1134226074813E+01
 0.1039142234373E+01
 0.9347111578586E+00
 0.8195043441704E+00
 0.6923489503991E+00
 0.5533275240845E+00
 0.4071809672993E+00
 0.2783224838707E+00
 0.1776165552739E+01
 0.1733120383889E+01
 0.1687078903062E+01
 0.1637922739958E+01
 0.1585558615547E+01
 0.1529936794839E+01
 0.1471042065575E+01
 0.1408866863576E+01
 0.1343372280720E+01
 0.1274439267484E+01
 0.1201810972417E+01
 0.1125027955793E+01
 0.1043361328514E+01
 0.9557559800154E+00
 0.8608102388622E+00
 0.7568486313296E+00
 0.6422230781679E+00
 0.5162491039587E+00
 0.3824437518464E+00
 0.2628820046762E+00
 0.1708979500687E+01
 0.1660007130509E+01
 0.1608012297296E+01
 0.1553024686940E+01
 0.1495116702158E+01
 0.1434419835639E+01
 0.1371117971124E+01
 0.1305423607635E+01
 0.1237540301577E+01
 0.1167611883019E+01
 0.1095657555901E+01
 0.1021492187079E+01
 0.9446335759990E+00
 0.8642050064326E+00
 0.7788560215482E+00
 0.6867572375845E+00
 0.5858068446678E+00
 0.4744482847717E+00
 0.3546726631347E+00
 0.2455126951663E+00
 0.1641066330830E+01
 0.1586053755225E+01
 0.1527940164739E+01
 0.1466875844773E+01
 0.1403074366682E+01
 0.1336828377891E+01
 0.1268506432395E+01
 0.1198534448152E+01
 0.1127363229806E+01
 0.1055420982658E+01
 0.9830478437491E+00
 0.9104085041644E+00
 0.8373796562499E+00
 0.7634131271408E+00
 0.6873878785282E+00
 0.6074967051024E+00
 0.5213000912538E+00
 0.4263416839091E+00
 0.3228082495876E+00
 0.2258949853186E+00
 0.1572846942999E+01
 0.1511756666399E+01
 0.1447437038940E+01
 0.1380129719657E+01
 0.1310160284813E+01
 0.1237954654152E+01
 0.1164040687396E+01
 0.1089037073273E+01
 0.1013629837749E+01
 0.9385343094139E+00
 0.8644378427892E+00
 0.7919161831261E+00
 0.7213143884788E+00
 0.6525830543165E+00
 0.5850664797515E+00
 0.5172638877692E+00
 0.4466669387707E+00
 0.3700439432683E+00
 0.2855628357709E+00
 0.2036417073345E+00
 0.1504761739690E+01
 0.1437648848794E+01
 0.1367136870785E+01
 0.1293529660162E+01
 0.1217232790748E+01
 0.1138771557218E+01
 0.1058798090531E+01
 0.9780891709816E+00
 0.8975349578328E+00
 0.8181163045629E+00
 0.7408652294963E+00
 0.6667992932723E+00
 0.5968158243570E+00
 0.5315264173192E+00
 0.4710082811158E+00
 0.4144560809961E+00
 0.3597694269487E+00
 0.3033457972499E+00
 0.2413196198943E+00
 0.1782463345445E+00
 0.1437265530835E+01
 0.1364293312527E+01
 0.1287726388859E+01
 0.1207903466615E+01
 0.1125277696297E+01
 0.1040437071596E+01
 0.9541167542777E+00
 0.8672059819567E+00
 0.7807507964582E+00
 0.6959513126831E+00
 0.6141489436709E+00
 0.5367941175428E+00
 0.4653772417606E+00
 0.4012936826138E+00
 0.3455979956472E+00
 0.2985913759117E+00
 0.2592020343651E+00
 0.2242356506094E+00
 0.1882893056877E+00
 0.1490698139587E+00
 0.1370815269956E+01
 0.1292265683703E+01
 0.1209923406736E+01
 0.1124137190322E+01
 0.1035378398542E+01
 0.9442632587123E+00
 0.8515687986214E+00
 0.7582476880925E+00
 0.6654454611346E+00
 0.5745219254641E+00
 0.4870765889014E+00
 0.4049740081839E+00
 0.3303542415515E+00
 0.2655829008758E+00
 0.2130192731898E+00
 0.1743713056518E+00
 0.1495435970453E+00
 0.1356671384530E+00
 0.1269872700696E+00
 0.1157322984717E+00
 0.1305845185854E+01
 0.1222117040408E+01
 0.1134422912112E+01
 0.1043101876805E+01
 0.9486220556463E+00
 0.8516023425269E+00
 0.7528298739488E+00
 0.6532815170420E+00
 0.5541575515018E+00
 0.4569390662510E+00
 0.3634921887443E+00
 0.2762762390185E+00
 0.1988093678461E+00
 0.1367331331248E+00
 0.9889990962429E-01
 0.8965290039017E-01
 0.9376061476164E-01
 0.9326188002720E-01
 0.8508300377983E-01
 0.8091279608686E-01
 0.1242767119530E+01
 0.1154370477986E+01
 0.1061885346105E+01
 0.9656308675094E+00
 0.8660626258145E+00
 0.7637920640581E+00
 0.6596043978742E+00
 0.5544881879861E+00
 0.4496969181174E+00
 0.3468924673765E+00
 0.2485443393169E+00
 0.1593984204100E+00
 0.9371128473832E-01
 0.8931823254213E-01
 0.1324535051866E+00
 0.1750277967491E+00
 0.1990713676960E+00
 0.1944238173861E+00
 0.1519378948000E+00
 0.7291010981797E-01
 0.1181965498014E+01
 0.1089516462049E+01
 0.9929312987100E+00
 0.8925100921446E+00
 0.7887005532293E+00
 0.6821157444372E+00
 0.5735540324754E+00
 0.4640452056959E+00
 0.3549779371086E+00
 0.2485177454457E+00
 0.1495302107081E+00
 0.7966681793601E-01
 0.1039949982549E+00
 0.1764963586669E+00
 0.2465233731521E+00
 0.3015301352770E+00
 0.3327034499710E+00
 0.3286586544172E+00
 0.2714935336484E+00
 0.1289143807245E+00
 0.1123787724591E+01
 0.1027998322051E+01
 0.9281198618049E+00
 0.8244433711618E+00
 0.7174257227708E+00
 0.6077084605843E+00
 0.4961447395480E+00
 0.3838812281695E+00
 0.2726451803644E+00
 0.1660838995653E+00
 0.8077341380198E-01
 0.9617878546361E-01
 0.1796522853449E+00
 0.2649856919141E+00
 0.3397472611622E+00
 0.3969623192720E+00
 0.4282349175855E+00
 0.4208645155966E+00
 0.3531012303472E+00
 0.1803097887723E+00
 0.1068534860508E+01
 0.9701965473935E+00
 0.8679237107266E+00
 0.7620123457147E+00
 0.6529522347970E+00
 0.5414500606649E+00
 0.4284695594788E+00
 0.3153786817796E+00
 0.2045866664019E+00
 0.1039327450075E+00
 0.7148640867402E-01
 0.1486998781539E+00
 0.2395312145495E+00
 0.3230753220294E+00
 0.3926229424209E+00
 0.4416242879239E+00
 0.4613409020706E+00
 0.4388751203943E+00
 0.3538687745329E+00
 0.1734998375547E+00
 0.1016453351337E+01
 0.9164159741347E+00
 0.8127095164920E+00
 0.7056458562642E+00
 0.5957701640058E+00
 0.4838887913610E+00
 0.3711257135281E+00
 0.2591675858893E+00
 0.1515779328220E+00
 0.6727985219303E-01
 0.9902552822940E-01
 0.1875582222126E+00
 0.2741007806584E+00
 0.3493544032795E+00
 0.4075566073019E+00
 0.4421853719538E+00
 0.4448104673442E+00
 0.4042270870562E+00
 0.3060410580438E+00
 0.1362203396975E+00
 0.9677284002137E+00
 0.8668772024258E+00
 0.7627259222520E+00
 0.6556030694868E+00
 0.5461239564608E+00
 0.4352178019836E+00
 0.3241958410681E+00
 0.2151165820822E+00
 0.1132127062807E+00
 0.5777624071281E-01
 0.1223948225606E+00
 0.2079583148655E+00
 0.2861357015673E+00
 0.3504775077170E+00
 0.3957612318504E+00
 0.4161157726045E+00
 0.4046143393672E+00
 0.3534392187345E+00
 0.2553580119399E+00
 0.1078949912430E+00
 0.9224782888066E+00
 0.8217108632266E+00
 0.7180966932434E+00
 0.6119660722765E+00
 0.5040099046770E+00
 0.3952898878908E+00
 0.2873026775578E+00
 0.1824578180490E+00
 0.8791454745291E-01
 0.6135537075109E-01
 0.1336753393677E+00
 0.2121923127016E+00
 0.2806831559701E+00
 0.3339398990348E+00
 0.3674800210429E+00
 0.3765936616031E+00
 0.3563931745126E+00
 0.3024715647000E+00
 0.2124280081079E+00
 0.8812937424063E-01
 0.8807516973666E+00
 0.7809567363835E+00
 0.6788168705813E+00
 0.5746338788298E+00
 0.4691761500864E+00
 0.3636386155438E+00
 0.2596760103287E+00
 0.1599413089931E+00
 0.7304152846139E-01
 0.6375065263301E-01
 0.1336028857289E+00
 0.2038742101920E+00
 0.2628587607265E+00
 0.3062339867838E+00
 0.3304133212099E+00
 0.3319976015007E+00
 0.3080037904208E+00
 0.2565032862428E+00
 0.1775581304036E+00
 0.7413518044681E-01
 0.8425295892364E+00
 0.7445637022219E+00
 0.6447381748741E+00
 0.5432964307661E+00
 0.4410970944474E+00
 0.3394694627513E+00
 0.2401851164428E+00
 0.1459716863819E+00
 0.6560750670363E-01
 0.6100814700685E-01
 0.1246479925331E+00
 0.1866888503576E+00
 0.2371209218987E+00
 0.2723615182323E+00
 0.2897157038174E+00
 0.2869594221308E+00
 0.2625549484208E+00
 0.2160830199395E+00
 0.1487138670387E+00
 0.6338696690621E-01
 0.8077408214755E+00
 0.7123856841389E+00
 0.6155312189842E+00
 0.5173764968482E+00
 0.4189100789417E+00
 0.3216073018777E+00
 0.2273167889279E+00
 0.1386742765377E+00
 0.6331364206429E-01
 0.5397319908119E-01
 0.1097093298367E+00
 0.1640709097822E+00
 0.2071719656638E+00
 0.2360113472671E+00
 0.2486586918876E+00
 0.2437994361474E+00
 0.2208551356397E+00
 0.1802227790756E+00
 0.1234805722626E+00
 0.5342587577121E-01
 0.7763025867049E+00
 0.6841946219440E+00
 0.5907060951164E+00
 0.4960794384033E+00
 0.4015127876383E+00
 0.3086553636273E+00
 0.2194018465984E+00
 0.1361807351878E+00
 0.6486020177254E-01
 0.4505648976689E-01
 0.9142034721976E-01
 0.1387682316216E+00
 0.1756993023982E+00
 0.1995788823454E+00
 0.2090656180234E+00
 0.2034886026868E+00
 0.1828540690122E+00
 0.1479418500625E+00
 0.1003757056351E+00
 0.4270835253749E-01
 0.7481818426870E+00
 0.6598191498237E+00
 0.5698783704931E+00
 0.4788070401062E+00
 0.3881391045202E+00
 0.2997297107062E+00
 0.2154809800938E+00
 0.1375344757864E+00
 0.6999428365158E-01
 0.3730861594595E-01
 0.7117851713650E-01
 0.1119604633543E+00
 0.1437132857359E+00
 0.1638208693789E+00
 0.1713503077147E+00
 0.1660687927866E+00
 0.1483321413603E+00
 0.1190796297952E+00
 0.7982062867539E-01
 0.3259995554071E-01
 0.7234025426327E+00
 0.6391888638252E+00
 0.5527873582311E+00
 0.4651557567073E+00
 0.3783274272968E+00
 0.2943666233127E+00
 0.2151057773325E+00
 0.1423303659521E+00
 0.7871167291818E-01
 0.3570096685914E-01
 0.5042489720712E-01
 0.8448834515469E-01
 0.1119182756051E+00
 0.1293013636487E+00
 0.1358799408518E+00
 0.1316743423393E+00
 0.1172171221275E+00
 0.9346684662386E-01
 0.6171320821595E-01
 0.2340760450469E-01
 0.7019995828186E+00
 0.6221079963933E+00
 0.5389550860858E+00
 0.4545292002369E+00
 0.3715183460468E+00
 0.2920994915733E+00
 0.2178875529684E+00
 0.1502368514108E+00
 0.9078355199024E-01
 0.4389468284105E-01
 0.3268940785764E-01
 0.5732558900187E-01
 0.8088277995359E-01
 0.9637127815200E-01
 0.1027842503619E+00
 0.1002020474742E+00
 0.8920477157312E-01
 0.7070186167788E-01
 0.4577364951228E-01
 0.1545683949421E-01
 0.6840005288659E+00
 0.6080578441854E+00
 0.5274843626256E+00
 0.4460535534341E+00
 0.3670719984880E+00
 0.2925191202524E+00
 0.2235381044483E+00
 0.1610060651422E+00
 0.1058635226957E+00
 0.5974160774204E-01
 0.2908006659659E-01
 0.3285084507405E-01
 0.5126158627745E-01
 0.6522974855539E-01
 0.7198745375328E-01
 0.7135675205111E-01
 0.6382539243824E-01
 0.5024480658861E-01
 0.3162243575042E-01
 0.8835362444836E-02
 0.6692979121458E+00
 0.5958153242901E+00
 0.5168821869512E+00
 0.4387367423101E+00
 0.3646280805265E+00
 0.2955630225877E+00
 0.2320578373577E+00
 0.1745904346122E+00
 0.1236995109154E+00
 0.8007298676700E-01
 0.4502614266349E-01
 0.2352993567203E-01
 0.2566327511770E-01
 0.3644164687555E-01
 0.4349141344928E-01
 0.4488268733464E-01
 0.4069380198258E-01
 0.3155985115547E-01
 0.1863999264726E-01
 0.3144916497059E-02
 0.6570735904598E+00
 0.5823466110972E+00
 0.5050385674378E+00
 0.4324358277818E+00
 0.3647437605411E+00
 0.3018173487198E+00
 0.2438422247579E+00
 0.1911721571503E+00
 0.1442098593143E+00
 0.1033459947919E+00
 0.6896869547765E-01
 0.4161875111710E-01
 0.2271907621280E-01
 0.1602126482367E-01
 0.1879692804231E-01
 0.2116466089765E-01
 0.1987080874515E-01
 0.1469526265293E-01
 0.6249119435347E-02
 0.3072073427026E-02
 0.6422760063663E+00
 0.5610068853293E+00
 0.4928590407168E+00
 0.4295783259763E+00
 0.3693379603815E+00
 0.3124589388597E+00
 0.2595039179141E+00
 0.2110077111599E+00
 0.1673910855891E+00
 0.1289546875541E+00
 0.9588462288486E-01
 0.6826328365763E-01
 0.4608513159390E-01
 0.2927743664545E-01
 0.1769422991502E-01
 0.1087542099384E-01
 0.7297342947662E-02
 0.5053297038514E-02
 0.6332750467992E-02
 0.1304755866944E-01
</DataArray>
<CellData Tensors="'E_Centroid','S_Centroid'">
<DataArray type="Float64" Name="E_Centroid" NumberOfComponents="4" ComponentName0="E11" ComponentName1="E22" ComponentName2="E33" ComponentName3="E12" format="ascii">
-0.2979665285300E-02  0.2263647411065E-01  0.0000000000000E+00  0.6933606100470E-02
-0.5117876732026E-02  0.1886975381985E-01  0.0000000000000E+00  0.2432581755211E-03
-0.4275978606379E-02  0.1740430336179E-01  0.0000000000000E+00  0.4592310142372E-03
-0.4169334622979E-02  0.1662413342930E-01  0.0000000000000E+00  0.2831841920249E-03
-0.4001524400114E-02  0.1602031919957E-01  0.0000000000000E+00  0.2411431545009E-03
-0.3879401585686E-02  0.1551559618292E-01  0.0000000000000E+00  0.2166316420578E-03
-0.3763553780416E-02  0.1505511855840E-01  0.0000000000000E+00  0.2056559402060E-03
-0.3654237456420E-02  0.1461674274397E-01  0.0000000000000E+00  0.2010257208032E-03
-0.3546941269388E-02  0.1418758666141E-01  0.0000000000000E+00  0.2000475921593E-03
-0.3440225093906E-02  0.1376058376723E-01  0.0000000000000E+00  0.2011427995307E-03
-0.3332991062122E-02  0.1333161663637E-01  0.0000000000000E+00  0.2034069824265E-03
-0.3224694454558E-02  0.1289842296903E-01  0.0000000000000E+00  0.2062339989036E-03
-0.3115092395124E-02  0.1246006572221E-01  0.0000000000000E+00  0.2090960755591E-03
-0.3004284289847E-02  0.1201693957784E-01  0.0000000000000E+00  0.2113158542658E-03
-0.2892881091947E-02  0.1157183559471E-01  0.0000000000000E+00  0.2112739437881E-03
-0.2781466092817E-02  0.1113368670228E-01  0.0000000000000E+00  0.1965846054142E-03
-0.2668031543335E-02  0.1069916495968E-01  0.0000000000000E+00  0.1370063803789E-03
-0.2546766697117E-02  0.1023201708700E-01  0.0000000000000E+00  0.1647491645562E-04
-0.2412446561396E-02  0.9701981900176E-02  0.0000000000000E+00 -0.1392846842231E-03
-0.2264534895381E-02  0.9112311374524E-02  0.0000000000000E+00 -0.2922837147349E-03
-0.2105803780428E-02  0.8478690764241E-02  0.0000000000000E+00 -0.4207595445848E-03
-0.1939583369580E-02  0.7815810456432E-02  0.0000000000000E+00 -0.5175060765326E-03
-0.1768618996972E-02  0.7134478637040E-02  0.0000000000000E+00 -0.5826390682568E-03
-0.1594994652844E-02  0.6442466930522E-02  0.0000000000000E+00 -0.6190351425533E-03
-0.1420356750124E-02  0.5745835096356E-02  0.0000000000000E+00 -0.6302858479691E-03
-0.1246117580940E-02  0.5049836493056E-02  0.0000000000000E+00 -0.6198432997967E-03
-0.1073853308973E-02  0.4359329429430E-02  0.0000000000000E+00 -0.5894967824980E-03
-0.9059008126783E-03  0.3682089382511E-02  0.0000000000000E+00 -0.5390357140576E-03
-0.7451983022123E-03  0.3030448929536E-02  0.0000000000000E+00 -0.4701120274568E-03
-0.5946130351409E-03  0.2417201926428E-02  0.0000000000000E+00 -0.3883616284937E-03
-0.4568476303555E-03  0.1854159308959E-02  0.0000000000000E+00 -0.3012038588584E-03
-0.3346108795674E-03  0.1353591332638E-02  0.0000000000000E+00 -0.2165312621216E-03
-0.2306445537086E-03  0.9285972078732E-03  0.0000000000000E+00 -0.1430701714976E-03
-0.1475301610405E-03  0.5928712528764E-03  0.0000000000000E+00 -0.9087577788724E-04
-0.8766084067147E-04  0.3598253167714E-03  0.0000000000000E+00 -0.7147812192942E-04
-0.5171811016602E-04  0.2402565459756E-03  0.0000000000000E+00 -0.9683840291880E-04
-0.4404060072249E-04  0.2416100112856E-03  0.0000000000000E+00 -0.1760308737067E-03
-0.4796241714944E-04  0.3645596625344E-03  0.0000000000000E+00 -0.3274037585170E-03
-0.1467316859884E-03  0.6433310438694E-03  0.0000000000000E+00 -0.5350979588327E-03
 0.1034963455573E-03  0.1049357826492E-02  0.0000000000000E+00 -0.1276141051520E-02
-0.1641406642601E-02  0.1689409415134E-02  0.0000000000000E+00 -0.7494155647169E-03
-0.2067293289265E-02  0.1937930334829E-01  0.0000000000000E+00  0.7457775560640E-02
-0.4306695323027E-02  0.1865073223782E-01  0.0000000000000E+00  0.3239603137741E-02
-0.4274259536077E-02  0.1707946158766E-01  0.0000000000000E+00  0.1243168691532E-02
-0.4016069821839E-02  0.1622322259559E-01  0.0000000000000E+00  0.9659112667760E-03
-0.3890719479419E-02  0.1559399802856E-01  0.0000000000000E+00  0.7564215200408E-03
-0.3761087026670E-02  0.1506910989558E-01  0.0000000000000E+00  0.6713898914902E-03
-0.3647501056942E-02  0.1459952493496E-01  0.0000000000000E+00  0.6265668049708E-03
-0.3538411332960E-02  0.1415768165118E-01  0.0000000000000E+00  0.6060930582315E-03
-0.3432259034460E-02  0.1372930883556E-01  0.0000000000000E+00  0.5985934859322E-03
-0.3326949279058E-02  0.1330605168951E-01  0.0000000000000E+00  0.5986951950518E-03
-0.3221477312759E-02  0.1288303060538E-01  0.0000000000000E+00  0.6031446130594E-03
-0.3115188711944E-02  0.1245743421745E-01  0.0000000000000E+00  0.6098430265624E-03
-0.3007729804156E-02  0.1202788611185E-01  0.0000000000000E+00  0.6170641414611E-03
-0.2899041882237E-02  0.1159432880822E-01  0.0000000000000E+00  0.6227576597108E-03
-0.2788498537556E-02  0.1115824022602E-01  0.0000000000000E+00  0.6217395405779E-03
-0.2673400078334E-02  0.1072028925142E-01  0.0000000000000E+00  0.6040783852761E-03
-0.2551564787274E-02  0.1027302086385E-01  0.0000000000000E+00  0.5603412905619E-03
-0.2424428199147E-02  0.9799132043742E-02  0.0000000000000E+00  0.4873930557182E-03
-0.2293217070931E-02  0.9283658510528E-02  0.0000000000000E+00  0.3923617651276E-03
-0.2156315172632E-02  0.8724275196883E-02  0.0000000000000E+00  0.2918019421680E-03
-0.2012491767440E-02  0.8128305291155E-02  0.0000000000000E+00  0.2019005346918E-03
-0.1862404741552E-02  0.7505572603367E-02  0.0000000000000E+00  0.1314981013041E-03
-0.1707547678645E-02  0.6864855125554E-02  0.0000000000000E+00  0.8326164288902E-04
-0.1549558813951E-02  0.6213315906431E-02  0.0000000000000E+00  0.5632634983282E-04
-0.1389981413204E-02  0.5556959712996E-02  0.0000000000000E+00  0.4815693395960E-04
-0.1230402310392E-02  0.4901269470222E-02  0.0000000000000E+00  0.5578203398598E-04
-0.1072702270368E-02  0.4252085882312E-02  0.0000000000000E+00  0.7616285193801E-04
-0.9188193259305E-03  0.3616841425314E-02  0.0000000000000E+00  0.1060183809902E-03
-0.7704813442785E-03  0.3004991385803E-02  0.0000000000000E+00  0.1416468338832E-03
-0.6295266733014E-03  0.2427004994284E-02  0.0000000000000E+00  0.1779907505351E-03
-0.4980457729841E-03  0.1893415524947E-02  0.0000000000000E+00  0.2081564136722E-03
-0.3780960270476E-03  0.1414795938897E-02  0.0000000000000E+00  0.2241776901650E-03
-0.2715087591099E-03  0.1001859974552E-02  0.0000000000000E+00  0.2175865223905E-03
-0.1798332051819E-03  0.6651356621330E-03  0.0000000000000E+00  0.1797475263018E-03
-0.1040635940233E-03  0.4141472024365E-03  0.0000000000000E+00  0.1026524276453E-03
-0.4581784280910E-04  0.2564316353424E-03  0.0000000000000E+00 -0.1880497234030E-04
-0.3193629328546E-05  0.1954909188783E-03  0.0000000000000E+00 -0.1903101335058E-03
 0.1546217730342E-04  0.2296951233252E-03  0.0000000000000E+00 -0.4059961233270E-03
 0.5580377893577E-04  0.3476066270310E-03  0.0000000000000E+00 -0.7545948334866E-03
 0.1526780645245E-03  0.3734377168388E-03  0.0000000000000E+00 -0.9098134239914E-03
-0.1102311549484E-02  0.8035252499262E-03  0.0000000000000E+00 -0.4716515125626E-03
-0.1485941537635E-02  0.1738813210055E-01  0.0000000000000E+00  0.7101076899428E-02
-0.3516630354538E-02  0.1755667758129E-01  0.0000000000000E+00  0.4655145162554E-02
-0.3995400344405E-02  0.1662399937143E-01  0.0000000000000E+00  0.2378282448931E-02
-0.3865771231347E-02  0.1575836970211E-01  0.0000000000000E+00  0.1607897726217E-02
-0.3746445270193E-02  0.1513441328979E-01  0.0000000000000E+00  0.1299838669818E-02
-0.3634467857963E-02  0.1460660590410E-01  0.0000000000000E+00  0.1133097477547E-02
-0.3525109536485E-02  0.1413542551180E-01  0.0000000000000E+00  0.1051712899919E-02
-0.3420002497623E-02  0.1369460127485E-01  0.0000000000000E+00  0.1011050117687E-02
-0.3316514196215E-02  0.1326952225523E-01  0.0000000000000E+00  0.9942833107717E-03
-0.3213661572167E-02  0.1285151175626E-01  0.0000000000000E+00  0.9912490574245E-03
-0.3110522277005E-02  0.1243529947457E-01  0.0000000000000E+00  0.9962750080900E-03
-0.3006524111762E-02  0.1201772149171E-01  0.0000000000000E+00  0.1005631325941E-02
-0.2901247205476E-02  0.1159701639761E-01  0.0000000000000E+00  0.1016416164832E-02
-0.2794236793756E-02  0.1117250080790E-01  0.0000000000000E+00  0.1025240064737E-02
-0.2683847087431E-02  0.1074364933001E-01  0.0000000000000E+00  0.1026494440573E-02
-0.2566718088639E-02  0.1030749592100E-01  0.0000000000000E+00  0.1014836933081E-02
-0.2441838165850E-02  0.9857306599063E-02  0.0000000000000E+00  0.9898835835678E-03
-0.2313475486927E-02  0.9384890773814E-02  0.0000000000000E+00  0.9524792740426E-03
-0.2185549930833E-02  0.8883367730208E-02  0.0000000000000E+00  0.9024863662391E-03
-0.2057032045344E-02  0.8349848484752E-02  0.0000000000000E+00  0.8448966755771E-03
-0.1925149528907E-02  0.7786912715668E-02  0.0000000000000E+00  0.7893735136429E-03
-0.1788665062567E-02  0.7200526285032E-02  0.0000000000000E+00  0.7438947758994E-03
-0.1647858508259E-02  0.6597375823662E-02  0.0000000000000E+00  0.7122779701277E-03
-0.1503742986514E-02  0.5983710031457E-02  0.0000000000000E+00  0.6949090757583E-03
-0.1357608984561E-02  0.5365218113615E-02  0.0000000000000E+00  0.6900373732941E-03
-0.1210984233451E-02  0.4747421563946E-02  0.0000000000000E+00  0.6947529269720E-03
-0.1065618048141E-02  0.4136290295008E-02  0.0000000000000E+00  0.7050231074113E-03
-0.9230234527088E-03  0.3538627678332E-02  0.0000000000000E+00  0.7158668733180E-03
-0.7842477473649E-03  0.2962171639802E-02  0.0000000000000E+00  0.7223080429838E-03
-0.6503782005718E-03  0.2415506386941E-02  0.0000000000000E+00  0.7190587813898E-03
-0.5228324972192E-03  0.1907622319583E-02  0.0000000000000E+00  0.6995820890170E-03
-0.4030609791762E-03  0.1447483375525E-02  0.0000000000000E+00  0.6563635817303E-03
-0.2922813434023E-03  0.1043791124437E-02  0.0000000000000E+00  0.5817701475508E-03
-0.1913814454146E-03  0.7046207754475E-03  0.0000000000000E+00  0.4689726783633E-03
-0.1011880271333E-03  0.4368423846444E-03  0.0000000000000E+00  0.3135519871522E-03
-0.2246208769696E-04  0.2454223801168E-03  0.0000000000000E+00  0.1146421061317E-03
 0.4359123325437E-04  0.1311122178581E-03  0.0000000000000E+00 -0.1223593249971E-03
 0.9883437760116E-04  0.8836774349905E-04  0.0000000000000E+00 -0.3974668417644E-03
 0.1727623055197E-03  0.7021419126195E-04  0.0000000000000E+00 -0.6836570559078E-03
 0.1358723126790E-03  0.4111322089737E-04  0.0000000000000E+00 -0.6446587036728E-03
-0.7631397488916E-03  0.3556403941864E-03  0.0000000000000E+00 -0.5221728052931E-03
-0.1113483341269E-02  0.1594480504197E-01  0.0000000000000E+00  0.6620887434481E-02
-0.2871484856991E-02  0.1639479110255E-01  0.0000000000000E+00  0.5274426973086E-02
-0.3604798097447E-02  0.1594636993697E-01  0.0000000000000E+00  0.3308381634668E-02
-0.3660818520161E-02  0.1523844869271E-01  0.0000000000000E+00  0.2277263326398E-02
-0.3585194596772E-02  0.1463901373563E-01  0.0000000000000E+00  0.1829366336027E-02
-0.3494150666614E-02  0.1412600024392E-01  0.0000000000000E+00  0.1597512821528E-02
-0.3396702600346E-02  0.1366150068883E-01  0.0000000000000E+00  0.1475147933087E-02
-0.3298124027062E-02  0.1322643555330E-01  0.0000000000000E+00  0.1413255530919E-02
-0.3199292531806E-02  0.1280744890487E-01  0.0000000000000E+00  0.1385389280202E-02
-0.3099974918270E-02  0.1239636539448E-01  0.0000000000000E+00  0.1377805700876E-02
-0.2999842595629E-02  0.1198796537135E-01  0.0000000000000E+00  0.1382225922339E-02
-0.2898499932793E-02  0.1157894778865E-01  0.0000000000000E+00  0.1393366412780E-02
-0.2795515738523E-02  0.1116725533038E-01  0.0000000000000E+00  0.1407199855209E-02
-0.2690077537666E-02  0.1075149903147E-01  0.0000000000000E+00  0.1419602664211E-02
-0.2580107049103E-02  0.1032971221793E-01  0.0000000000000E+00  0.1425921964805E-02
-0.2462664034111E-02  0.9897765641111E-02  0.0000000000000E+00  0.1424367434196E-02
-0.2337902804626E-02  0.9450553986345E-02  0.0000000000000E+00  0.1418166923715E-02
-0.2211054474784E-02  0.8984695815129E-02  0.0000000000000E+00  0.1408932945388E-02
-0.2086973060103E-02  0.8497687010883E-02  0.0000000000000E+00  0.1393434648249E-02
-0.1965403585361E-02  0.7987316741732E-02  0.0000000000000E+00  0.1370650083860E-02
-0.1843274345368E-02  0.7453852666503E-02  0.0000000000000E+00  0.1345013982612E-02
-0.1718254536363E-02  0.6900507476325E-02  0.0000000000000E+00  0.1322430659642E-02
-0.1589607375245E-02  0.6332076318215E-02  0.0000000000000E+00  0.1306696325470E-02
-0.1457678105415E-02  0.5753765249213E-02  0.0000000000000E+00  0.1298761266722E-02
-0.1323382400016E-02  0.5170762545419E-02  0.0000000000000E+00  0.1297298887399E-02
-0.1187999291629E-02  0.4588361402448E-02  0.0000000000000E+00  0.1299303481470E-02
-0.1052960229449E-02  0.4012254599249E-02  0.0000000000000E+00  0.1300092849347E-02
-0.9193641211299E-03  0.3448543828992E-02  0.0000000000000E+00  0.1293817199548E-02
-0.7877965383045E-03  0.2903723578616E-02  0.0000000000000E+00  0.1274742331491E-02
-0.6588001969225E-03  0.2384871442348E-02  0.0000000000000E+00  0.1237247304664E-02
-0.5332114843409E-03  0.1899492498375E-02  0.0000000000000E+00  0.1175037534467E-02
-0.4119779975300E-03  0.1455053001924E-02  0.0000000000000E+00  0.1081269463079E-02
-0.2959154443736E-03  0.1058588898545E-02  0.0000000000000E+00  0.9494439535241E-03
-0.1857152961164E-03  0.7163400071531E-03  0.0000000000000E+00  0.7747301687943E-03
-0.8221872285907E-04  0.4333662038703E-03  0.0000000000000E+00  0.5556482825197E-03
 0.1319053294835E-04  0.2128604226773E-03  0.0000000000000E+00  0.2962167397695E-03
 0.9867511306805E-04  0.5445061888129E-04  0.0000000000000E+00  0.7313223206740E-05
 0.1761487375007E-03 -0.5257719467791E-04  0.0000000000000E+00 -0.2932630774543E-03
 0.2398540868651E-03 -0.1392415318143E-03  0.0000000000000E+00 -0.5254819333099E-03
 0.1309451784370E-03 -0.1676010323882E-03  0.0000000000000E+00 -0.4894998619867E-03
-0.5067752578312E-03  0.5480779424089E-04  0.0000000000000E+00 -0.5977988904829E-03
-0.8643395840223E-03  0.1479275035381E-01  0.0000000000000E+00  0.6167580989756E-02
-0.2364283321597E-02  0.1531290957880E-01  0.0000000000000E+00  0.5502677969733E-02
-0.3196582859798E-02  0.1516513973239E-01  0.0000000000000E+00  0.3971109844657E-02
-0.3411035314629E-02  0.1464963686580E-01  0.0000000000000E+00  0.2896605792616E-02
-0.3404393963518E-02  0.1411280982043E-01  0.0000000000000E+00  0.2342347015593E-02
-0.3342359635936E-02  0.1362628188187E-01  0.0000000000000E+00  0.2051345379637E-02
-0.3261469126110E-02  0.1317717316221E-01  0.0000000000000E+00  0.1892734212649E-02
-0.3172651842669E-02  0.1275253051757E-01  0.0000000000000E+00  0.1809459805095E-02
-0.3080251064976E-02  0.1234253435647E-01  0.0000000000000E+00  0.1770136503316E-02
-0.2985641787261E-02  0.1194015656151E-01  0.0000000000000E+00  0.1757235839266E-02
-0.2889227021047E-02  0.1154066687623E-01  0.0000000000000E+00  0.1760339187659E-02
-0.2790970776120E-02  0.1114085517108E-01  0.0000000000000E+00  0.1772704667922E-02
-0.2690502750523E-02  0.1073848047069E-01  0.0000000000000E+00  0.1789387379371E-02
-0.2586845872704E-02  0.1033160176172E-01  0.0000000000000E+00  0.1806037370331E-02
-0.2477954219844E-02  0.9917500221618E-02  0.0000000000000E+00  0.1819232365914E-02
-0.2361658158684E-02  0.9492027193473E-02  0.0000000000000E+00  0.1829373176394E-02
-0.2238989818161E-02  0.9051629962249E-02  0.0000000000000E+00  0.1840752008001E-02
-0.2115317173322E-02  0.8595602076227E-02  0.0000000000000E+00  0.1854586701259E-02
-0.1995609727569E-02  0.8123853423574E-02  0.0000000000000E+00  0.1866257298966E-02
-0.1880208914197E-02  0.7635004027374E-02  0.0000000000000E+00  0.1871686394374E-02
-0.1766269711754E-02  0.7128319499781E-02  0.0000000000000E+00  0.1871608281172E-02
-0.1650956368613E-02  0.6605209936367E-02  0.0000000000000E+00  0.1869597856961E-02
-0.1532780347111E-02  0.6068901188123E-02  0.0000000000000E+00  0.1868698121100E-02
-0.1411455910248E-02  0.5523554990509E-02  0.0000000000000E+00  0.1869870634074E-02
-0.1287451322679E-02  0.4973731509739E-02  0.0000000000000E+00  0.1871895153270E-02
-0.1161678497447E-02  0.4424293567044E-02  0.0000000000000E+00  0.1871610707671E-02
-0.1035172015363E-02  0.3880451984834E-02  0.0000000000000E+00  0.1863942204898E-02
-0.9086359459052E-03  0.3347592863555E-02  0.0000000000000E+00  0.1842608297086E-02
-0.7822984772253E-03  0.2831202697957E-02  0.0000000000000E+00  0.1801458239046E-02
-0.6563003510006E-03  0.2337124559491E-02  0.0000000000000E+00  0.1734638169456E-02
-0.5310296226481E-03  0.1871544187229E-02  0.0000000000000E+00  0.1636081187080E-02
-0.4070611910191E-03  0.1440598285640E-02  0.0000000000000E+00  0.1499677325718E-02
-0.2850177603131E-03  0.1049968968872E-02  0.0000000000000E+00  0.1320175219079E-02
-0.1656575407061E-03  0.7045664142528E-03  0.0000000000000E+00  0.1094621829585E-02
-0.5025124858715E-04  0.4082565337268E-03  0.0000000000000E+00  0.8242372716672E-03
 0.5888815510557E-04  0.1634070770724E-03  0.0000000000000E+00  0.5167373731666E-03
 0.1587042550704E-03 -0.3099222515900E-04  0.0000000000000E+00  0.1888145876829E-03
 0.2448805797468E-03 -0.1837687297488E-03  0.0000000000000E+00 -0.1262508770478E-03
 0.2882014700325E-03 -0.3032683564079E-03  0.0000000000000E+00 -0.3458033707212E-03
 0.1535661825671E-03 -0.3328564301059E-03  0.0000000000000E+00 -0.3860483021563E-03
-0.3070943039958E-03 -0.1887164301610E-03  0.0000000000000E+00 -0.6229386935326E-03
-0.6899556028483E-03  0.1381639636293E-01  0.0000000000000E+00  0.5769369609051E-02
-0.1966687702133E-02  0.1432824103360E-01  0.0000000000000E+00  0.5537646986321E-02
-0.2812363494149E-02  0.1435582944184E-01  0.0000000000000E+00  0.4415295616744E-02
-0.3139102592706E-02  0.1401017013242E-01  0.0000000000000E+00  0.3424500373116E-02
-0.3206222751230E-02  0.1355716240960E-01  0.0000000000000E+00  0.2823422677150E-02
-0.3180514594630E-02  0.1310918094682E-01  0.0000000000000E+00  0.2487366890407E-02
-0.3119902757161E-02  0.1268234010412E-01  0.0000000000000E+00  0.2299024571176E-02
-0.3043540488889E-02  0.1227267330413E-01  0.0000000000000E+00  0.2196801866675E-02
-0.2959299452203E-02  0.1187445262345E-01  0.0000000000000E+00  0.2146611780150E-02
-0.2870511133389E-02  0.1148257574469E-01  0.0000000000000E+00  0.2128372692638E-02
-0.2778545133273E-02  0.1109314089513E-01  0.0000000000000E+00  0.2129881726001E-02
-0.2683848597948E-02  0.1070325712790E-01  0.0000000000000E+00  0.2143223413670E-02
-0.2586232182362E-02  0.1031065110335E-01  0.0000000000000E+00  0.2162780471294E-02
-0.2484766923306E-02  0.9913083530561E-02  0.0000000000000E+00  0.2184267382789E-02
-0.2377724763828E-02  0.9507608685947E-02  0.0000000000000E+00  0.2205304668952E-02
-0.2263743755545E-02  0.9090536350826E-02  0.0000000000000E+00  0.2227420781076E-02
-0.2144445712021E-02  0.8659576359492E-02  0.0000000000000E+00  0.2254794468748E-02
-0.2024973324664E-02  0.8215554006148E-02  0.0000000000000E+00  0.2287881944801E-02
-0.1910043646021E-02  0.7759717496510E-02  0.0000000000000E+00  0.2321424741194E-02
-0.1800373995205E-02  0.7291380350274E-02  0.0000000000000E+00  0.2349852605589E-02
-0.1693514188377E-02  0.6809454462707E-02  0.0000000000000E+00  0.2371429625766E-02
-0.1586489639548E-02  0.6314235008890E-02  0.0000000000000E+00  0.2387607378464E-02
-0.1477309741136E-02  0.5807724448035E-02  0.0000000000000E+00  0.2400318496324E-02
-0.1365139134819E-02  0.5293114050969E-02  0.0000000000000E+00  0.2410143135631E-02
-0.1249974490671E-02  0.4774269867468E-02  0.0000000000000E+00  0.2415724212218E-02
-0.1132301598189E-02  0.4255498144719E-02  0.0000000000000E+00  0.2413715233918E-02
-0.1012731590664E-02  0.3741425000230E-02  0.0000000000000E+00  0.2398814460915E-02
-0.8915958944689E-03  0.3236729435633E-02  0.0000000000000E+00  0.2364555562643E-02
-0.7688246963328E-03  0.2746029257048E-02  0.0000000000000E+00  0.2304598623856E-02
-0.6442588310198E-03  0.2274132403552E-02  0.0000000000000E+00  0.2212993349746E-02
-0.5179668924307E-03  0.1826092486215E-02  0.0000000000000E+00  0.2083928606347E-02
-0.3902906491824E-03  0.1406912198087E-02  0.0000000000000E+00  0.1912023552818E-02
-0.2618283572906E-03  0.1021201597730E-02  0.0000000000000E+00  0.1693228586243E-02
-0.1336191907551E-03  0.6729356543725E-03  0.0000000000000E+00  0.1426281468652E-02
-0.7624163275155E-05  0.3653163993932E-03  0.0000000000000E+00  0.1114623188418E-02
 0.1126788942207E-03  0.1004821752279E-03  0.0000000000000E+00  0.7688210151431E-03
 0.2220116537697E-03 -0.1219814020829E-03  0.0000000000000E+00  0.4103699862977E-03
 0.3091949731191E-03 -0.3056519010617E-03  0.0000000000000E+00  0.7895770627192E-04
 0.3352366727112E-03 -0.4434921021004E-03  0.0000000000000E+00 -0.1600190931380E-03
 0.1994889449015E-03 -0.4843942945598E-03  0.0000000000000E+00 -0.2903774859163E-03
-0.1465388893700E-03 -0.4031294557536E-03  0.0000000000000E+00 -0.5939366672716E-03
-0.5628417230504E-03  0.1295547264904E-01  0.0000000000000E+00  0.5426142760625E-02
-0.1652324088534E-02  0.1343025964565E-01  0.0000000000000E+00  0.5477867583654E-02
-0.2467045235614E-02  0.1355550594740E-01  0.0000000000000E+00  0.4700776373528E-02
-0.2863725541185E-02  0.1334297383856E-01  0.0000000000000E+00  0.3853172641276E-02
-0.2996764383201E-02  0.1297749433139E-01  0.0000000000000E+00  0.3259107500303E-02
-0.3010487660082E-02  0.1257673100517E-01  0.0000000000000E+00  0.2899114181904E-02
-0.2972941255125E-02  0.1217778299036E-01  0.0000000000000E+00  0.2689559445285E-02
-0.2911085339617E-02  0.1178696956866E-01  0.0000000000000E+00  0.2572415005269E-02
-0.2836498509788E-02  0.1140311675357E-01  0.0000000000000E+00  0.2513003443473E-02
-0.2754551109855E-02  0.1102345432128E-01  0.0000000000000E+00  0.2490024769040E-02
-0.2667736907294E-02  0.1064521940165E-01  0.0000000000000E+00  0.2490085212614E-02
-0.2577097904869E-02  0.1026603479526E-01  0.0000000000000E+00  0.2504427178381E-02
-0.2482747204411E-02  0.9883768807539E-02  0.0000000000000E+00  0.2527016950240E-02
-0.2383983465627E-02  0.9496138212445E-02  0.0000000000000E+00  0.2553756238964E-02
-0.2279542103877E-02  0.9100313612515E-02  0.0000000000000E+00  0.2582999088236E-02
-0.2168786904035E-02  0.8693226414602E-02  0.0000000000000E+00  0.2616688439726E-02
-0.2053705106371E-02  0.8273558696428E-02  0.0000000000000E+00  0.2658379983358E-02
-0.1939068236951E-02  0.7843022919502E-02  0.0000000000000E+00  0.2707718682709E-02
-0.1829191710578E-02  0.7403598407096E-02  0.0000000000000E+00  0.2759160422106E-02
-0.1724988743301E-02  0.6955108407953E-02  0.0000000000000E+00  0.2806467140899E-02
-0.1624410311041E-02  0.6496409127852E-02  0.0000000000000E+00  0.2846312612091E-02
-0.1524543048114E-02  0.6027134449144E-02  0.0000000000000E+00  0.2878390479083E-02
-0.1423092054243E-02  0.5548369944255E-02  0.0000000000000E+00  0.2903424286198E-02
-0.1318769875923E-02  0.5062448372473E-02  0.0000000000000E+00  0.2921376388417E-02
-0.1211114762758E-02  0.4572527768203E-02  0.0000000000000E+00  0.2930584971685E-02
-0.1100170207879E-02  0.4082293512500E-02  0.0000000000000E+00  0.2927496912083E-02
-0.9861260091334E-03  0.3595742197206E-02  0.0000000000000E+00  0.2906683616256E-02
-0.8689654495730E-03  0.3116866491083E-02  0.0000000000000E+00  0.2861636521291E-02
-0.7483620133842E-03  0.2649512440239E-02  0.0000000000000E+00  0.2785976443678E-02
-0.6239332257636E-03  0.2197606564009E-02  0.0000000000000E+00  0.2673774079480E-02
-0.4955404946911E-03  0.1765247666563E-02  0.0000000000000E+00  0.2519506704686E-02
-0.3634197480616E-03  0.1356500960146E-02  0.0000000000000E+00  0.2318475700387E-02
-0.2282829105071E-03  0.9751502675360E-03  0.0000000000000E+00  0.2067706261512E-02
-0.9160443507805E-04  0.6245540400793E-03  0.0000000000000E+00  0.1767355088391E-02
 0.4381148029964E-04  0.3076394099185E-03  0.0000000000000E+00  0.1422557703704E-02
 0.1731167865733E-03  0.2679371630394E-04  0.0000000000000E+00  0.1045901126943E-02
 0.2884603703475E-03 -0.2168903340894E-03  0.0000000000000E+00  0.6614946047612E-03
 0.3736567924952E-03 -0.4217359300731E-03  0.0000000000000E+00  0.3084197643677E-03
 0.3885636222920E-03 -0.5731846680743E-03  0.0000000000000E+00  0.3244403364677E-04
 0.2621259988584E-03 -0.6320048478629E-03  0.0000000000000E+00 -0.1808192862495E-03
-0.1224232778863E-04 -0.5995140716370E-03  0.0000000000000E+00 -0.5213003710101E-03
-0.4669115710014E-03  0.1217529716055E-01  0.0000000000000E+00  0.5131424657835E-02
-0.1400653952441E-02  0.1260430684232E-01  0.0000000000000E+00  0.5373839679277E-02
-0.2163294277524E-02  0.1278025620237E-01  0.0000000000000E+00  0.4876167551453E-02
-0.2597054843662E-02  0.1266607545880E-01  0.0000000000000E+00  0.4191256545656E-02
-0.2782870161747E-02  0.1238148034844E-01  0.0000000000000E+00  0.3642848938620E-02
-0.2834914868636E-02  0.1203172573523E-01  0.0000000000000E+00  0.3281248186740E-02
-0.2821798112152E-02  0.1166474965101E-01  0.0000000000000E+00  0.3060748799408E-02
-0.2775841170639E-02  0.1129587958460E-01  0.0000000000000E+00  0.2933761103170E-02
-0.2712064121452E-02  0.1092863857434E-01  0.0000000000000E+00  0.2867613884554E-02
-0.2637829930515E-02  0.1056275995491E-01  0.0000000000000E+00  0.2841045444441E-02
-0.2556809836114E-02  0.1019682219591E-01  0.0000000000000E+00  0.2840169385239E-02
-0.2470723693862E-02  0.9829126765573E-02  0.0000000000000E+00  0.2855765823962E-02
-0.2380090952123E-02  0.9457848295342E-02  0.0000000000000E+00  0.2881617825422E-02
-0.2284565441527E-02  0.9080871674175E-02  0.0000000000000E+00  0.2913852071870E-02
-0.2183401503376E-02  0.8695688429170E-02  0.0000000000000E+00  0.2951269509555E-02
-0.2076573412802E-02  0.8299873030550E-02  0.0000000000000E+00  0.2995792577739E-02
-0.1966275079844E-02  0.7892841724479E-02  0.0000000000000E+00  0.3050175462243E-02
-0.1856863793841E-02  0.7476817621302E-02  0.0000000000000E+00  0.3113325575605E-02
-0.1752210118069E-02  0.7054160549972E-02  0.0000000000000E+00  0.3179590965851E-02
-0.1653294432215E-02  0.6625042494896E-02  0.0000000000000E+00  0.3242501040307E-02
-0.1558411281502E-02  0.6188385166119E-02  0.0000000000000E+00  0.3297737918823E-02
-0.1464800722406E-02  0.5743443605914E-02  0.0000000000000E+00  0.3343616507582E-02
-0.1370003894389E-02  0.5290630679746E-02  0.0000000000000E+00  0.3379704823638E-02
-0.1272376123489E-02  0.4831543470346E-02  0.0000000000000E+00  0.3405239031510E-02
-0.1171034134938E-02  0.4368655779650E-02  0.0000000000000E+00  0.3418151857380E-02
-0.1065591517804E-02  0.3905013161691E-02  0.0000000000000E+00  0.3414668699601E-02
-0.9558357174225E-03  0.3443973699111E-02  0.0000000000000E+00  0.3389290295752E-02
-0.8414286510596E-03  0.2988873081540E-02  0.0000000000000E+00  0.3335547244466E-02
-0.7218208276584E-03  0.2542862546873E-02  0.0000000000000E+00  0.3247116097931E-02
-0.5964664675463E-03  0.2109111355958E-02  0.0000000000000E+00  0.3118172142656E-02
-0.4651121321209E-03  0.1690921355215E-02  0.0000000000000E+00  0.2943498145676E-02
-0.3279947363419E-03  0.1291601011921E-02  0.0000000000000E+00  0.2719003905429E-02
-0.1860470641297E-03  0.9143181026583E-03  0.0000000000000E+00  0.2442616105133E-02
-0.4127794644293E-04  0.5620619980856E-03  0.0000000000000E+00  0.2115594458605E-02
 0.1025851419270E-03  0.2377621293141E-03  0.0000000000000E+00  0.1744243916430E-02
 0.2392516921008E-03 -0.5561249964482E-04  0.0000000000000E+00  0.1342260554608E-02
 0.3585434927731E-03 -0.3151756974195E-03  0.0000000000000E+00  0.9341930871671E-03
 0.4414498190863E-03 -0.5353570186521E-03  0.0000000000000E+00  0.5549899956359E-03
 0.4507150495103E-03 -0.6991963505094E-03  0.0000000000000E+00  0.2348962597447E-03
 0.3364757833395E-03 -0.7783713387935E-03  0.0000000000000E+00 -0.4938226392470E-04
 0.1055267023002E-03 -0.7831312840588E-03  0.0000000000000E+00 -0.4159829482079E-03
-0.3923743243918E-03  0.1145442760393E-01  0.0000000000000E+00  0.4878072278534E-02
-0.1196464396577E-02  0.1183718935745E-01  0.0000000000000E+00  0.5251999809979E-02
-0.1898629893528E-02  0.1203573707350E-01  0.0000000000000E+00  0.4976891546894E-02
-0.2345901284511E-02  0.1199155658539E-01  0.0000000000000E+00  0.4453022521768E-02
-0.2570442145080E-02  0.1177670925501E-01  0.0000000000000E+00  0.3974114558740E-02
-0.2656779889971E-02  0.1147756884065E-01  0.0000000000000E+00  0.3630442186035E-02
-0.2667913665755E-02  0.1114481803741E-01  0.0000000000000E+00  0.3409840294779E-02
-0.2638535939019E-02  0.1080013006249E-01  0.0000000000000E+00  0.3278753050729E-02
-0.2586343899690E-02  0.1045130938396E-01  0.0000000000000E+00  0.3208935339854E-02
-0.2520502506371E-02  0.1010057884670E-01  0.0000000000000E+00  0.3180370074349E-02
-0.2445829183208E-02  0.9747948244416E-02  0.0000000000000E+00  0.3179372434140E-02
-0.2364761504542E-02  0.9392517040824E-02  0.0000000000000E+00  0.3196659077354E-02
-0.2278299157684E-02  0.9032903265774E-02  0.0000000000000E+00  0.3226040212764E-02
-0.2186528364443E-02  0.8667317190076E-02  0.0000000000000E+00  0.3263875266929E-02
-0.2089224246960E-02  0.8293682250327E-02  0.0000000000000E+00  0.3309197370226E-02
-0.1986858287189E-02  0.7910178295742E-02  0.0000000000000E+00  0.3363669547281E-02
-0.1881724194233E-02  0.7516773893849E-02  0.0000000000000E+00  0.3429230231704E-02
-0.1777770278907E-02  0.7115977376211E-02  0.0000000000000E+00  0.3504165152126E-02
-0.1678429044710E-02  0.6710323404372E-02  0.0000000000000E+00  0.3582812378419E-02
-0.1584661999566E-02  0.6300208022194E-02  0.0000000000000E+00  0.3658697628567E-02
-0.1495031750217E-02  0.5884653952434E-02  0.0000000000000E+00  0.3726909708913E-02
-0.1406959881295E-02  0.5462705413075E-02  0.0000000000000E+00  0.3784720313858E-02
-0.1317914757733E-02  0.5034285001861E-02  0.0000000000000E+00  0.3830672069395E-02
-0.1225976920727E-02  0.4600371196757E-02  0.0000000000000E+00  0.3863258611352E-02
-0.1129890245735E-02  0.4162800589408E-02  0.0000000000000E+00  0.3879961628769E-02
-0.1028868243076E-02  0.3723990993725E-02  0.0000000000000E+00  0.3876778020819E-02
-0.9223249825130E-03  0.3286676168293E-02  0.0000000000000E+00  0.3848167459830E-02
-0.8096296353652E-03  0.2853570635385E-02  0.0000000000000E+00  0.3787743000188E-02
-0.6900398780710E-03  0.2427197517385E-02  0.0000000000000E+00  0.3689292167410E-02
-0.5628947659700E-03  0.2010072595365E-02  0.0000000000000E+00  0.3547144203275E-02
-0.4278990758791E-03  0.1604837058041E-02  0.0000000000000E+00  0.3356382709443E-02
-0.2853745450422E-03  0.1214200354938E-02  0.0000000000000E+00  0.3113433433835E-02
-0.1365512232272E-03  0.8408878728018E-03  0.0000000000000E+00  0.2816928799829E-02
 0.1597403654663E-04  0.4877046787902E-03  0.0000000000000E+00  0.2468905774701E-02
 0.1675344724399E-03  0.1577670529392E-03  0.0000000000000E+00  0.2076330621926E-02
 0.3104719039753E-03 -0.1452167770658E-03  0.0000000000000E+00  0.1653139399839E-02
 0.4328007739014E-03 -0.4167246363352E-03  0.0000000000000E+00  0.1222752941214E-02
 0.5143572489028E-03 -0.6487819513588E-03  0.0000000000000E+00  0.8149470038601E-03
 0.5219805999310E-03 -0.8246265755108E-03  0.0000000000000E+00  0.4495792585956E-03
 0.4194703321192E-03 -0.9238451647086E-03  0.0000000000000E+00  0.1049785263133E-03
 0.2140288817944E-03 -0.9569955321186E-03  0.0000000000000E+00 -0.2865219525544E-03
-0.3330356484567E-03  0.1077884564989E-01  0.0000000000000E+00  0.4659721221645E-02
-0.1028627423900E-02  0.1111817326811E-01  0.0000000000000E+00  0.5126318090905E-02
-0.1668743846446E-02  0.1132264098983E-01  0.0000000000000E+00  0.5027730509218E-02
-0.2113443371537E-02  0.1132678757614E-01  0.0000000000000E+00  0.4653212828592E-02
-0.2363890825401E-02  0.1116953593860E-01  0.0000000000000E+00  0.4256163397151E-02
-0.2478949799292E-02  0.1091780308951E-01  0.0000000000000E+00  0.3945505440241E-02
-0.2512843056090E-02  0.1061978448822E-01  0.0000000000000E+00  0.3735009875218E-02
-0.2500008146072E-02  0.1030063063745E-01  0.0000000000000E+00  0.3605791291872E-02
-0.2459781623154E-02  0.9971564264843E-02  0.0000000000000E+00  0.3535707100499E-02
-0.2402794444646E-02  0.9637097598727E-02  0.0000000000000E+00  0.3507050095910E-02
-0.2334906969287E-02  0.9298663479095E-02  0.0000000000000E+00  0.3506977262908E-02
-0.2259269209373E-02  0.8956224757223E-02  0.0000000000000E+00  0.3526524827979E-02
-0.2177399309524E-02  0.8608941785849E-02  0.0000000000000E+00  0.3559721912128E-02
-0.2089850960219E-02  0.8255455196368E-02  0.0000000000000E+00  0.3603169013172E-02
-0.1996891878947E-02  0.7894170920210E-02  0.0000000000000E+00  0.3655994518136E-02
-0.1899391570409E-02  0.7523815788361E-02  0.0000000000000E+00  0.3719494097595E-02
-0.1799673945748E-02  0.7144775808836E-02  0.0000000000000E+00  0.3794855655610E-02
-0.1701304911813E-02  0.6759707256778E-02  0.0000000000000E+00  0.3879867399454E-02
-0.1607307605826E-02  0.6371197906903E-02  0.0000000000000E+00  0.3968917878002E-02
-0.1518569920382E-02  0.5979776343949E-02  0.0000000000000E+00  0.4055648822561E-02
-0.1433849132207E-02  0.5584562771317E-02  0.0000000000000E+00  0.4134818760355E-02
-0.1350741410597E-02  0.5184485948984E-02  0.0000000000000E+00  0.4202932775976E-02
-0.1266696392126E-02  0.4779109030590E-02  0.0000000000000E+00  0.4257667557045E-02
-0.1179586426098E-02  0.4368895085190E-02  0.0000000000000E+00  0.4296817101225E-02
-0.1087834313549E-02  0.3955102081177E-02  0.0000000000000E+00  0.4317408359094E-02
-0.9902924645567E-03  0.3539551939444E-02  0.0000000000000E+00  0.4315211825838E-02
-0.8860359577811E-03  0.3124383237959E-02  0.0000000000000E+00  0.4284660721508E-02
-0.7741708482164E-03  0.2711729765856E-02  0.0000000000000E+00  0.4219469695194E-02
-0.6537897661338E-03  0.2303547145744E-02  0.0000000000000E+00  0.4113563526863E-02
-0.5241554166526E-03  0.1901786228491E-02  0.0000000000000E+00  0.3961445308855E-02
-0.3849864998284E-03  0.1508543117214E-02  0.0000000000000E+00  0.3758473825642E-02
-0.2367508618337E-03  0.1126060813098E-02  0.0000000000000E+00  0.3501485955478E-02
-0.8102390785658E-04  0.7567605309625E-03  0.0000000000000E+00  0.3189618664941E-02
 0.7899317260329E-04  0.4033944885212E-03  0.0000000000000E+00  0.2825372050265E-02
 0.2377337904746E-03  0.6937009249079E-04  0.0000000000000E+00  0.2415908612279E-02
 0.3863456661075E-03 -0.2408544730855E-03  0.0000000000000E+00  0.1974693304550E-02
 0.5115849049588E-03 -0.5214721045151E-03  0.0000000000000E+00  0.1523121284318E-02
 0.5931672863013E-03 -0.7632514592164E-03  0.0000000000000E+00  0.1086049920518E-02
 0.6018275402730E-03 -0.9506205524507E-03  0.0000000000000E+00  0.6771179396859E-03
 0.5094726844477E-03 -0.1068153460113E-02  0.0000000000000E+00  0.2802500616839E-03
 0.3186227191281E-03 -0.1123092137867E-02  0.0000000000000E+00 -0.1390886413509E-03
-0.2848320575761E-03  0.1013895999102E-01  0.0000000000000E+00  0.4471033046659E-02
-0.8889858160684E-03  0.1043878970967E-01  0.0000000000000E+00  0.5004121864827E-02
-0.1468993100933E-02  0.1063942991383E-01  0.0000000000000E+00  0.5045739991550E-02
-0.1900600352561E-02  0.1067587034101E-01  0.0000000000000E+00  0.4804966097405E-02
-0.2166178141085E-02  0.1056478998503E-01  0.0000000000000E+00  0.4494151623023E-02
-0.2303885401215E-02  0.1035571320625E-01  0.0000000000000E+00  0.4226996513476E-02
-0.2358119341649E-02  0.1009151816477E-01  0.0000000000000E+00  0.4035374473419E-02
-0.2361147690786E-02  0.9798401696044E-02  0.0000000000000E+00  0.3913778513968E-02
-0.2332881870706E-02  0.9489940985372E-02  0.0000000000000E+00  0.3846944285671E-02
-0.2284983044038E-02  0.9172582200096E-02  0.0000000000000E+00  0.3820280409721E-02
-0.2224190648791E-02  0.8849087669266E-02  0.0000000000000E+00  0.3822334384692E-02
-0.2154320473898E-02  0.8520295691822E-02  0.0000000000000E+00  0.3844805422189E-02
-0.2077412330597E-02  0.8185966386596E-02  0.0000000000000E+00  0.3882115269629E-02
-0.1994489291718E-02  0.7845230908562E-02  0.0000000000000E+00  0.3931127137702E-02
-0.1906267577576E-02  0.7496989985875E-02  0.0000000000000E+00  0.3990994611648E-02
-0.1813931777835E-02  0.7140455222731E-02  0.0000000000000E+00  0.4062622365560E-02
-0.1719791734584E-02  0.6776330951326E-02  0.0000000000000E+00  0.4146548805275E-02
-0.1627065229125E-02  0.6407336794495E-02  0.0000000000000E+00  0.4240183511086E-02
-0.1538402501554E-02  0.6036041494669E-02  0.0000000000000E+00  0.4338008235423E-02
-0.1454584675346E-02  0.5663040851845E-02  0.0000000000000E+00  0.4433843291904E-02
-0.1374499959195E-02  0.5287533335706E-02  0.0000000000000E+00  0.4522291053606E-02
-0.1295895068354E-02  0.4908383187139E-02  0.0000000000000E+00  0.4599310247810E-02
-0.1216229013341E-02  0.4524885408326E-02  0.0000000000000E+00  0.4661873693442E-02
-0.1133216978857E-02  0.4137074447544E-02  0.0000000000000E+00  0.4707152326035E-02
-0.1045010108038E-02  0.3745691606202E-02  0.0000000000000E+00  0.4731743968348E-02
-0.9501419784614E-03  0.3352006037863E-02  0.0000000000000E+00  0.4731203783825E-02
-0.8473851615769E-03  0.2957599447283E-02  0.0000000000000E+00  0.4699945565515E-02
-0.7356121964177E-03  0.2564068176738E-02  0.0000000000000E+00  0.4631789437199E-02
-0.6137761850213E-03  0.2172856530525E-02  0.0000000000000E+00  0.4520802870093E-02
-0.4810944064376E-03  0.1785426740154E-02  0.0000000000000E+00  0.4361659413176E-02
-0.3373400158949E-03  0.1403426468245E-02  0.0000000000000E+00  0.4149950174387E-02
-0.1831677846876E-03  0.1028740310977E-02  0.0000000000000E+00  0.3882811739747E-02
-0.2052196762636E-04  0.6635911129850E-03  0.0000000000000E+00  0.3559690283527E-02
 0.1468056385572E-03  0.3107650313702E-03  0.0000000000000E+00  0.3183260996572E-02
 0.3124285192511E-03 -0.2599982776595E-04  0.0000000000000E+00  0.2760485935455E-02
 0.4665150034984E-03 -0.3415769624978E-03  0.0000000000000E+00  0.2303848972744E-02
 0.5950215540882E-03 -0.6292492682530E-03  0.0000000000000E+00  0.1832330021723E-02
 0.6780656714847E-03 -0.8792652079936E-03  0.0000000000000E+00  0.1366601264337E-02
 0.6895344722539E-03 -0.1077388293226E-02  0.0000000000000E+00  0.9168929691599E-03
 0.6057425618611E-03 -0.1210957673485E-02  0.0000000000000E+00  0.4733366472040E-03
 0.4232250663412E-03 -0.1282841442992E-02  0.0000000000000E+00  0.2191421021619E-04
-0.2450079955196E-03  0.9527952876904E-02  0.0000000000000E+00  0.4307610841769E-02
-0.7715084224646E-03  0.9792399277417E-02  0.0000000000000E+00  0.4889121711295E-02
-0.1295025216740E-02  0.9983683535623E-02  0.0000000000000E+00  0.5042583145346E-02
-0.1706979043123E-02  0.1004077830745E-01  0.0000000000000E+00  0.4919221713010E-02
-0.1979075702022E-02  0.9965891426896E-02  0.0000000000000E+00  0.4693871988831E-02
-0.2133524041243E-02  0.9794104402486E-02  0.0000000000000E+00  0.4476685168690E-02
-0.2205140666187E-02  0.9561821315559E-02  0.0000000000000E+00  0.4310891747375E-02
-0.2222838218638E-02  0.9294505811913E-02  0.0000000000000E+00  0.4202108348247E-02
-0.2206176994841E-02  0.9007040177483E-02  0.0000000000000E+00  0.4141946921929E-02
-0.2167377724641E-02  0.8707355400190E-02  0.0000000000000E+00  0.4119416644289E-02
-0.2113851772404E-02  0.8399381104686E-02  0.0000000000000E+00  0.4124880564513E-02
-0.2049999368892E-02  0.8084795224367E-02  0.0000000000000E+00  0.4150989415208E-02
-0.1978354676507E-02  0.7763975766469E-02  0.0000000000000E+00  0.4192711203201E-02
-0.1900387037678E-02  0.7436568091506E-02  0.0000000000000E+00  0.4247208470734E-02
-0.1817209241166E-02  0.7101955794972E-02  0.0000000000000E+00  0.4313641138347E-02
-0.1730252539823E-02  0.6759775895571E-02  0.0000000000000E+00  0.4392551389300E-02
-0.1641784902945E-02  0.6410977912603E-02  0.0000000000000E+00  0.4483942249729E-02
-0.1554711121795E-02  0.6058292172276E-02  0.0000000000000E+00  0.4584953494279E-02
-0.1471345793256E-02  0.5704225892816E-02  0.0000000000000E+00  0.4690194307231E-02
-0.1392344471503E-02  0.5349396245204E-02  0.0000000000000E+00  0.4793696908967E-02
-0.1316673997870E-02  0.4993056405606E-02  0.0000000000000E+00  0.4890024115632E-02
-0.1242200996882E-02  0.4634030795812E-02  0.0000000000000E+00  0.4974760878829E-02
-0.1166404914828E-02  0.4271408850660E-02  0.0000000000000E+00  0.5044327301394E-02
-0.1086881235029E-02  0.3904867330303E-02  0.0000000000000E+00  0.5095363534794E-02
-0.1001553560269E-02  0.3534691077430E-02  0.0000000000000E+00  0.5124082527858E-02
-0.9086782797838E-03  0.3161644803095E-02  0.0000000000000E+00  0.5125842818658E-02
-0.8067616143700E-03  0.2786796555884E-02  0.0000000000000E+00  0.5095042626085E-02
-0.6944711000173E-03  0.2411249702539E-02  0.0000000000000E+00  0.5025602055302E-02
-0.5706432325383E-03  0.2035989456973E-02  0.0000000000000E+00  0.4911722109283E-02
-0.4344737931171E-03  0.1662055344949E-02  0.0000000000000E+00  0.4748226179242E-02
-0.2858178713905E-03  0.1290726366892E-02  0.0000000000000E+00  0.4530882419062E-02
-0.1255403163011E-03  0.9236143329797E-03  0.0000000000000E+00  0.4257014166904E-02
 0.4404265033209E-04  0.5628211901089E-03  0.0000000000000E+00  0.3926194641002E-02
 0.2185849376872E-03  0.2112177197748E-03  0.0000000000000E+00  0.3541021638253E-02
 0.3909831655242E-03 -0.1271337463317E-03  0.0000000000000E+00  0.3107941434338E-02
 0.5506398544759E-03 -0.4465619352998E-03  0.0000000000000E+00  0.2638133550363E-02
 0.6830478435649E-03 -0.7397578092269E-03  0.0000000000000E+00  0.2148086631538E-02
 0.7689143414058E-03 -0.9968573629100E-03  0.0000000000000E+00  0.1655062644541E-02
 0.7844371197827E-03 -0.1204736480198E-02  0.0000000000000E+00  0.1167532797569E-02
 0.7080447616865E-03 -0.1352002840272E-02  0.0000000000000E+00  0.6809795027558E-03
 0.5306695910905E-03 -0.1437301306159E-02  0.0000000000000E+00  0.1932988422563E-03
-0.2116378449007E-03  0.8940816953740E-02  0.0000000000000E+00  0.4165843079317E-02
-0.6716841532100E-03  0.9173776263497E-02  0.0000000000000E+00  0.4783030932738E-02
-0.1142999282970E-02  0.9352751298327E-02  0.0000000000000E+00  0.5026217624340E-02
-0.1531481944366E-02  0.9422154258243E-02  0.0000000000000E+00  0.5004764132924E-02
-0.1803459791579E-02  0.9375106214759E-02  0.0000000000000E+00  0.4861021557146E-02
-0.1969276219775E-02  0.9235226836618E-02  0.0000000000000E+00  0.4697058261904E-02
-0.2055099865321E-02  0.9032326245311E-02  0.0000000000000E+00  0.4562191365030E-02
-0.2085907531203E-02  0.8789985704908E-02  0.0000000000000E+00  0.4470623282938E-02
-0.2080197173085E-02  0.8523488573288E-02  0.0000000000000E+00  0.4420293667438E-02
-0.2050301497411E-02  0.8241774477909E-02  0.0000000000000E+00  0.4403982666209E-02
-0.2004075118925E-02  0.7949731573829E-02  0.0000000000000E+00  0.4414152028919E-02
-0.1946395622583E-02  0.7649802245592E-02  0.0000000000000E+00  0.4444627961731E-02
-0.1880239920699E-02  0.7342966520147E-02  0.0000000000000E+00  0.4491055209696E-02
-0.1807482424772E-02  0.7029378998258E-02  0.0000000000000E+00  0.4550943268166E-02
-0.1729577203095E-02  0.6708878763993E-02  0.0000000000000E+00  0.4623475303754E-02
-0.1648145413508E-02  0.6381473711750E-02  0.0000000000000E+00  0.4708889892821E-02
-0.1565395574997E-02  0.6048303723102E-02  0.0000000000000E+00  0.4806770017156E-02
-0.1483952141536E-02  0.5712076665351E-02  0.0000000000000E+00  0.4914083266015E-02
-0.1405828797791E-02  0.5375213578783E-02  0.0000000000000E+00  0.5025596288217E-02
-0.1331545988286E-02  0.5038321218324E-02  0.0000000000000E+00  0.5135572182834E-02
-0.1260107658004E-02  0.4700684754009E-02  0.0000000000000E+00  0.5238613904202E-02
-0.1189468890192E-02  0.4361098615734E-02  0.0000000000000E+00  0.5330067167675E-02
-0.1117130085811E-02  0.4018489144205E-02  0.0000000000000E+00  0.5405933858195E-02
-0.1040593470461E-02  0.3672232443401E-02  0.0000000000000E+00  0.5462419612277E-02
-0.9575927085663E-03  0.3322212548837E-02  0.0000000000000E+00  0.5495407058557E-02
-0.8661456053907E-03  0.2968739111240E-02  0.0000000000000E+00  0.5500082485113E-02
-0.7645261300380E-03  0.2612411519588E-02  0.0000000000000E+00  0.5470831623611E-02
-0.6512232981221E-03  0.2253884342484E-02  0.0000000000000E+00  0.5401663647549E-02
-0.5249769116098E-03  0.1893731963026E-02  0.0000000000000E+00  0.5286894184349E-02
-0.3849788346704E-03  0.1532627955784E-02  0.0000000000000E+00  0.5121464005200E-02
-0.2311824883950E-03  0.1171547628323E-02  0.0000000000000E+00  0.4901255326262E-02
-0.6467127552989E-04  0.8118959575252E-03  0.0000000000000E+00  0.4623667923012E-02
 0.1118795563628E-03  0.4557076709363E-03  0.0000000000000E+00  0.4288237538382E-02
 0.2936211490292E-03  0.1059612835991E-03  0.0000000000000E+00  0.3897272146938E-02
 0.4728444819340E-03 -0.2329912035058E-03  0.0000000000000E+00  0.3456467482779E-02
 0.6383757011528E-03 -0.5550643458515E-03  0.0000000000000E+00  0.2975521606806E-02
 0.7754691922499E-03 -0.8525959280868E-03  0.0000000000000E+00  0.2468516429701E-02
 0.8654233819221E-03 -0.1115799195257E-02  0.0000000000000E+00  0.1949934707171E-02
 0.8859990906414E-03 -0.1332329838159E-02  0.0000000000000E+00  0.1427304291328E-02
 0.8163991664016E-03 -0.1491133141295E-02  0.0000000000000E+00  0.9001410061772E-03
 0.6429759277726E-03 -0.1587272377388E-02  0.0000000000000E+00  0.3726885951865E-03
-0.1833390639411E-03  0.8373768478164E-02  0.0000000000000E+00  0.4042752658149E-02
-0.5860952710777E-03  0.8578771667619E-02  0.0000000000000E+00  0.4686454143249E-02
-0.1009624483477E-02  0.8744054844804E-02  0.0000000000000E+00  0.5002066856406E-02
-0.1372680733357E-02  0.8819839127519E-02  0.0000000000000E+00  0.5068503341389E-02
-0.1639572106795E-02  0.8793815489675E-02  0.0000000000000E+00  0.5000828108825E-02
-0.1812081873205E-02  0.8680790631726E-02  0.0000000000000E+00  0.4890937937524E-02
-0.1908954016817E-02  0.8504435881115E-02  0.0000000000000E+00  0.4790388244405E-02
-0.1951091146995E-02  0.8285814367700E-02  0.0000000000000E+00  0.4719548670670E-02
-0.1955444876190E-02  0.8039906581170E-02  0.0000000000000E+00  0.4681822398042E-02
-0.1934074353938E-02  0.7776210706770E-02  0.0000000000000E+00  0.4673669632784E-02
-0.1895048714898E-02  0.7500342128345E-02  0.0000000000000E+00  0.4689791921228E-02
-0.1843600242009E-02  0.7215403635417E-02  0.0000000000000E+00  0.4725345841277E-02
-0.1783079519105E-02  0.6922934225164E-02  0.0000000000000E+00  0.4776757155492E-02
-0.1715712513171E-02  0.6623571062338E-02  0.0000000000000E+00  0.4841934921455E-02
-0.1643238446934E-02  0.6317571447802E-02  0.0000000000000E+00  0.4920124956675E-02
-0.1567420491864E-02  0.6005264422980E-02  0.0000000000000E+00  0.5011336850667E-02
-0.1490396123231E-02  0.5687938024382E-02  0.0000000000000E+00  0.5114843918912E-02
-0.1414538141687E-02  0.5368256317871E-02  0.0000000000000E+00  0.5227528283794E-02
-0.1341590129141E-02  0.5048540206949E-02  0.0000000000000E+00  0.5344341792699E-02
-0.1271933662909E-02  0.4729364209726E-02  0.0000000000000E+00  0.5459790863265E-02
-0.1204577481819E-02  0.4410025722909E-02  0.0000000000000E+00  0.5568574698123E-02
-0.1137535793593E-02  0.4089291064627E-02  0.0000000000000E+00  0.5665904861535E-02
-0.1068324406215E-02  0.3765952241041E-02  0.0000000000000E+00  0.5747481439846E-02
-0.9943701821573E-03  0.3439130207117E-02  0.0000000000000E+00  0.5809168754519E-02
-0.9132477775914E-03  0.3108358032828E-02  0.0000000000000E+00  0.5846577876477E-02
-0.8227706510832E-03  0.2773538089578E-02  0.0000000000000E+00  0.5854750812248E-02
-0.7210114043084E-03  0.2434845634325E-02  0.0000000000000E+00  0.5828064268943E-02
-0.6063042337926E-03  0.2092529094017E-02  0.0000000000000E+00  0.5760602812486E-02
-0.4773087975398E-03  0.1746796132520E-02  0.0000000000000E+00  0.5646771785428E-02
-0.3332248241006E-03  0.1398002896072E-02  0.0000000000000E+00  0.5481589519618E-02
-0.1741111648644E-03  0.1046873110970E-02  0.0000000000000E+00  0.5260985721345E-02
-0.1266449078274E-05  0.6946541420177E-03  0.0000000000000E+00  0.4982332112852E-02
 0.1822999355734E-03  0.3433479468720E-03  0.0000000000000E+00  0.4644982344569E-02
 0.3712965587732E-03 -0.3955756992996E-05  0.0000000000000E+00  0.4250782215912E-02
 0.5575175130361E-03 -0.3426634786342E-03  0.0000000000000E+00  0.3804512575509E-02
 0.7293693934416E-03 -0.6663938396892E-03  0.0000000000000E+00  0.3314314582308E-02
 0.8720097487900E-03 -0.9672971585076E-03  0.0000000000000E+00  0.2792011071076E-02
 0.9672465057795E-03 -0.1235729967380E-02  0.0000000000000E+00  0.2249746667586E-02
 0.9938115676815E-03 -0.1459810592648E-02  0.0000000000000E+00  0.1694375968019E-02
 0.9309345649351E-03 -0.1628272617288E-02  0.0000000000000E+00  0.1128134927670E-02
 0.7615480356828E-03 -0.1733363153183E-02  0.0000000000000E+00  0.5582425377047E-03
-0.1590946317920E-03  0.7823875963099E-02  0.0000000000000E+00  0.3935870325767E-02
-0.5121179239808E-03  0.8004055101414E-02  0.0000000000000E+00  0.4599384850533E-02
-0.8921222046414E-03  0.8155215552813E-02  0.0000000000000E+00  0.4973820483801E-02
-0.1229037020180E-02  0.8233212056193E-02  0.0000000000000E+00  0.5115809261029E-02
-0.1487226359984E-02  0.8222749887370E-02  0.0000000000000E+00  0.5117896238569E-02
-0.1662489929421E-02  0.8132026391959E-02  0.0000000000000E+00  0.5061216398278E-02
-0.1767423482378E-02  0.7979301108986E-02  0.0000000000000E+00  0.4996910624669E-02
-0.1819010220023E-02  0.7782860259049E-02  0.0000000000000E+00  0.4949414841125E-02
-0.1832374967394E-02  0.7556881545263E-02  0.0000000000000E+00  0.4926600639071E-02
-0.1818999154721E-02  0.7311031310290E-02  0.0000000000000E+00  0.4928327974071E-02
-0.1786955021661E-02  0.7051420010584E-02  0.0000000000000E+00  0.4951552369491E-02
-0.1741701431161E-02  0.6781689147388E-02  0.0000000000000E+00  0.4992847580482E-02
-0.1686882770141E-02  0.6503873713913E-02  0.0000000000000E+00  0.5049496334800E-02
-0.1625015502704E-02  0.6219051040794E-02  0.0000000000000E+00  0.5119858833774E-02
-0.1558068539903E-02  0.5927853139067E-02  0.0000000000000E+00  0.5203294829353E-02
-0.1487905739532E-02  0.5630884590928E-02  0.0000000000000E+00  0.5299665478550E-02
-0.1416585139338E-02  0.5329547910803E-02  0.0000000000000E+00  0.5408036701108E-02
-0.1346252107248E-02  0.5026449068641E-02  0.0000000000000E+00  0.5525281720539E-02
-0.1278406596311E-02  0.4723801186927E-02  0.0000000000000E+00  0.5646563723999E-02
-0.1213291014915E-02  0.4422131706314E-02  0.0000000000000E+00  0.5766642308434E-02
-0.1149894088106E-02  0.4120734011283E-02  0.0000000000000E+00  0.5880353936053E-02
-0.1086263197512E-02  0.3818344353245E-02  0.0000000000000E+00  0.5982858637726E-02
-0.1019920888329E-02  0.3513640016732E-02  0.0000000000000E+00  0.6069653815977E-02
-0.9482301352580E-03  0.3205523083679E-02  0.0000000000000E+00  0.6136348756971E-02
-0.8686312710551E-03  0.2893219397801E-02  0.0000000000000E+00  0.6178341780815E-02
-0.7787627021513E-03  0.2576268655172E-02  0.0000000000000E+00  0.6190560314930E-02
-0.6765226396792E-03  0.2254464494119E-02  0.0000000000000E+00  0.6167376288216E-02
-0.5601108499316E-03  0.1927689388694E-02  0.0000000000000E+00  0.6102934991458E-02
-0.4281198004401E-03  0.1595824065417E-02  0.0000000000000E+00  0.5991703430097E-02
-0.2797635781344E-03  0.1258948302749E-02  0.0000000000000E+00  0.5828733920873E-02
-0.1152058521318E-03  0.9175752977105E-03  0.0000000000000E+00  0.5609936829090E-02
 0.6405204884596E-04  0.5728301326124E-03  0.0000000000000E+00  0.5332559357958E-02
 0.2546997715378E-03  0.2267014864240E-03  0.0000000000000E+00  0.4995648826534E-02
 0.4510669971041E-03 -0.1176191478928E-03  0.0000000000000E+00  0.4600453265539E-02
 0.6445509915698E-03 -0.4553485592741E-03  0.0000000000000E+00  0.4150730322117E-02
 0.8232631274800E-03 -0.7799070658193E-03  0.0000000000000E+00  0.3653052458261E-02
 0.9723495741987E-03 -0.1083365837434E-02  0.0000000000000E+00  0.3117142086973E-02
 0.1074027485656E-02 -0.1356233647004E-02  0.0000000000000E+00  0.2553079805025E-02
 0.1107568517279E-02 -0.1586845031154E-02  0.0000000000000E+00  0.1966981148997E-02
 0.1051811387696E-02 -0.1763403167177E-02  0.0000000000000E+00  0.1362647149659E-02
 0.8873188519258E-03 -0.1876035840733E-02  0.0000000000000E+00  0.7484676672110E-03
-0.1381399372021E-03  0.7288817298293E-02  0.0000000000000E+00  0.3843133700379E-02
-0.4477111133269E-03  0.7446921254851E-02  0.0000000000000E+00  0.4521488491957E-02
-0.7881614014868E-03  0.7584095781567E-02  0.0000000000000E+00  0.4943978803287E-02
-0.1099027150073E-02  0.7661404543992E-02  0.0000000000000E+00  0.5150825018043E-02
-0.1345962278726E-02  0.7662176402328E-02  0.0000000000000E+00  0.5216177972473E-02
-0.1520740357267E-02  0.7589762211898E-02  0.0000000000000E+00  0.5210687269371E-02
-0.1631009349724E-02  0.7457823926908E-02  0.0000000000000E+00  0.5183358209314E-02
-0.1690162171188E-02  0.7281867165058E-02  0.0000000000000E+00  0.5160978329161E-02
-0.1711380912892E-02  0.7074947519110E-02  0.0000000000000E+00  0.5154889729844E-02
-0.1705350383981E-02  0.6846584418057E-02  0.0000000000000E+00  0.5167953844748E-02
-0.1679963466562E-02  0.6603166994615E-02  0.0000000000000E+00  0.5199291902776E-02
-0.1640780841700E-02  0.6348746685129E-02  0.0000000000000E+00  0.5246919373627E-02
-0.1591656134030E-02  0.6085778608898E-02  0.0000000000000E+00  0.5309022953350E-02
-0.1535331623505E-02  0.5815727251626E-02  0.0000000000000E+00  0.5384459559247E-02
-0.1473952090792E-02  0.5539552151450E-02  0.0000000000000E+00  0.5472758016611E-02
-0.1409445604800E-02  0.5258091175489E-02  0.0000000000000E+00  0.5573711041032E-02
-0.1343783823237E-02  0.4972833320026E-02  0.0000000000000E+00  0.5686269797086E-02
-0.1278904474457E-02  0.4686316228954E-02  0.0000000000000E+00  0.5807365832695E-02
-0.1216086105259E-02  0.4400641206862E-02  0.0000000000000E+00  0.5932398340738E-02
-0.1155433577841E-02  0.4116278614615E-02  0.0000000000000E+00  0.6056389220108E-02
-0.1095896716782E-02  0.3832504995087E-02  0.0000000000000E+00  0.6174343449334E-02
-0.1035533852087E-02  0.3548023107128E-02  0.0000000000000E+00  0.6281435094334E-02
-0.9718643267271E-03  0.3261409146428E-02  0.0000000000000E+00  0.6373042438759E-02
-0.9021939996369E-03  0.2971375362003E-02  0.0000000000000E+00  0.6444597337449E-02
-0.8238480177701E-03  0.2676878257800E-02  0.0000000000000E+00  0.6491341568304E-02
-0.7343140027580E-03  0.2377135462442E-02  0.0000000000000E+00  0.6508117932004E-02
-0.6313385141961E-03  0.2071598503098E-02  0.0000000000000E+00  0.6489298639572E-02
-0.5130036484885E-03  0.1759820951636E-02  0.0000000000000E+00  0.6429075214540E-02
-0.3778439375367E-03  0.1441391939842E-02  0.0000000000000E+00  0.6321947275256E-02
-0.2250895327275E-03  0.1116149163461E-02  0.0000000000000E+00  0.6162956573829E-02
-0.5500198529562E-04  0.7844269071989E-03  0.0000000000000E+00  0.5947929568434E-02
 0.1307341494600E-03  0.4472519983942E-03  0.0000000000000E+00  0.5673901802525E-02
 0.3285459875213E-03  0.1066081151703E-03  0.0000000000000E+00  0.5339509536941E-02
 0.5324478353643E-03 -0.2342285604923E-03  0.0000000000000E+00  0.4945298970722E-02
 0.7335287957029E-03 -0.5703344617414E-03  0.0000000000000E+00  0.4493937517590E-02
 0.9197010638378E-03 -0.8950072503340E-03  0.0000000000000E+00  0.3990452076194E-02
 0.1076149643934E-02 -0.1200305079975E-02  0.0000000000000E+00  0.3442610762105E-02
 0.1185417217987E-02 -0.1476879699548E-02  0.0000000000000E+00  0.2858589650326E-02
 0.1227035168847E-02 -0.1713131166626E-02  0.0000000000000E+00  0.2243512535601E-02
 0.1179188744433E-02 -0.1896546637321E-02  0.0000000000000E+00  0.1601721413837E-02
 0.1020854821980E-02 -0.2015641067009E-02  0.0000000000000E+00  0.9420835338956E-03
-0.1198887695789E-03  0.6766716248825E-02  0.0000000000000E+00  0.3762808161260E-02
-0.3912668032608E-03  0.6905145628385E-02  0.0000000000000E+00  0.4452265140041E-02
-0.6957897363560E-03  0.7028798987265E-02  0.0000000000000E+00  0.4914223436449E-02
-0.9812082343760E-03  0.7103432773907E-02  0.0000000000000E+00  0.5176733608938E-02
-0.1215155829366E-02  0.7112040363764E-02  0.0000000000000E+00  0.5299008150199E-02
-0.1386838497438E-02  0.7054500977180E-02  0.0000000000000E+00  0.5341948641670E-02
-0.1500020388440E-02  0.6940676232397E-02  0.0000000000000E+00  0.5351393895736E-02
-0.1564921102561E-02  0.6783446311156E-02  0.0000000000000E+00  0.5355149760378E-02
-0.1592786799565E-02  0.6594571597928E-02  0.0000000000000E+00  0.5367106633745E-02
-0.1593365898485E-02  0.6383187280734E-02  0.0000000000000E+00  0.5392671744058E-02
-0.1574224416745E-02  0.6155771292313E-02  0.0000000000000E+00  0.5432969130983E-02
-0.1540910235023E-02  0.5916658030707E-02  0.0000000000000E+00  0.5487427585416E-02
-0.1497402122855E-02  0.5668640306335E-02  0.0000000000000E+00  0.5555156935912E-02
-0.1446603062982E-02  0.5413510446748E-02  0.0000000000000E+00  0.5635546856156E-02
-0.1390782274854E-02  0.5152506569782E-02  0.0000000000000E+00  0.5728348501997E-02
-0.1331899243102E-02  0.4886660303657E-02  0.0000000000000E+00  0.5833361364552E-02
-0.1271832728785E-02  0.4617522886394E-02  0.0000000000000E+00  0.5949504237778E-02
-0.1212328500874E-02  0.4347555618585E-02  0.0000000000000E+00  0.6073825595249E-02
-0.1154461996587E-02  0.4078745885325E-02  0.0000000000000E+00  0.6201983666283E-02
-0.1098203090887E-02  0.3811500284696E-02  0.0000000000000E+00  0.6329271738338E-02
-0.1042448401368E-02  0.3545068692471E-02  0.0000000000000E+00  0.6450888131535E-02
-0.9852485645728E-03  0.3278116776515E-02  0.0000000000000E+00  0.6562073554495E-02
-0.9241096201988E-03  0.3009129442940E-02  0.0000000000000E+00  0.6658157254887E-02
-0.8562837037290E-03  0.2736652549844E-02  0.0000000000000E+00  0.6734462126994E-02
-0.7789951488569E-03  0.2459405814398E-02  0.0000000000000E+00  0.6786125507153E-02
-0.6896002488013E-03  0.2176321097393E-02  0.0000000000000E+00  0.6807934701776E-02
-0.5857123519527E-03  0.1886543748962E-02  0.0000000000000E+00  0.6794267953571E-02
-0.4653088900670E-03  0.1589331931949E-02  0.0000000000000E+00  0.6739349462913E-02
-0.3268720349840E-03  0.1284014074896E-02  0.0000000000000E+00  0.6637682988467E-02
-0.1696454095431E-03  0.9702139394182E-03  0.0000000000000E+00  0.6484256269465E-02
 0.6023615809925E-05  0.6481105193898E-03  0.0000000000000E+00  0.6274751337757E-02
 0.1982918123197E-03  0.3186473788326E-03  0.0000000000000E+00  0.6005914822765E-02
 0.4033651147641E-03 -0.1619667486880E-04  0.0000000000000E+00  0.5675884920731E-02
 0.6150035345580E-03 -0.3530817348947E-03  0.0000000000000E+00  0.5284427625558E-02
 0.8240649433684E-03 -0.6869880267044E-03  0.0000000000000E+00  0.4833081380563E-02
 0.1018335831010E-02 -0.1011146404917E-02  0.0000000000000E+00  0.4325365843115E-02
 0.1183068565655E-02 -0.1317638172779E-02  0.0000000000000E+00  0.3767218338416E-02
 0.1301075393658E-02 -0.1597244376017E-02  0.0000000000000E+00  0.3165010918310E-02
 0.1352012962264E-02 -0.1838383057234E-02  0.0000000000000E+00  0.2522565968063E-02
 0.1313219736381E-02 -0.2027745352271E-02  0.0000000000000E+00  0.1843752761578E-02
 0.1162429260321E-02 -0.2152442910584E-02  0.0000000000000E+00  0.1137913351815E-02
-0.1038836870669E-03  0.6256029543462E-02  0.0000000000000E+00  0.3693425153537E-02
-0.3415024008135E-03  0.6376876822550E-02  0.0000000000000E+00  0.4391143449651E-02
-0.6133699154813E-03  0.6487651670809E-02  0.0000000000000E+00  0.4885670695292E-02
-0.8742490180903E-03  0.6558277569631E-02  0.0000000000000E+00  0.5195974289305E-02
-0.1094095655776E-02  0.6572070063564E-02  0.0000000000000E+00  0.5369169139171E-02
-0.1260617745444E-02  0.6526490126897E-02  0.0000000000000E+00  0.5457355642955E-02
-0.1374603364211E-02  0.6428326488948E-02  0.0000000000000E+00  0.5502666382534E-02
-0.1443544897563E-02  0.6288077599723E-02  0.0000000000000E+00  0.5532932384886E-02
-0.1476844318899E-02  0.6116146187004E-02  0.0000000000000E+00  0.5563786610958E-02
-0.1483241555809E-02  0.5921117743726E-02  0.0000000000000E+00  0.5602715001003E-02
-0.1469864618382E-02  0.5709401090535E-02  0.0000000000000E+00  0.5652633669138E-02
-0.1442148637453E-02  0.5485495106943E-02  0.0000000000000E+00  0.5714314612478E-02
-0.1404117967049E-02  0.5252446619796E-02  0.0000000000000E+00  0.5787784763390E-02
-0.1358773280018E-02  0.5012313755375E-02  0.0000000000000E+00  0.5872991055168E-02
-0.1308459796221E-02  0.4766564007348E-02  0.0000000000000E+00  0.5969954525530E-02
-0.1255138563003E-02  0.4516385572241E-02  0.0000000000000E+00  0.6078549281758E-02
-0.1200588822609E-02  0.4263370195801E-02  0.0000000000000E+00  0.6197733762892E-02
-0.1146376403961E-02  0.4009895909667E-02  0.0000000000000E+00  0.6324723961409E-02
-0.1093388435723E-02  0.3757834993871E-02  0.0000000000000E+00  0.6455458266040E-02
-0.1041462681243E-02  0.3507525853559E-02  0.0000000000000E+00  0.6585510510138E-02
-0.9894317397252E-03  0.3258184389788E-02  0.0000000000000E+00  0.6710292783874E-02
-0.9353231316390E-03  0.3008436070405E-02  0.0000000000000E+00  0.6825155121872E-02
-0.8766199499515E-03  0.2756681905792E-02  0.0000000000000E+00  0.6925436375307E-02
-0.8105216108598E-03  0.2501320504665E-02  0.0000000000000E+00  0.7006410114912E-02
-0.7341620057845E-03  0.2240862640622E-02  0.0000000000000E+00  0.7063156521402E-02
-0.6447811297933E-03  0.1973986410495E-02  0.0000000000000E+00  0.7090435033970E-02
-0.5398733914054E-03  0.1699563095707E-02  0.0000000000000E+00  0.7082636213798E-02
-0.4173208360864E-03  0.1416585179110E-02  0.0000000000000E+00  0.7034004810873E-02
-0.2755552910861E-03  0.1124146912127E-02  0.0000000000000E+00  0.6939021957832E-02
-0.1138274335535E-03  0.8216807371920E-03  0.0000000000000E+00  0.6792580515823E-02
 0.6744573521200E-04  0.5092272402686E-03  0.0000000000000E+00  0.6590162786782E-02
 0.2662904435267E-03  0.1876545724622E-03  0.0000000000000E+00  0.6328159059462E-02
 0.4787340782426E-03 -0.1410689248142E-03  0.0000000000000E+00  0.6004138059439E-02
 0.6983397293678E-03 -0.4735621555776E-03  0.0000000000000E+00  0.5617026844741E-02
 0.9158004649581E-03 -0.8047467891025E-03  0.0000000000000E+00  0.5167215075636E-02
 0.1118833489203E-02 -0.1127828073188E-02  0.0000000000000E+00  0.4656754591139E-02
 0.1292774565911E-02 -0.1434923800019E-02  0.0000000000000E+00  0.4089850954930E-02
 0.1420669132731E-02 -0.1716928645819E-02  0.0000000000000E+00  0.3471143290941E-02
 0.1482298257149E-02 -0.1962303353920E-02  0.0000000000000E+00  0.2802927290117E-02
 0.1454061308648E-02 -0.2157024068719E-02  0.0000000000000E+00  0.2087511337709E-02
 0.1312071321013E-02 -0.2286620196817E-02  0.0000000000000E+00  0.1334792497732E-02
-0.8976197077157E-04  0.5755467105148E-02  0.0000000000000E+00  0.3633733984417E-02
-0.2973827892494E-03  0.5860555682870E-02  0.0000000000000E+00  0.4337534709175E-02
-0.5395244636332E-03  0.5959178691087E-02  0.0000000000000E+00  0.4859045725374E-02
-0.7769402778405E-03  0.6024931206629E-02  0.0000000000000E+00  0.5210413599298E-02
-0.9820345738502E-03  0.6041852231033E-02  0.0000000000000E+00  0.5428964927378E-02
-0.1141790034469E-02  0.6005780950380E-02  0.0000000000000E+00  0.5559005304729E-02
-0.1254772894760E-02  0.5921069026672E-02  0.0000000000000E+00  0.5638758401773E-02
-0.1326186321629E-02  0.5796116972526E-02  0.0000000000000E+00  0.5695372554303E-02
-0.1363733633363E-02  0.5639986192486E-02  0.0000000000000E+00  0.5745548982028E-02
-0.1375128416037E-02  0.5460608752914E-02  0.0000000000000E+00  0.5798405633956E-02
-0.1366984049388E-02  0.5264199703316E-02  0.0000000000000E+00  0.5858415264046E-02
-0.1344540050107E-02  0.5055316845996E-02  0.0000000000000E+00  0.5927592826026E-02
-0.1311794233394E-02  0.4837180280572E-02  0.0000000000000E+00  0.6006854902867E-02
-0.1271785972284E-02  0.4612052037208E-02  0.0000000000000E+00  0.6096718005120E-02
-0.1226891543839E-02  0.4381580747814E-02  0.0000000000000E+00  0.6197512615016E-02
-0.1179046230795E-02  0.4147076115262E-02  0.0000000000000E+00  0.6309246465944E-02
-0.1129922825109E-02  0.3910150398090E-02  0.0000000000000E+00  0.6430979486672E-02
-0.1080916083254E-02  0.3673091879691E-02  0.0000000000000E+00  0.6560138296910E-02
-0.1032736594026E-02  0.3437656864279E-02  0.0000000000000E+00  0.6692960364646E-02
-0.9850928316056E-03  0.3204112647096E-02  0.0000000000000E+00  0.6825309113182E-02
-0.9367452092912E-03  0.2971635896343E-02  0.0000000000000E+00  0.6952827655695E-02
-0.8856854876308E-03  0.2738809552997E-02  0.0000000000000E+00  0.7071010347266E-02
-0.8293649374096E-03  0.2503956654871E-02  0.0000000000000E+00  0.7175254690894E-02
-0.7649296000465E-03  0.2265344408761E-02  0.0000000000000E+00  0.7260836440042E-02
-0.6894299896681E-03  0.2021298412907E-02  0.0000000000000E+00  0.7322820926854E-02
-0.6000008729112E-03  0.1770270917638E-02  0.0000000000000E+00  0.7355965481136E-02
-0.4940280769028E-03  0.1510887391465E-02  0.0000000000000E+00  0.7354679691838E-02
-0.3693039579721E-03  0.1241900566536E-02  0.0000000000000E+00  0.7313218480196E-02
-0.2242086499747E-03  0.9621928477023E-03  0.0000000000000E+00  0.7226016076898E-02
-0.5799009042495E-04  0.6710230089369E-03  0.0000000000000E+00  0.7087833194583E-02
 0.1288845647124E-03  0.3683044479559E-03  0.0000000000000E+00  0.6893902972510E-02
 0.3343416046312E-03  0.5483215663875E-04  0.0000000000000E+00  0.6640201363734E-02
 0.5542725776320E-03 -0.2674455636732E-03  0.0000000000000E+00  0.6323669320370E-02
 0.7820973183377E-03 -0.5951290474013E-03  0.0000000000000E+00  0.5942351487846E-02
 0.1008400603615E-02 -0.9231134974223E-03  0.0000000000000E+00  0.5495477900086E-02
 0.1220877347070E-02 -0.1244606581548E-02  0.0000000000000E+00  0.4983674080126E-02
 0.1404952154358E-02 -0.1551771621914E-02  0.0000000000000E+00  0.4409467805963E-02
 0.1543881871992E-02 -0.1835567194213E-02  0.0000000000000E+00  0.3775850513712E-02
 0.1617636307234E-02 -0.2084596214490E-02  0.0000000000000E+00  0.3083464253051E-02
 0.1601888246513E-02 -0.2284287301400E-02  0.0000000000000E+00  0.2332178248226E-02
 0.1469555844247E-02 -0.2418185776659E-02  0.0000000000000E+00  0.1531497295757E-02
-0.7723178149020E-04  0.5263934534128E-02  0.0000000000000E+00  0.3582663971080E-02
-0.2580631537454E-03  0.5354854147434E-02  0.0000000000000E+00  0.4290863468004E-02
-0.4730893684966E-03  0.5442077566291E-02  0.0000000000000E+00  0.4834802945745E-02
-0.6881937554326E-03  0.5502423452534E-02  0.0000000000000E+00  0.5221478527144E-02
-0.8782231841643E-03  0.5520885571549E-02  0.0000000000000E+00  0.5480294037913E-02
-0.1029985176260E-02  0.5492277108025E-02  0.0000000000000E+00  0.5648741274355E-02
-0.1140438748444E-02  0.5419052761929E-02  0.0000000000000E+00  0.5761154850075E-02
-0.1212906051008E-02  0.5307807407592E-02  0.0000000000000E+00  0.5843521726996E-02
-0.1253567025295E-02  0.5166329990508E-02  0.0000000000000E+00  0.5913067252065E-02
-0.1269132095038E-02  0.5001845507092E-02  0.0000000000000E+00  0.5980134782851E-02
-0.1265654068402E-02  0.4820282248190E-02  0.0000000000000E+00  0.6050511986689E-02
-0.1248111743505E-02  0.4626166709538E-02  0.0000000000000E+00  0.6127337239472E-02
-0.1220413529925E-02  0.4422817457399E-02  0.0000000000000E+00  0.6212372286479E-02
-0.1185583893100E-02  0.4212640903901E-02  0.0000000000000E+00  0.6306703782013E-02
-0.1145989118595E-02  0.3997420537924E-02  0.0000000000000E+00  0.6411002142431E-02
-0.1103513723143E-02  0.3778554590183E-02  0.0000000000000E+00  0.6525458276997E-02
-0.1059716811559E-02  0.3557657145361E-02  0.0000000000000E+00  0.6649285675904E-02
-0.1015828302493E-02  0.3336920371367E-02  0.0000000000000E+00  0.6780157670888E-02
-0.9723914399690E-03  0.3117983709952E-02  0.0000000000000E+00  0.6914627256082E-02
-0.9289879771885E-03  0.2901041438770E-02  0.0000000000000E+00  0.7048856070919E-02
-0.8842999661420E-03  0.2685227375465E-02  0.0000000000000E+00  0.7178733043162E-02
-0.8362731053545E-03  0.2469080477275E-02  0.0000000000000E+00  0.7299925793860E-02
-0.7823188602831E-03  0.2250850865319E-02  0.0000000000000E+00  0.7407931544140E-02
-0.7195281119249E-03  0.2028687669506E-02  0.0000000000000E+00  0.7498072490365E-02
-0.6448723659742E-03  0.1800751604197E-02  0.0000000000000E+00  0.7565436627330E-02
-0.5553887607985E-03  0.1565293223979E-02  0.0000000000000E+00  0.7604802950189E-02
-0.4483613207668E-03  0.1320716716275E-02  0.0000000000000E+00  0.7610607155563E-02
-0.3214950582989E-03  0.1065557286717E-02  0.0000000000000E+00  0.7577105918738E-02
-0.1731139471165E-03  0.7985038637236E-03  0.0000000000000E+00  0.7498665309915E-02
-0.2450434737788E-05  0.5186547724991E-03  0.0000000000000E+00  0.7369880858446E-02
 0.1900002756704E-03  0.2258026859720E-03  0.0000000000000E+00  0.7185693279165E-02
 0.4020967426307E-03 -0.7933269837226E-04  0.0000000000000E+00  0.6941614911605E-02
 0.6296369919425E-03 -0.3948354298439E-03  0.0000000000000E+00  0.6633911686052E-02
 0.8659470577477E-03 -0.7173094002436E-03  0.0000000000000E+00  0.6259712730068E-02
 0.1101554322143E-02 -0.1041650500151E-02  0.0000000000000E+00  0.5817084836973E-02
 0.1324164614657E-02 -0.1361089841546E-02  0.0000000000000E+00  0.5305252721705E-02
 0.1519315316692E-02 -0.1667833419659E-02  0.0000000000000E+00  0.4725136327745E-02
 0.1670411155819E-02 -0.1952894108676E-02  0.0000000000000E+00  0.4077984234537E-02
 0.1757728254504E-02 -0.2204869867590E-02  0.0000000000000E+00  0.3363193719572E-02
 0.1756876381947E-02 -0.2409643676407E-02  0.0000000000000E+00  0.2576852841484E-02
 0.1634354624789E-02 -0.2545851666711E-02  0.0000000000000E+00  0.1727031440417E-02
-0.6605514186371E-04  0.4780490866227E-02  0.0000000000000E+00  0.3539294522223E-02
-0.2228465802031E-03  0.4858628598498E-02  0.0000000000000E+00  0.4250584304023E-02
-0.4130758558555E-03  0.4935194335480E-02  0.0000000000000E+00  0.4813209881538E-02
-0.6070350633852E-03  0.4989834742904E-02  0.0000000000000E+00  0.5230259328999E-02
-0.7819309452291E-03  0.5008618177232E-02  0.0000000000000E+00  0.5524716204310E-02
-0.9247807337739E-03  0.4985773311084E-02  0.0000000000000E+00  0.5728169817397E-02
-0.1031429633594E-02  0.4922307574328E-02  0.0000000000000E+00  0.5871225615009E-02
-0.1103686164758E-02  0.4823291671392E-02  0.0000000000000E+00  0.5978408675732E-02
-0.1146394347752E-02  0.4695343081976E-02  0.0000000000000E+00  0.6067044096138E-02
-0.1165313804672E-02  0.4544964790093E-02  0.0000000000000E+00  0.6148344560470E-02
-0.1165916695549E-02  0.4377733696930E-02  0.0000000000000E+00  0.6229178211842E-02
-0.1152873133420E-02  0.4198070872832E-02  0.0000000000000E+00  0.6313677452705E-02
-0.1129949392950E-02  0.4009326418834E-02  0.0000000000000E+00  0.6404392210126E-02
-0.1100107658774E-02  0.3813995601387E-02  0.0000000000000E+00  0.6502969302386E-02
-0.1065667354529E-02  0.3613953219821E-02  0.0000000000000E+00  0.6610440305440E-02
-0.1028439487086E-02  0.3410655188043E-02  0.0000000000000E+00  0.6727219354683E-02
-0.9898620572433E-03  0.3205699833662E-02  0.0000000000000E+00  0.6852716334441E-02
-0.9510042476484E-03  0.3001176820538E-02  0.0000000000000E+00  0.6984880776675E-02
-0.9122490138687E-03  0.2798607670155E-02  0.0000000000000E+00  0.7120594956337E-02
-0.8730536144997E-03  0.2598112410269E-02  0.0000000000000E+00  0.7256326605420E-02
-0.8320170688878E-03  0.2398779694340E-02  0.0000000000000E+00  0.7388223199752E-02
-0.7870306591644E-03  0.2199103891110E-02  0.0000000000000E+00  0.7512149726378E-02
-0.7354589740135E-03  0.1997266779355E-02  0.0000000000000E+00  0.7623737570179E-02
-0.6743352025604E-03  0.1791310804684E-02  0.0000000000000E+00  0.7718393316758E-02
-0.6005540387363E-03  0.1579249153729E-02  0.0000000000000E+00  0.7791260728456E-02
-0.5110596066336E-03  0.1359151443059E-02  0.0000000000000E+00  0.7837162325276E-02
-0.4030377002888E-03  0.1129221617090E-02  0.0000000000000E+00  0.7850567375988E-02
-0.2741052641881E-03  0.8877960626324E-03  0.0000000000000E+00  0.7825728001609E-02
-0.1225228060531E-03  0.6333849226047E-03  0.0000000000000E+00  0.7756924208428E-02
 0.5250804718238E-04  0.3649353561851E-03  0.0000000000000E+00  0.7638557915557E-02
 0.2504882440674E-03  0.8212177183051E-04  0.0000000000000E+00  0.7465240344538E-02
 0.4692419194795E-03 -0.2144170310267E-03  0.0000000000000E+00  0.7231978912873E-02
 0.7045149557301E-03 -0.5228116869413E-03  0.0000000000000E+00  0.6934326200721E-02
 0.9495862524114E-03 -0.8396911279417E-03  0.0000000000000E+00  0.6568470678313E-02
 0.1194968978081E-02 -0.1159975431228E-02  0.0000000000000E+00  0.6131312723276E-02
 0.1428417577360E-02 -0.1476935762031E-02  0.0000000000000E+00  0.5620701473652E-02
 0.1635569650543E-02 -0.1782816572563E-02  0.0000000000000E+00  0.5035960003343E-02
 0.1800073006200E-02 -0.2068673148048E-02  0.0000000000000E+00  0.4376688345644E-02
 0.1902116317668E-02 -0.2323052771321E-02  0.0000000000000E+00  0.3640383301055E-02
 0.1919014452338E-02 -0.2532158786843E-02  0.0000000000000E+00  0.2822751853426E-02
 0.1809413476475E-02 -0.2672543042622E-02  0.0000000000000E+00  0.1912982518306E-02
-0.5603557743927E-04  0.4304317027911E-02  0.0000000000000E+00  0.3502831319603E-02
-0.1911522600302E-03  0.4370883954206E-02  0.0000000000000E+00  0.4216190365600E-02
-0.3586391638701E-03  0.4437501995459E-02  0.0000000000000E+00  0.4794405878571E-02
-0.5325937856201E-03  0.4486301513641E-02  0.0000000000000E+00  0.5237588579142E-02
-0.6924586157963E-03  0.4504473263013E-02  0.0000000000000E+00  0.5563510841333E-02
-0.8257241957954E-03  0.4485985569249E-02  0.0000000000000E+00  0.5798681465659E-02
-0.9275132347172E-03  0.4430767537098E-02  0.0000000000000E+00  0.5970218787781E-02
-0.9984431460331E-03  0.4342625509222E-02  0.0000000000000E+00  0.6101020209932E-02
-0.1042209475872E-02  0.4227123487409E-02  0.0000000000000E+00  0.6208191166603E-02
-0.1063692627610E-02  0.4090055996455E-02  0.0000000000000E+00  0.6303511840907E-02
-0.1067784833610E-02  0.3936608109455E-02  0.0000000000000E+00  0.6394712944518E-02
-0.1058815204055E-02  0.3771037049284E-02  0.0000000000000E+00  0.6486789328030E-02
-0.1040365414255E-02  0.3596666419152E-02  0.0000000000000E+00  0.6583013954447E-02
-0.1015294642506E-02  0.3416029888408E-02  0.0000000000000E+00  0.6685574956208E-02
-0.9858429170106E-03  0.3231053332365E-02  0.0000000000000E+00  0.6795877468754E-02
-0.9537272454906E-03  0.3043221735554E-02  0.0000000000000E+00  0.6914589778200E-02
-0.9202571136111E-03  0.2854101127549E-02  0.0000000000000E+00  0.7041352384033E-02
-0.8863434016464E-03  0.2665672251051E-02  0.0000000000000E+00  0.7174414322758E-02
-0.8522140955374E-03  0.2479337435839E-02  0.0000000000000E+00  0.7310998054715E-02
-0.8172038318031E-03  0.2295141691255E-02  0.0000000000000E+00  0.7447884221216E-02
-0.7798250730531E-03  0.2112127232651E-02  0.0000000000000E+00  0.7581489739050E-02
-0.7379079438780E-03  0.1928744022930E-02  0.0000000000000E+00  0.7707897102433E-02
-0.6887639632553E-03  0.1743109837634E-02  0.0000000000000E+00  0.7822900818033E-02
-0.6293656328840E-03  0.1553170351632E-02  0.0000000000000E+00  0.7922024396467E-02
-0.5565313055435E-03  0.1356806124397E-02  0.0000000000000E+00  0.8000496564139E-02
-0.4671141768681E-03  0.1151923591351E-02  0.0000000000000E+00  0.8053203501275E-02
-0.3582025651496E-03  0.9365442904971E-03  0.0000000000000E+00  0.8074655969532E-02
-0.2273218670402E-03  0.7088212333653E-03  0.0000000000000E+00  0.8059097446910E-02
-0.7265926993949E-04  0.4670970986364E-03  0.0000000000000E+00  0.8000707533168E-02
 0.1066319870211E-03  0.2101736786843E-03  0.0000000000000E+00  0.7893670894734E-02
 0.3100749091008E-03 -0.6239380925117E-04  0.0000000000000E+00  0.7732238250761E-02
 0.5354931829822E-03 -0.3500558489100E-03  0.0000000000000E+00  0.7510877941756E-02
 0.7786212071386E-03 -0.6510053422744E-03  0.0000000000000E+00  0.7224398228678E-02
 0.1032734032085E-02 -0.9619171444948E-03  0.0000000000000E+00  0.6868026984310E-02
 0.1288372539336E-02 -0.1277756931479E-02  0.0000000000000E+00  0.6437495873802E-02
 0.1533363350896E-02 -0.1591849033963E-02  0.0000000000000E+00  0.5929292251771E-02
 0.1753485292824E-02 -0.1896480853981E-02  0.0000000000000E+00  0.5341161195020E-02
 0.1932507732848E-02 -0.2182713874324E-02  0.0000000000000E+00  0.4671012951517E-02
 0.2051203922573E-02 -0.2439194058862E-02  0.0000000000000E+00  0.3914518359293E-02
 0.2085437877439E-02 -0.2651484101844E-02  0.0000000000000E+00  0.3065667703970E-02
 0.2007161527476E-02 -0.2800258976780E-02  0.0000000000000E+00  0.2102361759815E-02
-0.4700899714358E-04  0.3834691918678E-02  0.0000000000000E+00  0.3472587216803E-02
-0.1624913897962E-03  0.3890745772231E-02  0.0000000000000E+00  0.4187217048826E-02
-0.3090531453891E-03  0.3948081755980E-02  0.0000000000000E+00  0.4778443462817E-02
-0.4640926375201E-03  0.3991016864917E-02  0.0000000000000E+00  0.5244101842795E-02
-0.6091448625470E-03  0.4007866549865E-02  0.0000000000000E+00  0.5597727008200E-02
-0.7323490776327E-03  0.3992574491737E-02  0.0000000000000E+00  0.5861474731002E-02
-0.8284126544756E-03  0.3944290791629E-02  0.0000000000000E+00  0.6059260894926E-02
-0.8970398314617E-03  0.3865790421076E-02  0.0000000000000E+00  0.6212288694954E-02
-0.9409571488717E-03  0.3761708127315E-02  0.0000000000000E+00  0.6337213347477E-02
-0.9642486236510E-03  0.3637163399327E-02  0.0000000000000E+00  0.6446134229024E-02
-0.9712432327693E-03  0.3496928847400E-02  0.0000000000000E+00  0.6547448889630E-02
-0.9659104235069E-03  0.3345053910777E-02  0.0000000000000E+00  0.6646886753280E-02
-0.9516146372770E-03  0.3184786859845E-02  0.0000000000000E+00  0.6748374367834E-02
-0.9310780178046E-03  0.3018655009768E-02  0.0000000000000E+00  0.6854615352048E-02
-0.9064330332836E-03  0.2848598776294E-02  0.0000000000000E+00  0.6967392822692E-02
-0.8792844729255E-03  0.2676105940280E-02  0.0000000000000E+00  0.7087651665387E-02
-0.8508061058507E-03  0.2502694756957E-02  0.0000000000000E+00  0.7215289292610E-02
-0.8217516946679E-03  0.2330230669689E-02  0.0000000000000E+00  0.7348871776446E-02
-0.7921982004452E-03  0.2159995359622E-02  0.0000000000000E+00  0.7485969722701E-02
-0.7613591934484E-03  0.1991958388973E-02  0.0000000000000E+00  0.7623682174771E-02
-0.7276579492974E-03  0.1825115101304E-02  0.0000000000000E+00  0.7758704653433E-02
-0.6888580358139E-03  0.1657871945943E-02  0.0000000000000E+00  0.7887354000227E-02
-0.6422125345923E-03  0.1488286958678E-02  0.0000000000000E+00  0.8005612247793E-02
-0.5846300116277E-03  0.1314217831210E-02  0.0000000000000E+00  0.8109147790797E-02
-0.5128516029630E-03  0.1133425362136E-02  0.0000000000000E+00  0.8193300148227E-02
-0.4236395577054E-03  0.9436679513024E-03  0.0000000000000E+00  0.8253037839187E-02
-0.3139830414567E-03  0.7427996914149E-03  0.0000000000000E+00  0.8282921611826E-02
-0.1813099924918E-03  0.5288026900445E-03  0.0000000000000E+00  0.8277184523486E-02
-0.2372216885704E-04  0.2998604368852E-03  0.0000000000000E+00  0.8229895102237E-02
 0.1596950874252E-03  0.5463208503449E-04  0.0000000000000E+00  0.8135001953973E-02
 0.3685141316402E-03 -0.2074501510826E-03  0.0000000000000E+00  0.7986370115490E-02
 0.6005927135120E-03 -0.4859367161084E-03  0.0000000000000E+00  0.7777901109315E-02
 0.8516934713549E-03 -0.7790996121352E-03  0.0000000000000E+00  0.7503633920035E-02
 0.1115129397269E-02 -0.1083680276557E-02  0.0000000000000E+00  0.7157819553718E-02
 0.1381505576191E-02 -0.1394709772386E-02  0.0000000000000E+00  0.6735018274333E-02
 0.1638755022495E-02 -0.1705579893511E-02  0.0000000000000E+00  0.6230361668455E-02
 0.1872789712759E-02 -0.2008620936918E-02  0.0000000000000E+00  0.5640035402692E-02
 0.2067629547011E-02 -0.2294922456508E-02  0.0000000000000E+00  0.4960180041393E-02
 0.2204179523770E-02 -0.2553157798123E-02  0.0000000000000E+00  0.4184907579558E-02
 0.2259499929397E-02 -0.2768853581465E-02  0.0000000000000E+00  0.3304307855786E-02
 0.2210139032223E-02 -0.2926664762369E-02  0.0000000000000E+00  0.2297530908507E-02
-0.3883686496804E-04  0.3370974021853E-02  0.0000000000000E+00  0.3447966809358E-02
-0.1364487123717E-03  0.3417438377763E-02  0.0000000000000E+00  0.4163242832346E-02
-0.2636896340403E-03  0.3466106991330E-02  0.0000000000000E+00  0.4765317622094E-02
-0.4008367228922E-03  0.3503228549725E-02  0.0000000000000E+00  0.5250284242420E-02
-0.5313690005670E-03  0.3518217725525E-02  0.0000000000000E+00  0.5628225388161E-02
-0.6441863323391E-03  0.3505163009546E-02  0.0000000000000E+00  0.5917579715732E-02
-0.7338196218446E-03  0.3462676192303E-02  0.0000000000000E+00  0.6139361624204E-02
-0.7992960272099E-03  0.3392705515396E-02  0.0000000000000E+00  0.6313084799134E-02
-0.8425397661934E-03  0.3299079616166E-02  0.0000000000000E+00  0.6454796905917E-02
-0.8669264294205E-03  0.3186289263857E-02  0.0000000000000E+00  0.6576718249743E-02
-0.8762500103223E-03  0.3058689561654E-02  0.0000000000000E+00  0.6687742516943E-02
-0.8741130819325E-03  0.2920091037413E-02  0.0000000000000E+00  0.6794213756706E-02
-0.8636392266610E-03  0.2773626747356E-02  0.0000000000000E+00  0.6900641599039E-02
-0.8473859872266E-03  0.2621778825924E-02  0.0000000000000E+00  0.7010214252118E-02
-0.8273543889795E-03  0.2466469604405E-02  0.0000000000000E+00  0.7125090336187E-02
-0.8050210557906E-03  0.2309165809796E-02  0.0000000000000E+00  0.7246506127437E-02
-0.7814172427119E-03  0.2151323574327E-02  0.0000000000000E+00  0.7374635048420E-02
-0.7571398992898E-03  0.1994686809362E-02  0.0000000000000E+00  0.7508372378211E-02
-0.7321178565035E-03  0.1840414974993E-02  0.0000000000000E+00  0.7645641849250E-02
-0.7054449252847E-03  0.1688402035324E-02  0.0000000000000E+00  0.7783864865958E-02
-0.6754532848324E-03  0.1537596724783E-02  0.0000000000000E+00  0.7920023039218E-02
-0.6398356777003E-03  0.1386363508333E-02  0.0000000000000E+00  0.8050681589964E-02
-0.5957821517253E-03  0.1232704977715E-02  0.0000000000000E+00  0.8172030691920E-02
-0.5401340009720E-03  0.1074398783740E-02  0.0000000000000E+00  0.8279907752246E-02
-0.4695532485539E-03  0.9090971657000E-03  0.0000000000000E+00  0.8369786083092E-02
-0.3807094635344E-03  0.7344233973193E-03  0.0000000000000E+00  0.8436734072221E-02
-0.2704889236746E-03  0.5480765518735E-03  0.0000000000000E+00  0.8475371668857E-02
-0.1362140932359E-03  0.3478776454948E-03  0.0000000000000E+00  0.8479922126483E-02
 0.2411277898640E-04  0.1318565347003E-03  0.0000000000000E+00  0.8444335975111E-02
 0.2114954351827E-03 -0.1014702380184E-03  0.0000000000000E+00  0.8362311761339E-02
 0.4255840616761E-03 -0.3527997536954E-03  0.0000000000000E+00  0.8227309219233E-02
 0.6643053569042E-03 -0.6217950329115E-03  0.0000000000000E+00  0.8032641089934E-02
 0.9234894514025E-03 -0.9068250601937E-03  0.0000000000000E+00  0.7771557033200E-02
 0.1196526952744E-02 -0.1204718472948E-02  0.0000000000000E+00  0.7437317852299E-02
 0.1474124184684E-02 -0.1510591249704E-02  0.0000000000000E+00  0.7023307510997E-02
 0.1744344614159E-02 -0.1817916523701E-02  0.0000000000000E+00  0.6523309195014E-02
 0.1993269123168E-02 -0.2119076384948E-02  0.0000000000000E+00  0.5931936201551E-02
 0.2205133920770E-02 -0.2405204081280E-02  0.0000000000000E+00  0.5243631220571E-02
 0.2361227125351E-02 -0.2665013169356E-02  0.0000000000000E+00  0.4450544445019E-02
 0.2439868270740E-02 -0.2884727354049E-02  0.0000000000000E+00  0.3540528605663E-02
 0.2419516647705E-02 -0.3050529437626E-02  0.0000000000000E+00  0.2494305828910E-02
-0.3140101761387E-04  0.2912587082368E-02  0.0000000000000E+00  0.3428453884784E-02
-0.1126682362252E-03  0.2950267558161E-02  0.0000000000000E+00  0.4143888495419E-02
-0.2220016636808E-03  0.2990829612987E-02  0.0000000000000E+00  0.4754986624541E-02
-0.3422034282081E-03  0.3022235526419E-02  0.0000000000000E+00  0.5256506235027E-02
-0.4585512318255E-03  0.3034957738374E-02  0.0000000000000E+00  0.5655713165998E-02
-0.5607722015498E-03  0.3023349694493E-02  0.0000000000000E+00  0.5967880388060E-02
-0.6434049046593E-03  0.2985677017579E-02  0.0000000000000E+00  0.6211421215224E-02
-0.7049976984808E-03  0.2923238177626E-02  0.0000000000000E+00  0.6404214126400E-02
-0.7468238459370E-03  0.2839173058863E-02  0.0000000000000E+00  0.6561600928908E-02
-0.7716390826091E-03  0.2737397475088E-02  0.0000000000000E+00  0.6695769656686E-02
-0.7827385550921E-03  0.2621855759054E-02  0.0000000000000E+00  0.6815965254872E-02
-0.7833599760560E-03  0.2496099316610E-02  0.0000000000000E+00  0.6929037158295E-02
-0.7763703977312E-03  0.2363114442639E-02  0.0000000000000E+00  0.7040009121748E-02
-0.7641412117571E-03  0.2225305131124E-02  0.0000000000000E+00  0.7152519761794E-02
-0.7485222077447E-03  0.2084546971816E-02  0.0000000000000E+00  0.7269094995785E-02
-0.7308481419799E-03  0.1942264259694E-02  0.0000000000000E+00  0.7391270525625E-02
-0.7120015289501E-03  0.1799837857061E-02  0.0000000000000E+00  0.7519508412664E-02
-0.6924222462704E-03  0.1658884177521E-02  0.0000000000000E+00  0.7653040371080E-02
-0.6718931246784E-03  0.1520438864141E-02  0.0000000000000E+00  0.7790145280950E-02
-0.6493893592110E-03  0.1384320390522E-02  0.0000000000000E+00  0.7928569177837E-02
-0.6231507326825E-03  0.1249431742751E-02  0.0000000000000E+00  0.8065585596932E-02
-0.5907958671992E-03  0.1114097508942E-02  0.0000000000000E+00  0.8198019736355E-02
-0.5494479078342E-03  0.9762692435200E-03  0.0000000000000E+00  0.8322287360966E-02
-0.4958775876737E-03  0.8336518826422E-03  0.0000000000000E+00  0.8434415841605E-02
-0.4266651824956E-03  0.6837989689079E-03  0.0000000000000E+00  0.8530032969501E-02
-0.3383844860951E-03  0.5242096783448E-03  0.0000000000000E+00  0.8604323703971E-02
-0.2278134498581E-03  0.3524382970038E-03  0.0000000000000E+00  0.8651977298396E-02
-0.9215925993045E-04  0.1661522250611E-03  0.0000000000000E+00  0.8667210295148E-02
 0.7069112241287E-04 -0.3676915566015E-04  0.0000000000000E+00  0.8643852070688E-02
 0.2618531670144E-03 -0.2579542475338E-03  0.0000000000000E+00  0.8575341857722E-02
 0.4810843931016E-03 -0.4982378722158E-03  0.0000000000000E+00  0.8454719771762E-02
 0.7264157538128E-03 -0.7574099388522E-03  0.0000000000000E+00  0.8274693014231E-02
 0.9937836435892E-03 -0.1033955295752E-02  0.0000000000000E+00  0.8027706137395E-02
 0.1276695308413E-02 -0.1324810707498E-02  0.0000000000000E+00  0.7706018072284E-02
 0.1565992695374E-02 -0.1625196649609E-02  0.0000000000000E+00  0.7301832069697E-02
 0.1849899430454E-02 -0.1928682494614E-02  0.0000000000000E+00  0.6807580957670E-02
 0.2114682056068E-02 -0.2227716352594E-02  0.0000000000000E+00  0.6216321676850E-02
 0.2344826509886E-02 -0.2513483326792E-02  0.0000000000000E+00  0.5520767177290E-02
 0.2522102750492E-02 -0.2774878100651E-02  0.0000000000000E+00  0.4711235570151E-02
 0.2625859359588E-02 -0.2998778368243E-02  0.0000000000000E+00  0.3774148385250E-02
 0.2635378429246E-02 -0.3172009425260E-02  0.0000000000000E+00  0.2691183968565E-02
-0.2459968167395E-04  0.2459008817098E-02  0.0000000000000E+00  0.3413601148390E-02
-0.9084207959204E-04  0.2488606748217E-02  0.0000000000000E+00  0.4128815463272E-02
-0.1835097878386E-03  0.2521568543769E-02  0.0000000000000E+00  0.4747386866775E-02
-0.2876332011708E-03  0.2547383838066E-02  0.0000000000000E+00  0.5263051146594E-02
-0.3901513180461E-03  0.2557533185084E-02  0.0000000000000E+00  0.5680772784505E-02
-0.4816534013321E-03  0.2546718649744E-02  0.0000000000000E+00  0.6013134893854E-02
-0.5568263724825E-03  0.2513012116858E-02  0.0000000000000E+00  0.6276239226323E-02
-0.6139047595310E-03  0.2457213461290E-02  0.0000000000000E+00  0.6486416633495E-02
-0.6536459686906E-03  0.2381882577521E-02  0.0000000000000E+00  0.6658251438858E-02
-0.6782718692571E-03  0.2290417423988E-02  0.0000000000000E+00  0.6803785670449E-02
-0.6906196722953E-03  0.2186366780967E-02  0.0000000000000E+00  0.6932495850884E-02
-0.6935713653284E-03  0.2073011714043E-02  0.0000000000000E+00  0.7051639869683E-02
-0.6897285825163E-03  0.1953167688852E-02  0.0000000000000E+00  0.7166690149025E-02
-0.6812604431712E-03  0.1829133179217E-02  0.0000000000000E+00  0.7281699820411E-02
-0.6698495210700E-03  0.1702712271004E-02  0.0000000000000E+00  0.7399549325732E-02
-0.6566771809116E-03  0.1575267922645E-02  0.0000000000000E+00  0.7522075992262E-02
-0.6424716720475E-03  0.1448093847376E-02  0.0000000000000E+00  0.7650037401525E-02
-0.6275152429359E-03  0.1322673382149E-02  0.0000000000000E+00  0.7783004402642E-02
-0.6114463362327E-03  0.1199916833691E-02  0.0000000000000E+00  0.7919610147225E-02
-0.5931226048577E-03  0.1079567560926E-02  0.0000000000000E+00  0.8057925778840E-02
-0.5706906800290E-03  0.9604841988458E-03  0.0000000000000E+00  0.8195520953506E-02
-0.5416926303556E-03  0.8409541031934E-03  0.0000000000000E+00  0.8329490297292E-02
-0.5031815277874E-03  0.7188823728146E-03  0.0000000000000E+00  0.8456489958824E-02
-0.4518544198573E-03  0.5919081325746E-03  0.0000000000000E+00  0.8572755609203E-02
-0.3842067111138E-03  0.4574950415398E-03  0.0000000000000E+00  0.8674088361192E-02
-0.2967122853994E-03  0.3130276584851E-03  0.0000000000000E+00  0.8755805939380E-02
-0.1860339594403E-03  0.1559238557380E-03  0.0000000000000E+00  0.8812678069565E-02
-0.4925235257836E-04 -0.1629712270572E-04  0.0000000000000E+00  0.8838920235458E-02
 0.1158780829182E-03 -0.2059052957426E-03  0.0000000000000E+00  0.8828241295344E-02
 0.3106084473927E-03 -0.4146784038971E-03  0.0000000000000E+00  0.8773816587835E-02
 0.5348340232249E-03 -0.6435993402909E-03  0.0000000000000E+00  0.8668257360871E-02
 0.7867257465139E-03 -0.8926007449167E-03  0.0000000000000E+00  0.8503653326205E-02
 0.1062364969511E-02 -0.1160303228534E-02  0.0000000000000E+00  0.8271631712755E-02
 0.1355413800858E-02 -0.1443773176305E-02  0.0000000000000E+00  0.7963439742022E-02
 0.1656884196763E-02 -0.1738355464896E-02  0.0000000000000E+00  0.7570093657337E-02
 0.1955187502326E-02 -0.2037732453718E-02  0.0000000000000E+00  0.7082676160011E-02
 0.2236796980430E-02 -0.2334430934489E-02  0.0000000000000E+00  0.6492692904242E-02
 0.2486477958904E-02 -0.2619717237060E-02  0.0000000000000E+00  0.5791148255965E-02
 0.2686491424214E-02 -0.2882720415058E-02  0.0000000000000E+00  0.4966713613509E-02
 0.2816970939417E-02 -0.3110827975682E-02  0.0000000000000E+00  0.4004739342392E-02
 0.2857648727542E-02 -0.3291157943800E-02  0.0000000000000E+00  0.2887159382358E-02
-0.1834437650388E-04  0.2009761914038E-02  0.0000000000000E+00  0.3403021761778E-02
-0.7070167349399E-04  0.2031885904263E-02  0.0000000000000E+00  0.4117723730696E-02
-0.1477908867013E-03  0.2057699978948E-02  0.0000000000000E+00  0.4742443484236E-02
-0.2366212909018E-03  0.2078062276575E-02  0.0000000000000E+00  0.5270136405519E-02
-0.3256663214234E-03  0.2085408688305E-02  0.0000000000000E+00  0.5703885530178E-02
-0.4063903377035E-03  0.2074846755098E-02  0.0000000000000E+00  0.6053993653744E-02
-0.4737351240990E-03  0.2044374870775E-02  0.0000000000000E+00  0.6334523798742E-02
-0.5257575602605E-03  0.1994422213298E-02  0.0000000000000E+00  0.6560367960053E-02
-0.5628181141780E-03  0.1927067398296E-02  0.0000000000000E+00  0.6745337631222E-02
-0.5866860499731E-03  0.1845247956476E-02  0.0000000000000E+00  0.6901248912619E-02
-0.5997838505613E-03  0.1752138049772E-02  0.0000000000000E+00  0.7037713869956E-02
-0.6046521293894E-03  0.1650744338315E-02  0.0000000000000E+00  0.7162314899822E-02
-0.6036238020061E-03  0.1543693890523E-02  0.0000000000000E+00  0.7280912501896E-02
-0.5986543512143E-03  0.1433157418837E-02  0.0000000000000E+00  0.7397938028197E-02
-0.5912466264516E-03  0.1320846460424E-02  0.0000000000000E+00  0.7516610189529E-02
-0.5824191497016E-03  0.1208046160234E-02  0.0000000000000E+00  0.7639065193195E-02
-0.5727411738168E-03  0.1095952517864E-02  0.0000000000000E+00  0.7766357966371E-02
-0.5623366785836E-03  0.9859107098290E-03  0.0000000000000E+00  0.7898397072226E-02
-0.5507010244845E-03  0.8787043630941E-03  0.0000000000000E+00  0.8034166258545E-02
-0.5365754221638E-03  0.7740023937128E-03  0.0000000000000E+00  0.8172060399821E-02
-0.5180131107364E-03  0.6706209858390E-03  0.0000000000000E+00  0.8309947844560E-02
-0.4924779617629E-03  0.5668134203355E-03  0.0000000000000E+00  0.8445200173962E-02
-0.4569504905968E-03  0.4604431549218E-03  0.0000000000000E+00  0.8574726467310E-02
-0.4080512065354E-03  0.3490901516939E-03  0.0000000000000E+00  0.8694986895689E-02
-0.3421872525102E-03  0.2301362099439E-03  0.0000000000000E+00  0.8801973313637E-02
-0.2557277229420E-03  0.1008595148612E-03  0.0000000000000E+00  0.8891152196419E-02
-0.1452124344024E-03 -0.4145163627649E-04  0.0000000000000E+00  0.8957386153597E-02
-0.7582954630880E-05 -0.1994223961335E-03  0.0000000000000E+00  0.8994897909803E-02
 0.1595571977473E-03 -0.3754728935284E-03  0.0000000000000E+00  0.8997280254022E-02
 0.3576197489075E-03 -0.5715363830255E-03  0.0000000000000E+00  0.8957444663936E-02
 0.5866690309259E-03 -0.7887558251669E-03  0.0000000000000E+00  0.8867569163367E-02
 0.8450522142550E-03 -0.1027223846377E-02  0.0000000000000E+00  0.8719118487968E-02
 0.1129034400774E-02 -0.1285717792302E-02  0.0000000000000E+00  0.8502893609926E-02
 0.1432470633948E-02 -0.1561455882105E-02  0.0000000000000E+00  0.8209121366366E-02
 0.1746576817830E-02 -0.1849928110429E-02  0.0000000000000E+00  0.7827624365798E-02
 0.2059979172443E-02 -0.2144946885998E-02  0.0000000000000E+00  0.7348133168765E-02
 0.2359378739159E-02 -0.2439133035766E-02  0.0000000000000E+00  0.6760610240317E-02
 0.2629834658644E-02 -0.2723856279753E-02  0.0000000000000E+00  0.6054397347845E-02
 0.2854064781389E-02 -0.2988480998296E-02  0.0000000000000E+00  0.5216665787606E-02
 0.3012806268961E-02 -0.3220773562581E-02  0.0000000000000E+00  0.4231814248988E-02
 0.3086136426148E-02 -0.3408028779465E-02  0.0000000000000E+00  0.3081540309044E-02
-0.1255747888389E-04  0.1564406777975E-02  0.0000000000000E+00  0.3396382336532E-02
-0.5201076093148E-04  0.1579582464941E-02  0.0000000000000E+00  0.4110349634965E-02
-0.1144689689342E-03  0.1598649148193E-02  0.0000000000000E+00  0.4740077936542E-02
-0.1887104329227E-03  0.1613698097909E-02  0.0000000000000E+00  0.5277929951335E-02
-0.2646278355123E-03  0.1618067898985E-02  0.0000000000000E+00  0.5725450806709E-02
-0.3345588826547E-03  0.1607308886690E-02  0.0000000000000E+00  0.6091015220975E-02
-0.3937800456121E-03  0.1579440320853E-02  0.0000000000000E+00  0.6386900838520E-02
-0.4402822009314E-03  0.1534628008794E-02  0.0000000000000E+00  0.6626681998673E-02
-0.4741323586298E-03  0.1474557406335E-02  0.0000000000000E+00  0.6823409745041E-02
-0.4967223692482E-03  0.1401761246112E-02  0.0000000000000E+00  0.6988622785910E-02
-0.5101035589183E-03  0.1319063466921E-02  0.0000000000000E+00  0.7131994256762E-02
-0.5164930646513E-03  0.1229197728349E-02  0.0000000000000E+00  0.7261360079464E-02
-0.5179562120731E-03  0.1134590613067E-02  0.0000000000000E+00  0.7382913966544E-02
-0.5162275313429E-03  0.1037267430755E-02  0.0000000000000E+00  0.7501429831086E-02
-0.5126207265190E-03  0.9388295873389E-03  0.0000000000000E+00  0.7620445873544E-02
-0.5079839582985E-03  0.8404702748605E-03  0.0000000000000E+00  0.7742390317081E-02
-0.5027235972931E-03  0.7432785514831E-03  0.0000000000000E+00  0.7868612851099E-02
-0.4968048035875E-03  0.6484569352357E-03  0.0000000000000E+00  0.7999354604389E-02
-0.4895810332303E-03  0.5566612979213E-03  0.0000000000000E+00  0.8133943569218E-02
-0.4796782736383E-03  0.4674871185529E-03  0.0000000000000E+00  0.8271095095394E-02
-0.4650566411520E-03  0.3797105214043E-03  0.0000000000000E+00  0.8408977186313E-02
-0.4431009149763E-03  0.2915543746861E-03  0.0000000000000E+00  0.8545244157426E-02
-0.4107172621631E-03  0.2008455984313E-03  0.0000000000000E+00  0.8677068652001E-02
-0.3644471757230E-03  0.1051115361538E-03  0.0000000000000E+00  0.8801149804129E-02
-0.3006060836760E-03  0.1659597981464E-05  0.0000000000000E+00  0.8913686576225E-02
-0.2154529381639E-03 -0.1123311067519E-03  0.0000000000000E+00  0.9010310247260E-02
-0.1053959256534E-03 -0.2396962411905E-03  0.0000000000000E+00  0.9085990137820E-02
 0.3277584505545E-04 -0.3832029886615E-03  0.0000000000000E+00  0.9134967252229E-02
 0.2016291923118E-03 -0.5454237907751E-03  0.0000000000000E+00  0.9150726605025E-02
 0.4027624069866E-03 -0.7284551207317E-03  0.0000000000000E+00  0.9125920427285E-02
 0.6364409770674E-03 -0.9336134800377E-03  0.0000000000000E+00  0.9052293928841E-02
 0.9012251754302E-03 -0.1161170074532E-02  0.0000000000000E+00  0.8920683648165E-02
 0.1193603021755E-02 -0.1410081080106E-02  0.0000000000000E+00  0.8721058345813E-02
 0.1507660713222E-02 -0.1677739709297E-02  0.0000000000000E+00  0.8442616938945E-02
 0.1834851922123E-02 -0.1959802539312E-02  0.0000000000000E+00  0.8073981007009E-02
 0.2164044553412E-02 -0.2250229784721E-02  0.0000000000000E+00  0.7603525232050E-02
 0.2482185622898E-02 -0.2541751292582E-02  0.0000000000000E+00  0.7019679590855E-02
 0.2774629236218E-02 -0.2825850916134E-02  0.0000000000000E+00  0.6310170359429E-02
 0.3024502090874E-02 -0.3092106183596E-02  0.0000000000000E+00  0.5460761463673E-02
 0.3213020879638E-02 -0.3328567366982E-02  0.0000000000000E+00  0.4454915823027E-02
 0.3320590773701E-02 -0.3522677037131E-02  0.0000000000000E+00  0.3273806190541E-02
-0.7170287514165E-05  0.1122535621714E-02  0.0000000000000E+00  0.3393397105371E-02
-0.3455977481931E-04  0.1131213942354E-02  0.0000000000000E+00  0.4106463638221E-02
-0.8320757392444E-04  0.1143883328166E-02  0.0000000000000E+00  0.4740213422850E-02
-0.1434844131570E-03  0.1153752934238E-02  0.0000000000000E+00  0.5286562939611E-02
-0.2065989824339E-03  0.1155013569962E-02  0.0000000000000E+00  0.5745801841584E-02
-0.2657511111641E-03  0.1143681594779E-02  0.0000000000000E+00  0.6124680003517E-02
-0.3166111115176E-03  0.1117870787044E-02  0.0000000000000E+00  0.6433922750757E-02
-0.3571948196330E-03  0.1077573004429E-02  0.0000000000000E+00  0.6685914197638E-02
-0.3873649416547E-03  0.1024158132547E-02  0.0000000000000E+00  0.6892978151203E-02
-0.4082042902843E-03  0.9598064966789E-03  0.0000000000000E+00  0.7066348055075E-02
-0.4214355052470E-03  0.8870178719794E-03  0.0000000000000E+00  0.7215702859700E-02
-0.4289722673926E-03  0.8082583013363E-03  0.0000000000000E+00  0.7349073485320E-02
-0.4326167909592E-03  0.7257462699175E-03  0.0000000000000E+00  0.7472938151008E-02
-0.4338786753418E-03  0.6413480540733E-03  0.0000000000000E+00  0.7592379073714E-02
-0.4338757380981E-03  0.5565404992409E-03  0.0000000000000E+00  0.7711233452174E-02
-0.4332800242250E-03  0.4724129153077E-03  0.0000000000000E+00  0.7832211281640E-02
-0.4323319989999E-03  0.3899395244400E-03  0.0000000000000E+00  0.7956950612772E-02
-0.4308376703366E-03  0.3101763441827E-03  0.0000000000000E+00  0.8086016636175E-02
-0.4280097869470E-03  0.2336507651477E-03  0.0000000000000E+00  0.8219072699596E-02
-0.4223605388103E-03  0.1598862116184E-03  0.0000000000000E+00  0.8355149497578E-02
-0.4117577115210E-03  0.8762163244509E-04  0.0000000000000E+00  0.8492714061088E-02
-0.3935068285018E-03  0.1505365497093E-04  0.0000000000000E+00  0.8629707609313E-02
-0.3644386286007E-03 -0.6002188890538E-04  0.0000000000000E+00  0.8763575335064E-02
-0.3210135863877E-03 -0.1401236962857E-03  0.0000000000000E+00  0.8891268391809E-02
-0.2594520879539E-03 -0.2280116116982E-03  0.0000000000000E+00  0.9009208476364E-02
-0.1758973691466E-03 -0.3265989773865E-03  0.0000000000000E+00  0.9113208037969E-02
-0.6661686736342E-04 -0.4388407289903E-03  0.0000000000000E+00  0.9198358514478E-02
 0.7176683756616E-04 -0.5676448109071E-03  0.0000000000000E+00  0.9258933063833E-02
 0.2420110707213E-03 -0.7157393954397E-03  0.0000000000000E+00  0.9288321115851E-02
 0.4459274373698E-03 -0.8853931706631E-03  0.0000000000000E+00  0.9278924851447E-02
 0.6840154854452E-03 -0.1078110967679E-02  0.0000000000000E+00  0.9222061788321E-02
 0.9550861933173E-03 -0.1294362445063E-02  0.0000000000000E+00  0.9107941192605E-02
 0.1255890298549E-02 -0.1533305904026E-02  0.0000000000000E+00  0.8925696504960E-02
 0.1580783844393E-02 -0.1792533793739E-02  0.0000000000000E+00  0.8663492185064E-02
 0.1921492301679E-02 -0.2067891637445E-02  0.0000000000000E+00  0.8308740415204E-02
 0.2267151538694E-02 -0.2353505693727E-02  0.0000000000000E+00  0.7848454364368E-02
 0.2604969343748E-02 -0.2642227877708E-02  0.0000000000000E+00  0.7269540685969E-02
 0.2920587719054E-02 -0.2925658284103E-02  0.0000000000000E+00  0.6558146272482E-02
 0.3197493405487E-02 -0.3193558734366E-02  0.0000000000000E+00  0.5698677104596E-02
 0.3417296503371E-02 -0.3434197825965E-02  0.0000000000000E+00  0.4673640099117E-02
 0.3560726914852E-02 -0.3635161212947E-02  0.0000000000000E+00  0.3463539876581E-02
-0.2121468651523E-05  0.6837676026934E-03  0.0000000000000E+00  0.3393823053729E-02
-0.1816128195619E-04  0.6863317947926E-03  0.0000000000000E+00  0.4105868211061E-02
-0.5370345930239E-04  0.6929058918721E-03  0.0000000000000E+00  0.4742778734137E-02
-0.1005624228787E-03  0.6977189739631E-03  0.0000000000000E+00  0.5296139594471E-02
-0.1511713521258E-03  0.6957670132061E-03  0.0000000000000E+00  0.5765218456654E-02
-0.1995752980317E-03  0.6835456136202E-03  0.0000000000000E+00  0.6155402019202E-02
-0.2418816890877E-03  0.6593202490929E-03  0.0000000000000E+00  0.6476076510527E-02
-0.2762049963336E-03  0.6229828329836E-03  0.0000000000000E+00  0.6738565221706E-02
-0.3022797374211E-03  0.5756551740557E-03  0.0000000000000E+00  0.6954513314955E-02
-0.3209409269892E-03  0.5192134169857E-03  0.0000000000000E+00  0.7134840399803E-02
-0.3336228082823E-03  0.4558594951757E-03  0.0000000000000E+00  0.7289192800997E-02
-0.3419565607925E-03  0.3877999090479E-03  0.0000000000000E+00  0.7425749522454E-02
-0.3474881386192E-03  0.3170409654684E-03  0.0000000000000E+00  0.7551230834060E-02
-0.3515008857722E-03  0.2452796845352E-03  0.0000000000000E+00  0.7670994921135E-02
-0.3549122580815E-03  0.1738567341496E-03  0.0000000000000E+00  0.7789156431930E-02
-0.3582140062278E-03  0.1037476669252E-03  0.0000000000000E+00  0.7908694149832E-02
-0.3614785164705E-03  0.3580528011788E-04  0.0000000000000E+00  0.8031524796349E-02
-0.3643526251415E-03 -0.2906404558226E-04  0.0000000000000E+00  0.8158526110062E-02
-0.3659097100386E-03 -0.9046170885729E-04  0.0000000000000E+00  0.8289685514883E-02
-0.3645498762406E-03 -0.1489345387060E-03  0.0000000000000E+00  0.8424342068879E-02
-0.3580499180607E-03 -0.2057773708868E-03  0.0000000000000E+00  0.8561259636337E-02
-0.3436366744750E-03 -0.2628151225820E-03  0.0000000000000E+00  0.8698669008651E-02
-0.3180651211186E-03 -0.3222771956735E-03  0.0000000000000E+00  0.8834295475621E-02
-0.2777132894651E-03 -0.3867215871218E-03  0.0000000000000E+00  0.8965354126770E-02
-0.2187035015550E-03 -0.4589683962929E-03  0.0000000000000E+00  0.9088504542498E-02
-0.1370577186733E-03 -0.5420172098438E-03  0.0000000000000E+00  0.9199757235227E-02
-0.2889328220002E-04 -0.6389381900525E-03  0.0000000000000E+00  0.9294342894814E-02
 0.1093482410278E-03 -0.7527795812648E-03  0.0000000000000E+00  0.9366583640803E-02
 0.2806354161231E-03 -0.8864296494819E-03  0.0000000000000E+00  0.9409789470301E-02
 0.4870206002571E-03 -0.1042339360525E-02  0.0000000000000E+00  0.9416126334176E-02
 0.7292710931941E-03 -0.1222217831072E-02  0.0000000000000E+00  0.9376493902300E-02
 0.1006487043833E-02 -0.1426754286320E-02  0.0000000000000E+00  0.9280479218092E-02
 0.1315722597719E-02 -0.1655333723525E-02  0.0000000000000E+00  0.9116380094561E-02
 0.1651643157566E-02 -0.1905773312138E-02  0.0000000000000E+00  0.8871320891007E-02
 0.2006280549206E-02 -0.2174130935594E-02  0.0000000000000E+00  0.8531494843448E-02
 0.2369064452844E-02 -0.2454717465174E-02  0.0000000000000E+00  0.8082545151467E-02
 0.2727475626811E-02 -0.2740518008992E-02  0.0000000000000E+00  0.7509858999741E-02
 0.3067432837334E-02 -0.3023246135045E-02  0.0000000000000E+00  0.6798025024604E-02
 0.3372737524189E-02 -0.3292819428084E-02  0.0000000000000E+00  0.5930110441176E-02
 0.3625327661078E-02 -0.3537677630065E-02  0.0000000000000E+00  0.4887638410196E-02
 0.3806242456948E-02 -0.3745543524960E-02  0.0000000000000E+00  0.3650390102623E-02
 0.2644205191249E-05  0.2477447774357E-03  0.0000000000000E+00  0.3397455841247E-02
-0.2646256483982E-05  0.2445163118969E-03  0.0000000000000E+00  0.4108395866945E-02
-0.2568132173967E-04  0.2452512141077E-03  0.0000000000000E+00  0.4747710975910E-02
-0.5959410955071E-04  0.2451154346947E-03  0.0000000000000E+00  0.5306744856166E-02
-0.9796199091628E-04  0.2398671574674E-03  0.0000000000000E+00  0.5783937427698E-02
-0.1356553951797E-03  0.2264874904407E-03  0.0000000000000E+00  0.6183538879000E-02
-0.1692500591992E-03  0.2034377254791E-03  0.0000000000000E+00  0.6513790956620E-02
-0.1970184085906E-03  0.1705706640320E-03  0.0000000000000E+00  0.6785084700237E-02
-0.2186311801546E-03  0.1288180750233E-03  0.0000000000000E+00  0.7008446354288E-02
-0.2347296663603E-03  0.7979543796377E-04  0.0000000000000E+00  0.7194488733802E-02
-0.2464970524583E-03  0.2543235597834E-04  0.0000000000000E+00  0.7352801573291E-02
-0.2553029330633E-03 -0.3231453957788E-04  0.0000000000000E+00  0.7491675609481E-02
-0.2624453617998E-03 -0.9165253536327E-04  0.0000000000000E+00  0.7618036785648E-02
-0.2689821153784E-03 -0.1510612732611E-03  0.0000000000000E+00  0.7737489141815E-02
-0.2756276720416E-03 -0.2093454224410E-03  0.0000000000000E+00  0.7854402669373E-02
-0.2826906853888E-03 -0.2656511843239E-03  0.0000000000000E+00  0.7972009750101E-02
-0.2900741008293E-03 -0.3192525179514E-03  0.0000000000000E+00  0.8092493257166E-02
-0.2972659409898E-03 -0.3693950802184E-03  0.0000000000000E+00  0.8217029267395E-02
-0.3032017840135E-03 -0.4158088942481E-03  0.0000000000000E+00  0.8345915759403E-02
-0.3061717207092E-03 -0.4591087819191E-03  0.0000000000000E+00  0.8478791361355E-02
-0.3038634730502E-03 -0.5006194476498E-03  0.0000000000000E+00  0.8614713034123E-02
-0.2934265189152E-03 -0.5421821100452E-03  0.0000000000000E+00  0.8752202392389E-02
-0.2715405244013E-03 -0.5860450856738E-03  0.0000000000000E+00  0.8889271093719E-02
-0.2345003335010E-03 -0.6347986459540E-03  0.0000000000000E+00  0.9023409150740E-02
-0.1783276579285E-03 -0.6913160915083E-03  0.0000000000000E+00  0.9151528911061E-02
-0.9891786691696E-04 -0.7586772210340E-03  0.0000000000000E+00  0.9269856547444E-02
 0.7771119323818E-05 -0.8400637463971E-03  0.0000000000000E+00  0.9373780997771E-02
 0.1454934043853E-03 -0.9386642790911E-03  0.0000000000000E+00  0.9457693185100E-02
 0.3174498928428E-03 -0.1057532223023E-02  0.0000000000000E+00  0.9514843875032E-02
 0.5259617008218E-03 -0.1199311732867E-02  0.0000000000000E+00  0.9537181315884E-02
 0.7720983551026E-03 -0.1365933194998E-02  0.0000000000000E+00  0.9515201976103E-02
 0.1055288634131E-02 -0.1558327723688E-02  0.0000000000000E+00  0.9437879920130E-02
 0.1372931939216E-02 -0.1776132941802E-02  0.0000000000000E+00  0.9292679864302E-02
 0.1720043732824E-02 -0.2017417637162E-02  0.0000000000000E+00  0.9065681275472E-02
 0.2088997655670E-02 -0.2278476699353E-02  0.0000000000000E+00  0.8741847433222E-02
 0.2469543054076E-02 -0.2553824647505E-02  0.0000000000000E+00  0.8305439181197E-02
 0.2849444466711E-02 -0.2836589766918E-02  0.0000000000000E+00  0.7740320374077E-02
 0.3214884891319E-02 -0.3118594290156E-02  0.0000000000000E+00  0.7029527278973E-02
 0.3549938817481E-02 -0.3389885436655E-02  0.0000000000000E+00  0.6154786858766E-02
 0.3836815274195E-02 -0.3639036270611E-02  0.0000000000000E+00  0.5096611889749E-02
 0.4056828235942E-02 -0.3853890671256E-02  0.0000000000000E+00  0.3834051178978E-02
 0.7176889639255E-05 -0.1858713007684E-03  0.0000000000000E+00  0.3404126378544E-02
 0.1213899784978E-04 -0.1946276972928E-03  0.0000000000000E+00  0.4113907371460E-02
 0.1110650997879E-05 -0.1995197185287E-03  0.0000000000000E+00  0.4754957472892E-02
-0.2025522991396E-04 -0.2045146731905E-03  0.0000000000000E+00  0.5318450316780E-02
-0.4661050043597E-04 -0.2131306447945E-03  0.0000000000000E+00  0.5802160864656E-02
-0.7363015058418E-04 -0.2278994475179E-03  0.0000000000000E+00  0.6209400196302E-02
-0.9838032573799E-04 -0.2501301550674E-03  0.0000000000000E+00  0.6547443261667E-02
-0.1193388611823E-03 -0.2799594500938E-03  0.0000000000000E+00  0.6825874871177E-02
-0.1361667015307E-03 -0.3165962902824E-03  0.0000000000000E+00  0.7055169972312E-02
-0.1493584897719E-03 -0.3586473372474E-03  0.0000000000000E+00  0.7245654109959E-02
-0.1598802088236E-03 -0.4044314231682E-03  0.0000000000000E+00  0.7406848746067E-02
-0.1688599627996E-03 -0.4522314219989E-03  0.0000000000000E+00  0.7547129403500E-02
-0.1773570229122E-03 -0.5004677365480E-03  0.0000000000000E+00  0.7673597029196E-02
-0.1862057137561E-03 -0.5478018178869E-03  0.0000000000000E+00  0.7792073738293E-02
-0.1959163914635E-03 -0.5931907274620E-03  0.0000000000000E+00  0.7907162555367E-02
-0.2066129820195E-03 -0.6359087257470E-03  0.0000000000000E+00  0.8022332495102E-02
-0.2180283842971E-03 -0.6753606661233E-03  0.0000000000000E+00  0.8140017626429E-02
-0.2294925816200E-03 -0.7109458955433E-03  0.0000000000000E+00  0.8261675738939E-02
-0.2398052327128E-03 -0.7425223820990E-03  0.0000000000000E+00  0.8387899746190E-02
-0.2471489049708E-03 -0.7707701863160E-03  0.0000000000000E+00  0.8518617287648E-02
-0.2491247822294E-03 -0.7970394189076E-03  0.0000000000000E+00  0.8653173165607E-02
-0.2428070840897E-03 -0.8231817834850E-03  0.0000000000000E+00  0.8790379713538E-02
-0.2248014615535E-03 -0.8514576672357E-03  0.0000000000000E+00  0.8928540070118E-02
-0.1913196111228E-03 -0.8844821903409E-03  0.0000000000000E+00  0.9065429386926E-02
-0.1382807291549E-03 -0.9251745699428E-03  0.0000000000000E+00  0.9198227560243E-02
-0.6144873226799E-04 -0.9766887289898E-03  0.0000000000000E+00  0.9323394866268E-02
 0.4338694212369E-04 -0.1042314357136E-02  0.0000000000000E+00  0.9436499461381E-02
 0.1801906630085E-03 -0.1125380754229E-02  0.0000000000000E+00  0.9532024046273E-02
 0.3524169438447E-03 -0.1229111926357E-02  0.0000000000000E+00  0.9603184510863E-02
 0.5626841176394E-03 -0.1356356759583E-02  0.0000000000000E+00  0.9641734762130E-02
 0.8123991919428E-03 -0.1509284784884E-02  0.0000000000000E+00  0.9637787664461E-02
 0.1101360162416E-02 -0.1689092507510E-02  0.0000000000000E+00  0.9579717899124E-02
 0.1427354969920E-02 -0.1895697555536E-02  0.0000000000000E+00  0.9454162584295E-02
 0.1785791418251E-02 -0.2127448842039E-02  0.0000000000000E+00  0.9246152371725E-02
 0.2169421798423E-02 -0.2380904393785E-02  0.0000000000000E+00  0.8939407825347E-02
 0.2568341635551E-02 -0.2650802262573E-02  0.0000000000000E+00  0.8516790182911E-02
 0.2970609867022E-02 -0.2930423724144E-02  0.0000000000000E+00  0.7960627104506E-02
 0.3362661285663E-02 -0.3211694582576E-02  0.0000000000000E+00  0.7252394026370E-02
 0.3728804338087E-02 -0.3484767906748E-02  0.0000000000000E+00  0.6372460966584E-02
 0.4051463905304E-02 -0.3738315613615E-02  0.0000000000000E+00  0.5300304573615E-02
 0.4312175418818E-02 -0.3960274730632E-02  0.0000000000000E+00  0.4014251820731E-02
 0.1152252623326E-04 -0.6174024765555E-03  0.0000000000000E+00  0.3413697952683E-02
 0.2633541603437E-04 -0.6314745782433E-03  0.0000000000000E+00  0.4122290135140E-02
 0.2690455938746E-04 -0.6418231200186E-03  0.0000000000000E+00  0.4764477080703E-02
 0.1775618261893E-04 -0.6516075106441E-03  0.0000000000000E+00  0.5331318820179E-02
 0.3223723086747E-05 -0.6636559604847E-03  0.0000000000000E+00  0.5820062964307E-02
-0.1315198509294E-04 -0.6800146216428E-03  0.0000000000000E+00  0.6233254609516E-02
-0.2894285108178E-04 -0.7017372286184E-03  0.0000000000000E+00  0.6577364574841E-02
-0.4286979757680E-04 -0.7289098331263E-03  0.0000000000000E+00  0.6861293988726E-02
-0.5462873997758E-04 -0.7608407820486E-03  0.0000000000000E+00  0.7095039589317E-02
-0.6460801208727E-04 -0.7963254446194E-03  0.0000000000000E+00  0.7288669057183E-02
-0.7358641623512E-04 -0.8339094052718E-03  0.0000000000000E+00  0.7451634172772E-02
-0.8246921558755E-04 -0.8721047354424E-03  0.0000000000000E+00  0.7592376499088E-02
-0.9208613512127E-04 -0.9095432608105E-03  0.0000000000000E+00  0.7718146510542E-02
-0.1030510654154E-03 -0.9450716445414E-03  0.0000000000000E+00  0.7834958907517E-02
-0.1156702060272E-03 -0.9778046308999E-03  0.0000000000000E+00  0.7947627456040E-02
-0.1298820968115E-03 -0.1007149342016E-02  0.0000000000000E+00  0.8059839393086E-02
-0.1452496726856E-03 -0.1032644545674E-02  0.0000000000000E+00  0.8174262915795E-02
-0.1609460878832E-03 -0.1053844185115E-02  0.0000000000000E+00  0.8292618730190E-02
-0.1756373266785E-03 -0.1070732950273E-02  0.0000000000000E+00  0.8415777102314E-02
-0.1874013969104E-03 -0.1084052863737E-02  0.0000000000000E+00  0.8543942409353E-02
-0.1937561304635E-03 -0.1095174412738E-02  0.0000000000000E+00  0.8676740543115E-02
-0.1917034050780E-03 -0.1105953367935E-02  0.0000000000000E+00  0.8813273137770E-02
-0.1777770498779E-03 -0.1118654758904E-02  0.0000000000000E+00  0.8952138850688E-02
-0.1481065433647E-03 -0.1135910618933E-02  0.0000000000000E+00  0.9091407528117E-02
-0.9850746407880E-04 -0.1160678398236E-02  0.0000000000000E+00  0.9228541411143E-02
-0.2460808217386E-04 -0.1196179781141E-02  0.0000000000000E+00  0.9360254272905E-02
 0.7797920906749E-04 -0.1245808712961E-02  0.0000000000000E+00  0.9482316523762E-02
 0.2134433417382E-03 -0.1313035486366E-02  0.0000000000000E+00  0.9589328841762E-02
 0.3855136783358E-03 -0.1401260332086E-02  0.0000000000000E+00  0.9674500873090E-02
 0.5971345531396E-03 -0.1513548821199E-02  0.0000000000000E+00  0.9729420546245E-02
 0.8500864766365E-03 -0.1652328253389E-02  0.0000000000000E+00  0.9743841887630E-02
 0.1144578512098E-02 -0.1819085175311E-02  0.0000000000000E+00  0.9705558391666E-02
 0.1478832149258E-02 -0.2014046147377E-02  0.0000000000000E+00  0.9600388270331E-02
 0.1848691827607E-02 -0.2235870544114E-02  0.0000000000000E+00  0.9412310404898E-02
 0.2247327262635E-02 -0.2481407479861E-02  0.0000000000000E+00  0.9123787923428E-02
 0.2665208093850E-02 -0.2745639802360E-02  0.0000000000000E+00  0.8716259687873E-02
 0.3090699131175E-02 -0.3022012325672E-02  0.0000000000000E+00  0.8170494660137E-02
 0.3510475418265E-02 -0.3302550029241E-02  0.0000000000000E+00  0.7466385472052E-02
 0.3909041528595E-02 -0.3577489660964E-02  0.0000000000000E+00  0.6582915597824E-02
 0.4268980739986E-02 -0.3835567322172E-02  0.0000000000000E+00  0.5498497199275E-02
 0.4571980390091E-02 -0.4064774060564E-02  0.0000000000000E+00  0.4190748854843E-02
 0.1572356229012E-04 -0.1047156486239E-02  0.0000000000000E+00  0.3426063816681E-02
 0.4007333944988E-04 -0.1066380997812E-02  0.0000000000000E+00  0.4133456789785E-02
 0.5191603459297E-04 -0.1082055746160E-02  0.0000000000000E+00  0.4776241067845E-02
 0.5472321671297E-04 -0.1096581128537E-02  0.0000000000000E+00  0.5345408013418E-02
 0.5186409958460E-04 -0.1112124702300E-02  0.0000000000000E+00  0.5837795419779E-02
 0.4611429027697E-04 -0.1130250100665E-02  0.0000000000000E+00  0.6255335587505E-02
 0.3938567347037E-04 -0.1151736385950E-02  0.0000000000000E+00  0.6603844858709E-02
 0.3268461314151E-04 -0.1176586949471E-02  0.0000000000000E+00  0.6891659405936E-02
 0.2624361895120E-04 -0.1204175453357E-02  0.0000000000000E+00  0.7128374539198E-02
 0.1974673579569E-04 -0.1233457615947E-02  0.0000000000000E+00  0.7323837218916E-02
 0.1257637454768E-04 -0.1263186736017E-02  0.0000000000000E+00  0.7487436599437E-02
 0.4033397296987E-05 -0.1292094436023E-02  0.0000000000000E+00  0.7627668536698E-02
-0.6491190309821E-05 -0.1319021637263E-02  0.0000000000000E+00  0.7751912135718E-02
-0.1939430553483E-04 -0.1343002335549E-02  0.0000000000000E+00  0.7866351310105E-02
-0.3477873831359E-04 -0.1363312800798E-02  0.0000000000000E+00  0.7975988399202E-02
-0.5239776511268E-04 -0.1379496501846E-02  0.0000000000000E+00  0.8084709245634E-02
-0.7164505322194E-04 -0.1391228104651E-02  0.0000000000000E+00  0.8195397257292E-02
-0.9153857780414E-04 -0.1398216322383E-02  0.0000000000000E+00  0.8310015299526E-02
-0.1106132985604E-03 -0.1400570782524E-02  0.0000000000000E+00  0.8429691570437E-02
-0.1268461441279E-03 -0.1399091649557E-02  0.0000000000000E+00  0.8554893247370E-02
-0.1376754680716E-03 -0.1395164171637E-02  0.0000000000000E+00  0.8685519080558E-02
-0.1400345740555E-03 -0.1390641139523E-02  0.0000000000000E+00  0.8820957296663E-02
-0.1303886229886E-03 -0.1387784156217E-02  0.0000000000000E+00  0.8960105081122E-02
-0.1047867998442E-03 -0.1389233619164E-02  0.0000000000000E+00  0.9101335937632E-02
-0.5894092361136E-04 -0.1397976971143E-02  0.0000000000000E+00  0.9242409334633E-02
 0.1165970364825E-04 -0.1417296809593E-02  0.0000000000000E+00  0.9380312952147E-02
 0.1115875591980E-03 -0.1450687213821E-02  0.0000000000000E+00  0.9511044619702E-02
 0.2452699013592E-03 -0.1501759487480E-02  0.0000000000000E+00  0.9629352502441E-02
 0.4167319455604E-03 -0.1574095600314E-02  0.0000000000000E+00  0.9728473044793E-02
 0.6292730025481E-03 -0.1670989944059E-02  0.0000000000000E+00  0.9799861768371E-02
 0.8850838552148E-03 -0.1795146808528E-02  0.0000000000000E+00  0.9832944082607E-02
 0.1184827877064E-02 -0.1948368542755E-02  0.0000000000000E+00  0.9814955434171E-02
 0.1527207141736E-02 -0.2131221215325E-02  0.0000000000000E+00  0.9730907346679E-02
 0.1908549502448E-02 -0.2342707075972E-02  0.0000000000000E+00  0.9563725145656E-02
 0.2322483450508E-02 -0.2579996498994E-02  0.0000000000000E+00  0.9294597760028E-02
 0.2759882916304E-02 -0.2838340367800E-02  0.0000000000000E+00  0.8903512980348E-02
 0.3209431825206E-02 -0.3111359100852E-02  0.0000000000000E+00  0.8369648574473E-02
 0.3658035289286E-02 -0.3391173697649E-02  0.0000000000000E+00  0.7671279235941E-02
 0.4090356441076E-02 -0.3668083282470E-02  0.0000000000000E+00  0.6785959633654E-02
 0.4489075354501E-02 -0.3930851364119E-02  0.0000000000000E+00  0.5691002207831E-02
 0.4835948119946E-02 -0.4167474106261E-02  0.0000000000000E+00  0.4363323697808E-02
 0.1981956301194E-04 -0.1475429135667E-02  0.0000000000000E+00  0.3441145175972E-02
 0.5347436858192E-04 -0.1499688709500E-02  0.0000000000000E+00  0.4147343943450E-02
 0.7634705151205E-04 -0.1520597854382E-02  0.0000000000000E+00  0.4790233686903E-02
 0.9091312054884E-04 -0.1539837971810E-02  0.0000000000000E+00  0.5360773068893E-02
 0.9961932976742E-04 -0.1558940595927E-02  0.0000000000000E+00  0.5855491715122E-02
 0.1044928590803E-03 -0.1578990774903E-02  0.0000000000000E+00  0.6275846166506E-02
 0.1069224367526E-03 -0.1600478569927E-02  0.0000000000000E+00  0.6627136955114E-02
 0.1076187336256E-03 -0.1623299586782E-02  0.0000000000000E+00  0.6917250274508E-02
 0.1067133147436E-03 -0.1646865348186E-02  0.0000000000000E+00  0.7155459226311E-02
 0.1039347513720E-03 -0.1670268557935E-02  0.0000000000000E+00  0.7351433185338E-02
 0.9880488494157E-04 -0.1692454148101E-02  0.0000000000000E+00  0.7514512586972E-02
 0.9081630159544E-04 -0.1712364792951E-02  0.0000000000000E+00  0.7653241659348E-02
 0.7957278949330E-04 -0.1729048040092E-02  0.0000000000000E+00  0.7775111139490E-02
 0.6489089802342E-04 -0.1741726461619E-02  0.0000000000000E+00  0.7886452626478E-02
 0.4687001052756E-04 -0.1749840535634E-02  0.0000000000000E+00  0.7992434993937E-02
 0.2594138621137E-04 -0.1753072419440E-02  0.0000000000000E+00  0.8097122024973E-02
 0.2879391591215E-05 -0.1751233708110E-02  0.0000000000000E+00  0.8203591774776E-02
-0.2118085216191E-04 -0.1744187348059E-02  0.0000000000000E+00  0.8314026727252E-02
-0.4464636209556E-04 -0.1732165551608E-02  0.0000000000000E+00  0.8429791866829E-02
-0.6539701894615E-04 -0.1716022248006E-02  0.0000000000000E+00  0.8551601618026E-02
-0.8079629146296E-04 -0.1697151231020E-02  0.0000000000000E+00  0.8679617891230E-02
-0.8771356716386E-04 -0.1677394611187E-02  0.0000000000000E+00  0.8813511513209E-02
-0.8254951602493E-04 -0.1659001803029E-02  0.0000000000000E+00  0.8952480194773E-02
-0.6127605385031E-04 -0.1644612309656E-02  0.0000000000000E+00  0.9095209492866E-02
-0.1950221451985E-04 -0.1637234619629E-02  0.0000000000000E+00  0.9239771099928E-02
 0.4742391461454E-04 -0.1640204708152E-02  0.0000000000000E+00  0.9383448055409E-02
 0.1442665378082E-03 -0.1657112023089E-02  0.0000000000000E+00  0.9522492937999E-02
 0.2757042247473E-03 -0.1691708340272E-02  0.0000000000000E+00  0.9651834290085E-02
 0.4460785919749E-03 -0.1747762500339E-02  0.0000000000000E+00  0.9764772947695E-02
 0.6590729399897E-03 -0.1828809790201E-02  0.0000000000000E+00  0.9852671048443E-02
 0.9173258026859E-03 -0.1937851140070E-02  0.0000000000000E+00  0.9904661414725E-02
 0.1221999618587E-02 -0.2077031521760E-02  0.0000000000000E+00  0.9907449967548E-02
 0.1572326414461E-02 -0.2247288837273E-02  0.0000000000000E+00  0.9845257737019E-02
 0.1965167226793E-02 -0.2448002975294E-02  0.0000000000000E+00  0.9699956211034E-02
 0.2394653951448E-02 -0.2676698418401E-02  0.0000000000000E+00  0.9451441385896E-02
 0.2852098081107E-02 -0.2928919931486E-02  0.0000000000000E+00  0.9078215143510E-02
 0.3326518513577E-02 -0.3198477811779E-02  0.0000000000000E+00  0.8557821276268E-02
 0.3805041992000E-02 -0.3477587521344E-02  0.0000000000000E+00  0.7866868048443E-02
 0.4272452299196E-02 -0.3756589593901E-02  0.0000000000000E+00  0.6981425416419E-02
 0.4711459755218E-02 -0.4024235142824E-02  0.0000000000000E+00  0.5877659925895E-02
 0.5103794527608E-02 -0.4268468071019E-02  0.0000000000000E+00  0.4531780382589E-02
 0.2384773969470E-04 -0.1902506231025E-02  0.0000000000000E+00  0.3458889518675E-02
 0.6665296932810E-04 -0.1931727002985E-02  0.0000000000000E+00  0.4163911107190E-02
 0.1003884010269E-03 -0.1957815858312E-02  0.0000000000000E+00  0.4806452521672E-02
 0.1265800429950E-03 -0.1981767201841E-02  0.0000000000000E+00  0.5377468744406E-02
 0.1467857259693E-03 -0.2004496662394E-02  0.0000000000000E+00  0.5873270486435E-02
 0.1622983473642E-03 -0.2026614735131E-02  0.0000000000000E+00  0.6294962745267E-02
 0.1739789293975E-03 -0.2048312092965E-02  0.0000000000000E+00  0.6647459920155E-02
 0.1822249915552E-03 -0.2069357379214E-02  0.0000000000000E+00  0.6938309825575E-02
 0.1870442439962E-03 -0.2089178585886E-02  0.0000000000000E+00  0.7176544163611E-02
 0.1881877002408E-03 -0.2106986926117E-02  0.0000000000000E+00  0.7371702430870E-02
 0.1852991072574E-03 -0.2121906064684E-02  0.0000000000000E+00  0.7533095671056E-02
 0.1780509830416E-03 -0.2133082761674E-02  0.0000000000000E+00  0.7669315261839E-02
 0.1662531831355E-03 -0.2139768987918E-02  0.0000000000000E+00  0.7787949748126E-02
 0.1499325056507E-03 -0.2141376605620E-02  0.0000000000000E+00  0.7895458377747E-02
 0.1293890343558E-03 -0.2137512076223E-02  0.0000000000000E+00  0.7997154570658E-02
 0.1052373892182E-03 -0.2127997602562E-02  0.0000000000000E+00  0.8097258423687E-02
 0.7841827298638E-04 -0.2112781868061E-02  0.0000000000000E+00  0.8199020582807E-02
 0.5021740222350E-04 -0.2091880833423E-02  0.0000000000000E+00  0.8304818973321E-02
 0.2235217223961E-04 -0.2065646376405E-02  0.0000000000000E+00  0.8416232595564E-02
-0.2964857701793E-05 -0.2034981251824E-02  0.0000000000000E+00  0.8534205997673E-02
-0.2302761281170E-04 -0.2001280976261E-02  0.0000000000000E+00  0.8659153090289E-02
-0.3464715005130E-04 -0.1966368607114E-02  0.0000000000000E+00  0.8791022012866E-02
-0.3416491195174E-04 -0.1932471869515E-02  0.0000000000000E+00  0.8929311973643E-02
-0.1747977258448E-04 -0.1902219316225E-02  0.0000000000000E+00  0.9073028398461E-02
 0.1989977595696E-04 -0.1878630688843E-02  0.0000000000000E+00  0.9220570298651E-02
 0.8276783146177E-04 -0.1865086924605E-02  0.0000000000000E+00  0.9369538552618E-02
 0.1760859740371E-03 -0.1865267190513E-02  0.0000000000000E+00  0.9516469984179E-02
 0.3047960390583E-03 -0.1883062364925E-02  0.0000000000000E+00  0.9656509833916E-02
 0.4735758999546E-03 -0.1922432622566E-02  0.0000000000000E+00  0.9783065616562E-02
 0.6865217224192E-03 -0.1987165896275E-02  0.0000000000000E+00  0.9887450832960E-02
 0.9467579169724E-03 -0.2080579643783E-02  0.0000000000000E+00  0.9958547977590E-02
 0.1255992358217E-02 -0.2205189268161E-02  0.0000000000000E+00  0.9982567893784E-02
 0.1614039041731E-02 -0.2362338673586E-02  0.0000000000000E+00  0.9942961873604E-02
 0.2018345488936E-02 -0.2551822791189E-02  0.0000000000000E+00  0.9820549274834E-02
 0.2463595662201E-02 -0.2771556228407E-02  0.0000000000000E+00  0.9593912695300E-02
 0.2941575880607E-02 -0.3017406736303E-02  0.0000000000000E+00  0.9240027051261E-02
 0.3441659332929E-02 -0.3283391624817E-02  0.0000000000000E+00  0.8734748752834E-02
 0.3951188137610E-02 -0.3561821186811E-02  0.0000000000000E+00  0.8052957113854E-02
 0.4455028235743E-02 -0.3843056463478E-02  0.0000000000000E+00  0.7169166136900E-02
 0.4935848440349E-02 -0.4115792974974E-02  0.0000000000000E+00  0.6058335728471E-02
 0.5375248155384E-02 -0.4367857464386E-02  0.0000000000000E+00  0.4695944470348E-02
 0.2784341320221E-04 -0.2328665319259E-02  0.0000000000000E+00  0.3479269248041E-02
 0.7971788851045E-04 -0.2362814909095E-02  0.0000000000000E+00  0.4183139786050E-02
 0.1242218954167E-03 -0.2394064742480E-02  0.0000000000000E+00  0.4824908673396E-02
 0.1619675368637E-03 -0.2422746869846E-02  0.0000000000000E+00  0.5395550907817E-02
 0.1936494269971E-03 -0.2449176701889E-02  0.0000000000000E+00  0.5891238092215E-02
 0.2198373096529E-03 -0.2473493803080E-02  0.0000000000000E+00  0.6312838043629E-02
 0.2408615260354E-03 -0.2495582203281E-02  0.0000000000000E+00  0.6665001667943E-02
 0.2567936307883E-03 -0.2515069603518E-02  0.0000000000000E+00  0.6955047209605E-02
 0.2675004037830E-03 -0.2531384681256E-02  0.0000000000000E+00  0.7191846832203E-02
 0.2727387185705E-03 -0.2543843463326E-02  0.0000000000000E+00  0.7384861285524E-02
 0.2722610012303E-03 -0.2551738789231E-02  0.0000000000000E+00  0.7543395695103E-02
 0.2659107457663E-03 -0.2554416375313E-02  0.0000000000000E+00  0.7676090983164E-02
 0.2536986867080E-03 -0.2551331010203E-02  0.0000000000000E+00  0.7790622102767E-02
 0.2358592170403E-03 -0.2542084318719E-02  0.0000000000000E+00  0.7893556990247E-02
 0.2128916238509E-03 -0.2526449828354E-02  0.0000000000000E+00  0.7990331529055E-02
 0.1855924018388E-03 -0.2504390298643E-02  0.0000000000000E+00  0.8085299569460E-02
 0.1550664963366E-03 -0.2475990864120E-02  0.0000000000000E+00  0.8181860908483E-02
 0.1227473189803E-03 -0.2441418629847E-02  0.0000000000000E+00  0.8282563220980E-02
 0.9047269134732E-04 -0.2401141662421E-02  0.0000000000000E+00  0.8389175217829E-02
 0.6054241113967E-04 -0.2356106044369E-02  0.0000000000000E+00  0.8502852917264E-02
 0.3572598552393E-04 -0.2307701584605E-02  0.0000000000000E+00  0.8624249607388E-02
 0.1926414067666E-04 -0.2257723229765E-02  0.0000000000000E+00  0.8753584130976E-02
 0.1486825181640E-04 -0.2208366737711E-02  0.0000000000000E+00  0.8890657099784E-02
 0.2670695599938E-04 -0.2162238779028E-02  0.0000000000000E+00  0.9034800993381E-02
 0.5936864116440E-04 -0.2122359580413E-02  0.0000000000000E+00  0.9184757275857E-02
 0.1177890843606E-03 -0.2092145560386E-02  0.0000000000000E+00  0.9338468111335E-02
 0.2071314409513E-03 -0.2075358834958E-02  0.0000000000000E+00  0.9492786192894E-02
 0.3326114701654E-03 -0.2076026905701E-02  0.0000000000000E+00  0.9643113234309E-02
 0.4992622069195E-03 -0.2098304774418E-02  0.0000000000000E+00  0.9783010545365E-02
 0.7116212139486E-03 -0.2146244159007E-02  0.0000000000000E+00  0.9903793758647E-02
 0.9733374571778E-03 -0.2223498945720E-02  0.0000000000000E+00  0.9994144013009E-02
 0.1286712315117E-02 -0.2332983665393E-02  0.0000000000000E+00  0.1003981809826E-01
 0.1652196723905E-02 -0.2476484315950E-02  0.0000000000000E+00  0.1002352361472E-01
 0.2067882092590E-02 -0.2654251213236E-02  0.0000000000000E+00  0.9925032145899E-02
 0.2529057957017E-02 -0.2864628797961E-02  0.0000000000000E+00  0.9721591103827E-02
 0.3028027681088E-02 -0.3103840854810E-02  0.0000000000000E+00  0.9388601193814E-02
 0.3554542436967E-02 -0.3366132366990E-02  0.0000000000000E+00  0.8900166991073E-02
 0.4096156209718E-02 -0.3643911142260E-02  0.0000000000000E+00  0.8229361257648E-02
 0.4637778074185E-02 -0.3927537859493E-02  0.0000000000000E+00  0.7349053359673E-02
 0.5161958356805E-02 -0.4205605758815E-02  0.0000000000000E+00  0.6232917964063E-02
 0.5650051397750E-02 -0.4465752559364E-02  0.0000000000000E+00  0.4855662511688E-02
 0.3184042840549E-04 -0.2754177285722E-02  0.0000000000000E+00  0.3502280584809E-02
 0.9277342456668E-04 -0.2793263220254E-02  0.0000000000000E+00  0.4205032727239E-02
 0.1480223696555E-03 -0.2829690294086E-02  0.0000000000000E+00  0.4845626831891E-02
 0.1973108769216E-03 -0.2863145973522E-02  0.0000000000000E+00  0.5415077621284E-02
 0.2404885180810E-03 -0.2893356773740E-02  0.0000000000000E+00  0.5909490502972E-02
 0.2774097379480E-03 -0.2919994173960E-02  0.0000000000000E+00  0.6329603309236E-02
 0.3078721874894E-03 -0.2942630841354E-02  0.0000000000000E+00  0.6679920958839E-02
 0.3316126308605E-03 -0.2960744188209E-02  0.0000000000000E+00  0.6967638882519E-02
 0.3483452016164E-03 -0.2973753051852E-02  0.0000000000000E+00  0.7201552317311E-02
 0.3578213457027E-03 -0.2981069270840E-02  0.0000000000000E+00  0.7391096883270E-02
 0.3598932692218E-03 -0.2982148765539E-02  0.0000000000000E+00  0.7545598263019E-02
 0.3545694983784E-03 -0.2976533150179E-02  0.0000000000000E+00  0.7673751899954E-02
 0.3420582156302E-03 -0.2963879284343E-02  0.0000000000000E+00  0.7783309413721E-02
 0.3227995377225E-03 -0.2943979017039E-02  0.0000000000000E+00  0.7880929084467E-02
 0.2974906044321E-03 -0.2916773506497E-02  0.0000000000000E+00  0.7972146882036E-02
 0.2671080999343E-03 -0.2882365849933E-02  0.0000000000000E+00  0.8061426897484E-02
 0.2329187811359E-03 -0.2840976265659E-02  0.0000000000000E+00  0.8152293331376E-02
 0.1965004756648E-03 -0.2792920514574E-02  0.0000000000000E+00  0.8247436502943E-02
 0.1598069894700E-03 -0.2738778834583E-02  0.0000000000000E+00  0.8348789074304E-02
 0.1252195549001E-03 -0.2679534591590E-02  0.0000000000000E+00  0.8457698387023E-02
 0.9556421529944E-04 -0.2616563857339E-02  0.0000000000000E+00  0.8575043012983E-02
 0.7412594179845E-04 -0.2551623722272E-02  0.0000000000000E+00  0.8701304524940E-02
 0.6466131603799E-04 -0.2486866894156E-02  0.0000000000000E+00  0.8836583711590E-02
 0.7139955698576E-04 -0.2424866286960E-02  0.0000000000000E+00  0.8980546573388E-02
 0.9902070692158E-04 -0.2368630751943E-02  0.0000000000000E+00  0.9132292097154E-02
 0.1526000408674E-03 -0.2321601468070E-02  0.0000000000000E+00  0.9290128040041E-02
 0.2375047920983E-03 -0.2287615376378E-02  0.0000000000000E+00  0.9451256634147E-02
 0.3592337251289E-03 -0.2270832727695E-02  0.0000000000000E+00  0.9611379283159E-02
 0.5231927042166E-03 -0.2275605553573E-02  0.0000000000000E+00  0.9764263156505E-02
 0.7343886347699E-03 -0.2306259565641E-02  0.0000000000000E+00  0.9901283120524E-02
 0.9970341354936E-03 -0.2366804731242E-02  0.0000000000000E+00  0.1001097518753E-01
 0.1314073900703E-02 -0.2460584154886E-02  0.0000000000000E+00  0.1007869045576E-01
 0.1686654033558E-02 -0.2589863996942E-02  0.0000000000000E+00  0.1008642506199E-01
 0.2113571927131E-02 -0.2755393538612E-02  0.0000000000000E+00  0.1001291067208E-01
 0.2590781915369E-02 -0.2955991006245E-02  0.0000000000000E+00  0.9834037001101E-02
 0.3111152630340E-02 -0.3188273938761E-02  0.0000000000000E+00  0.9523577246766E-02
 0.3664842322441E-02 -0.3446739908798E-02  0.0000000000000E+00  0.9053808155955E-02
 0.4239616819207E-02 -0.3723899742745E-02  0.0000000000000E+00  0.8395901914728E-02
 0.4820389053001E-02 -0.4010093085880E-02  0.0000000000000E+00  0.7520974730408E-02
 0.5389508702880E-02 -0.4293760747952E-02  0.0000000000000E+00  0.6401316457637E-02
 0.5927961403845E-02 -0.4562272781237E-02  0.0000000000000E+00  0.5010801867505E-02
 0.3587153275070E-04 -0.3179307849980E-02  0.0000000000000E+00  0.3527942715242E-02
 0.1059205922874E-03 -0.3223376378209E-02  0.0000000000000E+00  0.4229613319520E-02
 0.1719595328755E-03 -0.3265031202276E-02  0.0000000000000E+00  0.4868645264225E-02
 0.2328392407283E-03 -0.3303326428358E-02  0.0000000000000E+00  0.5436109854715E-02
 0.2875750790601E-03 -0.3337406673059E-02  0.0000000000000E+00  0.5928114592624E-02
 0.3353105860027E-03 -0.3366477141316E-02  0.0000000000000E+00  0.6345369837597E-02
 0.3753092512260E-03 -0.3389796537881E-02  0.0000000000000E+00  0.6692348761447E-02
 0.4069677522001E-03 -0.3406686882656E-02  0.0000000000000E+00  0.6976229530098E-02
 0.4298408907178E-03 -0.3416551666634E-02  0.0000000000000E+00  0.7205813686968E-02
 0.4436685545742E-03 -0.3418894179493E-02  0.0000000000000E+00  0.7390567043143E-02
 0.4483981893594E-03 -0.3413330889254E-02  0.0000000000000E+00  0.7539864269032E-02
 0.4442005577547E-03 -0.3399598498377E-02  0.0000000000000E+00  0.7662461886331E-02
 0.4314797907903E-03 -0.3377556244870E-02  0.0000000000000E+00  0.7766179320717E-02
 0.4108808049533E-03 -0.3347186825512E-02  0.0000000000000E+00  0.7857746971714E-02
 0.3832975172190E-03 -0.3308599208093E-02  0.0000000000000E+00  0.7942777984893E-02
 0.3498850025276E-03 -0.3262035968342E-02  0.0000000000000E+00  0.8025822173397E-02
 0.3120691084633E-03 -0.3207850366051E-02  0.0000000000000E+00  0.8110502136371E-02
 0.2715684412379E-03 -0.3146503742577E-02  0.0000000000000E+00  0.8199622405944E-02
 0.2304478997685E-03 -0.3078683970879E-02  0.0000000000000E+00  0.8295252457466E-02
 0.1911637449991E-03 -0.3005405130711E-02  0.0000000000000E+00  0.8398909349737E-02
 0.1565908681266E-03 -0.2928020946841E-02  0.0000000000000E+00  0.8511681359765E-02
 0.1300499343507E-03 -0.2848240227906E-02  0.0000000000000E+00  0.8634303396905E-02
 0.1153338698952E-03 -0.2768160727949E-02  0.0000000000000E+00  0.8767173976470E-02
 0.1167240588182E-03 -0.2690308733919E-02  0.0000000000000E+00  0.8910298247454E-02
 0.1389852679582E-03 -0.2617668664839E-02  0.0000000000000E+00  0.9063147578562E-02
 0.1873282161375E-03 -0.2553694335219E-02  0.0000000000000E+00  0.9224420331049E-02
 0.2673247672211E-03 -0.2502287804536E-02  0.0000000000000E+00  0.9391703857484E-02
 0.3847638976842E-03 -0.2467736512466E-02  0.0000000000000E+00  0.9561045852324E-02
 0.5454404152162E-03 -0.2454590091095E-02  0.0000000000000E+00  0.9726476448259E-02
 0.7548576403414E-03 -0.2467457168242E-02  0.0000000000000E+00  0.9879493497506E-02
 0.1017831175126E-02 -0.2510722885752E-02  0.0000000000000E+00  0.1000855196861E-01
 0.1338000588256E-02 -0.2588188928268E-02  0.0000000000000E+00  0.1009865384358E-01
 0.1717268908388E-02 -0.2702641681542E-02  0.0000000000000E+00  0.1013112327218E-01
 0.2155206914140E-02 -0.2855376501847E-02  0.0000000000000E+00  0.1008366442939E-01
 0.2648499620268E-02 -0.3045734177619E-02  0.0000000000000E+00  0.9930786905558E-02
 0.3190636321208E-02 -0.3270769190215E-02  0.0000000000000E+00  0.9644577302483E-02
 0.3772218031308E-02 -0.3525261702216E-02  0.0000000000000E+00  0.9195396461005E-02
 0.4381226819333E-02 -0.3801834530704E-02  0.0000000000000E+00  0.8552403966663E-02
 0.5002540418861E-02 -0.4090786148809E-02  0.0000000000000E+00  0.7684831845893E-02
 0.5618220547065E-02 -0.4380351384524E-02  0.0000000000000E+00  0.6563461451059E-02
 0.6208750780343E-02 -0.4657547056999E-02  0.0000000000000E+00  0.5161250751325E-02
 0.3996873030858E-04 -0.3604318995962E-02  0.0000000000000E+00  0.3556297167427E-02
 0.1192582153719E-03 -0.3653454274926E-02  0.0000000000000E+00  0.4256925139211E-02
 0.1961997181322E-03 -0.3700421070671E-02  0.0000000000000E+00  0.4894015743575E-02
 0.2687777968849E-03 -0.3743644984205E-02  0.0000000000000E+00  0.5458711877404E-02
 0.3351771851921E-03 -0.3781691408585E-02  0.0000000000000E+00  0.5947188890276E-02
 0.3938313063229E-03 -0.3813299881657E-02  0.0000000000000E+00  0.6360229852460E-02
 0.4434682848326E-03 -0.3837414411776E-02  0.0000000000000E+00  0.6702389009758E-02
 0.4831426696866E-03 -0.3853200538025E-02  0.0000000000000E+00  0.6980932524936E-02
 0.5122480920990E-03 -0.3860045792101E-02  0.0000000000000E+00  0.7204752088341E-02
 0.5305118480418E-03 -0.3857545187620E-02  0.0000000000000E+00  0.7383400049702E-02
 0.5379764847672E-03 -0.3845476850344E-02  0.0000000000000E+00  0.7526329471958E-02
 0.5349754588879E-03 -0.3823774138411E-02  0.0000000000000E+00  0.7642365113327E-02
 0.5221094055285E-03 -0.3792500164444E-02  0.0000000000000E+00  0.7739385439393E-02
 0.5002281756830E-03 -0.3751829374534E-02  0.0000000000000E+00  0.7824174344948E-02
 0.4704217492543E-03 -0.3702038427426E-02  0.0000000000000E+00  0.7902398440477E-02
 0.4340217379154E-03 -0.3643507940395E-02  0.0000000000000E+00  0.7978667660035E-02
 0.3926101036655E-03 -0.3576721539540E-02  0.0000000000000E+00  0.8056675773885E-02
 0.3480422544281E-03 -0.3502282514221E-02  0.0000000000000E+00  0.8139311848651E-02
 0.3024888530959E-03 -0.3420981345196E-02  0.0000000000000E+00  0.8228753729370E-02
 0.2584741896482E-03 -0.3333855762063E-02  0.0000000000000E+00  0.8326665159466E-02
 0.2189135247455E-03 -0.3242227982418E-02  0.0000000000000E+00  0.8434327038387E-02
 0.1871536408496E-03 -0.3147747447461E-02  0.0000000000000E+00  0.8552716729966E-02
 0.1670136560807E-03 -0.3052444231295E-02  0.0000000000000E+00  0.8682526688293E-02
 0.1628171346156E-03 -0.2958784089984E-02  0.0000000000000E+00  0.8824105843517E-02
 0.1794048009583E-03 -0.2869712669703E-02  0.0000000000000E+00  0.8977312403101E-02
 0.2221166960725E-03 -0.2788682740927E-02  0.0000000000000E+00  0.9141260836847E-02
 0.2967276581495E-03 -0.2719649969629E-02  0.0000000000000E+00  0.9313960918361E-02
 0.4093218904844E-03 -0.2667021439120E-02  0.0000000000000E+00  0.9491856503749E-02
 0.5660973517365E-03 -0.2635542955578E-02  0.0000000000000E+00  0.9669302880333E-02
 0.7730796376038E-03 -0.2630113300758E-02  0.0000000000000E+00  0.9837991595528E-02
 0.1035726649641E-02 -0.2655510956131E-02  0.0000000000000E+00  0.9986369151387E-02
 0.1358426080281E-02 -0.2716026501014E-02  0.0000000000000E+00  0.1009915419289E-01
 0.1743903417242E-02 -0.2815008569041E-02  0.0000000000000E+00  0.1015704686368E-01
 0.2192576154993E-02 -0.2954349501033E-02  0.0000000000000E+00  0.1013674215870E-01
 0.2701933545198E-02 -0.3133966855684E-02  0.0000000000000E+00  0.1001134825067E-01
 0.3266149417400E-02 -0.3351401588153E-02  0.0000000000000E+00  0.9751200682411E-02
 0.3876311215105E-02 -0.3601752496569E-02  0.0000000000000E+00  0.9324643671186E-02
 0.4520627237562E-02 -0.3877767646839E-02  0.0000000000000E+00  0.8698692397774E-02
 0.5183901828715E-02 -0.4169685219624E-02  0.0000000000000E+00  0.7840538237918E-02
 0.5847816253792E-02 -0.4465477168866E-02  0.0000000000000E+00  0.6719302866253E-02
 0.6492208171816E-02 -0.4751714158459E-02  0.0000000000000E+00  0.5306918432675E-02
 0.4416362143099E-04 -0.4029470369476E-02  0.0000000000000E+00  0.3587407404554E-02
 0.1328839771312E-03 -0.4083794008613E-02  0.0000000000000E+00  0.4287031639901E-02
 0.2209075744430E-03 -0.4136190385665E-02  0.0000000000000E+00  0.4921803432856E-02
 0.3053497428675E-03 -0.4184455117167E-02  0.0000000000000E+00  0.5482951359326E-02
 0.3835608858033E-03 -0.4226572688989E-02  0.0000000000000E+00  0.5966783829867E-02
 0.4532614009253E-03 -0.4260816281200E-02  0.0000000000000E+00  0.6374256776007E-02
 0.5126429818208E-03 -0.4285816231877E-02  0.0000000000000E+00  0.6710118767855E-02
 0.5604191609028E-03 -0.4300584455639E-02  0.0000000000000E+00  0.6981829910277E-02
 0.5958253669376E-03 -0.4304496793565E-02  0.0000000000000E+00  0.7198456543270E-02
 0.6185803894973E-03 -0.4297244932376E-02  0.0000000000000E+00  0.7369694309031E-02
 0.6288262062652E-03 -0.4278773484753E-02  0.0000000000000E+00  0.7505104090893E-02
 0.6270627579794E-03 -0.4249216493238E-02  0.0000000000000E+00  0.7613585668982E-02
 0.6140898691363E-03 -0.4208843705130E-02  0.0000000000000E+00  0.7703067079992E-02
 0.5909635785246E-03 -0.4158022554226E-02  0.0000000000000E+00  0.7780366153796E-02
 0.5589696187490E-03 -0.4097197017644E-02  0.0000000000000E+00  0.7851178172975E-02
 0.5196142581633E-03 -0.4026883772634E-02  0.0000000000000E+00  0.7920146421857E-02
 0.4746323619507E-03 -0.3947693531288E-02  0.0000000000000E+00  0.7991007421647E-02
 0.4260118398576E-03 -0.3860367368533E-02  0.0000000000000E+00  0.8066703927062E-02
 0.3760233694408E-03 -0.3765792887643E-02  0.0000000000000E+00  0.8149492479076E-02
 0.3272516946211E-03 -0.3665023950239E-02  0.0000000000000E+00  0.8241159080564E-02
 0.2826431894040E-03 -0.3559341598405E-02  0.0000000000000E+00  0.8343158644223E-02
 0.2455601479022E-03 -0.3450324194519E-02  0.0000000000000E+00  0.8456698537878E-02
 0.2198364068254E-03 -0.3339920598485E-02  0.0000000000000E+00  0.8582759894604E-02
 0.2098260874976E-03 -0.3230521079004E-02  0.0000000000000E+00  0.8722038875492E-02
 0.2204351444975E-03 -0.3125016816468E-02  0.0000000000000E+00  0.8874794345062E-02
 0.2571245620319E-03 -0.3026844168856E-02  0.0000000000000E+00  0.9040582611854E-02
 0.3258680238105E-03 -0.2939998877200E-02  0.0000000000000E+00  0.9217874630916E-02
 0.4330474461098E-03 -0.2868997834705E-02  0.0000000000000E+00  0.9403563377567E-02
 0.5852758470888E-03 -0.2818779207391E-02  0.0000000000000E+00  0.9592396562971E-02
 0.7891253457363E-03 -0.2794537037085E-02  0.0000000000000E+00  0.9776337376511E-02
 0.1050735122048E-02 -0.2801459943517E-02  0.0000000000000E+00  0.9943905597322E-02
 0.1375295801805E-02 -0.2844357691777E-02  0.0000000000000E+00  0.1007961261903E-01
 0.1766424833235E-02 -0.2927185041502E-02  0.0000000000000E+00  0.1016359252492E-01
 0.2225466312348E-02 -0.3052486264088E-02  0.0000000000000E+00  0.1017155691602E-01
 0.2750796053278E-02 -0.3220815961288E-02  0.0000000000000E+00  0.1007519373133E-01
 0.3337346247573E-02 -0.3430258408950E-02  0.0000000000000E+00  0.9843018242002E-02
 0.3976744042503E-02 -0.3676274254153E-02  0.0000000000000E+00  0.9441244160091E-02
 0.4657440978902E-02 -0.3951755367929E-02  0.0000000000000E+00  0.8834588711025E-02
 0.5364131510407E-02 -0.4246862171892E-02  0.0000000000000E+00  0.7988017404816E-02
 0.6078018708729E-02 -0.4549243558202E-02  0.0000000000000E+00  0.6868809805922E-02
 0.6778138782713E-02 -0.4844923066748E-02  0.0000000000000E+00  0.5447735559604E-02
 0.4848773740819E-04 -0.4455020674312E-02  0.0000000000000E+00  0.3621358629480E-02
 0.1468954576177E-03 -0.4514691634509E-02  0.0000000000000E+00  0.4320015984722E-02
 0.2462477426321E-03 -0.4572668481210E-02  0.0000000000000E+00  0.4952086731031E-02
 0.3427783332925E-03 -0.4626108926630E-02  0.0000000000000E+00  0.5508899198152E-02
 0.4329921866262E-03 -0.4672410426615E-02  0.0000000000000E+00  0.5986961515784E-02
 0.5138899891455E-03 -0.4709377790054E-02  0.0000000000000E+00  0.6387504901547E-02
 0.5831260818559E-03 -0.4735330509037E-02  0.0000000000000E+00  0.6715587805049E-02
 0.6390773176604E-03 -0.4749133760380E-02  0.0000000000000E+00  0.6978971903932E-02
 0.6808288038616E-03 -0.4750160949998E-02  0.0000000000000E+00  0.7186983429941E-02
 0.7081001362389E-03 -0.4738210160711E-02  0.0000000000000E+00  0.7349517865277E-02
 0.7211416053339E-03 -0.4713401112583E-02  0.0000000000000E+00  0.7476272408624E-02
 0.7206268151593E-03 -0.4676075064258E-02  0.0000000000000E+00  0.7576227288227E-02
 0.7075596218797E-03 -0.4626712437755E-02  0.0000000000000E+00  0.7657349130208E-02
 0.6832046312202E-03 -0.4565875230760E-02  0.0000000000000E+00  0.7726468657606E-02
 0.6490434209328E-03 -0.4494174109496E-02  0.0000000000000E+00  0.7789283664969E-02
 0.6067550094987E-03 -0.4412259287920E-02  0.0000000000000E+00  0.7850442761625E-02
 0.5582237246782E-03 -0.4320864691380E-02  0.0000000000000E+00  0.7913695641971E-02
 0.5055653688869E-03 -0.4220864512008E-02  0.0000000000000E+00  0.7982006820518E-02
 0.4511444875098E-03 -0.4113237570687E-02  0.0000000000000E+00  0.8057680712367E-02
 0.3975981556374E-03 -0.3999045940633E-02  0.0000000000000E+00  0.8142599799853E-02
 0.3478938505033E-03 -0.3879519367582E-02  0.0000000000000E+00  0.8238372849213E-02
 0.3053977525173E-03 -0.3756152847957E-02  0.0000000000000E+00  0.8346423125026E-02
 0.2739456058762E-03 -0.3630799718137E-02  0.0000000000000E+00  0.8468013554878E-02
 0.2579087714178E-03 -0.3505758752425E-02  0.0000000000000E+00  0.8604189579674E-02
 0.2622456341693E-03 -0.3383849574229E-02  0.0000000000000E+00  0.8755623619561E-02
 0.2925273033699E-03 -0.3268474957750E-02  0.0000000000000E+00  0.8922339449349E-02
 0.3549194407252E-03 -0.3163654966381E-02  0.0000000000000E+00  0.9103309091249E-02
 0.4561012764860E-03 -0.3074003874338E-02  0.0000000000000E+00  0.9295930417202E-02
 0.6031100625148E-03 -0.3004645589203E-02  0.0000000000000E+00  0.9495415821428E-02
 0.8030866091382E-03 -0.2961071886976E-02  0.0000000000000E+00  0.9694085551395E-02
 0.1062889604638E-02 -0.2948896439164E-02  0.0000000000000E+00  0.9880624257869E-02
 0.1388568753525E-02 -0.2973478036143E-02  0.0000000000000E+00  0.1003942368422E-01
 0.1784707056255E-02 -0.3039423103083E-02  0.0000000000000E+00  0.1015012144210E-01
 0.2253662267609E-02 -0.3149987009387E-02  0.0000000000000E+00  0.1018748090680E-01
 0.2794789039153E-02 -0.3306428389699E-02  0.0000000000000E+00  0.1012175513647E-01
 0.3403863375512E-02 -0.3507440085946E-02  0.0000000000000E+00  0.9919566068429E-02
 0.4073116928381E-02 -0.3748896290720E-02  0.0000000000000E+00  0.9544869422561E-02
 0.4791270254068E-02 -0.4023857772529E-02  0.0000000000000E+00  0.8959907020649E-02
 0.5542874134356E-02 -0.4322392180565E-02  0.0000000000000E+00  0.8127200815833E-02
 0.6308550335446E-02 -0.4631761895225E-02  0.0000000000000E+00  0.7011970224080E-02
 0.7066364891829E-02 -0.4937333386792E-02  0.0000000000000E+00  0.5583654574941E-02
 0.5297287922134E-04 -0.4881229097598E-02  0.0000000000000E+00  0.3658257800183E-02
 0.1613911846773E-03 -0.4946443949393E-02  0.0000000000000E+00  0.4355981021923E-02
 0.2723865556805E-03 -0.5010185540312E-02  0.0000000000000E+00  0.4984957083999E-02
 0.3812889391878E-03 -0.5068959067441E-02  0.0000000000000E+00  0.5536629073733E-02
 0.4837390622454E-03 -0.5119564268579E-02  0.0000000000000E+00  0.6007775003973E-02
 0.5760073969495E-03 -0.5159334290537E-02  0.0000000000000E+00  0.6400008464777E-02
 0.6552102987060E-03 -0.5186282586489E-02  0.0000000000000E+00  0.6718817574265E-02
 0.7193957501577E-03 -0.5199138757400E-02  0.0000000000000E+00  0.6972375913445E-02
 0.7675115859585E-03 -0.5197288240873E-02  0.0000000000000E+00  0.7170355642235E-02
 0.7992929438125E-03 -0.5180650165818E-02  0.0000000000000E+00  0.7322907771053E-02
 0.8151119736952E-03 -0.5149531839579E-02  0.0000000000000E+00  0.7439892378333E-02
 0.8158265428203E-03 -0.5104490769302E-02  0.0000000000000E+00  0.7530373189935E-02
 0.8026515163086E-03 -0.5046223326904E-02  0.0000000000000E+00  0.7602342100344E-02
 0.7770635250626E-03 -0.4975487929229E-02  0.0000000000000E+00  0.7662619654489E-02
 0.7407404402247E-03 -0.4893060995515E-02  0.0000000000000E+00  0.7716878354695E-02
 0.6955320663438E-03 -0.4799723183416E-02  0.0000000000000E+00  0.7769742784695E-02
 0.6434685143957E-03 -0.4696327163893E-02  0.0000000000000E+00  0.7824945128171E-02
 0.5867885723681E-03 -0.4583875093223E-02  0.0000000000000E+00  0.7885438750458E-02
 0.5279441380413E-03 -0.4463430729669E-02  0.0000000000000E+00  0.7953544064798E-02
 0.4696159858369E-03 -0.4336056097486E-02  0.0000000000000E+00  0.8031212942550E-02
 0.4147819683877E-03 -0.4202919142813E-02  0.0000000000000E+00  0.8120186270014E-02
 0.3667995298213E-03 -0.4065418700476E-02  0.0000000000000E+00  0.8222087349870E-02
 0.3294921704130E-03 -0.3925297552525E-02  0.0000000000000E+00  0.8338452227028E-02
 0.3072334374766E-03 -0.3784745947627E-02  0.0000000000000E+00  0.8470676024319E-02
 0.3050191791080E-03 -0.3646493443339E-02  0.0000000000000E+00  0.8619856370995E-02
 0.3285172013611E-03 -0.3513890167230E-02  0.0000000000000E+00  0.8786509640601E-02
 0.3840752722747E-03 -0.3390962346648E-02  0.0000000000000E+00  0.8970149514874E-02
 0.4786662773085E-03 -0.3282406307268E-02  0.0000000000000E+00  0.9168736993489E-02
 0.6197576615359E-03 -0.3193521835117E-02  0.0000000000000E+00  0.9378026214766E-02
 0.8150784698413E-03 -0.3130097724239E-02  0.0000000000000E+00  0.9590787526973E-02
 0.1072243862964E-02 -0.3098185115522E-02  0.0000000000000E+00  0.9795972571705E-02
 0.1398219764681E-02 -0.3103720667992E-02  0.0000000000000E+00  0.9977953861658E-02
 0.1798632436462E-02 -0.3152009363385E-02  0.0000000000000E+00  0.1011595567619E-01
 0.2276948107204E-02 -0.3247081167227E-02  0.0000000000000E+00  0.1018383998055E-01
 0.2833603753095E-02 -0.3390973114865E-02  0.0000000000000E+00  0.1015041658929E-01
 0.3465318158132E-02 -0.3583061463317E-02  0.0000000000000E+00  0.9980338455697E-02
 0.4165006061456E-02 -0.3819695672302E-02  0.0000000000000E+00  0.9635161920706E-02
 0.4921693683278E-02 -0.4094138541525E-02  0.0000000000000E+00  0.9074449716933E-02
 0.5719758347817E-02 -0.4396353379339E-02  0.0000000000000E+00  0.8258025806776E-02
 0.6539131891032E-02 -0.4713149373695E-02  0.0000000000000E+00  0.7148790710466E-02
 0.7356726403305E-02 -0.5029115841552E-02  0.0000000000000E+00  0.5714650211098E-02
 0.5765146960067E-04 -0.5308356795664E-02  0.0000000000000E+00  0.3698233861020E-02
 0.1764717268247E-03 -0.5379350349437E-02  0.0000000000000E+00  0.4395049406382E-02
 0.2994938049904E-03 -0.5449074674234E-02  0.0000000000000E+00  0.5020518756132E-02
 0.4211111796531E-03 -0.5513360747880E-02  0.0000000000000E+00  0.5566216717645E-02
 0.5360735256552E-03 -0.5568395165413E-02  0.0000000000000E+00  0.6029267079657E-02
 0.6399067723338E-03 -0.5611034966031E-02  0.0000000000000E+00  0.6411780092895E-02
 0.7291892388547E-03 -0.5638994695654E-02  0.0000000000000E+00  0.6719799576212E-02
 0.8016517524534E-03 -0.5650884229510E-02  0.0000000000000E+00  0.6962025051493E-02
 0.8561235015660E-03 -0.5646121062575E-02  0.0000000000000E+00  0.7148561422799E-02
 0.8923756089165E-03 -0.5624765154281E-02  0.0000000000000E+00  0.7289869313406E-02
 0.9109204255032E-03 -0.5587327798443E-02  0.0000000000000E+00  0.7395995238539E-02
 0.9128141054773E-03 -0.5534594232709E-02  0.0000000000000E+00  0.7476086026829E-02
 0.8994915597976E-03 -0.5467483179430E-02  0.0000000000000E+00  0.7538142335362E-02
 0.8726458780831E-03 -0.5386951488011E-02  0.0000000000000E+00  0.7588948888533E-02
 0.8341519348739E-03 -0.5293939988939E-02  0.0000000000000E+00  0.7634123192681E-02
 0.7860282371864E-03 -0.5189356061583E-02  0.0000000000000E+00  0.7678235087064E-02
 0.7304467370849E-03 -0.5074166042659E-02  0.0000000000000E+00  0.7724967533516E-02
 0.6697640128319E-03 -0.4949494433963E-02  0.0000000000000E+00  0.7777228983007E-02
 0.6065124666697E-03 -0.4816483326598E-02  0.0000000000000E+00  0.7837323027386E-02
 0.5434074819073E-03 -0.4676186169758E-02  0.0000000000000E+00  0.7907242580228E-02
 0.4834258910149E-03 -0.4529698309789E-02  0.0000000000000E+00  0.7988837320573E-02
 0.4299028194287E-03 -0.4378309201590E-02  0.0000000000000E+00  0.8083912881229E-02
 0.3866340459736E-03 -0.4223635396968E-02  0.0000000000000E+00  0.8194267774818E-02
 0.3579784941146E-03 -0.4067740617388E-02  0.0000000000000E+00  0.8321645291333E-02
 0.3489522637755E-03 -0.3913244439868E-02  0.0000000000000E+00  0.8467578309466E-02
 0.3653036650192E-03 -0.3763423333119E-02  0.0000000000000E+00  0.8633099979882E-02
 0.4135494363240E-03 -0.3622288963727E-02  0.0000000000000E+00  0.8818306431022E-02
 0.5009488102015E-03 -0.3494601179928E-02  0.0000000000000E+00  0.9021781992624E-02
 0.6354016434876E-03 -0.3385822075736E-02  0.0000000000000E+00  0.9239904095778E-02
 0.8252415051591E-03 -0.3302032938010E-02  0.0000000000000E+00  0.9465993909588E-02
 0.1078875089224E-02 -0.3249731584062E-02  0.0000000000000E+00  0.9689383341662E-02
 0.1404242191679E-02 -0.3235459705610E-02  0.0000000000000E+00  0.9894540290051E-02
 0.1808094060848E-02 -0.3265268627453E-02  0.0000000000000E+00  0.1006037453607E-01
 0.2295108503464E-02 -0.3344030742627E-02  0.0000000000000E+00  0.1015990776983E-01
 0.2866920858361E-02 -0.3474643884250E-02  0.0000000000000E+00  0.1016050711120E-01
 0.3521307309220E-02 -0.3657253512735E-02  0.0000000000000E+00  0.1002478002277E-01
 0.4251960707016E-02 -0.3888757908989E-02  0.0000000000000E+00  0.9711728114958E-02
 0.5048263022127E-02 -0.4162664907177E-02  0.0000000000000E+00  0.9178002577012E-02
 0.5894393918737E-02 -0.4468826579182E-02  0.0000000000000E+00  0.8380433278983E-02
 0.6769481022862E-02 -0.4793529053630E-02  0.0000000000000E+00  0.7279296339378E-02
 0.7649081471249E-02 -0.5120452877505E-02  0.0000000000000E+00  0.5840720055294E-02
 0.6255692812864E-04 -0.5736668473529E-02  0.0000000000000E+00  0.3741438200102E-02
 0.1922408574632E-03 -0.5813714803330E-02  0.0000000000000E+00  0.4437363871613E-02
 0.3277446162545E-03 -0.5889674122513E-02  0.0000000000000E+00  0.5058888552373E-02
 0.4624811691847E-03 -0.5959673825164E-02  0.0000000000000E+00  0.5597738870545E-02
 0.5902737825354E-03 -0.6019266986977E-02  0.0000000000000E+00  0.6051468493397E-02
 0.7058857304863E-03 -0.6064829154951E-02  0.0000000000000E+00  0.6422808593460E-02
 0.8053582917857E-03 -0.6093785942022E-02  0.0000000000000E+00  0.6718493081331E-02
 0.8861213957640E-03 -0.6104648630135E-02  0.0000000000000E+00  0.6947866138428E-02
 0.9469103611550E-03 -0.6096892830223E-02  0.0000000000000E+00  0.7121552870828E-02
 0.9875588174638E-03 -0.6070744508345E-02  0.0000000000000E+00  0.7250375105952E-02
 0.1008742597881E-02 -0.6026939306486E-02  0.0000000000000E+00  0.7344585151027E-02
 0.1011733557369E-02 -0.5966504016142E-02  0.0000000000000E+00  0.7413407962642E-02
 0.9981976138902E-03 -0.5890587055165E-02  0.0000000000000E+00  0.7464832404896E-02
 0.9700495595782E-03 -0.5800345690440E-02  0.0000000000000E+00  0.7505578641601E-02
 0.9293621009965E-03 -0.5696883267510E-02  0.0000000000000E+00  0.7541177359265E-02
 0.8783201511923E-03 -0.5581229446284E-02  0.0000000000000E+00  0.7576111564123E-02
 0.8192332606871E-03 -0.5454458506052E-02  0.0000000000000E+00  0.7613982375766E-02
 0.7545703241213E-03 -0.5317811228214E-02  0.0000000000000E+00  0.7657618865316E-02
 0.6869371125352E-03 -0.5172501166697E-02  0.0000000000000E+00  0.7709274172483E-02
 0.6190741326480E-03 -0.5019564491565E-02  0.0000000000000E+00  0.7770952716564E-02
 0.5539451982400E-03 -0.4860012953945E-02  0.0000000000000E+00  0.7844588033949E-02
 0.4948486273749E-03 -0.4695013093356E-02  0.0000000000000E+00  0.7932148432568E-02
 0.4455357066098E-03 -0.4526039011484E-02  0.0000000000000E+00  0.8035682083849E-02
 0.4103321680772E-03 -0.4355009015603E-02  0.0000000000000E+00  0.8157276723466E-02
 0.3942548565005E-03 -0.4184411429889E-02  0.0000000000000E+00  0.8298908498793E-02
 0.4031134958749E-03 -0.4017426082732E-02  0.0000000000000E+00  0.8462150034725E-02
 0.4435771464719E-03 -0.3858026660178E-02  0.0000000000000E+00  0.8647720274800E-02
 0.5231800305414E-03 -0.3711014520851E-02  0.0000000000000E+00  0.8854888435284E-02
 0.6502523231374E-03 -0.3581996310080E-02  0.0000000000000E+00  0.9080740807152E-02
 0.8337444338317E-03 -0.3477336792767E-02  0.0000000000000E+00  0.9319257683896E-02
 0.1082886971282E-02 -0.3403985629446E-02  0.0000000000000E+00  0.9560276218903E-02
 0.1406651114743E-02 -0.3369114183209E-02  0.0000000000000E+00  0.9788489931524E-02
 0.1812998576812E-02 -0.3379568165293E-02  0.0000000000000E+00  0.9982611016117E-02
 0.2307930571529E-02 -0.3441134416447E-02  0.0000000000000E+00  0.1011489946877E-01
 0.2894410787876E-02 -0.3557662607226E-02  0.0000000000000E+00  0.1015129241962E-01
 0.3571405495772E-02 -0.3730165598730E-02  0.0000000000000E+00  0.1005227681717E-01
 0.4333500261177E-02 -0.3956177997965E-02  0.0000000000000E+00  0.9774130500623E-02
 0.5170499449501E-02 -0.4229507771325E-02  0.0000000000000E+00  0.9270329171758E-02
 0.6066368428900E-02 -0.4539895057071E-02  0.0000000000000E+00  0.8494365106572E-02
 0.6999310562537E-02 -0.4873029944376E-02  0.0000000000000E+00  0.7403530537045E-02
 0.7943307229951E-02 -0.5211539416078E-02  0.0000000000000E+00  0.5961885176672E-02
 0.6772408010834E-04 -0.6166434094247E-02  0.0000000000000E+00  0.3788045348932E-02
 0.2088068228973E-03 -0.6249847986411E-02  0.0000000000000E+00  0.4483087658781E-02
 0.3573214825956E-03 -0.6332329620360E-02  0.0000000000000E+00  0.5100195473723E-02
 0.5056439269949E-03 -0.6408265031769E-02  0.0000000000000E+00  0.5631271883595E-02
 0.6466264984136E-03 -0.6472548194098E-02  0.0000000000000E+00  0.6074395596318E-02
 0.7742480302996E-03 -0.6521067170728E-02  0.0000000000000E+00  0.6433056026530E-02
 0.8840154692933E-03 -0.6550972181080E-02  0.0000000000000E+00  0.6714822171022E-02
 0.9730795123513E-03 -0.6560703122717E-02  0.0000000000000E+00  0.6929807177609E-02
 0.1040113279868E-02 -0.6549826418175E-02  0.0000000000000E+00  0.7089244131528E-02
 0.1085045963045E-02 -0.6518764906810E-02  0.0000000000000E+00  0.7204364067555E-02
 0.1108745245431E-02 -0.6468502916507E-02  0.0000000000000E+00  0.7285638886943E-02
 0.1112719404720E-02 -0.6400324779882E-02  0.0000000000000E+00  0.7342360899853E-02
 0.1098878047116E-02 -0.6315616639872E-02  0.0000000000000E+00  0.7382481688901E-02
 0.1069363489726E-02 -0.6215737880951E-02  0.0000000000000E+00  0.7412624520337E-02
 0.1026447024017E-02 -0.6101951713452E-02  0.0000000000000E+00  0.7438199146654E-02
 0.9724773353933E-03 -0.5975404797097E-02  0.0000000000000E+00  0.7463568337680E-02
 0.9098969797397E-03 -0.5837272943982E-02  0.0000000000000E+00  0.7492218009970E-02
 0.8412814271126E-03 -0.5688906721101E-02  0.0000000000000E+00  0.7526862884466E-02
 0.7693024493290E-03 -0.5531584077815E-02  0.0000000000000E+00  0.7569671365525E-02
 0.6967158741248E-03 -0.5366315124542E-02  0.0000000000000E+00  0.7622628734087E-02
 0.6264599756562E-03 -0.5194016945072E-02  0.0000000000000E+00  0.7687725834733E-02
 0.5617809403899E-03 -0.5015719437177E-02  0.0000000000000E+00  0.7767071954943E-02
 0.5063675518169E-03 -0.4832737616431E-02  0.0000000000000E+00  0.7862949768199E-02
 0.4644920515330E-03 -0.4646824722913E-02  0.0000000000000E+00  0.7977785224104E-02
 0.4411502036671E-03 -0.4460315288404E-02  0.0000000000000E+00  0.8114003293371E-02
 0.4421910549974E-03 -0.4276267576297E-02  0.0000000000000E+00  0.8273736695476E-02
 0.4744155971748E-03 -0.4098591090270E-02  0.0000000000000E+00  0.8458366415425E-02
 0.5456172330095E-03 -0.3932102945046E-02  0.0000000000000E+00  0.8667908696122E-02
 0.6645494375485E-03 -0.3782531907338E-02  0.0000000000000E+00  0.8900247617651E-02
 0.8407869899465E-03 -0.3656511975670E-02  0.0000000000000E+00  0.9150138201772E-02
 0.1084413183618E-02 -0.3561444825913E-02  0.0000000000000E+00  0.9408059946935E-02
 0.1405487090928E-02 -0.3505152570935E-02  0.0000000000000E+00  0.9659079276360E-02
 0.1813269639915E-02 -0.3495322744663E-02  0.0000000000000E+00  0.9881848394617E-02
 0.2315206302583E-02 -0.3538732501111E-02  0.0000000000000E+00  0.1004796526246E-01
 0.2915734485715E-02 -0.3640283564173E-02  0.0000000000000E+00  0.1012196586476E-01
 0.3615164006156E-02 -0.3801968401120E-02  0.0000000000000E+00  0.1006214621860E-01
 0.4409111033210E-02 -0.4022061882865E-02  0.0000000000000E+00  0.9821878431978E-02
 0.5287889347843E-02 -0.4294742020405E-02  0.0000000000000E+00  0.9351164390708E-02
 0.6235243445830E-02 -0.4609644429363E-02  0.0000000000000E+00  0.8599761149672E-02
 0.7228326526650E-02 -0.4951787180804E-02  0.0000000000000E+00  0.7521554922634E-02
 0.8239300659334E-02 -0.5302583792000E-02  0.0000000000000E+00  0.6078190803806E-02
 0.7318961141018E-04 -0.6597930758977E-02  0.0000000000000E+00  0.3838253946855E-02
 0.2262837510054E-03 -0.6688069627283E-02  0.0000000000000E+00  0.4532405111008E-02
 0.3884165084982E-03 -0.6777396985083E-02  0.0000000000000E+00  0.5144580280378E-02
 0.5508559989076E-03 -0.6859510367826E-02  0.0000000000000E+00  0.5666889901048E-02
 0.7054292072843E-03 -0.6928613572072E-02  0.0000000000000E+00  0.6098047291636E-02
 0.8453052803252E-03 -0.6980101063002E-02  0.0000000000000E+00  0.6442453983772E-02
 0.9654621655776E-03 -0.7010865737426E-02  0.0000000000000E+00  0.6708672049272E-02
 0.1062799527325E-02 -0.7019310411623E-02  0.0000000000000E+00  0.6907714289210E-02
 0.1135967781523E-02 -0.7005132389086E-02  0.0000000000000E+00  0.7051509281965E-02
 0.1185031799413E-02 -0.6968988267098E-02  0.0000000000000E+00  0.7151740319246E-02
 0.1211084704472E-02 -0.6912139338617E-02  0.0000000000000E+00  0.7219105597531E-02
 0.1215895080777E-02 -0.6836145366104E-02  0.0000000000000E+00  0.7262946890585E-02
 0.1201630339551E-02 -0.6742638582432E-02  0.0000000000000E+00  0.7291147183195E-02
 0.1170666419652E-02 -0.6633181574600E-02  0.0000000000000E+00  0.7310196452987E-02
 0.1125473626943E-02 -0.6509193762393E-02  0.0000000000000E+00  0.7325347011183E-02
 0.1068561293440E-02 -0.6371932536133E-02  0.0000000000000E+00  0.7340806799432E-02
 0.1002499976879E-02 -0.6222668091301E-02  0.0000000000000E+00  0.7359912661718E-02
 0.9299657309042E-03 -0.6062853880808E-02  0.0000000000000E+00  0.7385229736489E-02
 0.8536887961009E-03 -0.5893825063763E-02  0.0000000000000E+00  0.7418806946464E-02
 0.7764302961272E-03 -0.5716556950279E-02  0.0000000000000E+00  0.7462578782407E-02
 0.7010900193057E-03 -0.5531860943784E-02  0.0000000000000E+00  0.7518565239677E-02
 0.6308459493635E-03 -0.5340616530379E-02  0.0000000000000E+00  0.7588992764315E-02
 0.5693051912971E-03 -0.5143962743510E-02  0.0000000000000E+00  0.7676360843651E-02
 0.5206645193458E-03 -0.4943467494649E-02  0.0000000000000E+00  0.7783424589589E-02
 0.4898744858405E-03 -0.4741287855025E-02  0.0000000000000E+00  0.7913060413609E-02
 0.4827983013922E-03 -0.4540333736255E-02  0.0000000000000E+00  0.8067979011483E-02
 0.5063445572429E-03 -0.4344421442242E-02  0.0000000000000E+00  0.8250260654676E-02
 0.5685451799096E-03 -0.4158354126825E-02  0.0000000000000E+00  0.8460730393718E-02
 0.6785643539576E-03 -0.3987955091566E-02  0.0000000000000E+00  0.8698161510622E-02
 0.8466030580246E-03 -0.3840107300468E-02  0.0000000000000E+00  0.8958206135056E-02
 0.1083621324759E-02 -0.3722658535749E-02  0.0000000000000E+00  0.9232135547187E-02
 0.1400820527463E-02 -0.3644097927432E-02  0.0000000000000E+00  0.9505554774439E-02
 0.1808852087878E-02 -0.3613000522158E-02  0.0000000000000E+00  0.9757217125684E-02
 0.2316735696738E-02 -0.3637212889887E-02  0.0000000000000E+00  0.9958183441520E-02
 0.2930544643974E-02 -0.3722798593843E-02  0.0000000000000E+00  0.1007163840701E-01
 0.3652109546396E-02 -0.3872857632079E-02  0.0000000000000E+00  0.1005362542364E-01
 0.4478242732884E-02 -0.4086528414824E-02  0.0000000000000E+00  0.9854417466709E-02
 0.5399879492297E-02 -0.4358447071009E-02  0.0000000000000E+00  0.9420206871941E-02
 0.6400550089090E-02 -0.4678162628356E-02  0.0000000000000E+00  0.8696555764990E-02
 0.7456225789281E-02 -0.5029942326918E-02  0.0000000000000E+00  0.7633449079566E-02
 0.8536979611255E-02 -0.5393808928905E-02  0.0000000000000E+00  0.6189707033167E-02
 0.7899258362127E-04 -0.7031444805057E-02  0.0000000000000E+00  0.3892288000225E-02
 0.2447932436348E-03 -0.7128711126213E-02  0.0000000000000E+00  0.4585522443010E-02
 0.4212339261152E-03 -0.7225244979916E-02  0.0000000000000E+00  0.5192194925858E-02
 0.5983883479731E-03 -0.7313797697123E-02  0.0000000000000E+00  0.5704662537923E-02
 0.7669928902628E-03 -0.7387846028464E-02  0.0000000000000E+00  0.6122401192236E-02
 0.9193786669593E-03 -0.7442285286950E-02  0.0000000000000E+00  0.6450898976588E-02
 0.1050003802015E-02 -0.7473774910691E-02  0.0000000000000E+00  0.6699884565963E-02
 0.1155553088402E-02 -0.7480723302041E-02  0.0000000000000E+00  0.6881408090355E-02
 0.1234702675189E-02 -0.7463006957228E-02  0.0000000000000E+00  0.7008179938189E-02
 0.1287700888862E-02 -0.7421559470245E-02  0.0000000000000E+00  0.7092372044252E-02
 0.1315905203285E-02 -0.7357951212202E-02  0.0000000000000E+00  0.7144906718357E-02
 0.1321371323486E-02 -0.7274036798065E-02  0.0000000000000E+00  0.7175148772846E-02
 0.1306539639563E-02 -0.7171702800817E-02  0.0000000000000E+00  0.7190874555491E-02
 0.1274025699359E-02 -0.7052715071109E-02  0.0000000000000E+00  0.7198399914381E-02
 0.1226498626615E-02 -0.6918644275765E-02  0.0000000000000E+00  0.7202780803124E-02
 0.1166624598278E-02 -0.6770851103025E-02  0.0000000000000E+00  0.7208034769329E-02
 0.1097096693044E-02 -0.6610692182961E-02  0.0000000000000E+00  0.7217315512493E-02
 0.1020685329753E-02 -0.6439716577555E-02  0.0000000000000E+00  0.7233003391894E-02
 0.9401716059642E-03 -0.6259309443639E-02  0.0000000000000E+00  0.7256992862834E-02
 0.8583118053755E-03 -0.6070402722104E-02  0.0000000000000E+00  0.7291135085755E-02
 0.7779539732169E-03 -0.5873691335009E-02  0.0000000000000E+00  0.7337449460340E-02
 0.7021911791861E-03 -0.5669890711861E-02  0.0000000000000E+00  0.7398253573681E-02
 0.6345286083290E-03 -0.5459946933575E-02  0.0000000000000E+00  0.7476243336636E-02
 0.5790639992511E-03 -0.5245221912388E-02  0.0000000000000E+00  0.7574490845890E-02
 0.5406763094544E-03 -0.5027670655893E-02  0.0000000000000E+00  0.7696323140895E-02
 0.5252146664408E-03 -0.4810026221413E-02  0.0000000000000E+00  0.7845043312910E-02
 0.5396668297130E-03 -0.4595979913767E-02  0.0000000000000E+00  0.8023465223797E-02
 0.5922773689340E-03 -0.4390287080205E-02  0.0000000000000E+00  0.8233283020368E-02
 0.6926023432156E-03 -0.4198832350556E-02  0.0000000000000E+00  0.8474251945133E-02
 0.8514640545612E-03 -0.4028720525035E-02  0.0000000000000E+00  0.8743049565803E-02
 0.1080717322046E-02 -0.3888232280607E-02  0.0000000000000E+00  0.9031900661479E-02
 0.1392756743950E-02 -0.3786533727701E-02  0.0000000000000E+00  0.9327134218107E-02
 0.1799716958992E-02 -0.3733129898922E-02  0.0000000000000E+00  0.9607792204347E-02
 0.2312330746421E-02 -0.3737018164977E-02  0.0000000000000E+00  0.9844553269309E-02
 0.2938487578094E-02 -0.3805543454575E-02  0.0000000000000E+00  0.9999327537547E-02
 0.3681743244642E-02 -0.3943058723814E-02  0.0000000000000E+00  0.1002585825147E-01
 0.4540304640991E-02 -0.4149711924162E-02  0.0000000000000E+00  0.9871116898269E-02
 0.5505871544795E-02 -0.4420707683874E-02  0.0000000000000E+00  0.9477110076827E-02
 0.6561783888043E-02 -0.4745540001186E-02  0.0000000000000E+00  0.8784673703503E-02
 0.7682693387610E-02 -0.5107643854485E-02  0.0000000000000E+00  0.7739310217511E-02
 0.8836284022754E-02 -0.5485453812541E-02  0.0000000000000E+00  0.6296529538176E-02
 0.8517502670369E-04 -0.7467274177956E-02  0.0000000000000E+00  0.3950398474716E-02
 0.2644662041717E-03 -0.7572118515149E-02  0.0000000000000E+00  0.4642668697411E-02
 0.4559929562171E-03 -0.7676258522457E-02  0.0000000000000E+00  0.5243201811184E-02
 0.6485295768770E-03 -0.7771529586767E-02  0.0000000000000E+00  0.5744651938020E-02
 0.8316447521294E-03 -0.7850638451957E-02  0.0000000000000E+00  0.6147408841675E-02
 0.9968006899867E-03 -0.7907977236221E-02  0.0000000000000E+00  0.6458246811490E-02
 0.1137950309884E-02 -0.7940003199378E-02  0.0000000000000E+00  0.6688252884420E-02
 0.1251609434379E-02 -0.7945182916867E-02  0.0000000000000E+00  0.6850659514699E-02
 0.1336538649809E-02 -0.7923629627121E-02  0.0000000000000E+00  0.6959042622144E-02
 0.1393225806660E-02 -0.7876603830233E-02  0.0000000000000E+00  0.7026090371762E-02
 0.1423336995750E-02 -0.7806020709543E-02  0.0000000000000E+00  0.7062936069506E-02
 0.1429244448191E-02 -0.7714050192568E-02  0.0000000000000E+00  0.7078931084082E-02
 0.1413677275955E-02 -0.7602840764663E-02  0.0000000000000E+00  0.7081699488632E-02
 0.1379496043402E-02 -0.7474360087174E-02  0.0000000000000E+00  0.7077337400565E-02
 0.1329567511080E-02 -0.7330323453162E-02  0.0000000000000E+00  0.7070663182697E-02
 0.1266710012647E-02 -0.7172186055266E-02  0.0000000000000E+00  0.7065467767434E-02
 0.1193733119407E-02 -0.7001382147541E-02  0.0000000000000E+00  0.7064687828125E-02
 0.1113495207021E-02 -0.6819548784937E-02  0.0000000000000E+00  0.7070484142843E-02
 0.1028820641748E-02 -0.6628113990530E-02  0.0000000000000E+00  0.7084561734578E-02
 0.9424507518653E-03 -0.6427958086792E-02  0.0000000000000E+00  0.7108655144889E-02
 0.8571684026192E-03 -0.6219649094962E-02  0.0000000000000E+00  0.7144751877492E-02
 0.7759645227877E-03 -0.6003725057208E-02  0.0000000000000E+00  0.7195232394807E-02
 0.7022211925671E-03 -0.5780922272984E-02  0.0000000000000E+00  0.7262965790540E-02
 0.6399120766444E-03 -0.5552375819685E-02  0.0000000000000E+00  0.7351325552284E-02
 0.5938160050563E-03 -0.5319813358830E-02  0.0000000000000E+00  0.7464084602724E-02
 0.5697367243153E-03 -0.5085761098050E-02  0.0000000000000E+00  0.7605148607041E-02
 0.5747085288541E-03 -0.4853750878529E-02  0.0000000000000E+00  0.7778095299026E-02
 0.6171571873185E-03 -0.4628452174719E-02  0.0000000000000E+00  0.7985545378360E-02
 0.7070048718535E-03 -0.4415771695763E-02  0.0000000000000E+00  0.8228328716813E-02
 0.8556825303025E-03 -0.4223001224100E-02  0.0000000000000E+00  0.8504281408568E-02
 0.1075950317889E-02 -0.4058832463519E-02  0.0000000000000E+00  0.8806755304793E-02
 0.1381441794748E-02 -0.3933110404430E-02  0.0000000000000E+00  0.9123009355021E-02
 0.1785867490298E-02 -0.3856307457673E-02  0.0000000000000E+00  0.9432591244677E-02
 0.2301820454140E-02 -0.3838654059788E-02  0.0000000000000E+00  0.9705987716973E-02
 0.2939205925864E-02 -0.3888905602686E-02  0.0000000000000E+00  0.9903945053368E-02
 0.3703539977521E-02 -0.4012832714152E-02  0.0000000000000E+00  0.9977879962351E-02
 0.4594661444254E-02 -0.4211765543214E-02  0.0000000000000E+00  0.9871255054784E-02
 0.5605215719527E-02 -0.4481615084504E-02  0.0000000000000E+00  0.9521471683376E-02
 0.6718398798911E-02 -0.4811869543154E-02  0.0000000000000E+00  0.8864025289111E-02
 0.7907399429785E-02 -0.5185047860126E-02  0.0000000000000E+00  0.7839252711337E-02
 0.9137177326966E-02 -0.5577775345071E-02  0.0000000000000E+00  0.6398780199911E-02
 0.9178263023599E-04 -0.7905731144340E-02  0.0000000000000E+00  0.4012865269393E-02
 0.2854449629107E-03 -0.8018655842986E-02  0.0000000000000E+00  0.4704096899958E-02
 0.4929310999470E-03 -0.8130842316145E-02  0.0000000000000E+00  0.5297772789134E-02
 0.7015895536193E-03 -0.8233126432912E-02  0.0000000000000E+00  0.5786909061260E-02
 0.8997312216299E-03 -0.8317395620575E-02  0.0000000000000E+00  0.6172989817065E-02
 0.1077916879809E-02 -0.8377537579428E-02  0.0000000000000E+00  0.6464305804751E-02
 0.1229616390419E-02 -0.8409848157586E-02  0.0000000000000E+00  0.6673515218970E-02
 0.1351234431527E-02 -0.8412916487013E-02  0.0000000000000E+00  0.6815185074229E-02
 0.1441686526011E-02 -0.8387160443457E-02  0.0000000000000E+00  0.6903835944920E-02
 0.1501765060394E-02 -0.8334224269476E-02  0.0000000000000E+00  0.6952688363788E-02
 0.1533494297733E-02 -0.8256406956190E-02  0.0000000000000E+00  0.6973060229090E-02
 0.1539594511082E-02 -0.8156214587428E-02  0.0000000000000E+00  0.6974241313803E-02
 0.1523099232171E-02 -0.8036063766194E-02  0.0000000000000E+00  0.6963649353170E-02
 0.1487118307126E-02 -0.7898120423789E-02  0.0000000000000E+00  0.6947110177111E-02
 0.1434713553480E-02 -0.7744235803275E-02  0.0000000000000E+00  0.6929161231699E-02
 0.1368849652974E-02 -0.7575949232621E-02  0.0000000000000E+00  0.6913330397681E-02
 0.1292446025336E-02 -0.7394762857071E-02  0.0000000000000E+00  0.6902304120655E-02
 0.1208442458510E-02 -0.7202393820237E-02  0.0000000000000E+00  0.6897989616041E-02
 0.1119699148756E-02 -0.7000306084435E-02  0.0000000000000E+00  0.6901867829078E-02
 0.1028932525925E-02 -0.6789320588453E-02  0.0000000000000E+00  0.6915522805804E-02
 0.9388468068789E-03 -0.6569868599763E-02  0.0000000000000E+00  0.6940877352932E-02
 0.8523131781777E-03 -0.6342297965030E-02  0.0000000000000E+00  0.6980344268325E-02
 0.7725686334573E-03 -0.6107118761063E-02  0.0000000000000E+00  0.7036939622864E-02
 0.7034364149600E-03 -0.5865218522116E-02  0.0000000000000E+00  0.7114319024434E-02
 0.6495647006280E-03 -0.5618071926459E-02  0.0000000000000E+00  0.7216692106794E-02
 0.6166776133987E-03 -0.5367967155202E-02  0.0000000000000E+00  0.7348572225470E-02
 0.6118191171479E-03 -0.5118239673377E-02  0.0000000000000E+00  0.7514326045165E-02
 0.6435588880911E-03 -0.4873430801713E-02  0.0000000000000E+00  0.7717553883706E-02
 0.7221518519616E-03 -0.4639423683272E-02  0.0000000000000E+00  0.7960251050081E-02
 0.8596159531625E-03 -0.4423653639194E-02  0.0000000000000E+00  0.8241548380322E-02
 0.1069618041196E-02 -0.4235191401526E-02  0.0000000000000E+00  0.8556109324288E-02
 0.1367069122862E-02 -0.4084552631674E-02  0.0000000000000E+00  0.8892350073796E-02
 0.1767346248308E-02 -0.3983207106059E-02  0.0000000000000E+00  0.9230573587646E-02
 0.2285057107112E-02 -0.3942699504277E-02  0.0000000000000E+00  0.9541306248207E-02
 0.2932342409693E-02 -0.3973333690815E-02  0.0000000000000E+00  0.9784283620102E-02
 0.3716948180297E-02 -0.4082483627145E-02  0.0000000000000E+00  0.9908599724783E-02
 0.4640628723981E-02 -0.4272865466077E-02  0.0000000000000E+00  0.9854001819504E-02
 0.5697203441351E-02 -0.4541268422894E-02  0.0000000000000E+00  0.9552820870079E-02
 0.6869800205629E-02 -0.4877247253830E-02  0.0000000000000E+00  0.8934500789186E-02
 0.8129995579285E-02 -0.5262319101168E-02  0.0000000000000E+00  0.7933407553889E-02
 0.9439648107724E-02 -0.5671050696916E-02  0.0000000000000E+00  0.6496607556457E-02
 0.9886555947425E-04 -0.8347145428396E-02  0.0000000000000E+00  0.4079999633465E-02
 0.3078857776170E-03 -0.8468709087681E-02  0.0000000000000E+00  0.4770085425756E-02
 0.5323079654257E-03 -0.8589424997252E-02  0.0000000000000E+00  0.5356087822849E-02
 0.7579035218198E-03 -0.8699029916922E-02  0.0000000000000E+00  0.5831469002849E-02
 0.9716211973463E-03 -0.8788536135276E-02  0.0000000000000E+00  0.6199024485183E-02
 0.1163087455682E-02 -0.8851330319290E-02  0.0000000000000E+00  0.6468828659778E-02
 0.1325321473572E-02 -0.8883599779162E-02  0.0000000000000E+00  0.6655347564815E-02
 0.1454689193287E-02 -0.8884134618096E-02  0.0000000000000E+00  0.6774641581768E-02
 0.1550345097442E-02 -0.8853736783458E-02  0.0000000000000E+00  0.6842247686634E-02
 0.1613460682519E-02 -0.8794498164109E-02  0.0000000000000E+00  0.6871920206774E-02
 0.1646473008792E-02 -0.8709143258288E-02  0.0000000000000E+00  0.6875119273595E-02
 0.1652483363603E-02 -0.8600534691390E-02  0.0000000000000E+00  0.6861011566517E-02
 0.1634844593409E-02 -0.8471361195929E-02  0.0000000000000E+00  0.6836745255906E-02
 0.1596918289538E-02 -0.8323980688654E-02  0.0000000000000E+00  0.6807820326708E-02
 0.1541956880235E-02 -0.8160369194239E-02  0.0000000000000E+00  0.6778448270317E-02
 0.1473064213963E-02 -0.7982138005930E-02  0.0000000000000E+00  0.6751857841518E-02
 0.1393262238057E-02 -0.7790846452441E-02  0.0000000000000E+00  0.6730453333216E-02
 0.1305565548733E-02 -0.7588283641805E-02  0.0000000000000E+00  0.6715855734447E-02
 0.1212863036049E-02 -0.7375942895978E-02  0.0000000000000E+00  0.6709287923336E-02
 0.1117836635001E-02 -0.7154578668860E-02  0.0000000000000E+00  0.6712149165132E-02
 0.1023098577774E-02 -0.6924476385934E-02  0.0000000000000E+00  0.6726263340170E-02
 0.9313824887144E-03 -0.6685781638224E-02  0.0000000000000E+00  0.6754042774554E-02
 0.8457576662836E-03 -0.6438762502489E-02  0.0000000000000E+00  0.6798621277806E-02
 0.7698694722306E-03 -0.6184038731817E-02  0.0000000000000E+00  0.6863913417826E-02
 0.7082031362281E-03 -0.5922806430141E-02  0.0000000000000E+00  0.6954551469183E-02
 0.6663661587638E-03 -0.5657083806516E-02  0.0000000000000E+00  0.7075655683801E-02
 0.6513711365137E-03 -0.5389970926661E-02  0.0000000000000E+00  0.7232400182595E-02
 0.6718883113984E-03 -0.5125834592200E-02  0.0000000000000E+00  0.7429411789039E-02
 0.7384637713639E-03 -0.4870482086008E-02  0.0000000000000E+00  0.7669938054887E-02
 0.8636706131292E-03 -0.4631439403744E-02  0.0000000000000E+00  0.7954541753636E-02
 0.1062072652220E-02 -0.4418112604725E-02  0.0000000000000E+00  0.8279391906969E-02
 0.1349887112367E-02 -0.4241667364147E-02  0.0000000000000E+00  0.8634310581073E-02
 0.1744243561547E-02 -0.4114590555721E-02  0.0000000000000E+00  0.9000640852259E-02
 0.2261924075638E-02 -0.4049818518193E-02  0.0000000000000E+00  0.9349227928809E-02
 0.2917544971227E-02 -0.4059349161842E-02  0.0000000000000E+00  0.9639002100887E-02
 0.3721390372979E-02 -0.4152367741573E-02  0.0000000000000E+00  0.9816780309535E-02
 0.4677468107359E-02 -0.4333216400663E-02  0.0000000000000E+00  0.9818397655412E-02
 0.5781058753789E-02 -0.4599776592279E-02  0.0000000000000E+00  0.9570602895625E-02
 0.7015336649195E-02 -0.4941772545155E-02  0.0000000000000E+00  0.8995963915700E-02
 0.8350111125191E-02 -0.5339632444575E-02  0.0000000000000E+00  0.8021921884424E-02
 0.9743712014609E-02 -0.5765580307030E-02  0.0000000000000E+00  0.6590186902075E-02
 0.1064794293581E-03 -0.8791867873191E-02  0.0000000000000E+00  0.4152147101760E-02
 0.3319618061659E-03 -0.8922690720284E-02  0.0000000000000E+00  0.4840939587026E-02
 0.5744097561338E-03 -0.9052463907409E-02  0.0000000000000E+00  0.5418333167878E-02
 0.8178367883151E-03 -0.9169706836992E-02  0.0000000000000E+00  0.5878345086624E-02
 0.1047709553695E-02 -0.9264494337075E-02  0.0000000000000E+00  0.6225345125744E-02
 0.1252688863648E-02 -0.9329722465894E-02  0.0000000000000E+00  0.6471502800038E-02
 0.1425389273975E-02 -0.9361538278333E-02  0.0000000000000E+00  0.6633355344390E-02
 0.1562228182235E-02 -0.9359027920967E-02  0.0000000000000E+00  0.6728620376698E-02
 0.1662698487048E-02 -0.9323469618609E-02  0.0000000000000E+00  0.6773911884068E-02
 0.1728435455223E-02 -0.9257473826476E-02  0.0000000000000E+00  0.6783500735867E-02
 0.1762348206586E-02 -0.9164234134247E-02  0.0000000000000E+00  0.6768927995658E-02
 0.1767952603742E-02 -0.9046988571017E-02  0.0000000000000E+00  0.6739160714834E-02
 0.1748933982359E-02 -0.8908698845009E-02  0.0000000000000E+00  0.6701004514088E-02
 0.1708905582524E-02 -0.8751905097213E-02  0.0000000000000E+00  0.6659573121918E-02
 0.1651303613813E-02 -0.8578694006327E-02  0.0000000000000E+00  0.6618705888127E-02
 0.1579362272954E-02 -0.8390734632037E-02  0.0000000000000E+00  0.6581297458711E-02
 0.1496197990987E-02 -0.8189631765007E-02  0.0000000000000E+00  0.6549440036936E-02
 0.1404893614942E-02 -0.7977238223136E-02  0.0000000000000E+00  0.6524437610220E-02
 0.1308360079087E-02 -0.7755070619489E-02  0.0000000000000E+00  0.6507222029086E-02
 0.1209235770913E-02 -0.7523810680858E-02  0.0000000000000E+00  0.6498973279785E-02
 0.1110027910680E-02 -0.7283589875689E-02  0.0000000000000E+00  0.6501380751184E-02
 0.1013314688692E-02 -0.7034340466330E-02  0.0000000000000E+00  0.6516821270682E-02
 0.9219746641419E-03 -0.6776073720218E-02  0.0000000000000E+00  0.6548514109219E-02
 0.8394469945153E-03 -0.6509122237346E-02  0.0000000000000E+00  0.6600605599864E-02
 0.7700201843119E-03 -0.6234378486218E-02  0.0000000000000E+00  0.6678131266301E-02
 0.7191456408931E-03 -0.5953558516634E-02  0.0000000000000E+00  0.6786810697861E-02
 0.6937595590779E-03 -0.5669486339291E-02  0.0000000000000E+00  0.6932636055407E-02
 0.7025832597050E-03 -0.5386304071995E-02  0.0000000000000E+00  0.7121299363321E-02
 0.7564036069642E-03 -0.5109684084733E-02  0.0000000000000E+00  0.7357380677720E-02
 0.8683055671794E-03 -0.4847180011747E-02  0.0000000000000E+00  0.7643010146191E-02
 0.1053727027304E-02 -0.4608476205764E-02  0.0000000000000E+00  0.7976063527761E-02
 0.1330207596006E-02 -0.4405352621038E-02  0.0000000000000E+00  0.8348038076695E-02
 0.1716707437948E-02 -0.4251319264396E-02  0.0000000000000E+00  0.8741639464072E-02
 0.2232345451209E-02 -0.4160774253334E-02  0.0000000000000E+00  0.9128365262689E-02
 0.2894473674270E-02 -0.4147560400575E-02  0.0000000000000E+00  0.9466609710614E-02
 0.3716264736190E-02 -0.4222905271081E-02  0.0000000000000E+00  0.9701014541721E-02
 0.4704382135428E-02 -0.4393058582253E-02  0.0000000000000E+00  0.9763328181155E-02
 0.5855928141263E-02 -0.4657260413110E-02  0.0000000000000E+00  0.9574160093393E-02
 0.7154289889084E-02 -0.5005548503376E-02  0.0000000000000E+00  0.9048244415506E-02
 0.8567348685588E-02 -0.5417174807913E-02  0.0000000000000E+00  0.8104959031430E-02
 0.1004941401555E-01 -0.5861691746564E-02  0.0000000000000E+00  0.6679719744947E-02
 0.1146864788070E-03 -0.9240274754588E-02  0.0000000000000E+00  0.4229691043681E-02
 0.3578666739284E-03 -0.9381045076424E-02  0.0000000000000E+00  0.4916993448798E-02
 0.6195545771862E-03 -0.9520450623282E-02  0.0000000000000E+00  0.5484698898338E-02
 0.8817900931881E-03 -0.9645653358726E-02  0.0000000000000E+00  0.5927521396442E-02
 0.1128420909417E-02 -0.9745722140207E-02  0.0000000000000E+00  0.6251725065814E-02
 0.1347115104679E-02 -0.9813083178873E-02  0.0000000000000E+00  0.6471938918744E-02
 0.1530146813697E-02 -0.9843931104436E-02  0.0000000000000E+00  0.6607063904506E-02
 0.1674096674538E-02 -0.9837762876562E-02  0.0000000000000E+00  0.6676641131616E-02
 0.1778912937563E-02 -0.9796439170277E-02  0.0000000000000E+00  0.6698406076787E-02
 0.1846789729667E-02 -0.9723166598990E-02  0.0000000000000E+00  0.6687105450281E-02
 0.1881171408409E-02 -0.9621652157965E-02  0.0000000000000E+00  0.6654277727452E-02
 0.1886021437361E-02 -0.9495525297854E-02  0.0000000000000E+00  0.6608597129642E-02
 0.1865368004970E-02 -0.9348017262042E-02  0.0000000000000E+00  0.6556443605968E-02
 0.1823072489895E-02 -0.9181836379379E-02  0.0000000000000E+00  0.6502479747807E-02
 0.1762745112793E-02 -0.8999162411811E-02  0.0000000000000E+00  0.6450126196845E-02
 0.1687739694731E-02 -0.8801705737798E-02  0.0000000000000E+00  0.6401910491722E-02
 0.1601258359042E-02 -0.8591103856236E-02  0.0000000000000E+00  0.6359585628490E-02
 0.1506445835039E-02 -0.8369265024977E-02  0.0000000000000E+00  0.6324110351069E-02
 0.1406229158206E-02 -0.8137723776298E-02  0.0000000000000E+00  0.6296093955871E-02
 0.1303194880434E-02 -0.7897083934375E-02  0.0000000000000E+00  0.6276462646336E-02
 0.1199732678661E-02 -0.7647316083006E-02  0.0000000000000E+00  0.6266734532213E-02
 0.1098247558747E-02 -0.7388129318139E-02  0.0000000000000E+00  0.6269213792824E-02
 0.1001404071012E-02 -0.7119264587039E-02  0.0000000000000E+00  0.6287169918534E-02
 0.9124062675447E-03 -0.6840749280917E-02  0.0000000000000E+00  0.6324949725126E-02
 0.8353110386816E-03 -0.6553148275332E-02  0.0000000000000E+00  0.6387966922929E-02
 0.7753721512533E-03 -0.6257843686165E-02  0.0000000000000E+00  0.6482525279977E-02
 0.7394006735453E-03 -0.5957341821207E-02  0.0000000000000E+00  0.6615436156204E-02
 0.7361134201799E-03 -0.5655506623709E-02  0.0000000000000E+00  0.6793485046282E-02
 0.7764784013341E-03 -0.5357809819690E-02  0.0000000000000E+00  0.7022655266928E-02
 0.8740365132320E-03 -0.5071758863106E-02  0.0000000000000E+00  0.7306774612315E-02
 0.1045061420222E-02 -0.4807244402642E-02  0.0000000000000E+00  0.7645630780187E-02
 0.1308415355637E-02 -0.4576606967419E-02  0.0000000000000E+00  0.8032684534368E-02
 0.1684955158818E-02 -0.4394367956653E-02  0.0000000000000E+00  0.8452365843617E-02
 0.2196297892566E-02 -0.4276445519631E-02  0.0000000000000E+00  0.8877219324155E-02
 0.2862809876597E-02 -0.4238680003273E-02  0.0000000000000E+00  0.9265449187435E-02
 0.3700948215382E-02 -0.4294595153032E-02  0.0000000000000E+00  0.9559698033888E-02
 0.4720508998904E-02 -0.4452676910092E-02  0.0000000000000E+00  0.9687493043782E-02
 0.5920868316600E-02 -0.4713855199391E-02  0.0000000000000E+00  0.9562707897501E-02
 0.7285862630547E-02 -0.5068681556002E-02  0.0000000000000E+00  0.9091129645637E-02
 0.8781279647149E-02 -0.5495147558051E-02  0.0000000000000E+00  0.8182700068765E-02
 0.1035683114200E-01 -0.5959744761936E-02  0.0000000000000E+00  0.6765432249000E-02
 0.1235570000751E-03 -0.9692772909438E-02  0.0000000000000E+00  0.4313056943914E-02
 0.3858187928065E-03 -0.9844254730703E-02  0.0000000000000E+00  0.4998611870908E-02
 0.6680987528283E-03 -0.9993917401533E-02  0.0000000000000E+00  0.5555375530714E-02
 0.9502057804397E-03 -0.1012739972246E-01  0.0000000000000E+00  0.5978943306500E-02
 0.1214213641355E-02 -0.1023269067715E-01  0.0000000000000E+00  0.6277865384095E-02
 0.1446778725297E-02 -0.1030178218517E-01  0.0000000000000E+00  0.6469657475783E-02
 0.1639922745347E-02 -0.1033102899013E-01  0.0000000000000E+00  0.6575907821123E-02
 0.1790527446134E-02 -0.1032047678765E-01  0.0000000000000E+00  0.6618145367606E-02
 0.1899132950856E-02 -0.1027268988423E-01  0.0000000000000E+00  0.6615248912454E-02
 0.1968597807679E-02 -0.1019155454433E-01  0.0000000000000E+00  0.6582371212909E-02
 0.2002967604054E-02 -0.1008133463390E-01  0.0000000000000E+00  0.6530938914903E-02
 0.2006684471662E-02 -0.9946062589682E-02  0.0000000000000E+00  0.6469222078645E-02
 0.1984125733877E-02 -0.9789230198895E-02  0.0000000000000E+00  0.6403081646675E-02
 0.1939393043552E-02 -0.9613694822266E-02  0.0000000000000E+00  0.6336660395994E-02
 0.1876257334140E-02 -0.9421707808213E-02  0.0000000000000E+00  0.6272914310170E-02
 0.1798179158882E-02 -0.9215001956928E-02  0.0000000000000E+00  0.6213973869137E-02
 0.1708436800376E-02 -0.8995233698291E-02  0.0000000000000E+00  0.6161229516939E-02
 0.1610230876842E-02 -0.8764358588568E-02  0.0000000000000E+00  0.6115269762581E-02
 0.1506499549250E-02 -0.8523924611797E-02  0.0000000000000E+00  0.6076351686999E-02
 0.1399770254483E-02 -0.8274453797988E-02  0.0000000000000E+00  0.6045113413937E-02
 0.1292303282446E-02 -0.8015750320355E-02  0.0000000000000E+00  0.6022863897339E-02
 0.1186312998625E-02 -0.7747291757437E-02  0.0000000000000E+00  0.6011795554011E-02
 0.1084226673595E-02 -0.7468536876881E-02  0.0000000000000E+00  0.6015190061174E-02
 0.9889841092369E-03 -0.7179191627064E-02  0.0000000000000E+00  0.6037559413281E-02
 0.9043750343081E-03 -0.6879471105736E-02  0.0000000000000E+00  0.6084664529489E-02
 0.8354124713199E-03 -0.6570392926288E-02  0.0000000000000E+00  0.6163369815343E-02
 0.7887304141427E-03 -0.6254103877570E-02  0.0000000000000E+00  0.6281296036258E-02
 0.7729797111068E-03 -0.5934133608429E-02  0.0000000000000E+00  0.6446337568685E-02
 0.7992403567597E-03 -0.5615681116419E-02  0.0000000000000E+00  0.6665938854009E-02
 0.8814394469551E-03 -0.5306122676804E-02  0.0000000000000E+00  0.6945746307124E-02
 0.1036630397307E-02 -0.5015466725389E-02  0.0000000000000E+00  0.7287664580470E-02
 0.1284978622530E-02 -0.4756539595369E-02  0.0000000000000E+00  0.7687422307590E-02
 0.1649286741186E-02 -0.4544839812643E-02  0.0000000000000E+00  0.8131575118282E-02
 0.2153825101059E-02 -0.4397846158006E-02  0.0000000000000E+00  0.8594176974544E-02
 0.2822268290589E-02 -0.4333545828908E-02  0.0000000000000E+00  0.9033679371760E-02
 0.3674801826725E-02 -0.4368033856501E-02  0.0000000000000E+00  0.9390997801230E-02
 0.4724917490566E-02 -0.4512413089453E-02  0.0000000000000E+00  0.9589367508795E-02
 0.5974831421256E-02 -0.4769713844204E-02  0.0000000000000E+00  0.9535303645049E-02
 0.7409162758535E-02 -0.5131279636434E-02  0.0000000000000E+00  0.9124354669902E-02
 0.8991439420713E-02 -0.5573768967127E-02  0.0000000000000E+00  0.8255348928243E-02
 0.1066607615672E-01 -0.6060137871384E-02  0.0000000000000E+00  0.6847572435353E-02
 0.1331710947977E-03 -0.1014980588528E-01  0.0000000000000E+00  0.4402717562838E-02
 0.4160666345683E-03 -0.1031284812187E-01  0.0000000000000E+00  0.5086192760275E-02
 0.7204443958737E-03 -0.1047344472943E-01  0.0000000000000E+00  0.5630549405058E-02
 0.1023574900014E-02 -0.1061551543274E-01  0.0000000000000E+00  0.6032505435776E-02
 0.1305584095720E-02 -0.1072589159906E-01  0.0000000000000E+00  0.6303378640845E-02
 0.1552111291402E-02 -0.1079618721588E-01  0.0000000000000E+00  0.6464072846143E-02
 0.1755044764723E-02 -0.1082306078672E-01  0.0000000000000E+00  0.6539219009737E-02
 0.1911736517532E-02 -0.1080727165258E-01  0.0000000000000E+00  0.6552489875266E-02
 0.2023476689373E-02 -0.1075222465453E-01  0.0000000000000E+00  0.6523898374299E-02
 0.2093903864495E-02 -0.1066257373336E-01  0.0000000000000E+00  0.6468897865815E-02
 0.2127732077495E-02 -0.1054318014131E-01  0.0000000000000E+00  0.6398664603178E-02
 0.2129909473626E-02 -0.1039848449207E-01  0.0000000000000E+00  0.6320933884960E-02
 0.2105163263930E-02 -0.1023222318669E-01  0.0000000000000E+00  0.6240944432938E-02
 0.2057822147625E-02 -0.1004737748191E-01  0.0000000000000E+00  0.6162247746250E-02
 0.1991800344341E-02 -0.9846244431734E-02  0.0000000000000E+00  0.6087291052920E-02
 0.1910649832870E-02 -0.9630557743640E-02  0.0000000000000E+00  0.6017782102852E-02
 0.1817714825018E-02 -0.9401978019321E-02  0.0000000000000E+00  0.5954730289296E-02
 0.1716246447585E-02 -0.9162500275092E-02  0.0000000000000E+00  0.5898332930344E-02
 0.1609190284807E-02 -0.8913682612956E-02  0.0000000000000E+00  0.5848467543936E-02
 0.1499008654267E-02 -0.8655962883072E-02  0.0000000000000E+00  0.5805450293334E-02
 0.1387821492820E-02 -0.8388974930402E-02  0.0000000000000E+00  0.5770342164304E-02
 0.1277635528469E-02 -0.8111958199120E-02  0.0000000000000E+00  0.5745182961297E-02
 0.1170617712732E-02 -0.7824079440807E-02  0.0000000000000E+00  0.5733226023186E-02
 0.1069414587770E-02 -0.7524709309549E-02  0.0000000000000E+00  0.5739109413210E-02
 0.9775130603373E-03 -0.7213693482662E-02  0.0000000000000E+00  0.5768904260800E-02
 0.8996414084883E-03 -0.6891656652237E-02  0.0000000000000E+00  0.5830002991940E-02
 0.8422020304977E-03 -0.6560345131802E-02  0.0000000000000E+00  0.5930813497492E-02
 0.8137129120923E-03 -0.6222896483418E-02  0.0000000000000E+00  0.6080338994616E-02
 0.8252872721373E-03 -0.5884159168598E-02  0.0000000000000E+00  0.6287526223123E-02
 0.8911539130758E-03 -0.5551282014496E-02  0.0000000000000E+00  0.6559946987066E-02
 0.1029069892177E-02 -0.5234284871814E-02  0.0000000000000E+00  0.6901822278562E-02
 0.1260460538030E-02 -0.4946380836878E-02  0.0000000000000E+00  0.7311464402027E-02
 0.1610100446769E-02 -0.4703983366608E-02  0.0000000000000E+00  0.7777994439141E-02
 0.2105055399525E-02 -0.4526147641374E-02  0.0000000000000E+00  0.8277511233923E-02
 0.2772612681456E-02 -0.4433146604118E-02  0.0000000000000E+00  0.8769257848011E-02
 0.3637179072362E-02 -0.4443939343576E-02  0.0000000000000E+00  0.9192816579655E-02
 0.4716602885668E-02 -0.4572682156879E-02  0.0000000000000E+00  0.9467154998013E-02
 0.6016647128713E-02 -0.4825011005985E-02  0.0000000000000E+00  0.9490804497800E-02
 0.7523182010438E-02 -0.5193447222684E-02  0.0000000000000E+00  0.9147589110480E-02
 0.9197322363948E-02 -0.5653275240672E-02  0.0000000000000E+00  0.8323145050733E-02
 0.1097730294291E-01 -0.6163316882752E-02  0.0000000000000E+00  0.6926406463713E-02
 0.1436208514685E-03 -0.1061186138000E-01  0.0000000000000E+00  0.4499199162503E-02
 0.4488952226536E-03 -0.1078740874587E-01  0.0000000000000E+00  0.5180169492983E-02
 0.7770485301239E-03 -0.1095967021022E-01  0.0000000000000E+00  0.5710396351570E-02
 0.1102445381732E-02 -0.1111061493168E-01  0.0000000000000E+00  0.6088036272290E-02
 0.1403070902301E-02 -0.1122583780105E-01  0.0000000000000E+00  0.6327768965850E-02
 0.1663563096874E-02 -0.1129666012354E-01  0.0000000000000E+00  0.6454474808397E-02
 0.1875835848362E-02 -0.1132022678635E-01  0.0000000000000E+00  0.6496213707240E-02
 0.2037917771619E-02 -0.1129820678108E-01  0.0000000000000E+00  0.6478940333019E-02
 0.2152030556749E-02 -0.1123499824019E-01  0.0000000000000E+00  0.6423750969566E-02
 0.2222717407573E-02 -0.1113611315564E-01  0.0000000000000E+00  0.6346251034168E-02
 0.2255427052315E-02 -0.1100704500657E-01  0.0000000000000E+00  0.6257195005016E-02
 0.2255635138885E-02 -0.1085263916064E-01  0.0000000000000E+00  0.6163632932094E-02
 0.2228412381173E-02 -0.1067685228989E-01  0.0000000000000E+00  0.6070069090080E-02
 0.2178294884330E-02 -0.1048275759857E-01  0.0000000000000E+00  0.5979390843730E-02
 0.2109318007047E-02 -0.1027266717711E-01  0.0000000000000E+00  0.5893495897836E-02
 0.2025107214441E-02 -0.1004829138642E-01  0.0000000000000E+00  0.5813649273465E-02
 0.1929061811634E-02 -0.9811279337724E-02  0.0000000000000E+00  0.5740466846098E-02
 0.1824478963988E-02 -0.9563658178573E-02  0.0000000000000E+00  0.5673738668229E-02
 0.1714309607001E-02 -0.9306994176741E-02  0.0000000000000E+00  0.5612938116359E-02
 0.1600946496198E-02 -0.9041640342506E-02  0.0000000000000E+00  0.5558026123774E-02
 0.1486359306263E-02 -0.8767058072407E-02  0.0000000000000E+00  0.5509776132732E-02
 0.1372330734231E-02 -0.8482244028002E-02  0.0000000000000E+00  0.5470033066752E-02
 0.1260744839119E-02 -0.8186065516992E-02  0.0000000000000E+00  0.5441979357374E-02
 0.1153926452750E-02 -0.7877547046903E-02  0.0000000000000E+00  0.5430336619970E-02
 0.1055024529748E-02 -0.7556148648155E-02  0.0000000000000E+00  0.5441443246253E-02
 0.9684385203605E-03 -0.7222076924770E-02  0.0000000000000E+00  0.5483177428075E-02
 0.9002829893747E-03 -0.6876638867121E-02  0.0000000000000E+00  0.5564697925180E-02
 0.8588714209805E-03 -0.6522521736670E-02  0.0000000000000E+00  0.5696098597478E-02
 0.8552621169856E-03 -0.6164140928687E-02  0.0000000000000E+00  0.5887848797921E-02
 0.9038856134858E-03 -0.5808310601947E-02  0.0000000000000E+00  0.6149532587308E-02
 0.1023104160481E-02 -0.5464936776725E-02  0.0000000000000E+00  0.6487874240645E-02
 0.1235531468957E-02 -0.5147492847243E-02  0.0000000000000E+00  0.6904090381832E-02
 0.1567910479382E-02 -0.4873211079138E-02  0.0000000000000E+00  0.7390342237567E-02
 0.2050222938532E-02 -0.4662705281239E-02  0.0000000000000E+00  0.7925386254633E-02
 0.2713676098771E-02 -0.4538652984649E-02  0.0000000000000E+00  0.8469924635987E-02
 0.3587438588242E-02 -0.4523181501251E-02  0.0000000000000E+00  0.8962752989013E-02
 0.4694485039394E-02 -0.4633995345671E-02  0.0000000000000E+00  0.9318729177870E-02
 0.6045001669394E-02 -0.4879950272455E-02  0.0000000000000E+00  0.9427808930139E-02
 0.7626765607349E-02 -0.5255274826899E-02  0.0000000000000E+00  0.9160415302370E-02
 0.9398374880348E-02 -0.5733915815821E-02  0.0000000000000E+00  0.8386390162593E-02
 0.1129071613303E-01 -0.6269784973980E-02  0.0000000000000E+00  0.7002217665638E-02
 0.1550130710776E-03 -0.1107948032290E-01  0.0000000000000E+00  0.4603089032733E-02
 0.4846341900169E-03 -0.1126858632615E-01  0.0000000000000E+00  0.5281013425344E-02
 0.8384341434750E-03 -0.1145329905805E-01  0.0000000000000E+00  0.5795072984099E-02
 0.1187431425168E-02 -0.1161336371655E-01  0.0000000000000E+00  0.6145278475000E-02
 0.1507259226598E-02 -0.1173306323630E-01  0.0000000000000E+00  0.6350407691922E-02
 0.1781601766549E-02 -0.1180355123454E-01  0.0000000000000E+00  0.6440007066347E-02
 0.2002608987341E-02 -0.1182269016987E-01  0.0000000000000E+00  0.6445978497599E-02
 0.2169236238766E-02 -0.1179328996347E-01  0.0000000000000E+00  0.6396665540331E-02
 0.2284842886658E-02 -0.1172090984176E-01  0.0000000000000E+00  0.6314142308142E-02
 0.2355008290883E-02 -0.1161200931066E-01  0.0000000000000E+00  0.6213966432255E-02
 0.2385978218130E-02 -0.1147273978951E-01  0.0000000000000E+00  0.6106263327782E-02
 0.2383768930853E-02 -0.1130833682003E-01  0.0000000000000E+00  0.5997227588334E-02
 0.2353779393294E-02 -0.1112294309233E-01  0.0000000000000E+00  0.5890509338757E-02
 0.2300726017120E-02 -0.1091968425017E-01  0.0000000000000E+00  0.5788259368959E-02
 0.2228737874712E-02 -0.1070085164793E-01  0.0000000000000E+00  0.5691790124051E-02
 0.2141493166774E-02 -0.1046810524361E-01  0.0000000000000E+00  0.5601911099061E-02
 0.2042434994074E-02 -0.1022306620987E-01  0.0000000000000E+00  0.5518839501789E-02
 0.1934903364795E-02 -0.9967787241911E-02  0.0000000000000E+00  0.5441947823430E-02
 0.1821854535726E-02 -0.9703842464499E-02  0.0000000000000E+00  0.5370283938052E-02
 0.1705609121784E-02 -0.9431501321848E-02  0.0000000000000E+00  0.5303421059372E-02
 0.1587977839767E-02 -0.9150052599316E-02  0.0000000000000E+00  0.5241804940262E-02
 0.1470503677860E-02 -0.8858247708411E-02  0.0000000000000E+00  0.5187042358054E-02
 0.1354765922517E-02 -0.8554649889025E-02  0.0000000000000E+00  0.5142200855025E-02
 0.1242740270634E-02 -0.8237930321350E-02  0.0000000000000E+00  0.5112040293846E-02
 0.1137203871364E-02 -0.7907151559469E-02  0.0000000000000E+00  0.5103117718108E-02
 0.1042184158574E-02 -0.7562081470629E-02  0.0000000000000E+00  0.5123744809795E-02
 0.9634509934852E-03 -0.7203552465427E-02  0.0000000000000E+00  0.5183779576982E-02
 0.9090379646310E-03 -0.6833744445946E-02  0.0000000000000E+00  0.5294367426713E-02
 0.8898515039321E-03 -0.6456553925030E-02  0.0000000000000E+00  0.5467495314216E-02
 0.9204080786673E-03 -0.6078343074115E-02  0.0000000000000E+00  0.5714820072433E-02
 0.1019552332131E-02 -0.5708759483736E-02  0.0000000000000E+00  0.6045735473542E-02
 0.1210981982538E-02 -0.5361380069021E-02  0.0000000000000E+00  0.6464679011769E-02
 0.1523366944649E-02 -0.5054119444676E-02  0.0000000000000E+00  0.6967355027285E-02
 0.1989693078251E-02 -0.4809088345744E-02  0.0000000000000E+00  0.7535868840613E-02
 0.2645386752507E-02 -0.4651455165790E-02  0.0000000000000E+00  0.8133188421103E-02
 0.3524962282758E-02 -0.4606820565493E-02  0.0000000000000E+00  0.8698057781933E-02
 0.4657410502620E-02 -0.4696991375680E-02  0.0000000000000E+00  0.9141565590766E-02
 0.6058415800913E-02 -0.4934778984467E-02  0.0000000000000E+00  0.9344575695053E-02
 0.7718567439532E-02 -0.5316821713044E-02  0.0000000000000E+00  0.9162281893566E-02
 0.9593981563377E-02 -0.5815930372520E-02  0.0000000000000E+00  0.8445498599169E-02
 0.1160658881564E-01 -0.6380112255269E-02  0.0000000000000E+00  0.7075320634411E-02
 0.1674727124391E-03 -0.1155326806287E-01  0.0000000000000E+00  0.4715044615055E-02
 0.5236678645502E-03 -0.1175711049378E-01  0.0000000000000E+00  0.5389236347262E-02
 0.9052036465147E-03 -0.1195511652991E-01  0.0000000000000E+00  0.5884704696335E-02
 0.1279224240341E-02 -0.1212448479175E-01  0.0000000000000E+00  0.6203863545446E-02
 0.1618784690002E-02 -0.1224812133484E-01  0.0000000000000E+00  0.6370503555669E-02
 0.1906709291672E-02 -0.1231719135513E-01  0.0000000000000E+00  0.6419642537443E-02
 0.2135660014695E-02 -0.1233056615161E-01  0.0000000000000E+00  0.6387455714207E-02
 0.2305819829574E-02 -0.1229246700633E-01  0.0000000000000E+00  0.6304732848444E-02
 0.2421916693018E-02 -0.1220979484446E-01  0.0000000000000E+00  0.6194349604994E-02
 0.2490701338579E-02 -0.1209004058184E-01  0.0000000000000E+00  0.6071556022475E-02
 0.2519271222995E-02 -0.1194002590177E-01  0.0000000000000E+00  0.5945603028564E-02
 0.2514185065717E-02 -0.1176534799250E-01  0.0000000000000E+00  0.5821641099830E-02
 0.2481144175266E-02 -0.1157028997317E-01  0.0000000000000E+00  0.5702341375917E-02
 0.2425009726740E-02 -0.1135798227582E-01  0.0000000000000E+00  0.5589048283513E-02
 0.2349971310041E-02 -0.1113065445693E-01  0.0000000000000E+00  0.5482460186752E-02
 0.2259736168520E-02 -0.1088988621929E-01  0.0000000000000E+00  0.5382927084952E-02
 0.2157779639459E-02 -0.1063725371544E-01  0.0000000000000E+00  0.5290271050595E-02
 0.2047483089422E-02 -0.1037482960877E-01  0.0000000000000E+00  0.5203443435372E-02
 0.1931810579906E-02 -0.1010419748310E-01  0.0000000000000E+00  0.5121048893359E-02
 0.1813010183966E-02 -0.9825546608233E-02  0.0000000000000E+00  0.5042241336747E-02
 0.1692726296817E-02 -0.9537995068914E-02  0.0000000000000E+00  0.4967098326972E-02
 0.1572247298812E-02 -0.9240048919086E-02  0.0000000000000E+00  0.4896944784326E-02
 0.1452826728845E-02 -0.8929965912198E-02  0.0000000000000E+00  0.4834688815500E-02
 0.1336065259984E-02 -0.8606061120875E-02  0.0000000000000E+00  0.4785081313053E-02
 0.1224336513550E-02 -0.8266993279241E-02  0.0000000000000E+00  0.4754844240987E-02
 0.1121254765043E-02 -0.7912076817493E-02  0.0000000000000E+00  0.4752660316806E-02
 0.1032188999598E-02 -0.7541639623094E-02  0.0000000000000E+00  0.4789018595711E-02
 0.9648150770788E-03 -0.7157300260440E-02  0.0000000000000E+00  0.4876053355743E-02
 0.9297827890715E-03 -0.6762349193543E-02  0.0000000000000E+00  0.5027234168096E-02
 0.9415630439893E-03 -0.6362570704735E-02  0.0000000000000E+00  0.5256317678807E-02
 0.1019334166350E-02 -0.5967190271980E-02  0.0000000000000E+00  0.5575502852128E-02
 0.1187736140595E-02 -0.5589698936943E-02  0.0000000000000E+00  0.5992748806207E-02
 0.1477278092292E-02 -0.5248510289972E-02  0.0000000000000E+00  0.6507823804534E-02
 0.1923992372450E-02 -0.4967114430625E-02  0.0000000000000E+00  0.7106948702607E-02
 0.2567801043018E-02 -0.4773207849676E-02  0.0000000000000E+00  0.7756318312339E-02
 0.3449180451504E-02 -0.4696156515953E-02  0.0000000000000E+00  0.8395585320168E-02
 0.4604159874001E-02 -0.4762475966600E-02  0.0000000000000E+00  0.8932664529733E-02
 0.6055227903695E-02 -0.4989819548738E-02  0.0000000000000E+00  0.9238920942402E-02
 0.7796987991428E-02 -0.5378100529092E-02  0.0000000000000E+00  0.9152397370011E-02
 0.9783422267745E-02 -0.5899478618821E-02  0.0000000000000E+00  0.8501061114351E-02
 0.1192530990346E-01 -0.6494922387851E-02  0.0000000000000E+00  0.7146153200071E-02
 0.1811472922465E-03 -0.1203390828702E-01  0.0000000000000E+00  0.4835804604517E-02
 0.5664480007638E-03 -0.1225380767700E-01  0.0000000000000E+00  0.5505392624733E-02
 0.9780553336823E-03 -0.1246600267961E-01  0.0000000000000E+00  0.5979369055109E-02
 0.1378604241766E-02 -0.1264476523077E-01  0.0000000000000E+00  0.6263279142437E-02
 0.1738336533494E-02 -0.1277158133314E-01  0.0000000000000E+00  0.6387066306478E-02
 0.2039376877411E-02 -0.1283788067629E-01  0.0000000000000E+00  0.6392155242205E-02
 0.2275258041701E-02 -0.1284390832474E-01  0.0000000000000E+00  0.6319428787419E-02
 0.2447749294044E-02 -0.1279560946984E-01  0.0000000000000E+00  0.6202105582677E-02
 0.2563201475977E-02 -0.1270141579465E-01  0.0000000000000E+00  0.6063596755643E-02
 0.2629670678801E-02 -0.1256992155394E-01  0.0000000000000E+00  0.5918516405614E-02
 0.2655148250141E-02 -0.1240861251334E-01  0.0000000000000E+00  0.5774956644328E-02
 0.2646722735277E-02 -0.1222340210532E-01  0.0000000000000E+00  0.5636819464533E-02
 0.2610359487730E-02 -0.1201865573285E-01  0.0000000000000E+00  0.5505670333251E-02
 0.2551019613264E-02 -0.1179745249562E-01  0.0000000000000E+00  0.5381982816970E-02
 0.2472913859164E-02 -0.1156191378863E-01  0.0000000000000E+00  0.5265821283560E-02
 0.2379751798362E-02 -0.1131350649305E-01  0.0000000000000E+00  0.5157082756958E-02
 0.2275029439233E-02 -0.1105374420394E-01  0.0000000000000E+00  0.5055207807814E-02
 0.2162170248482E-02 -0.1078471524773E-01  0.0000000000000E+00  0.4958730755162E-02
 0.2044151623907E-02 -0.1050801644089E-01  0.0000000000000E+00  0.4865799345360E-02
 0.1923151187864E-02 -0.1022376253124E-01  0.0000000000000E+00  0.4775117586259E-02
 0.1800641043683E-02 -0.9930904941057E-02  0.0000000000000E+00  0.4686354232225E-02
 0.1677640839930E-02 -0.9627706754816E-02  0.0000000000000E+00  0.4600508901366E-02
 0.1555058485022E-02 -0.9312122432999E-02  0.0000000000000E+00  0.4520286261372E-02
 0.1434095827150E-02 -0.8982113349650E-02  0.0000000000000E+00  0.4450380274367E-02
 0.1316694333902E-02 -0.8635934757357E-02  0.0000000000000E+00  0.4397619802788E-02
 0.1206017357795E-02 -0.8272440486500E-02  0.0000000000000E+00  0.4370986081351E-02
 0.1106979118640E-02 -0.7891431228667E-02  0.0000000000000E+00  0.4381513460215E-02
 0.1026819149538E-02 -0.7493915599292E-02  0.0000000000000E+00  0.4442236324498E-02
 0.9758194971826E-03 -0.7082491986199E-02  0.0000000000000E+00  0.4568037224205E-02
 0.9682591113165E-03 -0.6662234612848E-02  0.0000000000000E+00  0.4774758563720E-02
 0.1023474476876E-02 -0.6241765363697E-02  0.0000000000000E+00  0.5077498415155E-02
 0.1166864675342E-02 -0.5834266065701E-02  0.0000000000000E+00  0.5488007829504E-02
 0.1430634486469E-02 -0.5458412746480E-02  0.0000000000000E+00  0.6010642111730E-02
 0.1853844159219E-02 -0.5138888002310E-02  0.0000000000000E+00  0.6636571468472E-02
 0.2481143705054E-02 -0.4905884410344E-02  0.0000000000000E+00  0.7336341520481E-02
 0.3359610117554E-02 -0.4792789405639E-02  0.0000000000000E+00  0.8051750534261E-02
 0.4533453444076E-02 -0.4831481502412E-02  0.0000000000000E+00  0.8688439418299E-02
 0.6033597327205E-02 -0.5045489979740E-02  0.0000000000000E+00  0.9108153779701E-02
 0.7860106196786E-02 -0.5439161475635E-02  0.0000000000000E+00  0.9129470511366E-02
 0.9965756741030E-02 -0.5984407099154E-02  0.0000000000000E+00  0.8553857041791E-02
 0.1224743337090E-01 -0.6614826875231E-02  0.0000000000000E+00  0.7215564731571E-02
 0.1962125661378E-03 -0.1252218051596E-01  0.0000000000000E+00  0.4966202517769E-02
 0.6135099950403E-03 -0.1275962212618E-01  0.0000000000000E+00  0.5630080606247E-02
 0.1057803596399E-02 -0.1298694987675E-01  0.0000000000000E+00  0.6079072733830E-02
 0.1486454725445E-02 -0.1317506243743E-01  0.0000000000000E+00  0.6322826758930E-02
 0.1866659374278E-02 -0.1330402152679E-01  0.0000000000000E+00  0.6398862383330E-02
 0.2180096777723E-02 -0.1336587360768E-01  0.0000000000000E+00  0.6356088826854E-02
 0.2421632933069E-02 -0.1336269164898E-01  0.0000000000000E+00  0.6240508443238E-02
 0.2595046205876E-02 -0.1330250049297E-01  0.0000000000000E+00  0.6087643514337E-02
 0.2708584142849E-02 -0.1319545276481E-01  0.0000000000000E+00  0.5921062754113E-02
 0.2771733949905E-02 -0.1305129750758E-01  0.0000000000000E+00  0.5754339829449E-02
 0.2793404836104E-02 -0.1287815394574E-01  0.0000000000000E+00  0.5594086300106E-02
 0.2781184675611E-02 -0.1268218660195E-01  0.0000000000000E+00  0.5442740245797E-02
 0.2741250626486E-02 -0.1246777162640E-01  0.0000000000000E+00  0.5300637235825E-02
 0.2678608991206E-02 -0.1223787224257E-01  0.0000000000000E+00  0.5167323740039E-02
 0.2597445891880E-02 -0.1199445022518E-01  0.0000000000000E+00  0.5042221100429E-02
 0.2501443469665E-02 -0.1173882451008E-01  0.0000000000000E+00  0.4924791989659E-02
 0.2394107133836E-02 -0.1147242832458E-01  0.0000000000000E+00  0.4814120650331E-02
 0.2278906014576E-02 -0.1119736289002E-01  0.0000000000000E+00  0.4708337145974E-02
 0.2158840027203E-02 -0.1091524443610E-01  0.0000000000000E+00  0.4605122985808E-02
 0.2036021232146E-02 -0.1062612118131E-01  0.0000000000000E+00  0.4502702649665E-02
 0.1911744843627E-02 -0.1032878402300E-01  0.0000000000000E+00  0.4400295639868E-02
 0.1786748337817E-02 -0.1002125804341E-01  0.0000000000000E+00  0.4298534006759E-02
 0.1661575357082E-02 -0.9701200632086E-02  0.0000000000000E+00  0.4199876931425E-02
 0.1537007808423E-02 -0.9366227917582E-02  0.0000000000000E+00  0.4108914239660E-02
 0.1414530555702E-02 -0.9014199992594E-02  0.0000000000000E+00  0.4032520526233E-02
 0.1296823150803E-02 -0.8643512196598E-02  0.0000000000000E+00  0.3979893391007E-02
 0.1188295285978E-02 -0.8253424798726E-02  0.0000000000000E+00  0.3962508532943E-02
 0.1095672852109E-02 -0.7844295864975E-02  0.0000000000000E+00  0.3994183400023E-02
 0.1028754746201E-02 -0.7417949899964E-02  0.0000000000000E+00  0.4091104744247E-02
 0.1001468195523E-02 -0.6978615874392E-02  0.0000000000000E+00  0.4271137708930E-02
 0.1033105603995E-02 -0.6534115390768E-02  0.0000000000000E+00  0.4552319110326E-02
 0.1149597239412E-02 -0.6097063930823E-02  0.0000000000000E+00  0.4950413926806E-02
 0.1384635065987E-02 -0.5686104976022E-02  0.0000000000000E+00  0.5474868856839E-02
 0.1780208733239E-02 -0.5326843082169E-02  0.0000000000000E+00  0.6122686827068E-02
 0.2385861427454E-02 -0.5051840679420E-02  0.0000000000000E+00  0.6870057601565E-02
 0.3255894123987E-02 -0.4898697108198E-02  0.0000000000000E+00  0.7662471372622E-02
 0.4444004469680E-02 -0.4905334996801E-02  0.0000000000000E+00  0.8404648714462E-02
 0.5991399367245E-02 -0.5102381829374E-02  0.0000000000000E+00  0.8948788902769E-02
 0.7905908714496E-02 -0.5500017319944E-02  0.0000000000000E+00  0.9092094733418E-02
 0.1013920958429E-01 -0.6070864870780E-02  0.0000000000000E+00  0.8602962637552E-02
 0.1257427793259E-01 -0.6737987220019E-02  0.0000000000000E+00  0.7287564989985E-02
 0.2128799500322E-03 -0.1301898233822E-01  0.0000000000000E+00  0.5107183358970E-02
 0.6654937288040E-03 -0.1327564231067E-01  0.0000000000000E+00  0.5763942589186E-02
 0.1145403823973E-02 -0.1351908358029E-01  0.0000000000000E+00  0.6183719325989E-02
 0.1603776916141E-02 -0.1371630939901E-01  0.0000000000000E+00  0.6381566750749E-02
 0.2004552576834E-02 -0.1384601804706E-01  0.0000000000000E+00  0.6404361168343E-02
 0.2329350034885E-02 -0.1390135830957E-01  0.0000000000000E+00  0.6309722102618E-02
 0.2574959172822E-02 -0.1388679148490E-01  0.0000000000000E+00  0.6149121132025E-02
 0.2747658825190E-02 -0.1381281869121E-01  0.0000000000000E+00  0.5960107759204E-02
 0.2857879198829E-02 -0.1369149338549E-01  0.0000000000000E+00  0.5765894335177E-02
 0.2916646618875E-02 -0.1353373941358E-01  0.0000000000000E+00  0.5578528180946E-02
 0.2933787129959E-02 -0.1334824779479E-01  0.0000000000000E+00  0.5402785925905E-02
 0.2917336203202E-02 -0.1314134669283E-01  0.0000000000000E+00  0.5239422212365E-02
 0.2873615457569E-02 -0.1291733785357E-01  0.0000000000000E+00  0.5087426333204E-02
 0.2807611493818E-02 -0.1267899620521E-01  0.0000000000000E+00  0.4945372845523E-02
 0.2723433513780E-02 -0.1242806781976E-01  0.0000000000000E+00  0.4812043719932E-02
 0.2624703424396E-02 -0.1216568622679E-01  0.0000000000000E+00  0.4686499455903E-02
 0.2514925390226E-02 -0.1189318635928E-01  0.0000000000000E+00  0.4567506101034E-02
 0.2397621265125E-02 -0.1161268132791E-01  0.0000000000000E+00  0.4452811904473E-02
 0.2275826983069E-02 -0.1132581554700E-01  0.0000000000000E+00  0.4339627419104E-02
 0.2151597007355E-02 -0.1103258102469E-01  0.0000000000000E+00  0.4225668867500E-02
 0.2026046306242E-02 -0.1073161623547E-01  0.0000000000000E+00  0.4109666577131E-02
 0.1899617224891E-02 -0.1042071583251E-01  0.0000000000000E+00  0.3991845119356E-02
 0.1772471871926E-02 -0.1009725082393E-01  0.0000000000000E+00  0.3874379868585E-02
 0.1644954429707E-02 -0.9758507523555E-02  0.0000000000000E+00  0.3761711913247E-02
 0.1518074079498E-02 -0.9401968570557E-02  0.0000000000000E+00  0.3660698744178E-02
 0.1394000262880E-02 -0.9025584049111E-02  0.0000000000000E+00  0.3580663317107E-02
 0.1276594600621E-02 -0.8628072385421E-02  0.0000000000000E+00  0.3533400306609E-02
 0.1171995732417E-02 -0.8209111482167E-02  0.0000000000000E+00  0.3533363182091E-02
 0.1089402322242E-02 -0.7769678061660E-02  0.0000000000000E+00  0.3597890939932E-02
 0.1042219210367E-02 -0.7313021908750E-02  0.0000000000000E+00  0.3746751736363E-02
 0.1049467082180E-02 -0.6845956645506E-02  0.0000000000000E+00  0.4000893094092E-02
 0.1137332958616E-02 -0.6380242749409E-02  0.0000000000000E+00  0.4380246735552E-02
 0.1340713598098E-02 -0.5934134323998E-02  0.0000000000000E+00  0.4899808273224E-02
 0.1704330942568E-02 -0.5533789382675E-02  0.0000000000000E+00  0.5563319255237E-02
 0.2282681491711E-02 -0.5213889784091E-02  0.0000000000000E+00  0.6354065534366E-02
 0.3137881982204E-02 -0.5016331726584E-02  0.0000000000000E+00  0.7223141056395E-02
 0.4334492640202E-02 -0.4985753489385E-02  0.0000000000000E+00  0.8076210955265E-02
 0.5926447968746E-02 -0.5161318811684E-02  0.0000000000000E+00  0.8756645399959E-02
 0.7931466158983E-02 -0.5560812359436E-02  0.0000000000000E+00  0.9037506801186E-02
 0.1030359546520E-01 -0.6158723457834E-02  0.0000000000000E+00  0.8650250421832E-02
 0.1290388107968E-01 -0.6866045818154E-02  0.0000000000000E+00  0.7348715604455E-02
 0.2314063379250E-03 -0.1352535800423E-01  0.0000000000000E+00  0.5259824205207E-02
 0.7231706194214E-03 -0.1380313435326E-01  0.0000000000000E+00  0.5907662188589E-02
 0.1241983149587E-02 -0.1406368687099E-01  0.0000000000000E+00  0.6293064200131E-02
 0.1731706014443E-02 -0.1426951775315E-01  0.0000000000000E+00  0.6438246755913E-02
 0.2152865788768E-02 -0.1439812719274E-01  0.0000000000000E+00  0.6401670265145E-02
 0.2487588724636E-02 -0.1444442938979E-01  0.0000000000000E+00  0.6251032571983E-02
 0.2735335421097E-02 -0.1441595809160E-01  0.0000000000000E+00  0.6043501712184E-02
 0.2905445801988E-02 -0.1432612027977E-01  0.0000000000000E+00  0.5818171846167E-02
 0.3010818498126E-02 -0.1418902299155E-01  0.0000000000000E+00  0.5597223804715E-02
 0.3064096746578E-02 -0.1401673985717E-01  0.0000000000000E+00  0.5390610257613E-02
 0.3075989838960E-02 -0.1381843407414E-01  0.0000000000000E+00  0.5200895103844E-02
 0.3054904850809E-02 -0.1360048589176E-01  0.0000000000000E+00  0.5026935596232E-02
 0.3007224883803E-02 -0.1336702454398E-01  0.0000000000000E+00  0.4866272611809E-02
 0.2937841987158E-02 -0.1312055756048E-01  0.0000000000000E+00  0.4716478529997E-02
 0.2850729741357E-02 -0.1286255538336E-01  0.0000000000000E+00  0.4575713675710E-02
 0.2749413988090E-02 -0.1259392659778E-01  0.0000000000000E+00  0.4442683243408E-02
 0.2637387951152E-02 -0.1231588988068E-01  0.0000000000000E+00  0.4315887528293E-02
 0.2518237515414E-02 -0.1203057113474E-01  0.0000000000000E+00  0.4192726066895E-02
 0.2395053194263E-02 -0.1173965441499E-01  0.0000000000000E+00  0.4069938504296E-02
 0.2269843122441E-02 -0.1144308801729E-01  0.0000000000000E+00  0.3944704793782E-02
 0.2143539622360E-02 -0.1113936779077E-01  0.0000000000000E+00  0.3815227151965E-02
 0.2016277099029E-02 -0.1082606811220E-01  0.0000000000000E+00  0.3681286631684E-02
 0.1887820318681E-02 -0.1050028925385E-01  0.0000000000000E+00  0.3544742397866E-02
 0.1758062001241E-02 -0.1015901115666E-01  0.0000000000000E+00  0.3409847018823E-02
 0.1627523249062E-02 -0.9799367591538E-02  0.0000000000000E+00  0.3283378164529E-02
 0.1497845487140E-02 -0.9418889687360E-02  0.0000000000000E+00  0.3174685418460E-02
 0.1372307252536E-02 -0.9015766902735E-02  0.0000000000000E+00  0.3095741888967E-02
 0.1256392810640E-02 -0.8588981605660E-02  0.0000000000000E+00  0.3061458964491E-02
 0.1158585060100E-02 -0.8138601020381E-02  0.0000000000000E+00  0.3090129469657E-02
 0.1091588364188E-02 -0.7666768474705E-02  0.0000000000000E+00  0.3203241003498E-02
 0.1073901612354E-02 -0.7179077000863E-02  0.0000000000000E+00  0.3424542426540E-02
 0.1131647743173E-02 -0.6686116919164E-02  0.0000000000000E+00  0.3778192306727E-02
 0.1300565364310E-02 -0.6205334054732E-02  0.0000000000000E+00  0.4285110771038E-02
 0.1627790549524E-02 -0.5762960375206E-02  0.0000000000000E+00  0.4956664883702E-02
 0.2172694333268E-02 -0.5395389488300E-02  0.0000000000000E+00  0.5784823357533E-02
 0.3005689929035E-02 -0.5148736662452E-02  0.0000000000000E+00  0.6728586852451E-02
 0.4203722181775E-02 -0.5074977648721E-02  0.0000000000000E+00  0.7697124337544E-02
 0.5836079082790E-02 -0.5223418965922E-02  0.0000000000000E+00  0.8526341993132E-02
 0.7934484983630E-02 -0.5621961281301E-02  0.0000000000000E+00  0.8962982089096E-02
 0.1045436063346E-01 -0.6247707155529E-02  0.0000000000000E+00  0.8692884480982E-02
 0.1325323356600E-01 -0.7004990896941E-02  0.0000000000000E+00  0.7408715427019E-02
 0.2521072681851E-03 -0.1404253567311E-01  0.0000000000000E+00  0.5425359788133E-02
 0.7874790815773E-03 -0.1434358476222E-01  0.0000000000000E+00  0.6061957206401E-02
 0.1348878446490E-02 -0.1462222918072E-01  0.0000000000000E+00  0.6406650816326E-02
 0.1871527422309E-02 -0.1483577674274E-01  0.0000000000000E+00  0.6491208325009E-02
 0.2312488519413E-02 -0.1496085855944E-01  0.0000000000000E+00  0.6388458390101E-02
 0.2655210933638E-02 -0.1499505189930E-01  0.0000000000000E+00  0.6177659856047E-02
 0.2902759066660E-02 -0.1494978610503E-01  0.0000000000000E+00  0.5921693275614E-02
 0.3068157867818E-02 -0.1484181983224E-01  0.0000000000000E+00  0.5660441095340E-02
 0.3167041025995E-02 -0.1468741553979E-01  0.0000000000000E+00  0.5414193044789E-02
 0.3213700640675E-02 -0.1449971043044E-01  0.0000000000000E+00  0.5190162482513E-02
 0.3219655146620E-02 -0.1428819570410E-01  0.0000000000000E+00  0.4988314321196E-02
 0.3193580736462E-02 -0.1405916747586E-01  0.0000000000000E+00  0.4805412647602E-02
 0.3141823769452E-02 -0.1381647324577E-01  0.0000000000000E+00  0.4637469227877E-02
 0.3069097768291E-02 -0.1356226933654E-01  0.0000000000000E+00  0.4481041343425E-02
 0.2979175908274E-02 -0.1329768791322E-01  0.0000000000000E+00  0.4333700149322E-02
 0.2875449073552E-02 -0.1302337126302E-01  0.0000000000000E+00  0.4193857721605E-02
 0.2761391070842E-02 -0.1274040374668E-01  0.0000000000000E+00  0.4059816578306E-02
 0.2640668185104E-02 -0.1245092687275E-01  0.0000000000000E+00  0.3928672305514E-02
 0.2516449936234E-02 -0.1215667842690E-01  0.0000000000000E+00  0.3796698503955E-02
 0.2390712845904E-02 -0.1185757733485E-01  0.0000000000000E+00  0.3660511296499E-02
 0.2264204665841E-02 -0.1155198788008E-01  0.0000000000000E+00  0.3517747495945E-02
 0.2136738720167E-02 -0.1123727683372E-01  0.0000000000000E+00  0.3367714443446E-02
 0.2007668164338E-02 -0.1091029492108E-01  0.0000000000000E+00  0.3211931280233E-02
 0.1876425365136E-02 -0.1056774833036E-01  0.0000000000000E+00  0.3054429649283E-02
 0.1743039058460E-02 -0.1020646300295E-01  0.0000000000000E+00  0.2901846858890E-02
 0.1608615109457E-02 -0.9823592440530E-02  0.0000000000000E+00  0.2763454165190E-02
 0.1475824980929E-02 -0.9416826844233E-02  0.0000000000000E+00  0.2651245225687E-02
 0.1349441017682E-02 -0.8984455371134E-02  0.0000000000000E+00  0.2580379965894E-02
 0.1237120185068E-02 -0.8525591017524E-02  0.0000000000000E+00  0.2569858008924E-02
 0.1150685433876E-02 -0.8041156585417E-02  0.0000000000000E+00  0.2642633050904E-02
 0.1107846145655E-02 -0.7535315232899E-02  0.0000000000000E+00  0.2825051523282E-02
 0.1134297057146E-02 -0.7017154029533E-02  0.0000000000000E+00  0.3145440973127E-02
 0.1266170849146E-02 -0.6502833939782E-02  0.0000000000000E+00  0.3630897435239E-02
 0.1552559889308E-02 -0.6018061383458E-02  0.0000000000000E+00  0.4301223696116E-02
 0.2057438593519E-02 -0.5600340188764E-02  0.0000000000000E+00  0.5158742828193E-02
 0.2859840647456E-02 -0.5299697128818E-02  0.0000000000000E+00  0.6173068576592E-02
 0.4050584321695E-02 -0.5175920252538E-02  0.0000000000000E+00  0.7260284669610E-02
 0.5717679861976E-02 -0.5290295342777E-02  0.0000000000000E+00  0.8251199989846E-02
 0.7910863026105E-02 -0.5683813646291E-02  0.0000000000000E+00  0.8864686288393E-02
 0.1059311887535E-01 -0.6339399883113E-02  0.0000000000000E+00  0.8729312377621E-02
 0.1360750538114E-01 -0.7154394828575E-02  0.0000000000000E+00  0.7477435758178E-02
 0.2753748444683E-03 -0.1457197661115E-01  0.0000000000000E+00  0.5605214485940E-02
 0.8595715027262E-03 -0.1489875555251E-01  0.0000000000000E+00  0.6227564864006E-02
 0.1467683228544E-02 -0.1519639942950E-01  0.0000000000000E+00  0.6523720331001E-02
 0.2024691561092E-02 -0.1541624495828E-01  0.0000000000000E+00  0.6538265063667E-02
 0.2484330695189E-02 -0.1553463514339E-01  0.0000000000000E+00  0.6361864996811E-02
 0.2832526287263E-02 -0.1555301444879E-01  0.0000000000000E+00  0.6086872403410E-02
 0.3077095197144E-02 -0.1548767877867E-01  0.0000000000000E+00  0.5781558105614E-02
 0.3235417960227E-02 -0.1535917047631E-01  0.0000000000000E+00  0.5485482815082E-02
 0.3326083415110E-02 -0.1518592622005E-01  0.0000000000000E+00  0.5215984589078E-02
 0.3364999952877E-02 -0.1498198124899E-01  0.0000000000000E+00  0.4976833007274E-02
 0.3364372924852E-02 -0.1475696070121E-01  0.0000000000000E+00  0.4765021211466E-02
 0.3333017793516E-02 -0.1451691699834E-01  0.0000000000000E+00  0.4575058027787E-02
 0.3277132324275E-02 -0.1426529889763E-01  0.0000000000000E+00  0.4401374513228E-02
 0.3201159989773E-02 -0.1400382590657E-01  0.0000000000000E+00  0.4239519337925E-02
 0.3108603243542E-02 -0.1373322805439E-01  0.0000000000000E+00  0.4086521317443E-02
 0.3002675905860E-02 -0.1345383837293E-01  0.0000000000000E+00  0.3940576785929E-02
 0.2886825250780E-02 -0.1316658844413E-01  0.0000000000000E+00  0.3799875013649E-02
 0.2764820253805E-02 -0.1287363987862E-01  0.0000000000000E+00  0.3661265067956E-02
 0.2639940601068E-02 -0.1257680064033E-01  0.0000000000000E+00  0.3520564108221E-02
 0.2514149372735E-02 -0.1227597587331E-01  0.0000000000000E+00  0.3373796985554E-02
 0.2388007560772E-02 -0.1196940998932E-01  0.0000000000000E+00  0.3218000437827E-02
 0.2260993298794E-02 -0.1165427729021E-01  0.0000000000000E+00  0.3051986341342E-02
 0.2132035517373E-02 -0.1132720645437E-01  0.0000000000000E+00  0.2876921804220E-02
 0.2000103115771E-02 -0.1098467306814E-01  0.0000000000000E+00  0.2696595359804E-02
 0.1864737820054E-02 -0.1062325037008E-01  0.0000000000000E+00  0.2517447812971E-02
 0.1726514790746E-02 -0.1023977249905E-01  0.0000000000000E+00  0.2348562715739E-02
 0.1587488045361E-02 -0.9831479420287E-02  0.0000000000000E+00  0.2201780509563E-02
 0.1451673365078E-02 -0.9395990628313E-02  0.0000000000000E+00  0.2092269822985E-02
 0.1325801317895E-02 -0.8931442367819E-02  0.0000000000000E+00  0.2039440796244E-02
 0.1220635336616E-02 -0.8437443676740E-02  0.0000000000000E+00  0.2067386079123E-02
 0.1152816926668E-02 -0.7916532401377E-02  0.0000000000000E+00  0.2204740153254E-02
 0.1147211765511E-02 -0.7375954044863E-02  0.0000000000000E+00  0.2483798279118E-02
 0.1239815259734E-02 -0.6830061314479E-02  0.0000000000000E+00  0.2937911010838E-02
 0.1481060505592E-02 -0.6303313432711E-02  0.0000000000000E+00  0.3595974953327E-02
 0.1939015356067E-02 -0.5833494637490E-02  0.0000000000000E+00  0.4472336580810E-02
 0.2701380810203E-02 -0.5473917785817E-02  0.0000000000000E+00  0.5550318434313E-02
 0.3874299087186E-02 -0.5292397250420E-02  0.0000000000000E+00  0.6757296301166E-02
 0.5568181439465E-02 -0.5364148508878E-02  0.0000000000000E+00  0.7923006916345E-02
 0.7856931771670E-02 -0.5747127914637E-02  0.0000000000000E+00  0.8736926966895E-02
 0.1071602794918E-01 -0.6434795487305E-02  0.0000000000000E+00  0.8762085988371E-02
 0.1396972185439E-01 -0.7313770979018E-02  0.0000000000000E+00  0.7552248872014E-02
 0.3017025246805E-03 -0.1511544117380E-01  0.0000000000000E+00  0.5801042592610E-02
 0.9408771487731E-03 -0.1547075601257E-01  0.0000000000000E+00  0.6405214189994E-02
 0.1600305290462E-02 -0.1578814322759E-01  0.0000000000000E+00  0.6643082436963E-02
 0.2192824416917E-02 -0.1601212991857E-01  0.0000000000000E+00  0.6576543791764E-02
 0.2669289819564E-02 -0.1611973518117E-01  0.0000000000000E+00  0.6318397019314E-02
 0.3019709454977E-02 -0.1611786906640E-01  0.0000000000000E+00  0.5975543081578E-02
 0.3258039718337E-02 -0.1602880729275E-01  0.0000000000000E+00  0.5620805108009E-02
 0.3406700666628E-02 -0.1587724487982E-01  0.0000000000000E+00  0.5291870083709E-02
 0.3487372179304E-02 -0.1568368698226E-01  0.0000000000000E+00  0.5001860400604E-02
 0.3517460887324E-02 -0.1546280334804E-01  0.0000000000000E+00  0.4750368827362E-02
 0.3509682582144E-02 -0.1522410643470E-01  0.0000000000000E+00  0.4531087134212E-02
 0.3472835972934E-02 -0.1497322596277E-01  0.0000000000000E+00  0.4336158427061E-02
 0.3412847913011E-02 -0.1471309222514E-01  0.0000000000000E+00  0.4158418107773E-02
 0.3333795209270E-02 -0.1444490446232E-01  0.0000000000000E+00  0.3992433006494E-02
 0.3238834524658E-02 -0.1416892743443E-01  0.0000000000000E+00  0.3834748877834E-02
 0.3130956920081E-02 -0.1388514045736E-01  0.0000000000000E+00  0.3683437671931E-02
 0.3013577287953E-02 -0.1359430279539E-01  0.0000000000000E+00  0.3536677212745E-02
 0.2890596379222E-02 -0.1329860174987E-01  0.0000000000000E+00  0.3391141179239E-02
 0.2765442847251E-02 -0.1299993364734E-01  0.0000000000000E+00  0.3242204427801E-02
 0.2640087761297E-02 -0.1269820572010E-01  0.0000000000000E+00  0.3085272882765E-02
 0.2514901831852E-02 -0.1239155398695E-01  0.0000000000000E+00  0.2916752672903E-02
 0.2389012142681E-02 -0.1207697792429E-01  0.0000000000000E+00  0.2734950335555E-02
 0.2260912665648E-02 -0.1175091905560E-01  0.0000000000000E+00  0.2540684554706E-02
 0.2129112611064E-02 -0.1140967765664E-01  0.0000000000000E+00  0.2337491785210E-02
 0.1992683326991E-02 -0.1104964513812E-01  0.0000000000000E+00  0.2131566799397E-02
 0.1851688560723E-02 -0.1066741321378E-01  0.0000000000000E+00  0.1931693685991E-02
 0.1707570740639E-02 -0.1025984221084E-01  0.0000000000000E+00  0.1749372184918E-02
 0.1563560799328E-02 -0.9823930181454E-02  0.0000000000000E+00  0.1599511421842E-02
 0.1425376896204E-02 -0.9356841776524E-02  0.0000000000000E+00  0.1501587817638E-02
 0.1302554392460E-02 -0.8856808439143E-02  0.0000000000000E+00  0.1480430691292E-02
 0.1210387090378E-02 -0.8324573911965E-02  0.0000000000000E+00  0.1566539048720E-02
 0.1172485000670E-02 -0.7765215982735E-02  0.0000000000000E+00  0.1795807663337E-02
 0.1224098843611E-02 -0.7190728030654E-02  0.0000000000000E+00  0.2207695484614E-02
 0.1416220885886E-02 -0.6623487578833E-02  0.0000000000000E+00  0.2840603439503E-02
 0.1820206485983E-02 -0.6100473762392E-02  0.0000000000000E+00  0.3722442260613E-02
 0.2532088219237E-02 -0.5677241855354E-02  0.0000000000000E+00  0.4853625982469E-02
 0.3674507774322E-02 -0.5429409708922E-02  0.0000000000000E+00  0.6178377847948E-02
 0.5384479924325E-02 -0.5448030890404E-02  0.0000000000000E+00  0.7531253222821E-02
 0.7767724682442E-02 -0.5813075266244E-02  0.0000000000000E+00  0.8573236671242E-02
 0.1081910116179E-01 -0.6533729046978E-02  0.0000000000000E+00  0.8790761726317E-02
 0.1434199228301E-01 -0.7484628853229E-02  0.0000000000000E+00  0.7633441165869E-02
 0.3317200189150E-03 -0.1567507878708E-01  0.0000000000000E+00  0.6014779321858E-02
 0.1033187345754E-02 -0.1606213700178E-01  0.0000000000000E+00  0.6595576827197E-02
 0.1749036887029E-02 -0.1639970260929E-01  0.0000000000000E+00  0.6762929544567E-02
 0.2377728836333E-02 -0.1662464763361E-01  0.0000000000000E+00  0.6602278298058E-02
 0.2868198603586E-02 -0.1671620866872E-01  0.0000000000000E+00  0.6253815683134E-02
 0.3216738806417E-02 -0.1668885550038E-01  0.0000000000000E+00  0.5840142510441E-02
 0.3445076975709E-02 -0.1657206635671E-01  0.0000000000000E+00  0.5437040576106E-02
 0.3581312492808E-02 -0.1639491910701E-01  0.0000000000000E+00  0.5078241864471E-02
 0.3650218953835E-02 -0.1617970650091E-01  0.0000000000000E+00  0.4771208469887E-02
 0.3670476268472E-02 -0.1594135476405E-01  0.0000000000000E+00  0.4510645108373E-02
 0.3655076884433E-02 -0.1568896629069E-01  0.0000000000000E+00  0.4286693189070E-02
 0.3612624497524E-02 -0.1542755672688E-01  0.0000000000000E+00  0.4089090633274E-02
 0.3548647208471E-02 -0.1515942244543E-01  0.0000000000000E+00  0.3909105662744E-02
 0.3466756903608E-02 -0.1488516623879E-01  0.0000000000000E+00  0.3740369555323E-02
 0.3369685653915E-02 -0.1460452762995E-01  0.0000000000000E+00  0.3579012815141E-02
 0.3260151749655E-02 -0.1431708618731E-01  0.0000000000000E+00  0.3423085628993E-02
 0.3141532642813E-02 -0.1402340702933E-01  0.0000000000000E+00  0.3270873707608E-02
 0.3017897574196E-02 -0.1372570868913E-01  0.0000000000000E+00  0.3118961227842E-02
 0.2892871522257E-02 -0.1342599462983E-01  0.0000000000000E+00  0.2962299087463E-02
 0.2768457724176E-02 -0.1312418884357E-01  0.0000000000000E+00  0.2795646209957E-02
 0.2644830272539E-02 -0.1281832913598E-01  0.0000000000000E+00  0.2614754113974E-02
 0.2520746718080E-02 -0.1250526060112E-01  0.0000000000000E+00  0.2417430600819E-02
 0.2394257693166E-02 -0.1218128148700E-01  0.0000000000000E+00  0.2204169589411E-02
 0.2263424780290E-02 -0.1184258615611E-01  0.0000000000000E+00  0.1978262604478E-02
 0.2126878554031E-02 -0.1148547244233E-01  0.0000000000000E+00  0.1745617395123E-02
 0.1984207006351E-02 -0.1110638664827E-01  0.0000000000000E+00  0.1514606593986E-02
 0.1836265545597E-02 -0.1070190349604E-01  0.0000000000000E+00  0.1296190951520E-02
 0.1685491768598E-02 -0.1026847565189E-01  0.0000000000000E+00  0.1104727058306E-02
 0.1536524864860E-02 -0.9802334526039E-02  0.0000000000000E+00  0.9593690746599E-03
 0.1397520712077E-02 -0.9300308835148E-02  0.0000000000000E+00  0.8852077126822E-03
 0.1282155561224E-02 -0.8761220948069E-02  0.0000000000000E+00  0.9140653148475E-03
 0.1212347033207E-02 -0.8187689163955E-02  0.0000000000000E+00  0.1084882383731E-02
 0.1221934529450E-02 -0.7588797827910E-02  0.0000000000000E+00  0.1442803721274E-02
 0.1361524407920E-02 -0.6983921345682E-02  0.0000000000000E+00  0.2035787626018E-02
 0.1704614153810E-02 -0.6407881901894E-02  0.0000000000000E+00  0.2906535921898E-02
 0.2354693194231E-02 -0.5916910847096E-02  0.0000000000000E+00  0.4076057637772E-02
 0.3451585138901E-02 -0.5593515137329E-02  0.0000000000000E+00  0.5512156791258E-02
 0.5163383300246E-02 -0.5546254933832E-02  0.0000000000000E+00  0.7062883408791E-02
 0.7637167931762E-02 -0.5883044560951E-02  0.0000000000000E+00  0.8364463320806E-02
 0.1089750167951E-01 -0.6636222958075E-02  0.0000000000000E+00  0.8813650191558E-02
 0.1472671831815E-01 -0.7668785031322E-02  0.0000000000000E+00  0.7722220301932E-02
 0.3662433710329E-03 -0.1625355293876E-01  0.0000000000000E+00  0.6248705755694E-02
 0.1138772137721E-02 -0.1667601593145E-01  0.0000000000000E+00  0.6799181421924E-02
 0.1916638678953E-02 -0.1703365435912E-01  0.0000000000000E+00  0.6880567599728E-02
 0.2581368143636E-02 -0.1725494974964E-01  0.0000000000000E+00  0.6610543672133E-02
 0.3081744650323E-02 -0.1732375932112E-01  0.0000000000000E+00  0.6163021144614E-02
 0.3423317510704E-02 -0.1726480838158E-01  0.0000000000000E+00  0.5676763611783E-02
 0.3637433338021E-02 -0.1711602883848E-01  0.0000000000000E+00  0.5227850615564E-02
 0.3758375274993E-02 -0.1691086232951E-01  0.0000000000000E+00  0.4843381664935E-02
 0.3813820325250E-02 -0.1667287634895E-01  0.0000000000000E+00  0.4523596509701E-02
 0.3823371246267E-02 -0.1641675109344E-01  0.0000000000000E+00  0.4257695404046E-02
 0.3800008052654E-02 -0.1615083903584E-01  0.0000000000000E+00  0.4032144500160E-02
 0.3751946209571E-02 -0.1587934866563E-01  0.0000000000000E+00  0.3834327111439E-02
 0.3684188553771E-02 -0.1560384011324E-01  0.0000000000000E+00  0.3654021424788E-02
 0.3599786714543E-02 -0.1532425717792E-01  0.0000000000000E+00  0.3483986181177E-02
 0.3500966934833E-02 -0.1503976042545E-01  0.0000000000000E+00  0.3320006500253E-02
 0.3390119179856E-02 -0.1474948181064E-01  0.0000000000000E+00  0.3160219872020E-02
 0.3270578132008E-02 -0.1445376621699E-01  0.0000000000000E+00  0.3003156305108E-02
 0.3146626578775E-02 -0.1415486693141E-01  0.0000000000000E+00  0.2845412190559E-02
 0.3022142591423E-02 -0.1385491196118E-01  0.0000000000000E+00  0.2681536584434E-02
 0.2899187516128E-02 -0.1355385332706E-01  0.0000000000000E+00  0.2505613090801E-02
 0.2777727686723E-02 -0.1324963820461E-01  0.0000000000000E+00  0.2312724977837E-02
 0.2656129163732E-02 -0.1293898135622E-01  0.0000000000000E+00  0.2100210572996E-02
 0.2531994148552E-02 -0.1261809303516E-01  0.0000000000000E+00  0.1868287737951E-02
 0.2402958717905E-02 -0.1228314763787E-01  0.0000000000000E+00  0.1620028729007E-02
 0.2267256956083E-02 -0.1193045654393E-01  0.0000000000000E+00  0.1361023043543E-02
 0.2124054787039E-02 -0.1155643857747E-01  0.0000000000000E+00  0.1099121718060E-02
 0.1973666072598E-02 -0.1115750152775E-01  0.0000000000000E+00  0.8445411679666E-03
 0.1817749633372E-02 -0.1072965920708E-01  0.0000000000000E+00  0.6107728223947E-03
 0.1659823602986E-02 -0.1026828662250E-01  0.0000000000000E+00  0.4162221553297E-03
 0.1506538316807E-02 -0.9768833014777E-02  0.0000000000000E+00  0.2856994191379E-03
 0.1369705975515E-02 -0.9228130158403E-02  0.0000000000000E+00  0.2516939654631E-03
 0.1269125499284E-02 -0.8646106120780E-02  0.0000000000000E+00  0.3554420422492E-03
 0.1236526215486E-02 -0.8028427752918E-02  0.0000000000000E+00  0.6470310986100E-03
 0.1321042240585E-02 -0.7390505882815E-02  0.0000000000000E+00  0.1183552818608E-02
 0.1596800016020E-02 -0.6763409033059E-02  0.0000000000000E+00  0.2023176625448E-02
 0.2173174159664E-02 -0.6201857944418E-02  0.0000000000000E+00  0.3210803677069E-02
 0.3207001777469E-02 -0.5793341307938E-02  0.0000000000000E+00  0.4745670630718E-02
 0.4901841291899E-02 -0.5664856015661E-02  0.0000000000000E+00  0.6501466051384E-02
 0.7457989426449E-02 -0.5959135798769E-02  0.0000000000000E+00  0.8097756035291E-02
 0.1094505514590E-01 -0.6742421898543E-02  0.0000000000000E+00  0.8827658527120E-02
 0.1512670536505E-01 -0.7868501155574E-02  0.0000000000000E+00  0.7820554598836E-02
 0.4063483508128E-03 -0.1685421838099E-01  0.0000000000000E+00  0.6505531836733E-02
 0.1260541860748E-02 -0.1731624367851E-01  0.0000000000000E+00  0.7016266013203E-02
 0.2106436909566E-02 -0.1769293824895E-01  0.0000000000000E+00  0.6992023553459E-02
 0.2805818063940E-02 -0.1790399881037E-01  0.0000000000000E+00  0.6594919038236E-02
 0.3310351015555E-02 -0.1794158042648E-01  0.0000000000000E+00  0.6039951308101E-02
 0.3638775294505E-02 -0.1784404757127E-01  0.0000000000000E+00  0.5481197056480E-02
 0.3834030004626E-02 -0.1765890444832E-01  0.0000000000000E+00  0.4990924462856E-02
 0.3936816026072E-02 -0.1742353636083E-01  0.0000000000000E+00  0.4586315552166E-02
 0.3977264034788E-02 -0.1716198524800E-01  0.0000000000000E+00  0.4258830814286E-02
 0.3975413356749E-02 -0.1688806119757E-01  0.0000000000000E+00  0.3991740892683E-02
 0.3943896374537E-02 -0.1660900108719E-01  0.0000000000000E+00  0.3767881385014E-02
 0.3890343010314E-02 -0.1632802558326E-01  0.0000000000000E+00  0.3572438001321E-02
 0.3819114342354E-02 -0.1604587988869E-01  0.0000000000000E+00  0.3393827850205E-02
 0.3732615102023E-02 -0.1576180761167E-01  0.0000000000000E+00  0.3224011917131E-02
 0.3632483724730E-02 -0.1547434688286E-01  0.0000000000000E+00  0.3058492251061E-02
 0.3520718874448E-02 -0.1518213193652E-01  0.0000000000000E+00  0.2895601412290E-02
 0.3400604945981E-02 -0.1488525406425E-01  0.0000000000000E+00  0.2734265585896E-02
 0.3276692122799E-02 -0.1458599957528E-01  0.0000000000000E+00  0.2571211945373E-02
 0.3153178402995E-02 -0.1428663384929E-01  0.0000000000000E+00  0.2400613111897E-02
 0.3032209240207E-02 -0.1398714157197E-01  0.0000000000000E+00  0.2215849831239E-02
 0.2913524676399E-02 -0.1368538285720E-01  0.0000000000000E+00  0.2011339971555E-02
 0.2795073256981E-02 -0.1337797156663E-01  0.0000000000000E+00  0.1784012631092E-02
 0.2674008684130E-02 -0.1306110031001E-01  0.0000000000000E+00  0.1533888739715E-02
 0.2547576024260E-02 -0.1273102907784E-01  0.0000000000000E+00  0.1263866687813E-02
 0.2413673439447E-02 -0.1238420998523E-01  0.0000000000000E+00  0.9791961875939E-03
 0.2271117666726E-02 -0.1201717319743E-01  0.0000000000000E+00  0.6871002018215E-03
 0.2119749077415E-02 -0.1162630311883E-01  0.0000000000000E+00  0.3968430800613E-03
 0.1960488172731E-02 -0.1120731354696E-01  0.0000000000000E+00  0.1207260322470E-03
 0.1795719214965E-02 -0.1075484317325E-01  0.0000000000000E+00 -0.1240488770043E-03
 0.1630494770416E-02 -0.1026304308382E-01  0.0000000000000E+00 -0.3135488900557E-03
 0.1474554691979E-02 -0.9726760820630E-02  0.0000000000000E+00 -0.4153790818330E-03
 0.1345188042803E-02 -0.9143094586015E-02  0.0000000000000E+00 -0.3869526823513E-03
 0.1271321695580E-02 -0.8513876687671E-02  0.0000000000000E+00 -0.1743324878885E-03
 0.1299436671828E-02 -0.7849629640169E-02  0.0000000000000E+00  0.2876935641425E-03
 0.1502417383359E-02 -0.7175896602319E-02  0.0000000000000E+00  0.1072599321991E-02
 0.1993102325609E-02 -0.6543031782728E-02  0.0000000000000E+00  0.2251776552337E-02
 0.2943850190307E-02 -0.6040225485248E-02  0.0000000000000E+00  0.3864494160247E-02
 0.4597367270955E-02 -0.5812400385946E-02  0.0000000000000E+00  0.5826348527486E-02
 0.7221581760887E-02 -0.6044709930602E-02  0.0000000000000E+00  0.7755154461637E-02
 0.1095361258857E-01 -0.6852624967336E-02  0.0000000000000E+00  0.8827633918510E-02
 0.1554534030688E-01 -0.8086591082307E-02  0.0000000000000E+00  0.7931177339741E-02
 0.4534804873558E-03 -0.1748137813080E-01  0.0000000000000E+00  0.6788502367077E-02
 0.1402273367207E-02 -0.1798762874004E-01  0.0000000000000E+00  0.7246523537824E-02
 0.2322428985546E-02 -0.1838085728233E-01  0.0000000000000E+00  0.7091469618181E-02
 0.3053163996660E-02 -0.1857236131121E-01  0.0000000000000E+00  0.6547070296022E-02
 0.3554003569516E-02 -0.1856813136423E-01  0.0000000000000E+00  0.5877525926242E-02
 0.3861951551703E-02 -0.1842425608849E-01  0.0000000000000E+00  0.5249084970715E-02
 0.4033441012135E-02 -0.1819851072966E-01  0.0000000000000E+00  0.4724227301629E-02
 0.4115367499110E-02 -0.1793120982433E-01  0.0000000000000E+00  0.4306427668150E-02
 0.4139543329056E-02 -0.1764574307236E-01  0.0000000000000E+00  0.3977016831339E-02
 0.4125827479979E-02 -0.1735432847753E-01  0.0000000000000E+00  0.3713216265839E-02
 0.4086141473808E-02 -0.1706272178517E-01  0.0000000000000E+00  0.3494485880398E-02
 0.4027342354296E-02 -0.1677300433961E-01  0.0000000000000E+00  0.3304088312392E-02
 0.3953053173924E-02 -0.1648506297264E-01  0.0000000000000E+00  0.3129261195445E-02
 0.3864960969108E-02 -0.1619743041926E-01  0.0000000000000E+00  0.2961247432404E-02
 0.3764035996528E-02 -0.1590799453923E-01  0.0000000000000E+00  0.2795307500507E-02
 0.3651812582885E-02 -0.1561483918165E-01  0.0000000000000E+00  0.2630063624140E-02
 0.3531511984487E-02 -0.1531775704117E-01  0.0000000000000E+00  0.2465001944043E-02
 0.3408014368208E-02 -0.1501905528943E-01  0.0000000000000E+00  0.2297116601552E-02
 0.3285914764433E-02 -0.1472113972579E-01  0.0000000000000E+00  0.2120232072352E-02
 0.3167465998751E-02 -0.1442402102379E-01  0.0000000000000E+00  0.1927002222580E-02
 0.3052152655654E-02 -0.1412547049851E-01  0.0000000000000E+00  0.1711208663417E-02
 0.2937475762542E-02 -0.1382203939308E-01  0.0000000000000E+00  0.1469473640260E-02
 0.2820148503132E-02 -0.1350999363058E-01  0.0000000000000E+00  0.1201735960456E-02
 0.2697074813111E-02 -0.1318580778157E-01  0.0000000000000E+00  0.9107843294406E-03
 0.2565895099958E-02 -0.1284622257830E-01  0.0000000000000E+00  0.6015146794384E-03
 0.2425169326141E-02 -0.1248803790012E-01  0.0000000000000E+00  0.2804203748081E-03
 0.2274355901795E-02 -0.1210778206773E-01  0.0000000000000E+00 -0.4439065188744E-04
 0.2113705583169E-02 -0.1170104071098E-01  0.0000000000000E+00 -0.3621355172749E-03
 0.1944489487312E-02 -0.1126188347205E-01  0.0000000000000E+00 -0.6572854343629E-03
 0.1770112371084E-02 -0.1078331196794E-01  0.0000000000000E+00 -0.9074204029368E-03
 0.1598087278443E-02 -0.1025828919352E-01  0.0000000000000E+00 -0.1081087936461E-02
 0.1442865158944E-02 -0.9681066682110E-02  0.0000000000000E+00 -0.1135475950538E-02
 0.1329933019707E-02 -0.9049374545071E-02  0.0000000000000E+00 -0.1014243981463E-02
 0.1301919897482E-02 -0.8368060634183E-02  0.0000000000000E+00 -0.6457445870826E-03
 0.1428308938835E-02 -0.7655336289238E-02  0.0000000000000E+00  0.5748822508911E-04
 0.1822029688723E-02 -0.6953710385123E-02  0.0000000000000E+00  0.1194537016703E-02
 0.2667573098229E-02 -0.6349034202393E-02  0.0000000000000E+00  0.2853209988560E-02
 0.4248743704300E-02 -0.6001167858081E-02  0.0000000000000E+00  0.5011807455915E-02
 0.6917914553666E-02 -0.6145248999523E-02  0.0000000000000E+00  0.7311549200980E-02
 0.1091218750079E-01 -0.6967400845766E-02  0.0000000000000E+00  0.8805066580964E-02
 0.1598677697179E-01 -0.8326609312117E-02  0.0000000000000E+00  0.8057756337389E-02
 0.5096241737411E-03 -0.1814066582131E-01  0.0000000000000E+00  0.7101531249341E-02
 0.1568929900110E-02 -0.1869623875950E-01  0.0000000000000E+00  0.7488660126490E-02
 0.2569383105201E-02 -0.1910101415006E-01  0.0000000000000E+00  0.7170375231869E-02
 0.3325306620628E-02 -0.1925987191938E-01  0.0000000000000E+00  0.6456257560933E-02
 0.3812009102917E-02 -0.1920084236666E-01  0.0000000000000E+00  0.5667691506776E-02
 0.4091065753532E-02 -0.1900235769199E-01  0.0000000000000E+00  0.4976188278787E-02
 0.4233866136258E-02 -0.1873226863252E-01  0.0000000000000E+00  0.4426227318057E-02
 0.4292584442051E-02 -0.1843199201368E-01  0.0000000000000E+00  0.4003587143442E-02
 0.4299580864101E-02 -0.1812281568071E-01  0.0000000000000E+00  0.3678616406452E-02
 0.4273815937127E-02 -0.1781459778334E-01  0.0000000000000E+00  0.3422789602715E-02
 0.4226136269408E-02 -0.1751128164376E-01  0.0000000000000E+00  0.3212682078598E-02
 0.4162464749276E-02 -0.1721370466491E-01  0.0000000000000E+00  0.3030029017056E-02
 0.4085621516971E-02 -0.1692089896332E-01  0.0000000000000E+00  0.2861121766564E-02
 0.3996529689943E-02 -0.1663071697167E-01  0.0000000000000E+00  0.2696561871862E-02
 0.3895416135626E-02 -0.1634039176036E-01  0.0000000000000E+00  0.2531371688974E-02
 0.3783264376335E-02 -0.1604740193745E-01  0.0000000000000E+00  0.2364526764857E-02
 0.3663209490987E-02 -0.1575117880859E-01  0.0000000000000E+00  0.2196241891332E-02
 0.3540531970274E-02 -0.1545401960441E-01  0.0000000000000E+00  0.2023931986901E-02
 0.3420310525386E-02 -0.1515845540066E-01  0.0000000000000E+00  0.1841104497357E-02
 0.3304921456001E-02 -0.1486449814200E-01  0.0000000000000E+00  0.1639671943196E-02
 0.3193550257352E-02 -0.1456982269751E-01  0.0000000000000E+00  0.1412850720115E-02
 0.3083217979798E-02 -0.1427097118159E-01  0.0000000000000E+00  0.1157115447174E-02
 0.2970218335070E-02 -0.1396440260050E-01  0.0000000000000E+00  0.8724774922888E-03
 0.2851183250165E-02 -0.1364696314503E-01  0.0000000000000E+00  0.5616941761228E-03
 0.2723591847203E-02 -0.1331585036683E-01  0.0000000000000E+00  0.2292959206890E-03
 0.2585858311114E-02 -0.1296830858179E-01  0.0000000000000E+00 -0.1190495561055E-03
 0.2437173859131E-02 -0.1260119810905E-01  0.0000000000000E+00 -0.4765845817312E-03
 0.2277217532877E-02 -0.1221018046764E-01  0.0000000000000E+00 -0.8343637801275E-03
 0.2106205013981E-02 -0.1178897348824E-01  0.0000000000000E+00 -0.1178999510419E-02
 0.1925893227239E-02 -0.1132965393206E-01  0.0000000000000E+00 -0.1490235043204E-02
 0.1741483430266E-02 -0.1082351036644E-01  0.0000000000000E+00 -0.1738467576632E-02
 0.1564351826443E-02 -0.1026208465641E-01  0.0000000000000E+00 -0.1881933822247E-02
 0.1416018297210E-02 -0.9638947086718E-02  0.0000000000000E+00 -0.1863660578043E-02
 0.1334149172151E-02 -0.8952748937905E-02  0.0000000000000E+00 -0.1607945263720E-02
 0.1382532091974E-02 -0.8212754375289E-02  0.0000000000000E+00 -0.1016062620525E-02
 0.1669885237508E-02 -0.7449745802922E-02  0.0000000000000E+00  0.3767077785355E-04
 0.2386930105268E-02 -0.6739154975037E-02  0.0000000000000E+00  0.1696488271400E-02
 0.3857175780208E-02 -0.6248866976627E-02  0.0000000000000E+00  0.4026359194984E-02
 0.6535650623571E-02 -0.6269800931466E-02  0.0000000000000E+00  0.6731755334511E-02
 0.1080573618540E-01 -0.7087897173092E-02  0.0000000000000E+00  0.8745787502854E-02
 0.1645615545773E-01 -0.8593158049441E-02  0.0000000000000E+00  0.8205179865641E-02
 0.5775696115988E-03 -0.1883963113996E-01  0.0000000000000E+00  0.7449367191571E-02
 0.1767116933402E-02 -0.1944980379891E-01  0.0000000000000E+00  0.7739619202681E-02
 0.2852897291416E-02 -0.1985711326272E-01  0.0000000000000E+00  0.7216256465036E-02
 0.3623617298884E-02 -0.1996509884238E-01  0.0000000000000E+00  0.6308805644140E-02
 0.4082669684183E-02 -0.1983574263295E-01  0.0000000000000E+00  0.5401661104512E-02
 0.4323590960516E-02 -0.1957441939467E-01  0.0000000000000E+00  0.4658807868446E-02
 0.4433132773549E-02 -0.1925723890192E-01  0.0000000000000E+00  0.4096172080324E-02
 0.4466880313450E-02 -0.1892389045591E-01  0.0000000000000E+00  0.3678274656048E-02
 0.4456262731391E-02 -0.1859187060075E-01  0.0000000000000E+00  0.3364495505873E-02
 0.4418583580374E-02 -0.1826794760254E-01  0.0000000000000E+00  0.3121373559149E-02
 0.4363283542715E-02 -0.1795399341847E-01  0.0000000000000E+00  0.2923328865591E-02
 0.4295232243370E-02 -0.1764956020329E-01  0.0000000000000E+00  0.2751080758380E-02
 0.4216424634510E-02 -0.1735288698013E-01  0.0000000000000E+00  0.2590257166415E-02
 0.4127008822557E-02 -0.1706123003245E-01  0.0000000000000E+00  0.2430885307191E-02
 0.4026403990560E-02 -0.1677119784993E-01  0.0000000000000E+00  0.2267693858159E-02
 0.3914939201414E-02 -0.1647960910469E-01  0.0000000000000E+00  0.2100018179863E-02
 0.3795622945443E-02 -0.1618544486808E-01  0.0000000000000E+00  0.1928962225462E-02
 0.3674211442851E-02 -0.1589092988774E-01  0.0000000000000E+00  0.1752531243703E-02
 0.3556360700979E-02 -0.1559867347897E-01  0.0000000000000E+00  0.1563950499552E-02
 0.3444572559275E-02 -0.1530863653766E-01  0.0000000000000E+00  0.1354398522772E-02
 0.3337671238822E-02 -0.1501838519749E-01  0.0000000000000E+00  0.1116664121830E-02
 0.3232167122463E-02 -0.1472453226899E-01  0.0000000000000E+00  0.8473092221232E-03
 0.3123976497976E-02 -0.1442389028053E-01  0.0000000000000E+00  0.5466135751484E-03
 0.3009552415954E-02 -0.1411386746683E-01  0.0000000000000E+00  0.2173850695152E-03
 0.2886327067330E-02 -0.1379230473378E-01  0.0000000000000E+00 -0.1362304764266E-03
 0.2752695592300E-02 -0.1345707610001E-01  0.0000000000000E+00 -0.5094820387795E-03
 0.2607718244742E-02 -0.1310557729855E-01  0.0000000000000E+00 -0.8971366252288E-03
 0.2450630025994E-02 -0.1273377927669E-01  0.0000000000000E+00 -0.1292381517501E-02
 0.2280688194203E-02 -0.1233531667412E-01  0.0000000000000E+00 -0.1684414403824E-02
 0.2098058839354E-02 -0.1190164961681E-01  0.0000000000000E+00 -0.2055778230434E-02
 0.1905630880187E-02 -0.1142272859543E-01  0.0000000000000E+00 -0.2379650717794E-02
 0.1711587961617E-02 -0.1088770406432E-01  0.0000000000000E+00 -0.2616694195364E-02
 0.1533121146945E-02 -0.1028619461725E-01  0.0000000000000E+00 -0.2711329271224E-02
 0.1402039142795E-02 -0.9610532930514E-02  0.0000000000000E+00 -0.2586805335950E-02
 0.1374258208556E-02 -0.8859923462154E-02  0.0000000000000E+00 -0.2137427789434E-02
 0.1549301491339E-02 -0.8049626568886E-02  0.0000000000000E+00 -0.1215262799170E-02
 0.2115213599832E-02 -0.7235593990714E-02  0.0000000000000E+00  0.3811748847862E-03
 0.3428141930057E-02 -0.6581093161116E-02  0.0000000000000E+00  0.2832643613166E-02
 0.6062755404095E-02 -0.6433470555559E-02  0.0000000000000E+00  0.5966437718777E-02
 0.1061342695424E-01 -0.7216578606880E-02  0.0000000000000E+00  0.8625900177603E-02
 0.1695984329766E-01 -0.8892417620500E-02  0.0000000000000E+00  0.8379904156686E-02
 0.6613465235686E-03 -0.1958866609799E-01  0.0000000000000E+00  0.7837784907269E-02
 0.2005734342412E-02 -0.2025824452351E-01  0.0000000000000E+00  0.7993195602465E-02
 0.3179340832769E-02 -0.2065248933650E-01  0.0000000000000E+00  0.7210839968198E-02
 0.3948353523014E-02 -0.2068451003464E-01  0.0000000000000E+00  0.6087653271322E-02
 0.4362869839026E-02 -0.2046703012938E-01  0.0000000000000E+00  0.5070499539641E-02
 0.4556162915630E-02 -0.2013562451523E-01  0.0000000000000E+00  0.4294392697712E-02
 0.4628744528906E-02 -0.1977021696074E-01  0.0000000000000E+00  0.3734390930183E-02
 0.4636587273269E-02 -0.1940489307081E-01  0.0000000000000E+00  0.3331691263307E-02
 0.4608481931534E-02 -0.1905163233357E-01  0.0000000000000E+00  0.3035956181251E-02
 0.4559367331450E-02 -0.1871352675024E-01  0.0000000000000E+00  0.2810125451226E-02
 0.4497014905840E-02 -0.1839022566947E-01  0.0000000000000E+00  0.2627403991594E-02
 0.4425177982422E-02 -0.1808003097943E-01  0.0000000000000E+00  0.2468109082207E-02
 0.4345056662433E-02 -0.1778051615139E-01  0.0000000000000E+00  0.2317536438971E-02
 0.4256060638475E-02 -0.1748849267526E-01  0.0000000000000E+00  0.2165194494468E-02
 0.4156757731821E-02 -0.1720002687167E-01  0.0000000000000E+00  0.2005380540841E-02
 0.4046698603424E-02 -0.1691122994962E-01  0.0000000000000E+00  0.1837700668583E-02
 0.3928697136024E-02 -0.1662050730199E-01  0.0000000000000E+00  0.1664276070840E-02
 0.3809059926708E-02 -0.1632989575157E-01  0.0000000000000E+00  0.1483881409343E-02
 0.3694114693764E-02 -0.1604198126924E-01  0.0000000000000E+00  0.1289501603084E-02
 0.3586466382316E-02 -0.1575658042400E-01  0.0000000000000E+00  0.1071634316688E-02
 0.3484493841635E-02 -0.1547113926111E-01  0.0000000000000E+00  0.8228836905937E-03
 0.3384176887307E-02 -0.1518246627900E-01  0.0000000000000E+00  0.5402323804024E-03
 0.3281129397714E-02 -0.1488794512537E-01  0.0000000000000E+00  0.2244605161658E-03
 0.3171748199929E-02 -0.1458577542182E-01  0.0000000000000E+00 -0.1215068465058E-03
 0.3053548520261E-02 -0.1427464186284E-01  0.0000000000000E+00 -0.4939502678135E-03
 0.2925043368549E-02 -0.1395323468773E-01  0.0000000000000E+00 -0.8891231857296E-03
 0.2785315870677E-02 -0.1361969502664E-01  0.0000000000000E+00 -0.1303460986051E-02
 0.2633313049435E-02 -0.1327056107511E-01  0.0000000000000E+00 -0.1732535667404E-02
 0.2467470998792E-02 -0.1289970419902E-01  0.0000000000000E+00 -0.2168523694644E-02
 0.2286485065110E-02 -0.1249836670242E-01  0.0000000000000E+00 -0.2597353891617E-02
 0.2091029510934E-02 -0.1205563776975E-01  0.0000000000000E+00 -0.2995896519597E-02
 0.1886119446340E-02 -0.1155879715793E-01  0.0000000000000E+00 -0.3328661279904E-02
 0.1684468096008E-02 -0.1099402744536E-01  0.0000000000000E+00 -0.3543640295406E-02
 0.1511477112079E-02 -0.1034774135758E-01  0.0000000000000E+00 -0.3566486615930E-02
 0.1413478580458E-02 -0.9608838430453E-02  0.0000000000000E+00 -0.3290256422025E-02
 0.1475727975925E-02 -0.8774176242257E-02  0.0000000000000E+00 -0.2553141511912E-02
 0.1871646109201E-02 -0.7869983094305E-02  0.0000000000000E+00 -0.1100040407933E-02
 0.2974281618004E-02 -0.7034753524603E-02  0.0000000000000E+00  0.1388765377332E-02
 0.5488171147858E-02 -0.6661753783515E-02  0.0000000000000E+00  0.4946743454292E-02
 0.1030624105147E-01 -0.7358932997587E-02  0.0000000000000E+00  0.8404533911052E-02
 0.1750564820529E-01 -0.9233138164116E-02  0.0000000000000E+00  0.8590141153264E-02
 0.7669508389560E-03 -0.2040252712405E-01  0.0000000000000E+00  0.8273765281181E-02
 0.2296906171818E-02 -0.2113432627514E-01  0.0000000000000E+00  0.8237507596782E-02
 0.3555513314171E-02 -0.2148908784966E-01  0.0000000000000E+00  0.7127408723707E-02
 0.4297704225948E-02 -0.2141121098867E-01  0.0000000000000E+00  0.5772264485382E-02
 0.4647606283838E-02 -0.2108665809342E-01  0.0000000000000E+00  0.4666275226272E-02
 0.4784582019735E-02 -0.2068038763720E-01  0.0000000000000E+00  0.3882330731853E-02
 0.4817993508898E-02 -0.2026789780378E-01  0.0000000000000E+00  0.3342572134347E-02
 0.4800037822146E-02 -0.1987307064131E-01  0.0000000000000E+00  0.2965830265413E-02
 0.4755189430423E-02 -0.1950094518809E-01  0.0000000000000E+00  0.2694747876103E-02
 0.4695469261745E-02 -0.1915059429820E-01  0.0000000000000E+00  0.2490434063891E-02
 0.4626811788756E-02 -0.1881942827290E-01  0.0000000000000E+00  0.2325979064466E-02
 0.4551857129913E-02 -0.1850461775572E-01  0.0000000000000E+00  0.2181990604872E-02
 0.4471100057137E-02 -0.1820326608374E-01  0.0000000000000E+00  0.2043812500625E-02
 0.4383310500601E-02 -0.1791197230423E-01  0.0000000000000E+00  0.1900488148435E-02
 0.4286198360415E-02 -0.1762642216437E-01  0.0000000000000E+00  0.1745642640300E-02
 0.4178391709915E-02 -0.1734199603185E-01  0.0000000000000E+00  0.1578912573421E-02
 0.4062400259720E-02 -0.1705634936621E-01  0.0000000000000E+00  0.1403487151460E-02
 0.3945143179631E-02 -0.1677112777326E-01  0.0000000000000E+00  0.1219083272755E-02
 0.3833701994230E-02 -0.1648869954732E-01  0.0000000000000E+00  0.1018503096856E-02
 0.3730722278424E-02 -0.1620858469907E-01  0.0000000000000E+00  0.7917082521874E-03
 0.3634031236550E-02 -0.1592811358881E-01  0.0000000000000E+00  0.5315262737972E-03
 0.3539086167522E-02 -0.1564449150027E-01  0.0000000000000E+00  0.2358167960110E-03
 0.3441323568207E-02 -0.1535596959026E-01  0.0000000000000E+00 -0.9388833409341E-04
 0.3337241830556E-02 -0.1506181167908E-01  0.0000000000000E+00 -0.4545262575185E-03
 0.3224579715473E-02 -0.1476175278655E-01  0.0000000000000E+00 -0.8428905605056E-03
 0.3102105957134E-02 -0.1445547339182E-01  0.0000000000000E+00 -0.1256327037652E-02
 0.2969091316658E-02 -0.1414206324923E-01  0.0000000000000E+00 -0.1693038019959E-02
 0.2824376223840E-02 -0.1381890143636E-01  0.0000000000000E+00 -0.2151164744793E-02
 0.2665752555788E-02 -0.1348046585307E-01  0.0000000000000E+00 -0.2626171352397E-02
 0.2490633510672E-02 -0.1311827744735E-01  0.0000000000000E+00 -0.3107865310247E-02
 0.2297687461311E-02 -0.1272119418957E-01  0.0000000000000E+00 -0.3577656042378E-02
 0.2088943328141E-02 -0.1227536111326E-01  0.0000000000000E+00 -0.4005304823698E-02
 0.1872729668205E-02 -0.1176436657421E-01  0.0000000000000E+00 -0.4344571909161E-02
 0.1667939646247E-02 -0.1116969878234E-01  0.0000000000000E+00 -0.4527115473691E-02
 0.1510450568497E-02 -0.1047090972399E-01  0.0000000000000E+00 -0.4451386028925E-02
 0.1467099020925E-02 -0.9645631999410E-02  0.0000000000000E+00 -0.3954144855958E-02
 0.1682704883147E-02 -0.8681041088195E-02  0.0000000000000E+00 -0.2742658140710E-02
 0.2519716761563E-02 -0.7662559368206E-02  0.0000000000000E+00 -0.3471633228249E-03
 0.4805669083773E-02 -0.6998079937409E-02  0.0000000000000E+00  0.3578033466801E-02
 0.9843868143862E-02 -0.7527385052437E-02  0.0000000000000E+00  0.8010870814944E-02
 0.1810286179861E-01 -0.9628669366682E-02  0.0000000000000E+00  0.8845131078266E-02
 0.9036024828869E-03 -0.2130295031816E-01  0.0000000000000E+00  0.8765533386657E-02
 0.2657281150252E-02 -0.2209434844281E-01  0.0000000000000E+00  0.8450267335448E-02
 0.3987674292495E-02 -0.2236535114152E-01  0.0000000000000E+00  0.6927112300788E-02
 0.4666298021201E-02 -0.2213313348995E-01  0.0000000000000E+00  0.5339534379234E-02
 0.4929569900160E-02 -0.2168413452647E-01  0.0000000000000E+00  0.4184051374530E-02
 0.5003994101888E-02 -0.2120270019083E-01  0.0000000000000E+00  0.3424818785142E-02
 0.4998141178032E-02 -0.2074710118365E-01  0.0000000000000E+00  0.2923935211086E-02
 0.4955660316686E-02 -0.2032669088085E-01  0.0000000000000E+00  0.2583500532894E-02
 0.4895450670329E-02 -0.1993884158905E-01  0.0000000000000E+00  0.2343054341100E-02
 0.4826291789779E-02 -0.1957856063998E-01  0.0000000000000E+00  0.2163891158500E-02
 0.4752227809106E-02 -0.1924115909848E-01  0.0000000000000E+00  0.2020186237228E-02
 0.4674859789483E-02 -0.1892287910352E-01  0.0000000000000E+00  0.1893570483807E-02
 0.4594125286815E-02 -0.1862060890279E-01  0.0000000000000E+00  0.1769869846517E-02
 0.4508330202221E-02 -0.1833105926511E-01  0.0000000000000E+00  0.1637745462701E-02
 0.4414384601022E-02 -0.1804981703255E-01  0.0000000000000E+00  0.1489797989822E-02
 0.4309838193044E-02 -0.1777156997891E-01  0.0000000000000E+00  0.1325224760628E-02
 0.4196727776435E-02 -0.1749298952106E-01  0.0000000000000E+00  0.1148172739970E-02
 0.4082611903026E-02 -0.1721497945262E-01  0.0000000000000E+00  0.9594309803076E-03
 0.3975369033567E-02 -0.1693933729915E-01  0.0000000000000E+00  0.7517139229209E-03
 0.3877560665637E-02 -0.1666505292372E-01  0.0000000000000E+00  0.5147713266983E-03
 0.3786342046049E-02 -0.1638939509747E-01  0.0000000000000E+00  0.2423178064733E-03
 0.3696714325901E-02 -0.1611029231142E-01  0.0000000000000E+00 -0.6631264630919E-04
 0.3604134108512E-02 -0.1582726409277E-01  0.0000000000000E+00 -0.4086034450951E-03
 0.3505398521149E-02 -0.1554095598722E-01  0.0000000000000E+00 -0.7814238316151E-03
 0.3398612042131E-02 -0.1525235421920E-01  0.0000000000000E+00 -0.1182241561469E-02
 0.3282923906879E-02 -0.1496227196282E-01  0.0000000000000E+00 -0.1609589129987E-02
 0.3157957507261E-02 -0.1467092411780E-01  0.0000000000000E+00 -0.2063471138269E-02
 0.3022647956780E-02 -0.1437680698610E-01  0.0000000000000E+00 -0.2544682503760E-02
 0.2874357685697E-02 -0.1407542285847E-01  0.0000000000000E+00 -0.3052156195351E-02
 0.2709480415856E-02 -0.1375917436656E-01  0.0000000000000E+00 -0.3579927153740E-02
 0.2525011369467E-02 -0.1341748407241E-01  0.0000000000000E+00 -0.4114677913332E-02
 0.2320342606028E-02 -0.1303631740179E-01  0.0000000000000E+00 -0.4632751101025E-02
 0.2099756440207E-02 -0.1259782366268E-01  0.0000000000000E+00 -0.5095749366697E-02
 0.1876029301199E-02 -0.1208016186948E-01  0.0000000000000E+00 -0.5444710239166E-02
 0.1674851682264E-02 -0.1145588095435E-01  0.0000000000000E+00 -0.5590143197170E-02
 0.1542734129434E-02 -0.1068581588431E-01  0.0000000000000E+00 -0.5382522192344E-02
 0.1582738318478E-02 -0.9713585360302E-02  0.0000000000000E+00 -0.4521471435817E-02
 0.2106071194678E-02 -0.8538176093791E-02  0.0000000000000E+00 -0.2406065608903E-02
 0.4021985945740E-02 -0.7516793685198E-02  0.0000000000000E+00  0.1734786989948E-02
 0.9171373107533E-02 -0.7750285516743E-02  0.0000000000000E+00  0.7321024243415E-02
 0.1876182139624E-01 -0.1010149098669E-01  0.0000000000000E+00  0.9151177692843E-02
 0.1085996925879E-02 -0.2232339411736E-01  0.0000000000000E+00  0.9322028750306E-02
 0.3109752895965E-02 -0.2315846223304E-01  0.0000000000000E+00  0.8589664960725E-02
 0.4479218243800E-02 -0.2327192119164E-01  0.0000000000000E+00  0.6554327992182E-02
 0.5043029846576E-02 -0.2283072659808E-01  0.0000000000000E+00  0.4767010154456E-02
 0.5199058538883E-02 -0.2224695476417E-01  0.0000000000000E+00  0.3624895018017E-02
 0.5209344575205E-02 -0.2169675713370E-01  0.0000000000000E+00  0.2927507311387E-02
 0.5166640095917E-02 -0.2120500967018E-01  0.0000000000000E+00  0.2483226392109E-02
 0.5102078058314E-02 -0.2076433938514E-01  0.0000000000000E+00  0.2188307834772E-02
 0.5028506285094E-02 -0.2036461297740E-01  0.0000000000000E+00  0.1983449132340E-02
 0.4951372388825E-02 -0.1999702641801E-01  0.0000000000000E+00  0.1832247078358E-02
 0.4872911711463E-02 -0.1965511098317E-01  0.0000000000000E+00  0.1711178803201E-02
 0.4793826957076E-02 -0.1933445218582E-01  0.0000000000000E+00  0.1603613197179E-02
 0.4713692847248E-02 -0.1903201616025E-01  0.0000000000000E+00  0.1496354813185E-02
 0.4630615974693E-02 -0.1874504088134E-01  0.0000000000000E+00  0.1377857529127E-02
 0.4540873190063E-02 -0.1846947482374E-01  0.0000000000000E+00  0.1239261904139E-02
 0.4440797357518E-02 -0.1819949176748E-01  0.0000000000000E+00  0.1078522038939E-02
 0.4331705524596E-02 -0.1793048419553E-01  0.0000000000000E+00  0.9003131704563E-03
 0.4221741949797E-02 -0.1766201119552E-01  0.0000000000000E+00  0.7065012148384E-03
 0.4119532893605E-02 -0.1739467025888E-01  0.0000000000000E+00  0.4898979191283E-03
 0.4027339551724E-02 -0.1712658371788E-01  0.0000000000000E+00  0.2407123290218E-03
 0.3941538752722E-02 -0.1685513517278E-01  0.0000000000000E+00 -0.4540340033210E-04
 0.3856850801144E-02 -0.1657950295821E-01  0.0000000000000E+00 -0.3669090669226E-03
 0.3769048210389E-02 -0.1630100496338E-01  0.0000000000000E+00 -0.7201600580510E-03
 0.3675463535596E-02 -0.1602202481466E-01  0.0000000000000E+00 -0.1102175876472E-02
 0.3574697880034E-02 -0.1574498016250E-01  0.0000000000000E+00 -0.1511370339171E-02
 0.3466372893638E-02 -0.1547190313887E-01  0.0000000000000E+00 -0.1947576192955E-02
 0.3350612885842E-02 -0.1520425317098E-01  0.0000000000000E+00 -0.2412550901662E-02
 0.3226659883618E-02 -0.1494190231672E-01  0.0000000000000E+00 -0.2909681219228E-02
 0.3091697407495E-02 -0.1468184346443E-01  0.0000000000000E+00 -0.3441364343359E-02
 0.2941444049063E-02 -0.1441808529704E-01  0.0000000000000E+00 -0.4006011500472E-02
 0.2771692730662E-02 -0.1414158812469E-01  0.0000000000000E+00 -0.4596156378523E-02
 0.2579717576671E-02 -0.1383930910614E-01  0.0000000000000E+00 -0.5195936564710E-02
 0.2366306366720E-02 -0.1349338050734E-01  0.0000000000000E+00 -0.5776633351101E-02
 0.2138970466766E-02 -0.1308072990950E-01  0.0000000000000E+00 -0.6291393951325E-02
 0.1914699029188E-02 -0.1257057179768E-01  0.0000000000000E+00 -0.6668342119680E-02
 0.1721150020287E-02 -0.1191324367794E-01  0.0000000000000E+00 -0.6786314356043E-02
 0.1612560614196E-02 -0.1101456094073E-01  0.0000000000000E+00 -0.6378943715294E-02
 0.1799710434305E-02 -0.9760121641576E-02  0.0000000000000E+00 -0.4785139366179E-02
 0.3173035658229E-02 -0.8344818575753E-02  0.0000000000000E+00 -0.7366527636971E-03
 0.8217796337149E-02 -0.8092657300673E-02  0.0000000000000E+00  0.6117749718781E-02
 0.1949237397914E-01 -0.1069417722214E-01  0.0000000000000E+00  0.9497591424490E-02
 0.1338471105322E-02 -0.2351824309271E-01  0.0000000000000E+00  0.9950417735489E-02
 0.3685378204498E-02 -0.2434913509268E-01  0.0000000000000E+00  0.8576187056646E-02
 0.5025487168026E-02 -0.2418302912699E-01  0.0000000000000E+00  0.5932511734514E-02
 0.5408336066115E-02 -0.2347493437938E-01  0.0000000000000E+00  0.4040970340071E-02
 0.5444802709506E-02 -0.2276237891462E-01  0.0000000000000E+00  0.2999456414139E-02
 0.5396114306817E-02 -0.2215771149438E-01  0.0000000000000E+00  0.2399355223079E-02
 0.5321320587939E-02 -0.2163935719993E-01  0.0000000000000E+00  0.2026587689451E-02
 0.5238214700860E-02 -0.2118505922315E-01  0.0000000000000E+00  0.1784600121465E-02
 0.5153833576612E-02 -0.2077787275622E-01  0.0000000000000E+00  0.1618805730611E-02
 0.5070413826559E-02 -0.2040581711601E-01  0.0000000000000E+00  0.1497355667383E-02
 0.4988630233873E-02 -0.2006113760863E-01  0.0000000000000E+00  0.1400087503563E-02
 0.4908470463808E-02 -0.1973907778266E-01  0.0000000000000E+00  0.1312751826977E-02
 0.4829361818118E-02 -0.1943697660840E-01  0.0000000000000E+00  0.1223687962752E-02
 0.4749562746287E-02 -0.1915307537168E-01  0.0000000000000E+00  0.1121514978659E-02
 0.4665056933892E-02 -0.1888439833800E-01  0.0000000000000E+00  0.9955083754871E-03
 0.4570912454661E-02 -0.1862508493090E-01  0.0000000000000E+00  0.8411200050241E-03
 0.4467391254787E-02 -0.1836892816820E-01  0.0000000000000E+00  0.6625001685144E-03
 0.4362998726426E-02 -0.1811309282662E-01  0.0000000000000E+00  0.4622867279488E-03
 0.4266860693800E-02 -0.1785585496196E-01  0.0000000000000E+00  0.2337919204135E-03
 0.4180598701523E-02 -0.1759402359843E-01  0.0000000000000E+00 -0.3097472543923E-04
 0.4099789749673E-02 -0.1732554531466E-01  0.0000000000000E+00 -0.3328124302249E-03
 0.4019236249203E-02 -0.1705168057800E-01  0.0000000000000E+00 -0.6671818149959E-03
 0.3935442559301E-02 -0.1677621534974E-01  0.0000000000000E+00 -0.1029376938830E-02
 0.3846544680062E-02 -0.1650364825415E-01  0.0000000000000E+00 -0.1416996058959E-02
 0.3751744623574E-02 -0.1623797358577E-01  0.0000000000000E+00 -0.1829821238571E-02
 0.3651169603987E-02 -0.1598244404213E-01  0.0000000000000E+00 -0.2269146525118E-02
 0.3545548606558E-02 -0.1573977704368E-01  0.0000000000000E+00 -0.2738326774090E-02
 0.3434638648851E-02 -0.1551142697777E-01  0.0000000000000E+00 -0.3243060408078E-02
 0.3315731796414E-02 -0.1529640101534E-01  0.0000000000000E+00 -0.3788933866058E-02
 0.3184311756885E-02 -0.1509118904614E-01  0.0000000000000E+00 -0.4378628733707E-02
 0.3035591782653E-02 -0.1488944623690E-01  0.0000000000000E+00 -0.5010924770711E-02
 0.2865419829953E-02 -0.1468049930200E-01  0.0000000000000E+00 -0.5678816585683E-02
 0.2671788287470E-02 -0.1444809622251E-01  0.0000000000000E+00 -0.6364834395689E-02
 0.2458107335771E-02 -0.1417028555476E-01  0.0000000000000E+00 -0.7035937074028E-02
 0.2235221351557E-02 -0.1381761963698E-01  0.0000000000000E+00 -0.7641134352761E-02
 0.2016774213764E-02 -0.1333950696818E-01  0.0000000000000E+00 -0.8097707218873E-02
 0.1813780491853E-02 -0.1262413583400E-01  0.0000000000000E+00 -0.8213778911901E-02
 0.1697282045509E-02 -0.1144880450875E-01  0.0000000000000E+00 -0.7405935303033E-02
 0.2354412707158E-02 -0.9695090592304E-02  0.0000000000000E+00 -0.3989035488824E-02
 0.6903725926572E-02 -0.8704493285758E-02  0.0000000000000E+00  0.4024181985649E-02
 0.2030079344134E-01 -0.1149784576066E-01  0.0000000000000E+00  0.9812942011127E-02
 0.1702920626375E-02 -0.2498233757428E-01  0.0000000000000E+00  0.1064680572718E-01
 0.4424153714954E-02 -0.2568241006194E-01  0.0000000000000E+00  0.8254979401735E-02
 0.5602654703445E-02 -0.2503983272992E-01  0.0000000000000E+00  0.4967005515937E-02
 0.5732192647531E-02 -0.2402869059108E-01  0.0000000000000E+00  0.3173371846496E-02
 0.5656639600195E-02 -0.2322110157284E-01  0.0000000000000E+00  0.2329562360967E-02
 0.5560996155222E-02 -0.2258194385566E-01  0.0000000000000E+00  0.1851279359087E-02
 0.5460480845661E-02 -0.2204865645159E-01  0.0000000000000E+00  0.1561608915277E-02
 0.5363436996620E-02 -0.2158849897956E-01  0.0000000000000E+00  0.1377277216415E-02
 0.5271189286063E-02 -0.2117859383718E-01  0.0000000000000E+00  0.1252176915817E-02
 0.5183310236847E-02 -0.2080501693993E-01  0.0000000000000E+00  0.1161114334645E-02
 0.5099289104534E-02 -0.2045927387015E-01  0.0000000000000E+00  0.1087971585765E-02
 0.5018596877865E-02 -0.2013662908972E-01  0.0000000000000E+00  0.1021446560649E-02
 0.4940712486826E-02 -0.1983503365246E-01  0.0000000000000E+00  0.9519650665508E-03
 0.4864441212088E-02 -0.1955417940532E-01  0.0000000000000E+00  0.8690270260115E-03
 0.4786069194763E-02 -0.1929319457941E-01  0.0000000000000E+00  0.7599624614578E-03
 0.4699608824156E-02 -0.1904728739357E-01  0.0000000000000E+00  0.6159329485675E-03
 0.4603873269182E-02 -0.1880845113165E-01  0.0000000000000E+00  0.4382859821905E-03
 0.4507145954947E-02 -0.1856957752374E-01  0.0000000000000E+00  0.2293953937591E-03
 0.4418387887802E-02 -0.1832459467170E-01  0.0000000000000E+00 -0.1598263668279E-04
 0.4338107656301E-02 -0.1806851765894E-01  0.0000000000000E+00 -0.3013994298334E-03
 0.4261307605604E-02 -0.1780087251284E-01  0.0000000000000E+00 -0.6217540290065E-03
 0.4183532345818E-02 -0.1752626471414E-01  0.0000000000000E+00 -0.9688757039691E-03
 0.4102553992910E-02 -0.1725172904201E-01  0.0000000000000E+00 -0.1337450566716E-02
 0.4017589692949E-02 -0.1698424038357E-01  0.0000000000000E+00 -0.1726338159005E-02
 0.3928508582178E-02 -0.1672947556314E-01  0.0000000000000E+00 -0.2137295322334E-02
 0.3835887883115E-02 -0.1649180055984E-01  0.0000000000000E+00 -0.2573350661178E-02
 0.3741071356105E-02 -0.1627501443219E-01  0.0000000000000E+00 -0.3039188182859E-02
 0.3644507226036E-02 -0.1608224492254E-01  0.0000000000000E+00 -0.3542191985820E-02
 0.3543933737769E-02 -0.1591513163777E-01  0.0000000000000E+00 -0.4090456769976E-02
 0.3435167975361E-02 -0.1577373188612E-01  0.0000000000000E+00 -0.4690538412026E-02
 0.3313622216000E-02 -0.1565573011404E-01  0.0000000000000E+00 -0.5347699834092E-02
 0.3174584886594E-02 -0.1555436452169E-01  0.0000000000000E+00 -0.6064626989097E-02
 0.3014061639377E-02 -0.1545686295983E-01  0.0000000000000E+00 -0.6836481698050E-02
 0.2832454424041E-02 -0.1534458258530E-01  0.0000000000000E+00 -0.7644718805633E-02
 0.2637868690450E-02 -0.1519430435583E-01  0.0000000000000E+00 -0.8458606218518E-02
 0.2436531843931E-02 -0.1496604953389E-01  0.0000000000000E+00 -0.9237182783824E-02
 0.2216226101511E-02 -0.1456141551030E-01  0.0000000000000E+00 -0.9878802033351E-02
 0.1920176942355E-02 -0.1372337653007E-01  0.0000000000000E+00 -0.1004902180760E-01
 0.1773601040502E-02 -0.1190795501999E-01  0.0000000000000E+00 -0.8072813382748E-02
 0.5179466023312E-02 -0.9933247981180E-02  0.0000000000000E+00  0.4129456816387E-03
 0.2118563223251E-01 -0.1273357603551E-01  0.0000000000000E+00  0.9832060190737E-02
 0.2253832435497E-02 -0.2689789153149E-01  0.0000000000000E+00  0.1136124001992E-01
 0.5368938619145E-02 -0.2713097009006E-01  0.0000000000000E+00  0.7315367675893E-02
 0.6144988737563E-02 -0.2572267608643E-01  0.0000000000000E+00  0.3579373902823E-02
 0.5977977352384E-02 -0.2446173187663E-01  0.0000000000000E+00  0.2229196889377E-02
 0.5830455885776E-02 -0.2362018619168E-01  0.0000000000000E+00  0.1640529790097E-02
 0.5701451068995E-02 -0.2296638652618E-01  0.0000000000000E+00  0.1295580100557E-02
 0.5583160867099E-02 -0.2243286522398E-01  0.0000000000000E+00  0.1097513808709E-02
 0.5477691583100E-02 -0.2197486894272E-01  0.0000000000000E+00  0.9712664960759E-03
 0.5380609646945E-02 -0.2156717792081E-01  0.0000000000000E+00  0.8867703142399E-03
 0.5290181904566E-02 -0.2119498207742E-01  0.0000000000000E+00  0.8253537986158E-03
 0.5204943083530E-02 -0.2084975368736E-01  0.0000000000000E+00  0.7757817437838E-03
 0.5124135116471E-02 -0.2052713741450E-01  0.0000000000000E+00  0.7299580957417E-03
 0.5047392676397E-02 -0.2022585146171E-01  0.0000000000000E+00  0.6808751207661E-03
 0.4974397490631E-02 -0.1994726529891E-01  0.0000000000000E+00  0.6200411900207E-03
 0.4902639239996E-02 -0.1969388029060E-01  0.0000000000000E+00  0.5337320648744E-03
 0.4825901086306E-02 -0.1946432955831E-01  0.0000000000000E+00  0.4067126276939E-03
 0.4741264642436E-02 -0.1924921034770E-01  0.0000000000000E+00  0.2328027119076E-03
 0.4655440608905E-02 -0.1903361763934E-01  0.0000000000000E+00  0.1133951012211E-04
 0.4575693342693E-02 -0.1880337424117E-01  0.0000000000000E+00 -0.2591411522063E-03
 0.4500904384382E-02 -0.1855153439585E-01  0.0000000000000E+00 -0.5725956202196E-03
 0.4426312343054E-02 -0.1828134232266E-01  0.0000000000000E+00 -0.9149198038648E-03
 0.4349278432057E-02 -0.1800252183242E-01  0.0000000000000E+00 -0.1274340542016E-02
 0.4269444262088E-02 -0.1772614921871E-01  0.0000000000000E+00 -0.1645982422776E-02
 0.4187356244068E-02 -0.1746196129412E-01  0.0000000000000E+00 -0.2030893631340E-02
 0.4103584962826E-02 -0.1721740398224E-01  0.0000000000000E+00 -0.2433598563353E-02
 0.4018990155178E-02 -0.1699775014708E-01  0.0000000000000E+00 -0.2859390299614E-02
 0.3935352504685E-02 -0.1680735795461E-01  0.0000000000000E+00 -0.3313959384776E-02
 0.3853896436024E-02 -0.1665086700079E-01  0.0000000000000E+00 -0.3805146767747E-02
 0.3773249936155E-02 -0.1653338108513E-01  0.0000000000000E+00 -0.4342217742173E-02
 0.3690320527062E-02 -0.1645994962287E-01  0.0000000000000E+00 -0.4934985909541E-02
 0.3601653894203E-02 -0.1643372666560E-01  0.0000000000000E+00 -0.5595355846447E-02
 0.3502936389057E-02 -0.1645350668229E-01  0.0000000000000E+00 -0.6336279791554E-02
 0.3389312418430E-02 -0.1651210536287E-01  0.0000000000000E+00 -0.7166416533154E-02
 0.3258502651052E-02 -0.1659632963074E-01  0.0000000000000E+00 -0.8083110859502E-02
 0.3119240650600E-02 -0.1669137194679E-01  0.0000000000000E+00 -0.9068564296679E-02
 0.2978420247370E-02 -0.1678219051061E-01  0.0000000000000E+00 -0.1011902476237E-01
 0.2820154491789E-02 -0.1681121762621E-01  0.0000000000000E+00 -0.1120355422212E-01
 0.2573147150349E-02 -0.1663713597085E-01  0.0000000000000E+00 -0.1229148669037E-01
 0.1823144890118E-02 -0.1545738620800E-01  0.0000000000000E+00 -0.1265357362945E-01
 0.3150421664744E-02 -0.1258814024250E-01  0.0000000000000E+00 -0.5648386452921E-02
 0.2216590307572E-01 -0.1500220629998E-01  0.0000000000000E+00  0.8707136450228E-02
 0.3123214314627E-02 -0.2966945488191E-01  0.0000000000000E+00  0.1184979927087E-01
 0.6528922212046E-02 -0.2846310378133E-01  0.0000000000000E+00  0.5120306695048E-02
 0.6504093377671E-02 -0.2604279873316E-01  0.0000000000000E+00  0.1863553918028E-02
 0.6128574414673E-02 -0.2479341030613E-01  0.0000000000000E+00  0.1331215704490E-02
 0.5969692466413E-02 -0.2395126304776E-01  0.0000000000000E+00  0.9384623884300E-03
 0.5813773469673E-02 -0.2331231280840E-01  0.0000000000000E+00  0.7541359255260E-03
 0.5690494862817E-02 -0.2279278126049E-01  0.0000000000000E+00  0.6416010892646E-03
 0.5581109176287E-02 -0.2234513905069E-01  0.0000000000000E+00  0.5721162901137E-03
 0.5482572416953E-02 -0.2194444609920E-01  0.0000000000000E+00  0.5255723340647E-03
 0.5391344995587E-02 -0.2157635455421E-01  0.0000000000000E+00  0.4918151007068E-03
 0.5305817155631E-02 -0.2123302138988E-01  0.0000000000000E+00  0.4642988318320E-03
 0.5225151424132E-02 -0.2091080617626E-01  0.0000000000000E+00  0.4383430803816E-03
 0.5149196959280E-02 -0.2060929839919E-01  0.0000000000000E+00  0.4097012325254E-03
 0.5078525964122E-02 -0.2033131377335E-01  0.0000000000000E+00  0.3731613033819E-03
 0.5012884788415E-02 -0.2008364016949E-01  0.0000000000000E+00  0.3169537342447E-03
 0.4948007048102E-02 -0.1987306736213E-01  0.0000000000000E+00  0.2183706243153E-03
 0.4879694015365E-02 -0.1969139147839E-01  0.0000000000000E+00  0.5395386125617E-04
 0.4810006934131E-02 -0.1950878721986E-01  0.0000000000000E+00 -0.1870852710633E-03
 0.4741146364133E-02 -0.1929575238566E-01  0.0000000000000E+00 -0.4962646342200E-03
 0.4670290329414E-02 -0.1904481575941E-01  0.0000000000000E+00 -0.8479718244609E-03
 0.4594958025333E-02 -0.1876706281579E-01  0.0000000000000E+00 -0.1216018576058E-02
 0.4515835013420E-02 -0.1847947317530E-01  0.0000000000000E+00 -0.1586578631019E-02
 0.4434962626594E-02 -0.1819780760521E-01  0.0000000000000E+00 -0.1956992979532E-02
 0.4354372365671E-02 -0.1793467316216E-01  0.0000000000000E+00 -0.2331601031007E-02
 0.4275382121562E-02 -0.1769939951309E-01  0.0000000000000E+00 -0.2718549366369E-02
 0.4198882342056E-02 -0.1749800865156E-01  0.0000000000000E+00 -0.3126481204766E-02
 0.4126525981840E-02 -0.1733423991642E-01  0.0000000000000E+00 -0.3562022787418E-02
 0.4060164047017E-02 -0.1721347622336E-01  0.0000000000000E+00 -0.4031038527651E-02
 0.4000041157210E-02 -0.1714571512107E-01  0.0000000000000E+00 -0.4541459813414E-02
 0.3945244997119E-02 -0.1714300726247E-01  0.0000000000000E+00 -0.5105918602408E-02
 0.3894397839761E-02 -0.1721525425441E-01  0.0000000000000E+00 -0.5743303579574E-02
 0.3844706905544E-02 -0.1736844789840E-01  0.0000000000000E+00 -0.6476694411851E-02
 0.3791520589079E-02 -0.1760352872293E-01  0.0000000000000E+00 -0.7328959726195E-02
 0.3731436691134E-02 -0.1791506711500E-01  0.0000000000000E+00 -0.8314335989815E-02
 0.3668677450868E-02 -0.1829525195140E-01  0.0000000000000E+00 -0.9426733703463E-02
 0.3632986107549E-02 -0.1875651951135E-01  0.0000000000000E+00 -0.1064673429799E-01
 0.3589128061914E-02 -0.1933638168510E-01  0.0000000000000E+00 -0.1204812205966E-01
 0.3633339484809E-02 -0.2006227357527E-01  0.0000000000000E+00 -0.1355887085801E-01
 0.3083763305136E-02 -0.2076749190582E-01  0.0000000000000E+00 -0.1642843957907E-01
 0.1493134991454E-02 -0.1843088028245E-01  0.0000000000000E+00 -0.1489401029928E-01
 0.2339433043492E-01 -0.2034241020631E-01  0.0000000000000E+00  0.3633105967026E-02
 0.4500180628608E-02 -0.3442700193878E-01  0.0000000000000E+00  0.1091495608325E-01
 0.7708356179151E-02 -0.2841618756532E-01  0.0000000000000E+00  0.4337974144467E-03
 0.6418408994833E-02 -0.2613433340402E-01  0.0000000000000E+00  0.6843606416054E-03
 0.6271741083056E-02 -0.2500906627118E-01  0.0000000000000E+00  0.3792300958704E-03
 0.6048553233109E-02 -0.2421773510987E-01  0.0000000000000E+00  0.2904050876247E-03
 0.5906121807816E-02 -0.2362285574974E-01  0.0000000000000E+00  0.2351507632555E-03
 0.5781973859581E-02 -0.2313046356356E-01  0.0000000000000E+00  0.2039909589213E-03
 0.5675063658744E-02 -0.2270100492884E-01  0.0000000000000E+00  0.1844523779891E-03
 0.5577723166615E-02 -0.2231163620497E-01  0.0000000000000E+00  0.1714774184103E-03
 0.5487380970956E-02 -0.2195006039358E-01  0.0000000000000E+00  0.1620031091963E-03
 0.5402298400252E-02 -0.2160973368667E-01  0.0000000000000E+00  0.1541200195550E-03
 0.5321850812950E-02 -0.2128803188648E-01  0.0000000000000E+00  0.1464061656438E-03
 0.5246146075266E-02 -0.2098545118202E-01  0.0000000000000E+00  0.1375069252680E-03
 0.5176140017986E-02 -0.2070583626952E-01  0.0000000000000E+00  0.1256658010559E-03
 0.5114069537473E-02 -0.2045874703300E-01  0.0000000000000E+00  0.1071631341867E-03
 0.5062505070558E-02 -0.2026739183495E-01  0.0000000000000E+00  0.5731107879181E-04
 0.5019312620562E-02 -0.2013531081563E-01  0.0000000000000E+00 -0.8499400717554E-04
 0.4974613645602E-02 -0.2000143970332E-01  0.0000000000000E+00 -0.3595350873916E-03
 0.4918193054335E-02 -0.1980650972353E-01  0.0000000000000E+00 -0.7300030197023E-03
 0.4847712692586E-02 -0.1955022935886E-01  0.0000000000000E+00 -0.1132781368473E-02
 0.4767225967733E-02 -0.1925787843330E-01  0.0000000000000E+00 -0.1529925679711E-02
 0.4682310095583E-02 -0.1895581072320E-01  0.0000000000000E+00 -0.1909252766306E-02
 0.4597716368391E-02 -0.1866472328548E-01  0.0000000000000E+00 -0.2272900688163E-02
 0.4516891643883E-02 -0.1839992074995E-01  0.0000000000000E+00 -0.2629709411865E-02
 0.4442044744874E-02 -0.1817267734605E-01  0.0000000000000E+00 -0.2991868510252E-02
 0.4374004684534E-02 -0.1799030863513E-01  0.0000000000000E+00 -0.3373461149209E-02
 0.4312893248367E-02 -0.1785351640020E-01  0.0000000000000E+00 -0.3783519853959E-02
 0.4260393837467E-02 -0.1776588750785E-01  0.0000000000000E+00 -0.4220638857674E-02
 0.4219978233428E-02 -0.1774573930674E-01  0.0000000000000E+00 -0.4686575307124E-02
 0.4194539723806E-02 -0.1781501555369E-01  0.0000000000000E+00 -0.5198168848748E-02
 0.4185401765272E-02 -0.1799060910381E-01  0.0000000000000E+00 -0.5781901836073E-02
 0.4192261010462E-02 -0.1828743702431E-01  0.0000000000000E+00 -0.6469522122402E-02
 0.4212920214763E-02 -0.1871775898910E-01  0.0000000000000E+00 -0.7297673086841E-02
 0.4242485036508E-02 -0.1928709013974E-01  0.0000000000000E+00 -0.8301654122531E-02
 0.4281834752158E-02 -0.1999119646732E-01  0.0000000000000E+00 -0.9488055211282E-02
 0.4344011926169E-02 -0.2084194510989E-01  0.0000000000000E+00 -0.1078612394674E-01
 0.4549370018995E-02 -0.2203215541653E-01  0.0000000000000E+00 -0.1213218265324E-01
 0.4699746195125E-02 -0.2386247187226E-01  0.0000000000000E+00 -0.1386589346649E-01
 0.6074119499187E-02 -0.2705979805420E-01  0.0000000000000E+00 -0.1596251756767E-01
 0.1964696018244E-02 -0.3114067911898E-01  0.0000000000000E+00 -0.2572363260928E-01
 0.2816000773349E-01 -0.3577968148487E-01  0.0000000000000E+00 -0.1280745457204E-01
 0.2138481769895E-01 -0.5538822327599E-01  0.0000000000000E+00  0.1686492960573E+00
 0.5737557638182E-01 -0.8950821869650E-01  0.0000000000000E+00  0.2139853166309E+00
 0.8786451464502E-01 -0.1185134720536E+00  0.0000000000000E+00  0.2548658391909E+00
 0.1141908224904E+00 -0.1437474567016E+00  0.0000000000000E+00  0.2908091418598E+00
 0.1375255497648E+00 -0.1663348846765E+00  0.0000000000000E+00  0.3220153391676E+00
 0.1587688795935E+00 -0.1871442636787E+00  0.0000000000000E+00  0.3490230472624E+00
 0.1785935144737E+00 -0.2068206957597E+00  0.0000000000000E+00  0.3725759535842E+00
 0.1974631118210E+00 -0.2258057997054E+00  0.0000000000000E+00  0.3935342584808E+00
 0.2156484964692E+00 -0.2443501553759E+00  0.0000000000000E+00  0.4127616975357E+00
 0.2332480731766E+00 -0.2625324162409E+00  0.0000000000000E+00  0.4310108509875E+00
 0.2502164425675E+00 -0.2802901224647E+00  0.0000000000000E+00  0.4488500543908E+00
 0.2663901788748E+00 -0.2974574303061E+00  0.0000000000000E+00  0.4666751858379E+00
 0.2815600524707E+00 -0.3138197022481E+00  0.0000000000000E+00  0.4846671862177E+00
 0.2954937808017E+00 -0.3291705727061E+00  0.0000000000000E+00  0.5030720734977E+00
 0.3078832916296E+00 -0.3432457968759E+00  0.0000000000000E+00  0.5222558559538E+00
 0.3182642408995E+00 -0.3556392473724E+00  0.0000000000000E+00  0.5425638178852E+00
 0.3259836097890E+00 -0.3657735743691E+00  0.0000000000000E+00  0.5640432893038E+00
 0.3302529203826E+00 -0.3729378224874E+00  0.0000000000000E+00  0.5861108897905E+00
 0.3302477436958E+00 -0.3763706592995E+00  0.0000000000000E+00  0.6071236452558E+00
 0.3256784888809E+00 -0.3756773730806E+00  0.0000000000000E+00  0.6245068732782E+00
 0.2189236493128E-01 -0.5714711213265E-01  0.0000000000000E+00  0.1849530636013E+00
 0.5847197502694E-01 -0.9176560787171E-01  0.0000000000000E+00  0.2284253757791E+00
 0.8956816054367E-01 -0.1213339103614E+00  0.0000000000000E+00  0.2680483738274E+00
 0.1164937163467E+00 -0.1471042688693E+00  0.0000000000000E+00  0.3033882992041E+00
 0.1403393324393E+00 -0.1701386770310E+00  0.0000000000000E+00  0.3344609175934E+00
 0.1619769522865E+00 -0.1912768850140E+00  0.0000000000000E+00  0.3616700055620E+00
 0.1820597254260E+00 -0.2111465532246E+00  0.0000000000000E+00  0.3856532652805E+00
 0.2010403976240E+00 -0.2301784822156E+00  0.0000000000000E+00  0.4071826681658E+00
 0.2191871237312E+00 -0.2486211751688E+00  0.0000000000000E+00  0.4270494009572E+00
 0.2366055828049E+00 -0.2665620122692E+00  0.0000000000000E+00  0.4459565698591E+00
 0.2532631141553E+00 -0.2839549006997E+00  0.0000000000000E+00  0.4644528791368E+00
 0.2690175271326E+00 -0.3006508220115E+00  0.0000000000000E+00  0.4829117871925E+00
 0.2836817691792E+00 -0.3164682522776E+00  0.0000000000000E+00  0.5015513939551E+00
 0.2970244905595E+00 -0.3311982684600E+00  0.0000000000000E+00  0.5206697486528E+00
 0.3087211184442E+00 -0.3445575281249E+00  0.0000000000000E+00  0.5406252108697E+00
 0.3182987611264E+00 -0.3561291895854E+00  0.0000000000000E+00  0.5617096532003E+00
 0.3251168718662E+00 -0.3653383768787E+00  0.0000000000000E+00  0.5838732145176E+00
 0.3284419398046E+00 -0.3715172012421E+00  0.0000000000000E+00  0.6063571948843E+00
 0.3276563209358E+00 -0.3740790674181E+00  0.0000000000000E+00  0.6274391307407E+00
 0.3221906221497E+00 -0.3726106847352E+00  0.0000000000000E+00  0.6448793268131E+00
 0.2233003731208E-01 -0.5873636361640E-01  0.0000000000000E+00  0.2012984742365E+00
 0.5940471655712E-01 -0.9381112597652E-01  0.0000000000000E+00  0.2428855791443E+00
 0.9103691297431E-01 -0.1238603751437E+00  0.0000000000000E+00  0.2813147237939E+00
 0.1184852655011E+00 -0.1501002584579E+00  0.0000000000000E+00  0.3160163855796E+00
 0.1427907426409E+00 -0.1735349604822E+00  0.0000000000000E+00  0.3469102348756E+00
 0.1647846197180E+00 -0.1949680712805E+00  0.0000000000000E+00  0.3742718095526E+00
 0.1850976476700E+00 -0.2150056552248E+00  0.0000000000000E+00  0.3986334587080E+00
 0.2041695290201E+00 -0.2340664549873E+00  0.0000000000000E+00  0.4206784894976E+00
 0.2222646943377E+00 -0.2523960828828E+00  0.0000000000000E+00  0.4411291723724E+00
 0.2394928083516E+00 -0.2700876250172E+00  0.0000000000000E+00  0.4606432927269E+00
 0.2558324828693E+00 -0.2871070434320E+00  0.0000000000000E+00  0.4797426016001E+00
 0.2711604890438E+00 -0.3033267704924E+00  0.0000000000000E+00  0.4987961007031E+00
 0.2853012996528E+00 -0.3185783601810E+00  0.0000000000000E+00  0.5180553938625E+00
 0.2980220932302E+00 -0.3326519520825E+00  0.0000000000000E+00  0.5378371629755E+00
 0.3089899248297E+00 -0.3452532360555E+00  0.0000000000000E+00  0.5584859119339E+00
 0.3177317980861E+00 -0.3559604385128E+00  0.0000000000000E+00  0.5802312905817E+00
 0.3236346558725E+00 -0.3642187463367E+00  0.0000000000000E+00  0.6029190992608E+00
 0.3260480291576E+00 -0.3694297774767E+00  0.0000000000000E+00  0.6257031895572E+00
 0.3244102235827E+00 -0.3710990714550E+00  0.0000000000000E+00  0.6470163492040E+00
 0.3182830263543E+00 -0.3688381094739E+00  0.0000000000000E+00  0.6644502841639E+00
 0.2271195771477E-01 -0.6019871859411E-01  0.0000000000000E+00  0.2177058078810E+00
 0.6017717009335E-01 -0.9563221007537E-01  0.0000000000000E+00  0.2574046492238E+00
 0.9226907774795E-01 -0.1260980303029E+00  0.0000000000000E+00  0.2946281696948E+00
 0.1201759089364E+00 -0.1527457326921E+00  0.0000000000000E+00  0.3286749035189E+00
 0.1448888110530E+00 -0.1765335169407E+00  0.0000000000000E+00  0.3593463720716E+00
 0.1672010166364E+00 -0.1982270631706E+00  0.0000000000000E+00  0.3868095580910E+00
 0.1877166434363E+00 -0.2184075863205E+00  0.0000000000000E+00  0.4114941722910E+00
 0.2068602409105E+00 -0.2374796421992E+00  0.0000000000000E+00  0.4339971689734E+00
 0.2248902478097E+00 -0.2556840190137E+00  0.0000000000000E+00  0.4549741593543E+00
 0.2419183480458E+00 -0.2731170378957E+00  0.0000000000000E+00  0.4750377988769E+00
 0.2579323666534E+00 -0.2897555067211E+00  0.0000000000000E+00  0.4946862038960E+00
 0.2728231422234E+00 -0.3054873887011E+00  0.0000000000000E+00  0.5142872329775E+00
 0.2864224164299E+00 -0.3201528194353E+00  0.0000000000000E+00  0.5341164183937E+00
 0.2984958579745E+00 -0.3335400645326E+00  0.0000000000000E+00  0.5544962056525E+00
 0.3087076321888E+00 -0.3453494826863E+00  0.0000000000000E+00  0.5757457760376E+00
 0.3165938939846E+00 -0.3551637776418E+00  0.0000000000000E+00  0.5980305169038E+00
 0.3215808602471E+00 -0.3624600122293E+00  0.0000000000000E+00  0.6211145026070E+00
 0.3230757066872E+00 -0.3666988755560E+00  0.0000000000000E+00  0.6441364583104E+00
 0.3205855775663E+00 -0.3674355371111E+00  0.0000000000000E+00  0.6655198079287E+00
 0.3138334306222E+00 -0.3644306286914E+00  0.0000000000000E+00  0.6828615103989E+00
 0.2304551610113E-01 -0.6154497486974E-01  0.0000000000000E+00  0.2341351283060E+00
 0.6080062817941E-01 -0.9724412254278E-01  0.0000000000000E+00  0.2719674282087E+00
 0.9327188949197E-01 -0.1280527370454E+00  0.0000000000000E+00  0.3079758833851E+00
 0.1215737714046E+00 -0.1550506736650E+00  0.0000000000000E+00  0.3413418871676E+00
 0.1466440990766E+00 -0.1791453431931E+00  0.0000000000000E+00  0.3717510949868E+00
 0.1692367445833E+00 -0.2010649076171E+00  0.0000000000000E+00  0.3992638024413E+00
 0.1899275749448E+00 -0.2213634752586E+00  0.0000000000000E+00  0.4242135670012E+00
 0.2091233761954E+00 -0.2404291061689E+00  0.0000000000000E+00  0.4471139678912E+00
 0.2270744337761E+00 -0.2584955851488E+00  0.0000000000000E+00  0.4685557937262E+00
 0.2438924044199E+00 -0.2756605560315E+00  0.0000000000000E+00  0.4891080177157E+00
 0.2595717527694E+00 -0.2919089236958E+00  0.0000000000000E+00  0.5092467436687E+00
 0.2740136148374E+00 -0.3071402318356E+00  0.0000000000000E+00  0.5293383368056E+00
 0.2870547640768E+00 -0.3212003831756E+00  0.0000000000000E+00  0.5496740475224E+00
 0.2984605816298E+00 -0.3338766924748E+00  0.0000000000000E+00  0.5705730231663E+00
 0.3078973481664E+00 -0.3448691309442E+00  0.0000000000000E+00  0.5923230973074E+00
 0.3149178126636E+00 -0.3537725090032E+00  0.0000000000000E+00  0.6150305382050E+00
 0.3189866898265E+00 -0.3600983703251E+00  0.0000000000000E+00  0.6384033705518E+00
 0.3195669776654E+00 -0.3633560777872E+00  0.0000000000000E+00  0.6615521012244E+00
 0.3162431029602E+00 -0.3631696690647E+00  0.0000000000000E+00  0.6829008241898E+00
 0.3088686192038E+00 -0.3594205554338E+00  0.0000000000000E+00  0.7001445465597E+00
 0.2333499284148E-01 -0.6278280560259E-01  0.0000000000000E+00  0.2505498167274E+00
 0.6128400019059E-01 -0.9865775762771E-01  0.0000000000000E+00  0.2865483561994E+00
 0.9405502371422E-01 -0.1297356174426E+00  0.0000000000000E+00  0.3213388883035E+00
 0.1226888895829E+00 -0.1570257463480E+00  0.0000000000000E+00  0.3539990575216E+00
 0.1480677292646E+00 -0.1813824455747E+00  0.0000000000000E+00  0.3841051227458E+00
 0.1709037817121E+00 -0.2034940729399E+00  0.0000000000000E+00  0.4116148830823E+00
 0.1917426541406E+00 -0.2238859200960E+00  0.0000000000000E+00  0.4367697814063E+00
 0.2109712303939E+00 -0.2429273744912E+00  0.0000000000000E+00  0.4600038729227E+00
 0.2288294433349E+00 -0.2608431229860E+00  0.0000000000000E+00  0.4818453672446E+00
 0.2454268137808E+00 -0.2777300035351E+00  0.0000000000000E+00  0.5028209214619E+00
 0.2607620412090E+00 -0.2935785140119E+00  0.0000000000000E+00  0.5233852005865E+00
 0.2747437407954E+00 -0.3082967156114E+00  0.0000000000000E+00  0.5439014911617E+00
 0.2872126737975E+00 -0.3217349056217E+00  0.0000000000000E+00  0.5646698727764E+00
 0.2979357048950E+00 -0.3336809854969E+00  0.0000000000000E+00  0.5860002778190E+00
 0.3065855666716E+00 -0.3438388670645E+00  0.0000000000000E+00  0.6081474696465E+00
 0.3127352653895E+00 -0.3518199596854E+00  0.0000000000000E+00  0.6311668787700E+00
 0.3158888263873E+00 -0.3571701438067E+00  0.0000000000000E+00  0.6547185983581E+00
 0.3155661563747E+00 -0.3594496377719E+00  0.0000000000000E+00  0.6778915610456E+00
 0.3114258362947E+00 -0.3583501411774E+00  0.0000000000000E+00  0.6991343527356E+00
 0.3034155843585E+00 -0.3538420552831E+00  0.0000000000000E+00  0.7162751431402E+00
 0.2358343442541E-01 -0.6391793056565E-01  0.0000000000000E+00  0.2669142096732E+00
 0.6163497966081E-01 -0.9988296428541E-01  0.0000000000000E+00  0.3011193009930E+00
 0.9462847252867E-01 -0.1311581054968E+00  0.0000000000000E+00  0.3346954395036E+00
 0.1235325092518E+00 -0.1586832698145E+00  0.0000000000000E+00  0.3666273434544E+00
 0.1491719724168E+00 -0.1832578756676E+00  0.0000000000000E+00  0.3963896376337E+00
 0.1722152255174E+00 -0.2055283047045E+00  0.0000000000000E+00  0.4238429241516E+00
 0.1931754590304E+00 -0.2259889510442E+00  0.0000000000000E+00  0.4491409014117E+00
 0.2124175669982E+00 -0.2449885401342E+00  0.0000000000000E+00  0.4726418364086E+00
 0.2301690721398E+00 -0.2627406289596E+00  0.0000000000000E+00  0.4948139594570E+00
 0.2465353396565E+00 -0.2793392152804E+00  0.0000000000000E+00  0.5161429092661E+00
 0.2615172160819E+00 -0.2947781840920E+00  0.0000000000000E+00  0.5370619834153E+00
 0.2750287489486E+00 -0.3089718838673E+00  0.0000000000000E+00  0.5579294788225E+00
 0.2869143376195E+00 -0.3217744152790E+00  0.0000000000000E+00  0.5790489155496E+00
 0.2969442110966E+00 -0.3329760000600E+00  0.0000000000000E+00  0.6007175141924E+00
 0.3048007068297E+00 -0.3422877901877E+00  0.0000000000000E+00  0.6231578890251E+00
 0.3100796878426E+00 -0.3493404297335E+00  0.0000000000000E+00  0.6463804495527E+00
 0.3123255026924E+00 -0.3537154180956E+00  0.0000000000000E+00  0.6700058633241E+00
 0.3111140482493E+00 -0.3550236228076E+00  0.0000000000000E+00  0.6931133823613E+00
 0.3061700509018E+00 -0.3530180887189E+00  0.0000000000000E+00  0.7141955743256E+00
 0.2975067981420E+00 -0.3477307738038E+00  0.0000000000000E+00  0.7312209236920E+00
 0.2379323984007E-01 -0.6495524456450E-01  0.0000000000000E+00  0.2831945819391E+00
 0.6186048386645E-01 -0.1009287253119E+00  0.0000000000000E+00  0.3156519169467E+00
 0.9500225997570E-01 -0.1323318204442E+00  0.0000000000000E+00  0.3480226833951E+00
 0.1241166081747E+00 -0.1600364045302E+00  0.0000000000000E+00  0.3792070795268E+00
 0.1499701436008E+00 -0.1847858623768E+00  0.0000000000000E+00  0.4085857727184E+00
 0.1731853491292E+00 -0.2071825808886E+00  0.0000000000000E+00  0.4359281781785E+00
 0.1942408856456E+00 -0.2276880101532E+00  0.0000000000000E+00  0.4613050723466E+00
 0.2134776397259E+00 -0.2466282578878E+00  0.0000000000000E+00  0.4850029093846E+00
 0.2311088053804E+00 -0.2642038662271E+00  0.0000000000000E+00  0.5074327094529E+00
 0.2472337737670E+00 -0.2805041420950E+00  0.0000000000000E+00  0.5290404712984E+00
 0.2618537944774E+00 -0.2955245134370E+00  0.0000000000000E+00  0.5502380858468E+00
 0.2748868782758E+00 -0.3091839994798E+00  0.0000000000000E+00  0.5713771056321E+00
 0.2861810909239E+00 -0.3213403584207E+00  0.0000000000000E+00  0.5927604954762E+00
 0.2955116897118E+00 -0.3317877261300E+00  0.0000000000000E+00  0.6146709917931E+00
 0.3025730262190E+00 -0.3402469316239E+00  0.0000000000000E+00  0.6373007053684E+00
 0.3069857043403E+00 -0.3463698854130E+00  0.0000000000000E+00  0.6606207052345E+00
 0.3083345685994E+00 -0.3497742186966E+00  0.0000000000000E+00  0.6842213125160E+00
 0.3062486631684E+00 -0.3501193427013E+00  0.0000000000000E+00  0.7071840037481E+00
 0.3005098276483E+00 -0.3472113881678E+00  0.0000000000000E+00  0.7280569070291E+00
 0.2911762839141E+00 -0.3411239266940E+00  0.0000000000000E+00  0.7449433380242E+00
 0.2396647991052E-01 -0.6589922886769E-01  0.0000000000000E+00  0.2993590821820E+00
 0.6196701088475E-01 -0.1018035980949E+00  0.0000000000000E+00  0.3301186527109E+00
 0.9518642434899E-01 -0.1332684591547E+00  0.0000000000000E+00  0.3612976987516E+00
 0.1244537109740E+00 -0.1610989728135E+00  0.0000000000000E+00  0.3917184193319E+00
 0.1504764744043E+00 -0.1859816472478E+00  0.0000000000000E+00  0.4206747061652E+00
 0.1738295639661E+00 -0.2084731075864E+00  0.0000000000000E+00  0.4478510944643E+00
 0.1949551406151E+00 -0.2289999265767E+00  0.0000000000000E+00  0.4732407023468E+00
 0.2141681922538E+00 -0.2478637530855E+00  0.0000000000000E+00  0.4970624606476E+00
 0.2316658394523E+00 -0.2652503923012E+00  0.0000000000000E+00  0.5196732019153E+00
 0.2475399142433E+00 -0.2812428466756E+00  0.0000000000000E+00  0.5414808510663E+00
 0.2617906492588E+00 -0.2958365820565E+00  0.0000000000000E+00  0.5628760029333E+00
 0.2743389652576E+00 -0.3089541190319E+00  0.0000000000000E+00  0.5842020838152E+00
 0.2850367829693E+00 -0.3204569379580E+00  0.0000000000000E+00  0.6057586730097E+00
 0.2936657930942E+00 -0.3301444349011E+00  0.0000000000000E+00  0.6278132542738E+00
 0.2999341898630E+00 -0.3377489861243E+00  0.0000000000000E+00  0.6505296269417E+00
 0.3034884531667E+00 -0.3429450742147E+00  0.0000000000000E+00  0.6738452779823E+00
 0.3039531005890E+00 -0.3453860062417E+00  0.0000000000000E+00  0.6973289610962E+00
 0.3010064115243E+00 -0.3447763275767E+00  0.0000000000000E+00  0.7200740173960E+00
 0.2944789655284E+00 -0.3409673310148E+00  0.0000000000000E+00  0.7406897185194E+00
 0.2844596832211E+00 -0.3340603857023E+00  0.0000000000000E+00  0.7574028108871E+00
 0.2410507357229E-01 -0.6675418898047E-01  0.0000000000000E+00  0.3153777033072E+00
 0.6196087240138E-01 -0.1025159639462E+00  0.0000000000000E+00  0.3444931999460E+00
 0.9519109122476E-01 -0.1339798631526E+00  0.0000000000000E+00  0.3744981147395E+00
 0.1245568262954E+00 -0.1618853648907E+00  0.0000000000000E+00  0.4041417553731E+00
 0.1507060290699E+00 -0.1868613950925E+00  0.0000000000000E+00  0.4326378510523E+00
 0.1741643672667E+00 -0.2094172588204E+00  0.0000000000000E+00  0.4595924521493E+00
 0.1953357118293E+00 -0.2299428889510E+00  0.0000000000000E+00  0.4849266302109E+00
 0.2145074341362E+00 -0.2487137950811E+00  0.0000000000000E+00  0.5087964348107E+00
 0.2318590395955E+00 -0.2658995216326E+00  0.0000000000000E+00  0.5315078582548E+00
 0.2474734574711E+00 -0.2815753986490E+00  0.0000000000000E+00  0.5534326162138E+00
 0.2613487662514E+00 -0.2957357239561E+00  0.0000000000000E+00  0.5749404069162E+00
 0.2734080343274E+00 -0.3083056655211E+00  0.0000000000000E+00  0.5963655890410E+00
 0.2835072769997E+00 -0.3191505697067E+00  0.0000000000000E+00  0.6180024085643E+00
 0.2914357569736E+00 -0.3280761925937E+00  0.0000000000000E+00  0.6401029996217E+00
 0.2969168108733E+00 -0.3348278127325E+00  0.0000000000000E+00  0.6628053805448E+00
 0.2996232125890E+00 -0.3391030847846E+00  0.0000000000000E+00  0.6860190401139E+00
 0.2992175442136E+00 -0.3405896942083E+00  0.0000000000000E+00  0.7092988532650E+00
 0.2954229965390E+00 -0.3390333383587E+00  0.0000000000000E+00  0.7317570714230E+00
 0.2881117531513E+00 -0.3343235793567E+00  0.0000000000000E+00  0.7520658269198E+00
 0.2773944675119E+00 -0.3265808603358E+00  0.0000000000000E+00  0.7685615066868E+00
 0.2421088770221E-01 -0.6752439046989E-01  0.0000000000000E+00  0.3312222438660E+00
 0.6184834936694E-01 -0.1030742027277E+00  0.0000000000000E+00  0.3587507273305E+00
 0.9502655328156E-01 -0.1344780959479E+00  0.0000000000000E+00  0.3876025007312E+00
 0.1244394381592E+00 -0.1624105209956E+00  0.0000000000000E+00  0.4164580651308E+00
 0.1506746544115E+00 -0.1874421343582E+00  0.0000000000000E+00  0.4444570889080E+00
 0.1742072902380E+00 -0.2100335223441E+00  0.0000000000000E+00  0.4711335337572E+00
 0.1954013216278E+00 -0.2305363975677E+00  0.0000000000000E+00  0.4963423194738E+00
 0.2145149850689E+00 -0.2491986432509E+00  0.0000000000000E+00  0.5201816177840E+00
 0.2317088499132E+00 -0.2661722374586E+00  0.0000000000000E+00  0.5429103071765E+00
 0.2470558362629E+00 -0.2815237128322E+00  0.0000000000000E+00  0.5648661280862E+00
 0.2605509728089E+00 -0.2952452487026E+00  0.0000000000000E+00  0.5863986350800E+00
 0.2721189193045E+00 -0.3072640301829E+00  0.0000000000000E+00  0.6078325970234E+00
 0.2816200175806E+00 -0.3174494276253E+00  0.0000000000000E+00  0.6294556437555E+00
 0.2888519741562E+00 -0.3256144072660E+00  0.0000000000000E+00  0.6515048960033E+00
 0.2935540860887E+00 -0.3315180341430E+00  0.0000000000000E+00  0.6740952246986E+00
 0.2954252373923E+00 -0.3348811218379E+00  0.0000000000000E+00  0.6971132036179E+00
 0.2941639612296E+00 -0.3354238717779E+00  0.0000000000000E+00  0.7201061010100E+00
 0.2895340047239E+00 -0.3329290201613E+00  0.0000000000000E+00  0.7422097497285E+00
 0.2814432096840E+00 -0.3273185541515E+00  0.0000000000000E+00  0.7621587865721E+00
 0.2700182468566E+00 -0.3187265458897E+00  0.0000000000000E+00  0.7783890079778E+00
 0.2428580084027E-01 -0.6821414262489E-01  0.0000000000000E+00  0.3468662844657E+00
 0.6163579822691E-01 -0.1034868100143E+00  0.0000000000000E+00  0.3728680061744E+00
 0.9470334210061E-01 -0.1347755148193E+00  0.0000000000000E+00  0.4005906171573E+00
 0.1241155190142E+00 -0.1626899372145E+00  0.0000000000000E+00  0.4286491755960E+00
 0.1503989507685E+00 -0.1877417205440E+00  0.0000000000000E+00  0.4561149854578E+00
 0.1739768492436E+00 -0.2103414453855E+00  0.0000000000000E+00  0.4824563045772E+00
 0.1951718654427E+00 -0.2308012003081E+00  0.0000000000000E+00  0.5074680480777E+00
 0.2142117915677E+00 -0.2493399619857E+00  0.0000000000000E+00  0.5311958779656E+00
 0.2312371677191E+00 -0.2660910642254E+00  0.0000000000000E+00  0.5538556934331E+00
 0.2463100266984E+00 -0.2811113511533E+00  0.0000000000000E+00  0.5757538962736E+00
 0.2594216604002E+00 -0.2943901529461E+00  0.0000000000000E+00  0.5972210146703E+00
 0.2704979142976E+00 -0.3058562058774E+00  0.0000000000000E+00  0.6185720722510E+00
 0.2794036500702E+00 -0.3153830404174E+00  0.0000000000000E+00  0.6400872835578E+00
 0.2859456363829E+00 -0.3227914429509E+00  0.0000000000000E+00  0.6619893280450E+00
 0.2898795338762E+00 -0.3278547377292E+00  0.0000000000000E+00  0.6843724444193E+00
 0.2909296989906E+00 -0.3303164115927E+00  0.0000000000000E+00  0.7071046602131E+00
 0.2888282321399E+00 -0.3299270016683E+00  0.0000000000000E+00  0.7297304537188E+00
 0.2833752683980E+00 -0.3265022896391E+00  0.0000000000000E+00  0.7514119938262E+00
 0.2745090998119E+00 -0.3199915896056E+00  0.0000000000000E+00  0.7709448498618E+00
 0.2623684807900E+00 -0.3105386072456E+00  0.0000000000000E+00  0.7868555093644E+00
 0.2433174142014E-01 -0.6882785156469E-01  0.0000000000000E+00  0.3622851812769E+00
 0.6132972257231E-01 -0.1037624774889E+00  0.0000000000000E+00  0.3868234901859E+00
 0.9423228516765E-01 -0.1348848295834E+00  0.0000000000000E+00  0.4134435900534E+00
 0.1235995478921E+00 -0.1627396803660E+00  0.0000000000000E+00  0.4406979717670E+00
 0.1498962522671E+00 -0.1877788114802E+00  0.0000000000000E+00  0.4675949857425E+00
 0.1734924978855E+00 -0.2103615825938E+00  0.0000000000000E+00  0.4935435903802E+00
 0.1946683393226E+00 -0.2307592173143E+00  0.0000000000000E+00  0.5182850932087E+00
 0.2136200232043E+00 -0.2491607146361E+00  0.0000000000000E+00  0.5418183827607E+00
 0.2304671945261E+00 -0.2656799151942E+00  0.0000000000000E+00  0.5643209308159E+00
 0.2452603393627E+00 -0.2803633074031E+00  0.0000000000000E+00  0.5860708412945E+00
 0.2579865111446E+00 -0.2931968357882E+00  0.0000000000000E+00  0.6073810762245E+00
 0.2685724516268E+00 -0.3041104485792E+00  0.0000000000000E+00  0.6285570575309E+00
 0.2768876855725E+00 -0.3129819352296E+00  0.0000000000000E+00  0.6498711130440E+00
 0.2827484367564E+00 -0.3196402958099E+00  0.0000000000000E+00  0.6715321232243E+00
 0.2859267978521E+00 -0.3238732503894E+00  0.0000000000000E+00  0.6936159247707E+00
 0.2861716469826E+00 -0.3254461419964E+00  0.0000000000000E+00  0.7159755590486E+00
 0.2832461728461E+00 -0.3241375316427E+00  0.0000000000000E+00  0.7381561925255E+00
 0.2769829840222E+00 -0.3197924812625E+00  0.0000000000000E+00  0.7593475923953E+00
 0.2673462417770E+00 -0.3123831169824E+00  0.0000000000000E+00  0.7784034870259E+00
 0.2544837264291E+00 -0.3020595717739E+00  0.0000000000000E+00  0.7939328013440E+00
 0.2435071176711E-01 -0.6937005435019E-01  0.0000000000000E+00  0.3774560710238E+00
 0.6093682147196E-01 -0.1039101476834E+00  0.0000000000000E+00  0.4005973685216E+00
 0.9362454923382E-01 -0.1348191475799E+00  0.0000000000000E+00  0.4261440336614E+00
 0.1229065269005E+00 -0.1625764023033E+00  0.0000000000000E+00  0.4525885548824E+00
 0.1491846097575E+00 -0.1875728462374E+00  0.0000000000000E+00  0.4788815742090E+00
 0.1727745777092E+00 -0.2101154425373E+00  0.0000000000000E+00  0.5043792299131E+00
 0.1939127586149E+00 -0.2304334558721E+00  0.0000000000000E+00  0.5287758865566E+00
 0.2127629544347E+00 -0.2486850413942E+00  0.0000000000000E+00  0.5520297683641E+00
 0.2294232728986E+00 -0.2649639239512E+00  0.0000000000000E+00  0.5742848836252E+00
 0.2439322048936E+00 -0.2793057846162E+00  0.0000000000000E+00  0.5957944626295E+00
 0.2562722344374E+00 -0.2916928233960E+00  0.0000000000000E+00  0.6168556626906E+00
 0.2663708077867E+00 -0.3020559670674E+00  0.0000000000000E+00  0.6377646718243E+00
 0.2741022092363E+00 -0.3102773255758E+00  0.0000000000000E+00  0.6587856536004E+00
 0.2792923239703E+00 -0.3161943249216E+00  0.0000000000000E+00  0.6801142715020E+00
 0.2817294915773E+00 -0.3196089604484E+00  0.0000000000000E+00  0.7018098005901E+00
 0.2811859673475E+00 -0.3203074044267E+00  0.0000000000000E+00  0.7237130404571E+00
 0.2774535667767E+00 -0.3180939242788E+00  0.0000000000000E+00  0.7453721562879E+00
 0.2703937710522E+00 -0.3128393855655E+00  0.0000000000000E+00  0.7660045326709E+00
 0.2599926262032E+00 -0.3045347865096E+00  0.0000000000000E+00  0.7845183307987E+00
 0.2464042641508E+00 -0.2933339009168E+00  0.0000000000000E+00  0.7995969771121E+00
 0.2434480299771E-01 -0.6984544125120E-01  0.0000000000000E+00  0.3923578851092E+00
 0.6046402169170E-01 -0.1039390510103E+00  0.0000000000000E+00  0.4141716064389E+00
 0.9289167224162E-01 -0.1345920070242E+00  0.0000000000000E+00  0.4386761404574E+00
 0.1220519938466E+00 -0.1622173509607E+00  0.0000000000000E+00  0.4643063627371E+00
 0.1482827735940E+00 -0.1871440245015E+00  0.0000000000000E+00  0.4899604012824E+00
 0.1718442672913E+00 -0.2096254326618E+00  0.0000000000000E+00  0.5149481972252E+00
 0.1929280710981E+00 -0.2298479191327E+00  0.0000000000000E+00  0.5389241346941E+00
 0.2116648383607E+00 -0.2479381280127E+00  0.0000000000000E+00  0.5618122615640E+00
 0.2281307171924E+00 -0.2639692685723E+00  0.0000000000000E+00  0.5837284832454E+00
 0.2423519611422E+00 -0.2779659731350E+00  0.0000000000000E+00  0.6049049284515E+00
 0.2543063175746E+00 -0.2899065073253E+00  0.0000000000000E+00  0.6256249584274E+00
 0.2639218366238E+00 -0.2997226403331E+00  0.0000000000000E+00  0.6461760433217E+00
 0.2710776254089E+00 -0.3073008376611E+00  0.0000000000000E+00  0.6668139869143E+00
 0.2756092934277E+00 -0.3124870230645E+00  0.0000000000000E+00  0.6877216624088E+00
 0.2773210627474E+00 -0.3150971629562E+00  0.0000000000000E+00  0.7089431806097E+00
 0.2760073197919E+00 -0.3149371178720E+00  0.0000000000000E+00  0.7303090729507E+00
 0.2714861434041E+00 -0.3118346241878E+00  0.0000000000000E+00  0.7513718080254E+00
 0.2636446431621E+00 -0.3056832145183E+00  0.0000000000000E+00  0.7713754092460E+00
 0.2524873068694E+00 -0.2964893621413E+00  0.0000000000000E+00  0.7892780773083E+00
 0.2381721321383E+00 -0.2844079283683E+00  0.0000000000000E+00  0.8038298773744E+00
 0.2431620433221E-01 -0.7025887033379E-01  0.0000000000000E+00  0.4069713707075E+00
 0.5991849897067E-01 -0.1038587307062E+00  0.0000000000000E+00  0.4275299813677E+00
 0.9204558656170E-01 -0.1342174013084E+00  0.0000000000000E+00  0.4510257507560E+00
 0.1210520308929E+00 -0.1616803776362E+00  0.0000000000000E+00  0.4758382611155E+00
 0.1472101753398E+00 -0.1865132851513E+00  0.0000000000000E+00  0.5008183792440E+00
 0.1707235300513E+00 -0.2089148029388E+00  0.0000000000000E+00  0.5252366922341E+00
 0.1917380671125E+00 -0.2290275113603E+00  0.0000000000000E+00  0.5487149026290E+00
 0.2103507768836E+00 -0.2469460701276E+00  0.0000000000000E+00  0.5711497551433E+00
 0.2266156433092E+00 -0.2627229939857E+00  0.0000000000000E+00  0.5926347875270E+00
 0.2405466459004E+00 -0.2763718337098E+00  0.0000000000000E+00  0.6133851016002E+00
 0.2521167912652E+00 -0.2878668977309E+00  0.0000000000000E+00  0.6336724577856E+00
 0.2612547262694E+00 -0.2971407594619E+00  0.0000000000000E+00  0.6537761994179E+00
 0.2678444307843E+00 -0.3040842663387E+00  0.0000000000000E+00  0.6739435664502E+00
 0.2717312011393E+00 -0.3085518127424E+00  0.0000000000000E+00  0.6943448489910E+00
 0.2727346611411E+00 -0.3103729114598E+00  0.0000000000000E+00  0.7150099323418E+00
 0.2706700508262E+00 -0.3093719286375E+00  0.0000000000000E+00  0.7357603510133E+00
 0.2653795023243E+00 -0.3053979721681E+00  0.0000000000000E+00  0.7561533400373E+00
 0.2567728839167E+00 -0.2983644710579E+00  0.0000000000000E+00  0.7754578230560E+00
 0.2448701840718E+00 -0.2882904863444E+00  0.0000000000000E+00  0.7926771555491E+00
 0.2298309914231E+00 -0.2753296500571E+00  0.0000000000000E+00  0.8066198962165E+00
 0.2426720788572E-01 -0.7061537703115E-01  0.0000000000000E+00  0.4212791166961E+00
 0.5930769160945E-01 -0.1036790597124E+00  0.0000000000000E+00  0.4406581169547E+00
 0.9109863566476E-01 -0.1337097968446E+00  0.0000000000000E+00  0.4631804070529E+00
 0.1199232698138E+00 -0.1609839412496E+00  0.0000000000000E+00  0.4871726096164E+00
 0.1459869083571E+00 -0.1857022841047E+00  0.0000000000000E+00  0.5114437465501E+00
 0.1694350614552E+00 -0.2080075890534E+00  0.0000000000000E+00  0.5352321953679E+00
 0.1903672887759E+00 -0.2279979420932E+00  0.0000000000000E+00  0.5581346557126E+00
 0.2088465905700E+00 -0.2457357369038E+00  0.0000000000000E+00  0.5800278341418E+00
 0.2249048011123E+00 -0.2612528366049E+00  0.0000000000000E+00  0.6009889840395E+00
 0.2385437978407E+00 -0.2745518886601E+00  0.0000000000000E+00  0.6212205068080E+00
 0.2497320103625E+00 -0.2856033920732E+00  0.0000000000000E+00  0.6409848806886E+00
 0.2583987769599E+00 -0.2943407912673E+00  0.0000000000000E+00  0.6605539202981E+00
 0.2644330093963E+00 -0.3006593543892E+00  0.0000000000000E+00  0.6801660178993E+00
 0.2676895924494E+00 -0.3044218589468E+00  0.0000000000000E+00  0.6999788283553E+00
 0.2680030056981E+00 -0.3054708702782E+00  0.0000000000000E+00  0.7200084998524E+00
 0.2652080845039E+00 -0.3036480885243E+00  0.0000000000000E+00  0.7400682205079E+00
 0.2591689904122E+00 -0.2988220723019E+00  0.0000000000000E+00  0.7597197744683E+00
 0.2498158586680E+00 -0.2909237498032E+00  0.0000000000000E+00  0.7782546895889E+00
 0.2371817391808E+00 -0.2799823886060E+00  0.0000000000000E+00  0.7947162183459E+00
 0.2214258724649E+00 -0.2661484316523E+00  0.0000000000000E+00  0.8079628207824E+00
 0.2420021154248E-01 -0.7092018070365E-01  0.0000000000000E+00  0.4352655827757E+00
 0.5863930968208E-01 -0.1034102525733E+00  0.0000000000000E+00  0.4535435164238E+00
 0.9006358734854E-01 -0.1330841470767E+00  0.0000000000000E+00  0.4751293963626E+00
 0.1186828960022E+00 -0.1601471111528E+00  0.0000000000000E+00  0.4982993042555E+00
 0.1446337089050E+00 -0.1847333724900E+00  0.0000000000000E+00  0.5218261006573E+00
 0.1680022374792E+00 -0.2069285565452E+00  0.0000000000000E+00  0.5449234845694E+00
 0.1888409408775E+00 -0.2267856315112E+00  0.0000000000000E+00  0.5671712582989E+00
 0.2071786914426E+00 -0.2443346370467E+00  0.0000000000000E+00  0.5884337535185E+00
 0.2230254126560E+00 -0.2595870542969E+00  0.0000000000000E+00  0.6087783411135E+00
 0.2363712677738E+00 -0.2725350231372E+00  0.0000000000000E+00  0.6283992464493E+00
 0.2471804498781E+00 -0.2831455593036E+00  0.0000000000000E+00  0.6475520444304E+00
 0.2553831972653E+00 -0.2913531610245E+00  0.0000000000000E+00  0.6665015644725E+00
 0.2608734448249E+00 -0.2970575901692E+00  0.0000000000000E+00  0.6854769323701E+00
 0.2635155408725E+00 -0.3001298933427E+00  0.0000000000000E+00  0.7046228340987E+00
 0.2631582489502E+00 -0.3004251653010E+00  0.0000000000000E+00  0.7239417413872E+00
 0.2596547942819E+00 -0.2978013147017E+00  0.0000000000000E+00  0.7432386125284E+00
 0.2528895452875E+00 -0.2921446245806E+00  0.0000000000000E+00  0.7620790319596E+00
 0.2428107895220E+00 -0.2834014982278E+00  0.0000000000000E+00  0.7797744510896E+00
 0.2294627267026E+00 -0.2716095573863E+00  0.0000000000000E+00  0.7954025069454E+00
 0.2130028731572E+00 -0.2569146594961E+00  0.0000000000000E+00  0.8078623460210E+00
 0.2411772051261E-01 -0.7117868970487E-01  0.0000000000000E+00  0.4489171315220E+00
 0.5792134206925E-01 -0.1030628750008E+00  0.0000000000000E+00  0.4661755975073E+00
 0.8895364580683E-01 -0.1323559053117E+00  0.0000000000000E+00  0.4868637840983E+00
 0.1173486530763E+00 -0.1591895705619E+00  0.0000000000000E+00  0.5092098002872E+00
 0.1431719391922E+00 -0.1836295767703E+00  0.0000000000000E+00  0.5319564018080E+00
 0.1664490657827E+00 -0.2057031475662E+00  0.0000000000000E+00  0.5543006164929E+00
 0.1871848051804E+00 -0.2254176190175E+00  0.0000000000000E+00  0.5758139315632E+00
 0.2053739605750E+00 -0.2427707893977E+00  0.0000000000000E+00  0.5963563714387E+00
 0.2210050177248E+00 -0.2577542635390E+00  0.0000000000000E+00  0.6159921133140E+00
 0.2340570405368E+00 -0.2703502971274E+00  0.0000000000000E+00  0.6349118734719E+00
 0.2444905146630E+00 -0.2805229381439E+00  0.0000000000000E+00  0.6533667008502E+00
 0.2522369149050E+00 -0.2882080505619E+00  0.0000000000000E+00  0.6716148734064E+00
 0.2571953442036E+00 -0.2933100180665E+00  0.0000000000000E+00  0.6898756547034E+00
 0.2592394916653E+00 -0.2957080442204E+00  0.0000000000000E+00  0.7082801365957E+00
 0.2582318358218E+00 -0.2952692298956E+00  0.0000000000000E+00  0.7268167768318E+00
 0.2540428576767E+00 -0.2918666327234E+00  0.0000000000000E+00  0.7452819698022E+00
 0.2465755136850E+00 -0.2854027313000E+00  0.0000000000000E+00  0.7632439563163E+00
 0.2357945025132E+00 -0.2758377508303E+00  0.0000000000000E+00  0.7800312007028E+00
 0.2217538374347E+00 -0.2632163834382E+00  0.0000000000000E+00  0.7947500838258E+00
 0.2046088013558E+00 -0.2476793518327E+00  0.0000000000000E+00  0.8063306493652E+00
 0.2402234855748E-01 -0.7139650611522E-01  0.0000000000000E+00  0.4622220629620E+00
 0.5716206344164E-01 -0.1026478534025E+00  0.0000000000000E+00  0.4785457296518E+00
 0.8778246506412E-01 -0.1315410389020E+00  0.0000000000000E+00  0.4983764408747E+00
 0.1159388503405E+00 -0.1581316228040E+00  0.0000000000000E+00  0.5198971162212E+00
 0.1416235742561E+00 -0.1824145825985E+00  0.0000000000000E+00  0.5418269480070E+00
 0.1648001412665E+00 -0.2043574318551E+00  0.0000000000000E+00  0.5633548717911E+00
 0.1854251597908E+00 -0.2239214766753E+00  0.0000000000000E+00  0.5840531709303E+00
 0.2034596320875E+00 -0.2410725997454E+00  0.0000000000000E+00  0.6037860399880E+00
 0.2188713278756E+00 -0.2557832850250E+00  0.0000000000000E+00  0.6226214047242E+00
 0.2316290678010E+00 -0.2680267685426E+00  0.0000000000000E+00  0.6407512258826E+00
 0.2416903617034E+00 -0.2777648484161E+00  0.0000000000000E+00  0.6584243428399E+00
 0.2489883997722E+00 -0.2849352092365E+00  0.0000000000000E+00  0.6758927568090E+00
 0.2534276710319E+00 -0.2894470585640E+00  0.0000000000000E+00  0.6933650644995E+00
 0.2548911079800E+00 -0.2911876697653E+00  0.0000000000000E+00  0.7109578442583E+00
 0.2532543573746E+00 -0.2900356462578E+00  0.0000000000000E+00  0.7286448346576E+00
 0.2484040998263E+00 -0.2858782083618E+00  0.0000000000000E+00  0.7462131556367E+00
 0.2402604537019E+00 -0.2786326884524E+00  0.0000000000000E+00  0.7632322859428E+00
 0.2288031584503E+00 -0.2682718446894E+00  0.0000000000000E+00  0.7790447265145E+00
 0.2140953415794E+00 -0.2548467913374E+00  0.0000000000000E+00  0.7927799655991E+00
 0.1962907668530E+00 -0.2384937283081E+00  0.0000000000000E+00  0.8033887150180E+00
 0.2391681965691E-01 -0.7157943121584E-01  0.0000000000000E+00  0.4751706518975E+00
 0.5637004313442E-01 -0.1021764864941E+00  0.0000000000000E+00  0.4906472744920E+00
 0.8656416624665E-01 -0.1306560473413E+00  0.0000000000000E+00  0.5096620633557E+00
 0.1144723754392E+00 -0.1569942027235E+00  0.0000000000000E+00  0.5303558197797E+00
 0.1400111945953E+00 -0.1811127243027E+00  0.0000000000000E+00  0.5514313215451E+00
 0.1630806075835E+00 -0.2029180634816E+00  0.0000000000000E+00  0.5720786649521E+00
 0.1835887049407E+00 -0.2223252288626E+00  0.0000000000000E+00  0.5918806243599E+00
 0.2014631846677E+00 -0.2392687450355E+00  0.0000000000000E+00  0.6107144557980E+00
 0.2166520896935E+00 -0.2537029985121E+00  0.0000000000000E+00  0.6286589936637E+00
 0.2291151117618E+00 -0.2655933274355E+00  0.0000000000000E+00  0.6459122267772E+00
 0.2388077339842E+00 -0.2749002144025E+00  0.0000000000000E+00  0.6627229832187E+00
 0.2456654971814E+00 -0.2815637757587E+00  0.0000000000000E+00  0.6793370591971E+00
 0.2495985844572E+00 -0.2854983354341E+00  0.0000000000000E+00  0.6959513472278E+00
 0.2504991180392E+00 -0.2865991928909E+00  0.0000000000000E+00  0.7126667002143E+00
 0.2482554003285E+00 -0.2847559827750E+00  0.0000000000000E+00  0.7294410916518E+00
 0.2427693299187E+00 -0.2798691724595E+00  0.0000000000000E+00  0.7460513418196E+00
 0.2339769319068E+00 -0.2718697716567E+00  0.0000000000000E+00  0.7620665760559E+00
 0.2218719669270E+00 -0.2607421253718E+00  0.0000000000000E+00  0.7768404587541E+00
 0.2065267081773E+00 -0.2465438347100E+00  0.0000000000000E+00  0.7895202356218E+00
 0.1880956040144E+00 -0.2294086847435E+00  0.0000000000000E+00  0.7990670370075E+00
 0.2380397087042E-01 -0.7173347271070E-01  0.0000000000000E+00  0.4877551886193E+00
 0.5555415783387E-01 -0.1016604610931E+00  0.0000000000000E+00  0.5024756307344E+00
 0.8531336122109E-01 -0.1297179868814E+00  0.0000000000000E+00  0.5207171899568E+00
 0.1129687146144E+00 -0.1557988956669E+00  0.0000000000000E+00  0.5405819960295E+00
 0.1383579864775E+00 -0.1797489818943E+00  0.0000000000000E+00  0.5607643070581E+00
 0.1613161260171E+00 -0.2014122447403E+00  0.0000000000000E+00  0.5804654190598E+00
 0.1817024962146E+00 -0.2206572791696E+00  0.0000000000000E+00  0.5992889328255E+00
 0.1994122413555E+00 -0.2373880657434E+00  0.0000000000000E+00  0.6171344730985E+00
 0.2143749576518E+00 -0.2515422073492E+00  0.0000000000000E+00  0.6340991221806E+00
 0.2265425995811E+00 -0.2630785412621E+00  0.0000000000000E+00  0.6503916531665E+00
 0.2358698051084E+00 -0.2719573994517E+00  0.0000000000000E+00  0.6662629078931E+00
 0.2422952698931E+00 -0.2781221093904E+00  0.0000000000000E+00  0.6819523071939E+00
 0.2457352833539E+00 -0.2814925082903E+00  0.0000000000000E+00  0.6976437521955E+00
 0.2460911622830E+00 -0.2819719364129E+00  0.0000000000000E+00  0.7134208694877E+00
 0.2432633929156E+00 -0.2794606278644E+00  0.0000000000000E+00  0.7292245012539E+00
 0.2371681736962E+00 -0.2738714417816E+00  0.0000000000000E+00  0.7448198744697E+00
 0.2277563192423E+00 -0.2651480214768E+00  0.0000000000000E+00  0.7597740825433E+00
 0.2150349023274E+00 -0.2532856556072E+00  0.0000000000000E+00  0.7734493451655E+00
 0.1990860923102E+00 -0.2383492028925E+00  0.0000000000000E+00  0.7850061074122E+00
 0.1800685982267E+00 -0.2204735886847E+00  0.0000000000000E+00  0.7934077016662E+00
 0.2368675709507E-01 -0.7186485471584E-01  0.0000000000000E+00  0.4999700240669E+00
 0.5472361004398E-01 -0.1011118742700E+00  0.0000000000000E+00  0.5140282847173E+00
 0.8404518522650E-01 -0.1287445044019E+00  0.0000000000000E+00  0.5315402118004E+00
 0.1114479830321E+00 -0.1545679665394E+00  0.0000000000000E+00  0.5505731972069E+00
 0.1366877517690E+00 -0.1783489874302E+00  0.0000000000000E+00  0.5698217804223E+00
 0.1595328529083E+00 -0.1998676983502E+00  0.0000000000000E+00  0.5885094053669E+00
 0.1797938859176E+00 -0.2189463452172E+00  0.0000000000000E+00  0.6062715340421E+00
 0.1973344779903E+00 -0.2354594668173E+00  0.0000000000000E+00  0.6230398814782E+00
 0.2120673767646E+00 -0.2493295129120E+00  0.0000000000000E+00  0.6389372532757E+00
 0.2239384885263E+00 -0.2605105111899E+00  0.0000000000000E+00  0.6541878761635E+00
 0.2329030342725E+00 -0.2689640514756E+00  0.0000000000000E+00  0.6690464042117E+00
 0.2389038481362E+00 -0.2746376297435E+00  0.0000000000000E+00  0.6837454359015E+00
 0.2418638541961E+00 -0.2774571094413E+00  0.0000000000000E+00  0.6984543332933E+00
 0.2416936397356E+00 -0.2773339577061E+00  0.0000000000000E+00  0.7132377117695E+00
 0.2383054473508E+00 -0.2741786204010E+00  0.0000000000000E+00  0.7280176073070E+00
 0.2316289037915E+00 -0.2679155376249E+00  0.0000000000000E+00  0.7425461197612E+00
 0.2216285878194E+00 -0.2585000301612E+00  0.0000000000000E+00  0.7563866117206E+00
 0.2083244129094E+00 -0.2459379195224E+00  0.0000000000000E+00  0.7689077056697E+00
 0.1918097513506E+00 -0.2303026645246E+00  0.0000000000000E+00  0.7792797726861E+00
 0.1722523587517E+00 -0.2117350966029E+00  0.0000000000000E+00  0.7864622383425E+00
 0.2356825851242E-01 -0.7198003161973E-01  0.0000000000000E+00  0.5118116209122E+00
 0.5388795449306E-01 -0.1005432642199E+00  0.0000000000000E+00  0.5253048680368E+00
 0.8277534135573E-01 -0.1277538834839E+00  0.0000000000000E+00  0.5421313788292E+00
 0.1099309677647E+00 -0.1533244015272E+00  0.0000000000000E+00  0.5603283728614E+00
 0.1350249290813E+00 -0.1769390424749E+00  0.0000000000000E+00  0.5786005668550E+00
 0.1577574265976E+00 -0.1983126488559E+00  0.0000000000000E+00  0.5962055468653E+00
 0.1778904729646E+00 -0.2172214017210E+00  0.0000000000000E+00  0.6128224300725E+00
 0.1952575404416E+00 -0.2335118272814E+00  0.0000000000000E+00  0.6284251504246E+00
 0.2097564751398E+00 -0.2470931990587E+00  0.0000000000000E+00  0.6431697986748E+00
 0.2213291419953E+00 -0.2579167396773E+00  0.0000000000000E+00  0.6573005748670E+00
 0.2299330318103E+00 -0.2659469596054E+00  0.0000000000000E+00  0.6710774649913E+00
 0.2355162876834E+00 -0.2711366652850E+00  0.0000000000000E+00  0.6847254920369E+00
 0.2380091224800E+00 -0.2734183848070E+00  0.0000000000000E+00  0.6983976678063E+00
 0.2373315531385E+00 -0.2727118823291E+00  0.0000000000000E+00  0.7121375346084E+00
 0.2334071987279E+00 -0.2689374764166E+00  0.0000000000000E+00  0.7258463408092E+00
 0.2261782685399E+00 -0.2620304026769E+00  0.0000000000000E+00  0.7392612921467E+00
 0.2156221104050E+00 -0.2519567311951E+00  0.0000000000000E+00  0.7519403441518E+00
 0.2017711226289E+00 -0.2387325218295E+00  0.0000000000000E+00  0.7632570008732E+00
 0.1847315774651E+00 -0.2224415732359E+00  0.0000000000000E+00  0.7723898347105E+00
 0.1646864043424E+00 -0.2032366690127E+00  0.0000000000000E+00  0.7782904673801E+00
 0.2345169165148E-01 -0.7208570707291E-01  0.0000000000000E+00  0.5232786125899E+00
 0.5305713494381E-01 -0.9996765253914E-01  0.0000000000000E+00  0.5363072239146E+00
 0.8152016005773E-01 -0.1267651059442E+00  0.0000000000000E+00  0.5524928005453E+00
 0.1084391861504E+00 -0.1520919651930E+00  0.0000000000000E+00  0.5698477780574E+00
 0.1333946279008E+00 -0.1755461482582E+00  0.0000000000000E+00  0.5870982656972E+00
 0.1560169644972E+00 -0.1967758137504E+00  0.0000000000000E+00  0.6035491844240E+00
 0.1760200612177E+00 -0.2155116316334E+00  0.0000000000000E+00  0.6189359192330E+00
 0.1932089703232E+00 -0.2315739181370E+00  0.0000000000000E+00  0.6332851428795E+00
 0.2074689663195E+00 -0.2448611264700E+00  0.0000000000000E+00  0.6467938204092E+00
 0.2187402167428E+00 -0.2553240096759E+00  0.0000000000000E+00  0.6597304268088E+00
 0.2269844360229E+00 -0.2629319228127E+00  0.0000000000000E+00  0.6723614690315E+00
 0.2321564367570E+00 -0.2676443114269E+00  0.0000000000000E+00  0.6849033114177E+00
 0.2341945079893E+00 -0.2694011392599E+00  0.0000000000000E+00  0.6974905479792E+00
 0.2330283523061E+00 -0.2681307360487E+00  0.0000000000000E+00  0.7101433210858E+00
 0.2285926390937E+00 -0.2637630106824E+00  0.0000000000000E+00  0.7227397966128E+00
 0.2208413185554E+00 -0.2562432149583E+00  0.0000000000000E+00  0.7350002676746E+00
 0.2097634655190E+00 -0.2455471937953E+00  0.0000000000000E+00  0.7464756312076E+00
 0.1954035718354E+00 -0.2317009169141E+00  0.0000000000000E+00  0.7565434681777E+00
 0.1778827443806E+00 -0.2148004917066E+00  0.0000000000000E+00  0.7643905992928E+00
 0.1574066301570E+00 -0.1950180751328E+00  0.0000000000000E+00  0.7689599544175E+00
 0.2334042512109E-01 -0.7218885960058E-01  0.0000000000000E+00  0.5343718728876E+00
 0.5224153429675E-01 -0.9939860107184E-01  0.0000000000000E+00  0.5470394841232E+00
 0.8029667724534E-01 -0.1257979325369E+00  0.0000000000000E+00  0.5626284400385E+00
 0.1069949623922E+00 -0.1508952758040E+00  0.0000000000000E+00  0.5791328560100E+00
 0.1318226771870E+00 -0.1741980499265E+00  0.0000000000000E+00  0.5953130379750E+00
 0.1543390704790E+00 -0.1952864043889E+00  0.0000000000000E+00  0.6105358030492E+00
 0.1742106256475E+00 -0.2138463846285E+00  0.0000000000000E+00  0.6246062921845E+00
 0.1912161383805E+00 -0.2296743276604E+00  0.0000000000000E+00  0.6376148000245E+00
 0.2052310610007E+00 -0.2426606364264E+00  0.0000000000000E+00  0.6498067099202E+00
 0.2161965617454E+00 -0.2527582759211E+00  0.0000000000000E+00  0.6614787786034E+00
 0.2240808026563E+00 -0.2599436319696E+00  0.0000000000000E+00  0.6729048395862E+00
 0.2288468135251E+00 -0.2641843001389E+00  0.0000000000000E+00  0.6842911682876E+00
 0.2304418850586E+00 -0.2654285876983E+00  0.0000000000000E+00  0.6957516388466E+00
 0.2288057753425E+00 -0.2636137749366E+00  0.0000000000000E+00  0.7072804240214E+00
 0.2238839447646E+00 -0.2586791510531E+00  0.0000000000000E+00  0.7187299846502E+00
 0.2156412292774E+00 -0.2505791965207E+00  0.0000000000000E+00  0.7298013823083E+00
 0.2040772563680E+00 -0.2392984281252E+00  0.0000000000000E+00  0.7400367651270E+00
 0.1892480156336E+00 -0.2248721924630E+00  0.0000000000000E+00  0.7488177060246E+00
 0.1712913998430E+00 -0.2074108870795E+00  0.0000000000000E+00  0.7553413714319E+00
 0.1504446554859E+00 -0.1871147690279E+00  0.0000000000000E+00  0.7585452028684E+00
 0.2323800136649E-01 -0.7229677668824E-01  0.0000000000000E+00  0.5450945994567E+00
 0.5145204154863E-01 -0.9885028720713E-01  0.0000000000000E+00  0.5575081583347E+00
 0.7912273522096E-01 -0.1248730071390E+00  0.0000000000000E+00  0.5725440987793E+00
 0.1056215255076E+00 -0.1497599019534E+00  0.0000000000000E+00  0.5881860896851E+00
 0.1303356897381E+00 -0.1729232960505E+00  0.0000000000000E+00  0.6032433510595E+00
 0.1527518522812E+00 -0.1938741362255E+00  0.0000000000000E+00  0.6171607145204E+00
 0.1724902850801E+00 -0.2122551415318E+00  0.0000000000000E+00  0.6298274914036E+00
 0.1893061841407E+00 -0.2278413925559E+00  0.0000000000000E+00  0.6414087994534E+00
 0.2030683873292E+00 -0.2405184631219E+00  0.0000000000000E+00  0.6522058490924E+00
 0.2137221291968E+00 -0.2502445687932E+00  0.0000000000000E+00  0.6625473018645E+00
 0.2212445091376E+00 -0.2570055675933E+00  0.0000000000000E+00  0.6727146838886E+00
 0.2256084973136E+00 -0.2607788844807E+00  0.0000000000000E+00  0.6829023946540E+00
 0.2267714503686E+00 -0.2615222146610E+00  0.0000000000000E+00  0.6932010947089E+00
 0.2246836880181E+00 -0.2591823139351E+00  0.0000000000000E+00  0.7035762161079E+00
 0.2193012946108E+00 -0.2537077431292E+00  0.0000000000000E+00  0.7138515472321E+00
 0.2105991171438E+00 -0.2450614139287E+00  0.0000000000000E+00  0.7237062133805E+00
 0.1985859454301E+00 -0.2332352029394E+00  0.0000000000000E+00  0.7326717467537E+00
 0.1833282684610E+00 -0.2182729018664E+00  0.0000000000000E+00  0.7401342733589E+00
 0.1649824137549E+00 -0.2003008793440E+00  0.0000000000000E+00  0.7453057190542E+00
 0.1438272026003E+00 -0.1795572949041E+00  0.0000000000000E+00  0.7471264556530E+00
 0.2314816615056E-01 -0.7241709975733E-01  0.0000000000000E+00  0.5554524154491E+00
 0.5070014008703E-01 -0.9833760250642E-01  0.0000000000000E+00  0.5677222374512E+00
 0.7801711143672E-01 -0.1240119895953E+00  0.0000000000000E+00  0.5822473877296E+00
 0.1043431320095E+00 -0.1487124838004E+00  0.0000000000000E+00  0.5970108141754E+00
 0.1289611433501E+00 -0.1717513142401E+00  0.0000000000000E+00  0.6108876722614E+00
 0.1512839480453E+00 -0.1925692472869E+00  0.0000000000000E+00  0.6234186908921E+00
 0.1708872796005E+00 -0.2107674825889E+00  0.0000000000000E+00  0.6345927321805E+00
 0.1875059597275E+00 -0.2261031327161E+00  0.0000000000000E+00  0.6446611885485E+00
 0.2010059183807E+00 -0.2384606530008E+00  0.0000000000000E+00  0.6539882582529E+00
 0.2113398979864E+00 -0.2478069110468E+00  0.0000000000000E+00  0.6629376414292E+00
 0.2184966764987E+00 -0.2541399163392E+00  0.0000000000000E+00  0.6717984197669E+00
 0.2224610386110E+00 -0.2574487435482E+00  0.0000000000000E+00  0.6807509698805E+00
 0.2232016031297E+00 -0.2577016478735E+00  0.0000000000000E+00  0.6898601257067E+00
 0.2206799230419E+00 -0.2548555558507E+00  0.0000000000000E+00  0.6990596818888E+00
 0.2148626771503E+00 -0.2488683429187E+00  0.0000000000000E+00  0.7081414307071E+00
 0.2057338452621E+00 -0.2397105662211E+00  0.0000000000000E+00  0.7167593442936E+00
 0.1933096966312E+00 -0.2273798687467E+00  0.0000000000000E+00  0.7244320747795E+00
 0.1776655919297E+00 -0.2119269357124E+00  0.0000000000000E+00  0.7305513342925E+00
 0.1589772020625E+00 -0.1934950647465E+00  0.0000000000000E+00  0.7343506963240E+00
 0.1375755672360E+00 -0.1723707716802E+00  0.0000000000000E+00  0.7347883764066E+00
 0.2307490841930E-01 -0.7255788317071E-01  0.0000000000000E+00  0.5654534951874E+00
 0.4999802323284E-01 -0.9787628091901E-01  0.0000000000000E+00  0.5776933131428E+00
 0.7699968125035E-01 -0.1232377233266E+00  0.0000000000000E+00  0.5917476789893E+00
 0.1031852169067E+00 -0.1477808822080E+00  0.0000000000000E+00  0.6056109798616E+00
 0.1277274791950E+00 -0.1707125028648E+00  0.0000000000000E+00  0.6182441021369E+00
 0.1499645600643E+00 -0.1914025225498E+00  0.0000000000000E+00  0.6293035433858E+00
 0.1694299494835E+00 -0.2094130561117E+00  0.0000000000000E+00  0.6388940840472E+00
 0.1858419743705E+00 -0.2244871858416E+00  0.0000000000000E+00  0.6473649959302E+00
 0.1990679038047E+00 -0.2365124878025E+00  0.0000000000000E+00  0.6551502378240E+00
 0.2090718083289E+00 -0.2454682457870E+00  0.0000000000000E+00  0.6626510661493E+00
 0.2158571110079E+00 -0.2513675081832E+00  0.0000000000000E+00  0.6701634004250E+00
 0.2194223936060E+00 -0.2542129139648E+00  0.0000000000000E+00  0.6778510851798E+00
 0.2197488440369E+00 -0.2539845529210E+00  0.0000000000000E+00  0.6857505050195E+00
 0.2168101206882E+00 -0.2506504226825E+00  0.0000000000000E+00  0.6937609298370E+00
 0.2105836807291E+00 -0.2441779910970E+00  0.0000000000000E+00  0.7016384928553E+00
 0.2010618080088E+00 -0.2345447497347E+00  0.0000000000000E+00  0.7090081089258E+00
 0.1882662120346E+00 -0.2217521726819E+00  0.0000000000000E+00  0.7153725620973E+00
 0.1722786138033E+00 -0.2058554185127E+00  0.0000000000000E+00  0.7201303653942E+00
 0.1532936487490E+00 -0.1870144241146E+00  0.0000000000000E+00  0.7225460982815E+00
 0.1317051513635E+00 -0.1655744694637E+00  0.0000000000000E+00  0.7216184872041E+00
 0.2302251309566E-01 -0.7272767161300E-01  0.0000000000000E+00  0.5751087207923E+00
 0.4935874449696E-01 -0.9748306503763E-01  0.0000000000000E+00  0.5874357130577E+00
 0.7609162181613E-01 -0.1225744453648E+00  0.0000000000000E+00  0.6010560261212E+00
 0.1021745765185E+00 -0.1469943593823E+00  0.0000000000000E+00  0.6139908493200E+00
 0.1266642169337E+00 -0.1698383383117E+00  0.0000000000000E+00  0.6253099323334E+00
 0.1488234927793E+00 -0.1904053211805E+00  0.0000000000000E+00  0.6348076368482E+00
 0.1681467117968E+00 -0.2082215436738E+00  0.0000000000000E+00  0.6427220080873E+00
 0.1843403356894E+00 -0.2230207380814E+00  0.0000000000000E+00  0.6495118204663E+00
 0.1972778020408E+00 -0.2346984077073E+00  0.0000000000000E+00  0.6556870072874E+00
 0.2069387055456E+00 -0.2432503734973E+00  0.0000000000000E+00  0.6616881319264E+00
 0.2133442680348E+00 -0.2487077766776E+00  0.0000000000000E+00  0.6678165525876E+00
 0.2165088927841E+00 -0.2510887579952E+00  0.0000000000000E+00  0.6742166945748E+00
 0.2164277068931E+00 -0.2503865644454E+00  0.0000000000000E+00  0.6808940090676E+00
 0.2130875794120E+00 -0.2465813995406E+00  0.0000000000000E+00  0.6877105919030E+00
 0.2064772618800E+00 -0.2396509633429E+00  0.0000000000000E+00  0.6943830131446E+00
 0.1965966842807E+00 -0.2295791866330E+00  0.0000000000000E+00  0.7005023166698E+00
 0.1834705571234E+00 -0.2163690622412E+00  0.0000000000000E+00  0.7055511862569E+00
 0.1671832702256E+00 -0.2000766215790E+00  0.0000000000000E+00  0.7089359211010E+00
 0.1479461072609E+00 -0.1808762949501E+00  0.0000000000000E+00  0.7099638313941E+00
 0.1262251129163E+00 -0.1591814887504E+00  0.0000000000000E+00  0.7077057143772E+00
 0.2299563219124E-01 -0.7293560211137E-01  0.0000000000000E+00  0.5844318795674E+00
 0.4879641349965E-01 -0.9717592184095E-01  0.0000000000000E+00  0.5969666501474E+00
 0.7531566685406E-01 -0.1220480482485E+00  0.0000000000000E+00  0.6101850364517E+00
 0.1013395872430E+00 -0.1463837943263E+00  0.0000000000000E+00  0.6221546058616E+00
 0.1258020854438E+00 -0.1691614956686E+00  0.0000000000000E+00  0.6320811101715E+00
 0.1478911911936E+00 -0.1896096019711E+00  0.0000000000000E+00  0.6399213301072E+00
 0.1670660303786E+00 -0.2072226170045E+00  0.0000000000000E+00  0.6460648472062E+00
 0.1830266836604E+00 -0.2217304462834E+00  0.0000000000000E+00  0.6510913987226E+00
 0.1956582087131E+00 -0.2330419298593E+00  0.0000000000000E+00  0.6555923457567E+00
 0.2049602886650E+00 -0.2411738931001E+00  0.0000000000000E+00  0.6600483693311E+00
 0.2109752378672E+00 -0.2461787411057E+00  0.0000000000000E+00  0.6647640535889E+00
 0.2137352538043E+00 -0.2480919784447E+00  0.0000000000000E+00  0.6698610834209E+00
 0.2132507441040E+00 -0.2469212772172E+00  0.0000000000000E+00  0.6753117999693E+00
 0.2095231349151E+00 -0.2426604129459E+00  0.0000000000000E+00  0.6809390737104E+00
 0.2025534858614E+00 -0.2352984924025E+00  0.0000000000000E+00  0.6864160430946E+00
 0.1923491324192E+00 -0.2248258836472E+00  0.0000000000000E+00  0.6912939587454E+00
 0.1789349760980E+00 -0.2112444743141E+00  0.0000000000000E+00  0.6950290543626E+00
 0.1623927784063E+00 -0.1946059269321E+00  0.0000000000000E+00  0.6970354051094E+00
 0.1429454273717E+00 -0.1750943279239E+00  0.0000000000000E+00  0.6966773540468E+00
 0.1211380593035E+00 -0.1531984519855E+00  0.0000000000000E+00  0.6931392129360E+00
 0.2299938080686E-01 -0.7319153977884E-01  0.0000000000000E+00  0.5934399154216E+00
 0.4832645203457E-01 -0.9697432371404E-01  0.0000000000000E+00  0.6063063809325E+00
 0.7469642332866E-01 -0.1216864050171E+00  0.0000000000000E+00  0.6191486696587E+00
 0.1007104626900E+00 -0.1459819348953E+00  0.0000000000000E+00  0.6301058438586E+00
 0.1251731646540E+00 -0.1687159775419E+00  0.0000000000000E+00  0.6385515891428E+00
 0.1471987725634E+00 -0.1890479392932E+00  0.0000000000000E+00  0.6446323334660E+00
 0.1662163725313E+00 -0.2064458797573E+00  0.0000000000000E+00  0.6489082686486E+00
 0.1819261116911E+00 -0.2206423464312E+00  0.0000000000000E+00  0.6520911521837E+00
 0.1942307748896E+00 -0.2315655561390E+00  0.0000000000000E+00  0.6548582345597E+00
 0.2031550547330E+00 -0.2392581375464E+00  0.0000000000000E+00  0.6577300011648E+00
 0.2087657448904E+00 -0.2437970002893E+00  0.0000000000000E+00  0.6610110730612E+00
 0.2111146426377E+00 -0.2452366829040E+00  0.0000000000000E+00  0.6647965035135E+00
 0.2102285926500E+00 -0.2436003255231E+00  0.0000000000000E+00  0.6690237841717E+00
 0.2061251015747E+00 -0.2388967838017E+00  0.0000000000000E+00  0.6734756095309E+00
 0.1988192399616E+00 -0.2311284658202E+00  0.0000000000000E+00  0.6777784698158E+00
 0.1883263656710E+00 -0.2202931572200E+00  0.0000000000000E+00  0.6814368031163E+00
 0.1746686512302E+00 -0.2063890336270E+00  0.0000000000000E+00  0.6838706599368E+00
 0.1579177497633E+00 -0.1894559626404E+00  0.0000000000000E+00  0.6844990044602E+00
 0.1382989569961E+00 -0.1696785020004E+00  0.0000000000000E+00  0.6827604675020E+00
 0.1164398348436E+00 -0.1476249248119E+00  0.0000000000000E+00  0.6780069054164E+00
 0.2303946851718E-01 -0.7350626109248E-01  0.0000000000000E+00  0.6021532524633E+00
 0.4796593129497E-01 -0.9689961761750E-01  0.0000000000000E+00  0.6154783588944E+00
 0.7426076370559E-01 -0.1215197707035E+00  0.0000000000000E+00  0.6279619207773E+00
 0.1003195496410E+00 -0.1458236855778E+00  0.0000000000000E+00  0.6378468984582E+00
 0.1248110304034E+00 -0.1685372414803E+00  0.0000000000000E+00  0.6447125398295E+00
 0.1467780416019E+00 -0.1887535190113E+00  0.0000000000000E+00  0.6489249752921E+00
 0.1656261449176E+00 -0.2059207863291E+00  0.0000000000000E+00  0.6512346600829E+00
 0.1810630701198E+00 -0.2197817435836E+00  0.0000000000000E+00  0.6524957168364E+00
 0.1930161108251E+00 -0.2302906663724E+00  0.0000000000000E+00  0.6534744981362E+00
 0.2015402289817E+00 -0.2375210941617E+00  0.0000000000000E+00  0.6547296819419E+00
 0.2067301427842E+00 -0.2415777187120E+00  0.0000000000000E+00  0.6565615926705E+00
 0.2086587744486E+00 -0.2425354840125E+00  0.0000000000000E+00  0.6590339447783E+00
 0.2073701513440E+00 -0.2404335816999E+00  0.0000000000000E+00  0.6620480415704E+00
 0.2028993448004E+00 -0.2352973332791E+00  0.0000000000000E+00  0.6653471088422E+00
 0.1952779523173E+00 -0.2271451464492E+00  0.0000000000000E+00  0.6685095840970E+00
 0.1845315357644E+00 -0.2159849437601E+00  0.0000000000000E+00  0.6709856455556E+00
 0.1706772360095E+00 -0.2018094854187E+00  0.0000000000000E+00  0.6721444708521E+00
 0.1537665387912E+00 -0.1846368822860E+00  0.0000000000000E+00  0.6714006631343E+00
 0.1340111557333E+00 -0.1646360005102E+00  0.0000000000000E+00  0.6682849309609E+00
 0.1121197817449E+00 -0.1424531987888E+00  0.0000000000000E+00  0.6623883806914E+00
 0.2312238188710E-01 -0.7389170755047E-01  0.0000000000000E+00  0.6105962136646E+00
 0.4773402087855E-01 -0.9697551616613E-01  0.0000000000000E+00  0.6245093480040E+00
 0.7403830918074E-01 -0.1215812759667E+00  0.0000000000000E+00  0.6366403141954E+00
 0.1002016579872E+00 -0.1459464241206E+00  0.0000000000000E+00  0.6453779502921E+00
 0.1247508879641E+00 -0.1686623104797E+00  0.0000000000000E+00  0.6505513881618E+00
 0.1466614759846E+00 -0.1887601007564E+00  0.0000000000000E+00  0.6527793686056E+00
 0.1653236005629E+00 -0.2056765300416E+00  0.0000000000000E+00  0.6530224807261E+00
 0.1804612488690E+00 -0.2191730804795E+00  0.0000000000000E+00  0.6522864583924E+00
 0.1920336757145E+00 -0.2292373980399E+00  0.0000000000000E+00  0.6514284426288E+00
 0.2001316779198E+00 -0.2359793098513E+00  0.0000000000000E+00  0.6510422386262E+00
 0.2048813843248E+00 -0.2395345824847E+00  0.0000000000000E+00  0.6514182861415E+00
 0.2063780217349E+00 -0.2399995963199E+00  0.0000000000000E+00  0.6525831166012E+00
 0.2046828884761E+00 -0.2374294824937E+00  0.0000000000000E+00  0.6544005363147E+00
 0.1998496055310E+00 -0.2318667788690E+00  0.0000000000000E+00  0.6565769266868E+00
 0.1919294439657E+00 -0.2233490728457E+00  0.0000000000000E+00  0.6586448958548E+00
 0.1809628529205E+00 -0.2118998391453E+00  0.0000000000000E+00  0.6599947122090E+00
 0.1669619273107E+00 -0.1975075585923E+00  0.0000000000000E+00  0.6599237792890E+00
 0.1499455041122E+00 -0.1801565372877E+00  0.0000000000000E+00  0.6578206665507E+00
 0.1300859928654E+00 -0.1599734929902E+00  0.0000000000000E+00  0.6533202073254E+00
 0.1081629312642E+00 -0.1376716210948E+00  0.0000000000000E+00  0.6463418696821E+00
 0.2325564963856E-01 -0.7436134808495E-01  0.0000000000000E+00  0.6187975714619E+00
 0.4765259805033E-01 -0.9722876324263E-01  0.0000000000000E+00  0.6334294299820E+00
 0.7406202024985E-01 -0.1219075236507E+00  0.0000000000000E+00  0.6451990962924E+00
 0.1003944092612E+00 -0.1463903263260E+00  0.0000000000000E+00  0.6526958314164E+00
 0.1250296705785E+00 -0.1691298374538E+00  0.0000000000000E+00  0.6560506639902E+00
 0.1468821657470E+00 -0.1891019292859E+00  0.0000000000000E+00  0.6561704898535E+00
 0.1653367078516E+00 -0.2057418897818E+00  0.0000000000000E+00  0.6542455817453E+00
 0.1801434342342E+00 -0.2188397784750E+00  0.0000000000000E+00  0.6514409889360E+00
 0.1913016522640E+00 -0.2284245107325E+00  0.0000000000000E+00  0.6487045035268E+00
 0.1989438094583E+00 -0.2346477839754E+00  0.0000000000000E+00  0.6466604063788E+00
 0.2032309478492E+00 -0.2376797189092E+00  0.0000000000000E+00  0.6455823712158E+00
 0.2042814489851E+00 -0.2376388319925E+00  0.0000000000000E+00  0.6454526104386E+00
 0.2021732127006E+00 -0.2345953944103E+00  0.0000000000000E+00  0.6460953991781E+00
 0.1969782150132E+00 -0.2286085448859E+00  0.0000000000000E+00  0.6471840237505E+00
 0.1887702075134E+00 -0.2197375207264E+00  0.0000000000000E+00  0.6482129714003E+00
 0.1776124555023E+00 -0.2080299087281E+00  0.0000000000000E+00  0.6485141020306E+00
 0.1635175479104E+00 -0.1934776942350E+00  0.0000000000000E+00  0.6472871916587E+00
 0.1464588784381E+00 -0.1760199906501E+00  0.0000000000000E+00  0.6438507805770E+00
 0.1265300806236E+00 -0.1557005401369E+00  0.0000000000000E+00  0.6379371579804E+00
 0.1045563722111E+00 -0.1332708151927E+00  0.0000000000000E+00  0.6299037130270E+00
 0.2344823715642E-01 -0.7493072814828E-01  0.0000000000000E+00  0.6267912535264E+00
 0.4774708742497E-01 -0.9769004789144E-01  0.0000000000000E+00  0.6422717413377E+00
 0.7436889670559E-01 -0.1225392944288E+00  0.0000000000000E+00  0.6536519127038E+00
 0.1009385561684E+00 -0.1471986375548E+00  0.0000000000000E+00  0.6597924282256E+00
 0.1256860614072E+00 -0.1699800891767E+00  0.0000000000000E+00  0.6611866620117E+00
 0.1474736867854E+00 -0.1898135746943E+00  0.0000000000000E+00  0.6590671801536E+00
 0.1656929714501E+00 -0.2061450309062E+00  0.0000000000000E+00  0.6548724995006E+00
 0.1801313316244E+00 -0.2188040420511E+00  0.0000000000000E+00  0.6499326831864E+00
 0.1908368047456E+00 -0.2278692344086E+00  0.0000000000000E+00  0.6452839204570E+00
 0.1979894699335E+00 -0.2335398648523E+00  0.0000000000000E+00  0.6415745617652E+00
 0.2017887534496E+00 -0.2360236050149E+00  0.0000000000000E+00  0.6390533970981E+00
 0.2023767066173E+00 -0.2354614935417E+00  0.0000000000000E+00  0.6376498921748E+00
 0.1998466704579E+00 -0.2319376561088E+00  0.0000000000000E+00  0.6371459718680E+00
 0.1942872354775E+00 -0.2255260194733E+00  0.0000000000000E+00  0.6371836588576E+00
 0.1857947669387E+00 -0.2163062105432E+00  0.0000000000000E+00  0.6372318592863E+00
 0.1744654483079E+00 -0.2043600075503E+00  0.0000000000000E+00  0.6365821727440E+00
 0.1603288413758E+00 -0.1897025886438E+00  0.0000000000000E+00  0.6343165763122E+00
 0.1433069491482E+00 -0.1722269645532E+00  0.0000000000000E+00  0.6296039639740E+00
 0.1233569874685E+00 -0.1518340741641E+00  0.0000000000000E+00  0.6222188170798E+00
 0.1012925623003E+00 -0.1292492774885E+00  0.0000000000000E+00  0.6130941970756E+00
 0.2371119266536E-01 -0.7561833807468E-01  0.0000000000000E+00  0.6346173202619E+00
 0.4804766295420E-01 -0.9839535286325E-01  0.0000000000000E+00  0.6510715335037E+00
 0.7500074298345E-01 -0.1235222399797E+00  0.0000000000000E+00  0.6620086002965E+00
 0.1018781787049E+00 -0.1484178192023E+00  0.0000000000000E+00  0.6666526455440E+00
 0.1267603907448E+00 -0.1712547643039E+00  0.0000000000000E+00  0.6659279821320E+00
 0.1484699075547E+00 -0.1909297280152E+00  0.0000000000000E+00  0.6614311402859E+00
 0.1664192075375E+00 -0.2069132440407E+00  0.0000000000000E+00  0.6548656923043E+00
 0.1804453404046E+00 -0.2190866140874E+00  0.0000000000000E+00  0.6477302216288E+00
 0.1906543136987E+00 -0.2275870914834E+00  0.0000000000000E+00  0.6411444699842E+00
 0.1972798526706E+00 -0.2326671543588E+00  0.0000000000000E+00  0.6357725172638E+00
 0.2005630916313E+00 -0.2345750143380E+00  0.0000000000000E+00  0.6318289553397E+00
 0.2006699126183E+00 -0.2334742198297E+00  0.0000000000000E+00  0.6291810514251E+00
 0.1977075810219E+00 -0.2294612730483E+00  0.0000000000000E+00  0.6275651138638E+00
 0.1917793587069E+00 -0.2226227177215E+00  0.0000000000000E+00  0.6265917545209E+00
 0.1829991252181E+00 -0.2130539062509E+00  0.0000000000000E+00  0.6257083422890E+00
 0.1715009069726E+00 -0.2008694732760E+00  0.0000000000000E+00  0.6242111466904E+00
 0.1573638288691E+00 -0.1861461569428E+00  0.0000000000000E+00  0.6210850115197E+00
 0.1404793382086E+00 -0.1687621866277E+00  0.0000000000000E+00  0.6152304137281E+00
 0.1205922458522E+00 -0.1484042380270E+00  0.0000000000000E+00  0.6062890087827E+00
 0.9837878146988E-01 -0.1256251716519E+00  0.0000000000000E+00  0.5959105217850E+00
 0.2405873687490E-01 -0.7644738291483E-01  0.0000000000000E+00  0.6423225015801E+00
 0.4859092732349E-01 -0.9938757745696E-01  0.0000000000000E+00  0.6598635302418E+00
 0.7600482321481E-01 -0.1249076276839E+00  0.0000000000000E+00  0.6702714558781E+00
 0.1032604907612E+00 -0.1500970074314E+00  0.0000000000000E+00  0.6732519575150E+00
 0.1282943846583E+00 -0.1729968595583E+00  0.0000000000000E+00  0.6702344399875E+00
 0.1499047847154E+00 -0.1924849072439E+00  0.0000000000000E+00  0.6632156749002E+00
 0.1675412272919E+00 -0.2080726167374E+00  0.0000000000000E+00  0.6541807674238E+00
 0.1811042705196E+00 -0.2197064648284E+00  0.0000000000000E+00  0.6447971213717E+00
 0.1907675648741E+00 -0.2275916682148E+00  0.0000000000000E+00  0.6362602847154E+00
 0.1968244063439E+00 -0.2320394228671E+00  0.0000000000000E+00  0.6292394289031E+00
 0.1995606420092E+00 -0.2333410352404E+00  0.0000000000000E+00  0.6239044590274E+00
 0.1991655309516E+00 -0.2316819466416E+00  0.0000000000000E+00  0.6200501692602E+00
 0.1957587537649E+00 -0.2271694344821E+00  0.0000000000000E+00  0.6173648596344E+00
 0.1894563712630E+00 -0.2199012941454E+00  0.0000000000000E+00  0.6154260068203E+00
 0.1803854409101E+00 -0.2099832390403E+00  0.0000000000000E+00  0.6136560152672E+00
 0.1687013198164E+00 -0.1975500629265E+00  0.0000000000000E+00  0.6113671181315E+00
 0.1545645901926E+00 -0.1827408195083E+00  0.0000000000000E+00  0.6076111234663E+00
 0.1379339110304E+00 -0.1655703433808E+00  0.0000000000000E+00  0.6009364325302E+00
 0.1182779104566E+00 -0.1454545264718E+00  0.0000000000000E+00  0.5903849617517E+00
 0.9586640168852E-01 -0.1224752015977E+00  0.0000000000000E+00  0.5783281701357E+00
 0.2451089412826E-01 -0.7744839294244E-01  0.0000000000000E+00  0.6499637765230E+00
 0.4942285981002E-01 -0.1007213262022E+00  0.0000000000000E+00  0.6686734257343E+00
 0.7743305603403E-01 -0.1267492791577E+00  0.0000000000000E+00  0.6784281998112E+00
 0.1051349977325E+00 -0.1522882086513E+00  0.0000000000000E+00  0.6795569882856E+00
 0.1303312051533E+00 -0.1752502453750E+00  0.0000000000000E+00  0.6740548793847E+00
 0.1518119727602E+00 -0.1945131760947E+00  0.0000000000000E+00  0.6643647437286E+00
 0.1690835182642E+00 -0.2096476609193E+00  0.0000000000000E+00  0.6527653964817E+00
 0.1821249184329E+00 -0.2206802919889E+00  0.0000000000000E+00  0.6410913371718E+00
 0.1911878886037E+00 -0.2278943819160E+00  0.0000000000000E+00  0.6306018589299E+00
 0.1966307424491E+00 -0.2316644842501E+00  0.0000000000000E+00  0.6219578306440E+00
 0.1987865215569E+00 -0.2323271518476E+00  0.0000000000000E+00  0.6152731884307E+00
 0.1978665813809E+00 -0.2300881047247E+00  0.0000000000000E+00  0.6102587792257E+00
 0.1940009014314E+00 -0.2250632626444E+00  0.0000000000000E+00  0.6065547505188E+00
 0.1873187230825E+00 -0.2173620356239E+00  0.0000000000000E+00  0.6037056647251E+00
 0.1779548573726E+00 -0.2070973009413E+00  0.0000000000000E+00  0.6010976285883E+00
 0.1660785737603E+00 -0.1944105990450E+00  0.0000000000000E+00  0.5980493673450E+00
 0.1518624445539E+00 -0.1794598567178E+00  0.0000000000000E+00  0.5936953121482E+00
 0.1355250124454E+00 -0.1624232280079E+00  0.0000000000000E+00  0.5869233257490E+00
 0.1164628254406E+00 -0.1430394330310E+00  0.0000000000000E+00  0.5751214566505E+00
 0.9393926903893E-01 -0.1200442890774E+00  0.0000000000000E+00  0.5603110945459E+00
 0.2509905458642E-01 -0.7868486674313E-01  0.0000000000000E+00  0.6575643265992E+00
 0.5059462515607E-01 -0.1024428700745E+00  0.0000000000000E+00  0.6774772909368E+00
 0.7933692025765E-01 -0.1291060471915E+00  0.0000000000000E+00  0.6864657656712E+00
 0.1075550742212E+00 -0.1550450762903E+00  0.0000000000000E+00  0.6855186305550E+00
 0.1329142999051E+00 -0.1780592805147E+00  0.0000000000000E+00  0.6773273957271E+00
 0.1542248445068E+00 -0.1970479536473E+00  0.0000000000000E+00  0.6648115029830E+00
 0.1710688573097E+00 -0.2116609474883E+00  0.0000000000000E+00  0.6505580318193E+00
 0.1835214225988E+00 -0.2220218752882E+00  0.0000000000000E+00  0.6365642042942E+00
 0.1919240293265E+00 -0.2285036158917E+00  0.0000000000000E+00  0.6241370401866E+00
 0.1967047843639E+00 -0.2315488457171E+00  0.0000000000000E+00  0.6139077972973E+00
 0.1982442658994E+00 -0.2315368380383E+00  0.0000000000000E+00  0.6059256504164E+00
 0.1967747671830E+00 -0.2286948427505E+00  0.0000000000000E+00  0.5998068956643E+00
 0.1924334569306E+00 -0.2231428202003E+00  0.0000000000000E+00  0.5951393709462E+00
 0.1853626003724E+00 -0.2150009696837E+00  0.0000000000000E+00  0.5914470904932E+00
 0.1757091617516E+00 -0.2043960219393E+00  0.0000000000000E+00  0.5880653312863E+00
 0.1636368790614E+00 -0.1914628359606E+00  0.0000000000000E+00  0.5842902003681E+00
 0.1493272154895E+00 -0.1763456094701E+00  0.0000000000000E+00  0.5792881853287E+00
 0.1329296246368E+00 -0.1592140236097E+00  0.0000000000000E+00  0.5722969791230E+00
 0.1148815620014E+00 -0.1403292276332E+00  0.0000000000000E+00  0.5621629769755E+00
 0.9329541691593E-01 -0.1195125019606E+00  0.0000000000000E+00  0.5430359637236E+00
-0.3064882112449E-01  0.4519605674487E-01  0.0000000000000E+00 -0.1264159040445E-01
-0.5161423183672E-01  0.5920989200818E-01  0.0000000000000E+00 -0.1859270758690E-01
-0.3845088232721E-01  0.4358400744824E-01  0.0000000000000E+00 -0.7308061517523E-02
-0.2171519320492E-01  0.2441967724832E-01  0.0000000000000E+00  0.2983671341358E-02
-0.4904153340519E-02  0.5334629281169E-02  0.0000000000000E+00  0.1036828811753E-01
 0.1059097286145E-01 -0.1220511443208E-01  0.0000000000000E+00  0.1496556622355E-01
 0.2413365949671E-01 -0.2750831516449E-01  0.0000000000000E+00  0.1682767063868E-01
 0.3531640161216E-01 -0.4014891924226E-01  0.0000000000000E+00  0.1603637629308E-01
 0.4381379272446E-01 -0.4976921829562E-01  0.0000000000000E+00  0.1277355075528E-01
 0.4931440592720E-01 -0.5603578045530E-01  0.0000000000000E+00  0.7426602519209E-02
 0.5129233277422E-01 -0.5842928704622E-01  0.0000000000000E+00  0.5629253863415E-03
 0.4896184858542E-01 -0.5589169324667E-01  0.0000000000000E+00 -0.9028619028893E-02
 0.4413517632843E-01 -0.5007471232504E-01  0.0000000000000E+00 -0.2059802074271E-01
 0.3931999361720E-01 -0.4440010875464E-01  0.0000000000000E+00 -0.3477545138226E-01
 0.3789708960619E-01 -0.4286187679030E-01  0.0000000000000E+00 -0.5351048150932E-01
 0.4847659372852E-01 -0.5840230573642E-01  0.0000000000000E+00 -0.4919614722599E-01
 0.5230678263241E-01 -0.7798485980371E-01  0.0000000000000E+00 -0.1929171898359E-01
 0.3038745886438E-01 -0.8003268902675E-01  0.0000000000000E+00  0.3681716041962E-02
 0.2130112781010E-02 -0.7543230888807E-01  0.0000000000000E+00  0.1395123996352E-01
-0.1993534992889E-01 -0.7254589171687E-01  0.0000000000000E+00  0.1701386167784E-01
-0.2132885550173E-01  0.2923901361838E-01  0.0000000000000E+00 -0.9688801893445E-02
-0.3651817595654E-01  0.4231007105497E-01  0.0000000000000E+00  0.1042412999906E-01
-0.2692343695092E-01  0.3016637529618E-01  0.0000000000000E+00  0.2160326554060E-01
-0.1198837681138E-01  0.1315935665930E-01  0.0000000000000E+00  0.3092378121382E-01
 0.3652941704201E-02 -0.4517182139791E-02  0.0000000000000E+00  0.3660288419749E-01
 0.1865799060694E-01 -0.2140451252992E-01  0.0000000000000E+00  0.3879322862954E-01
 0.3231061652505E-01 -0.3673551106958E-01  0.0000000000000E+00  0.3785142465348E-01
 0.4416763551096E-01 -0.5003217253495E-01  0.0000000000000E+00  0.3391888457393E-01
 0.5390291952034E-01 -0.6094538160876E-01  0.0000000000000E+00  0.2709002935771E-01
 0.6121602775865E-01 -0.6916409364784E-01  0.0000000000000E+00  0.1756809019199E-01
 0.6574657082108E-01 -0.7428236722266E-01  0.0000000000000E+00  0.5283185820097E-02
 0.6728297781495E-01 -0.7595375729831E-01  0.0000000000000E+00 -0.1121736011903E-01
 0.6774573909542E-01 -0.7620646063416E-01  0.0000000000000E+00 -0.3066515458439E-01
 0.7012704338320E-01 -0.7859877238078E-01  0.0000000000000E+00 -0.5218765669479E-01
 0.7864294399051E-01 -0.8884093640525E-01  0.0000000000000E+00 -0.7167444230158E-01
 0.9891110407442E-01 -0.1153864173134E+00  0.0000000000000E+00 -0.5810992782790E-01
 0.1110122747155E+00 -0.1410954188662E+00  0.0000000000000E+00 -0.7653879502538E-02
 0.9275241581433E-01 -0.1422657068026E+00  0.0000000000000E+00  0.4074114970284E-01
 0.5932640160741E-01 -0.1295208712714E+00  0.0000000000000E+00  0.6711218368616E-01
 0.2984251841956E-01 -0.1187812542510E+00  0.0000000000000E+00  0.7686860297903E-01
-0.1344497244742E-01  0.1713639911390E-01  0.0000000000000E+00 -0.1118849805471E-01
-0.2216402461916E-01  0.2501323393182E-01  0.0000000000000E+00  0.2877889830910E-01
-0.1452893315640E-01  0.1592630551876E-01  0.0000000000000E+00  0.4711879097665E-01
-0.1534615827850E-02  0.1093739174115E-02  0.0000000000000E+00  0.5668245784895E-01
 0.1305003280784E-01 -0.1527557278686E-01  0.0000000000000E+00  0.6149631423136E-01
 0.2757989199898E-01 -0.3152409209708E-01  0.0000000000000E+00  0.6215325126740E-01
 0.4131964752422E-01 -0.4684776308381E-01  0.0000000000000E+00  0.5920838224212E-01
 0.5381411784827E-01 -0.6075551517688E-01  0.0000000000000E+00  0.5293811809741E-01
 0.6474970692256E-01 -0.7291145153225E-01  0.0000000000000E+00  0.4344357500422E-01
 0.7389025420158E-01 -0.8306613559711E-01  0.0000000000000E+00  0.3077568308854E-01
 0.8107424685918E-01 -0.9103288189112E-01  0.0000000000000E+00  0.1468891489137E-01
 0.8639487594985E-01 -0.9685126780514E-01  0.0000000000000E+00 -0.5889803065217E-02
 0.9172210805849E-01 -0.1025591863403E+00  0.0000000000000E+00 -0.2955131725007E-01
 0.1001734957836E+00 -0.1119722913371E+00  0.0000000000000E+00 -0.5307331336257E-01
 0.1153406708924E+00 -0.1299471188312E+00  0.0000000000000E+00 -0.6835141656059E-01
 0.1399492580547E+00 -0.1611480937443E+00  0.0000000000000E+00 -0.4806547653458E-01
 0.1558024337132E+00 -0.1890750133148E+00  0.0000000000000E+00  0.1054151952389E-01
 0.1420511416534E+00 -0.1918987847046E+00  0.0000000000000E+00  0.7114628189379E-01
 0.1092883815946E+00 -0.1773198408002E+00  0.0000000000000E+00  0.1101355807158E+00
 0.7576988475809E-01 -0.1610679943967E+00  0.0000000000000E+00  0.1292740393020E+00
-0.7149137192229E-02  0.7276577566825E-02  0.0000000000000E+00 -0.1156942015357E-01
-0.9636275963882E-02  0.9707636925505E-02  0.0000000000000E+00  0.4174706260929E-01
-0.2220649456905E-02  0.1495050810076E-02  0.0000000000000E+00  0.6775318719844E-01
 0.9454882239149E-02 -0.1155339698658E-01  0.0000000000000E+00  0.7996838114314E-01
 0.2307147057778E-01 -0.2672339386428E-01  0.0000000000000E+00  0.8491232653190E-01
 0.3717787049946E-01 -0.4237710624673E-01  0.0000000000000E+00  0.8485317299413E-01
 0.5099583700214E-01 -0.5767826603241E-01  0.0000000000000E+00  0.8069002542657E-01
 0.6408461035747E-01 -0.7214387191076E-01  0.0000000000000E+00  0.7287701760578E-01
 0.7616070375539E-01 -0.8546808264420E-01  0.0000000000000E+00  0.6158559016577E-01
 0.8706482428343E-01 -0.9748326144806E-01  0.0000000000000E+00  0.4685745880560E-01
 0.9677977797094E-01 -0.1081701612389E+00  0.0000000000000E+00  0.2852898860503E-01
 0.1055711917052E+00 -0.1177833015098E+00  0.0000000000000E+00  0.6016817984212E-02
 0.1150874383774E+00 -0.1282149419895E+00  0.0000000000000E+00 -0.1888178426912E-01
 0.1281579232594E+00 -0.1429613971235E+00  0.0000000000000E+00 -0.4128475311885E-01
 0.1475245280858E+00 -0.1657765065244E+00  0.0000000000000E+00 -0.5153618144598E-01
 0.1739201926589E+00 -0.1987479652332E+00  0.0000000000000E+00 -0.2696612818033E-01
 0.1915208799876E+00 -0.2272092641804E+00  0.0000000000000E+00  0.3412878052205E-01
 0.1818913452202E+00 -0.2320716875775E+00  0.0000000000000E+00  0.1002140626690E+00
 0.1518003143507E+00 -0.2180644528572E+00  0.0000000000000E+00  0.1476565834075E+00
 0.1169311857825E+00 -0.1989416579253E+00  0.0000000000000E+00  0.1747988948918E+00
-0.2064394581991E-02 -0.9735330379159E-03  0.0000000000000E+00 -0.1025721326985E-01
 0.1136917298916E-02 -0.3707379301127E-02  0.0000000000000E+00  0.5190299474506E-01
 0.9414559668143E-02 -0.1230476816965E-01  0.0000000000000E+00  0.8458462493305E-01
 0.2055615855001E-01 -0.2441240202288E-01  0.0000000000000E+00  0.1004337527623E+00
 0.3349956111339E-01 -0.3863210787584E-01  0.0000000000000E+00  0.1066841459858E+00
 0.4726187909735E-01 -0.5376952657335E-01  0.0000000000000E+00  0.1067291556636E+00
 0.6116712667969E-01 -0.6905012016720E-01  0.0000000000000E+00  0.1021018519039E+00
 0.7480623694750E-01 -0.8402034391728E-01  0.0000000000000E+00  0.9351032420926E-01
 0.8793850239293E-01 -0.9841644335936E-01  0.0000000000000E+00  0.8126604151725E-01
 0.1004695989140E+00 -0.1121423975392E+00  0.0000000000000E+00  0.6551370840280E-01
 0.1124737108038E+00 -0.1252865227109E+00  0.0000000000000E+00  0.4629123493890E-01
 0.1242754466169E+00 -0.1381977221176E+00  0.0000000000000E+00  0.2354615905369E-01
 0.1371944705414E+00 -0.1524674240243E+00  0.0000000000000E+00 -0.5866880112008E-03
 0.1536251907702E+00 -0.1710850389330E+00  0.0000000000000E+00 -0.2034703564765E-01
 0.1755288016939E+00 -0.1968006349708E+00  0.0000000000000E+00 -0.2584530389451E-01
 0.2023539198636E+00 -0.2300434150386E+00  0.0000000000000E+00  0.1261869513322E-02
 0.2206383700636E+00 -0.2581799548774E+00  0.0000000000000E+00  0.6195018115458E-01
 0.2144726332969E+00 -0.2648524634376E+00  0.0000000000000E+00  0.1296295713998E+00
 0.1877298812642E+00 -0.2524424254255E+00  0.0000000000000E+00  0.1821182473420E+00
 0.1532356327024E+00 -0.2322638015256E+00  0.0000000000000E+00  0.2152872213462E+00
 0.2077694454134E-02 -0.8009281506586E-02  0.0000000000000E+00 -0.7163400124718E-02
 0.1036449249420E-01 -0.1544757381348E-01  0.0000000000000E+00  0.6057691693149E-01
 0.2014845515806E-01 -0.2519108105517E-01  0.0000000000000E+00  0.9867721667519E-01
 0.3141308894796E-01 -0.3707643045309E-01  0.0000000000000E+00  0.1183516226057E+00
 0.4406540886457E-01 -0.5073660886626E-01  0.0000000000000E+00  0.1266905325908E+00
 0.5763426787089E-01 -0.6549730948090E-01  0.0000000000000E+00  0.1276381773786E+00
 0.7165606348248E-01 -0.8078126096006E-01  0.0000000000000E+00  0.1232647051144E+00
 0.8580444604178E-01 -0.9620627861518E-01  0.0000000000000E+00  0.1146175527308E+00
 0.9988886007987E-01 -0.1115587013217E+00  0.0000000000000E+00  0.1022120150782E+00
 0.1138641742454E+00 -0.1267963911880E+00  0.0000000000000E+00  0.8636689852018E-01
 0.1278470823692E+00 -0.1420621561244E+00  0.0000000000000E+00  0.6737604025708E-01
 0.1421401003182E+00 -0.1577041395085E+00  0.0000000000000E+00  0.4565793612190E-01
 0.1577080813826E+00 -0.1749589643721E+00  0.0000000000000E+00  0.2354432374771E-01
 0.1764890538296E+00 -0.1962752685546E+00  0.0000000000000E+00  0.7104881827644E-02
 0.1997978017643E+00 -0.2235824125001E+00  0.0000000000000E+00  0.5780303095578E-02
 0.2262932610519E+00 -0.2562646433574E+00  0.0000000000000E+00  0.3423997092228E-01
 0.2446411437519E+00 -0.2835961360128E+00  0.0000000000000E+00  0.9296841980234E-01
 0.2412890088134E+00 -0.2917162086021E+00  0.0000000000000E+00  0.1598850767894E+00
 0.2180029344956E+00 -0.2812770438548E+00  0.0000000000000E+00  0.2148677027927E+00
 0.1849391561232E+00 -0.2612367599746E+00  0.0000000000000E+00  0.2521812885725E+00
 0.5479443463967E-02 -0.1409658574748E-01  0.0000000000000E+00 -0.2387296155375E-02
 0.1826109015679E-01 -0.2574263176723E-01  0.0000000000000E+00  0.6855348759288E-01
 0.2990967289661E-01 -0.3706678657763E-01  0.0000000000000E+00  0.1108583401369E+00
 0.4179049502130E-01 -0.4927957654438E-01  0.0000000000000E+00  0.1341576031994E+00
 0.5451935425488E-01 -0.6277007819667E-01  0.0000000000000E+00  0.1450028857958E+00
 0.6808656230170E-01 -0.7734710393517E-01  0.0000000000000E+00  0.1474842073745E+00
 0.8228248212881E-01 -0.9268607764249E-01  0.0000000000000E+00  0.1440214073770E+00
 0.9690554130365E-01 -0.1085234066622E+00  0.0000000000000E+00  0.1359846629171E+00
 0.1118282166581E+00 -0.1247063288923E+00  0.0000000000000E+00  0.1241346918998E+00
 0.1270404500322E+00 -0.1412305746692E+00  0.0000000000000E+00  0.1090032772137E+00
 0.1426643874529E+00 -0.1582510057526E+00  0.0000000000000E+00  0.9114425585856E-01
 0.1589338200043E+00 -0.1760575489538E+00  0.0000000000000E+00  0.7134459481570E-01
 0.1764810626700E+00 -0.1955378403647E+00  0.0000000000000E+00  0.5199728078147E-01
 0.1968199703353E+00 -0.2186358729492E+00  0.0000000000000E+00  0.3910947570327E-01
 0.2207510177839E+00 -0.2466319301055E+00  0.0000000000000E+00  0.4134344563087E-01
 0.2464811501982E+00 -0.2782775108576E+00  0.0000000000000E+00  0.7035319213910E-01
 0.2645176545780E+00 -0.3045332639834E+00  0.0000000000000E+00  0.1262975984381E+00
 0.2634058067281E+00 -0.3137345436439E+00  0.0000000000000E+00  0.1910096802138E+00
 0.2434288156586E+00 -0.3053271455754E+00  0.0000000000000E+00  0.2466220386463E+00
 0.2124081204503E+00 -0.2861742419342E+00  0.0000000000000E+00  0.2864856849369E+00
 0.8291997141811E-02 -0.1942510206046E-01  0.0000000000000E+00  0.3922861642940E-02
 0.2501720736611E-01 -0.3479415320235E-01  0.0000000000000E+00  0.7631830835054E-01
 0.3870063083801E-01 -0.4792361907301E-01  0.0000000000000E+00  0.1217491576693E+00
 0.5154323663833E-01 -0.6085570178566E-01  0.0000000000000E+00  0.1482920826289E+00
 0.6465983707545E-01 -0.7451421023821E-01  0.0000000000000E+00  0.1617981256026E+00
 0.7842106332623E-01 -0.8911144664399E-01  0.0000000000000E+00  0.1662525353806E+00
 0.9286721842964E-01 -0.1045795298594E+00  0.0000000000000E+00  0.1642483662811E+00
 0.1079406216754E+00 -0.1207975092642E+00  0.0000000000000E+00  0.1574106417481E+00
 0.1235869029819E+00 -0.1376842924192E+00  0.0000000000000E+00  0.1467429227490E+00
 0.1398226001682E+00 -0.1552626279906E+00  0.0000000000000E+00  0.1329985020258E+00
 0.1567521696936E+00 -0.1736717150687E+00  0.0000000000000E+00  0.1169649982952E+00
 0.1745208492581E+00 -0.1931156139359E+00  0.0000000000000E+00  0.9969002363414E-01
 0.1934737741530E+00 -0.2141704166944E+00  0.0000000000000E+00  0.8352476479750E-01
 0.2147519418799E+00 -0.2383355282569E+00  0.0000000000000E+00  0.7418381298723E-01
 0.2387562668103E+00 -0.2663874813091E+00  0.0000000000000E+00  0.7941316609049E-01
 0.2634709608110E+00 -0.2967233898642E+00  0.0000000000000E+00  0.1084324644251E+00
 0.2809667517029E+00 -0.3217551353305E+00  0.0000000000000E+00  0.1611893343760E+00
 0.2816118291244E+00 -0.3317117695171E+00  0.0000000000000E+00  0.2228322620761E+00
 0.2646831554646E+00 -0.3252413219446E+00  0.0000000000000E+00  0.2777353717343E+00
 0.2360302956645E+00 -0.3074246860513E+00  0.0000000000000E+00  0.3188517103250E+00
 0.1063003313073E-01 -0.2413462890841E-01  0.0000000000000E+00  0.1161061312536E-01
 0.3079488716762E-01 -0.4277250771857E-01  0.0000000000000E+00  0.8417998982474E-01
 0.4655806616174E-01 -0.5779328634999E-01  0.0000000000000E+00  0.1318122752535E+00
 0.6058748334700E-01 -0.7170731299584E-01  0.0000000000000E+00  0.1611477833075E+00
 0.7433422030005E-01 -0.8580195140206E-01  0.0000000000000E+00  0.1772945864703E+00
 0.8846491510831E-01 -0.1006067399899E+00  0.0000000000000E+00  0.1839905105819E+00
 0.1032415919598E+00 -0.1162855063747E+00  0.0000000000000E+00  0.1838654463451E+00
 0.1187497240330E+00 -0.1328627801811E+00  0.0000000000000E+00  0.1787165465182E+00
 0.1350112344919E+00 -0.1503333253979E+00  0.0000000000000E+00  0.1697561571146E+00
 0.1520646122367E+00 -0.1687407851864E+00  0.0000000000000E+00  0.1579398285449E+00
 0.1699856797382E+00 -0.1881942468512E+00  0.0000000000000E+00  0.1442464385247E+00
 0.1888292838679E+00 -0.2088050575501E+00  0.0000000000000E+00  0.1298883683194E+00
 0.2087064167349E+00 -0.2308877546527E+00  0.0000000000000E+00  0.1171052723210E+00
 0.2304408763310E+00 -0.2555625934669E+00  0.0000000000000E+00  0.1111841583591E+00
 0.2541299302556E+00 -0.2832214788957E+00  0.0000000000000E+00  0.1189230039385E+00
 0.2776896618822E+00 -0.3120957233231E+00  0.0000000000000E+00  0.1475929764921E+00
 0.2945058228480E+00 -0.3358299575369E+00  0.0000000000000E+00  0.1970107058652E+00
 0.2965089333999E+00 -0.3462672372026E+00  0.0000000000000E+00  0.2550960675719E+00
 0.2823260141640E+00 -0.3415659561221E+00  0.0000000000000E+00  0.3083442857518E+00
 0.2561798438555E+00 -0.3253336386111E+00  0.0000000000000E+00  0.3496810018643E+00
 0.1258169814182E-01 -0.2833072154957E-01  0.0000000000000E+00  0.2052707211218E-01
 0.3572991546245E-01 -0.4981963785768E-01  0.0000000000000E+00  0.9233515839618E-01
 0.5353377328654E-01 -0.6672511173042E-01  0.0000000000000E+00  0.1413916870397E+00
 0.6887999930010E-01 -0.8178190947510E-01  0.0000000000000E+00  0.1730568203069E+00
 0.8343176767440E-01 -0.9651098635547E-01  0.0000000000000E+00  0.1917147163100E+00
 0.9807494106507E-01 -0.1116794608373E+00  0.0000000000000E+00  0.2007827303414E+00
 0.1132549818611E+00 -0.1276453202107E+00  0.0000000000000E+00  0.2028315864248E+00
 0.1291868065635E+00 -0.1445667682741E+00  0.0000000000000E+00  0.1997522837106E+00
 0.1459649723829E+00 -0.1625116372984E+00  0.0000000000000E+00  0.1929159129308E+00
 0.1636468593950E+00 -0.1815405561016E+00  0.0000000000000E+00  0.1834426665773E+00
 0.1822770715149E+00 -0.2017276964815E+00  0.0000000000000E+00  0.1724525880420E+00
 0.2018288778658E+00 -0.2230975546952E+00  0.0000000000000E+00  0.1612439854481E+00
 0.2222315479991E+00 -0.2457552677587E+00  0.0000000000000E+00  0.1519016452594E+00
 0.2440454600751E+00 -0.2705049667744E+00  0.0000000000000E+00  0.1492125867870E+00
 0.2671434587227E+00 -0.2974508859199E+00  0.0000000000000E+00  0.1590533900242E+00
 0.2894766086121E+00 -0.3247860394676E+00  0.0000000000000E+00  0.1871431037157E+00
 0.3055324068378E+00 -0.3471961621118E+00  0.0000000000000E+00  0.2332238382319E+00
 0.3085689120133E+00 -0.3578899935681E+00  0.0000000000000E+00  0.2875131592956E+00
 0.2968246472477E+00 -0.3547621210423E+00  0.0000000000000E+00  0.3384549563252E+00
 0.2732053277369E+00 -0.3402294370161E+00  0.0000000000000E+00  0.3792047725957E+00
 0.1421555977261E-01 -0.3209452288593E-01  0.0000000000000E+00  0.3053610058441E-01
 0.3993553108577E-01 -0.5605340017610E-01  0.0000000000000E+00  0.1009065302066E+00
 0.5968486619208E-01 -0.7477488174111E-01  0.0000000000000E+00  0.1507423726293E+00
 0.7640431104410E-01 -0.9105648485893E-01  0.0000000000000E+00  0.1842922097475E+00
 0.9187540525886E-01 -0.1065550280107E+00  0.0000000000000E+00  0.2052660701616E+00
 0.1071373745289E+00 -0.1222065444663E+00  0.0000000000000E+00  0.2167311220342E+00
 0.1227788377719E+00 -0.1385223904981E+00  0.0000000000000E+00  0.2211355885333E+00
 0.1391236405366E+00 -0.1557746467495E+00  0.0000000000000E+00  0.2203979673384E+00
 0.1563304772355E+00 -0.1740961926774E+00  0.0000000000000E+00  0.2159937594222E+00
 0.1744728261092E+00 -0.1935614226785E+00  0.0000000000000E+00  0.2091614241344E+00
 0.1935662258123E+00 -0.2142105444838E+00  0.0000000000000E+00  0.2011108561816E+00
 0.2135163289075E+00 -0.2359936745948E+00  0.0000000000000E+00  0.1931640643065E+00
 0.2341183336547E+00 -0.2588554459358E+00  0.0000000000000E+00  0.1872265056125E+00
 0.2557185885772E+00 -0.2833414731466E+00  0.0000000000000E+00  0.1875539229473E+00
 0.2780307495085E+00 -0.3093472435144E+00  0.0000000000000E+00  0.1991593997979E+00
 0.2991084498927E+00 -0.3351130752276E+00  0.0000000000000E+00  0.2265289729702E+00
 0.3143618498676E+00 -0.3562027353080E+00  0.0000000000000E+00  0.2693694959865E+00
 0.3181708757561E+00 -0.3669752860175E+00  0.0000000000000E+00  0.3197926786148E+00
 0.3085733958947E+00 -0.3652223467145E+00  0.0000000000000E+00  0.3679972454576E+00
 0.2874267705998E+00 -0.3524179857881E+00  0.0000000000000E+00  0.4075409617880E+00
 0.1558549752185E-01 -0.3548929409176E-01  0.0000000000000E+00  0.4151527289653E-01
 0.4350614344806E-01 -0.6157172424048E-01  0.0000000000000E+00  0.1099665175666E+00
 0.6506882303942E-01 -0.8199927583265E-01  0.0000000000000E+00  0.1600519085920E+00
 0.8316160555159E-01 -0.9952741286522E-01  0.0000000000000E+00  0.1950741759430E+00
 0.9961443599177E-01 -0.1158760117447E+00  0.0000000000000E+00  0.2181328640543E+00
 0.1155652743420E+00 -0.1320929447822E+00  0.0000000000000E+00  0.2319415107491E+00
 0.1317078301116E+00 -0.1488038379557E+00  0.0000000000000E+00  0.2387867541421E+00
 0.1484519374513E+00 -0.1663716946979E+00  0.0000000000000E+00  0.2405618186631E+00
 0.1660092708773E+00 -0.1849834275588E+00  0.0000000000000E+00  0.2387950115458E+00
 0.1844664089140E+00 -0.2047240159685E+00  0.0000000000000E+00  0.2347952432354E+00
 0.2038141213012E+00 -0.2256035142500E+00  0.0000000000000E+00  0.2298139820983E+00
 0.2239058432317E+00 -0.2475125311417E+00  0.0000000000000E+00  0.2251491890087E+00
 0.2444437025881E+00 -0.2702782210551E+00  0.0000000000000E+00  0.2225153021168E+00
 0.2656040407026E+00 -0.2942388006637E+00  0.0000000000000E+00  0.2256326018476E+00
 0.2869949325024E+00 -0.3191452940096E+00  0.0000000000000E+00  0.2387243175479E+00
 0.3068157789932E+00 -0.3433421019883E+00  0.0000000000000E+00  0.2652988770472E+00
 0.3212512696718E+00 -0.3631349328449E+00  0.0000000000000E+00  0.3050543937631E+00
 0.3256263332765E+00 -0.3738493577997E+00  0.0000000000000E+00  0.3516563654140E+00
 0.3179094056179E+00 -0.3732844655974E+00  0.0000000000000E+00  0.3968597058531E+00
 0.2991364444802E+00 -0.3621818098404E+00  0.0000000000000E+00  0.4347343207688E+00
 0.1673421584791E-01 -0.3856491951606E-01  0.0000000000000E+00  0.5335510706251E-01
 0.4652062441349E-01 -0.6645621534109E-01  0.0000000000000E+00  0.1195525564291E+00
 0.6974102531836E-01 -0.8845312596291E-01  0.0000000000000E+00  0.1694563368119E+00
 0.8916474017255E-01 -0.1072038606470E+00  0.0000000000000E+00  0.2055775721935E+00
 0.1066186499414E+00 -0.1244377678174E+00  0.0000000000000E+00  0.2304733128252E+00
 0.1232951570352E+00 -0.1412682180794E+00  0.0000000000000E+00  0.2465154481713E+00
 0.1399591659482E+00 -0.1584000237366E+00  0.0000000000000E+00  0.2558072077040E+00
 0.1570838762921E+00 -0.1762640865830E+00  0.0000000000000E+00  0.2601764586549E+00
 0.1749218897615E+00 -0.1950892255897E+00  0.0000000000000E+00  0.2611590104688E+00
 0.1935697029631E+00 -0.2149677862237E+00  0.0000000000000E+00  0.2600896122954E+00
 0.2129982103435E+00 -0.2358845408859E+00  0.0000000000000E+00  0.2582185599562E+00
 0.2330232503488E+00 -0.2576852939252E+00  0.0000000000000E+00  0.2567839799436E+00
 0.2532876252932E+00 -0.2801158389085E+00  0.0000000000000E+00  0.2573058872360E+00
 0.2738359209639E+00 -0.3033512858865E+00  0.0000000000000E+00  0.2629827865839E+00
 0.2942143656123E+00 -0.3270502994538E+00  0.0000000000000E+00  0.2773287071463E+00
 0.3127946703370E+00 -0.3496982697183E+00  0.0000000000000E+00  0.3030791848626E+00
 0.3264151447908E+00 -0.3682310831703E+00  0.0000000000000E+00  0.3399410644397E+00
 0.3311960399813E+00 -0.3787862185505E+00  0.0000000000000E+00  0.3828472544202E+00
 0.3251244632980E+00 -0.3792422650501E+00  0.0000000000000E+00  0.4249130485539E+00
 0.3086010129846E+00 -0.3697808745225E+00  0.0000000000000E+00  0.4607846790754E+00
 0.1769581490750E-01 -0.4136110920762E-01  0.0000000000000E+00  0.6595767649878E-01
 0.4904509135827E-01 -0.7077515317950E-01  0.0000000000000E+00  0.1296774254955E+00
 0.7375363313274E-01 -0.9418816890892E-01  0.0000000000000E+00  0.1790519904215E+00
 0.9443427902680E-01 -0.1141034695085E+00  0.0000000000000E+00  0.2159390300392E+00
 0.1128737297619E+00 -0.1322211007313E+00  0.0000000000000E+00  0.2424200129654E+00
 0.1302835808079E+00 -0.1496829895556E+00  0.0000000000000E+00  0.2605457477034E+00
 0.1474708971858E+00 -0.1672429414840E+00  0.0000000000000E+00  0.2722262273254E+00
 0.1649514749921E+00 -0.1853784180169E+00  0.0000000000000E+00  0.2791947984934E+00
 0.1830071109529E+00 -0.2043482256236E+00  0.0000000000000E+00  0.2829571625286E+00
 0.2017410804760E+00 -0.2242489889693E+00  0.0000000000000E+00  0.2848350235953E+00
 0.2211091546219E+00 -0.2450452146229E+00  0.0000000000000E+00  0.2860414660084E+00
 0.2409023576053E+00 -0.2665511422998E+00  0.0000000000000E+00  0.2877285485160E+00
 0.2607308249155E+00 -0.2884603593655E+00  0.0000000000000E+00  0.2912233685406E+00
 0.2805396595862E+00 -0.3108222392776E+00  0.0000000000000E+00  0.2992277502991E+00
 0.2998480952957E+00 -0.3332445019299E+00  0.0000000000000E+00  0.3146293127082E+00
 0.3172151394936E+00 -0.3543763802171E+00  0.0000000000000E+00  0.3395569019527E+00
 0.3300355672807E+00 -0.3716937474056E+00  0.0000000000000E+00  0.3737387368693E+00
 0.3351009868303E+00 -0.3820186234646E+00  0.0000000000000E+00  0.4131339241244E+00
 0.3304734245793E+00 -0.3833530761564E+00  0.0000000000000E+00  0.4520264762533E+00
 0.3160640125270E+00 -0.3754540214232E+00  0.0000000000000E+00  0.4856675012622E+00
 0.1849770024594E-01 -0.4390972498191E-01  0.0000000000000E+00  0.7923510214445E-01
 0.5113521084447E-01 -0.7458594606807E-01  0.0000000000000E+00  0.1403364180674E+00
 0.7715518621715E-01 -0.9925259757135E-01  0.0000000000000E+00  0.1889044735203E+00
 0.9899585765575E-01 -0.1202495081894E+00  0.0000000000000E+00  0.2262633785634E+00
 0.1183777156705E+00 -0.1392200206986E+00  0.0000000000000E+00  0.2540818332734E+00
 0.1365039974099E+00 -0.1573056765236E+00  0.0000000000000E+00  0.2741144479762E+00
 0.1541997747748E+00 -0.1752840735138E+00  0.0000000000000E+00  0.2880763385323E+00
 0.1720052539878E+00 -0.1936604403819E+00  0.0000000000000E+00  0.2975861573636E+00
 0.1902207353640E+00 -0.2127126467623E+00  0.0000000000000E+00  0.3040897327333E+00
 0.2089534264288E+00 -0.2325388568913E+00  0.0000000000000E+00  0.3088636888970E+00
 0.2281483769684E+00 -0.2530881383451E+00  0.0000000000000E+00  0.3130549494453E+00
 0.2475825298352E+00 -0.2741545868843E+00  0.0000000000000E+00  0.3177107943614E+00
 0.2668537311408E+00 -0.2954024640622E+00  0.0000000000000E+00  0.3239692132707E+00
 0.2858338529008E+00 -0.3167860455359E+00  0.0000000000000E+00  0.3340663949305E+00
 0.3040412605588E+00 -0.3378932784340E+00  0.0000000000000E+00  0.3503450974553E+00
 0.3202282180870E+00 -0.3575490581083E+00  0.0000000000000E+00  0.3744660474669E+00
 0.3322692847853E+00 -0.3736975318915E+00  0.0000000000000E+00  0.4061932691426E+00
 0.3375288818248E+00 -0.3837446100651E+00  0.0000000000000E+00  0.4423103136852E+00
 0.3341793317496E+00 -0.3858421409184E+00  0.0000000000000E+00  0.4780792639319E+00
 0.3217480857047E+00 -0.3794202764884E+00  0.0000000000000E+00  0.5093502606241E+00
 0.1916200919004E-01 -0.4623648681714E-01  0.0000000000000E+00  0.9310814998882E-01
 0.5283808032020E-01 -0.7793711479635E-01  0.0000000000000E+00  0.1515124987926E+00
 0.7999060400847E-01 -0.1036910505958E+00  0.0000000000000E+00  0.1990556373520E+00
 0.1028784366660E+00 -0.1256690005449E+00  0.0000000000000E+00  0.2366292414299E+00
 0.1231382994194E+00 -0.1454388768611E+00  0.0000000000000E+00  0.2655464474541E+00
 0.1419439774377E+00 -0.1641195917942E+00  0.0000000000000E+00  0.2872922785566E+00
 0.1601189817647E+00 -0.1824920831988E+00  0.0000000000000E+00  0.3033907905475E+00
 0.1782125470729E+00 -0.2010733835421E+00  0.0000000000000E+00  0.3153328987752E+00
 0.1965341402553E+00 -0.2201508552387E+00  0.0000000000000E+00  0.3244821103131E+00
 0.2151925021214E+00 -0.2398219238516E+00  0.0000000000000E+00  0.3320450845130E+00
 0.2341260738630E+00 -0.2600248354066E+00  0.0000000000000E+00  0.3390807664495E+00
 0.2531067625425E+00 -0.2805433890620E+00  0.0000000000000E+00  0.3465191092552E+00
 0.2717355759072E+00 -0.3010304581968E+00  0.0000000000000E+00  0.3553133926372E+00
 0.2898321527126E+00 -0.3213700633457E+00  0.0000000000000E+00  0.3672662498769E+00
 0.3069308375395E+00 -0.3411514817060E+00  0.0000000000000E+00  0.3842503206275E+00
 0.3219736237170E+00 -0.3593753217445E+00  0.0000000000000E+00  0.4075775124501E+00
 0.3332538685848E+00 -0.3743963422949E+00  0.0000000000000E+00  0.4370735819824E+00
 0.3386370775192E+00 -0.3841305048492E+00  0.0000000000000E+00  0.4701883258115E+00
 0.3364344845482E+00 -0.3869029222171E+00  0.0000000000000E+00  0.5029676122064E+00
 0.3258561959782E+00 -0.3818787996288E+00  0.0000000000000E+00  0.5318073620898E+00
 0.1970666288256E-01 -0.4836219433876E-01  0.0000000000000E+00  0.1075050837480E+00
 0.5419374587812E-01 -0.8086989249473E-01  0.0000000000000E+00  0.1631801969527E+00
 0.8230141739973E-01 -0.1075448393339E+00  0.0000000000000E+00  0.2095291793717E+00
 0.1061131836479E+00 -0.1303915551876E+00  0.0000000000000E+00  0.2470938523692E+00
 0.1271707618256E+00 -0.1508901731924E+00  0.0000000000000E+00  0.2768829902953E+00
 0.1466028080063E+00 -0.1701204428761E+00  0.0000000000000E+00  0.3001389799337E+00
 0.1652159179182E+00 -0.1888505260853E+00  0.0000000000000E+00  0.3182020640423E+00
 0.1835557032790E+00 -0.2075961380454E+00  0.0000000000000E+00  0.3324277195898E+00
 0.2019328027968E+00 -0.2266458763608E+00  0.0000000000000E+00  0.3440810576569E+00
 0.2204555012935E+00 -0.2460945724711E+00  0.0000000000000E+00  0.3542808891635E+00
 0.2390595707148E+00 -0.2658740645697E+00  0.0000000000000E+00  0.3639835472844E+00
 0.2575198450416E+00 -0.2857666969890E+00  0.0000000000000E+00  0.3739947113250E+00
 0.2754527902962E+00 -0.3054286090591E+00  0.0000000000000E+00  0.3850876323467E+00
 0.2926433286132E+00 -0.3246946687697E+00  0.0000000000000E+00  0.3986612512012E+00
 0.3086512114563E+00 -0.3431685480427E+00  0.0000000000000E+00  0.4161788296913E+00
 0.3225903913650E+00 -0.3600126253738E+00  0.0000000000000E+00  0.4386964130149E+00
 0.3331174826956E+00 -0.3739342554600E+00  0.0000000000000E+00  0.4661542544784E+00
 0.3385539487645E+00 -0.3833138113123E+00  0.0000000000000E+00  0.4965744797558E+00
 0.3373953047771E+00 -0.3866902533982E+00  0.0000000000000E+00  0.5266015059836E+00
 0.3285695398541E+00 -0.3830049898309E+00  0.0000000000000E+00  0.5530396571767E+00
 0.2014607275037E-01 -0.5030358576314E-01  0.0000000000000E+00  0.1223606636702E+00
 0.5523638359996E-01 -0.8341936448031E-01  0.0000000000000E+00  0.1753089094196E+00
 0.8412619553723E-01 -0.1108524936253E+00  0.0000000000000E+00  0.2203353770740E+00
 0.1087328498161E+00 -0.1344486487110E+00  0.0000000000000E+00  0.2576971036704E+00
 0.1304964205583E+00 -0.1555929977770E+00  0.0000000000000E+00  0.2881445224471E+00
 0.1504894060010E+00 -0.1753141164341E+00  0.0000000000000E+00  0.3127039530152E+00
 0.1694900746701E+00 -0.1943556611913E+00  0.0000000000000E+00  0.3325411491665E+00
 0.1880303283565E+00 -0.2132214216858E+00  0.0000000000000E+00  0.3488717165770E+00
 0.2064149642394E+00 -0.2321940643997E+00  0.0000000000000E+00  0.3628513206416E+00
 0.2247499425032E+00 -0.2513639049321E+00  0.0000000000000E+00  0.3754997932762E+00
 0.2429720967636E+00 -0.2706606517742E+00  0.0000000000000E+00  0.3876635224294E+00
 0.2608666891547E+00 -0.2898733970226E+00  0.0000000000000E+00  0.4000229364294E+00
 0.2780764085784E+00 -0.3086747161527E+00  0.0000000000000E+00  0.4131771330553E+00
 0.2943681040533E+00 -0.3268699940649E+00  0.0000000000000E+00  0.4281492548959E+00
 0.3093330819520E+00 -0.3440872394721E+00  0.0000000000000E+00  0.4460372914538E+00
 0.3222314844979E+00 -0.3596279830806E+00  0.0000000000000E+00  0.4676925114536E+00
 0.3320022592861E+00 -0.3724757590364E+00  0.0000000000000E+00  0.4932007209096E+00
 0.3373868805376E+00 -0.3814118662055E+00  0.0000000000000E+00  0.5212160526920E+00
 0.3371674802158E+00 -0.3853067582601E+00  0.0000000000000E+00  0.5488680519363E+00
 0.3300376176769E+00 -0.3829322450367E+00  0.0000000000000E+00  0.5730820342476E+00
 0.2049161896984E-01 -0.5207331782971E-01  0.0000000000000E+00  0.1376170657575E+00
 0.5599534176208E-01 -0.8561610301209E-01  0.0000000000000E+00  0.1878661451734E+00
 0.8550114919938E-01 -0.1136498637716E+00  0.0000000000000E+00  0.2314753620568E+00
 0.1107717178588E+00 -0.1378740524690E+00  0.0000000000000E+00  0.2684651805415E+00
 0.1331414778500E+00 -0.1595715670315E+00  0.0000000000000E+00  0.2993694223272E+00
 0.1536203840948E+00 -0.1797147451268E+00  0.0000000000000E+00  0.3250272087489E+00
 0.1729510264057E+00 -0.1990143277237E+00  0.0000000000000E+00  0.3464372757364E+00
 0.1916435036184E+00 -0.2179539452136E+00  0.0000000000000E+00  0.3646732128513E+00
 0.2099906260051E+00 -0.2368039441006E+00  0.0000000000000E+00  0.3807734109063E+00
 0.2280931434186E+00 -0.2556474393731E+00  0.0000000000000E+00  0.3956523241000E+00
 0.2458921478650E+00 -0.2744147506205E+00  0.0000000000000E+00  0.4100487891471E+00
 0.2631911645351E+00 -0.2929111889931E+00  0.0000000000000E+00  0.4245233325280E+00
 0.2796694859389E+00 -0.3108376299715E+00  0.0000000000000E+00  0.4395091168028E+00
 0.2950930242937E+00 -0.3279904151462E+00  0.0000000000000E+00  0.4556820808636E+00
 0.3090930095444E+00 -0.3440327000909E+00  0.0000000000000E+00  0.4738091982244E+00
 0.3210524507590E+00 -0.3583866774344E+00  0.0000000000000E+00  0.4945533347153E+00
 0.3301163994576E+00 -0.3702378039989E+00  0.0000000000000E+00  0.5180911363466E+00
 0.3352803715820E+00 -0.3786226656147E+00  0.0000000000000E+00  0.5436789289160E+00
 0.3357780993318E+00 -0.3827594612486E+00  0.0000000000000E+00  0.5694609711550E+00
 0.3303303347486E+00 -0.3816956332629E+00  0.0000000000000E+00  0.5920751912439E+00
 0.2075102966671E-01 -0.5368362324045E-01  0.0000000000000E+00  0.1532142962326E+00
 0.5649424830994E-01 -0.8748049791405E-01  0.0000000000000E+00  0.2008207588234E+00
 0.8646199719494E-01 -0.1159757759996E+00  0.0000000000000E+00  0.2429500982653E+00
 0.1122665289348E+00 -0.1407031173725E+00  0.0000000000000E+00  0.2794085085941E+00
 0.1351355055078E+00 -0.1628541588689E+00  0.0000000000000E+00  0.3105835191426E+00
 0.1560184287247E+00 -0.1833428585618E+00  0.0000000000000E+00  0.3371399467162E+00
 0.1756163931191E+00 -0.2028419039650E+00  0.0000000000000E+00  0.3599179598991E+00
 0.1944119871937E+00 -0.2218084555342E+00  0.0000000000000E+00  0.3798472360574E+00
 0.2126803412074E+00 -0.2404950147191E+00  0.0000000000000E+00  0.3978426243089E+00
 0.2305132651740E+00 -0.2589735546462E+00  0.0000000000000E+00  0.4147090156238E+00
 0.2478541249263E+00 -0.2771740267558E+00  0.0000000000000E+00  0.4310841469572E+00
 0.2645346893377E+00 -0.2949240067332E+00  0.0000000000000E+00  0.4474382401951E+00
 0.2802859285102E+00 -0.3119766182490E+00  0.0000000000000E+00  0.4640420452121E+00
 0.2948867270222E+00 -0.3281315363205E+00  0.0000000000000E+00  0.4812453916815E+00
 0.3080176348290E+00 -0.3430985214644E+00  0.0000000000000E+00  0.4995293323084E+00
 0.3191761549913E+00 -0.3564154286199E+00  0.0000000000000E+00  0.5193772033594E+00
 0.3276639459903E+00 -0.3674271361919E+00  0.0000000000000E+00  0.5409853525793E+00
 0.3326338297820E+00 -0.3753260901190E+00  0.0000000000000E+00  0.5638907500786E+00
 0.3332923309073E+00 -0.3793502402579E+00  0.0000000000000E+00  0.5871582334609E+00
 0.3294560505440E+00 -0.3790076163530E+00  0.0000000000000E+00  0.6091440538323E+00
 0.2642486926902E-01 -0.8045649196959E-01  0.0000000000000E+00  0.6649269128030E+00
 0.5285187217381E-01 -0.1052164235579E+00  0.0000000000000E+00  0.6860389025998E+00
 0.8281683989662E-01 -0.1330282840773E+00  0.0000000000000E+00  0.6939240728086E+00
 0.1118794404027E+00 -0.1597093967837E+00  0.0000000000000E+00  0.6904815676426E+00
 0.1375467512044E+00 -0.1829020625826E+00  0.0000000000000E+00  0.6791286643249E+00
 0.1586323995956E+00 -0.2015262566532E+00  0.0000000000000E+00  0.6633309896076E+00
 0.1748147081527E+00 -0.2153386639274E+00  0.0000000000000E+00  0.6460288929052E+00
 0.1862923068515E+00 -0.2245961358671E+00  0.0000000000000E+00  0.6294068862050E+00
 0.1935243296549E+00 -0.2297963861774E+00  0.0000000000000E+00  0.6148259705463E+00
 0.1970345201391E+00 -0.2314825226443E+00  0.0000000000000E+00  0.6028776228302E+00
 0.1972768414577E+00 -0.2301100908973E+00  0.0000000000000E+00  0.5935092104301E+00
 0.1945707315847E+00 -0.2259805766263E+00  0.0000000000000E+00  0.5861773596608E+00
 0.1890866218303E+00 -0.2192469117469E+00  0.0000000000000E+00  0.5803384824164E+00
 0.1810016646629E+00 -0.2100651380459E+00  0.0000000000000E+00  0.5754791814092E+00
 0.1705148558610E+00 -0.1986034410599E+00  0.0000000000000E+00  0.5709304851972E+00
 0.1577804577734E+00 -0.1849916271386E+00  0.0000000000000E+00  0.5659927856286E+00
 0.1429812659907E+00 -0.1693850557306E+00  0.0000000000000E+00  0.5598029470136E+00
 0.1263758545840E+00 -0.1519608421108E+00  0.0000000000000E+00  0.5513377000770E+00
 0.1086760139483E+00 -0.1334347368623E+00  0.0000000000000E+00  0.5389516441827E+00
 0.9368697393322E-01 -0.1158007822027E+00  0.0000000000000E+00  0.5224241334582E+00
 0.2784779175344E-01 -0.8269565691260E-01  0.0000000000000E+00  0.6733725799572E+00
 0.5613574770307E-01 -0.1091305661201E+00  0.0000000000000E+00  0.6963917341084E+00
 0.8790895812574E-01 -0.1385845896874E+00  0.0000000000000E+00  0.7025646240821E+00
 0.1182295328253E+00 -0.1663196742230E+00  0.0000000000000E+00  0.6953642641631E+00
 0.1443628972876E+00 -0.1897722671406E+00  0.0000000000000E+00  0.6793445285489E+00
 0.1651546152230E+00 -0.2079046301050E+00  0.0000000000000E+00  0.6587901104897E+00
 0.1804235446724E+00 -0.2206234112627E+00  0.0000000000000E+00  0.6371414825337E+00
 0.1905418750712E+00 -0.2283632586788E+00  0.0000000000000E+00  0.6168168439963E+00
 0.1961302274775E+00 -0.2317836410918E+00  0.0000000000000E+00  0.5992078529829E+00
 0.1978425548378E+00 -0.2315549543079E+00  0.0000000000000E+00  0.5848095882232E+00
 0.1962360849140E+00 -0.2282294479246E+00  0.0000000000000E+00  0.5734057636180E+00
 0.1917174648473E+00 -0.2221922931088E+00  0.0000000000000E+00  0.5642848037931E+00
 0.1845117226138E+00 -0.2136520782564E+00  0.0000000000000E+00  0.5568973394045E+00
 0.1748583016853E+00 -0.2028294540578E+00  0.0000000000000E+00  0.5507843169478E+00
 0.1630291465473E+00 -0.1899675062917E+00  0.0000000000000E+00  0.5452612526365E+00
 0.1492314387738E+00 -0.1752472228351E+00  0.0000000000000E+00  0.5395513249091E+00
 0.1337663580773E+00 -0.1589153866389E+00  0.0000000000000E+00  0.5326225999801E+00
 0.1170731587382E+00 -0.1413597678461E+00  0.0000000000000E+00  0.5231668003747E+00
 0.1005948982663E+00 -0.1236835750169E+00  0.0000000000000E+00  0.5103691183631E+00
 0.8395581871615E-01 -0.1061332928700E+00  0.0000000000000E+00  0.4995944633483E+00
 0.2950609295582E-01 -0.8523068114803E-01  0.0000000000000E+00  0.6821440204671E+00
 0.6010260116485E-01 -0.1138206134938E+00  0.0000000000000E+00  0.7067890402805E+00
 0.9398853761297E-01 -0.1451675348435E+00  0.0000000000000E+00  0.7106589194118E+00
 0.1256239259500E+00 -0.1739860690305E+00  0.0000000000000E+00  0.6988780599037E+00
 0.1521103953275E+00 -0.1975577540792E+00  0.0000000000000E+00  0.6774563657865E+00
 0.1723832418884E+00 -0.2149516549105E+00  0.0000000000000E+00  0.6516119199392E+00
 0.1864669201365E+00 -0.2262884601258E+00  0.0000000000000E+00  0.6253078510529E+00
 0.1949583984834E+00 -0.2322317088829E+00  0.0000000000000E+00  0.6011606321466E+00
 0.1986759963405E+00 -0.2336379715487E+00  0.0000000000000E+00  0.5805353905196E+00
 0.1984262372879E+00 -0.2313261083905E+00  0.0000000000000E+00  0.5637792556712E+00
 0.1948763863508E+00 -0.2259530847432E+00  0.0000000000000E+00  0.5504851667456E+00
 0.1885126043783E+00 -0.2179773931270E+00  0.0000000000000E+00  0.5397515809822E+00
 0.1796069495853E+00 -0.2076560264674E+00  0.0000000000000E+00  0.5310075930448E+00
 0.1684583405097E+00 -0.1952710488395E+00  0.0000000000000E+00  0.5238394244773E+00
 0.1554102836451E+00 -0.1811360970045E+00  0.0000000000000E+00  0.5175193368672E+00
 0.1407472033683E+00 -0.1655031245265E+00  0.0000000000000E+00  0.5112006796123E+00
 0.1248714908398E+00 -0.1487269624916E+00  0.0000000000000E+00  0.5038232314378E+00
 0.1083861702090E+00 -0.1313178344628E+00  0.0000000000000E+00  0.4944911453333E+00
 0.9179821989782E-01 -0.1138497481242E+00  0.0000000000000E+00  0.4841102653048E+00
 0.7358660725751E-01 -0.9490405698798E-01  0.0000000000000E+00  0.4747494224693E+00
 0.3147592735714E-01 -0.8818654209398E-01  0.0000000000000E+00  0.6914659039751E+00
 0.6488092292232E-01 -0.1193992879468E+00  0.0000000000000E+00  0.7173436185371E+00
 0.1011819747945E+00 -0.1529119453734E+00  0.0000000000000E+00  0.7180266320973E+00
 0.1341640194365E+00 -0.1828068285660E+00  0.0000000000000E+00  0.7007128353642E+00
 0.1608262299752E+00 -0.2062902779470E+00  0.0000000000000E+00  0.6730896090184E+00
 0.1802898924941E+00 -0.2226311876694E+00  0.0000000000000E+00  0.6414303133447E+00
 0.1928644402359E+00 -0.2322451324120E+00  0.0000000000000E+00  0.6102236416818E+00
 0.1994312154209E+00 -0.2360833720761E+00  0.0000000000000E+00  0.5822281338885E+00
 0.2010424380146E+00 -0.2352346327313E+00  0.0000000000000E+00  0.5587077528906E+00
 0.1986729313564E+00 -0.2306809690661E+00  0.0000000000000E+00  0.5397984510456E+00
 0.1931005351152E+00 -0.2231831696912E+00  0.0000000000000E+00  0.5248577803996E+00
 0.1848817118206E+00 -0.2132629581490E+00  0.0000000000000E+00  0.5127649085713E+00
 0.1743261382504E+00 -0.2012157206853E+00  0.0000000000000E+00  0.5029142342253E+00
 0.1617885214669E+00 -0.1873805129625E+00  0.0000000000000E+00  0.4949298699127E+00
 0.1476778527973E+00 -0.1721346544544E+00  0.0000000000000E+00  0.4880539150134E+00
 0.1323277219389E+00 -0.1557820170610E+00  0.0000000000000E+00  0.4814403418033E+00
 0.1161742972941E+00 -0.1387103560610E+00  0.0000000000000E+00  0.4741789690934E+00
 0.9958781254183E-01 -0.1212713083512E+00  0.0000000000000E+00  0.4658279856592E+00
 0.8254286055633E-01 -0.1034398181654E+00  0.0000000000000E+00  0.4569091151577E+00
 0.6364803229974E-01 -0.8390365545151E-01  0.0000000000000E+00  0.4475415628755E+00
 0.3383986719253E-01 -0.9166321660206E-01  0.0000000000000E+00  0.7015062418951E+00
 0.7063827396097E-01 -0.1260453132745E+00  0.0000000000000E+00  0.7280699188559E+00
 0.1096453121113E+00 -0.1619723140761E+00  0.0000000000000E+00  0.7244544417574E+00
 0.1439475034788E+00 -0.1928772246286E+00  0.0000000000000E+00  0.7004814734974E+00
 0.1705290173245E+00 -0.2159809058789E+00  0.0000000000000E+00  0.6658036948149E+00
 0.1888156024732E+00 -0.2308747985911E+00  0.0000000000000E+00  0.6278394772436E+00
 0.1995006935139E+00 -0.2383682923487E+00  0.0000000000000E+00  0.5915791827489E+00
 0.2038157401272E+00 -0.2397654300245E+00  0.0000000000000E+00  0.5598355663917E+00
 0.2030806710247E+00 -0.2364191635191E+00  0.0000000000000E+00  0.5336723338907E+00
 0.1984473499356E+00 -0.2294814961484E+00  0.0000000000000E+00  0.5129335139783E+00
 0.1907974033939E+00 -0.2198085317947E+00  0.0000000000000E+00  0.4966871061878E+00
 0.1807429874360E+00 -0.2079692858611E+00  0.0000000000000E+00  0.4835620031586E+00
 0.1686181577288E+00 -0.1942838987412E+00  0.0000000000000E+00  0.4729079556175E+00
 0.1548233187939E+00 -0.1791380016906E+00  0.0000000000000E+00  0.4643901742605E+00
 0.1398068658988E+00 -0.1629488922011E+00  0.0000000000000E+00  0.4572470867591E+00
 0.1239037215278E+00 -0.1460241764346E+00  0.0000000000000E+00  0.4506784106299E+00
 0.1074724004716E+00 -0.1286899043810E+00  0.0000000000000E+00  0.4439020349070E+00
 0.9068612513860E-01 -0.1110931341034E+00  0.0000000000000E+00  0.4364502571365E+00
 0.7331393107462E-01 -0.9299594941774E-01  0.0000000000000E+00  0.4283279621017E+00
 0.5436686535431E-01 -0.7345075172595E-01  0.0000000000000E+00  0.4187431129454E+00
 0.3669438950899E-01 -0.9577772978626E-01  0.0000000000000E+00  0.7124656728464E+00
 0.7757173500584E-01 -0.1339654803123E+00  0.0000000000000E+00  0.7389285207225E+00
 0.1195562501581E+00 -0.1725280707854E+00  0.0000000000000E+00  0.7296383427319E+00
 0.1550684614774E+00 -0.2042858480010E+00  0.0000000000000E+00  0.6977084303751E+00
 0.1812101244877E+00 -0.2266114949441E+00  0.0000000000000E+00  0.6550837752616E+00
 0.1978618178305E+00 -0.2395720980487E+00  0.0000000000000E+00  0.6103973381449E+00
 0.2062176875449E+00 -0.2444885652430E+00  0.0000000000000E+00  0.5690704407800E+00
 0.2079295424800E+00 -0.2430864201474E+00  0.0000000000000E+00  0.5338393346482E+00
 0.2046130646290E+00 -0.2370082226324E+00  0.0000000000000E+00  0.5054366915627E+00
 0.1975959611744E+00 -0.2275718705658E+00  0.0000000000000E+00  0.4833164528638E+00
 0.1878469413520E+00 -0.2157097680195E+00  0.0000000000000E+00  0.4661974345494E+00
 0.1760114626109E+00 -0.2020144133305E+00  0.0000000000000E+00  0.4524311234079E+00
 0.1624289622137E+00 -0.1868113179354E+00  0.0000000000000E+00  0.4413175773537E+00
 0.1475270207855E+00 -0.1705145919220E+00  0.0000000000000E+00  0.4325682150851E+00
 0.1317599573651E+00 -0.1535482884597E+00  0.0000000000000E+00  0.4254324517303E+00
 0.1154158467508E+00 -0.1361776211497E+00  0.0000000000000E+00  0.4191464066712E+00
 0.9876154820300E-01 -0.1186372901634E+00  0.0000000000000E+00  0.4129382443594E+00
 0.8184414347827E-01 -0.1009443198929E+00  0.0000000000000E+00  0.4061989146135E+00
 0.6438867149343E-01 -0.8280616382603E-01  0.0000000000000E+00  0.3985325754669E+00
 0.4580046995554E-01 -0.6364987176426E-01  0.0000000000000E+00  0.3888469153474E+00
 0.4015728147379E-01 -0.1006716358076E+00  0.0000000000000E+00  0.7245794680626E+00
 0.8591561683662E-01 -0.1434055384947E+00  0.0000000000000E+00  0.7498198436804E+00
 0.1311108874969E+00 -0.1847765410244E+00  0.0000000000000E+00  0.7331617865065E+00
 0.1676093885056E+00 -0.2171080741617E+00  0.0000000000000E+00  0.6918028892790E+00
 0.1928232139554E+00 -0.2381229841506E+00  0.0000000000000E+00  0.6403340763530E+00
 0.2072791568128E+00 -0.2485590711058E+00  0.0000000000000E+00  0.5886322601140E+00
 0.2128071907003E+00 -0.2503844094621E+00  0.0000000000000E+00  0.5424156673740E+00
 0.2115499292153E+00 -0.2458138977259E+00  0.0000000000000E+00  0.5041553587253E+00
 0.2054358544279E+00 -0.2367926282650E+00  0.0000000000000E+00  0.4740853909164E+00
 0.1959527851389E+00 -0.2247846983795E+00  0.0000000000000E+00  0.4511560895140E+00
 0.1841268889980E+00 -0.2107663567606E+00  0.0000000000000E+00  0.4336780610959E+00
 0.1706052376725E+00 -0.1953204314007E+00  0.0000000000000E+00  0.4197079038139E+00
 0.1557083405154E+00 -0.1787532286104E+00  0.0000000000000E+00  0.4084957219629E+00
 0.1398690210672E+00 -0.1614854936528E+00  0.0000000000000E+00  0.3998016617862E+00
 0.1235156941421E+00 -0.1439166189543E+00  0.0000000000000E+00  0.3928897778253E+00
 0.1068677025572E+00 -0.1262440517771E+00  0.0000000000000E+00  0.3870070998737E+00
 0.9010888854552E-01 -0.1086182802070E+00  0.0000000000000E+00  0.3813513765349E+00
 0.7321187219282E-01 -0.9097626790366E-01  0.0000000000000E+00  0.3751699049797E+00
 0.5592700061567E-01 -0.7304419267644E-01  0.0000000000000E+00  0.3678219027662E+00
 0.3796491137771E-01 -0.5453928571440E-01  0.0000000000000E+00  0.3582313804242E+00
 0.4437493740067E-01 -0.1065204783450E+00  0.0000000000000E+00  0.7381243308202E+00
 0.9595032693406E-01 -0.1546592415747E+00  0.0000000000000E+00  0.7605627016468E+00
 0.1445217809616E+00 -0.1989310048556E+00  0.0000000000000E+00  0.7344639503426E+00
 0.1816298404469E+00 -0.2313934420076E+00  0.0000000000000E+00  0.6820335822026E+00
 0.2052691291055E+00 -0.2503995474240E+00  0.0000000000000E+00  0.6208711060932E+00
 0.2168540982545E+00 -0.2576039775474E+00  0.0000000000000E+00  0.5620564935154E+00
 0.2190032066550E+00 -0.2557744644515E+00  0.0000000000000E+00  0.5113799728157E+00
 0.2144135960974E+00 -0.2476744364389E+00  0.0000000000000E+00  0.4707849392324E+00
 0.2053245136941E+00 -0.2355433022175E+00  0.0000000000000E+00  0.4397995234127E+00
 0.1933477108460E+00 -0.2209498731442E+00  0.0000000000000E+00  0.4167479433707E+00
 0.1795214950276E+00 -0.2048656681812E+00  0.0000000000000E+00  0.3994835948747E+00
 0.1644536218711E+00 -0.1878216275870E+00  0.0000000000000E+00  0.3857677417625E+00
 0.1484191065653E+00 -0.1700780564382E+00  0.0000000000000E+00  0.3748073351856E+00
 0.1318350303662E+00 -0.1520417040959E+00  0.0000000000000E+00  0.3664151592968E+00
 0.1150804361220E+00 -0.1340635271746E+00  0.0000000000000E+00  0.3598766813648E+00
 0.9829639434428E-01 -0.1162626809892E+00  0.0000000000000E+00  0.3544475664572E+00
 0.8159482449429E-01 -0.9871545592515E-01  0.0000000000000E+00  0.3492983813974E+00
 0.6490392742737E-01 -0.8130954295916E-01  0.0000000000000E+00  0.3435745800331E+00
 0.4802145136166E-01 -0.6381251367188E-01  0.0000000000000E+00  0.3365138277560E+00
 0.3086808578536E-01 -0.4614115560707E-01  0.0000000000000E+00  0.3272021534428E+00
 0.4953161752549E-01 -0.1135453344123E+00  0.0000000000000E+00  0.7534239015640E+00
 0.1080133286939E+00 -0.1680801979798E+00  0.0000000000000E+00  0.7708598495463E+00
 0.1600142471968E+00 -0.2152164901467E+00  0.0000000000000E+00  0.7327954469477E+00
 0.1971502478995E+00 -0.2471481399134E+00  0.0000000000000E+00  0.6674991780932E+00
 0.2183755449904E+00 -0.2632467270842E+00  0.0000000000000E+00  0.5959220153809E+00
 0.2262931192225E+00 -0.2663907016380E+00  0.0000000000000E+00  0.5301898540693E+00
 0.2244755292674E+00 -0.2603111665990E+00  0.0000000000000E+00  0.4758109204302E+00
 0.2162197205735E+00 -0.2483574211562E+00  0.0000000000000E+00  0.4338473234259E+00
 0.2040431124754E+00 -0.2330214691842E+00  0.0000000000000E+00  0.4028771274611E+00
 0.1896179287092E+00 -0.2159066151941E+00  0.0000000000000E+00  0.3804805141606E+00
 0.1739319993136E+00 -0.1979136938622E+00  0.0000000000000E+00  0.3640291659380E+00
 0.1575057821470E+00 -0.1794730392417E+00  0.0000000000000E+00  0.3510153637157E+00
 0.1405440064554E+00 -0.1607743310389E+00  0.0000000000000E+00  0.3406214128928E+00
 0.1234313891540E+00 -0.1421944462955E+00  0.0000000000000E+00  0.3327241710070E+00
 0.1064808573239E+00 -0.1240196631088E+00  0.0000000000000E+00  0.3266511842556E+00
 0.8975174314016E-01 -0.1062868784907E+00  0.0000000000000E+00  0.3216841931454E+00
 0.7329218895456E-01 -0.8900618340686E-01  0.0000000000000E+00  0.3169927089703E+00
 0.5700153088885E-01 -0.7203162642445E-01  0.0000000000000E+00  0.3116693335789E+00
 0.4072530184277E-01 -0.5517295855646E-01  0.0000000000000E+00  0.3049146586521E+00
 0.2451550864774E-01 -0.3847116673088E-01  0.0000000000000E+00  0.2960270573750E+00
 0.5586182202409E-01 -0.1220286273591E+00  0.0000000000000E+00  0.7708534241808E+00
 0.1225126464288E+00 -0.1840965983736E+00  0.0000000000000E+00  0.7802455728166E+00
 0.1778188368932E+00 -0.2338614913168E+00  0.0000000000000E+00  0.7271566497583E+00
 0.2141279450720E+00 -0.2643088368126E+00  0.0000000000000E+00  0.6470936155697E+00
 0.2318697558663E+00 -0.2763621127796E+00  0.0000000000000E+00  0.5646322108674E+00
 0.2352046334154E+00 -0.2744998209399E+00  0.0000000000000E+00  0.4926000473215E+00
 0.2288261800260E+00 -0.2635777132101E+00  0.0000000000000E+00  0.4356883844229E+00
 0.2166386338818E+00 -0.2475249452440E+00  0.0000000000000E+00  0.3936182906980E+00
 0.2013589641129E+00 -0.2289944376108E+00  0.0000000000000E+00  0.3637511967027E+00
 0.1846225534809E+00 -0.2095187183883E+00  0.0000000000000E+00  0.3428346246805E+00
 0.1672878968630E+00 -0.1898464284859E+00  0.0000000000000E+00  0.3277788238583E+00
 0.1497379387450E+00 -0.1702575464723E+00  0.0000000000000E+00  0.3158709222057E+00
 0.1320890833947E+00 -0.1508539726812E+00  0.0000000000000E+00  0.3063021848606E+00
 0.1146831362850E+00 -0.1319737080524E+00  0.0000000000000E+00  0.2990351246763E+00
 0.9775577681956E-01 -0.1138282153740E+00  0.0000000000000E+00  0.2934727445228E+00
 0.8128472239495E-01 -0.9637209591156E-01  0.0000000000000E+00  0.2889519513298E+00
 0.6525977213212E-01 -0.7955445580259E-01  0.0000000000000E+00  0.2846743649514E+00
 0.4955862401993E-01 -0.6320275270795E-01  0.0000000000000E+00  0.2797228220075E+00
 0.3406668831718E-01 -0.4716118164061E-01  0.0000000000000E+00  0.2733121776174E+00
 0.1890921033894E-01 -0.3153942520380E-01  0.0000000000000E+00  0.2649524251531E+00
 0.6366743092182E-01 -0.1323366478555E+00  0.0000000000000E+00  0.7908413951167E+00
 0.1399435421234E+00 -0.2032297598803E+00  0.0000000000000E+00  0.7880056802202E+00
 0.1981566790849E+00 -0.2550818180639E+00  0.0000000000000E+00  0.7162110650009E+00
 0.2324209537706E+00 -0.2827028786825E+00  0.0000000000000E+00  0.6194673695153E+00
 0.2453424270328E+00 -0.2892961105119E+00  0.0000000000000E+00  0.5260907530552E+00
 0.2430800831881E+00 -0.2813890571291E+00  0.0000000000000E+00  0.4489685378082E+00
 0.2315921059102E+00 -0.2650921512985E+00  0.0000000000000E+00  0.3911918950352E+00
 0.2153290222623E+00 -0.2448309923323E+00  0.0000000000000E+00  0.3505715641116E+00
 0.1970636107456E+00 -0.2232579609055E+00  0.0000000000000E+00  0.3229994803580E+00
 0.1782596545515E+00 -0.2016920473080E+00  0.0000000000000E+00  0.3043713410170E+00
 0.1595572686696E+00 -0.1806400761860E+00  0.0000000000000E+00  0.2912253014634E+00
 0.1411576856350E+00 -0.1601898994099E+00  0.0000000000000E+00  0.2807519117642E+00
 0.1230833285041E+00 -0.1403518118273E+00  0.0000000000000E+00  0.2721981205890E+00
 0.1056299059420E+00 -0.1214239955663E+00  0.0000000000000E+00  0.2656399784766E+00
 0.8894954885858E-01 -0.1035380846772E+00  0.0000000000000E+00  0.2605963704114E+00
 0.7294148563090E-01 -0.8656928478601E-01  0.0000000000000E+00  0.2564915455608E+00
 0.5754104245948E-01 -0.7040915443394E-01  0.0000000000000E+00  0.2525906776998E+00
 0.4260725206656E-01 -0.5486107167904E-01  0.0000000000000E+00  0.2479997186383E+00
 0.2805579591636E-01 -0.3979416277608E-01  0.0000000000000E+00  0.2419745457765E+00
 0.1404531739491E-01 -0.2534885688359E-01  0.0000000000000E+00  0.2342103886429E+00
 0.7334209036210E-01 -0.1449527855495E+00  0.0000000000000E+00  0.8138637184181E+00
 0.1609088208293E+00 -0.2261172991043E+00  0.0000000000000E+00  0.7930524949184E+00
 0.2212117208164E+00 -0.2790497954164E+00  0.0000000000000E+00  0.6981619568370E+00
 0.2517324235215E+00 -0.3019866786321E+00  0.0000000000000E+00  0.5829893485663E+00
 0.2582000573137E+00 -0.3014003681393E+00  0.0000000000000E+00  0.4793894724541E+00
 0.2492778279155E+00 -0.2863774025018E+00  0.0000000000000E+00  0.3991948219093E+00
 0.2322599050879E+00 -0.2643250861070E+00  0.0000000000000E+00  0.3427864697312E+00
 0.2119672557580E+00 -0.2399536624149E+00  0.0000000000000E+00  0.3054148535303E+00
 0.1910001697432E+00 -0.2156649317460E+00  0.0000000000000E+00  0.2813368663365E+00
 0.1704834928678E+00 -0.1923917598748E+00  0.0000000000000E+00  0.2657036709206E+00
 0.1507538501731E+00 -0.1703175863414E+00  0.0000000000000E+00  0.2548607438623E+00
 0.1318042538549E+00 -0.1493164958157E+00  0.0000000000000E+00  0.2460522181786E+00
 0.1135752885092E+00 -0.1293218926232E+00  0.0000000000000E+00  0.2386299993585E+00
 0.9632084848779E-01 -0.1105990491643E+00  0.0000000000000E+00  0.2328093338646E+00
 0.8010693000079E-01 -0.9319848853403E-01  0.0000000000000E+00  0.2282656949546E+00
 0.6476022345360E-01 -0.7692148087195E-01  0.0000000000000E+00  0.2245394380096E+00
 0.5016473462121E-01 -0.6160441964829E-01  0.0000000000000E+00  0.2209844648887E+00
 0.3616180323313E-01 -0.4702685546408E-01  0.0000000000000E+00  0.2167523122620E+00
 0.2268881898420E-01 -0.3307429273628E-01  0.0000000000000E+00  0.2111499983278E+00
 0.9912156622349E-02 -0.1989369198991E-01  0.0000000000000E+00  0.2040205360927E+00
 0.8540681178930E-01 -0.1605283853730E+00  0.0000000000000E+00  0.8404206469117E+00
 0.1861424668140E+00 -0.2535412368875E+00  0.0000000000000E+00  0.7937228252438E+00
 0.2470783747393E+00 -0.3058354751314E+00  0.0000000000000E+00  0.6705740297960E+00
 0.2715242902437E+00 -0.3215490155043E+00  0.0000000000000E+00  0.5357231831636E+00
 0.2696051107240E+00 -0.3117629017092E+00  0.0000000000000E+00  0.4237453747532E+00
 0.2530183155241E+00 -0.2886430018428E+00  0.0000000000000E+00  0.3435558562128E+00
 0.2303017498834E+00 -0.2607411942670E+00  0.0000000000000E+00  0.2913206673846E+00
 0.2062920316574E+00 -0.2326434916189E+00  0.0000000000000E+00  0.2591034005077E+00
 0.1830944772405E+00 -0.2061570996745E+00  0.0000000000000E+00  0.2395780024484E+00
 0.1613177469902E+00 -0.1816546340946E+00  0.0000000000000E+00  0.2274496268659E+00
 0.1409381147515E+00 -0.1589487584844E+00  0.0000000000000E+00  0.2191416042649E+00
 0.1217441400553E+00 -0.1377104470546E+00  0.0000000000000E+00  0.2121220782064E+00
 0.1036272651360E+00 -0.1178313713875E+00  0.0000000000000E+00  0.2058809910355E+00
 0.8680915165162E-01 -0.9955616110841E-01  0.0000000000000E+00  0.2007868744448E+00
 0.7126896244273E-01 -0.8285467768851E-01  0.0000000000000E+00  0.1967078406108E+00
 0.5676949662066E-01 -0.6746200852095E-01  0.0000000000000E+00  0.1933214766837E+00
 0.4314618195723E-01 -0.5316093532402E-01  0.0000000000000E+00  0.1900873174189E+00
 0.3022254503190E-01 -0.3970604473474E-01  0.0000000000000E+00  0.1862160388545E+00
 0.1795071679784E-01 -0.2699219739165E-01  0.0000000000000E+00  0.1810660377559E+00
 0.6489396691030E-02 -0.1515874092565E-01  0.0000000000000E+00  0.1745883175109E+00
 0.1005632103917E+00 -0.1799640329176E+00  0.0000000000000E+00  0.8709744089727E+00
 0.2165337549249E+00 -0.2864588828864E+00  0.0000000000000E+00  0.7874370500408E+00
 0.2756614748238E+00 -0.3352926672205E+00  0.0000000000000E+00  0.6301127351296E+00
 0.2908818645497E+00 -0.3403573830610E+00  0.0000000000000E+00  0.4754545889437E+00
 0.2784079826772E+00 -0.3191357930546E+00  0.0000000000000E+00  0.3587405793188E+00
 0.2534086830545E+00 -0.2872560516257E+00  0.0000000000000E+00  0.2829365530797E+00
 0.2252453707061E+00 -0.2538787570353E+00  0.0000000000000E+00  0.2381119235558E+00
 0.1981638370731E+00 -0.2227858648928E+00  0.0000000000000E+00  0.2128004822305E+00
 0.1733824319986E+00 -0.1947910799028E+00  0.0000000000000E+00  0.1985593180323E+00
 0.1508585881493E+00 -0.1695900126745E+00  0.0000000000000E+00  0.1901716862703E+00
 0.1302104341097E+00 -0.1466423876867E+00  0.0000000000000E+00  0.1844560701891E+00
 0.1110627205031E+00 -0.1254627618329E+00  0.0000000000000E+00  0.1792536804167E+00
 0.9330812561319E-01 -0.1059531202097E+00  0.0000000000000E+00  0.1741908149306E+00
 0.7714661264925E-01 -0.8835058660812E-01  0.0000000000000E+00  0.1697864150770E+00
 0.6246957441785E-01 -0.7254442925236E-01  0.0000000000000E+00  0.1661309638832E+00
 0.4898739432982E-01 -0.5821362059917E-01  0.0000000000000E+00  0.1630500597868E+00
 0.3648908012179E-01 -0.4508774179197E-01  0.0000000000000E+00  0.1601166558951E+00
 0.2477900016106E-01 -0.3289368539917E-01  0.0000000000000E+00  0.1566073260697E+00
 0.1381787837764E-01 -0.2152942872340E-01  0.0000000000000E+00  0.1519280081855E+00
 0.3748348636194E-02 -0.1111969582468E-01  0.0000000000000E+00  0.1461015025061E+00
 0.1197755438714E+00 -0.2045464793131E+00  0.0000000000000E+00  0.9057970790560E+00
 0.2531408482528E+00 -0.3260272276341E+00  0.0000000000000E+00  0.7700895842389E+00
 0.3064795806829E+00 -0.3668289321071E+00  0.0000000000000E+00  0.5721652035272E+00
 0.3083019049937E+00 -0.3567158380835E+00  0.0000000000000E+00  0.3998648046672E+00
 0.2830913899202E+00 -0.3218804847703E+00  0.0000000000000E+00  0.2847759052549E+00
 0.2495330300760E+00 -0.2812912008370E+00  0.0000000000000E+00  0.2191260439938E+00
 0.2167905503990E+00 -0.2434776024925E+00  0.0000000000000E+00  0.1849514435929E+00
 0.1876274632329E+00 -0.2104630752053E+00  0.0000000000000E+00  0.1677443936026E+00
 0.1620189148923E+00 -0.1817417750030E+00  0.0000000000000E+00  0.1590238528481E+00
 0.1392621653413E+00 -0.1563653385610E+00  0.0000000000000E+00  0.1543225063372E+00
 0.1186975746636E+00 -0.1335320968739E+00  0.0000000000000E+00  0.1511038904060E+00
 0.9985388621926E-01 -0.1126718811167E+00  0.0000000000000E+00  0.1476750546136E+00
 0.8268598707660E-01 -0.9375827967064E-01  0.0000000000000E+00  0.1437539555525E+00
 0.6737853667055E-01 -0.7703027458662E-01  0.0000000000000E+00  0.1399914864063E+00
 0.5373260228801E-01 -0.6229499825541E-01  0.0000000000000E+00  0.1367246881631E+00
 0.4142115203583E-01 -0.4918818253482E-01  0.0000000000000E+00  0.1339247879774E+00
 0.3018766717963E-01 -0.3738457600792E-01  0.0000000000000E+00  0.1312760272119E+00
 0.1981365667585E-01 -0.2657773735604E-01  0.0000000000000E+00  0.1281231473512E+00
 0.1026135013643E-01 -0.1666170808103E-01  0.0000000000000E+00  0.1239172560099E+00
 0.1653381251767E-02 -0.7744426992532E-02  0.0000000000000E+00  0.1187253595237E+00
 0.1443966122941E+00 -0.2361985848902E+00  0.0000000000000E+00  0.9445807964542E+00
 0.2971560705191E+00 -0.3735754447395E+00  0.0000000000000E+00  0.7348843565977E+00
 0.3382623941237E+00 -0.3989293747665E+00  0.0000000000000E+00  0.4903112506588E+00
 0.3213703982893E+00 -0.3678846871374E+00  0.0000000000000E+00  0.3071037199938E+00
 0.2817974772802E+00 -0.3180314949306E+00  0.0000000000000E+00  0.2038902037309E+00
 0.2406702917412E+00 -0.2700821214417E+00  0.0000000000000E+00  0.1550758355480E+00
 0.2049663096296E+00 -0.2296486391297E+00  0.0000000000000E+00  0.1338938991101E+00
 0.1749412639519E+00 -0.1959661448832E+00  0.0000000000000E+00  0.1249951068392E+00
 0.1492511858510E+00 -0.1672720914640E+00  0.0000000000000E+00  0.1215228169359E+00
 0.1267200662598E+00 -0.1421803169151E+00  0.0000000000000E+00  0.1202194339825E+00
 0.1065369785207E+00 -0.1197608769159E+00  0.0000000000000E+00  0.1192932844481E+00
 0.8821050302707E-01 -0.9943426053729E-01  0.0000000000000E+00  0.1175503695978E+00
 0.7182158021864E-01 -0.8130944859983E-01  0.0000000000000E+00  0.1147198742107E+00
 0.5753877032510E-01 -0.6563065526672E-01  0.0000000000000E+00  0.1115567917863E+00
 0.4506875229371E-01 -0.5212000169855E-01  0.0000000000000E+00  0.1086637475983E+00
 0.3406698152380E-01 -0.4038672335451E-01  0.0000000000000E+00  0.1061370127399E+00
 0.2422946800177E-01 -0.3004485537509E-01  0.0000000000000E+00  0.1037586250225E+00
 0.1530649208261E-01 -0.2074381318193E-01  0.0000000000000E+00  0.1009422103039E+00
 0.7251083026429E-02 -0.1236307905027E-01  0.0000000000000E+00  0.9718896122406E-01
 0.1644782900243E-03 -0.4995432329903E-02  0.0000000000000E+00  0.9259685492416E-01
 0.1763835900259E+00 -0.2779730727614E+00  0.0000000000000E+00  0.9854858283729E+00
 0.3496898810803E+00 -0.4304190620320E+00  0.0000000000000E+00  0.6698275794220E+00
 0.3680746826800E+00 -0.4280214556532E+00  0.0000000000000E+00  0.3757853684126E+00
 0.3263452926208E+00 -0.3696545263993E+00  0.0000000000000E+00  0.1974395292887E+00
 0.2726313160604E+00 -0.3056714810606E+00  0.0000000000000E+00  0.1210525175084E+00
 0.2267185723060E+00 -0.2537534943477E+00  0.0000000000000E+00  0.9474991389417E-01
 0.1902400987537E+00 -0.2129146243802E+00  0.0000000000000E+00  0.8659287502818E-01
 0.1605111407417E+00 -0.1797241659668E+00  0.0000000000000E+00  0.8523597759011E-01
 0.1353699079905E+00 -0.1516805412620E+00  0.0000000000000E+00  0.8638726206242E-01
 0.1134324388948E+00 -0.1272413218755E+00  0.0000000000000E+00  0.8805606549555E-01
 0.9386504334639E-01 -0.1054700410975E+00  0.0000000000000E+00  0.8914932085165E-01
 0.7621743909372E-01 -0.8583760415764E-01  0.0000000000000E+00  0.8898108862959E-01
 0.6076210937629E-01 -0.6865419862531E-01  0.0000000000000E+00  0.8719202407321E-01
 0.4764384720501E-01 -0.5416820453693E-01  0.0000000000000E+00  0.8461121232774E-01
 0.3647178177179E-01 -0.4201570095789E-01  0.0000000000000E+00  0.8211631522749E-01
 0.2691009581742E-01 -0.3179978677574E-01  0.0000000000000E+00  0.7987922901868E-01
 0.1859900362237E-01 -0.2305992222583E-01  0.0000000000000E+00  0.7775424319486E-01
 0.1124066516728E-01 -0.1538084983438E-01  0.0000000000000E+00  0.7522771847163E-01
 0.4761647197871E-02 -0.8611951303021E-02  0.0000000000000E+00  0.7187024569311E-01
-0.7592531435776E-03 -0.2832575828853E-02  0.0000000000000E+00  0.6781661843795E-01
 0.2184381764395E+00 -0.3352968590350E+00  0.0000000000000E+00  0.1021408824114E+01
 0.4108178846495E+00 -0.4964631606468E+00  0.0000000000000E+00  0.5520623568469E+00
 0.3893563617230E+00 -0.4462416504357E+00  0.0000000000000E+00  0.2177683840343E+00
 0.3178970020831E+00 -0.3558080166546E+00  0.0000000000000E+00  0.7782642732067E-01
 0.2548304950504E+00 -0.2848374640130E+00  0.0000000000000E+00  0.4553412263583E-01
 0.2086531529787E+00 -0.2333619409459E+00  0.0000000000000E+00  0.4101820618533E-01
 0.1733190524830E+00 -0.1940228418368E+00  0.0000000000000E+00  0.4386684144959E-01
 0.1447893165176E+00 -0.1621916996897E+00  0.0000000000000E+00  0.4876025683276E-01
 0.1206579262840E+00 -0.1352551629303E+00  0.0000000000000E+00  0.5377853154465E-01
 0.9959220122879E-01 -0.1117465280486E+00  0.0000000000000E+00  0.5793342108258E-01
 0.8081220860845E-01 -0.9079528827911E-01  0.0000000000000E+00  0.6072465303391E-01
 0.6394801659851E-01 -0.7195813331501E-01  0.0000000000000E+00  0.6200056303475E-01
 0.4953365309628E-01 -0.5581591238732E-01  0.0000000000000E+00  0.6122049494189E-01
 0.3768368517429E-01 -0.4263038009919E-01  0.0000000000000E+00  0.5926496515599E-01
 0.2791322926725E-01 -0.3195592655351E-01  0.0000000000000E+00  0.5726149682244E-01
 0.1992614483127E-01 -0.2341021553622E-01  0.0000000000000E+00  0.5536049048870E-01
 0.1328301092523E-01 -0.1642384816691E-01  0.0000000000000E+00  0.5345796311605E-01
 0.7609227973600E-02 -0.1048894520524E-01  0.0000000000000E+00  0.5113291739461E-01
 0.2779578739748E-02 -0.5397294541258E-02  0.0000000000000E+00  0.4805870843044E-01
-0.1152063231757E-02 -0.1222318613688E-02  0.0000000000000E+00  0.4444121744818E-01
 0.2752278339849E+00 -0.4188755724618E+00  0.0000000000000E+00  0.1032683012366E+01
 0.4755361824439E+00 -0.5674229537870E+00  0.0000000000000E+00  0.3284738791426E+00
 0.3866483221622E+00 -0.4309524210003E+00  0.0000000000000E+00  0.1258191480246E-01
 0.2920424961081E+00 -0.3257622273574E+00  0.0000000000000E+00 -0.2487267578592E-01
 0.2308994503714E+00 -0.2580460321536E+00  0.0000000000000E+00 -0.1702379392387E-01
 0.1877877310856E+00 -0.2103079973534E+00  0.0000000000000E+00 -0.5365542736762E-02
 0.1549452155797E+00 -0.1736928156030E+00  0.0000000000000E+00  0.5816989004631E-02
 0.1281729718308E+00 -0.1437705763402E+00  0.0000000000000E+00  0.1562466690982E-01
 0.1053690529220E+00 -0.1182520213982E+00  0.0000000000000E+00  0.2375168148596E-01
 0.8537847810718E-01 -0.9587868347117E-01  0.0000000000000E+00  0.2989728206865E-01
 0.6750810954144E-01 -0.7587643041659E-01  0.0000000000000E+00  0.3401054558626E-01
 0.5146462039563E-01 -0.5786012199471E-01  0.0000000000000E+00  0.3654840960682E-01
 0.3812778771168E-01 -0.4277967435467E-01  0.0000000000000E+00  0.3677841592684E-01
 0.2760098253325E-01 -0.3094949132735E-01  0.0000000000000E+00  0.3562572033559E-01
 0.1933478515742E-01 -0.2188875749286E-01  0.0000000000000E+00  0.3433998451063E-01
 0.1309346131123E-01 -0.1520800995097E-01  0.0000000000000E+00  0.3282506784894E-01
 0.8279027002109E-02 -0.1014022824152E-01  0.0000000000000E+00  0.3106181014916E-01
 0.4411786938338E-02 -0.6072273262367E-02  0.0000000000000E+00  0.2881601173984E-01
 0.1318496229871E-02 -0.2745324675129E-02  0.0000000000000E+00  0.2584236630799E-01
-0.1029547016056E-02 -0.1351091415518E-03  0.0000000000000E+00  0.2244444160376E-01
 0.3302306918728E+00 -0.5698806527168E+00  0.0000000000000E+00  0.8314343892246E+00
 0.4995222137503E+00 -0.5513956309179E+00  0.0000000000000E+00 -0.1232859558650E+00
 0.3396359085247E+00 -0.3778438096418E+00  0.0000000000000E+00 -0.1458099930311E+00
 0.2569131949975E+00 -0.2868927216175E+00  0.0000000000000E+00 -0.9756260946827E-01
 0.2033985761590E+00 -0.2280851937897E+00  0.0000000000000E+00 -0.6730635951974E-01
 0.1654177840162E+00 -0.1857747004999E+00  0.0000000000000E+00 -0.4490508408429E-01
 0.1356712758356E+00 -0.1524770783453E+00  0.0000000000000E+00 -0.2773400468388E-01
 0.1110049689680E+00 -0.1248073398096E+00  0.0000000000000E+00 -0.1420122304629E-01
 0.8972046382135E-01 -0.1008943862971E+00  0.0000000000000E+00 -0.3738345673409E-02
 0.7094213183300E-01 -0.7978069397948E-01  0.0000000000000E+00  0.3967808726181E-02
 0.5410602485972E-01 -0.6087935667720E-01  0.0000000000000E+00  0.9030920363386E-02
 0.3885173132270E-01 -0.4366763642427E-01  0.0000000000000E+00  0.1234347183173E-01
 0.2643885589769E-01 -0.2937896296306E-01  0.0000000000000E+00  0.1362680037431E-01
 0.1722816202986E-01 -0.1895022627180E-01  0.0000000000000E+00  0.1398658325440E-01
 0.1068182031837E-01 -0.1179047126554E-01  0.0000000000000E+00  0.1374874627646E-01
 0.6428144988496E-02 -0.7212020046420E-02  0.0000000000000E+00  0.1250685472446E-01
 0.3593479416997E-02 -0.4223235549093E-02  0.0000000000000E+00  0.1074742177407E-01
 0.1648552254299E-02 -0.2135376503119E-02  0.0000000000000E+00  0.8424389334631E-02
 0.3883908856750E-03 -0.6649664988496E-03  0.0000000000000E+00  0.5375571010694E-02
-0.2758561536673E-03  0.2626087970583E-03  0.0000000000000E+00  0.1808207597436E-02
 0.3232587807463E+00 -0.3773752964157E+00  0.0000000000000E+00  0.6265284725954E+00
 0.3235336839329E+00 -0.3781661428202E+00  0.0000000000000E+00  0.6132989784250E+00
 0.3221086233971E+00 -0.3783013440664E+00  0.0000000000000E+00  0.5969933088341E+00
 0.3197545326045E+00 -0.3776521504395E+00  0.0000000000000E+00  0.5789977671998E+00
 0.3161118513843E+00 -0.3758486705067E+00  0.0000000000000E+00  0.5596234458367E+00
 0.3110174779231E+00 -0.3727020032532E+00  0.0000000000000E+00  0.5388969251097E+00
 0.3042948645239E+00 -0.3680353622531E+00  0.0000000000000E+00  0.5168018298400E+00
 0.2957585016607E+00 -0.3616662213628E+00  0.0000000000000E+00  0.4933095476891E+00
 0.2852038697763E+00 -0.3533963673681E+00  0.0000000000000E+00  0.4683801076327E+00
 0.2724068318974E+00 -0.3430103433441E+00  0.0000000000000E+00  0.4419512267037E+00
 0.2571235442703E+00 -0.3302756432126E+00  0.0000000000000E+00  0.4139228042035E+00
 0.2390920824950E+00 -0.3149447771631E+00  0.0000000000000E+00  0.3841364900395E+00
 0.2180369253209E+00 -0.2967603243714E+00  0.0000000000000E+00  0.3523490945825E+00
 0.1936791338046E+00 -0.2754656303255E+00  0.0000000000000E+00  0.3181985966066E+00
 0.1657572223493E+00 -0.2508255984706E+00  0.0000000000000E+00  0.2811634947630E+00
 0.1340661475232E+00 -0.2226648353897E+00  0.0000000000000E+00  0.2405198822695E+00
 0.9852759978414E-01 -0.1909299269541E+00  0.0000000000000E+00  0.1953241868793E+00
 0.5928036098971E-01 -0.1557797615032E+00  0.0000000000000E+00  0.1444473090490E+00
 0.1678679251646E-01 -0.1175801302434E+00  0.0000000000000E+00  0.8700578483887E-01
-0.2922376866173E-01 -0.7641868358269E-01  0.0000000000000E+00  0.2179427103946E-01
 0.3188896400082E+00 -0.3723385370716E+00  0.0000000000000E+00  0.6471895925647E+00
 0.3198383512177E+00 -0.3750787322624E+00  0.0000000000000E+00  0.6341957917645E+00
 0.3185122450465E+00 -0.3753224221276E+00  0.0000000000000E+00  0.6205427738050E+00
 0.3158572259645E+00 -0.3745263377597E+00  0.0000000000000E+00  0.6043665300761E+00
 0.3119895478901E+00 -0.3726662824104E+00  0.0000000000000E+00  0.5863834806774E+00
 0.3067124291058E+00 -0.3695417026123E+00  0.0000000000000E+00  0.5667589329392E+00
 0.2998184211943E+00 -0.3649382356212E+00  0.0000000000000E+00  0.5455268233568E+00
 0.2910895231958E+00 -0.3586414100898E+00  0.0000000000000E+00  0.5226449327849E+00
 0.2802998468850E+00 -0.3504320478682E+00  0.0000000000000E+00  0.4980325165521E+00
 0.2672127633107E+00 -0.3400830537102E+00  0.0000000000000E+00  0.4715720730256E+00
 0.2515818535730E+00 -0.3273598547496E+00  0.0000000000000E+00  0.4430996262266E+00
 0.2331552745927E+00 -0.3120247592927E+00  0.0000000000000E+00  0.4123880879351E+00
 0.2116848701516E+00 -0.2938460432836E+00  0.0000000000000E+00  0.3791268218575E+00
 0.1869419629133E+00 -0.2726134521578E+00  0.0000000000000E+00  0.3429003541460E+00
 0.1587424114730E+00 -0.2481625138428E+00  0.0000000000000E+00  0.3031718979497E+00
 0.1269838006257E+00 -0.2204090423451E+00  0.0000000000000E+00  0.2592855174005E+00
 0.9168888972794E-01 -0.1893915212770E+00  0.0000000000000E+00  0.2105053013075E+00
 0.5304852980684E-01 -0.1552954478527E+00  0.0000000000000E+00  0.1561497688244E+00
 0.1127543815254E-01 -0.1183886103594E+00  0.0000000000000E+00  0.9564258879478E-01
-0.3310058648679E-01 -0.7910007835631E-01  0.0000000000000E+00  0.2824255628913E-01
 0.3138465214448E+00 -0.3673167829794E+00  0.0000000000000E+00  0.6682456478135E+00
 0.3145427968295E+00 -0.3698686812571E+00  0.0000000000000E+00  0.6552561867154E+00
 0.3135831156100E+00 -0.3708176906008E+00  0.0000000000000E+00  0.6426545827752E+00
 0.3110093812587E+00 -0.3702415058340E+00  0.0000000000000E+00  0.6282615979770E+00
 0.3070366011920E+00 -0.3684398779438E+00  0.0000000000000E+00  0.6118057954170E+00
 0.3016111639767E+00 -0.3653442548436E+00  0.0000000000000E+00  0.5934066585082E+00
 0.2945582362740E+00 -0.3607833808924E+00  0.0000000000000E+00  0.5730886548903E+00
 0.2856664175918E+00 -0.3545497973521E+00  0.0000000000000E+00  0.5508018113665E+00
 0.2747075541122E+00 -0.3464230744704E+00  0.0000000000000E+00  0.5264365020379E+00
 0.2614454899926E+00 -0.3361769018205E+00  0.0000000000000E+00  0.4998336501789E+00
 0.2456414506598E+00 -0.3235841984290E+00  0.0000000000000E+00  0.4707825635532E+00
 0.2270615342212E+00 -0.3084242460953E+00  0.0000000000000E+00  0.4390127172059E+00
 0.2054880232998E+00 -0.2904936456937E+00  0.0000000000000E+00  0.4041836504945E+00
 0.1807357045161E+00 -0.2696220748580E+00  0.0000000000000E+00  0.3658778526580E+00
 0.1526737329108E+00 -0.2456930258135E+00  0.0000000000000E+00  0.3236036735255E+00
 0.1212504029901E+00 -0.2186675801989E+00  0.0000000000000E+00  0.2768173822591E+00
 0.8651682140843E-01 -0.1886041385514E+00  0.0000000000000E+00  0.2249785541821E+00
 0.4861421061814E-01 -0.1556564753425E+00  0.0000000000000E+00  0.1676203007591E+00
 0.7807790557901E-02 -0.1200736927604E+00  0.0000000000000E+00  0.1043862613687E+00
-0.3555296491068E-01 -0.8220259375120E-01  0.0000000000000E+00  0.3522935239394E-01
 0.3086575188694E+00 -0.3620985377814E+00  0.0000000000000E+00  0.6880433208410E+00
 0.3087836902593E+00 -0.3641840076346E+00  0.0000000000000E+00  0.6761303817815E+00
 0.3077303864450E+00 -0.3651642752501E+00  0.0000000000000E+00  0.6642867670006E+00
 0.3052016808963E+00 -0.3647975208729E+00  0.0000000000000E+00  0.6511271127383E+00
 0.3011993442497E+00 -0.3631057796640E+00  0.0000000000000E+00  0.6360323121317E+00
 0.2956850633981E+00 -0.3600737641631E+00  0.0000000000000E+00  0.6188211107836E+00
 0.2885258865977E+00 -0.3555741454383E+00  0.0000000000000E+00  0.5994202241689E+00
 0.2795333927777E+00 -0.3494265932899E+00  0.0000000000000E+00  0.5777275930995E+00
 0.2684935432974E+00 -0.3414258309783E+00  0.0000000000000E+00  0.5535952853739E+00
 0.2551818126545E+00 -0.3313576174684E+00  0.0000000000000E+00  0.5268271199547E+00
 0.2393738211656E+00 -0.3190089447284E+00  0.0000000000000E+00  0.4971786794834E+00
 0.2208554425528E+00 -0.3041778320652E+00  0.0000000000000E+00  0.4643555273555E+00
 0.1994347808203E+00 -0.2866848502421E+00  0.0000000000000E+00  0.4280121841099E+00
 0.1749566843471E+00 -0.2663870116214E+00  0.0000000000000E+00  0.3877557525672E+00
 0.1473188576925E+00 -0.2431931957193E+00  0.0000000000000E+00  0.3431590142493E+00
 0.1164872276135E+00 -0.2170782952922E+00  0.0000000000000E+00  0.2937882144580E+00
 0.8250198968310E-01 -0.1880903057940E+00  0.0000000000000E+00  0.2392451231982E+00
 0.4548105526874E-01 -0.1563482068209E+00  0.0000000000000E+00  0.1792140814665E+00
 0.5598421706658E-02 -0.1220268570670E+00  0.0000000000000E+00  0.1135395569919E+00
-0.3695246605482E-01 -0.8531144049596E-01  0.0000000000000E+00  0.4229024546069E-01
 0.3031123250968E+00 -0.3564650319631E+00  0.0000000000000E+00  0.7064996672804E+00
 0.3026514972754E+00 -0.3580209890442E+00  0.0000000000000E+00  0.6960413493586E+00
 0.3012804254338E+00 -0.3587792948729E+00  0.0000000000000E+00  0.6851992699085E+00
 0.2986219919632E+00 -0.3583873435645E+00  0.0000000000000E+00  0.6731142591466E+00
 0.2945457774952E+00 -0.3567384315665E+00  0.0000000000000E+00  0.6591781279212E+00
 0.2889596064579E+00 -0.3537553756587E+00  0.0000000000000E+00  0.6430517429936E+00
 0.2817358691154E+00 -0.3493239494063E+00  0.0000000000000E+00  0.6245273299871E+00
 0.2727051097283E+00 -0.3432846978878E+00  0.0000000000000E+00  0.6034236603380E+00
 0.2616712387283E+00 -0.3354518908679E+00  0.0000000000000E+00  0.5795385679602E+00
 0.2484264360477E+00 -0.3256284253617E+00  0.0000000000000E+00  0.5526358558595E+00
 0.2327631627101E+00 -0.3136179419683E+00  0.0000000000000E+00  0.5224423747998E+00
 0.2144852974999E+00 -0.2992356621399E+00  0.0000000000000E+00  0.4886494030081E+00
 0.1934195650096E+00 -0.2823194230499E+00  0.0000000000000E+00  0.4509173093747E+00
 0.1694274362004E+00 -0.2627411061746E+00  0.0000000000000E+00  0.4088852396413E+00
 0.1424165426715E+00 -0.2404174685738E+00  0.0000000000000E+00  0.3621881001320E+00
 0.1123488189311E+00 -0.2153180861528E+00  0.0000000000000E+00  0.3104817959289E+00
 0.7924409304571E-01 -0.1874679045684E+00  0.0000000000000E+00  0.2534742373348E+00
 0.4317273125888E-01 -0.1569412887031E+00  0.0000000000000E+00  0.1909612413768E+00
 0.4234367418206E-02 -0.1238397157645E+00  0.0000000000000E+00  0.1228539612081E+00
-0.3748654977964E-01 -0.8824939740172E-01  0.0000000000000E+00  0.4920654772620E-01
 0.2971602383037E+00 -0.3503432782380E+00  0.0000000000000E+00  0.7235672598317E+00
 0.2961236834508E+00 -0.3513610411783E+00  0.0000000000000E+00  0.7147183889981E+00
 0.2943264713112E+00 -0.3517511822638E+00  0.0000000000000E+00  0.7050644959403E+00
 0.2914068248664E+00 -0.3511702477419E+00  0.0000000000000E+00  0.6940738689725E+00
 0.2871712372320E+00 -0.3494418994356E+00  0.0000000000000E+00  0.6812139711543E+00
 0.2814842203053E+00 -0.3464463616432E+00  0.0000000000000E+00  0.6660882612408E+00
 0.2742065767843E+00 -0.3420575110577E+00  0.0000000000000E+00  0.6483966642677E+00
 0.2651770941455E+00 -0.3361262506879E+00  0.0000000000000E+00  0.6278772603601E+00
 0.2542147766994E+00 -0.3284828885044E+00  0.0000000000000E+00  0.6042679467392E+00
 0.2411281237580E+00 -0.3189471619435E+00  0.0000000000000E+00  0.5772887355965E+00
 0.2257254844403E+00 -0.3073385591524E+00  0.0000000000000E+00  0.5466374052772E+00
 0.2078252095487E+00 -0.2934863081686E+00  0.0000000000000E+00  0.5119920594293E+00
 0.1872655691142E+00 -0.2772389828849E+00  0.0000000000000E+00  0.4730186273993E+00
 0.1639140973473E+00 -0.2584734791150E+00  0.0000000000000E+00  0.4293830896597E+00
 0.1376753364579E+00 -0.2371024503632E+00  0.0000000000000E+00  0.3807686332124E+00
 0.1084957727869E+00 -0.2130788673036E+00  0.0000000000000E+00  0.3268968995247E+00
 0.7636392964374E-01 -0.1863962678218E+00  0.0000000000000E+00  0.2675512581081E+00
 0.4130480687287E-01 -0.1570831924258E+00  0.0000000000000E+00  0.2025952468083E+00
 0.3365655149771E-02 -0.1251916889512E+00  0.0000000000000E+00  0.1319726409643E+00
-0.3741837446572E-01 -0.9076556289660E-01  0.0000000000000E+00  0.5567010857513E-01
 0.2907797373225E+00 -0.3437094291194E+00  0.0000000000000E+00  0.7392309142051E+00
 0.2891757028236E+00 -0.3441767509839E+00  0.0000000000000E+00  0.7320102503808E+00
 0.2868930452677E+00 -0.3441126797398E+00  0.0000000000000E+00  0.7236555575508E+00
 0.2836178805523E+00 -0.3432171070996E+00  0.0000000000000E+00  0.7138055722544E+00
 0.2791390389018E+00 -0.3412939994045E+00  0.0000000000000E+00  0.7020031732735E+00
 0.2732976493085E+00 -0.3381987761081E+00  0.0000000000000E+00  0.6878362634260E+00
 0.2659450684683E+00 -0.3337962646224E+00  0.0000000000000E+00  0.6709481835755E+00
 0.2569238769952E+00 -0.3279416057849E+00  0.0000000000000E+00  0.6510127944630E+00
 0.2460644972017E+00 -0.3204772869416E+00  0.0000000000000E+00  0.6277111729443E+00
 0.2331894360177E+00 -0.3112374635609E+00  0.0000000000000E+00  0.6007186399940E+00
 0.2181205247205E+00 -0.3000552487622E+00  0.0000000000000E+00  0.5697014059559E+00
 0.2006869563608E+00 -0.2867705858042E+00  0.0000000000000E+00  0.5343203056420E+00
 0.1807331613046E+00 -0.2712378816592E+00  0.0000000000000E+00  0.4942395658080E+00
 0.1581258093519E+00 -0.2533327395227E+00  0.0000000000000E+00  0.4491395334393E+00
 0.1327591322413E+00 -0.2329570121024E+00  0.0000000000000E+00  0.3987324193087E+00
 0.1045575891114E+00 -0.2100413198737E+00  0.0000000000000E+00  0.3427797334700E+00
 0.7347540923264E-01 -0.1845444518223E+00  0.0000000000000E+00  0.2811087871571E+00
 0.3949333496406E-01 -0.1564503454392E+00  0.0000000000000E+00  0.2136240755599E+00
 0.2617733197575E-02 -0.1257668357054E+00  0.0000000000000E+00  0.1403047746506E+00
-0.3711494148375E-01 -0.9253954359473E-01  0.0000000000000E+00  0.6113668316972E-01
 0.2839734193210E+00 -0.3365666052600E+00  0.0000000000000E+00  0.7534721829397E+00
 0.2817938313079E+00 -0.3364580730363E+00  0.0000000000000E+00  0.7478276598428E+00
 0.2789827125768E+00 -0.3358737857761E+00  0.0000000000000E+00  0.7408058018031E+00
 0.2752787194767E+00 -0.3345642698722E+00  0.0000000000000E+00  0.7321218372372E+00
 0.2704778214605E+00 -0.3323390593488E+00  0.0000000000000E+00  0.7213696683085E+00
 0.2644154987135E+00 -0.3290472846377E+00  0.0000000000000E+00  0.7081358565626E+00
 0.2569408432260E+00 -0.3245513103126E+00  0.0000000000000E+00  0.6920281438544E+00
 0.2479012223685E+00 -0.3187113810965E+00  0.0000000000000E+00  0.6726712117342E+00
 0.2371370547131E+00 -0.3113803733077E+00  0.0000000000000E+00  0.6496964324165E+00
 0.2244829433135E+00 -0.3024049558966E+00  0.0000000000000E+00  0.6227355368666E+00
 0.2097720500660E+00 -0.2916298766386E+00  0.0000000000000E+00  0.5914204362944E+00
 0.1928417895137E+00 -0.2789035052043E+00  0.0000000000000E+00  0.5553885690772E+00
 0.1735396913773E+00 -0.2640834797998E+00  0.0000000000000E+00  0.5142924777720E+00
 0.1517286256904E+00 -0.2470416990102E+00  0.0000000000000E+00  0.4678122295102E+00
 0.1272906634591E+00 -0.2276679770894E+00  0.0000000000000E+00  0.4156692647840E+00
 0.1001289860436E+00 -0.2058717720246E+00  0.0000000000000E+00  0.3576400213910E+00
 0.7016761426491E-01 -0.1815817715090E+00  0.0000000000000E+00  0.2935677013859E+00
 0.3735015669731E-01 -0.1547442288400E+00  0.0000000000000E+00  0.2233710990153E+00
 0.1641589284105E-02 -0.1253236569369E+00  0.0000000000000E+00  0.1470533213202E+00
-0.3693156570237E-01 -0.9333278186137E-01  0.0000000000000E+00  0.6472290964534E-01
 0.2767574607175E+00 -0.3289336766879E+00  0.0000000000000E+00  0.7662706101944E+00
 0.2739801663423E+00 -0.3282121118974E+00  0.0000000000000E+00  0.7621079346009E+00
 0.2706014941020E+00 -0.3270491903855E+00  0.0000000000000E+00  0.7563909326028E+00
 0.2664071210334E+00 -0.3252417698916E+00  0.0000000000000E+00  0.7488583652779E+00
 0.2612123305355E+00 -0.3226178347706E+00  0.0000000000000E+00  0.7391313055680E+00
 0.2548593888774E+00 -0.3190327603182E+00  0.0000000000000E+00  0.7267954117150E+00
 0.2472027447688E+00 -0.3143541296971E+00  0.0000000000000E+00  0.7114329592694E+00
 0.2380977701365E+00 -0.3084503122957E+00  0.0000000000000E+00  0.6926294715859E+00
 0.2273954748904E+00 -0.3011851059183E+00  0.0000000000000E+00  0.6699727443880E+00
 0.2149418370668E+00 -0.2924169749087E+00  0.0000000000000E+00  0.6430526186995E+00
 0.2005799787501E+00 -0.2820011070235E+00  0.0000000000000E+00  0.6114644655907E+00
 0.1841538281007E+00 -0.2697929023290E+00  0.0000000000000E+00  0.5748167065454E+00
 0.1655123569015E+00 -0.2556520064947E+00  0.0000000000000E+00  0.5327415171003E+00
 0.1445137608590E+00 -0.2394462797209E+00  0.0000000000000E+00  0.4849073389298E+00
 0.1210291038136E+00 -0.2210552491742E+00  0.0000000000000E+00  0.4310315195370E+00
 0.9494505592766E-01 -0.2003726943129E+00  0.0000000000000E+00  0.3708913316438E+00
 0.6616553723917E-01 -0.1773081449688E+00  0.0000000000000E+00  0.3043320151161E+00
 0.3461226463408E-01 -0.1517871158963E+00  0.0000000000000E+00  0.2312727532070E+00
 0.2244387805206E-03 -0.1237499687399E+00  0.0000000000000E+00  0.1517173961745E+00
-0.3704587657295E-01 -0.9313914548684E-01  0.0000000000000E+00  0.6583284532756E-01
 0.2691630029466E+00 -0.3208443811297E+00  0.0000000000000E+00  0.7776090162248E+00
 0.2657627507739E+00 -0.3194688482606E+00  0.0000000000000E+00  0.7748087372788E+00
 0.2617848456724E+00 -0.3176765916827E+00  0.0000000000000E+00  0.7703250589104E+00
 0.2570558437249E+00 -0.3153049741647E+00  0.0000000000000E+00  0.7638942617372E+00
 0.2514161698529E+00 -0.3122065274152E+00  0.0000000000000E+00  0.7551467793824E+00
 0.2447234057012E+00 -0.3082515094426E+00  0.0000000000000E+00  0.7436638317779E+00
 0.2368442053062E+00 -0.3033195108660E+00  0.0000000000000E+00  0.7290064863810E+00
 0.2276462323584E+00 -0.2972912373385E+00  0.0000000000000E+00  0.7107271922238E+00
 0.2169932113819E+00 -0.2900434477170E+00  0.0000000000000E+00  0.6883746587527E+00
 0.2047430227744E+00 -0.2814469379326E+00  0.0000000000000E+00  0.6614984023673E+00
 0.1907479985688E+00 -0.2713666956061E+00  0.0000000000000E+00  0.6296557588994E+00
 0.1748566284256E+00 -0.2596634321023E+00  0.0000000000000E+00  0.5924220554722E+00
 0.1569161217799E+00 -0.2461959434064E+00  0.0000000000000E+00  0.5494034408760E+00
 0.1367754776943E+00 -0.2308239732399E+00  0.0000000000000E+00  0.5002511561776E+00
 0.1142888254227E+00 -0.2134113695873E+00  0.0000000000000E+00  0.4446755892764E+00
 0.8931879473399E-01 -0.1938293273573E+00  0.0000000000000E+00  0.3824582781476E+00
 0.6173948454324E-01 -0.1719593079557E+00  0.0000000000000E+00  0.3134603759219E+00
 0.3143766729901E-01 -0.1476944699046E+00  0.0000000000000E+00  0.2376269792688E+00
-0.1691758900801E-02 -0.1209353518282E+00  0.0000000000000E+00  0.1549909987811E+00
-0.3778976811097E-01 -0.9155708631056E-01  0.0000000000000E+00  0.6566672318574E-01
 0.2612237131939E+00 -0.3123343252178E+00  0.0000000000000E+00  0.7874838603490E+00
 0.2571727965776E+00 -0.3102590290262E+00  0.0000000000000E+00  0.7859212210892E+00
 0.2525665040232E+00 -0.3077870245017E+00  0.0000000000000E+00  0.7825854491683E+00
 0.2472674838790E+00 -0.3047913485722E+00  0.0000000000000E+00  0.7772010376604E+00
 0.2411440560052E+00 -0.3011518429274E+00  0.0000000000000E+00  0.7693983644600E+00
 0.2340749393295E+00 -0.2967594177144E+00  0.0000000000000E+00  0.7587520809835E+00
 0.2259447980397E+00 -0.2915113709499E+00  0.0000000000000E+00  0.7448052032654E+00
 0.2166382145924E+00 -0.2853052355327E+00  0.0000000000000E+00  0.7270819496986E+00
 0.2060349086824E+00 -0.2780339017105E+00  0.0000000000000E+00  0.7050957390051E+00
 0.1940067036208E+00 -0.2695824804337E+00  0.0000000000000E+00  0.6783568612443E+00
 0.1804159894214E+00 -0.2598266381358E+00  0.0000000000000E+00  0.6463822043891E+00
 0.1651153515835E+00 -0.2486320610353E+00  0.0000000000000E+00  0.6087078711729E+00
 0.1479481807153E+00 -0.2358548663808E+00  0.0000000000000E+00  0.5649044613708E+00
 0.1287502461335E+00 -0.2213429569413E+00  0.0000000000000E+00  0.5145940163397E+00
 0.1073523018889E+00 -0.2049384152837E+00  0.0000000000000E+00  0.4574670012233E+00
 0.8358371985573E-01 -0.1864809736394E+00  0.0000000000000E+00  0.3932972337651E+00
 0.5727674692538E-01 -0.1658122624804E+00  0.0000000000000E+00  0.3219522972694E+00
 0.2827023175854E-01 -0.1427797646103E+00  0.0000000000000E+00  0.2433964628615E+00
-0.3591934639044E-02 -0.1172372144816E+00  0.0000000000000E+00  0.1576785005241E+00
-0.3846566246947E-01 -0.8904203154952E-01  0.0000000000000E+00  0.6486513642173E-01
 0.2529753268350E+00 -0.3034427657704E+00  0.0000000000000E+00  0.7958812945654E+00
 0.2482452669032E+00 -0.3006202474979E+00  0.0000000000000E+00  0.7954230988257E+00
 0.2429810990982E+00 -0.2974169754420E+00  0.0000000000000E+00  0.7931361100672E+00
 0.2370783371891E+00 -0.2937381987820E+00  0.0000000000000E+00  0.7887329106568E+00
 0.2304343408521E+00 -0.2894920806248E+00  0.0000000000000E+00  0.7818412652844E+00
 0.2229527933932E+00 -0.2845938542081E+00  0.0000000000000E+00  0.7720301301718E+00
 0.2145409905910E+00 -0.2789629610855E+00  0.0000000000000E+00  0.7588285165337E+00
 0.2051048976320E+00 -0.2725180299831E+00  0.0000000000000E+00  0.7417375059878E+00
 0.1945442303403E+00 -0.2651719017505E+00  0.0000000000000E+00  0.7202391751218E+00
 0.1827482392527E+00 -0.2568273501503E+00  0.0000000000000E+00  0.6938056348801E+00
 0.1695922776195E+00 -0.2473735588393E+00  0.0000000000000E+00  0.6619101866702E+00
 0.1549351551859E+00 -0.2366833411097E+00  0.0000000000000E+00  0.6240415436661E+00
 0.1386174251364E+00 -0.2246112401552E+00  0.0000000000000E+00  0.5797212091904E+00
 0.1204609554857E+00 -0.2109928619273E+00  0.0000000000000E+00  0.5285233247367E+00
 0.1002702827020E+00 -0.1956459534224E+00  0.0000000000000E+00  0.4700954938662E+00
 0.7783621922187E-01 -0.1783737411171E+00  0.0000000000000E+00  0.4041782039615E+00
 0.5294195997409E-01 -0.1589708240000E+00  0.0000000000000E+00  0.3306194707578E+00
 0.2537139787758E-01 -0.1372315296012E+00  0.0000000000000E+00  0.2493798073574E+00
-0.5078998811900E-02 -0.1129616716031E+00  0.0000000000000E+00  0.1605180845601E+00
-0.3857299717420E-01 -0.8600303143403E-01  0.0000000000000E+00  0.6415121176366E-01
 0.2444564827955E+00 -0.2942129460697E+00  0.0000000000000E+00  0.8027802055570E+00
 0.2390195498431E+00 -0.2905972843531E+00  0.0000000000000E+00  0.8032768771653E+00
 0.2330674793312E+00 -0.2866115752926E+00  0.0000000000000E+00  0.8019183789593E+00
 0.2265262046338E+00 -0.2821906022275E+00  0.0000000000000E+00  0.7984092317160E+00
 0.2193222671355E+00 -0.2772707769245E+00  0.0000000000000E+00  0.7923765428464E+00
 0.2113866076662E+00 -0.2717937192368E+00  0.0000000000000E+00  0.7833872161970E+00
 0.2026526108348E+00 -0.2657042164599E+00  0.0000000000000E+00  0.7709618309164E+00
 0.1930516431121E+00 -0.2589457412435E+00  0.0000000000000E+00  0.7545845018976E+00
 0.1825077819277E+00 -0.2514551837442E+00  0.0000000000000E+00  0.7337109758404E+00
 0.1709323802431E+00 -0.2431574167291E+00  0.0000000000000E+00  0.7077773075366E+00
 0.1582186840434E+00 -0.2339598885343E+00  0.0000000000000E+00  0.6762108841525E+00
 0.1442366943496E+00 -0.2237474119327E+00  0.0000000000000E+00  0.6384449488590E+00
 0.1288286661896E+00 -0.2123775173122E+00  0.0000000000000E+00  0.5939371903929E+00
 0.1118059472580E+00 -0.1996770522286E+00  0.0000000000000E+00  0.5421922991419E+00
 0.9294816894328E-01 -0.1854410325002E+00  0.0000000000000E+00  0.4827874897173E+00
 0.7200599374566E-01 -0.1694349586464E+00  0.0000000000000E+00  0.4153987535669E+00
 0.4870857258746E-01 -0.1514017941742E+00  0.0000000000000E+00  0.3398240981310E+00
 0.2277689337852E-01 -0.1310747238124E+00  0.0000000000000E+00  0.2559985071055E+00
-0.6054686723179E-02 -0.1081975964120E+00  0.0000000000000E+00  0.1639965591297E+00
-0.3800631109147E-01 -0.8255549721840E-01  0.0000000000000E+00  0.6402967461529E-01
 0.2357091798053E+00 -0.2846920606260E+00  0.0000000000000E+00  0.8081600266345E+00
 0.2295394176435E+00 -0.2802406969572E+00  0.0000000000000E+00  0.8094423548992E+00
 0.2228696951735E+00 -0.2754234556555E+00  0.0000000000000E+00  0.8088669008117E+00
 0.2156538971003E+00 -0.2702019532587E+00  0.0000000000000E+00  0.8061356475976E+00
 0.2078470116168E+00 -0.2645398683596E+00  0.0000000000000E+00  0.8008796658497E+00
 0.1994082344110E+00 -0.2584059222541E+00  0.0000000000000E+00  0.7926696107008E+00
 0.1902993384416E+00 -0.2517722292076E+00  0.0000000000000E+00  0.7810248931058E+00
 0.1804804302142E+00 -0.2446100956449E+00  0.0000000000000E+00  0.7654205148477E+00
 0.1699042997158E+00 -0.2368844455657E+00  0.0000000000000E+00  0.7452929326821E+00
 0.1585098595441E+00 -0.2285473453084E+00  0.0000000000000E+00  0.7200467362378E+00
 0.1462148674632E+00 -0.2195307988461E+00  0.0000000000000E+00  0.6890637950476E+00
 0.1329081491732E+00 -0.2097390005064E+00  0.0000000000000E+00  0.6517163280752E+00
 0.1184418014445E+00 -0.1990404856185E+00  0.0000000000000E+00  0.6073851352892E+00
 0.1026243062203E+00 -0.1872610623490E+00  0.0000000000000E+00  0.5554838706808E+00
 0.8521605688377E-01 -0.1741789792248E+00  0.0000000000000E+00  0.4954894805020E+00
 0.6592934327111E-01 -0.1595243490841E+00  0.0000000000000E+00  0.4269775207162E+00
 0.4443514172181E-01 -0.1429851724950E+00  0.0000000000000E+00  0.3496589853404E+00
 0.2037885280096E-01 -0.1242221131241E+00  0.0000000000000E+00  0.2634134749254E+00
-0.6594282507209E-02 -0.1028928835264E+00  0.0000000000000E+00  0.1683145120842E+00
-0.3680719401751E-01 -0.7868347533213E-01  0.0000000000000E+00  0.6464793319142E-01
 0.2267791236602E+00 -0.2749313555087E+00  0.0000000000000E+00  0.8120041162499E+00
 0.2198536736734E+00 -0.2696067452038E+00  0.0000000000000E+00  0.8138833211467E+00
 0.2124383414240E+00 -0.2639128765803E+00  0.0000000000000E+00  0.8139192119945E+00
 0.2045120870569E+00 -0.2578350953813E+00  0.0000000000000E+00  0.8118174522340E+00
 0.1960567183617E+00 -0.2513624527295E+00  0.0000000000000E+00  0.8072191228707E+00
 0.1870594518455E+00 -0.2444902207011E+00  0.0000000000000E+00  0.7997058918974E+00
 0.1775115082014E+00 -0.2372185282772E+00  0.0000000000000E+00  0.7888047950448E+00
 0.1674040947363E+00 -0.2295484508100E+00  0.0000000000000E+00  0.7739915274544E+00
 0.1567225644303E+00 -0.2214763229591E+00  0.0000000000000E+00  0.7546930232793E+00
 0.1454390291658E+00 -0.2129865373565E+00  0.0000000000000E+00  0.7302906837862E+00
 0.1335034641626E+00 -0.2040428472541E+00  0.0000000000000E+00  0.7001258177958E+00
 0.1208333620046E+00 -0.1945782015411E+00  0.0000000000000E+00  0.6635090518041E+00
 0.1073022683609E+00 -0.1844833951917E+00  0.0000000000000E+00  0.6197357265177E+00
 0.9272808528834E-01 -0.1735953465566E+00  0.0000000000000E+00  0.5681095011595E+00
 0.7686288902939E-01 -0.1616866532223E+00  0.0000000000000E+00  0.5079761991300E+00
 0.5938709813083E-01 -0.1484591688957E+00  0.0000000000000E+00  0.4387687833533E+00
 0.3991177111750E-01 -0.1335453458516E+00  0.0000000000000E+00  0.3600617146220E+00
 0.1799273466710E-01 -0.1165211500382E+00  0.0000000000000E+00  0.2716290384554E+00
-0.6842101241729E-02 -0.9693222216669E-01  0.0000000000000E+00  0.1734967953827E+00
-0.3505608340422E-01 -0.7432987118148E-01  0.0000000000000E+00  0.6597900831070E-01
 0.2177159600646E+00 -0.2649862275796E+00  0.0000000000000E+00  0.8143010642299E+00
 0.2100169798839E+00 -0.2587578661775E+00  0.0000000000000E+00  0.8165702748732E+00
 0.2018320981807E+00 -0.2521486876653E+00  0.0000000000000E+00  0.8170202056345E+00
 0.1931619968305E+00 -0.2451641841947E+00  0.0000000000000E+00  0.8153663803815E+00
 0.1840127747323E+00 -0.2378159820494E+00  0.0000000000000E+00  0.8112664087880E+00
 0.1743981932462E+00 -0.2301240940567E+00  0.0000000000000E+00  0.8043209233317E+00
 0.1643385852134E+00 -0.2221159197042E+00  0.0000000000000E+00  0.7940744236433E+00
 0.1538572659658E+00 -0.2138228194783E+00  0.0000000000000E+00  0.7800148822242E+00
 0.1429748884780E+00 -0.2052746979175E+00  0.0000000000000E+00  0.7615724140067E+00
 0.1317017727888E+00 -0.1964926205774E+00  0.0000000000000E+00  0.7381179467862E+00
 0.1200279913383E+00 -0.1874792391471E+00  0.0000000000000E+00  0.7089632496062E+00
 0.1079109346519E+00 -0.1782067302609E+00  0.0000000000000E+00  0.6733642003176E+00
 0.9526025420571E-01 -0.1686021017131E+00  0.0000000000000E+00  0.6305299401171E+00
 0.8192058781470E-01 -0.1585301864226E+00  0.0000000000000E+00  0.5796415605407E+00
 0.6765350512193E-01 -0.1477756150727E+00  0.0000000000000E+00  0.5198849275318E+00
 0.5212183374119E-01 -0.1360267349717E+00  0.0000000000000E+00  0.4505023388256E+00
 0.3488173200894E-01 -0.1228666795613E+00  0.0000000000000E+00  0.3708653608898E+00
 0.1538941694400E-01 -0.1077785455196E+00  0.0000000000000E+00  0.2805646235830E+00
-0.6971804645394E-02 -0.9017068840824E-01  0.0000000000000E+00  0.1795016761493E+00
-0.3284456650483E-01 -0.6942248847673E-01  0.0000000000000E+00  0.6795734221578E-01
 0.2085729325510E+00 -0.2549157722918E+00  0.0000000000000E+00  0.8150461816025E+00
 0.2000897903609E+00 -0.2477624316988E+00  0.0000000000000E+00  0.8174829213538E+00
 0.1911181378745E+00 -0.2402084498228E+00  0.0000000000000E+00  0.8181260229463E+00
 0.1816765725014E+00 -0.2322754627619E+00  0.0000000000000E+00  0.8167063727593E+00
 0.1717921145402E+00 -0.2239940490467E+00  0.0000000000000E+00  0.8129042234052E+00
 0.1615023551693E+00 -0.2154059196643E+00  0.0000000000000E+00  0.8063469170618E+00
 0.1508548569800E+00 -0.2065634415632E+00  0.0000000000000E+00  0.7966064675158E+00
 0.1399043034673E+00 -0.1975269891141E+00  0.0000000000000E+00  0.7831957679758E+00
 0.1287075784049E+00 -0.1883603064345E+00  0.0000000000000E+00  0.7655632743200E+00
 0.1173165775079E+00 -0.1791236917394E+00  0.0000000000000E+00  0.7430865890838E+00
 0.1057682452092E+00 -0.1698645070152E+00  0.0000000000000E+00  0.7150658591404E+00
 0.9407111429501E-01 -0.1606042963710E+00  0.0000000000000E+00  0.6807185989395E+00
 0.8218755083078E-01 -0.1513217027493E+00  0.0000000000000E+00  0.6391786974344E+00
 0.7001111172861E-01 -0.1419305322316E+00  0.0000000000000E+00  0.5895041694473E+00
 0.5733923033490E-01 -0.1322530300311E+00  0.0000000000000E+00  0.5307007581045E+00
 0.4384347650384E-01 -0.1219902947714E+00  0.0000000000000E+00  0.4617713108313E+00
 0.2904353622912E-01 -0.1106955457008E+00  0.0000000000000E+00  0.3818015579734E+00
 0.1229630760300E-01 -0.9776131960635E-01  0.0000000000000E+00  0.2900864885231E+00
-0.7185294315573E-02 -0.8243548918111E-01  0.0000000000000E+00  0.1862829524153E+00
-0.3027367816536E-01 -0.6387713739857E-01  0.0000000000000E+00  0.7054698428811E-01
 0.1994066265763E+00 -0.2447824545905E+00  0.0000000000000E+00  0.8142421510907E+00
 0.1901383280991E+00 -0.2366945926024E+00  0.0000000000000E+00  0.8166113396091E+00
 0.1803724508516E+00 -0.2281785806969E+00  0.0000000000000E+00  0.8172063381299E+00
 0.1701414186945E+00 -0.2192679582321E+00  0.0000000000000E+00  0.8157775844302E+00
 0.1594891061365E+00 -0.2100079791279E+00  0.0000000000000E+00  0.8120328061346E+00
 0.1484730665193E+00 -0.2004578934710E+00  0.0000000000000E+00  0.8056325711226E+00
 0.1371646014798E+00 -0.1906911495527E+00  0.0000000000000E+00  0.7961855030409E+00
 0.1256469653163E+00 -0.1807938090640E+00  0.0000000000000E+00  0.7832418241294E+00
 0.1140117311243E+00 -0.1708612158455E+00  0.0000000000000E+00  0.7662846277409E+00
 0.1023529767030E+00 -0.1609925979861E+00  0.0000000000000E+00  0.7447186815736E+00
 0.9075855506072E-01 -0.1512828993163E+00  0.0000000000000E+00  0.7178569391333E+00
 0.7929729937714E-01 -0.1418107298414E+00  0.0000000000000E+00  0.6849055596932E+00
 0.6800057284266E-01 -0.1326208878091E+00  0.0000000000000E+00  0.6449494161315E+00
 0.5683618455663E-01 -0.1236994978790E+00  0.0000000000000E+00  0.5969422673120E+00
 0.4567265309483E-01 -0.1149396918648E+00  0.0000000000000E+00  0.5397096662041E+00
 0.3423295165928E-01 -0.1060966872785E+00  0.0000000000000E+00  0.4719790414009E+00
 0.2204138284749E-01 -0.9673506061532E-01  0.0000000000000E+00  0.3924597933797E+00
 0.8377659492069E-02 -0.8618116313168E-01  0.0000000000000E+00  0.2999990225416E+00
-0.7733522198912E-02 -0.7350835148623E-01  0.0000000000000E+00  0.1938186540624E+00
-0.2746390667760E-01 -0.5759006336484E-01  0.0000000000000E+00  0.7378530500628E-01
 0.1902764180584E+00 -0.2346514885343E+00  0.0000000000000E+00  0.8119001130173E+00
 0.1802340441329E+00 -0.2256336555292E+00  0.0000000000000E+00  0.8139578725804E+00
 0.1696794930938E+00 -0.2161538946216E+00  0.0000000000000E+00  0.8142476568098E+00
 0.1586548865412E+00 -0.2062534374746E+00  0.0000000000000E+00  0.8125417436115E+00
 0.1472164289256E+00 -0.1959875450561E+00  0.0000000000000E+00  0.8085780741073E+00
 0.1354368388975E+00 -0.1854279936485E+00  0.0000000000000E+00  0.8020546700589E+00
 0.1234061887942E+00 -0.1746640235401E+00  0.0000000000000E+00  0.7926234949284E+00
 0.1112313635610E+00 -0.1638019787924E+00  0.0000000000000E+00  0.7798824366860E+00
 0.9903415742312E-01 -0.1529636757470E+00  0.0000000000000E+00  0.7633644060377E+00
 0.8694766116600E-01 -0.1422831833434E+00  0.0000000000000E+00  0.7425226649247E+00
 0.7511014115046E-01 -0.1319012639114E+00  0.0000000000000E+00  0.7167116047439E+00
 0.6365503091208E-01 -0.1219561674214E+00  0.0000000000000E+00  0.6851624516249E+00
 0.5269485481459E-01 -0.1125687040993E+00  0.0000000000000E+00  0.6469540774679E+00
 0.4229578040679E-01 -0.1038184378179E+00  0.0000000000000E+00  0.6009808049693E+00
 0.3243805006496E-01 -0.9570641413212E-01  0.0000000000000E+00  0.5459229828495E+00
 0.2295621303635E-01 -0.8809841745262E-01  0.0000000000000E+00  0.4802344483286E+00
 0.1345394352609E-01 -0.8064305642243E-01  0.0000000000000E+00  0.4021780730983E+00
 0.3199761651860E-02 -0.7266816051380E-01  0.0000000000000E+00  0.3099690348519E+00
-0.8957578005003E-02 -0.6309096143515E-01  0.0000000000000E+00  0.2020955523715E+00
-0.2457506352531E-01 -0.5042084170370E-01  0.0000000000000E+00  0.7781319340221E-01
 0.1812437899456E+00 -0.2245900843780E+00  0.0000000000000E+00  0.8080402114688E+00
 0.1704527428220E+00 -0.2146631142827E+00  0.0000000000000E+00  0.8095386811113E+00
 0.1591313049596E+00 -0.2042366234275E+00  0.0000000000000E+00  0.8092565917507E+00
 0.1473273896030E+00 -0.1933555983437E+00  0.0000000000000E+00  0.8069878939176E+00
 0.1351048717992E+00 -0.1820806047084E+00  0.0000000000000E+00  0.8025008314666E+00
 0.1225463328701E+00 -0.1704905448082E+00  0.0000000000000E+00  0.7955319224605E+00
 0.1097545959235E+00 -0.1586842428965E+00  0.0000000000000E+00  0.7857793907373E+00
 0.9685340421770E-01 -0.1467812320517E+00  0.0000000000000E+00  0.7728948824272E+00
 0.8398740020958E-01 -0.1349219155444E+00  0.0000000000000E+00  0.7564721185244E+00
 0.7132121439948E-01 -0.1232669414460E+00  0.0000000000000E+00  0.7360309801251E+00
 0.5903703593389E-01 -0.1119952136220E+00  0.0000000000000E+00  0.7109952780950E+00
 0.4732941943761E-01 -0.1012993798812E+00  0.0000000000000E+00  0.6806621459713E+00
 0.3639510232736E-01 -0.9137671772369E-01  0.0000000000000E+00  0.6441607426936E+00
 0.2641396189588E-01 -0.8241179359390E-01  0.0000000000000E+00  0.6003981330288E+00
 0.1751442767087E-01 -0.7454463506949E-01  0.0000000000000E+00  0.5479918300399E+00
 0.9712033250635E-02 -0.6781374878850E-01  0.0000000000000E+00  0.4851943452023E+00
 0.2802856481107E-02 -0.6205666272999E-01  0.0000000000000E+00  0.4098323047525E+00
-0.3811540177569E-02 -0.5674424907152E-01  0.0000000000000E+00  0.3193330526419E+00
-0.1135625326935E-01 -0.5074845734189E-01  0.0000000000000E+00  0.2110221471797E+00
-0.2184219694140E-01 -0.4216294434563E-01  0.0000000000000E+00  0.8290420357300E-01
 0.1723705696618E+00 -0.2146657388937E+00  0.0000000000000E+00  0.8026935751603E+00
 0.1608720164737E+00 -0.2038682832814E+00  0.0000000000000E+00  0.8033879250743E+00
 0.1488243112384E+00 -0.1925334755909E+00  0.0000000000000E+00  0.8022663080855E+00
 0.1362775482089E+00 -0.1807065186742E+00  0.0000000000000E+00  0.7991417802208E+00
 0.1232989491676E+00 -0.1684490535449E+00  0.0000000000000E+00  0.7938102530215E+00
 0.1099758216900E+00 -0.1558420344396E+00  0.0000000000000E+00  0.7860440501113E+00
 0.9641748033969E-01 -0.1429876154589E+00  0.0000000000000E+00  0.7755855751230E+00
 0.8275680962243E-01 -0.1300107128965E+00  0.0000000000000E+00  0.7621399330436E+00
 0.6915185308309E-01 -0.1170606324226E+00  0.0000000000000E+00  0.7453649477847E+00
 0.5578751985428E-01 -0.1043128696179E+00  0.0000000000000E+00  0.7248566927806E+00
 0.4287717345187E-01 -0.9197088497693E-01  0.0000000000000E+00  0.7001281243014E+00
 0.3066340135805E-01 -0.8026722077857E-01  0.0000000000000E+00  0.6705775350730E+00
 0.1941644818516E-01 -0.6946257220926E-01  0.0000000000000E+00  0.6354421952946E+00
 0.9427221537102E-02 -0.5983997631139E-01  0.0000000000000E+00  0.5937305989463E+00
 0.9886316796823E-03 -0.5168838269541E-01  0.0000000000000E+00  0.5441242494969E+00
-0.5647586967113E-02 -0.4526386695210E-01  0.0000000000000E+00  0.4848378152501E+00
-0.1036512895808E-01 -0.4070409881112E-01  0.0000000000000E+00  0.4134297590933E+00
-0.1338604129194E-01 -0.3784434339123E-01  0.0000000000000E+00  0.3265825008733E+00
-0.1568907379421E-01 -0.3583272852846E-01  0.0000000000000E+00  0.2200351216454E+00
-0.1961940089373E-01 -0.3250952586073E-01  0.0000000000000E+00  0.8934361776410E-01
 0.1637151545303E+00 -0.2049429470077E+00  0.0000000000000E+00  0.7959085198774E+00
 0.1515656561464E+00 -0.1933313329088E+00  0.0000000000000E+00  0.7955662989995E+00
 0.1388513102292E+00 -0.1811483431484E+00  0.0000000000000E+00  0.7933467720471E+00
 0.1256213983813E+00 -0.1684366600534E+00  0.0000000000000E+00  0.7890782731140E+00
 0.1119431818417E+00 -0.1552559364149E+00  0.0000000000000E+00  0.7825793756328E+00
 0.9790464587216E-01 -0.1416853800989E+00  0.0000000000000E+00  0.7736517797144E+00
 0.8361633829037E-01 -0.1278254622198E+00  0.0000000000000E+00  0.7620744389533E+00
 0.6921323201691E-01 -0.1137996513552E+00  0.0000000000000E+00  0.7475977152407E+00
 0.5485723360902E-01 -0.9975678207707E-01  0.0000000000000E+00  0.7299359893652E+00
 0.4074073914030E-01 -0.8587445411146E-01  0.0000000000000E+00  0.7087568226723E+00
 0.2709149000330E-01 -0.7236371783660E-01  0.0000000000000E+00  0.6836641777898E+00
 0.1417882643161E-01 -0.5947516056120E-01  0.0000000000000E+00  0.6541720843883E+00
 0.2321131435780E-02 -0.4750623273358E-01  0.0000000000000E+00  0.6196631017302E+00
-0.8106486563562E-02 -0.3680897614284E-01  0.0000000000000E+00  0.5793223253085E+00
-0.1666711658198E-01 -0.2779561046707E-01  0.0000000000000E+00  0.5320312888427E+00
-0.2286715925780E-01 -0.2093511970366E-01  0.0000000000000E+00  0.4761946127384E+00
-0.2619245604850E-01 -0.1672243581002E-01  0.0000000000000E+00  0.4094516347393E+00
-0.2623128889941E-01 -0.1556997767670E-01  0.0000000000000E+00  0.3281914148139E+00
-0.2307803910331E-01 -0.1746195062714E-01  0.0000000000000E+00  0.2267557711580E+00
-0.1854670369867E-01 -0.2089192930305E-01  0.0000000000000E+00  0.9680663407789E-01
 0.1553330309206E+00 -0.1954828128096E+00  0.0000000000000E+00  0.7877442182152E+00
 0.1426039038504E+00 -0.1831301237492E+00  0.0000000000000E+00  0.7861507575937E+00
 0.1293007754242E+00 -0.1701797664522E+00  0.0000000000000E+00  0.7825923516534E+00
 0.1154704040526E+00 -0.1566705550366E+00  0.0000000000000E+00  0.7769083737972E+00
 0.1011784133862E+00 -0.1426588627596E+00  0.0000000000000E+00  0.7689337064864E+00
 0.8651143576258E-01 -0.1282205546463E+00  0.0000000000000E+00  0.7584905153111E+00
 0.7157839987927E-01 -0.1134520614844E+00  0.0000000000000E+00  0.7453824044368E+00
 0.5651205548524E-01 -0.9847165717438E-01  0.0000000000000E+00  0.7293898231989E+00
 0.4147153242246E-01 -0.8342170472591E-01  0.0000000000000E+00  0.7102652259631E+00
 0.2664655353502E-01 -0.6847245827880E-01  0.0000000000000E+00  0.6877263195561E+00
 0.1226393054502E-01 -0.5382801032189E-01  0.0000000000000E+00  0.6614453740377E+00
-0.1402849915321E-02 -0.3973513588522E-01  0.0000000000000E+00  0.6310317003607E+00
-0.1401980853035E-01 -0.2649609332525E-01  0.0000000000000E+00  0.5960025653181E+00
-0.2517280026846E-01 -0.1448688368852E-01  0.0000000000000E+00  0.5557341606871E+00
-0.3433977273470E-01 -0.4182990466552E-02  0.0000000000000E+00  0.5093768807906E+00
-0.4085245026233E-01  0.3805110449502E-02  0.0000000000000E+00  0.4557037549945E+00
-0.4384609165756E-01  0.8685702631863E-02  0.0000000000000E+00  0.3928258023358E+00
-0.4220843049352E-01  0.9437863174873E-02  0.0000000000000E+00  0.3176233581454E+00
-0.3458250509364E-01  0.4815812263118E-02  0.0000000000000E+00  0.2244831835903E+00
-0.2011471730973E-01 -0.6103303259769E-02  0.0000000000000E+00  0.1021494168720E+00
 0.1472759735328E+00 -0.1863424220139E+00  0.0000000000000E+00  0.7782707369033E+00
 0.1340527184224E+00 -0.1733376248102E+00  0.0000000000000E+00  0.7752353022094E+00
 0.1202560646583E+00 -0.1597202352107E+00  0.0000000000000E+00  0.7701241010552E+00
 0.1059300947018E+00 -0.1455254598055E+00  0.0000000000000E+00  0.7627840139074E+00
 0.9113903554323E-01 -0.1308071305227E+00  0.0000000000000E+00  0.7530604302459E+00
 0.7596872085671E-01 -0.1156389139119E+00  0.0000000000000E+00  0.7407871502211E+00
 0.6052705875946E-01 -0.1001145137573E+00  0.0000000000000E+00  0.7257796371707E+00
 0.4494483131408E-01 -0.8434814513176E-01  0.0000000000000E+00  0.7078305626314E+00
 0.2937774442951E-01 -0.6847615330882E-01  0.0000000000000E+00  0.6867060580502E+00
 0.1401043210021E-01 -0.5266042777523E-01  0.0000000000000E+00  0.6621411039040E+00
-0.9368030950352E-03 -0.3709431880232E-01  0.0000000000000E+00  0.6338324603750E+00
-0.1519733843134E-01 -0.2201211643292E-01  0.0000000000000E+00  0.6014271581965E+00
-0.2844168740397E-01 -0.7703883837715E-02  0.0000000000000E+00  0.5645035046557E+00
-0.4025158111207E-01  0.5461204420451E-02  0.0000000000000E+00  0.5225392167763E+00
-0.5007834317445E-01  0.1699730552152E-01  0.0000000000000E+00  0.4748563207671E+00
-0.5717345641583E-01  0.2623931725975E-01  0.0000000000000E+00  0.4205213808270E+00
-0.6046668677870E-01  0.3223342584618E-01  0.0000000000000E+00  0.3581536602827E+00
-0.5833582068581E-01  0.3353288780469E-01  0.0000000000000E+00  0.2855201297227E+00
-0.4812465413602E-01  0.2777762170015E-01  0.0000000000000E+00  0.1985874418835E+00
-0.2486453151113E-01  0.1067329265198E-01  0.0000000000000E+00  0.8829729897714E-01
 0.1395906383428E+00 -0.1775735220559E+00  0.0000000000000E+00  0.7675697381237E+00
 0.1259716113023E+00 -0.1640199592068E+00  0.0000000000000E+00  0.7629318369489E+00
 0.1117922173999E+00 -0.1498532505877E+00  0.0000000000000E+00  0.7560906945257E+00
 0.9709499634840E-01 -0.1351065957194E+00  0.0000000000000E+00  0.7468990890535E+00
 0.8194476041542E-01 -0.1198338375935E+00  0.0000000000000E+00  0.7352099267910E+00
 0.6642956710550E-01 -0.1041101651927E+00  0.0000000000000E+00  0.7208633441683E+00
 0.5066038465985E-01 -0.8803150398129E-01  0.0000000000000E+00  0.7036782554395E+00
 0.3477121532278E-01 -0.7171430190520E-01  0.0000000000000E+00  0.6834471654000E+00
 0.1892076376252E-01 -0.5529674563504E-01  0.0000000000000E+00  0.6599322768851E+00
 0.3296394565963E-02 -0.3894209259890E-01  0.0000000000000E+00  0.6328611124122E+00
-0.1187880560557E-01 -0.2284485321520E-01  0.0000000000000E+00  0.6019201623724E+00
-0.2633456339465E-01 -0.7240995965613E-02  0.0000000000000E+00  0.5667451706285E+00
-0.3973523726406E-01  0.7575717132846E-02  0.0000000000000E+00  0.5269064807560E+00
-0.5165066458517E-01  0.2122737304592E-01  0.0000000000000E+00  0.4818873526607E+00
-0.6150797316691E-01  0.3320814838332E-01  0.0000000000000E+00  0.4310522731480E+00
-0.6850827664980E-01  0.4280847556729E-01  0.0000000000000E+00  0.3736011308220E+00
-0.7147398407875E-01  0.4897602637613E-01  0.0000000000000E+00  0.3085040281087E+00
-0.6854356744977E-01  0.5003942019557E-01  0.0000000000000E+00  0.2344164178257E+00
-0.5649425960862E-01  0.4309882106644E-01  0.0000000000000E+00  0.1495936400171E+00
-0.2863917242011E-01  0.2223664903481E-01  0.0000000000000E+00  0.5226567023636E-01
 0.1323172434202E+00 -0.1692211974441E+00  0.0000000000000E+00  0.7557340292972E+00
 0.1184114081316E+00 -0.1552341854010E+00  0.0000000000000E+00  0.7493691056209E+00
 0.1039723893064E+00 -0.1406498169614E+00  0.0000000000000E+00  0.7406658809922E+00
 0.8904290866026E-01 -0.1255015021438E+00  0.0000000000000E+00  0.7294844043592E+00
 0.7369133941592E-01 -0.1098466809819E+00  0.0000000000000E+00  0.7156867485640E+00
 0.5801244640467E-01 -0.9376729313534E-01  0.0000000000000E+00  0.6991204276002E+00
 0.4212632766191E-01 -0.7736848163178E-01  0.0000000000000E+00  0.6796082211753E+00
 0.2617809491216E-01 -0.6077799437232E-01  0.0000000000000E+00  0.6569428371776E+00
 0.1033964846013E-01 -0.4414759039179E-01  0.0000000000000E+00  0.6308838940540E+00
-0.5185657828562E-02 -0.2765719990353E-01  0.0000000000000E+00  0.6011552744450E+00
-0.2015464696117E-01 -0.1152259476225E-01  0.0000000000000E+00  0.5674417303690E+00
-0.3427094194233E-01  0.3992210367795E-02  0.0000000000000E+00  0.5293844373271E+00
-0.4716428600505E-01  0.1855565633869E-01  0.0000000000000E+00  0.4865761793861E+00
-0.5835850572711E-01  0.3173858410287E-01  0.0000000000000E+00  0.4385585570666E+00
-0.6722089187816E-01  0.4296653539742E-01  0.0000000000000E+00  0.3848273442069E+00
-0.7287983549094E-01  0.5144178493758E-01  0.0000000000000E+00  0.3248611706050E+00
-0.7408541898314E-01  0.5601082112896E-01  0.0000000000000E+00  0.2582124091937E+00
-0.6896476393119E-01  0.5492899060821E-01  0.0000000000000E+00  0.1847691752172E+00
-0.5455788069775E-01  0.4541284310182E-01  0.0000000000000E+00  0.1055273347804E+00
-0.2618635785967E-01  0.2285943107743E-01  0.0000000000000E+00  0.2551407936458E-01
 0.1254884080099E+00 -0.1613226807702E+00  0.0000000000000E+00  0.7428664440966E+00
 0.1114124244528E+00 -0.1470264772721E+00  0.0000000000000E+00  0.7346906959321E+00
 0.9684505759943E-01 -0.1321656600731E+00  0.0000000000000E+00  0.7240439965947E+00
 0.8183053644670E-01 -0.1167756804699E+00  0.0000000000000E+00  0.7107985595138E+00
 0.6644369564046E-01 -0.1009210808009E+00  0.0000000000000E+00  0.6948324084946E+00
 0.5079041878488E-01 -0.8469568691737E-01  0.0000000000000E+00  0.6760079861081E+00
 0.3500556719835E-01 -0.6822036821710E-01  0.0000000000000E+00  0.6541608123217E+00
 0.1925207258016E-01 -0.5164196286093E-01  0.0000000000000E+00  0.6290956469544E+00
 0.3722831401280E-02 -0.3513496212734E-01  0.0000000000000E+00  0.6005867884898E+00
-0.1135388769982E-01 -0.1890663773390E-01  0.0000000000000E+00  0.5683804414461E+00
-0.2570493220514E-01 -0.3206181318254E-02  0.0000000000000E+00  0.5321986962226E+00
-0.3899769855464E-01  0.1166120981275E-01  0.0000000000000E+00  0.4917463241657E+00
-0.5081887605404E-01  0.2531367237188E-01  0.0000000000000E+00  0.4467236735541E+00
-0.6064389791793E-01  0.3726280805052E-01  0.0000000000000E+00  0.3968523407567E+00
-0.6779326728072E-01  0.4687062777424E-01  0.0000000000000E+00  0.3419267651389E+00
-0.7137073622865E-01  0.5328780692384E-01  0.0000000000000E+00  0.2819183023773E+00
-0.7017929178921E-01  0.5536740332791E-01  0.0000000000000E+00  0.2171883692750E+00
-0.6262198615923E-01  0.5155590250747E-01  0.0000000000000E+00  0.1489353010536E+00
-0.4667243680685E-01  0.3981654878464E-01  0.0000000000000E+00  0.8019347147405E-01
-0.2046329073334E-01  0.1804843691444E-01  0.0000000000000E+00  0.1775318304699E-01
 0.1191281864074E+00 -0.1539064297321E+00  0.0000000000000E+00  0.7290787395519E+00
 0.1050032327273E+00 -0.1394309048820E+00  0.0000000000000E+00  0.7190524743237E+00
 0.9044230273090E-01 -0.1244394983747E+00  0.0000000000000E+00  0.7064338405801E+00
 0.7549108968858E-01 -0.1089701324340E+00  0.0000000000000E+00  0.6911158337667E+00
 0.6023284823631E-01 -0.9309697531384E-01  0.0000000000000E+00  0.6730037284972E+00
 0.4478777264167E-01 -0.7692957022942E-01  0.0000000000000E+00  0.6519869217438E+00
 0.2930893986600E-01 -0.6060869302373E-01  0.0000000000000E+00  0.6279270419991E+00
 0.1398005471443E-01 -0.4430406645419E-01  0.0000000000000E+00  0.6006573502075E+00
-0.9832353032468E-03 -0.2821565730553E-01  0.0000000000000E+00  0.5699884022301E+00
-0.1532814714252E-01 -0.1257884928965E-01  0.0000000000000E+00  0.5357174190574E+00
-0.2875570802428E-01  0.2326516920385E-02  0.0000000000000E+00  0.4976413076888E+00
-0.4090771729243E-01  0.1616307466407E-01  0.0000000000000E+00  0.4555755095575E+00
-0.5134940236528E-01  0.2851841990532E-01  0.0000000000000E+00  0.4093832911009E+00
-0.5954751452125E-01  0.3888270631575E-01  0.0000000000000E+00  0.3590235445912E+00
-0.6484450856932E-01  0.4662156329785E-01  0.0000000000000E+00  0.3046308355802E+00
-0.6643263967237E-01  0.5094719514379E-01  0.0000000000000E+00  0.2466512143671E+00
-0.6334147814018E-01  0.5089893745047E-01  0.0000000000000E+00  0.1860730671478E+00
-0.5448054578120E-01  0.4536952292779E-01  0.0000000000000E+00  0.1248139497160E+00
-0.3887041344507E-01  0.3329913940199E-01  0.0000000000000E+00  0.6628759601562E-01
-0.1622677353746E-01  0.1427611178835E-01  0.0000000000000E+00  0.1569314742510E-01
 0.1132512748888E+00 -0.1469913000221E+00  0.0000000000000E+00  0.7144901455842E+00
 0.9919984853722E-01 -0.1324685992470E+00  0.0000000000000E+00  0.7026188331974E+00
 0.8477885498640E-01 -0.1174920050828E+00  0.0000000000000E+00  0.6880503692421E+00
 0.7003325981796E-01 -0.1021001736998E+00  0.0000000000000E+00  0.6707115294093E+00
 0.5505554950434E-01 -0.8637821506928E-01  0.0000000000000E+00  0.6505497058638E+00
 0.3998197592107E-01 -0.7045365403877E-01  0.0000000000000E+00  0.6274949985834E+00
 0.2498476191147E-01 -0.5448862029657E-01  0.0000000000000E+00  0.6014485603222E+00
 0.1026735759598E-01 -0.3867522002602E-01  0.0000000000000E+00  0.5722869175268E+00
-0.3935736812400E-02 -0.2323553787132E-01  0.0000000000000E+00  0.5398742086525E+00
-0.1735509880457E-01 -0.8425732039004E-02  0.0000000000000E+00  0.5040787631755E+00
-0.2967939036000E-01  0.5456680059632E-02  0.0000000000000E+00  0.4647939325040E+00
-0.4054614356922E-01  0.1806317699488E-01  0.0000000000000E+00  0.4219655367504E+00
-0.4953135984865E-01  0.2898313312825E-01  0.0000000000000E+00  0.3756303325976E+00
-0.5613970135633E-01  0.3773280659574E-01  0.0000000000000E+00  0.3259720972101E+00
-0.5979905019013E-01  0.4374777747067E-01  0.0000000000000E+00  0.2734045313342E+00
-0.5986778954062E-01  0.4638647305544E-01  0.0000000000000E+00  0.2186925080979E+00
-0.5567269472726E-01  0.4496169091152E-01  0.0000000000000E+00  0.1631212296290E+00
-0.4661501112048E-01  0.3883676704859E-01  0.0000000000000E+00  0.1086992354935E+00
-0.3238929559994E-01  0.2764446490431E-01  0.0000000000000E+00  0.5826747693094E-01
-0.1330055723898E-01  0.1161232656162E-01  0.0000000000000E+00  0.1526285697921E-01
 0.1078625582528E+00 -0.1405862202239E+00  0.0000000000000E+00  0.6992264557110E+00
 0.9400556155282E-01 -0.1261476408813E+00  0.0000000000000E+00  0.6855575563672E+00
 0.7985155107305E-01 -0.1113252004415E+00  0.0000000000000E+00  0.6691029761688E+00
 0.6544040795621E-01 -0.9615440759087E-01  0.0000000000000E+00  0.6498429211055E+00
 0.5087427581310E-01 -0.8073223041137E-01  0.0000000000000E+00  0.6277843870895E+00
 0.3630640359010E-01 -0.6520549403111E-01  0.0000000000000E+00  0.6029106463682E+00
 0.2192715828007E-01 -0.4975695611723E-01  0.0000000000000E+00  0.5751719227516E+00
 0.7955724708301E-02 -0.3459729416772E-01  0.0000000000000E+00  0.5444966898192E+00
-0.5362139706213E-02 -0.1996322429720E-01  0.0000000000000E+00  0.5108110941020E+00
-0.1775213855571E-01 -0.6119889233053E-02  0.0000000000000E+00  0.4740616702458E+00
-0.2890726257728E-01  0.6634463309032E-02  0.0000000000000E+00  0.4342410419989E+00
-0.3848322102951E-01  0.1796325479307E-01  0.0000000000000E+00  0.3914186959266E+00
-0.4609541903496E-01  0.2748762767255E-01  0.0000000000000E+00  0.3457801168438E+00
-0.5132022681481E-01  0.3478635457613E-01  0.0000000000000E+00  0.2976780432868E+00
-0.5370511829848E-01  0.3940396720725E-01  0.0000000000000E+00  0.2476990214673E+00
-0.5279543930423E-01  0.4087472035931E-01  0.0000000000000E+00  0.1967450484867E+00
-0.4819014143319E-01  0.3877490976246E-01  0.0000000000000E+00  0.1461191507195E+00
-0.3963912447573E-01  0.3281916733733E-01  0.0000000000000E+00  0.9757291345853E-01
-0.2717644223601E-01  0.2299705310623E-01  0.0000000000000E+00  0.5323440728936E-01
-0.1124507407636E-01  0.9709133798531E-02  0.0000000000000E+00  0.1531795882936E-01
 0.1029572565335E+00 -0.1346905564907E+00  0.0000000000000E+00  0.6834190251068E+00
 0.8941088097636E-01 -0.1204630689074E+00  0.0000000000000E+00  0.6680290939797E+00
 0.7563739597202E-01 -0.1059201945891E+00  0.0000000000000E+00  0.6497745098761E+00
 0.6166711148057E-01 -0.9109066444905E-01  0.0000000000000E+00  0.6287193717070E+00
 0.4761381586618E-01 -0.7608581630156E-01  0.0000000000000E+00  0.6049485095303E+00
 0.3364901929679E-01 -0.6107324109189E-01  0.0000000000000E+00  0.5785063965773E+00
 0.1997929758627E-01 -0.4625442980405E-01  0.0000000000000E+00  0.5493952098544E+00
 0.6833991583829E-02 -0.3185295039518E-01  0.0000000000000E+00  0.5175959905615E+00
-0.5538924702387E-02 -0.1811086187054E-01  0.0000000000000E+00  0.4830956953100E+00
-0.1687251497483E-01 -0.5289613500844E-02  0.0000000000000E+00  0.4459144063443E+00
-0.2687922657994E-01  0.6327686296446E-02  0.0000000000000E+00  0.4061325465835E+00
-0.3525033733739E-01  0.1643500182190E-01  0.0000000000000E+00  0.3639200193795E+00
-0.4165871153059E-01  0.2470523947997E-01  0.0000000000000E+00  0.3195694169121E+00
-0.4576747037636E-01  0.3079779143907E-01  0.0000000000000E+00  0.2735344488061E+00
-0.4724810262495E-01  0.3437527896484E-01  0.0000000000000E+00  0.2264722591356E+00
-0.4581260092285E-01  0.3513424940867E-01  0.0000000000000E+00  0.1792831532839E+00
-0.4126369351479E-01  0.3285469477753E-01  0.0000000000000E+00  0.1331313139404E+00
-0.3356142275655E-01  0.2746748360785E-01  0.0000000000000E+00  0.8941817454616E-01
-0.2289030698422E-01  0.1912488302743E-01  0.0000000000000E+00  0.4967867565631E-01
-0.9681317153218E-02  0.8231409941665E-02  0.0000000000000E+00  0.1539161375708E-01
 0.9852273586871E-01 -0.1292966843504E+00  0.0000000000000E+00  0.6672014049292E+00
 0.8539310926607E-01 -0.1153961451669E+00  0.0000000000000E+00  0.6501644930600E+00
 0.7208866662506E-01 -0.1012313416302E+00  0.0000000000000E+00  0.6301872601085E+00
 0.5863151474794E-01 -0.8682707457512E-01  0.0000000000000E+00  0.6074593005462E+00
 0.4515294723376E-01 -0.7231522726200E-01  0.0000000000000E+00  0.5821582635985E+00
 0.3184543768826E-01 -0.5788691631581E-01  0.0000000000000E+00  0.5543904820369E+00
 0.1892981214794E-01 -0.4376021796324E-01  0.0000000000000E+00  0.5242047918401E+00
 0.6639607898881E-02 -0.3016527878317E-01  0.0000000000000E+00  0.4916276754268E+00
-0.4783728878534E-02 -0.1734024912928E-01  0.0000000000000E+00  0.4566983746016E+00
-0.1509101827041E-01 -0.5531787161625E-02  0.0000000000000E+00  0.4194987697357E+00
-0.2402510360677E-01  0.5004055465997E-02  0.0000000000000E+00  0.3801790487686E+00
-0.3132284122018E-01  0.1400317948147E-01  0.0000000000000E+00  0.3389815879935E+00
-0.3672120812844E-01  0.2119885824274E-01  0.0000000000000E+00  0.2962646436269E+00
-0.3996924689192E-01  0.2633295818323E-01  0.0000000000000E+00  0.2525255014423E+00
-0.4084759438235E-01  0.2917479150409E-01  0.0000000000000E+00  0.2084197950590E+00
-0.3919684657538E-01  0.2954912259403E-01  0.0000000000000E+00  0.1647695742060E+00
-0.3495394975496E-01  0.2737282917701E-01  0.0000000000000E+00  0.1225483479388E+00
-0.2819129252709E-01  0.2269518517846E-01  0.0000000000000E+00  0.8283068096246E-01
-0.1914714866001E-01  0.1572994937779E-01  0.0000000000000E+00  0.4670362611270E-01
-0.8233027796935E-02  0.6860450614257E-02  0.0000000000000E+00  0.1518195394052E-01
 0.9454516360593E-01 -0.1243948801125E+00  0.0000000000000E+00  0.6506943662779E+00
 0.8191980368237E-01 -0.1109147147896E+00  0.0000000000000E+00  0.6320434008013E+00
 0.6913720014161E-01 -0.9718791940431E-01  0.0000000000000E+00  0.6103883062511E+00
 0.5622364089230E-01 -0.8324803566132E-01  0.0000000000000E+00  0.5860871117942E+00
 0.4333928886297E-01 -0.6925923407328E-01  0.0000000000000E+00  0.5594178770936E+00
 0.3070233587741E-01 -0.5544074284613E-01  0.0000000000000E+00  0.5305390286150E+00
 0.1854593690055E-01 -0.4202488540716E-01  0.0000000000000E+00  0.4995320618178E+00
 0.7101688770073E-02 -0.2924168065722E-01  0.0000000000000E+00  0.4664557316349E+00
-0.3403446016552E-02 -0.1731672648514E-01  0.0000000000000E+00  0.4313892100796E+00
-0.1274603067849E-01 -0.6473088553045E-02  0.0000000000000E+00  0.3944622651481E+00
-0.2070591769256E-01  0.3067863174448E-02  0.0000000000000E+00  0.3558765037051E+00
-0.2706924733825E-01  0.1108895500107E-01  0.0000000000000E+00  0.3159216222365E+00
-0.3163575315037E-01  0.1738409304809E-01  0.0000000000000E+00  0.2749884887502E+00
-0.3423090217427E-01  0.2177006817549E-01  0.0000000000000E+00  0.2335783563680E+00
-0.3472291891342E-01  0.2410343945226E-01  0.0000000000000E+00  0.1923049978409E+00
-0.3304382159853E-01  0.2430174977010E-01  0.0000000000000E+00  0.1518843383888E+00
-0.2921187955915E-01  0.2236664587160E-01  0.0000000000000E+00  0.1131054007387E+00
-0.2335111061006E-01  0.1840431923919E-01  0.0000000000000E+00  0.7677886104890E-01
-0.1570312532924E-01  0.1263813496984E-01  0.0000000000000E+00  0.4366808755262E-01
-0.6641624921610E-02  0.5420035112245E-02  0.0000000000000E+00  0.1441847907340E-01
 0.9102144813653E-01 -0.1199790959062E+00  0.0000000000000E+00  0.6339965219401E+00
 0.7896925285813E-01 -0.1069921821315E+00  0.0000000000000E+00  0.6137311575784E+00
 0.6673224935848E-01 -0.9373189105402E-01  0.0000000000000E+00  0.5904346485763E+00
 0.5436312294270E-01 -0.8026419428233E-01  0.0000000000000E+00  0.5646759214076E+00
 0.4206895789652E-01 -0.6680364624822E-01  0.0000000000000E+00  0.5368259054833E+00
 0.3009886727142E-01 -0.5360232198113E-01  0.0000000000000E+00  0.5070704043599E+00
 0.1869428104208E-01 -0.4090200729233E-01  0.0000000000000E+00  0.4754999941902E+00
 0.8076721700030E-02 -0.2892361327449E-01  0.0000000000000E+00  0.4421881218523E+00
-0.1549804027947E-02 -0.1787089700569E-01  0.0000000000000E+00  0.4072400785280E+00
-0.9994411385449E-02 -0.7935670156868E-02  0.0000000000000E+00  0.3708194685162E+00
-0.1707800891221E-01  0.7003540627615E-03  0.0000000000000E+00  0.3331617987774E+00
-0.2263631600903E-01  0.7868295467634E-02  0.0000000000000E+00  0.2945815620348E+00
-0.2652704477310E-01  0.1341912679276E-01  0.0000000000000E+00  0.2554752433883E+00
-0.2864059014679E-01  0.1723434025955E-01  0.0000000000000E+00  0.2163197202876E+00
-0.2891318816864E-01  0.1923925669911E-01  0.0000000000000E+00  0.1776637983691E+00
-0.2734065745599E-01  0.1941722848125E-01  0.0000000000000E+00  0.1401099651939E+00
-0.2399005489150E-01  0.1782197203141E-01  0.0000000000000E+00  0.1042836707316E+00
-0.1900602146314E-01  0.1458496038705E-01  0.0000000000000E+00  0.7078945583701E-01
-0.1261121389477E-01  0.9916514106969E-02  0.0000000000000E+00  0.4015464847269E-01
-0.5100107627520E-02  0.4104543960729E-02  0.0000000000000E+00  0.1274681477915E-01
 0.8795365065373E-01 -0.1160540265542E+00  0.0000000000000E+00  0.6172065623899E+00
 0.7653145472171E-01 -0.1036185937153E+00  0.0000000000000E+00  0.5953089915505E+00
 0.6483764585433E-01 -0.9082536915543E-01  0.0000000000000E+00  0.5704319924413E+00
 0.5299374926136E-01 -0.7781682921586E-01  0.0000000000000E+00  0.5433911895346E+00
 0.4127716562972E-01 -0.6488114303832E-01  0.0000000000000E+00  0.5146133539895E+00
 0.2996899589456E-01 -0.5230341540515E-01  0.0000000000000E+00  0.4842655048808E+00
 0.1930869586332E-01 -0.4032331890498E-01  0.0000000000000E+00  0.4524156526100E+00
 0.9495666083868E-02 -0.2913957870484E-01  0.0000000000000E+00  0.4191345758431E+00
 0.7016957197834E-03 -0.1892393494396E-01  0.0000000000000E+00  0.3845430222215E+00
-0.6920051103133E-02 -0.9831059649730E-02  0.0000000000000E+00  0.3488276696867E+00
-0.1323255540544E-01 -0.2001259816378E-02  0.0000000000000E+00  0.3122436571096E+00
-0.1811781327274E-01  0.4442349453191E-02  0.0000000000000E+00  0.2751122365813E+00
-0.2148334398057E-01  0.9400438492862E-02  0.0000000000000E+00  0.2378155957581E+00
-0.2327086403542E-01  0.1280630877968E-01  0.0000000000000E+00  0.2007882613932E+00
-0.2346558749013E-01  0.1463551553940E-01  0.0000000000000E+00  0.1645036606858E+00
-0.2210441912591E-01  0.1491444961340E-01  0.0000000000000E+00  0.1294547826210E+00
-0.1928011186481E-01  0.1372536045713E-01  0.0000000000000E+00  0.9612907029820E-01
-0.1513923143522E-01  0.1120494790359E-01  0.0000000000000E+00  0.6497636641928E-01
-0.9871178176193E-02  0.7535429225964E-02  0.0000000000000E+00  0.3636793408866E-01
-0.3685077646834E-02  0.2922312361757E-02  0.0000000000000E+00  0.1054289375952E-01
 0.8534446632284E-01 -0.1126267251257E+00  0.0000000000000E+00  0.6004093578576E+00
 0.7457850490626E-01 -0.1007662143939E+00  0.0000000000000E+00  0.5768266377802E+00
 0.6338673513105E-01 -0.8839913108647E-01  0.0000000000000E+00  0.5504788345026E+00
 0.5203227748100E-01 -0.7581928784044E-01  0.0000000000000E+00  0.5224214522657E+00
 0.4088508430217E-01 -0.6341037033122E-01  0.0000000000000E+00  0.4930441085948E+00
 0.3024584439714E-01 -0.5147551243536E-01  0.0000000000000E+00  0.4624257650368E+00
 0.2033104155991E-01 -0.4022964343401E-01  0.0000000000000E+00  0.4305815409029E+00
 0.1130204584597E-01 -0.2983177272042E-01  0.0000000000000E+00  0.3975731895751E+00
 0.3290680316456E-02 -0.2041330455398E-01  0.0000000000000E+00  0.3635361444482E+00
-0.3589113649138E-02 -0.1208977205812E-01  0.0000000000000E+00  0.3286757166252E+00
-0.9239406093082E-02 -0.4962615981495E-02  0.0000000000000E+00  0.2932574031644E+00
-0.1358163709445E-01  0.8844596170920E-03  0.0000000000000E+00  0.2575968382927E+00
-0.1656249403752E-01  0.5391639983970E-02  0.0000000000000E+00  0.2220495439129E+00
-0.1816059388217E-01  0.8529989888536E-02  0.0000000000000E+00  0.1869990699286E+00
-0.1839273764638E-01  0.1030800614183E-01  0.0000000000000E+00  0.1528425523416E+00
-0.1731819655960E-01  0.1077638680044E-01  0.0000000000000E+00  0.1199737550591E+00
-0.1504028765201E-01  0.1002952065228E-01  0.0000000000000E+00  0.8876552958596E-01
-0.1169918961136E-01  0.8200205365698E-02  0.0000000000000E+00  0.5955617257329E-01
-0.7455031848361E-02  0.5442155550637E-02  0.0000000000000E+00  0.3263111022678E-01
-0.2458264638895E-02  0.1902721329235E-02  0.0000000000000E+00  0.8205222692342E-02
 0.8319520448651E-01 -0.1097034825007E+00  0.0000000000000E+00  0.5836332933881E+00
 0.7303846765879E-01 -0.9835975088142E-01  0.0000000000000E+00  0.5582736597934E+00
 0.6225638928088E-01 -0.8632157177434E-01  0.0000000000000E+00  0.5306765385283E+00
 0.5135816678258E-01 -0.7414353155824E-01  0.0000000000000E+00  0.5019992820909E+00
 0.4080409956983E-01 -0.6229709622848E-01  0.0000000000000E+00  0.4724182195244E+00
 0.3087138020735E-01 -0.5105794668531E-01  0.0000000000000E+00  0.4418458369552E+00
 0.2171876584659E-01 -0.4057628255537E-01  0.0000000000000E+00  0.4102452433903E+00
 0.1345609817118E-01 -0.3095782782554E-01  0.0000000000000E+00  0.3776899048177E+00
 0.6174194916153E-02 -0.2229231920486E-01  0.0000000000000E+00  0.3443410726939E+00
-0.4780766852797E-04 -0.1466053916146E-01  0.0000000000000E+00  0.3104234845111E+00
-0.5143837729530E-02 -0.8132121885287E-02  0.0000000000000E+00  0.2762070412524E+00
-0.9065449462244E-02 -0.2760471869408E-02  0.0000000000000E+00  0.2419936197878E+00
-0.1178704735657E-01  0.1422885490230E-02  0.0000000000000E+00  0.2081055612899E+00
-0.1331073890482E-01  0.4413494569693E-02  0.0000000000000E+00  0.1748736951482E+00
-0.1367010883178E-01  0.6238095839540E-02  0.0000000000000E+00  0.1426240446306E+00
-0.1293275223815E-01  0.6957200066608E-02  0.0000000000000E+00  0.1116641421901E+00
-0.1119994195791E-01  0.6665576702247E-02  0.0000000000000E+00  0.8227083154160E-01
-0.8608897274926E-02  0.5490994915480E-02  0.0000000000000E+00  0.5468832081366E-01
-0.5310280495176E-02  0.3579793330887E-02  0.0000000000000E+00  0.2915871557738E-01
-0.1434368258733E-02  0.1055584927445E-02  0.0000000000000E+00  0.5922652396480E-02
 0.8148776019119E-01 -0.1072716237045E+00  0.0000000000000E+00  0.5667537383600E+00
 0.7174464125891E-01 -0.9621915805279E-01  0.0000000000000E+00  0.5395896066571E+00
 0.6124346333672E-01 -0.8437235302302E-01  0.0000000000000E+00  0.5112250253159E+00
 0.5083892783930E-01 -0.7264052045100E-01  0.0000000000000E+00  0.4825079401940E+00
 0.4098466389634E-01 -0.6148775739350E-01  0.0000000000000E+00  0.4531130754973E+00
 0.3183699082081E-01 -0.5103998769577E-01  0.0000000000000E+00  0.4228057357475E+00
 0.2347116280680E-01 -0.4136079366943E-01  0.0000000000000E+00  0.3915821572635E+00
 0.1595051867281E-01 -0.3250753885695E-01  0.0000000000000E+00  0.3595695922619E+00
 0.9335773154231E-02 -0.2454014626469E-01  0.0000000000000E+00  0.3269689495728E+00
 0.3682215589762E-02 -0.1751586124230E-01  0.0000000000000E+00  0.2940223717557E+00
-0.9659230339381E-03 -0.1148260421795E-01  0.0000000000000E+00  0.2609968398628E+00
-0.4580463582473E-02 -0.6473272405900E-02  0.0000000000000E+00  0.2281735415894E+00
-0.7153226292523E-02 -0.2501344984308E-02  0.0000000000000E+00  0.1958384594895E+00
-0.8698840624466E-02  0.4422856651960E-03  0.0000000000000E+00  0.1642721809283E+00
-0.9256542974397E-02  0.2391328155464E-02  0.0000000000000E+00  0.1337386820730E+00
-0.8890852969160E-02  0.3405194423845E-02  0.0000000000000E+00  0.1044734112419E+00
-0.7693586716014E-02  0.3569881991974E-02  0.0000000000000E+00  0.7667429762962E-01
-0.5782190425634E-02  0.3000513923637E-02  0.0000000000000E+00  0.5049312038069E-01
-0.3343270471804E-02  0.1860014897817E-02  0.0000000000000E+00  0.2606964019471E-01
-0.5514338024126E-03  0.3289464920195E-03  0.0000000000000E+00  0.3723850474815E-02
 0.8010076875617E-01 -0.1052198325655E+00  0.0000000000000E+00  0.5492254892968E+00
 0.7028449334109E-01 -0.9389728285662E-01  0.0000000000000E+00  0.5207957630175E+00
 0.6008064092260E-01 -0.8222254646164E-01  0.0000000000000E+00  0.4927783065060E+00
 0.5045488876906E-01 -0.7128912341011E-01  0.0000000000000E+00  0.4646079879376E+00
 0.4150565964589E-01 -0.6106139113869E-01  0.0000000000000E+00  0.4355312153039E+00
 0.3322435543336E-01 -0.5150541698362E-01  0.0000000000000E+00  0.4055001351863E+00
 0.2564355194265E-01 -0.4263843036881E-01  0.0000000000000E+00  0.3746474650847E+00
 0.1881251471691E-01 -0.3450602172124E-01  0.0000000000000E+00  0.3431799381475E+00
 0.1278322915902E-01 -0.2716059415063E-01  0.0000000000000E+00  0.3113299118548E+00
 0.7600074567635E-02 -0.2064929475456E-01  0.0000000000000E+00  0.2793421649469E+00
 0.3294480273958E-02 -0.1500747612321E-01  0.0000000000000E+00  0.2474679454121E+00
-0.1180752214291E-03 -0.1025511887740E-01  0.0000000000000E+00  0.2159600346463E+00
-0.2639594262448E-02 -0.6394902637060E-02  0.0000000000000E+00  0.1850664462469E+00
-0.4290084925737E-02 -0.3411395924055E-02  0.0000000000000E+00  0.1550224530172E+00
-0.5107278175724E-02 -0.1271030209562E-02  0.0000000000000E+00  0.1260410628901E+00
-0.5146200089366E-02  0.7741674701744E-04  0.0000000000000E+00  0.9830291476075E-01
-0.4478342143433E-02  0.7034726942701E-03  0.0000000000000E+00  0.7194313546854E-01
-0.3200376403796E-02  0.6977753681845E-03  0.0000000000000E+00  0.4704584341562E-01
-0.1424628450177E-02  0.1942679503291E-03  0.0000000000000E+00  0.2357678886064E-01
 0.3972041783962E-03 -0.4708496857049E-03  0.0000000000000E+00  0.1532106412993E-02
 0.7835494874912E-01 -0.1027971625423E+00  0.0000000000000E+00  0.5288093123483E+00
 0.6787089937062E-01 -0.9030925834959E-01  0.0000000000000E+00  0.5034684314324E+00
 0.5887660366833E-01 -0.8001869393834E-01  0.0000000000000E+00  0.4768840248269E+00
 0.5054519129831E-01 -0.7043922930923E-01  0.0000000000000E+00  0.4489383585323E+00
 0.4263207787547E-01 -0.6129704380759E-01  0.0000000000000E+00  0.4198423363719E+00
 0.3519691250675E-01 -0.5262375587426E-01  0.0000000000000E+00  0.3898827946005E+00
 0.2832120020296E-01 -0.4449647764359E-01  0.0000000000000E+00  0.3593123744027E+00
 0.2208017306172E-01 -0.3699029781415E-01  0.0000000000000E+00  0.3283618912618E+00
 0.1653121615295E-01 -0.3016518937974E-01  0.0000000000000E+00  0.2972527563310E+00
 0.1171368130688E-01 -0.2406416652176E-01  0.0000000000000E+00  0.2662046386476E+00
 0.7649628671444E-02 -0.1871346168232E-01  0.0000000000000E+00  0.2354371357001E+00
 0.4344935690060E-02 -0.1412324326477E-01  0.0000000000000E+00  0.2051675072034E+00
 0.1790545063160E-02 -0.1028859613276E-01  0.0000000000000E+00  0.1756058387299E+00
-0.3593693080481E-04 -0.7190872920252E-02  0.0000000000000E+00  0.1469484862686E+00
-0.1168251123294E-02 -0.4799498076107E-02  0.0000000000000E+00  0.1193703909021E+00
-0.1648991608328E-02 -0.3073954355099E-02  0.0000000000000E+00  0.9301570504248E-01
-0.1527844009140E-02 -0.1966283694627E-02  0.0000000000000E+00  0.6798862701786E-01
-0.8559145401859E-03 -0.1419594691371E-02  0.0000000000000E+00  0.4432504636921E-01
 0.2985726229126E-03 -0.1380539525146E-02  0.0000000000000E+00  0.2200458487141E-01
 0.1986809540519E-02 -0.1700667254451E-02  0.0000000000000E+00  0.3523074615183E-03
</DataArray>
<DataArray type="Float64" Name="S_Centroid" NumberOfComponents="4" ComponentName0="S11" ComponentName1="S22" ComponentName2="S33" ComponentName3="S12" format="ascii">
 0.1488585198752E+01  0.1216197658722E+02  0.2730112397877E+01  0.1444501267344E+01
-0.2224656614926E+00  0.9772380376965E+01  0.1909982971556E+01  0.5067878644104E-01
 0.4172073077385E-01  0.9075171528410E+01  0.1823378479007E+01  0.9567312772848E-01
-0.7389549050079E-02  0.8656555451217E+01  0.1729833206210E+01  0.5899670652533E-01
 0.1975263551443E-02  0.8344410076036E+01  0.1669277092792E+01  0.5023815706292E-01
-0.2791487265070E-03  0.8080969901457E+01  0.1616138174628E+01  0.4513159198328E-01
 0.1255162728260E-03  0.7841238971307E+01  0.1568272920885E+01  0.4284498743650E-01
-0.2872353601990E-04  0.7612879674384E+01  0.1522570212858E+01  0.4188035839665E-01
-0.2474331597879E-04  0.7389361876166E+01  0.1477867448592E+01  0.4167658159635E-01
-0.4393778860989E-04  0.7166959736554E+01  0.1433383181112E+01  0.4190474979816E-01
-0.4824497212264E-04  0.6943538278821E+01  0.1388698027463E+01  0.4237645456694E-01
-0.4925124257671E-04  0.6717916325237E+01  0.1343573434820E+01  0.4296541633154E-01
-0.4217030628317E-04  0.6489607029131E+01  0.1297912991105E+01  0.4356168229995E-01
-0.2741079397151E-04  0.6258815851864E+01  0.1251757706867E+01  0.4402413619603E-01
 0.4325589880194E-04  0.6027008527039E+01  0.1205410374550E+01  0.4401540484653E-01
 0.1086463669538E-02  0.5799066780560E+01  0.1160030666132E+01  0.4095512602625E-01
 0.3755414685167E-02  0.5573420610444E+01  0.1115435221647E+01  0.2854299584138E-01
 0.6243123511857E-02  0.5330736353670E+01  0.1067395911342E+01  0.3432274253064E-02
 0.7249421596886E-02  0.5054927934716E+01  0.1012435486349E+01 -0.2901764247441E-01
 0.7523883740412E-02  0.4747876484428E+01  0.9510800878059E+00 -0.6089244041854E-01
 0.7704972314630E-02  0.4417911021641E+01  0.8851232119804E+00 -0.8765823823746E-01
 0.7982933875872E-02  0.4072730351286E+01  0.8161426691938E+00 -0.1078137656765E+00
 0.8333719758878E-02  0.3717957724718E+01  0.7452583000006E+00 -0.1213831389187E+00
 0.8678949913679E-02  0.3357621267999E+01  0.6732600536149E+00 -0.1289656543783E+00
 0.8945583767221E-02  0.2994858845718E+01  0.6007608948491E+00 -0.1313095513341E+00
 0.9078647722391E-02  0.2632392838706E+01  0.5282943051578E+00 -0.1291340204703E+00
 0.8877260413362E-02  0.2272703395792E+01  0.4563161380408E+00 -0.1228118293821E+00
 0.8123083416692E-02  0.1919785659998E+01  0.3855817544285E+00 -0.1122991068164E+00
 0.6896635738678E-02  0.1580082978394E+01  0.3173959275560E+00 -0.9794000547694E-01
 0.5381920976731E-02  0.1260304818514E+01  0.2531373516701E+00 -0.8090867240192E-01
 0.3717891968454E-02  0.9666374476246E+00  0.1940710708105E+00 -0.6275080377299E-01
 0.2103866616341E-02  0.7055214532885E+00  0.1415250660898E+00 -0.4511067949664E-01
 0.8359736607966E-03  0.4838533731203E+00  0.9693787080070E-01 -0.2980628565465E-01
 0.3820305232860E-03  0.3088826188892E+00  0.6185293080417E-01 -0.1893245367949E-01
 0.1275272336395E-02  0.1877278374745E+00  0.3780062252546E-01 -0.1489127536498E-01
 0.4636681932089E-02  0.1262927883556E+00  0.2618589444775E-01 -0.2017466722465E-01
 0.9089946269407E-02  0.1281110343105E+00  0.2744019652487E-01 -0.3667309859781E-01
 0.2398750019035E-01  0.1958716996318E+00  0.4397184061965E-01 -0.6820911618830E-01
 0.7833932237323E-02  0.3370267355272E+00  0.6897213458067E-01 -0.1114787411466E+00
 0.2032421157942E+00  0.5973510652047E+00  0.1601186385857E+00 -0.2658627184065E+00
-0.6772523808288E+00  0.7105876397806E+00  0.6667051889715E-02 -0.1561282422616E+00
 0.1543073693553E+01  0.1047915560367E+02  0.2404445895275E+01  0.1553703237941E+01
 0.1977710136681E+00  0.9763365806931E+01  0.1992227393806E+01  0.6749173186865E+00
-0.2441144247263E-02  0.8894942635215E+01  0.1778500324695E+01  0.2589934767593E+00
 0.2207550152919E-01  0.8455113987849E+01  0.1695437923140E+01  0.2012315134119E+00
 0.4322277979976E-02  0.8122954552807E+01  0.1625455390379E+01  0.1575878162838E+00
 0.3439176344364E-02  0.7849354541131E+01  0.1570558766898E+01  0.1398728937131E+00
 0.1322358217615E-02  0.7604249835961E+01  0.1521114461502E+01  0.1305347507114E+00
 0.5606365360580E-03  0.7373932694948E+01  0.1474898688275E+01  0.1262693868180E+00
 0.3791020206423E-04  0.7150691171620E+01  0.1430145837675E+01  0.1247069759262E+00
-0.2423859561580E-03  0.6930174667068E+01  0.1385986476875E+01  0.1247281653260E+00
-0.3997785701646E-03  0.6709811837321E+01  0.1341882431746E+01  0.1256551274086E+00
-0.4611664302498E-03  0.6488131704703E+01  0.1297534126989E+01  0.1270506302183E+00
-0.4212334381295E-03  0.6264418716004E+01  0.1252799515181E+01  0.1285550291518E+00
-0.2553478859737E-03  0.6038649091472E+01  0.1207678766713E+01  0.1297411787842E+00
 0.5897616173847E-03  0.5811730898673E+01  0.1162464149380E+01  0.1295290706320E+00
 0.3706824703895E-02  0.5584410698243E+01  0.1117623521243E+01  0.1258496632866E+00
 0.9272486993140E-02  0.5352849828357E+01  0.1072424479050E+01  0.1167377685771E+00
 0.1408603195237E-01  0.5107236120507E+01  0.1024264445755E+01  0.1015402196891E+00
 0.1538755557505E-01  0.4839085702537E+01  0.9708946660898E+00  0.8174203419858E-01
 0.1375203739235E-01  0.4547331346764E+01  0.9122166904244E+00  0.6079207113402E-01
 0.1088032959558E-01  0.4236212426850E+01  0.8494185639464E+00  0.4206261128967E-01
 0.7771357940441E-02  0.3911095241963E+01  0.7837733316597E+00  0.2739543770366E-01
 0.4814519301454E-02  0.3576649012180E+01  0.7162927169699E+00  0.1734617555880E-01
 0.2094550891178E-02  0.3236625676351E+01  0.6477440551005E+00  0.1173465618603E-01
-0.4119217117116E-03  0.2894146873683E+01  0.5787469990182E+00  0.1003269455000E-01
-0.2824955573458E-02  0.2552038280004E+01  0.5098426724834E+00  0.1162125705155E-01
-0.5378211125431E-02  0.2213283513648E+01  0.4415810670845E+00  0.1586726078101E-01
-0.8116084896813E-02  0.1881742556761E+01  0.3747252999568E+00  0.2208716265144E-01
-0.1068526883679E-01  0.1562428364790E+01  0.3103486238153E+00  0.2950975698571E-01
-0.1265300750756E-01  0.1260901850823E+01  0.2496497723833E+00  0.3708140626939E-01
-0.1371771279019E-01  0.9827244922065E+00  0.1938013587711E+00  0.4336591940733E-01
-0.1355390879233E-01  0.7334844084958E+00  0.1439861020863E+00  0.4670368533505E-01
-0.1169097826949E-01  0.5188793261051E+00  0.1014376710787E+00  0.4533052538543E-01
-0.7527381445462E-02  0.3445429790614E+00  0.6740312052757E-01  0.3744740121988E-01
-0.2926619375405E-03  0.2156285027178E+00  0.4306716879780E-01  0.2138592237300E-01
 0.1016114849375E-01  0.1360984307441E+00  0.2925191628346E-01 -0.3917702561167E-02
 0.2537727859530E-01  0.1081625068092E+00  0.2670795747889E-01 -0.3964794438191E-01
 0.4049219970879E-01  0.1297559269962E+00  0.3404962584837E-01 -0.8458252548307E-01
 0.7928079880212E-01  0.2008653185398E+00  0.5602922430329E-01 -0.1572072565859E+00
 0.1366874979943E+00  0.2286706862302E+00  0.7307163793374E-01 -0.1895444628608E+00
-0.5007945758996E+00  0.2933040885493E+00 -0.4149809808842E-01 -0.9826073153985E-01
 0.1589495321740E+01  0.9453692651454E+01  0.2208637627550E+01  0.1479391017040E+01
 0.4847439587728E+00  0.9265288910230E+01  0.1950006602858E+01  0.9698219064569E+00
 0.8922198692428E-01  0.8680638513854E+01  0.1753972126292E+01  0.4954755089635E+00
 0.4101181546412E-01  0.8217737184097E+01  0.1651749824525E+01  0.3349786921300E+00
 0.2064340159342E-01  0.7887667782048E+01  0.1581662260297E+01  0.2707997222063E+00
 0.9546492302450E-02  0.7609993874288E+01  0.1523908096026E+01  0.2360619739026E+00
 0.4859392955937E-02  0.7363415644799E+01  0.1473655029510E+01  0.2191068536057E+00
 0.2026602707985E-02  0.7133111490196E+01  0.1427027639845E+01  0.2106354406617E+00
 0.4813496595384E-03  0.6911329853932E+01  0.1382362261317E+01  0.2071423558963E+00
-0.4353184782500E-03  0.6693386885075E+01  0.1338590333266E+01  0.2065102197839E+00
-0.9429724789727E-03  0.6476482741257E+01  0.1295107973054E+01  0.2075572928366E+00
-0.1163157155911E-02  0.6258939162078E+01  0.1251555219634E+01  0.2095065257173E+00
-0.1107251154630E-02  0.6039835901796E+01  0.1207745748125E+01  0.2117533671475E+00
-0.6175220885791E-03  0.5818856464147E+01  0.1163647805751E+01  0.2135916796230E+00
 0.1147386171748E-02  0.5595937546212E+01  0.1119417003157E+01  0.2138530079216E+00
 0.5642188692246E-02  0.5369898012717E+01  0.1075108056302E+01  0.2114243605334E+00
 0.1249362772303E-01  0.5137137267043E+01  0.1029926194300E+01  0.2062257460645E+00
 0.1819291686135E-01  0.4892512180064E+01  0.9821410340202E+00  0.1984331815994E+00
 0.1960669067623E-01  0.4631655704656E+01  0.9302524929282E+00  0.1880179924995E+00
 0.1690561935531E-01  0.4353105829460E+01  0.8740023027867E+00  0.1760201403081E+00
 0.1198815908399E-01  0.4058680750940E+01  0.8141337941364E+00  0.1644528149338E+00
 0.6370301257752E-02  0.3751866686789E+01  0.7516474088097E+00  0.1549780779275E+00
 0.8252657686912E-03  0.3436339562203E+01  0.6874329758380E+00  0.1483912434081E+00
-0.4341917119227E-02  0.3115430165954E+01  0.6222176590387E+00  0.1447727237568E+00
-0.9058017352549E-02  0.2792119933264E+01  0.5566123914765E+00  0.1437577857459E+00
-0.1340490024850E-01  0.2469264175835E+01  0.4911718624362E+00  0.1447401927597E+00
-0.1752525291403E-01  0.2149936551348E+01  0.4264822660419E+00  0.1468798136792E+00
-0.2131473155045E-01  0.1837706568433E+01  0.3632783727897E+00  0.1491389315709E+00
-0.2428045765756E-01  0.1536727616452E+01  0.3024894362663E+00  0.1504808419146E+00
-0.2583421820099E-01  0.1251617690090E+01  0.2451566980309E+00  0.1498039124175E+00
-0.2551494922854E-01  0.9871745552575E+00  0.1923319240718E+00  0.1457462681833E+00
-0.2288340483773E-01  0.7481767410397E+00  0.1450586694019E+00  0.1367424125209E+00
-0.1740753197175E-01  0.5392893282456E+00  0.1043763608101E+00  0.1212021137721E+00
-0.8459026849076E-02  0.3648752309163E+00  0.7128324187565E-01  0.9770264108303E-01
 0.4456983939923E-02  0.2286363216239E+00  0.4661866180743E-01  0.6532333049448E-01
 0.2160750478887E-01  0.1332260327674E+00  0.3096670797269E-01  0.2388377205146E-01
 0.4242738256329E-01  0.7889445939094E-01  0.2426436875241E-01 -0.2549152597775E-01
 0.6718128574328E-01  0.6282018821156E-01  0.2600029517840E-01 -0.8280559182860E-01
 0.1057310302062E+00  0.6300264937157E-01  0.3374673641841E-01 -0.1424285529604E+00
 0.8119478813290E-01  0.4171183332195E-01  0.2458132465726E-01 -0.1343038962650E+00
-0.3745720284448E+00  0.9158636334667E-01 -0.5659713386299E-01 -0.1087860008326E+00
 0.1595954446764E+01  0.8703574588796E+01  0.2059905837807E+01  0.1379351545425E+01
 0.6817849997565E+00  0.8709399962961E+01  0.1878237020531E+01  0.1098838949997E+01
 0.2121080347083E+00  0.8358428028819E+01  0.1714107238248E+01  0.6892461721773E+00
 0.8266318029490E-01  0.7957357832768E+01  0.1608004226574E+01  0.4744298584881E+00
 0.4142161421188E-01  0.7634841733853E+01  0.1535252692490E+01  0.3811179857257E+00
 0.2074970015746E-01  0.7362479227978E+01  0.1476645807631E+01  0.3328151703251E+00
 0.1037368641570E-01  0.7117958372589E+01  0.1425666433045E+01  0.3073224852965E+00
 0.4713846047165E-02  0.6889946987431E+01  0.1378932187243E+01  0.2944282348768E+00
 0.1427641145237E-02  0.6670903223198E+01  0.1334466192754E+01  0.2886227659920E+00
-0.4908399602865E-03  0.6456317607649E+01  0.1291165372778E+01  0.2870428536363E+00
-0.1583998321618E-02  0.6243335972411E+01  0.1248350413420E+01  0.2879637331055E+00
-0.2090517625474E-02  0.6030179351328E+01  0.1205617784706E+01  0.2902846686083E+00
-0.2056585522778E-02  0.5815764678736E+01  0.1162741635969E+01  0.2931666357739E+00
-0.1223738744754E-02  0.5599433151153E+01  0.1119641899166E+01  0.2957505543094E+00
 0.1289474161507E-02  0.5380380822068E+01  0.1076334075285E+01  0.2970670752633E+00
 0.6543012389077E-02  0.5156722030941E+01  0.1032653024054E+01  0.2967432147205E+00
 0.1374207558916E-01  0.4925599059628E+01  0.9878682417639E+00  0.2954514417068E+00
 0.1951084498187E-01  0.4684406787527E+01  0.9407835405205E+00  0.2935276962268E+00
 0.2080485129319E-01  0.4431079869918E+01  0.8903769575098E+00  0.2902988843309E+00
 0.1745868743499E-01  0.4164425480091E+01  0.8363768459682E+00  0.2855521000951E+00
 0.1121603113494E-01  0.3885018943127E+01  0.7792470064640E+00  0.2802112456817E+00
 0.3817980486900E-02  0.3594968810188E+01  0.7197573688602E+00  0.2755063867413E+00
-0.3660147905765E-02  0.3297041382839E+01  0.6586762568016E+00  0.2722284004636E+00
-0.1068709243919E-01  0.2994080964527E+01  0.5966787833088E+00  0.2705752632284E+00
-0.1705096649849E-01  0.2688842754046E+01  0.5343583654721E+00  0.2702706008702E+00
-0.2272717766857E-01  0.2384089772219E+01  0.4722725259476E+00  0.2706882246340E+00
-0.2772031174418E-01  0.2082785861638E+01  0.4110131161034E+00  0.2708526762745E+00
-0.3179341557594E-01  0.1788168225788E+01  0.3512749672768E+00  0.2695452492363E+00
-0.3436979464413E-01  0.1503763583586E+01  0.2938787621675E+00  0.2655713184011E+00
-0.3476795859066E-01  0.1233428554623E+01  0.2397321227787E+00  0.2577598544981E+00
-0.3241019506623E-01  0.9812164618815E+00  0.1897612561907E+00  0.2447994857394E+00
-0.2678596691828E-01  0.7511436142557E+00  0.1448715316262E+00  0.2252644709153E+00
-0.1737123051353E-01  0.5470055776343E+00  0.1059268710026E+00  0.1978008231596E+00
-0.3683495009521E-02  0.3721728804194E+00  0.7369787818015E-01  0.1614021180980E+00
 0.1451268345768E-01  0.2293397357281E+00  0.4877048456388E-01  0.1157600585708E+00
 0.3689202214237E-01  0.1200878093228E+00  0.3139596676087E-01  0.6171182063205E-01
 0.6238209358902E-01  0.4395522105697E-01  0.2126746324611E-01  0.1523588164287E-02
 0.9055802177425E-01 -0.4744449730161E-02  0.1716271466456E-01 -0.6109647431790E-01
 0.1139131689039E+00 -0.4404333848690E-01  0.1397396629163E-01 -0.1094754025010E+00
 0.4946939993958E-01 -0.7492485426201E-01 -0.5091090940348E-02 -0.1019791376606E+00
-0.2739296171403E+00 -0.3993667935809E-01 -0.6277326023507E-01 -0.1245414352080E+00
 0.1574360046595E+01  0.8098147504490E+01  0.1934501539043E+01  0.1284912703008E+01
 0.8133023054791E+00  0.8178799329017E+01  0.1798420353698E+01  0.1146391240847E+01
 0.3303900811850E+00  0.7981107808929E+01  0.1662299602793E+01  0.8273145489155E+00
 0.1396522060967E+00  0.7664932262585E+01  0.1560916916996E+01  0.6034595386296E+00
 0.6878253209361E-01  0.7367617423944E+01  0.1487280013370E+01  0.4879889603699E+00
 0.3567272123497E-01  0.7105940002761E+01  0.1428322566083E+01  0.4273636196964E+00
 0.1823568106956E-01  0.6867669950859E+01  0.1377181146907E+01  0.3943196266558E+00
 0.8600470091305E-02  0.6644093103711E+01  0.1330538734587E+01  0.3769707917920E+00
 0.2990323130700E-02  0.6429150899439E+01  0.1286428263683E+01  0.3687784372749E+00
-0.3347729358003E-03  0.6218747856940E+01  0.1243682635333E+01  0.3660907989380E+00
-0.2255693479909E-02  0.6010200082121E+01  0.1201588895633E+01  0.3667373298514E+00
-0.3198295274428E-02  0.5801729168308E+01  0.1159706191888E+01  0.3693134715666E+00
-0.3268101593600E-02  0.5592141560014E+01  0.1117774708340E+01  0.3727890364431E+00
-0.2191880099180E-02  0.5380494620877E+01  0.1075660564184E+01  0.3762577845511E+00
 0.7893787484630E-03  0.5165562049864E+01  0.1033270301119E+01  0.3790067419576E+00
 0.6304824404041E-02  0.4945340375536E+01  0.9903290547451E+00  0.3811194108023E+00
 0.1328761924469E-01  0.4717712516065E+01  0.9462000411615E+00  0.3834900007144E+00
 0.1865743660340E-01  0.4481540446165E+01  0.9000395899653E+00  0.3863722284694E+00
 0.1964092571466E-01  0.4236083894886E+01  0.8511449768032E+00  0.3888036029857E+00
 0.1585673794751E-01  0.3980528787089E+01  0.7992771169175E+00  0.3899346645262E+00
 0.8783442468654E-02  0.3714862271404E+01  0.7447291538719E+00  0.3899183909424E+00
 0.1923034657795E-03  0.3440261588664E+01  0.6880907886793E+00  0.3894995525663E+00
-0.8641678820999E-02  0.3158725619660E+01  0.6300167975558E+00  0.3893121075956E+00
-0.1698174278518E-01  0.2872606125354E+01  0.5711248850242E+00  0.3895563811314E+00
-0.2445467902638E-01  0.2584371494669E+01  0.5119833707576E+00  0.3899781559628E+00
-0.3089171405073E-01  0.2296596640374E+01  0.4531409920169E+00  0.3899188964631E+00
-0.3614388962602E-01  0.2012032772036E+01  0.3951777823706E+00  0.3883212917226E+00
-0.3985428594174E-01  0.1733574380262E+01  0.3387440239118E+00  0.3838767276061E+00
-0.4138766101651E-01  0.1464237824904E+01  0.2845700370179E+00  0.3753037988693E+00
-0.4001066695174E-01  0.1207249709322E+01  0.2334478119527E+00  0.3613829510725E+00
-0.3507975964503E-01  0.9659926586508E+00  0.1861825825755E+00  0.3408502464618E+00
-0.2606200726421E-01  0.7437961060984E+00  0.1435468219058E+00  0.3124327754153E+00
-0.1251417404981E-01  0.5437302950626E+00  0.1062432257857E+00  0.2750365032918E+00
 0.5824481209491E-02  0.3684177948752E+00  0.7484845633227E-01  0.2280462139305E+00
 0.2878493718815E-01  0.2198298460112E+00  0.4972295738079E-01  0.1717160978375E+00
 0.5541106972565E-01  0.9896062043701E-01  0.3087433849259E-01  0.1076536191423E+00
 0.8386455511036E-01  0.4824355211094E-02  0.1773778232860E-01  0.3933637233624E-01
 0.1105213317750E+00 -0.6808254673795E-01  0.8487757133885E-02 -0.2630226598631E-01
 0.1179913223942E+00 -0.1284544380106E+00 -0.2092623154462E-02 -0.7204236872132E-01
 0.3908448541819E-01 -0.1635916026922E+00 -0.2490142382587E-01 -0.8042672941616E-01
-0.1968185631859E+00 -0.1474944492106E+00 -0.6886260350542E-01 -0.1297788941636E+00
 0.1535635312510E+01  0.7579948616572E+01  0.1823116812983E+01  0.1201951998900E+01
 0.8974292383373E+00  0.7686982861366E+01  0.1716882445524E+01  0.1153676452618E+01
 0.4314410755861E+00  0.7584854781151E+01  0.1603259195238E+01  0.9198532512038E+00
 0.2019111149965E+00  0.7347441399388E+01  0.1509870525376E+01  0.7134375759607E+00
 0.1017043972132E+00  0.7086448196881E+01  0.1437630540241E+01  0.5882130562787E+00
 0.5376705748951E-01  0.6841140182906E+01  0.1378981468627E+01  0.5182014342144E+00
 0.2815684895304E-01  0.6612424691470E+01  0.1328116327875E+01  0.4789634511388E+00
 0.1368216354735E-01  0.6395437894792E+01  0.1281824030768E+01  0.4576670544206E+00
 0.5174310549702E-02  0.6185904326722E+01  0.1238215745905E+01  0.4472107864206E+00
 0.7380903038645E-04  0.5980526660045E+01  0.1196120111639E+01  0.4434109765316E+00
-0.2922143251295E-02  0.5776947020897E+01  0.1154804992737E+01  0.4437253584816E+00
-0.4463481201433E-02  0.5573497224048E+01  0.1113806765166E+01  0.4465048767390E+00
-0.4760754746313E-02  0.5368940600955E+01  0.1072835985228E+01  0.4505792637340E+00
-0.3608885849414E-02  0.5162162123766E+01  0.1031710662957E+01  0.4550557036176E+00
-0.4569711506472E-03  0.4951765287290E+01  0.9902616779839E+00  0.4594384715573E+00
 0.4939096958991E-02  0.4735889129531E+01  0.9481656594267E+00  0.4640459949050E+00
 0.1136023236235E-01  0.4513036084313E+01  0.9048792768188E+00  0.4697488464892E+00
 0.1606400846514E-01  0.4282950385707E+01  0.8598028916464E+00  0.4766420706499E+00
 0.1660320241796E-01  0.4045670335133E+01  0.8124547196167E+00  0.4836301532143E+00
 0.1248395911130E-01  0.3800714926986E+01  0.7626397885837E+00  0.4895526249486E+00
 0.4916366134310E-02  0.3547819961954E+01  0.7105472762056E+00  0.4940478374742E+00
-0.4406032195542E-02  0.3287562563145E+01  0.6566313159744E+00  0.4974182026113E+00
-0.1409922343219E-01  0.3021331681184E+01  0.6014465005126E+00  0.5000663521590E+00
-0.2325588754688E-01  0.2751016266308E+01  0.5455520838816E+00  0.5021131520094E+00
-0.3133722321242E-01  0.2478764586445E+01  0.4894854799404E+00  0.5032758762956E+00
-0.3801502358201E-01  0.2206901530387E+01  0.4337773078248E+00  0.5028573391508E+00
-0.4298629081809E-01  0.1937912283801E+01  0.3789852042440E+00  0.4997530114496E+00
-0.4578528933076E-01  0.1674350260606E+01  0.3257129991086E+00  0.4926157409938E+00
-0.4573187199462E-01  0.1418790604943E+01  0.2746117506818E+00  0.4801247121109E+00
-0.4206984434676E-01  0.1173926500372E+01  0.2263713345782E+00  0.4610402800521E+00
-0.3413542366805E-01  0.9425559816752E+00  0.1816841143087E+00  0.4341517919107E+00
-0.2142366291825E-01  0.7274108549176E+00  0.1411974405039E+00  0.3983382391812E+00
-0.3626640626111E-02  0.5309691726383E+00  0.1054685079740E+00  0.3527559545911E+00
 0.1923040338924E-01  0.3552949213578E+00  0.7490506606558E-01  0.2971419718978E+00
 0.4650274365895E-01  0.2018946443848E+00  0.4967947834904E-01  0.2322131636770E+00
 0.7655524389386E-01  0.7147327765947E-01  0.2960570475183E-01  0.1601710444237E+00
 0.1063979463302E+00 -0.3693249325241E-01  0.1389309082258E-01  0.8549374693303E-01
 0.1293233318320E+00 -0.1268628651071E+00  0.4920933523081E-03  0.1644952209913E-01
 0.1246464699760E+00 -0.1998238520564E+00 -0.1503547664013E-01 -0.3333731098762E-01
 0.4355020516553E-01 -0.2414011439023E+00 -0.3957018833700E-01 -0.6049530941566E-01
-0.1374006978372E+00 -0.2443134335648E+00 -0.7634282741800E-01 -0.1237368053743E+00
 0.1486681394170E+01  0.7119312368551E+01  0.1721198778192E+01  0.1130446405656E+01
 0.9473560509835E+00  0.7231765924619E+01  0.1635824419496E+01  0.1141222410427E+01
 0.5121285098846E+00  0.7188191486227E+01  0.1540064022171E+01  0.9793284087194E+00
 0.2622322124140E+00  0.7015023603869E+01  0.1455451184945E+01  0.8027442982722E+00
 0.1375607005561E+00  0.6793501815106E+01  0.1386212523789E+01  0.6789807275434E+00
 0.7427508348503E-01  0.6568949511209E+01  0.1328644938737E+01  0.6039821197299E+00
 0.3972474968772E-01  0.6352526502961E+01  0.1278450269580E+01  0.5603248830428E+00
 0.1980950420424E-01  0.6143999034108E+01  0.1232761726032E+01  0.5359197914334E+00
 0.7933739865811E-02  0.5941106751531E+01  0.1189808116009E+01  0.5235423827566E+00
 0.7291787786354E-03  0.5741564760827E+01  0.1148458805035E+01  0.5187551589283E+00
-0.3573337408372E-02  0.5543491777542E+01  0.1107983704537E+01  0.5187677513395E+00
-0.5882865716109E-02  0.5345422412713E+01  0.1067907925312E+01  0.5217556608668E+00
-0.6558309191932E-02  0.5146156682990E+01  0.1027919690077E+01  0.5264618633259E+00
-0.5527149073808E-02  0.4944523537829E+01  0.9877992924704E+00  0.5320325484629E+00
-0.2479810215744E-02  0.4739126726505E+01  0.9473293973741E+00  0.5381248087127E+00
 0.2510966729474E-02  0.4528349838255E+01  0.9061721744999E+00  0.5451434235890E+00
 0.8158114620818E-02  0.4311184688434E+01  0.8638685734835E+00  0.5538291618241E+00
 0.1204862751530E-01  0.4087919932581E+01  0.8199937242382E+00  0.5641080574968E+00
 0.1205995875174E-01  0.3859055831562E+01  0.7742231695995E+00  0.5748250865112E+00
 0.7660217291981E-02  0.3624367354666E+01  0.7264055252158E+00  0.5846806529020E+00
-0.1711104600408E-03  0.3383503647342E+01  0.6766665174595E+00  0.5929817927129E+00
-0.9866337682087E-02  0.3136665945028E+01  0.6253599307877E+00  0.5996646816530E+00
-0.1999974582029E-01  0.2884776079673E+01  0.5729552753082E+00  0.6048800581224E+00
-0.2953208857172E-01  0.2629308841657E+01  0.5199553583649E+00  0.6086200794086E+00
-0.3776822203780E-01  0.2372082826545E+01  0.4668629278582E+00  0.6105385342514E+00
-0.4422045057808E-01  0.2115139427550E+01  0.4141838015663E+00  0.6098951885026E+00
-0.4843913522929E-01  0.1860672612671E+01  0.3624467008892E+00  0.6055590852161E+00
-0.4986045145700E-01  0.1610902853025E+01  0.3122084849659E+00  0.5961742737884E+00
-0.4776882850386E-01  0.1368012190323E+01  0.2640486762985E+00  0.5804117576581E+00
-0.4140643044760E-01  0.1134235145704E+01  0.2185657463082E+00  0.5570362651750E+00
-0.3012698335130E-01  0.9118680814984E+00  0.1763482222572E+00  0.5248972288393E+00
-0.1349694544384E-01  0.7031366811963E+00  0.1379279492058E+00  0.4830157697143E+00
 0.8613700541949E-02  0.5100441901479E+00  0.1037315796837E+00  0.4307721367451E+00
 0.3585226560582E-01  0.3342516295136E+00  0.7402078012689E-01  0.3681989758336E+00
 0.6706740814531E-01  0.1769957118802E+00  0.4881262473246E-01  0.2963661875357E+00
 0.9989734246883E-01  0.3892939667469E-01  0.2776534824244E-01  0.2178960675719E+00
 0.1301321037154E+00 -0.8043068927700E-01  0.9940283035806E-02  0.1378113756497E+00
 0.1490126716735E+00 -0.1824009619069E+00 -0.6677658146186E-02  0.6425411741704E-01
 0.1362596963989E+00 -0.2644687569252E+00 -0.2564181248735E-01  0.6759173659624E-02
 0.5784710240979E-01 -0.3147074161322E+00 -0.5137206350998E-01 -0.3767068454176E-01
-0.9006713838530E-01 -0.3347636977144E+00 -0.8496616848604E-01 -0.1086042436907E+00
 0.1431618214129E+01  0.6699205172527E+01  0.1626164701563E+01  0.1069046801061E+01
 0.9724571240854E+00  0.6807857440743E+01  0.1556062936153E+01  0.1119549930402E+01
 0.5732054646801E+00  0.6799684815837E+01  0.1474578078076E+01  0.1015868237363E+01
 0.3163689345234E+00  0.6676006544757E+01  0.1398475116695E+01  0.8731784448431E+00
 0.1736111023237E+00  0.6492090465876E+01  0.1333140333505E+01  0.7589268603277E+00
 0.9612034546843E-01  0.6290553915029E+01  0.1277334871133E+01  0.6835933705398E+00
 0.5243853070633E-01  0.6088500083701E+01  0.1228187741183E+01  0.6376559982930E+00
 0.2673821016158E-01  0.5889955176949E+01  0.1183338695055E+01  0.6112002283091E+00
 0.1116420727678E-01  0.5694790316407E+01  0.1141190921742E+01  0.5974195577983E+00
 0.1588948561331E-02  0.5501834720497E+01  0.1100684750213E+01  0.5918844661219E+00
-0.4224577601908E-02  0.5309788755876E+01  0.1061112851467E+01  0.5917019537886E+00
-0.7467753749013E-02  0.5117469924954E+01  0.1022000449470E+01  0.5949512118478E+00
-0.8682685724324E-02  0.4923791988470E+01  0.9830218751972E+00  0.6003370454720E+00
-0.7970822639380E-02  0.4727627963809E+01  0.9439314422996E+00  0.6070525134652E+00
-0.5266308681132E-02  0.4527687818622E+01  0.9044843154660E+00  0.6148478129636E+00
-0.8917314009318E-03  0.4322627609258E+01  0.8643471884512E+00  0.6241234521457E+00
 0.3852993364392E-02  0.4111818318297E+01  0.8231342745979E+00  0.6354532197224E+00
 0.6855914637452E-02  0.3895889827955E+01  0.7805491601495E+00  0.6486094933069E+00
 0.6294473508290E-02  0.3675615576079E+01  0.7363820208904E+00  0.6624147829071E+00
 0.1647901316849E-02  0.3450954945713E+01  0.6905205796956E+00  0.6755210483863E+00
-0.6286089554377E-02  0.3221545755605E+01  0.6430519427923E+00  0.6870287313818E+00
-0.1607766349433E-01  0.2987357465846E+01  0.5942559693255E+00  0.6965867706829E+00
-0.2630344444032E-01  0.2748960954557E+01  0.5445315101375E+00  0.7041051698426E+00
-0.3582790758004E-01  0.2507471916868E+01  0.4943288092237E+00  0.7094247964694E+00
-0.4381676109762E-01  0.2264387364248E+01  0.4441141272479E+00  0.7121149685189E+00
-0.4963233862788E-01  0.2021452939352E+01  0.3943641260212E+00  0.7113893106500E+00
-0.5269015386716E-01  0.1780563765135E+01  0.3455747274031E+00  0.7061021431947E+00
-0.5233909283759E-01  0.1543619958448E+01  0.2982561775665E+00  0.6949056742045E+00
-0.4783621078875E-01  0.1312448525221E+01  0.2529224666553E+00  0.6764825187222E+00
-0.3843812166295E-01  0.1088885968664E+01  0.2100895725308E+00  0.6496191947733E+00
-0.2354543644495E-01  0.8748018477141E+00  0.1702512847908E+00  0.6132287788262E+00
-0.2830265203493E-02  0.6720012948966E+00  0.1338342079329E+00  0.5664591455575E+00
 0.2362914775051E-01  0.4821146327735E+00  0.1011487576120E+00  0.5088783539722E+00
 0.5513197559192E-01  0.3065236185211E+00  0.7233111990043E-01  0.4407488444482E+00
 0.9001426442570E-01  0.1463380090305E+00  0.4727045539562E-01  0.3633841483538E+00
 0.1251936487612E+00  0.2333569172296E-02  0.2550544396676E-01  0.2796376148488E+00
 0.1554164266626E+00 -0.1252999018872E+00  0.6023305044847E-02  0.1946235593431E+00
 0.1708947572646E+00 -0.2361080907822E+00 -0.1304266689788E-01  0.1156229154703E+00
 0.1532866442528E+00 -0.3258431045655E+00 -0.3451129257681E-01  0.4893672065860E-01
 0.7882385863618E-01 -0.3856957744322E+00 -0.6137438407376E-01 -0.1028797162543E-01
-0.5014229038746E-01 -0.4204164504508E+00 -0.9411174957003E-01 -0.8666311399476E-01
 0.1372907021742E+01  0.6309074479618E+01  0.1536396323166E+01  0.1016265055504E+01
 0.9793516691521E+00  0.6410040719843E+01  0.1477878499821E+01  0.1094166624362E+01
 0.6168357972379E+00  0.6422822019079E+01  0.1407931584243E+01  0.1036852403028E+01
 0.3622155111690E+00  0.6336156275457E+01  0.1339674377288E+01  0.9277130230643E+00
 0.2076306805018E+00  0.6185610415691E+01  0.1278648238292E+01  0.8279405310145E+00
 0.1181179857954E+00  0.6007429942263E+01  0.1225109603867E+01  0.7563421202122E+00
 0.6571716440795E-01  0.5821022026432E+01  0.1177347855712E+01  0.7103833929814E+00
 0.3416479284761E-01  0.5633608946238E+01  0.1133554764708E+01  0.6830735505388E+00
 0.1471305281505E-01  0.5447068574180E+01  0.1092356341676E+01  0.6685281941425E+00
 0.2579029086894E-02  0.5261362913140E+01  0.1052788404133E+01  0.6625770971772E+00
-0.4912264857800E-02  0.5075828317367E+01  0.1014183225614E+01  0.6623692554676E+00
-0.9240111478138E-02  0.4889625936924E+01  0.9760771796339E+00  0.6659706394615E+00
-0.1115183291778E-01  0.4701849165151E+01  0.9381394804261E+00  0.6720917093233E+00
-0.1094390368746E-01  0.4511491732797E+01  0.9001095792347E+00  0.6799740122549E+00
-0.8779803231429E-02  0.4317431226560E+01  0.8617302975066E+00  0.6894161170848E+00
-0.5174264696141E-02  0.4118590967950E+01  0.8226833529098E+00  0.7007644872764E+00
-0.1405936543058E-02  0.3914634923766E+01  0.7826458091069E+00  0.7144229631640E+00
 0.6800546035051E-03  0.3706408235033E+01  0.7414176689753E+00  0.7300344048798E+00
-0.4712013182341E-03  0.3494842310452E+01  0.6988742322408E+00  0.7464192436502E+00
-0.5338869286530E-02  0.3280023631621E+01  0.6549369622261E+00  0.7622286707250E+00
-0.1326013044158E-01  0.3061608904693E+01  0.6096697639351E+00  0.7764395207619E+00
-0.2293527930138E-01  0.2839425252911E+01  0.5632980031157E+00  0.7884833967622E+00
-0.3296860224803E-01  0.2613781291010E+01  0.5161625454438E+00  0.7980566791419E+00
-0.4215783355455E-01  0.2385487209368E+01  0.4686658821464E+00  0.8048455420328E+00
-0.4955004407281E-01  0.2155737798427E+01  0.4212375571477E+00  0.8083253373194E+00
-0.5437248759325E-01  0.1925985522822E+01  0.3743226126236E+00  0.8076620856647E+00
-0.5591995861667E-01  0.1697830516530E+01  0.3283821164760E+00  0.8017015521401E+00
-0.5346497977191E-01  0.1472868462583E+01  0.2838807007925E+00  0.7891131230793E+00
-0.4624471540684E-01  0.1252604196141E+01  0.2412718997420E+00  0.7686025329682E+00
-0.3354255999640E-01  0.1038527171231E+01  0.2009969252420E+00  0.7389883738471E+00
-0.1482766888618E-01  0.8321457181439E+00  0.1634636122873E+00  0.6992463960641E+00
 0.1009752745226E-01  0.6349204008922E+00  0.1290035875912E+00  0.6486319637713E+00
 0.4092819397966E-01  0.4481944829803E+00  0.9782453684969E-01  0.5868601651735E+00
 0.7661122723830E-01  0.2731656610183E+00  0.6995537869374E-01  0.5143553684520E+00
 0.1149867984336E+00  0.1109170403184E+00  0.4518076842363E-01  0.4325688784935E+00
 0.1523153944744E+00 -0.3755488882116E-01  0.2295210147266E-01  0.3444040407779E+00
 0.1825664522785E+00 -0.1714024677743E+00  0.2232796934107E-02  0.2547401954536E+00
 0.1956454218633E+00 -0.2889959103754E+00 -0.1867009798064E-01  0.1697806253825E+00
 0.1754577518833E+00 -0.3856285698240E+00 -0.4203416421450E-01  0.9366234530813E-01
 0.1047272429679E+00 -0.4549875459869E+00 -0.7005206164765E-01  0.2187052626096E-01
-0.1401111432529E-01 -0.5019379522440E+00 -0.1031898148515E+00 -0.5969207330058E-01
 0.1312042123892E+01  0.5941992653370E+01  0.1450806977071E+01  0.9707752520984E+00
 0.9727310841235E+00  0.6033898026557E+01  0.1401325843017E+01  0.1067982932953E+01
 0.6455091433697E+00  0.6058586145042E+01  0.1340819077662E+01  0.1047443853486E+01
 0.3990297655102E+00  0.5999125979801E+01  0.1279631168130E+01  0.9694193368824E+00
 0.2380517849212E+00  0.5876979589252E+01  0.1223006293059E+01  0.8867007055377E+00
 0.1391672360326E+00  0.5721147592503E+01  0.1172062983172E+01  0.8219802980088E+00
 0.7894617552575E-01  0.5550874305398E+01  0.1125964112963E+01  0.7781270554045E+00
 0.4174975640878E-01  0.5375349236296E+01  0.1083419814685E+01  0.7512065172743E+00
 0.1839416089650E-01  0.5198121601365E+01  0.1043303167999E+01  0.7366056441080E+00
 0.3599999964275E-02  0.5020221672244E+01  0.1004764349414E+01  0.7306354348334E+00
-0.5689475694888E-02  0.4841631532426E+01  0.9671884257584E+00  0.7306202612912E+00
-0.1122943246513E-01  0.4661893042011E+01  0.9301327357692E+00  0.7346926706709E+00
-0.1397990170388E-01  0.4480328876873E+01  0.8932698083446E+00  0.7416087298516E+00
-0.1443729043397E-01  0.4296106930772E+01  0.8563339408280E+00  0.7506602092132E+00
-0.1297172901191E-01  0.4108304427068E+01  0.8190665518163E+00  0.7616655227200E+00
-0.1024310463972E-01  0.3916093285096E+01  0.7811700477317E+00  0.7748946017411E+00
-0.7488866843597E-02  0.3719365188310E+01  0.7423752753556E+00  0.7905949262885E+00
-0.6321147879619E-02  0.3519100580278E+01  0.7025558969485E+00  0.8083057062122E+00
-0.8060055269758E-02  0.3316317233444E+01  0.6616514454943E+00  0.8268578891970E+00
-0.1312544813167E-01  0.3111185487580E+01  0.6196120171226E+00  0.8449268359352E+00
-0.2094911861851E-01  0.2903389167254E+01  0.5764880183174E+00  0.8614205729345E+00
-0.3034438856237E-01  0.2692667004500E+01  0.5324645311219E+00  0.8756109928203E+00
-0.3995506249581E-01  0.2479130524046E+01  0.4878350995794E+00  0.8870140721815E+00
-0.4853479710099E-01  0.2263332493528E+01  0.4429595458859E+00  0.8951702271987E+00
-0.5503265289251E-01  0.2046190839692E+01  0.3982316432940E+00  0.8994600725774E+00
-0.5855803533675E-01  0.1828877128309E+01  0.3540638238705E+00  0.8990024614836E+00
-0.5830007451849E-01  0.1612707919557E+01  0.3108815736401E+00  0.8926376480972E+00
-0.5346577471297E-01  0.1398992810877E+01  0.2691054112427E+00  0.8790561843157E+00
-0.4327942736739E-01  0.1188944282855E+01  0.2291329745118E+00  0.8569923993014E+00
-0.2706047269747E-01  0.9837485436020E+00  0.1913376170321E+00  0.8253011039618E+00
-0.4361507516374E-02  0.7846091642919E+00  0.1560495336804E+00  0.7830153783975E+00
 0.2486908158403E-01  0.5927072780622E+00  0.1235152737698E+00  0.7294762389129E+00
 0.6009234933941E-01  0.4091691979804E+00  0.9385231086247E-01  0.6645038868790E+00
 0.9991210960111E-01  0.2350793242312E+00  0.6699828776482E-01  0.5886191756766E+00
 0.1417090638170E+00  0.7155752316462E-01  0.4265331803191E-01  0.5033142929748E+00
 0.1811844710719E+00 -0.8014891960945E-01  0.2020711059361E-01  0.4113944374262E+00
 0.2117871543455E+00 -0.2186532651996E+00 -0.1373222191286E-02  0.3173169334448E+00
 0.2235302330233E+00 -0.3416442428721E+00 -0.2362280232178E-01  0.2262603995461E+00
 0.2023179994946E+00 -0.4445353708671E+00 -0.4844347499635E-01  0.1410662370842E+00
 0.1346857307493E+00 -0.5226584945183E+00 -0.7759455391005E-01  0.5838542937248E-01
 0.2102759976250E-01 -0.5796869224936E+00 -0.1117318662112E+00 -0.2897680020948E-01
 0.1249948886540E+01  0.5593195562667E+01  0.1368628910236E+01  0.9314652157407E+00
 0.9559509257606E+00  0.5675857383097E+01  0.1326361681536E+01  0.1042525385916E+01
 0.6615913508355E+00  0.5706767594456E+01  0.1273671808037E+01  0.1051195828962E+01
 0.4268707140376E+00  0.5667066823345E+01  0.1218787525638E+01  0.1001034601140E+01
 0.2638996700771E+00  0.5568469709453E+01  0.1166473893288E+01  0.9362815858046E+00
 0.1583571942399E+00  0.5433189934249E+01  0.1118309442362E+01  0.8806242714538E+00
 0.9153347063945E-01  0.5278882418766E+01  0.1074083193886E+01  0.8407030132078E+00
 0.4914043287863E-01  0.5115619331475E+01  0.1032951968263E+01  0.8153705217183E+00
 0.2200189998636E-01  0.4948178077785E+01  0.9940360103665E+00  0.8014467241909E+00
 0.4534749294182E-02  0.4778520255827E+01  0.9566110152788E+00  0.7958917500487E+00
-0.6621494618041E-02  0.4607244459781E+01  0.9201246067435E+00  0.7963196614999E+00
-0.1347028408715E-01  0.4434286440583E+01  0.8841632444743E+00  0.8010011276334E+00
-0.1717816441366E-01  0.4259229623796E+01  0.8484103045188E+00  0.8087740124974E+00
-0.1843418231623E-01  0.4081449224285E+01  0.8126030205025E+00  0.8189848183205E+00
-0.1778891461970E-01  0.3900235060421E+01  0.7764892407309E+00  0.8314572086951E+00
-0.1600996611651E-01  0.3714984608187E+01  0.7397949394378E+00  0.8463796573896E+00
-0.1428275849643E-01  0.3525768351841E+01  0.7022971291340E+00  0.8638643322869E+00
-0.1401722264384E-01  0.3333650278884E+01  0.6639266211412E+00  0.8833715626158E+00
-0.1632894438256E-01  0.3139689379539E+01  0.6246720963396E+00  0.9037517134685E+00
-0.2156913119945E-01  0.2944108164432E+01  0.5845078153563E+00  0.9237173501860E+00
-0.2923144491235E-01  0.2746615754402E+01  0.5434768699964E+00  0.9421439671613E+00
-0.3822180498303E-01  0.2546894128386E+01  0.5017344721570E+00  0.9581896325808E+00
-0.4722646694773E-01  0.2344904536139E+01  0.4595356206860E+00  0.9712236837217E+00
-0.5497130448595E-01  0.2140983451061E+01  0.4172024355318E+00  0.9806567321551E+00
-0.6032621636112E-01  0.1935799492948E+01  0.3750946609067E+00  0.9857799909576E+00
-0.6230025211359E-01  0.1730261416903E+01  0.3335922379288E+00  0.9856674525157E+00
-0.5999182577005E-01  0.1525418423984E+01  0.2930853240101E+00  0.9791553237173E+00
-0.5255285591435E-01  0.1322313962819E+01  0.2539522251651E+00  0.9649561303532E+00
-0.3920113474157E-01  0.1121895827186E+01  0.2165389417155E+00  0.9418339289303E+00
-0.1929872956360E-01  0.9250850791709E+00  0.1811572726209E+00  0.9086790421549E+00
 0.7509226528836E-02  0.7328285931191E+00  0.1480675661360E+00  0.8645729508502E+00
 0.4112072117929E-01  0.5460824264520E+00  0.1174406312763E+00  0.8089191104383E+00
 0.8076434125085E-01  0.3658114574643E+00  0.8931516107394E-01  0.7416021405596E+00
 0.1247204992684E+00  0.1930369127709E+00  0.6355148335485E-01  0.6631793726388E+00
 0.1699603129601E+00  0.2894850205322E-01  0.3978176359546E-01  0.5751012351248E+00
 0.2117337570573E+00 -0.1249712279383E+00  0.1735250608238E-01  0.4799685347963E+00
 0.2431717976252E+00 -0.2669410437501E+00 -0.4753849295817E-02  0.3817354202441E+00
 0.2545829817217E+00 -0.3943048831161E+00 -0.2794438069529E-01  0.2847085960298E+00
 0.2334374419420E+00 -0.5027803751797E+00 -0.5386858745023E-01  0.1910193681006E+00
 0.1683350772109E+00 -0.5886233523032E+00 -0.8405765627101E-01  0.9861180125593E-01
 0.5695261111190E-01 -0.6539084326781E+00 -0.1193911660923E+00  0.4565460450368E-02
 0.1187211264464E+01  0.5259278284527E+01  0.1289297929010E+01  0.8974189231398E+00
 0.9314396937416E+00  0.5333067891094E+01  0.1252901535637E+01  0.1018567020657E+01
 0.6671642878496E+00  0.5366626256330E+01  0.1206758126818E+01  0.1050538152671E+01
 0.4462308797157E+00  0.5341129763632E+01  0.1157472145917E+01  0.1024837854332E+01
 0.2846651127879E+00  0.5261734737477E+01  0.1109279986582E+01  0.9778899952446E+00
 0.1750011700887E+00  0.5144846342633E+01  0.1063969518399E+01  0.9326427411608E+00
 0.1029526155102E+00  0.5005853429061E+01  0.1021761224140E+01  0.8981024451394E+00
 0.5599348777594E-01  0.4854886821921E+01  0.9821760765749E+00  0.8754392370440E+00
 0.2532393980093E-01  0.4697497749999E+01  0.9445643520352E+00  0.8629056065922E+00
 0.5256203326867E-02  0.4536394994087E+01  0.9083302530179E+00  0.8582117987622E+00
-0.7781365095523E-02  0.4372732322813E+01  0.8729902045520E+00  0.8593501154727E+00
-0.1600029181110E-01  0.4206830778226E+01  0.8381661097727E+00  0.8647894593540E+00
-0.2075594381981E-01  0.4038548397339E+01  0.8035585026778E+00  0.8734814984975E+00
-0.2291387795883E-01  0.3867484082872E+01  0.7689140524404E+00  0.8848350958722E+00
-0.2317792194856E-01  0.3693140833879E+01  0.7339925933235E+00  0.8986752349238E+00
-0.2239363033480E-01  0.3515118208960E+01  0.6985449261342E+00  0.9151148704981E+00
-0.2168910838127E-01  0.3333628723098E+01  0.6623879328136E+00  0.9341546330403E+00
-0.2229891703596E-01  0.3149785780949E+01  0.6254973821033E+00  0.9551986422693E+00
-0.2516071869892E-01  0.2964660809739E+01  0.5879000269684E+00  0.9771238115798E+00
-0.3055299194264E-01  0.2778505633042E+01  0.5495905364094E+00  0.9986868535545E+00
-0.3800548526267E-01  0.2591048842990E+01  0.5106086791541E+00  0.1018755021560E+01
-0.4649626481232E-01  0.2401933642730E+01  0.4710874826032E+00  0.1036408513849E+01
-0.5475149035521E-01  0.2211004239638E+01  0.4312505562826E+00  0.1050901518514E+01
-0.6148021371253E-01  0.2018415016677E+01  0.3913869664250E+00  0.1061534067112E+01
-0.6548931938399E-01  0.1824612608297E+01  0.3518246630252E+00  0.1067517190652E+01
-0.6570392484889E-01  0.1630264022139E+01  0.3129120241207E+00  0.1067883917902E+01
-0.6114581268444E-01  0.1436170087869E+01  0.2750048591349E+00  0.1061467211131E+01
-0.5092147971988E-01  0.1243128851465E+01  0.2384414779020E+00  0.1047000425588E+01
-0.3424769946876E-01  0.1051849251797E+01  0.2035203134984E+00  0.1023275436893E+01
-0.1053330511717E-01  0.8630205002409E+00  0.1704974415654E+00  0.9892137848854E+00
 0.2047984804460E-01  0.6773732790309E+00  0.1395706274949E+00  0.9439338349603E+00
 0.5853515090960E-01  0.4956829203576E+00  0.1108436159051E+00  0.8868779492358E+00
 0.1026377506491E+00  0.3187954750193E+00  0.8428664638965E-01  0.8179572148440E+00
 0.1507718720142E+00  0.1477021978916E+00  0.5969481487068E-01  0.7377128394706E+00
 0.1995554053819E+00 -0.1632664068857E-01  0.3664575348473E-01  0.6474877972124E+00
 0.2438885390038E+00 -0.1716122057041E+00  0.1445526687534E-01  0.5496111549606E+00
 0.2767268831494E+00 -0.3161088040415E+00 -0.7876384295777E-02  0.4475180471257E+00
 0.2887222210958E+00 -0.4470159872086E+00 -0.3165875369432E-01  0.3448047167564E+00
 0.2684738866241E+00 -0.5603484446429E+00 -0.5837491247360E-01  0.2432359988896E+00
 0.2055800259452E+00 -0.6527731394056E+00 -0.8943862402481E-01  0.1418707293884E+00
 0.9519125472000E-01 -0.7247966170977E+00 -0.1259210743519E+00  0.4027059203672E-01
 0.1124203579281E+01  0.4937726402577E+01  0.1212386014438E+01  0.8678839727023E+00
 0.9009777563470E+00  0.5003252919787E+01  0.1180846152823E+01  0.9964647751791E+00
 0.6639936608980E+00  0.5037223058911E+01  0.1140243360953E+01  0.1047128669137E+01
 0.4578092595224E+00  0.5021824332608E+01  0.1095926734757E+01  0.1042659191770E+01
 0.3001760043218E+00  0.4957911828729E+01  0.1051617582280E+01  0.1012712821890E+01
 0.1886280742498E+00  0.4857171002819E+01  0.1009159830451E+01  0.9785538021332E+00
 0.1127676326796E+00  0.4732528500636E+01  0.9690592411033E+00  0.9504565320208E+00
 0.6199385353934E-01  0.4593616023998E+01  0.9311219893823E+00  0.9313798482991E+00
 0.2815278339823E-01  0.4446355166748E+01  0.8949016033642E+00  0.9208945117625E+00
 0.5634533601853E-02  0.4293999512668E+01  0.8599268220679E+00  0.9174963865149E+00
-0.9245660283880E-02  0.4138173784730E+01  0.8257856371944E+00  0.9196150037409E+00
-0.1885834760504E-01  0.3979557420871E+01  0.7921398264570E+00  0.9259641563944E+00
-0.2472125368596E-01  0.3818281420456E+01  0.7587120446596E+00  0.9356364996963E+00
-0.2785424592290E-01  0.3654171337862E+01  0.7252634291950E+00  0.9481131785133E+00
-0.2908748947286E-01  0.3486935821415E+01  0.6915696766936E+00  0.9632240192232E+00
-0.2932053113970E-01  0.3316354096076E+01  0.6574067227833E+00  0.9810187252347E+00
-0.2962200903103E-01  0.3142752690632E+01  0.6226261455980E+00  0.1001410417754E+01
-0.3107386044891E-01  0.2967271468308E+01  0.5872395303224E+00  0.1023767344544E+01
-0.3445854349782E-01  0.2790975773057E+01  0.5513034541270E+00  0.1046999224112E+01
-0.3998092250671E-01  0.2614130406989E+01  0.5148299045681E+00  0.1069910868767E+01
-0.4718691551632E-01  0.2436476583321E+01  0.4778579406816E+00  0.1091377893998E+01
-0.5510789795564E-01  0.2257628557103E+01  0.4405041383935E+00  0.1110430657175E+01
-0.6250432303677E-01  0.2077337017489E+01  0.4029665448951E+00  0.1126236217660E+01
-0.6807519053741E-01  0.1895602268695E+01  0.3655054210780E+00  0.1138004083065E+01
-0.7057753131121E-01  0.1712674654845E+01  0.3284194296005E+00  0.1144876467689E+01
-0.6886711901008E-01  0.1529001508951E+01  0.2920268823397E+00  0.1145850514886E+01
-0.6190179910612E-01  0.1345155551410E+01  0.2566507542852E+00  0.1139756585422E+01
-0.4875122351812E-01  0.1161710290395E+01  0.2225918166922E+00  0.1125346590445E+01
-0.2863550679276E-01  0.9791598551359E+00  0.1901048725014E+00  0.1101436285670E+01
-0.1012132552385E-02  0.7979906948193E+00  0.1593957148286E+00  0.1066971665100E+01
 0.3428023576174E-01  0.6187511162762E+00  0.1306062723538E+00  0.1021094857102E+01
 0.7683484341518E-01  0.4420711896144E+00  0.1037812081524E+00  0.9632641482352E+00
 0.1254480428112E+00  0.2687097568610E+00  0.7883156110913E-01  0.8933828182775E+00
 0.1778397064527E+00  0.9964809605105E-01  0.5549756132773E-01  0.8119316952622E+00
 0.2303314897317E+00 -0.6376671180446E-01  0.3331295608185E-01  0.7200973904572E+00
 0.2775608966480E+00 -0.2197057883688E+00  0.1157102182826E-01  0.6199003332117E+00
 0.3124001157516E+00 -0.3659603493707E+00 -0.1071204688345E-01  0.5142742549104E+00
 0.3258186556094E+00 -0.4996907494983E+00 -0.3477441929597E-01  0.4062363963184E+00
 0.3071759038652E+00 -0.6171278141726E+00 -0.6199038298521E-01  0.2973550599548E+00
 0.2464532643260E+00 -0.7150185281600E+00 -0.9371305416324E-01  0.1875293758212E+00
 0.1367543483063E+00 -0.7925157765360E+00 -0.1311522876003E+00  0.7764345713770E-01
 0.1061168389838E+01  0.4626629856860E+01  0.1137559666291E+01  0.8422401350227E+00
 0.8658876064340E+00  0.4684582154741E+01  0.1110093968777E+01  0.9763446107520E+00
 0.6535495960132E+00  0.4717582639370E+01  0.1074226463084E+01  0.1042097259163E+01
 0.4623772737187E+00  0.4709260538537E+01  0.1034327577864E+01  0.1055938193500E+01
 0.3104898936971E+00  0.4657734714763E+01  0.9936449364986E+00  0.1041839186751E+01
 0.1989532369353E+00  0.4570983436465E+01  0.9539873488956E+00  0.1018945401120E+01
 0.1206416632626E+00  0.4459554109958E+01  0.9160391682942E+00  0.9979975484392E+00
 0.6686804664558E-01  0.4332245333842E+01  0.8798226892079E+00  0.9832393039478E+00
 0.3029544819124E-01  0.4195025211748E+01  0.8450641445803E+00  0.9753796638363E+00
 0.5543532779235E-02  0.4051495631359E+01  0.8114078449186E+00  0.9736811710786E+00
-0.1109063775533E-01  0.3903655537207E+01  0.7785129914911E+00  0.9770399811628E+00
-0.2208294427977E-01  0.3752501995273E+01  0.7460838213162E+00  0.9844470478212E+00
-0.2908107265054E-01  0.3598424645119E+01  0.7138687251312E+00  0.9951577382560E+00
-0.3323317609213E-01  0.3441468305074E+01  0.6816470359536E+00  0.1008736439464E+01
-0.3546975322399E-01  0.3281534361345E+01  0.6492129312982E+00  0.1025026030095E+01
-0.3672464355626E-01  0.3118560729793E+01  0.6163672264319E+00  0.1044028507963E+01
-0.3800643939080E-01  0.2952966114687E+01  0.5829919437464E+00  0.1065592480460E+01
-0.4026335416192E-01  0.2785900996968E+01  0.5491275367439E+00  0.1089068389752E+01
-0.4414169677257E-01  0.2618412603319E+01  0.5148541889812E+00  0.1113404537380E+01
-0.4977366043808E-01  0.2450767113617E+01  0.4801986977912E+00  0.1137456427022E+01
-0.5670612829794E-01  0.2282711867862E+01  0.4452011545468E+00  0.1160119725894E+01
-0.6400722712397E-01  0.2113837291725E+01  0.4099660190293E+00  0.1180396843222E+01
-0.7046462716127E-01  0.1943817304193E+01  0.3746705409894E+00  0.1197391963661E+01
-0.7477089714705E-01  0.1772520927130E+01  0.3395500110562E+00  0.1210243487519E+01
-0.7564347523179E-01  0.1600025608281E+01  0.3048764311529E+00  0.1218037054574E+01
-0.7188117569745E-01  0.1426580795857E+01  0.2709399280691E+00  0.1219739749522E+01
-0.6238888044849E-01  0.1252551549050E+01  0.2380325372672E+00  0.1214180053014E+01
-0.4620663936340E-01  0.1078307244431E+01  0.2064201240894E+00  0.1200125582954E+01
-0.2256097579279E-01  0.9041494094305E+00  0.1763176893549E+00  0.1176410785709E+01
 0.9042170271076E-02  0.7303870518847E+00  0.1478858466348E+00  0.1141997813751E+01
 0.4867062115521E-01  0.5574140681562E+00  0.1212169396685E+00  0.1096038689225E+01
 0.9577616127950E-01  0.3857430735160E+00  0.9630384839414E-01  0.1037985854266E+01
 0.1489649582717E+00  0.2160682961462E+00  0.7300665197146E-01  0.9677046527152E+00
 0.2057264560478E+00  0.4937132486686E-01  0.5101955694318E-01  0.8855796261156E+00
 0.2621398019665E+00 -0.1129356102980E+00  0.2984083877837E-01  0.7926067845959E+00
 0.3126505180626E+00 -0.2689174942976E+00  0.8746604883333E-02  0.6904822029327E+00
 0.3501030316702E+00 -0.4162748444672E+00 -0.1323436275660E-01  0.5816689716963E+00
 0.3657300059069E+00 -0.5521768556301E+00 -0.3728937050028E-01  0.4686972212498E+00
 0.3493660639247E+00 -0.6729765003402E+00 -0.6472208824753E-01  0.3529949924607E+00
 0.2910368916568E+00 -0.7752994316214E+00 -0.9685250943613E-01  0.2350281093475E+00
 0.1823373558546E+00 -0.8572089702576E+00 -0.1349743248919E+00  0.1163005283996E+00
 0.9982635567274E+00  0.4324501296338E+01  0.1064552986476E+01  0.8199729824984E+00
 0.8271643856617E+00  0.4375569804097E+01  0.1040546853457E+01  0.9582051748146E+00
 0.6370454032274E+00  0.4406769459471E+01  0.1008762987571E+01  0.1036212598218E+01
 0.4607033529426E+00  0.4403307124973E+01  0.9728021100790E+00  0.1065793593401E+01
 0.3158117512592E+00  0.4361635177609E+01  0.9354893997135E+00  0.1066228380387E+01
 0.2058426154536E+00  0.4286891072560E+01  0.8985467509921E+00  0.1054420080356E+01
 0.1263343515957E+00  0.4187469587911E+01  0.8627608007575E+00  0.1041023044221E+01
 0.7039160080719E-01  0.4071170957151E+01  0.8283125239345E+00  0.1031128089340E+01
 0.3158080795733E-01  0.3943771011848E+01  0.7950703758086E+00  0.1026375130591E+01
 0.4865948293711E-02  0.3809045299267E+01  0.7627822608785E+00  0.1026734992048E+01
-0.1338888126051E-01  0.3669267373029E+01  0.7311757092491E+00  0.1031573407749E+01
-0.2571061828152E-01  0.3525702113961E+01  0.6999983095666E+00  0.1040176576684E+01
-0.3384128422451E-01  0.3378973908989E+01  0.6690265349221E+00  0.1051978400471E+01
-0.3902928544858E-01  0.3229331766225E+01  0.6380605056632E+00  0.1066637254387E+01
-0.4228068211992E-01  0.3076853343037E+01  0.6069145412272E+00  0.1084019753423E+01
-0.4454698104347E-01  0.2921615649282E+01  0.5754137422220E+00  0.1104096971956E+01
-0.4677674285197E-01  0.2764112021059E+01  0.5434670637398E+00  0.1126674309933E+01
-0.4979989834201E-01  0.2605492251684E+01  0.5111384782849E+00  0.1151100355587E+01
-0.5414237663614E-01  0.2446777526835E+01  0.4785270371704E+00  0.1176367439578E+01
-0.5986559341406E-01  0.2288227201266E+01  0.4456723282115E+00  0.1201383811273E+01
-0.6650587030115E-01  0.2129589165657E+01  0.4126166652196E+00  0.1225073733635E+01
-0.7315393995024E-01  0.1970432534456E+01  0.3794557245556E+00  0.1246428879764E+01
-0.7861714906192E-01  0.1810366556689E+01  0.3463498866864E+00  0.1264511208521E+01
-0.8158297219915E-01  0.1649147531393E+01  0.3135129165105E+00  0.1278405987861E+01
-0.8073689370761E-01  0.1486700881090E+01  0.2811928016665E+00  0.1287154534473E+01
-0.7483084825748E-01  0.1323098880489E+01  0.2496536101664E+00  0.1289700062407E+01
-0.6272583670661E-01  0.1158518799343E+01  0.2191585957930E+00  0.1284870056854E+01
-0.4343805226265E-01  0.9931453779237E+00  0.1899414679626E+00  0.1271444786729E+01
-0.1620209820191E-01  0.8271078438107E+00  0.1621811515384E+00  0.1248271544837E+01
 0.1942972419204E-01  0.6605596729681E+00  0.1359978814585E+00  0.1214319563833E+01
 0.6343776499669E-01  0.4937632430289E+00  0.1114402032657E+00  0.1168736836491E+01
 0.1151442141326E+00  0.3271350818421E+00  0.8845586051302E-01  0.1110949863482E+01
 0.1729861918663E+00  0.1613202397646E+00  0.6686128732250E-01  0.1040760169610E+01
 0.2342567839744E+00 -0.2695775852458E-02  0.4631220231450E-01  0.9584277612737E+00
 0.2948410286711E+00 -0.1634504497090E+00  0.2627811618399E-01  0.8647354816268E+00
 0.3490479776300E+00 -0.3189396012524E+00  0.6021675365255E-02  0.7610525935809E+00
 0.3897267291159E+00 -0.4668213569371E+00 -0.1541892579400E-01  0.6494045998399E+00
 0.4083161501818E+00 -0.6042926525782E+00 -0.3919530106333E-01  0.5318916247259E+00
 0.3949206970831E+00 -0.7277516119758E+00 -0.6656618397046E-01  0.4097877383567E+00
 0.3394225499814E+00 -0.8335835116362E+00 -0.9883219380368E-01  0.2838848221406E+00
 0.2323943803139E+00 -0.9190034054345E+00 -0.1373218070704E+00  0.1559307636150E+00
 0.9355913486589E+00  0.4030156855763E+01  0.9931496556835E+00  0.8006528522572E+00
 0.7855662446283E+00  0.4074996389866E+01  0.9721125413845E+00  0.9419767668183E+00
 0.6154792129712E+00  0.4103919697247E+01  0.9438797961085E+00  0.1029995581460E+01
 0.4535133470234E+00  0.4103693210485E+01  0.9114413250833E+00  0.1073088542761E+01
 0.3164343664767E+00  0.4069825474261E+01  0.8772519812195E+00  0.1086703741566E+01
 0.2092779069187E+00  0.4005320634643E+01  0.8429197208728E+00  0.1085559845090E+01
 0.1296925931117E+00  0.3916706448970E+01  0.8092798204755E+00  0.1079866290925E+01
 0.7239147470621E-01  0.3810737022191E+01  0.7766257109521E+00  0.1075203815905E+01
 0.3186444446896E-01  0.3692834615378E+01  0.7449398230698E+00  0.1073935357717E+01
 0.3497640243437E-02  0.3566803798910E+01  0.7140602984709E+00  0.1076657048315E+01
-0.1620649292708E-01  0.3435097857325E+01  0.6837782830687E+00  0.1083185810388E+01
-0.2977452280768E-01  0.3299195271770E+01  0.6538841595362E+00  0.1093108200124E+01
-0.3900636318231E-01  0.3159924771760E+01  0.6241836910166E+00  0.1106046445868E+01
-0.4522210212250E-01  0.3017719088242E+01  0.5944994060826E+00  0.1121762405391E+01
-0.4948001525878E-01  0.2872813411751E+01  0.5646666877127E+00  0.1140157917296E+01
-0.5273488155384E-01  0.2725405436667E+01  0.5345341189879E+00  0.1161189797331E+01
-0.5587526136026E-01  0.2576048541796E+01  0.5040346635978E+00  0.1184639538118E+01
-0.5962521988683E-01  0.2425883400362E+01  0.4732516431470E+00  0.1209867878807E+01
-0.6440321304647E-01  0.2275899827859E+01  0.4422993295532E+00  0.1235916317918E+01
-0.7020216971674E-01  0.2126344571685E+01  0.4112284865214E+00  0.1261747751056E+01
-0.7653913926491E-01  0.1976961568914E+01  0.3800844915935E+00  0.1286321548750E+01
-0.8251558852049E-01  0.1827299806409E+01  0.3489568487776E+00  0.1308632308070E+01
-0.8695112528676E-01  0.1676912817480E+01  0.3179923431772E+00  0.1327717171444E+01
-0.8852785882959E-01  0.1525459371179E+01  0.2873863067522E+00  0.1342624441967E+01
-0.8590468968392E-01  0.1372731254848E+01  0.2573653168678E+00  0.1352362823371E+01
-0.7779451477770E-01  0.1218642759169E+01  0.2281696522783E+00  0.1355857899133E+01
-0.6302159955422E-01  0.1063202154854E+01  0.2000361140408E+00  0.1351937213220E+01
-0.4058244592046E-01  0.9064278017795E+00  0.1731690737522E+00  0.1339390666369E+01
-0.9719969960810E-02  0.7482949770643E+00  0.1477150036218E+00  0.1317072345741E+01
 0.2997097974233E-01  0.5888204350996E+00  0.1237582848125E+00  0.1283949283026E+01
 0.7839152537919E-01  0.4281535630499E+00  0.1013090191954E+00  0.1239151990346E+01
 0.1347484178026E+00  0.2666308545310E+00  0.8027585566293E-01  0.1182062872590E+01
 0.1973322322964E+00  0.1048581190465E+00  0.6043807116918E-01  0.1112397817433E+01
 0.2632726088422E+00 -0.5617588863805E-01  0.4141934465802E-01  0.1030270616342E+01
 0.3283028776740E+00 -0.2149734782452E+00  0.2266588022349E-01  0.9362369805060E+00
 0.3866384720440E+00 -0.3694899903164E+00  0.3429696396632E-02  0.8313441804757E+00
 0.4311518729124E+00 -0.5173709263606E+00 -0.1724381094658E-01  0.7172105736574E+00
 0.4534429384799E+00 -0.6558474410715E+00 -0.4048090112152E-01  0.5955395090056E+00
 0.4437513178829E+00 -0.7813179855219E+00 -0.6751333453383E-01  0.4673984437561E+00
 0.3916955993876E+00 -0.8898608064938E+00 -0.9963304290589E-01  0.3336919603872E+00
 0.2871914154263E+00 -0.9780152018434E+00 -0.1381647593422E+00  0.1962674024075E+00
 0.8732168499959E+00  0.3742635600538E+01  0.9231705038631E+00  0.7839183649824E+00
 0.7416775783130E+00  0.3781849417282E+01  0.9047054126001E+00  0.9275552352049E+00
 0.5896722484137E+00  0.3808250875262E+01  0.8795846378420E+00  0.1023796546718E+01
 0.4414722195217E+00  0.3810072631274E+01  0.8503089828297E+00  0.1078486165850E+01
 0.3126968315499E+00  0.3782361903404E+01  0.8190117591950E+00  0.1103960028550E+01
 0.2093259895060E+00  0.3726550761862E+01  0.7871753620034E+00  0.1112905964251E+01
 0.1306381682530E+00  0.3647595084867E+01  0.7556466618840E+00  0.1114873725510E+01
 0.7274472627962E-01  0.3551231140023E+01  0.7247951840608E+00  0.1115656197308E+01
 0.3103118379647E-01  0.3442430507613E+01  0.6946923486336E+00  0.1118147212587E+01
 0.1350528572947E-02  0.3324914344994E+01  0.6652529846263E+00  0.1123473277222E+01
-0.1960086951874E-01  0.3201230667923E+01  0.6363259691629E+00  0.1131868566144E+01
-0.3430316668054E-01  0.3073016936323E+01  0.6077427629846E+00  0.1143214077456E+01
-0.4457890009626E-01  0.2941272104651E+01  0.5793386495437E+00  0.1157324358774E+01
-0.5179190357413E-01  0.2806588718381E+01  0.5509593711713E+00  0.1174072258783E+01
-0.5703089377677E-01  0.2669339451384E+01  0.5224617193067E+00  0.1193405934952E+01
-0.6124119157942E-01  0.2529825279802E+01  0.4937168250015E+00  0.1215283614597E+01
-0.6525110340118E-01  0.2388647063496E+01  0.4646791989432E+00  0.1239480046459E+01
-0.6968865358342E-01  0.2246929723771E+01  0.4354482205262E+00  0.1265380329201E+01
-0.7487528153613E-01  0.2105627997178E+01  0.4061505491806E+00  0.1292079927267E+01
-0.8073777916990E-01  0.1964971955576E+01  0.3768468408967E+00  0.1318598275546E+01
-0.8676734017991E-01  0.1824698110839E+01  0.3475861593113E+00  0.1343935024065E+01
-0.9206630877588E-01  0.1684335912266E+01  0.3184539254433E+00  0.1367098653791E+01
-0.9545958116196E-01  0.1543390024409E+01  0.2895860929646E+00  0.1387116091323E+01
-0.9562253009203E-01  0.1401434238512E+01  0.2611623455756E+00  0.1403012939639E+01
-0.9119093578694E-01  0.1258142795551E+01  0.2333903754307E+00  0.1413776143812E+01
-0.8084442492269E-01  0.1113289466359E+01  0.2064890113642E+00  0.1418319726014E+01
-0.6337578130680E-01  0.9667309248494E+00  0.1806710314007E+00  0.1415472486812E+01
-0.3776438885116E-01  0.8183359515294E+00  0.1561143148619E+00  0.1404031134620E+01
-0.3260283501537E-02  0.6679422606148E+00  0.1329363974036E+00  0.1382850619163E+01
 0.4050448894497E-01  0.5154458831660E+00  0.1111900760791E+00  0.1350886719450E+01
 0.9336180516745E-01  0.3608980143280E+00  0.9085196525289E-01  0.1307239858786E+01
 0.1544186997484E+00  0.2045668523376E+00  0.7179711148705E-01  0.1251232251635E+01
 0.2218421930328E+00  0.4702478111993E-01  0.5377339563184E-01  0.1182476022216E+01
 0.2926295006402E+00 -0.1107393606299E+00  0.3637802854413E-01  0.1100922419257E+01
 0.3623988532907E+00 -0.2672065493426E+00  0.1903846107332E-01  0.1006891951783E+01
 0.4253051266245E+00 -0.4203124695781E+00  0.9985314241494E-03  0.9011178817442E+00
 0.4742550108359E+00 -0.5677061275903E+00 -0.1869022362940E-01  0.7848371518875E+00
 0.5009801642086E+00 -0.7066530701568E+00 -0.4113458180259E-01  0.6593772730104E+00
 0.4957873292887E+00 -0.8335443422010E+00 -0.6755140358904E-01  0.5255345753746E+00
 0.4479352177078E+00 -0.9441335657729E+00 -0.9923967109180E-01  0.3841151577081E+00
 0.3468436249873E+00 -0.1034353109459E+01 -0.1375018989433E+00  0.2370652810394E+00
 0.8111798518722E+00  0.3461143691345E+01  0.8544647213759E+00  0.7694635717426E+00
 0.6959537995475E+00  0.3495278468997E+01  0.8382464661997E+00  0.9148215497387E+00
 0.5603016867715E+00  0.3519060673711E+01  0.8158724842540E+00  0.1017848058991E+01
 0.4251780042822E+00  0.3522064074808E+01  0.7894484275818E+00  0.1082494640917E+01
 0.3049566070906E+00  0.3499192315549E+01  0.7608297958652E+00  0.1118576901216E+01
 0.2061137878078E+00  0.3450742059892E+01  0.7313711804382E+00  0.1136949089459E+01
 0.1291546049035E+00  0.3380375368978E+01  0.7019060052356E+00  0.1146388826848E+01
 0.7137474007072E-01  0.3292884105939E+01  0.6728517792283E+00  0.1152694243989E+01
 0.2899569807052E-01  0.3192741734340E+01  0.6443474960836E+00  0.1159122207738E+01
-0.1645606842244E-02  0.3083504093635E+01  0.6163717065433E+00  0.1167232288977E+01
-0.2361906628910E-01  0.2967741638330E+01  0.5888245231824E+00  0.1177632011479E+01
-0.3931935302081E-01  0.2847198866642E+01  0.5615759110925E+00  0.1190482207976E+01
-0.5055904887773E-01  0.2723009522086E+01  0.5344901026062E+00  0.1205788489378E+01
-0.5871934345996E-01  0.2595900248028E+01  0.5074361884749E+00  0.1223539800121E+01
-0.6489931812370E-01  0.2466360593744E+01  0.4802922622809E+00  0.1243740523063E+01
-0.7002341632290E-01  0.2334778300723E+01  0.4529509836295E+00  0.1266364430555E+01
-0.7485903017128E-01  0.2201790555179E+01  0.4253863113402E+00  0.1291194530729E+01
-0.7994578244888E-01  0.2068501009560E+01  0.3977110513487E+00  0.1317650822021E+01
-0.8551648351667E-01  0.1935826607127E+01  0.3700620302365E+00  0.1344887135418E+01
-0.9143400118529E-01  0.1803977883609E+01  0.3425087815884E+00  0.1371981352871E+01
-0.9715868208749E-01  0.1672681367481E+01  0.3151045417741E+00  0.1397977659835E+01
-0.1017856115062E+00  0.1541447385264E+01  0.2879323590422E+00  0.1421907313525E+01
-0.1041385896473E+00  0.1409737179819E+01  0.2611197219254E+00  0.1442799241272E+01
-0.1028841520755E+00  0.1277050059299E+01  0.2348331849441E+00  0.1459668770315E+01
-0.9663685324560E-01  0.1142956746345E+01  0.2092639817382E+00  0.1471490938304E+01
-0.8404695474500E-01  0.1007106184332E+01  0.1846118486683E+00  0.1477173961742E+01
-0.6387922777369E-01  0.8692193062059E+00  0.1610680180865E+00  0.1475549207543E+01
-0.3509696385991E-01  0.7290305405740E+00  0.1387867174109E+00  0.1465417665292E+01
 0.3045245667120E-02  0.5862544955576E+00  0.1178599500012E+00  0.1445629570958E+01
 0.5088486383998E-01  0.4406799340158E+00  0.9831296103614E-01  0.1415120937282E+01
 0.1081958602088E+00  0.2922714868586E+00  0.8009347060697E-01  0.1372950577170E+01
 0.1740022714905E+00  0.1412373252949E+00  0.6304792029657E-01  0.1318366467447E+01
 0.2463704711301E+00 -0.1188077950217E-01  0.4689793902442E-01  0.1250862092610E+01
 0.3221939946826E+00 -0.1660984561653E+00  0.3121910816867E-01  0.1170213923081E+01
 0.3970076481096E+00 -0.3198870393019E+00  0.1542412199136E-01  0.1076503138084E+01
 0.4649313715400E+00 -0.4711776104647E+00 -0.1249247803548E-02  0.9701572040778E+00
 0.5189131181688E+00 -0.6176278648125E+00 -0.1974294962293E-01  0.8520522801609E+00
 0.5507983149857E+00 -0.7565340894968E+00 -0.4114715551535E-01  0.7231548504835E+00
 0.5509568962365E+00 -0.8842937714780E+00 -0.6666737604172E-01  0.5839431839907E+00
 0.5082251582400E+00 -0.9963937452595E+00 -0.9763371885876E-01  0.4348981942760E+00
 0.4113423688440E+00 -0.1088112426528E+01 -0.1353540135537E+00  0.2780817696703E+00
 0.7495026874124E+00  0.3185014796330E+01  0.7869035084743E+00  0.7570279115402E+00
 0.6487534239493E+00  0.3214561114293E+01  0.7726629191621E+00  0.9036530621671E+00
 0.5279279113491E+00  0.3235720885758E+01  0.7527297706379E+00  0.1012301190272E+01
 0.4051625303274E+00  0.3239275641818E+01  0.7288876452903E+00  0.1085502830491E+01
 0.2935713966728E+00  0.3220190891439E+01  0.7027524680942E+00  0.1131034357061E+01
 0.1998084624623E+00  0.3177963032086E+01  0.6755543089763E+00  0.1158126102276E+01
 0.1252746612889E+00  0.3115208787794E+01  0.6480966994739E+00  0.1174741330785E+01
 0.6824608275026E-01  0.3035872447945E+01  0.6208237153900E+00  0.1186535945866E+01
 0.2570163399668E-01  0.2943918220853E+01  0.5939239798200E+00  0.1196989368283E+01
-0.5542334676588E-02  0.2842681478646E+01  0.5674278372493E+00  0.1208001170741E+01
-0.2829672179722E-01  0.2734696501634E+01  0.5412799640331E+00  0.1220503176978E+01
-0.4483934187121E-01  0.2621767691549E+01  0.5153856776155E+00  0.1234915169022E+01
-0.5694396728243E-01  0.2505128740507E+01  0.4896369619411E+00  0.1251428101656E+01
-0.6598496774908E-01  0.2385614196784E+01  0.4639258527200E+00  0.1270149581246E+01
-0.7305352054008E-01  0.2263809928512E+01  0.4381512881233E+00  0.1291148458255E+01
-0.7904287955454E-01  0.2140174759125E+01  0.4122263820567E+00  0.1314426343807E+01
-0.8465844885920E-01  0.2015372055592E+01  0.3861427271005E+00  0.1339787389729E+01
-0.9035727601838E-01  0.1890479370290E+01  0.3600244242190E+00  0.1366695475129E+01
-0.9629020144106E-01  0.1766373734893E+01  0.3340167116677E+00  0.1394366739172E+01
-0.1022581419983E+00  0.1643244136459E+01  0.3081972034847E+00  0.1421939395048E+01
-0.1076867900499E+00  0.1520805333253E+01  0.2826237128521E+00  0.1448505758006E+01
-0.1116572707649E+00  0.1398548992413E+01  0.2573783481648E+00  0.1473127152022E+01
-0.1129865348831E+00  0.1275897458451E+01  0.2325821881793E+00  0.1494844723557E+01
-0.1103297155818E+00  0.1152284451619E+01  0.2083909503127E+00  0.1512674254585E+01
-0.1022807653971E+00  0.1027189399537E+01  0.1849817295845E+00  0.1525587689306E+01
-0.8746285324706E-01  0.9001503903624E+00  0.1625375098451E+00  0.1532492804764E+01
-0.6461456801904E-01  0.7707668750594E+00  0.1412304635126E+00  0.1532224931994E+01
-0.3268267265230E-01  0.6386525442255E+00  0.1211939761206E+00  0.1523587179590E+01
 0.9077536940138E-02  0.5034114930779E+00  0.1024978075309E+00  0.1505420012282E+01
 0.6098092519049E-01  0.3647363825036E+00  0.8514346280755E-01  0.1476631911871E+01
 0.1227559329109E+00  0.2225142173479E+00  0.6905403108074E-01  0.1436229782373E+01
 0.1933609140793E+00  0.7689864437172E-01  0.5405191249565E-01  0.1383375280676E+01
 0.2707839929356E+00 -0.7159856509127E-01  0.3983708616248E-01  0.1317431105139E+01
 0.3518416978196E+00 -0.2220026198131E+00  0.2596781598825E-01  0.1237989890227E+01
 0.4320123488096E+00 -0.3727851912904E+00  0.1184543168036E-01  0.1144891226341E+01
 0.5054031662645E+00 -0.5218818014415E+00 -0.3295727084516E-02  0.1038265430781E+01
 0.5650051363570E+00 -0.6669631006968E+00 -0.2039159317181E-01  0.9186391239608E+00
 0.6027722605181E+00 -0.8053315135701E+00 -0.4051185121408E-01  0.7866355217363E+00
 0.6091595822161E+00 -0.9334372980042E+00 -0.6485554412405E-01  0.6423883844569E+00
 0.5726757857592E+00 -0.1046564021850E+01 -0.9477764863041E-01  0.4858704671737E+00
 0.4805607733579E+00 -0.1139331564663E+01 -0.1317541602244E+00  0.3190619358237E+00
 0.6881954895381E+00  0.2913681448852E+01  0.7203753984125E+00  0.7463883254546E+00
 0.6003613400413E+00  0.2939076876391E+01  0.7078876538348E+00  0.8939298869473E+00
 0.4930166954020E+00  0.2957669578776E+01  0.6901372651194E+00  0.1007250611195E+01
 0.3818956310468E+00  0.2961319461293E+01  0.6686430284316E+00  0.1087808023787E+01
 0.2788879090564E+00  0.2945183217315E+01  0.6448142348828E+00  0.1141727921730E+01
 0.1906022931108E+00  0.2908211571480E+01  0.6197627821534E+00  0.1176821095901E+01
 0.1190691489282E+00  0.2852190604796E+01  0.5942519595999E+00  0.1200240590785E+01
 0.6335879223968E-01  0.2780322726575E+01  0.5687363122378E+00  0.1217400356767E+01
 0.2111972029490E-01  0.2696076803570E+01  0.5434393128708E+00  0.1231889007787E+01
-0.1037260835724E-01  0.2602534719374E+01  0.5184324299287E+00  0.1245861410000E+01
-0.3365749118539E-01  0.2502149301097E+01  0.4936983693390E+00  0.1260523327430E+01
-0.5087224717743E-01  0.2396743768845E+01  0.4691743113248E+00  0.1276528588386E+01
-0.6372730300396E-01  0.2287618935875E+01  0.4447783332018E+00  0.1294244223135E+01
-0.7356869333423E-01  0.2175691633164E+01  0.4204245942307E+00  0.1313896617990E+01
-0.8146331446976E-01  0.2061624037091E+01  0.3960321504256E+00  0.1335625443023E+01
-0.8826392144106E-01  0.1945931204060E+01  0.3715334620600E+00  0.1359470470998E+01
-0.9461250515926E-01  0.1829293305446E+01  0.3469361652271E+00  0.1385267845706E+01
-0.1008878859942E+00  0.1712757390277E+01  0.3223739056602E+00  0.1412532844594E+01
-0.1071641659336E+00  0.1597158808967E+01  0.2979989330473E+00  0.1440547341439E+01
-0.1131820026366E+00  0.1482663583383E+01  0.2738963202307E+00  0.1468511677794E+01
-0.1183295058695E+00  0.1368973549440E+01  0.2501288124413E+00  0.1495569380278E+01
-0.1216683196412E+00  0.1255562336367E+01  0.2267788067245E+00  0.1520817869944E+01
-0.1220034079390E+00  0.1141817307923E+01  0.2039627830361E+00  0.1543319067863E+01
-0.1179756588293E+00  0.1027114247256E+01  0.1818277203949E+00  0.1562098431613E+01
-0.1081580318138E+00  0.9108519532268E+00  0.1605387866748E+00  0.1576132626779E+01
-0.9114747118112E-01  0.7924700202817E+00  0.1402645119102E+00  0.1584333944021E+01
-0.6565674221571E-01  0.6714591047209E+00  0.1211604743065E+00  0.1585543153471E+01
-0.3061429547949E-01  0.5473241801751E+00  0.1033419784790E+00  0.1578563729150E+01
 0.1472890146195E-01  0.4195696549732E+00  0.8685971258135E-01  0.1562221935686E+01
 0.7067403404225E-01  0.2878012031850E+00  0.7169504851380E-01  0.1535391841696E+01
 0.1369171939628E+00  0.1518348648847E+00  0.5775041263005E-01  0.1497019429441E+01
 0.2123686494957E+00  0.1177304957598E-01  0.4482834048233E-01  0.1446169769660E+01
 0.2949600747893E+00 -0.1319034332282E+00  0.3261132879817E-01  0.1382064931162E+01
 0.3814553927247E+00 -0.2782347964667E+00  0.2064411955922E-01  0.1304106815525E+01
 0.4673009418825E+00 -0.4257010651890E+00  0.8319975462671E-02  0.1211892671360E+01
 0.5466067508878E+00 -0.5722492697516E+00 -0.5128503849175E-02  0.1105260980944E+01
 0.6124205322873E+00 -0.7155581045607E+00 -0.2062751476206E-01  0.9844033991687E+00
 0.6567709021998E+00 -0.8529396209237E+00 -0.3923374432941E-01  0.8495800467520E+00
 0.6702837676852E+00 -0.9807987790868E+00 -0.6210300320572E-01  0.7006653565040E+00
 0.6413696977360E+00 -0.1094680322266E+01 -0.9066212625704E-01  0.5368443406426E+00
 0.5543842777629E+00 -0.1187368339370E+01 -0.1265968142078E+00  0.3597982158599E+00
 0.6272597784222E+00  0.2646653943445E+01  0.6547827541304E+00  0.7373530236319E+00
 0.5510058865228E+00  0.2668287205723E+01  0.6438586280435E+00  0.8855383944722E+00
 0.4559570855851E+00  0.2684402993107E+01  0.6280720250975E+00  0.1002752056163E+01
 0.3557909155347E+00  0.2687819995697E+01  0.6087221913170E+00  0.1089637357502E+01
 0.2612353467521E+00  0.2673964141785E+01  0.5870399064551E+00  0.1150982539706E+01
 0.1787014546734E+00  0.2641432300581E+01  0.5640267594556E+00  0.1193368708994E+01
 0.1106373798062E+00  0.2591361210279E+01  0.5403997260697E+00  0.1223172000089E+01
 0.5674265329494E-01  0.2526316745557E+01  0.5166118874686E+00  0.1245501804351E+01
 0.1524524706034E-01  0.2449302503402E+01  0.4929095574374E+00  0.1263967516890E+01
-0.1615143671831E-01  0.2363131305192E+01  0.4693959806892E+00  0.1280905113583E+01
-0.3971291733210E-01  0.2270141407131E+01  0.4460857046070E+00  0.1297745457577E+01
-0.5741966447102E-01  0.2172140332597E+01  0.4229441399275E+00  0.1315349466047E+01
-0.7089876113707E-01  0.2070466155122E+01  0.3999134847561E+00  0.1334248373796E+01
-0.8144930067369E-01  0.1966093719308E+01  0.3769288893436E+00  0.1354785267966E+01
-0.9009946297191E-01  0.1859742438165E+01  0.3539286003125E+00  0.1377175060213E+01
-0.9765315269333E-01  0.1751969624017E+01  0.3308632991949E+00  0.1401504028745E+01
-0.1046872692234E+00  0.1643463514312E+01  0.3077552536037E+00  0.1427649232796E+01
-0.1115055718258E+00  0.1535236535829E+01  0.2847461970436E+00  0.1455183491527E+01
-0.1181094911610E+00  0.1428080790009E+01  0.2619942636736E+00  0.1483457278886E+01
-0.1241808337037E+00  0.1322138339691E+01  0.2395915047677E+00  0.1511734705708E+01
-0.1290678527767E+00  0.1217097461892E+01  0.2176059250656E+00  0.1539213162792E+01
-0.1318081539057E+00  0.1112414572285E+01  0.1961212865984E+00  0.1565031189109E+01
-0.1311901504189E+00  0.1007445577323E+01  0.1752510879923E+00  0.1588278656510E+01
-0.1258374966066E+00  0.9015150038604E+00  0.1551355037625E+00  0.1607998603664E+01
-0.1143009687314E+00  0.7939503592068E+00  0.1359298801206E+00  0.1623179314397E+01
-0.9515096676543E-01  0.6841036353379E+00  0.1177905354697E+00  0.1632742147044E+01
-0.6707349511547E-01  0.5713678855399E+00  0.1008588795878E+00  0.1635534865936E+01
-0.2897569143900E-01  0.4551498602006E+00  0.8523483502241E-01  0.1630359996286E+01
 0.1990190426721E-01  0.3348634570924E+00  0.7095307332920E-01  0.1616025872742E+01
 0.7985660470194E-01  0.2100346497964E+00  0.5797825176362E-01  0.1591366228455E+01
 0.1505659380095E+00  0.8041324141833E-01  0.4619583657393E-01  0.1555258401250E+01
 0.2309098123737E+00 -0.5394808296308E-01  0.3539234640952E-01  0.1506662269773E+01
 0.3187844631655E+00 -0.1926016366776E+00  0.2523656567363E-01  0.1444651288229E+01
 0.4109241495952E+00 -0.3346080903671E+00  0.1526321207306E-01  0.1368431387917E+01
 0.5027639545801E+00 -0.4784628801953E+00  0.4860214949391E-02  0.1277356814177E+01
 0.5884353521782E+00 -0.6221285362284E+00 -0.6738636910448E-02  0.1170979470769E+01
 0.6610363908514E+00 -0.7632911985720E+00 -0.2045096184887E-01  0.1049158331424E+01
 0.7127248412966E+00 -0.8992527189699E+00 -0.3730557609055E-01  0.9118100697446E+00
 0.7340850660793E+00 -0.1026402049961E+01 -0.5846339764748E-01  0.7584131858362E+00
 0.7144304159037E+00 -0.1140225095816E+01 -0.8515893725133E-01  0.5880733013366E+00
 0.6340431709033E+00 -0.1233438707416E+01 -0.1198791090888E+00  0.3985380236573E+00
 0.5666909463233E+00  0.2383504527374E+01  0.5900391035317E+00  0.7297565231049E+00
 0.5008715290186E+00  0.2401719946896E+01  0.5805183038334E+00  0.8783729906518E+00
 0.4170757546973E+00  0.2415467899455E+01  0.5665087392721E+00  0.9988345555551E+00
 0.3272120088196E+00  0.2418418378318E+01  0.5491260856102E+00  0.1091164284611E+01
 0.2409220680822E+00  0.2406310345542E+01  0.5294464906141E+00  0.1159064755732E+01
 0.1643178991712E+00  0.2377530295777E+01  0.5083696465649E+00  0.1208058635679E+01
 0.1000992615893E+00  0.2332716244301E+01  0.4865631084284E+00  0.1243795577699E+01
 0.4845180656624E-01  0.2273897074062E+01  0.4644697830468E+00  0.1271045873913E+01
 0.8095230954654E-02  0.2203650626869E+01  0.4423491781562E+00  0.1293373156497E+01
-0.2287700533558E-01  0.2124518249359E+01  0.4203282550680E+00  0.1313231630261E+01
-0.4646266012581E-01  0.2038701060973E+01  0.3984476861068E+00  0.1332231860133E+01
-0.6447551366989E-01  0.1947962920224E+01  0.3766974869240E+00  0.1351414439983E+01
-0.7844377402488E-01  0.1853652818430E+01  0.3550418141715E+00  0.1371461237104E+01
-0.8960397505450E-01  0.1756781241574E+01  0.3334354582725E+00  0.1392828112417E+01
-0.9893309418719E-01  0.1658107005356E+01  0.3118347868804E+00  0.1415807802474E+01
-0.1071787767498E+00  0.1558216627883E+01  0.2902075745510E+00  0.1440539533547E+01
-0.1148510106686E+00  0.1457798252576E+01  0.2685894523837E+00  0.1466948409697E+01
-0.1221807373833E+00  0.1357825780898E+01  0.2471290123855E+00  0.1494669646862E+01
-0.1290998477212E+00  0.1259046620238E+01  0.2259893578709E+00  0.1523124590950E+01
-0.1352324440048E+00  0.1161578187382E+01  0.2052691517342E+00  0.1551642542233E+01
-0.1398851422183E+00  0.1065094982166E+01  0.1850419707469E+00  0.1579477025046E+01
-0.1420677389538E+00  0.9690372444566E+00  0.1653939035651E+00  0.1605811892352E+01
-0.1405480537068E+00  0.8727326941474E+00  0.1464369302702E+00  0.1629770999709E+01
-0.1339294659120E+00  0.7754605253777E+00  0.1283062138051E+00  0.1650421745165E+01
-0.1207387605199E+00  0.6764851666418E+00  0.1111492828806E+00  0.1666770113389E+01
-0.9951848574089E-01  0.5750805826750E+00  0.9511242080410E-01  0.1677750725265E+01
-0.6892582701467E-01  0.4705520281650E+00  0.8032524142700E-01  0.1682219989475E+01
-0.2784253088049E-01  0.3622170933198E+00  0.6687491348437E-01  0.1678978630603E+01
 0.2450833725502E-01  0.2494068236031E+00  0.5478303298796E-01  0.1666814065270E+01
 0.8843078236880E-01  0.1315731537880E+00  0.4400078788702E-01  0.1644514765652E+01
 0.1635980319970E+00  0.8402733069049E-02  0.3440015352580E-01  0.1610882964908E+01
 0.2488773448853E+00 -0.1201014174868E+00  0.2575518586348E-01  0.1564766233980E+01
 0.3421499282404E+00 -0.2535277992022E+00  0.1772442607175E-01  0.1505082960570E+01
 0.4401415246854E+00 -0.3909631301589E+00  0.9835679051850E-02  0.1430838951511E+01
 0.5382962800696E+00 -0.5309243301146E+00  0.1474390012974E-02  0.1341144970378E+01
 0.6307783829016E+00 -0.6713934408893E+00 -0.8123011718584E-02  0.1235269216051E+01
 0.7107583751466E+00 -0.8100608489117E+00 -0.1986049504896E-01  0.1112741912866E+01
 0.7704606995942E+00 -0.9442149658024E+00 -0.3475085375947E-01  0.9731276958159E+00
 0.8007807788162E+00 -0.1070218375468E+01 -0.5388752013343E-01  0.8155246561607E+00
 0.7903149138501E+00 -0.1183402572616E+01 -0.7861753292461E-01  0.6386807700743E+00
 0.7261648750614E+00 -0.1276926996737E+01 -0.1101524259766E+00  0.4379920322071E+00
 0.5064800020993E+00  0.2123855379675E+01  0.5260670841938E+00  0.7234556683705E+00
 0.4501083746652E+00  0.2138957187982E+01  0.5178131202455E+00  0.8723368830057E+00
 0.3766485080645E+00  0.2150454712563E+01  0.5054206516568E+00  0.9955090522812E+00
 0.2964786662677E+00  0.2152774287673E+01  0.4898505980875E+00  0.1092521214536E+01
 0.2182343305810E+00  0.2141989080975E+01  0.4720446893452E+00  0.1166193123812E+01
 0.1476636471575E+00  0.2116381796172E+01  0.4528090954133E+00  0.1221140565926E+01
 0.8758892354772E-01  0.2076215354486E+01  0.4327608620553E+00  0.1262346016641E+01
 0.3855988448182E-01  0.2023072484777E+01  0.4123264799959E+00  0.1294226808234E+01
-0.2944997378481E-03  0.1959149360474E+01  0.3917709779850E+00  0.1320252777445E+01
-0.3053208727063E-01  0.1886722917542E+01  0.3712381715862E+00  0.1342944627711E+01
-0.5389500277603E-01  0.1807843359337E+01  0.3507896765395E+00  0.1364051848619E+01
-0.7202607262174E-01  0.1724209062202E+01  0.3304366028400E+00  0.1384768070161E+01
-0.8634328225801E-01  0.1637157337262E+01  0.3101628156227E+00  0.1405911323140E+01
-0.9800791775719E-01  0.1547714172978E+01  0.2899412553646E+00  0.1428044861463E+01
-0.1079351814828E+00  0.1456661401955E+01  0.2697452481141E+00  0.1451540167789E+01
-0.1168099867651E+00  0.1364602681725E+01  0.2495585427106E+00  0.1476594093289E+01
-0.1250735587756E+00  0.1272218463924E+01  0.2294289844485E+00  0.1503185265561E+01
-0.1328855651587E+00  0.1180440416728E+01  0.2095109734359E+00  0.1531014949624E+01
-0.1401107507894E+00  0.1089969896184E+01  0.1899718319097E+00  0.1559577021689E+01
-0.1463164377280E+00  0.1000899218765E+01  0.1709165587543E+00  0.1588267115799E+01
-0.1507662036020E+00  0.9128892315069E+00  0.1524246078523E+00  0.1616396798784E+01
-0.1524389125724E+00  0.8253652440645E+00  0.1345852683039E+00  0.1643198745966E+01
-0.1500782161104E+00  0.7376299038811E+00  0.1175103393052E+00  0.1667835880815E+01
-0.1422641936996E+00  0.6489224055179E+00  0.1013316438736E+00  0.1689405785554E+01
-0.1274973655589E+00  0.5584513681954E+00  0.8619080181164E-01  0.1706937526641E+01
-0.1042903145471E+00  0.4654211461246E+00  0.7222616739174E-01  0.1719382878894E+01
-0.7126839756774E-01  0.3690577400352E+00  0.5955786938097E-01  0.1725608664845E+01
-0.2728295427843E-01  0.2685973293768E+00  0.4826287573886E-01  0.1724413438110E+01
 0.2846830108416E-01  0.1632943864753E+00  0.3835253808338E-01  0.1714561475375E+01
 0.9630728310223E-01  0.5253103221482E-01  0.2976766350698E-01  0.1694792069535E+01
 0.1759175522684E+00 -0.6406756493676E-01  0.2236999779967E-01  0.1663827103262E+01
 0.2661714077816E+00 -0.1865491867692E+00  0.1592444443977E-01  0.1620396060416E+01
 0.3649547595224E+00 -0.3145423569109E+00  0.1008248067254E-01  0.1563257062792E+01
 0.4690051812380E+00 -0.4471655139140E+00  0.4367933529886E-02  0.1491212403321E+01
 0.5737934058040E+00 -0.5829629865635E+00 -0.1833916179225E-02  0.1403128803668E+01
 0.6735333587172E+00 -0.7199395194912E+00 -0.9281232293110E-02  0.1297992011038E+01
 0.7614635968235E+00 -0.8557908365256E+00 -0.1886544822152E-01  0.1175007372643E+01
 0.8299438487573E+00 -0.9877861481946E+00 -0.3156846035786E-01  0.1033370839390E+01
 0.8699389267688E+00 -0.1112284952430E+01 -0.4846920585457E-01  0.8718557435760E+00
 0.8707147372086E+00 -0.1224432553780E+01 -0.7074356436853E-01  0.6883974682459E+00
 0.8213737963944E+00 -0.1318961112703E+01 -0.9951746474470E-01  0.4786522714168E+00
 0.4466148106596E+00  0.1867369343306E+01  0.4627968376894E+00  0.7183264168323E+00
 0.3988393892540E+00  0.1879625673133E+01  0.4556930192677E+00  0.8673422545846E+00
 0.3349095178769E+00  0.1888991441255E+01  0.4447801984541E+00  0.9927745021373E+00
 0.2638724625676E+00  0.1890566322118E+01  0.4308877633579E+00  0.1093809214454E+01
 0.1934363602746E+00  0.1880764158622E+01  0.4148401099610E+00  0.1172546952955E+01
 0.1289469095746E+00  0.1857842464400E+01  0.3973578807159E+00  0.1232829104382E+01
 0.7324969047044E-01  0.1821789608690E+01  0.3790078654797E+00  0.1279033668533E+01
 0.2715575978874E-01  0.1773823064870E+01  0.3601957702991E+00  0.1315225996553E+01
-0.9872137142053E-02  0.1715802601222E+01  0.3411860979000E+00  0.1344749352060E+01
-0.3908561048946E-01  0.1649754257515E+01  0.3221337342053E+00  0.1370149631960E+01
-0.6198755893411E-01  0.1577570591984E+01  0.3031166111268E+00  0.1393279687569E+01
-0.8005017195467E-01  0.1500868207180E+01  0.2841636112793E+00  0.1415461195798E+01
-0.9457362641135E-01  0.1420953858999E+01  0.2652760504704E+00  0.1437633662896E+01
-0.1066340384733E+00  0.1338851296750E+01  0.2464434553276E+00  0.1460461298898E+01
-0.1170760984322E+00  0.1255350562069E+01  0.2276548961198E+00  0.1484393816352E+01
-0.1265164407983E+00  0.1171061416640E+01  0.2089089982813E+00  0.1509688772800E+01
-0.1353257444553E+00  0.1086649592943E+01  0.1902647725327E+00  0.1536382297939E+01
-0.1435934381243E+00  0.1003001020967E+01  0.1718815191297E+00  0.1564244241576E+01
-0.1511189473325E+00  0.9207697297955E+00  0.1539301587863E+00  0.1592842047971E+01
-0.1574135609149E+00  0.8400226701950E+00  0.1365218238904E+00  0.1621638509714E+01
-0.1616967208672E+00  0.7604074475156E+00  0.1197421471140E+00  0.1650004795739E+01
-0.1629137751409E+00  0.6813358836097E+00  0.1036844232388E+00  0.1677225327077E+01
-0.1597810570153E+00  0.6020885783595E+00  0.8846150558702E-01  0.1702506389922E+01
-0.1508523894697E+00  0.5218696024894E+00  0.7420344370966E-01  0.1724980777434E+01
-0.1345994187768E+00  0.4398382524024E+00  0.6104776763482E-01  0.1743705429647E+01
-0.1095020063994E+00  0.3551366844691E+00  0.4912693634598E-01  0.1757652927347E+01
-0.7414987980629E-01  0.2669190674917E+00  0.3855383811158E-01  0.1765702426627E+01
-0.2735815579209E-01  0.1743467348448E+00  0.2939771624859E-01  0.1766650438630E+01
 0.3170939638228E-01  0.7660262781825E-01  0.2166240516290E-01  0.1759236657112E+01
 0.1034043754994E+00 -0.2699798801051E-01  0.1528127772550E-01  0.1742148279286E+01
 0.1874356238146E+00 -0.1368909651181E+00  0.1010893188994E-01  0.1714022749750E+01
 0.2826981098203E+00 -0.2531770512721E+00  0.5904211797626E-02  0.1673466889580E+01
 0.3871017692928E+00 -0.3755292753116E+00  0.2314498830738E-02  0.1619074377896E+01
 0.4974151845736E+00 -0.5031037403133E+00 -0.1137711164894E-02  0.1549441215381E+01
 0.6091535385044E+00 -0.6344778894020E+00 -0.5064870254990E-02  0.1463189061157E+01
 0.7165919330963E+00 -0.7676835373256E+00 -0.1021832099813E-01  0.1359022745586E+01
 0.8130555680639E+00 -0.9004217227290E+00 -0.1747323119338E-01  0.1235820038921E+01
 0.8910182751247E+00 -0.1029955887625E+01 -0.2778752291423E-01  0.1092423168239E+01
 0.9416521260645E+00 -0.1152614658195E+01 -0.4219250705490E-01  0.9271967570762E+00
 0.9548257917762E+00 -0.1263755713043E+01 -0.6178598517399E-01  0.7376101243479E+00
 0.9204912668145E+00 -0.1358694596413E+01 -0.8764066722565E-01  0.5196470463990E+00
 0.3870809828537E+00  0.1613742688133E+01  0.4001647401603E+00  0.7142612242228E+00
 0.3471659274340E+00  0.1623389171925E+01  0.3941110257446E+00  0.8633101010682E+00
 0.2920587530286E+00  0.1630738448315E+01  0.3845594459992E+00  0.9906222109859E+00
 0.2296419272277E+00  0.1631491488174E+01  0.3722266886269E+00  0.1095105462911E+01
 0.1667712322327E+00  0.1622399966201E+01  0.3578342450188E+00  0.1178273573323E+01
 0.1083695760437E+00  0.1601753695686E+01  0.3420246594425E+00  0.1243308411091E+01
 0.5723020223467E-01  0.1569347666079E+01  0.3253155785103E+00  0.1294046083291E+01
 0.1433992201907E-01  0.1526104866643E+01  0.3080889623232E+00  0.1334211273020E+01
-0.2057253785465E-01  0.1473592835434E+01  0.2906040638463E+00  0.1367000190127E+01
-0.4849427856409E-01  0.1413604283512E+01  0.2730220050579E+00  0.1394952008345E+01
-0.7070811310764E-01  0.1347872847597E+01  0.2554329507041E+00  0.1419992757905E+01
-0.8851951992982E-01  0.1277921848621E+01  0.2378804692829E+00  0.1443549404393E+01
-0.1031065426437E+00  0.1205012137595E+01  0.2203811222743E+00  0.1466668563388E+01
-0.1154527329933E+00  0.1130149906780E+01  0.2029394377814E+00  0.1490108280006E+01
-0.1263252532949E+00  0.1054120235257E+01  0.1855589991575E+00  0.1514394787027E+01
-0.1362678160699E+00  0.9775290151947E+00  0.1682522423321E+00  0.1539848022348E+01
-0.1455789207111E+00  0.9010208208608E+00  0.1510883822813E+00  0.1566564248748E+01
-0.1542784417777E+00  0.8254325657025E+00  0.1342308267852E+00  0.1594383406682E+01
-0.1621018903611E+00  0.7513697693784E+00  0.1178535775596E+00  0.1622946929501E+01
-0.1685051423690E+00  0.6788739179153E+00  0.1020737566303E+00  0.1651785241280E+01
-0.1726626624080E+00  0.6075800337515E+00  0.8698347556485E-01  0.1680330328521E+01
-0.1734841588551E+00  0.5368880794394E+00  0.7268078519989E-01  0.1707920774166E+01
-0.1696558853032E+00  0.4660595928489E+00  0.5928074239250E-01  0.1733809862562E+01
-0.1597025634456E+00  0.3942680478102E+00  0.4691309757200E-01  0.1757169962637E+01
-0.1420641322428E+00  0.3206292630262E+00  0.3571302668884E-01  0.1777090197566E+01
-0.1151844804668E+00  0.2442297538239E+00  0.2580905505600E-01  0.1792567433875E+01
-0.7761326360357E-01  0.1641582969885E+00  0.1730900693490E-01  0.1802495266023E+01
-0.2812289060003E-01  0.7950689454582E-01  0.1027680094229E-01  0.1805668807005E+01
 0.3416601864206E-01 -0.1060909711050E-01  0.4711384376519E-02  0.1800802510254E+01
 0.1096470025917E+00 -0.1069394195988E+00  0.5415166066415E-03  0.1786529549255E+01
 0.1980694022531E+00 -0.2099815406157E+00 -0.2382427708011E-02  0.1761399948076E+01
 0.2983684819853E+00 -0.3198922217563E+00 -0.4304748018352E-02  0.1723894373683E+01
 0.4084971208753E+00 -0.4363941017520E+00 -0.5579396258477E-02  0.1672438774470E+01
 0.5252736827175E+00 -0.5586871545535E+00 -0.6682694466793E-02  0.1605420427739E+01
 0.6442741831802E+00 -0.6853880405940E+00 -0.8222771605299E-02  0.1521215010742E+01
 0.7598493349525E+00 -0.8145597965824E+00 -0.1094209248903E-01  0.1418246029326E+01
 0.8654183129719E+00 -0.9439143528105E+00 -0.1569920820164E-01  0.1295067012794E+01
 0.9535864849320E+00 -0.1070709275323E+01 -0.2342455842720E-01  0.1150159825746E+01
 0.1015768455122E+01 -0.1191306894040E+01 -0.3510768830680E-01  0.9815074080106E+00
 0.1042313755862E+01 -0.1301285291580E+01 -0.5179430791538E-01  0.7862809116410E+00
 0.1023542258346E+01 -0.1396202675022E+01 -0.7453208444568E-01  0.5606633253920E+00
 0.3278625201387E+00  0.1362699392057E+01  0.3381123874774E+00  0.7111669041483E+00
 0.2951720116833E+00  0.1369942353935E+01  0.3330228780860E+00  0.8601698860454E+00
 0.2482679786169E+00  0.1375383947321E+01  0.3247303900264E+00  0.9890389281217E+00
 0.1940070952826E+00  0.1375264192031E+01  0.3138542621395E+00  0.1096468986151E+01
 0.1384622172571E+00  0.1366664090511E+01  0.3010252660393E+00  0.1183494327166E+01
 0.8612570752241E-01  0.1347947392337E+01  0.2868146242457E+00  0.1252736433108E+01
 0.3968148261121E-01  0.1318780849993E+01  0.2716924705694E+00  0.1307549835570E+01
 0.2214540196810E-03  0.1279854042851E+01  0.2560151031890E+00  0.1351336795289E+01
-0.3231961857535E-01  0.1232483939205E+01  0.2400328677027E+00  0.1387135712984E+01
-0.5870416832682E-01  0.1178249700787E+01  0.2239091098284E+00  0.1417455344490E+01
-0.8001553744944E-01  0.1118728815100E+01  0.2077426586256E+00  0.1444269965347E+01
-0.9739912656526E-01  0.1055343820310E+01  0.1915889416039E+00  0.1469091635869E+01
-0.1119092510881E+00  0.9892975259139E+00  0.1754776575800E+00  0.1493060444006E+01
-0.1244317448244E+00  0.9215655952394E+00  0.1594267724586E+00  0.1517020792151E+01
-0.1356508034998E+00  0.8529166074092E+00  0.1434531629195E+00  0.1541572772366E+01
-0.1460334410522E+00  0.7839436831202E+00  0.1275820503147E+00  0.1567099161163E+01
-0.1558045580583E+00  0.7152644062048E+00  0.1118919712966E+00  0.1593757788026E+01
-0.1649149401919E+00  0.6476636515752E+00  0.9654974371536E-01  0.1621459246523E+01
-0.1730372907682E+00  0.5816973614922E+00  0.8173201536270E-01  0.1649918776574E+01
-0.1795726171129E+00  0.5173816168991E+00  0.6756180096399E-01  0.1678734533089E+01
-0.1836497928202E+00  0.4543397384598E+00  0.5413798993463E-01  0.1707400194407E+01
-0.1841411677089E+00  0.3919616365057E+00  0.4156409437872E-01  0.1735310474293E+01
-0.1797005180229E+00  0.3294927726300E+00  0.2995845136784E-01  0.1761768737046E+01
-0.1688207694941E+00  0.2660802929391E+00  0.1945190497885E-01  0.1785990747482E+01
-0.1499071942243E+00  0.2008018685104E+00  0.1017893500890E-01  0.1807101737427E+01
-0.1213640945191E+00  0.1326942148019E+00  0.2266024090328E-02  0.1824126232841E+01
-0.8169610851528E-01  0.6078631412183E-01 -0.4181958941006E-02  0.1835974593266E+01
-0.2962590751629E-01 -0.1589456177013E-01 -0.9104093992947E-02  0.1841441711147E+01
 0.3577875459094E-01 -0.9829765285141E-01 -0.1250377983841E-01  0.1839216931962E+01
 0.1149660251435E+00 -0.1872368288100E+00 -0.1445416094868E-01  0.1827878451259E+01
 0.2077412147490E+00 -0.2832726854965E+00 -0.1510629437460E-01  0.1805886945697E+01
 0.3130975323488E+00 -0.3866218373429E+00 -0.1470486121795E-01  0.1771594438560E+01
 0.4290495332507E+00 -0.4970622136345E+00 -0.1360253627947E-01  0.1723256602544E+01
 0.5524836132018E+00 -0.6138442910529E+00 -0.1227213575308E-01  0.1659049942134E+01
 0.6790529594431E+00 -0.7356302294015E+00 -0.1131545416029E-01  0.1577102841362E+01
 0.8031968804405E+00 -0.8605197637792E+00 -0.1146457683858E-01  0.1475557529671E+01
 0.9184384678308E+00 -0.9862398253217E+00 -0.1356027170025E-01  0.1352644351691E+01
 0.1017527024591E+01 -0.1110054301777E+01 -0.1850545571306E-01  0.1206489216996E+01
 0.1092117396860E+01 -0.1228387530406E+01 -0.2725402711527E-01  0.1034732000245E+01
 0.1132924410338E+01 -0.1336991798153E+01 -0.4081347817116E-01  0.8343206942595E+00
 0.1130477352137E+01 -0.1431525421226E+01 -0.6020961471493E-01  0.6014915364975E+00
 0.2689422850932E+00  0.1113986570720E+01  0.2765857752842E+00  0.7089628652763E+00
 0.2429276742570E+00  0.1119005829480E+01  0.2723867048063E+00  0.8578591084311E+00
 0.2036856216575E+00  0.1122640146729E+01  0.2652651576301E+00  0.9880090567620E+00
 0.1571634938736E+00  0.1121614977927E+01  0.2557556981712E+00  0.1097945081756E+01
 0.1087143672738E+00  0.1113328952166E+01  0.2444086675299E+00  0.1188309482502E+01
 0.6240075619513E-01  0.1096249542295E+01  0.2317300631511E+00  0.1261248674731E+01
 0.2075477958543E-01  0.1069967274844E+01  0.2181444141365E+00  0.1319692454794E+01
-0.1508444319438E-01  0.1034990459847E+01  0.2039812063701E+00  0.1366743321617E+01
-0.4502847551794E-01  0.9924238187698E+00  0.1894790714738E+00  0.1405278669681E+01
-0.6965225151587E-01  0.9436535819879E+00  0.1748002686991E+00  0.1437760186558E+01
-0.8986073920101E-01  0.8901067168374E+00  0.1600491979122E+00  0.1466190385933E+01
-0.1066477987993E+00  0.8331007270771E+00  0.1452905878206E+00  0.1492148933757E+01
-0.1209446238877E+00  0.7737710791108E+00  0.1305652929902E+00  0.1516856767461E+01
-0.1335361059593E+00  0.7130521294598E+00  0.1159032064272E+00  0.1541237085380E+01
-0.1450194478708E+00  0.6516860030155E+00  0.1013333125389E+00  0.1565960452263E+01
-0.1557820028124E+00  0.5902452078079E+00  0.8689264229390E-01  0.1591471911297E+01
-0.1659739113113E+00  0.5293151251623E+00  0.7266824385304E-01  0.1617991238976E+01
-0.1754772209511E+00  0.4696258559520E+00  0.5882972787681E-01  0.1645499385961E+01
-0.1839027393624E+00  0.4116828373162E+00  0.4555602026959E-01  0.1673784633040E+01
-0.1905971230052E+00  0.3554769655871E+00  0.3297596900776E-01  0.1702512579068E+01
-0.1946432569217E+00  0.3006209487547E+00  0.2119553868245E-01  0.1731239129984E+01
-0.1948747807480E+00  0.2464966273635E+00  0.1032436947696E-01  0.1759416698539E+01
-0.1899109449976E+00  0.1923364063525E+00  0.4850922782002E-03  0.1786401342920E+01
-0.1782103712119E+00  0.1372651939335E+00 -0.8189035577689E-02  0.1811455598770E+01
-0.1581406666739E+00  0.8032744208974E-01 -0.1556264514873E-01  0.1833744435787E+01
-0.1280626914532E+00  0.2051532392911E-01 -0.2150947382534E-01  0.1852323369654E+01
-0.8643074680226E-01 -0.4319708102385E-01 -0.2592556595154E-01  0.1866122110698E+01
-0.3191030822604E-01 -0.1118434086536E+00 -0.2875074380435E-01  0.1873937059888E+01
 0.3649387381193E-01 -0.1864353303326E+00 -0.2998829175099E-01  0.1874433381599E+01
 0.1192975840498E+00 -0.2678508032941E+00 -0.2971064429159E-01  0.1866134300352E+01
 0.2163778180067E+00 -0.3567158706086E+00 -0.2806761093862E-01  0.1847410237780E+01
 0.3268034722604E+00 -0.4533115510656E+00 -0.2530161613806E-01  0.1816483013815E+01
 0.4486694165111E+00 -0.5574773281050E+00 -0.2176158264306E-01  0.1771436164335E+01
 0.5789481444625E+00 -0.6685212341279E+00 -0.1791461820002E-01  0.1710233613745E+01
 0.7133859924400E+00 -0.7851577239463E+00 -0.1435434651516E-01  0.1630755072158E+01
 0.8465235814619E+00 -0.9055289385372E+00 -0.1180107159093E-01  0.1530861073024E+01
 0.9719974863208E+00 -0.1027382414933E+01 -0.1107698588742E-01  0.1408460463235E+01
 0.1082705879601E+01 -0.1147998672524E+01 -0.1305855877925E-01  0.1261332777668E+01
 0.1170524736527E+01 -0.1263869332297E+01 -0.1866891943217E-01  0.1086805369719E+01
 0.1226451595301E+01 -0.1370873328057E+01 -0.2888434698163E-01  0.8816279663497E+00
 0.1241182902075E+01 -0.1464719260211E+01 -0.4470727229335E-01  0.6419875627899E+00
 0.2103023468361E+00  0.8673707855623E+00  0.2155346296914E+00  0.7075796516869E+00
 0.1904915910758E+00  0.8703221001675E+00  0.2121627414101E+00  0.8563228384909E+00
 0.1584407370115E+00  0.8722399507083E+00  0.2061361406156E+00  0.9875162343270E+00
 0.1192856110382E+00  0.8702891636863E+00  0.1979149578941E+00  0.1099568737131E+01
 0.7771619293870E-01  0.8621727470309E+00  0.1879777907950E+00  0.1192802248435E+01
 0.3737130375172E-01  0.8464828723027E+00  0.1767708378450E+00  0.1268961501218E+01
 0.6000233110965E-03  0.8227751739629E+00  0.1646750419087E+00  0.1330604338054E+01
-0.3145843988763E-01  0.7914208121208E+00  0.1519924767115E+00  0.1380558746295E+01
-0.5860722254035E-01  0.7533468441784E+00  0.1389479263981E+00  0.1421543693353E+01
-0.8126780652094E-01  0.7097670312480E+00  0.1256998468185E+00  0.1455963076782E+01
-0.1001876037319E+00  0.6619653218085E+00  0.1123555452895E+00  0.1485832133135E+01
-0.1162186820108E+00  0.6111524799329E+00  0.9898676105944E-01  0.1512783346131E+01
-0.1301714191087E+00  0.5583897563231E+00  0.8564366871906E-01  0.1538107072543E+01
-0.1427281498784E+00  0.5045614160547E+00  0.7236665431360E-01  0.1562797877595E+01
-0.1543962924154E+00  0.4503746701900E+00  0.5919567643700E-01  0.1587592886379E+01
-0.1654813259885E+00  0.3963746030990E+00  0.4617865611022E-01  0.1612997978719E+01
-0.1760577539677E+00  0.3431098067331E+00  0.3341041105094E-01  0.1639294339908E+01
-0.1859392044477E+00  0.2912531855436E+00  0.2106279653304E-01  0.1666532205109E+01
-0.1946753930351E+00  0.2412589105287E+00  0.9316703637548E-02  0.1694571572712E+01
-0.2015591628749E+00  0.1930930828913E+00 -0.1693216021934E-02  0.1723144807261E+01
-0.2056272280065E+00  0.1463590888512E+00 -0.1185362800769E-01  0.1751870242798E+01
-0.2056735118480E+00  0.1004328580845E+00 -0.2104813106633E-01  0.1780259195042E+01
-0.2002810349795E+00  0.5453682296869E-01 -0.2914884283651E-01  0.1807722631344E+01
-0.1878718291416E+00  0.7777633654526E-02 -0.3601883963414E-01  0.1833572871307E+01
-0.1667728807173E+00 -0.4082884700618E-01 -0.4152034616340E-01  0.1857018032102E+01
-0.1352976201568E+00 -0.9233019050849E-01 -0.4552556281144E-01  0.1877147963517E+01
-0.9184443760169E-01 -0.1478029022698E+00 -0.4792946868851E-01  0.1892914607345E+01
-0.3501383562730E-01 -0.2083383492456E+00 -0.4867043769982E-01  0.1903118172821E+01
 0.3626291240077E-01 -0.2750091631124E+00 -0.4774925085384E-01  0.1906401371312E+01
 0.1225825690186E+00 -0.3487580663601E+00 -0.4523510014236E-01  0.1901233417629E+01
 0.2239097801177E+00 -0.4302795753847E+00 -0.4127395966843E-01  0.1885894563825E+01
 0.3394070298145E+00 -0.5199243222020E+00 -0.3610345901548E-01  0.1858475755419E+01
 0.4672681934978E+00 -0.6176001795834E+00 -0.3006639766514E-01  0.1816887150865E+01
 0.6045698789659E+00 -0.7226802937873E+00 -0.2362208331626E-01  0.1758878524579E+01
 0.7471673795439E+00 -0.8339386421275E+00 -0.1735425277532E-01  0.1682079372283E+01
 0.8897150570662E+00 -0.9495659125881E+00 -0.1197017128275E-01  0.1584067752743E+01
 0.1025970997109E+01 -0.1067336045809E+01 -0.8273009863166E-02  0.1462433244463E+01
 0.1148981389850E+01 -0.1184552001168E+01 -0.7114122369526E-02  0.1314618821616E+01
 0.1250819743868E+01 -0.1297767030831E+01 -0.9389457532475E-02  0.1137658635440E+01
 0.1322710572923E+01 -0.1402951189733E+01 -0.1604812360100E-01  0.9281074608256E+00
 0.1355511948391E+01 -0.1495849632374E+01 -0.2806753721476E-01  0.6820429546689E+00
 0.1519242356446E+00  0.6226350299874E+00  0.1549118554348E+00  0.7069577285298E+00
 0.1379131760898E+00  0.6236522237058E+00  0.1523130822288E+00  0.8555132558380E+00
 0.1126462578884E+00  0.6239341324898E+00  0.1473160802708E+00  0.9875444606412E+00
 0.8052990350841E-01  0.6210454635807E+00  0.1403150755087E+00  0.1101367276350E+01
 0.4564134207834E-01  0.6129799041676E+00  0.1317242512120E+00  0.1197042047357E+01
 0.1120516273963E-01  0.5984687887573E+00  0.1219347921163E+00  0.1275974997564E+01
-0.2063522760528E-01  0.5770655619777E+00  0.1112860685328E+00  0.1340400569745E+01
-0.4877864657496E-01  0.5490412786330E+00  0.1000525279025E+00  0.1392898787715E+01
-0.7295855791003E-01  0.5151760548800E+00  0.8844350071191E-01  0.1436037111267E+01
-0.9347370126218E-01  0.4765307918902E+00  0.7661141926720E-01  0.1472155841151E+01
-0.1109339077031E+00  0.4342549981206E+00  0.6466421904707E-01  0.1503271425371E+01
-0.1260598273000E+00  0.3894529083901E+00  0.5267861700299E-01  0.1531056972306E+01
-0.1395445672422E+00  0.3431067069244E+00  0.4071242854309E-01  0.1556862110927E+01
-0.1519675888089E+00  0.2960435473348E+00  0.2881519213456E-01  0.1581745636429E+01
-0.1637447843302E+00  0.2489286468696E+00  0.1703677276175E-01  0.1606506965213E+01
-0.1750982190958E+00  0.2022738381056E+00  0.5435123882969E-02  0.1631710679623E+01
-0.1860261762897E+00  0.1565869576260E+00 -0.5887843820479E-02  0.1657698040211E+01
-0.1962742134237E+00  0.1124816251925E+00 -0.1675851789596E-01  0.1684586795019E+01
-0.2053317199716E+00  0.7036017604982E-01 -0.2699430918661E-01  0.1712306808163E+01
-0.2124383258810E+00  0.3016448619517E-01 -0.3645476848038E-01  0.1740656141006E+01
-0.2165846135856E+00 -0.8509887449789E-02 -0.4501890087791E-01  0.1769315424999E+01
-0.2165241200783E+00 -0.4629058572074E-01 -0.5256294194305E-01  0.1797855747475E+01
-0.2108022791778E+00 -0.8396197128645E-01 -0.5895285097132E-01  0.1825744856937E+01
-0.1978025069100E+00 -0.1224317195547E+00 -0.6404684624731E-01  0.1852347577026E+01
-0.1758083295106E+00 -0.1627081311032E+00 -0.6770329313162E-01  0.1876918427914E+01
-0.1430817310964E+00 -0.2058740677071E+00 -0.6979116080066E-01  0.1898585003195E+01
-0.9795947350633E-01 -0.2530527487990E+00 -0.7020244550717E-01  0.1916324685757E+01
-0.3896909336958E-01 -0.3053906129051E+00 -0.6887194228121E-01  0.1928944383508E+01
 0.3504234375746E-01 -0.3640203494852E+00 -0.6579560212598E-01  0.1935066894330E+01
 0.1247661896765E+00 -0.4299507289595E+00 -0.6103690876612E-01  0.1933109339251E+01
 0.2302709666939E+00 -0.5039483869511E+00 -0.5473548486705E-01  0.1921262867795E+01
 0.3508308768759E+00 -0.5864393867883E+00 -0.4712170268465E-01  0.1897487743747E+01
 0.4847576770293E+00 -0.6774074044903E+00 -0.3852994606634E-01  0.1859520100582E+01
 0.6292502176836E+00 -0.7762987947139E+00 -0.2940971584430E-01  0.1804894200739E+01
 0.7802885488447E+00 -0.8819547549953E+00 -0.2033324153312E-01  0.1730987582202E+01
 0.9326528391983E+00 -0.9926210028622E+00 -0.1199363291150E-01  0.1635094655182E+01
 0.1080229094034E+01 -0.1106103076143E+01 -0.5174796498907E-02  0.1514487639149E+01
 0.1216207301422E+01 -0.1219728527177E+01 -0.7042451613510E-03  0.1366280470041E+01
 0.1332835397756E+01 -0.1330102987235E+01  0.5464821123790E-03  0.1187224393842E+01
 0.1421526133567E+01 -0.1433263163234E+01 -0.2347405968331E-02  0.9736750182313E+00
 0.1473298113648E+01 -0.1524988598822E+01 -0.1033809718875E-01  0.7215708058289E+00
 0.9378913101932E-01  0.3795762433700E+00  0.9467307628860E-01  0.7070464677709E+00
 0.8523426139416E-01  0.3787730426438E+00  0.9280146219045E-01  0.8553892085133E+00
 0.6640167629861E-01  0.3774889051820E+00  0.8877811761903E-01  0.9880789004912E+00
 0.4103740229791E-01  0.3736546501559E+00  0.8293841172665E-01  0.1103362412774E+01
 0.1265022472248E-01  0.3655412094010E+00  0.7563828795179E-01  0.1201087175487E+01
-0.1593827308360E-01  0.3520287725241E+00  0.6721810088974E-01  0.1282375417482E+01
-0.4280645779517E-01  0.3326943488475E+00  0.5797757907440E-01  0.1349182603009E+01
-0.6692182535302E-01  0.3077397692653E+00  0.4816358950016E-01  0.1403867751035E+01
-0.8798107878699E-01  0.2778251334199E+00  0.3796881149236E-01  0.1448856937017E+01
-0.1061875394650E+00  0.2438767696551E+00  0.2753784644836E-01  0.1486425079601E+01
-0.1220321851022E+00  0.2069187738551E+00  0.1697731800356E-01  0.1518581829770E+01
-0.1361147681319E+00  0.1679504268798E+00  0.6367131844453E-02  0.1547031146669E+01
-0.1490154982083E+00  0.1278716278072E+00 -0.4228774143233E-02  0.1573173086522E+01
-0.1612116469873E+00  0.8744692335653E-01 -0.1475294494600E-01  0.1598123937934E+01
-0.1730267082749E+00  0.4729370460758E-01 -0.2514660110817E-01  0.1622740919289E+01
-0.1845983834729E+00  0.7885646529483E-02 -0.3534254791532E-01  0.1647644610456E+01
-0.1958484431042E+00 -0.3031352827016E-01 -0.4523239494889E-01  0.1673234328417E+01
-0.2064547989204E+00 -0.6675122445104E-01 -0.5464120548851E-01  0.1699692935375E+01
-0.2158472995120E+00 -0.1010772993048E+00 -0.6338492070786E-01  0.1727017811312E+01
-0.2232130628374E+00 -0.1333733390878E+00 -0.7131728144775E-01  0.1755071259991E+01
-0.2274968129256E+00 -0.1640499184274E+00 -0.7830934743749E-01  0.1783595753141E+01
-0.2274113654829E+00 -0.1937357189444E+00 -0.8422941814059E-01  0.1812222705635E+01
-0.2214635683460E+00 -0.2232185994061E+00 -0.8893643487568E-01  0.1840478219517E+01
-0.2079964941340E+00 -0.2534166180448E+00 -0.9228262381086E-01  0.1867782105105E+01
-0.1852475577820E+00 -0.2853579303408E+00 -0.9412109902708E-01  0.1893438441651E+01
-0.1514233470409E+00 -0.3201564679429E+00 -0.9431596440217E-01  0.1916616085912E+01
-0.1047932407728E+00 -0.3589786184134E+00 -0.9275437321940E-01  0.1936321431611E+01
-0.4380369893750E-01 -0.4030236240006E+00 -0.8936546591927E-01  0.1951371586988E+01
 0.3279333324710E-01 -0.4534837762140E+00 -0.8413808984713E-01  0.1960372801444E+01
 0.1257976422865E+00 -0.5114356731234E+00 -0.7712760731667E-01  0.1961692981415E+01
 0.2353981285073E+00 -0.5777222545842E+00 -0.6846482623559E-01  0.1953436224794E+01
 0.3609991489052E+00 -0.6528514028073E+00 -0.5837045165020E-01  0.1933433165634E+01
 0.5010495347162E+00 -0.7368905960610E+00 -0.4716821297181E-01  0.1899245848317E+01
 0.6528887916863E+00 -0.8293680670094E+00 -0.3529585559056E-01  0.1848191847703E+01
 0.8126376725739E+00 -0.9292004417671E+00 -0.2331255418601E-01  0.1777394754637E+01
 0.9752139342549E+00 -0.1034695193261E+01 -0.1189625197844E-01  0.1683863569040E+01
 0.1134636733005E+01 -0.1143693942921E+01 -0.1811442010095E-02  0.1564553954394E+01
 0.1284234054503E+01 -0.1253548844352E+01  0.6137042121698E-02  0.1416255209942E+01
 0.1416407034074E+01 -0.1360908355809E+01  0.1109973581833E-01  0.1235439672177E+01
 0.1522726804055E+01 -0.1461858726509E+01  0.1217361569059E-01  0.1018257999595E+01
 0.1594364760532E+01 -0.1552212724115E+01  0.8430407408963E-02  0.7604979361578E+00
 0.3587800052467E-01  0.1380032387062E+00  0.3477624836439E-01  0.7078032985019E+00
 0.3249045713707E-01  0.1354748603733E+00  0.3359306400266E-01  0.8559158034879E+00
 0.1979526836779E-01  0.1326838246905E+00  0.3049581906608E-01  0.9891064508581E+00
 0.9359723725856E-03  0.1278982821595E+00  0.2576685129038E-01  0.1105571842289E+01
-0.2110844476334E-01  0.1196537000469E+00  0.1970905135041E-01  0.1204986961111E+01
-0.4390751211627E-01  0.1069853565175E+00  0.1261556906824E-01  0.1288237263259E+01
-0.6577257073506E-01  0.8951400582856E-01  0.4748287089456E-02  0.1357039779259E+01
-0.8576430131300E-01  0.6739781189937E-01 -0.3673297937462E-02  0.1413559309039E+01
-0.1035703674963E+00  0.4120015513493E-01 -0.1247404265816E-01  0.1460092986850E+01
-0.1193226707211E+00  0.1172945575516E-01 -0.2151864331384E-01  0.1498851815820E+01
-0.1334105356888E+00 -0.2010661578827E-01 -0.3070343075293E-01  0.1531833657298E+01
-0.1463230939385E+00 -0.5341126355038E-01 -0.3994687209304E-01  0.1560765748099E+01
-0.1585324984058E+00 -0.8736882090065E-01 -0.4918026459413E-01  0.1587090993068E+01
-0.1704152419666E+00 -0.1212815578730E+00 -0.5833936083724E-01  0.1611976900541E+01
-0.1822022388047E+00 -0.1545846348730E+00 -0.6735737573925E-01  0.1636333885389E+01
-0.1939463800040E+00 -0.1868465879113E+00 -0.7615859471792E-01  0.1660835360480E+01
-0.2054929073232E+00 -0.2176505810938E+00 -0.8462869894447E-01  0.1685936091056E+01
-0.2164526190089E+00 -0.2465064269461E+00 -0.9259181057073E-01  0.1711881093122E+01
-0.2261966727936E+00 -0.2731163019415E+00 -0.9986259643510E-01  0.1738732445557E+01
-0.2338605110528E+00 -0.2975842863986E+00 -0.1062889610741E+00  0.1766414862562E+01
-0.2383435216067E+00 -0.3203251774863E+00 -0.1117337414836E+00  0.1794731877652E+01
-0.2383178058607E+00 -0.3419659685741E+00 -0.1160567566163E+00  0.1823375493886E+01
-0.2322510000589E+00 -0.3632945669304E+00 -0.1191091151727E+00  0.1851931473259E+01
-0.2184444441168E+00 -0.3852354072247E+00 -0.1207359720674E+00  0.1879876901735E+01
-0.1950870474072E+00 -0.4088322275346E+00 -0.1207838567882E+00  0.1906568518403E+01
-0.1603262093241E+00 -0.4352259395235E+00 -0.1191104315444E+00  0.1931220109255E+01
-0.1123582344115E+00 -0.4656227609179E+00 -0.1155962007884E+00  0.1952871036352E+01
-0.4954037227259E-01 -0.5012727392659E+00 -0.1101626239492E+00  0.1970352742003E+01
 0.2948157353340E-01 -0.5434276399880E+00 -0.1027892148226E+00  0.1982259135709E+01
 0.1256298682570E+00 -0.5932340606615E+00 -0.9352083987446E-01  0.1986912769208E+01
 0.2392305842204E+00 -0.6516158927757E+00 -0.8247706294007E-01  0.1982333740098E+01
 0.3698370546847E+00 -0.7191697583685E+00 -0.6986654177784E-01  0.1966224978477E+01
 0.5160548327525E+00 -0.7960555310795E+00 -0.5600014049987E-01  0.1935974966922E+01
 0.6753829548153E+00 -0.8818926121445E+00 -0.4130193208128E-01  0.1888683594366E+01
 0.8440991532678E+00 -0.9756818234724E+00 -0.2631653443306E-01  0.1821218210732E+01
 0.1017270492850E+01 -0.1075799377611E+01 -0.1170577712673E-01  0.1730299825119E+01
 0.1189053899859E+01 -0.1180127024936E+01  0.1785375011237E-02  0.1612566740595E+01
 0.1352909062961E+01 -0.1286040589433E+01  0.1337369490489E-01  0.1464484846149E+01
 0.1501370807000E+01 -0.1390222625042E+01  0.2222963672269E-01  0.1282247259058E+01
 0.1626142333612E+01 -0.1488795802321E+01  0.2746930666735E-01  0.1061794141061E+01
 0.1718530867614E+01 -0.1577602002199E+01  0.2818577350310E-01  0.7987606603034E+00
-0.2182829809152E-01 -0.1022650438949E+00 -0.2481866876712E-01  0.7091929937688E+00
-0.2028773750876E-01 -0.1064405269375E+00 -0.2534565326694E-01  0.8570640335922E+00
-0.2709404430282E-01 -0.1106900313980E+00 -0.2755681555078E-01  0.9906161377257E+00
-0.3965772190548E-01 -0.1164324897467E+00 -0.3121804279562E-01  0.1108010479911E+01
-0.5549620166623E-01 -0.1248795949766E+00 -0.3607515986614E-01  0.1208783510468E+01
-0.7255834111746E-01 -0.1368372146802E+00 -0.4187911178358E-01  0.1293625037684E+01
-0.8939603681613E-01 -0.1526251322130E+00 -0.4840423452711E-01  0.1364050676126E+01
-0.1051826253971E+00 -0.1721078706106E+00 -0.5545810002793E-01  0.1422057261297E+01
-0.1196198757654E+00 -0.1947988708919E+00 -0.6288375026849E-01  0.1469827073915E+01
-0.1327890703579E+00 -0.2199927565895E+00 -0.7055636644084E-01  0.1509511269159E+01
-0.1449933708173E+00 -0.2468897098745E+00 -0.7837661730626E-01  0.1543093484932E+01
-0.1566210119197E+00 -0.2746924529595E+00 -0.8626269426125E-01  0.1572318621824E+01
-0.1680410891703E+00 -0.3026705528508E+00 -0.9414232980706E-01  0.1598666043779E+01
-0.1795312066570E+00 -0.3301962496706E+00 -0.1019454927846E+00  0.1623348691446E+01
-0.1912300429853E+00 -0.3567610159069E+00 -0.1095982134116E+00  0.1647325528277E+01
-0.2031056487663E+00 -0.3819788748752E+00 -0.1170169064720E+00  0.1671319265662E+01
-0.2149269752300E+00 -0.4054820921843E+00 -0.1240818153318E+00  0.1695837001294E+01
-0.2262383668519E+00 -0.4268439138218E+00 -0.1306164580811E+00  0.1721182441338E+01
-0.2363532407111E+00 -0.4458187191019E+00 -0.1364343939956E+00  0.1747479109450E+01
-0.2443563648764E+00 -0.4625318982284E+00 -0.1413776547276E+00  0.1774711930519E+01
-0.2491025790768E+00 -0.4774003437924E+00 -0.1453005867390E+00  0.1802744405024E+01
-0.2492236308141E+00 -0.4910464216282E+00 -0.1480540126946E+00  0.1831329102439E+01
-0.2431477133099E+00 -0.5042544650290E+00 -0.1494804378952E+00  0.1860112509988E+01
-0.2291334246462E+00 -0.5179511652698E+00 -0.1494169202097E+00  0.1888631117586E+01
-0.2053190985142E+00 -0.5331915313616E+00 -0.1477021281761E+00  0.1916297403625E+01
-0.1697894001122E+00 -0.5511393977992E+00 -0.1441857617308E+00  0.1942373925649E+01
-0.1206620293461E+00 -0.5730375695807E+00 -0.1387399218527E+00  0.1965937382905E+01
-0.5619696175898E-01 -0.6001850509237E+00 -0.1312764044927E+00  0.1985838338042E+01
 0.2507719816673E-01 -0.6338931627807E+00 -0.1217631947372E+00  0.2000663434794E+01
 0.1242194012559E+00 -0.6753809622674E+00 -0.1102323138449E+00  0.2008694737122E+01
 0.2417099946192E+00 -0.7256583266560E+00 -0.9678966784964E-01  0.2007872425109E+01
 0.3772705723350E+00 -0.7854180372465E+00 -0.8162949419868E-01  0.1995774557361E+01
 0.5296836532003E+00 -0.8549215623009E+00 -0.6504758278941E-01  0.1969617200170E+01
 0.6966273347253E+00 -0.9338894363458E+00 -0.4745242103121E-01  0.1926281739325E+01
 0.8745531637523E+00 -0.1021416078292E+01 -0.2937258334568E-01  0.1862376625655E+01
 0.1058689480368E+01 -0.1115953805116E+01 -0.1145286512013E-01  0.1774331283700E+01
 0.1243335517043E+01 -0.1215428473170E+01  0.5581408857845E-02  0.1658463975987E+01
 0.1422076463666E+01 -0.1317238474630E+01  0.2096759811967E-01  0.1510915418408E+01
 0.1587562419899E+01 -0.1418092674651E+01  0.3389394955463E-01  0.1327596031408E+01
 0.1731602775613E+01 -0.1514138682542E+01  0.4349281926225E-01  0.1104230116761E+01
 0.1845614850052E+01 -0.1601239370325E+01  0.4887509667385E-01  0.8363024605754E+00
-0.7934894239594E-01 -0.3414010262404E+00 -0.8414999498120E-01  0.7111870717093E+00
-0.7307401775389E-01 -0.3471615146889E+00 -0.8404710774095E-01  0.8588104426880E+00
-0.7419512450191E-01 -0.3528316568958E+00 -0.8540535755218E-01  0.9925993893479E+00
-0.8063649923171E-01 -0.3595380373986E+00 -0.8803490863789E-01  0.1110691418112E+01
-0.9038348373938E-01 -0.3682500178707E+00 -0.9172670168886E-01  0.1212513114553E+01
-0.1017531357514E+00 -0.3796125669571E+00 -0.9627314197628E-01  0.1298594707091E+01
-0.1135428679253E+00 -0.3938738578693E+00 -0.1014833466711E+00  0.1370284283022E+01
-0.1250540333840E+00 -0.4109040474863E+00 -0.1071916177713E+00  0.1429436244101E+01
-0.1360216333026E+00 -0.4302766501014E+00 -0.1132596583685E+00  0.1478133244103E+01
-0.1464940988514E+00 -0.4513763616493E+00 -0.1195740938819E+00  0.1518472716475E+01
-0.1567020958261E+00 -0.4735033404713E+00 -0.1260410891376E+00  0.1552423782139E+01
-0.1669418914604E+00 -0.4959566905828E+00 -0.1325797183842E+00  0.1581745100048E+01
-0.1774844198608E+00 -0.5180915547187E+00 -0.1391151969889E+00  0.1607947185703E+01
-0.1885105456753E+00 -0.5393524527732E+00 -0.1455726018589E+00  0.1632283101679E+01
-0.2000674275817E+00 -0.5592901037198E+00 -0.1518715085234E+00  0.1655755715896E+01
-0.2120385769041E+00 -0.5775665948317E+00 -0.1579210367004E+00  0.1679133202723E+01
-0.2241171196754E+00 -0.5938649825024E+00 -0.1635964228733E+00  0.1702971436561E+01
-0.2357817448058E+00 -0.6078226177286E+00 -0.1687208750210E+00  0.1727628897832E+01
-0.2462892060468E+00 -0.6192457149518E+00 -0.1731069867792E+00  0.1753286891961E+01
-0.2546747886668E+00 -0.6282795655833E+00 -0.1765908734814E+00  0.1779987997528E+01
-0.2597498558275E+00 -0.6353408058426E+00 -0.1790181350016E+00  0.1807654275326E+01
-0.2601065299755E+00 -0.6410440135533E+00 -0.1802301113914E+00  0.1836098565809E+01
-0.2541337480650E+00 -0.6461661258521E+00 -0.1800599774665E+00  0.1865028922595E+01
-0.2400467805539E+00 -0.6516318110183E+00 -0.1783357209719E+00  0.1894043230320E+01
-0.2159317058281E+00 -0.6585029272946E+00 -0.1748869292306E+00  0.1922612789213E+01
-0.1798072412416E+00 -0.6679621145987E+00 -0.1695538736946E+00  0.1950052968679E+01
-0.1297072088021E+00 -0.6812855082773E+00 -0.1621985458328E+00  0.1975482604211E+01
-0.6378640910854E-01 -0.6998192525725E+00 -0.1527211346119E+00  0.1997776837072E+01
 0.1955477162246E-01 -0.7249343975375E+00 -0.1410759272852E+00  0.2015521010221E+01
 0.1215263008926E+00 -0.7579251028978E+00 -0.1272797622977E+00  0.2026962608767E+01
 0.2427802262350E+00 -0.7998925753530E+00 -0.1114224714839E+00  0.2029967054882E+01
 0.3832262290941E+00 -0.8516336375928E+00 -0.9368148309571E-01  0.2021991326575E+01
 0.5418447814823E+00 -0.9135211718345E+00 -0.7433527917812E-01  0.2000080884685E+01
 0.7165134366507E+00 -0.9853875473398E+00 -0.5377482293912E-01  0.1960897996151E+01
 0.9038752150978E+00 -0.1066430922716E+01 -0.3251114200805E-01  0.1900789145994E+01
 0.1099332298803E+01 -0.1155187652351E+01 -0.1117107087607E-01  0.1815887430464E+01
 0.1297331135769E+01 -0.1249631964925E+01  0.9539834310927E-02  0.1702186383301E+01
 0.1491576614210E+01 -0.1347183981868E+01  0.2887852689877E-01  0.1555496969481E+01
 0.1674816171070E+01 -0.1444571816832E+01  0.4604887153370E-01  0.1371440746141E+01
 0.1838938279952E+01 -0.1537956737561E+01  0.6019630937512E-01  0.1145520247004E+01
 0.1975437149593E+01 -0.1623210529242E+01  0.7044532511992E-01  0.8730726759240E+00
-0.1367030917014E+00 -0.5795697774887E+00 -0.1432545759727E+00  0.7137632933693E+00
-0.1258455087849E+00 -0.5868681481659E+00 -0.1425427335142E+00  0.8611368290666E+00
-0.1214432821112E+00 -0.5939315229183E+00 -0.1430749631379E+00  0.9950502199964E+00
-0.1219011507472E+00 -0.6016112934100E+00 -0.1447024909877E+00  0.1113626666696E+01
-0.1256483788954E+00 -0.6106437118096E+00 -0.1472584203353E+00  0.1216207376100E+01
-0.1313601339074E+00 -0.6215119622495E+00 -0.1505744214751E+00  0.1303194910827E+01
-0.1380824607257E+00 -0.6343833175850E+00 -0.1544931579643E+00  0.1375801008814E+01
-0.1452567392663E+00 -0.6491198891036E+00 -0.1588753280414E+00  0.1435762372671E+01
-0.1526668061218E+00 -0.6653414183105E+00 -0.1636016473243E+00  0.1485078025311E+01
-0.1603431527833E+00 -0.6825116313794E+00 -0.1685709593444E+00  0.1525799416818E+01
-0.1684557313712E+00 -0.7000236927862E+00 -0.1736958874198E+00  0.1559882621009E+01
-0.1772167882855E+00 -0.7172700508277E+00 -0.1788973704884E+00  0.1589097607865E+01
-0.1868036705668E+00 -0.7336913554390E+00 -0.1840990079445E+00  0.1614981690930E+01
-0.1973027205550E+00 -0.7488060650246E+00 -0.1892217599355E+00  0.1638823185535E+01
-0.2086705257004E+00 -0.7622263836942E+00 -0.1941793847724E+00  0.1661664245707E+01
-0.2207066102655E+00 -0.7736644158644E+00 -0.1988742081894E+00  0.1684314421991E+01
-0.2330289374586E+00 -0.7828552075217E+00 -0.2031768320236E+00  0.1707374424362E+01
-0.2450514814189E+00 -0.7895005403079E+00 -0.2069104074286E+00  0.1731253183102E+01
-0.2559755569055E+00 -0.7934578405556E+00 -0.2098866826198E+00  0.1756185739480E+01
-0.2647883693376E+00 -0.7948906619497E+00 -0.2119358094155E+00  0.1782269422109E+01
-0.2702591773833E+00 -0.7942128025677E+00 -0.2128943991626E+00  0.1809483137289E+01
-0.2709415929048E+00 -0.7920276605553E+00 -0.2125938538599E+00  0.1837699432241E+01
-0.2651859279352E+00 -0.7891007321458E+00 -0.2108573351582E+00  0.1866688553931E+01
-0.2511640071047E+00 -0.7863501804920E+00 -0.2075028406114E+00  0.1896111648964E+01
-0.2269084302381E+00 -0.7848401153242E+00 -0.2023497121277E+00  0.1925501939933E+01
-0.1903691703480E+00 -0.7857677160533E+00 -0.1952273801894E+00  0.1954231860177E+01
-0.1394912510821E+00 -0.7904390715566E+00 -0.1859860672991E+00  0.1981467624184E+01
-0.7231665443827E-01 -0.8002455646469E+00 -0.1745124464175E+00  0.2006115099693E+01
 0.1289335457680E-01 -0.8166181208109E+00 -0.1607449556421E+00  0.2026765212632E+01
 0.1175141719668E+00 -0.8409287200726E+00 -0.1446829117771E+00  0.2041637863340E+01
 0.2423873035271E+00 -0.8743754702590E+00 -0.1263976352298E+00  0.2048530012122E+01
 0.3876309638342E+00 -0.9178675411815E+00 -0.1060473170497E+00  0.2044782377041E+01
 0.5524454620472E+00 -0.9718996829424E+00 -0.8389084542911E-01  0.2027272358857E+01
 0.7349292930414E+00 -0.1036427610235E+01 -0.6029966433716E-01  0.1992442733730E+01
 0.9319357333305E+00 -0.1110764240556E+01 -0.3576570197802E-01  0.1936374528530E+01
 0.1139054343764E+01 -0.1193538685487E+01 -0.1089686850694E-01  0.1854898532966E+01
 0.1350884469202E+01 -0.1282778410115E+01  0.1362121202031E-01  0.1743676782018E+01
 0.1561245477529E+01 -0.1375924926400E+01  0.3706411077806E-01  0.1598183170185E+01
 0.1762964230666E+01 -0.1469718979449E+01  0.5864905111731E-01  0.1413741586833E+01
 0.1947979171238E+01 -0.1560323619474E+01  0.7753111150826E-01  0.1185625457020E+01
 0.2107821993393E+01 -0.1643603924876E+01  0.9284361508697E-01  0.9090257681190E+00
-0.1939098494865E+00 -0.8169301390556E+00 -0.2021680007210E+00  0.7169052432136E+00
-0.1785821205412E+00 -0.8257334014683E+00 -0.2008631073950E+00  0.8640299860729E+00
-0.1687791223868E+00 -0.8341728315236E+00 -0.2005903937711E+00  0.9979653489596E+00
-0.1633591003719E+00 -0.8428387205004E+00 -0.2012395671732E+00  0.1116827719912E+01
-0.1611754597526E+00 -0.8522420937425E+00 -0.2026835137192E+00  0.1219894104287E+01
-0.1612526905997E+00 -0.8627042030174E+00 -0.2047913817750E+00  0.1307467948108E+01
-0.1628873412634E+00 -0.8743044256130E+00 -0.2074383564663E+00  0.1380653528887E+01
-0.1656700954111E+00 -0.8868860604565E+00 -0.2105112343104E+00  0.1441093803610E+01
-0.1694461283933E+00 -0.9001039027994E+00 -0.2139100094261E+00  0.1490720668446E+01
-0.1742402205877E+00 -0.9134915976295E+00 -0.2175463668851E+00  0.1531548576475E+01
-0.1801714784293E+00 -0.9265294070100E+00 -0.2213401803861E+00  0.1565523451731E+01
-0.1873749477070E+00 -0.9387004019023E+00 -0.2252150732778E+00  0.1594425341738E+01
-0.1959384610528E+00 -0.9495304715084E+00 -0.2290937899260E+00  0.1619814816704E+01
-0.2058559593735E+00 -0.9586131906884E+00 -0.2328938334828E+00  0.1643010959769E+01
-0.2169945183247E+00 -0.9656239106995E+00 -0.2365236893293E+00  0.1665090619602E+01
-0.2290704046378E+00 -0.9703261551515E+00 -0.2398793155323E+00  0.1686900417680E+01
-0.2416272473396E+00 -0.9725077037332E+00 -0.2428269938330E+00  0.1709081615500E+01
-0.2540153883345E+00 -0.9719347598421E+00 -0.2451900332889E+00  0.1732088897209E+01
-0.2653820888018E+00 -0.9685150826858E+00 -0.2467794379748E+00  0.1756206634561E+01
-0.2746681059890E+00 -0.9624286163892E+00 -0.2474193481625E+00  0.1781583665998E+01
-0.2806022827792E+00 -0.9540835059221E+00 -0.2469371614199E+00  0.1808253722849E+01
-0.2817012387003E+00 -0.9440683387316E+00 -0.2451539191395E+00  0.1836148227359E+01
-0.2762777646445E+00 -0.9331328825984E+00 -0.2418821330529E+00  0.1865100035946E+01
-0.2624606337126E+00 -0.9221840719932E+00 -0.2369289446717E+00  0.1894835306308E+01
-0.2382282659159E+00 -0.9122834330374E+00 -0.2301023432195E+00  0.1924952307704E+01
-0.2014595952290E+00 -0.9046381863020E+00 -0.2212195596026E+00  0.1954885006689E+01
-0.1500063759369E+00 -0.9005807744466E+00 -0.2101174332077E+00  0.1983852690490E+01
-0.8179048263708E-01 -0.9015457160259E+00 -0.1966672426632E+00  0.2010798805440E+01
 0.5076643769783E-02 -0.9090238090906E+00 -0.1807894357581E+00  0.2034327692384E+01
 0.1121502692641E+00 -0.9244675324078E+00 -0.1624634550496E+00  0.2052639796661E+01
 0.2404794501429E+00 -0.9491776063841E+00 -0.1417396333603E+00  0.2063471122943E+01
 0.3904120728293E+00 -0.9841842322347E+00 -0.1187544336507E+00  0.2064052071446E+01
 0.5613912213572E+00 -0.1030115129579E+01 -0.9374478304136E-01  0.2051095356785E+01
 0.7517591536729E+00 -0.1087061759297E+01 -0.6706052212401E-01  0.2020824205613E+01
 0.9585996337840E+00 -0.1154463848405E+01 -0.3917284350796E-01  0.1969050283838E+01
 0.1177704495830E+01 -0.1231053003435E+01 -0.1066970168005E-01  0.1891294816868E+01
 0.1403832808418E+01 -0.1314915653729E+01  0.1778343120282E-01  0.1782879428128E+01
 0.1630913948004E+01 -0.1403515008354E+01  0.4547978860772E-01  0.1638930839355E+01
 0.1851836053136E+01 -0.1493598060679E+01  0.7164759955910E-01  0.1454463624808E+01
 0.2058556091431E+01 -0.1581316773713E+01  0.9544786496597E-01  0.1224512481520E+01
 0.2242598613897E+01 -0.1662510792499E+01  0.1160175660084E+00  0.9441209106946E+00
-0.2509882381133E+00 -0.1053635723920E+01 -0.2609247962947E+00  0.7206019812677E+00
-0.2312659955357E+00 -0.1063924315265E+01 -0.2590380660201E+00  0.8674814785103E+00
-0.2161475411763E+00 -0.1073732647104E+01 -0.2579760415003E+00  0.1001344272861E+01
-0.2049232044821E+00 -0.1083401220982E+01 -0.2576648889324E+00  0.1120305985636E+01
-0.1968546946018E+00 -0.1093222354194E+01 -0.2580154136038E+00  0.1223598014969E+01
-0.1913085261880E+00 -0.1103355641629E+01 -0.2589328374218E+00  0.1311450568674E+01
-0.1878328359119E+00 -0.1113787426263E+01 -0.2603240563142E+00  0.1384887479926E+01
-0.1861746467405E+00 -0.1124333965564E+01 -0.2621017263666E+00  0.1445481210072E+01
-0.1862502296960E+00 -0.1134676406458E+01 -0.2641853311675E+00  0.1495113363706E+01
-0.1880883568672E+00 -0.1144411115474E+01 -0.2664998984395E+00  0.1535771335950E+01
-0.1917652333780E+00 -0.1153100719300E+01 -0.2689731945435E+00  0.1569394927572E+01
-0.1973442881295E+00 -0.1160316679370E+01 -0.2715321975460E+00  0.1597774008915E+01
-0.2048272639898E+00 -0.1165669832876E+01 -0.2740994234576E+00  0.1622489526830E+01
-0.2141175873120E+00 -0.1168829714637E+01 -0.2765894645113E+00  0.1644887157946E+01
-0.2249938867567E+00 -0.1169536013819E+01 -0.2789059842711E+00  0.1666073864749E+01
-0.2370900127341E+00 -0.1167604590332E+01 -0.2809389247994E+00  0.1686928834079E+01
-0.2498762253016E+00 -0.1162876281804E+01 -0.2825505056315E+00  0.1708129283843E+01
-0.2626404542414E+00 -0.1155181383544E+01 -0.2835643717826E+00  0.1730170615145E+01
-0.2744774629561E+00 -0.1144476856064E+01 -0.2837908680328E+00  0.1753381786388E+01
-0.2842834344667E+00 -0.1130956929915E+01 -0.2830480770941E+00  0.1777959578433E+01
-0.2907488156366E+00 -0.1115021048360E+01 -0.2811539769889E+00  0.1803990222663E+01
-0.2923551738593E+00 -0.1097239112303E+01 -0.2779188613738E+00  0.1831462914799E+01
-0.2873793834757E+00 -0.1078340613829E+01 -0.2731440035312E+00  0.1860273323222E+01
-0.2739081179641E+00 -0.1059216259198E+01 -0.2666248794054E+00  0.1890214244985E+01
-0.2498655037096E+00 -0.1040919862078E+01 -0.2581570770044E+00  0.1920952140781E+01
-0.2130577276684E+00 -0.1024663874014E+01 -0.2475443240251E+00  0.1951987193614E+01
-0.1612393518657E+00 -0.1011803168316E+01 -0.2346085075322E+00  0.1982597908447E+01
-0.9220531197773E-01 -0.1003812978040E+01 -0.2192036612700E+00  0.2011772877070E+01
-0.3906813702881E-02 -0.1002243695607E+01 -0.2012301048606E+00  0.2038138665055E+01
 0.1054056887799E+00 -0.1008630816243E+01 -0.1806450281844E+00  0.2059885585084E+01
 0.2370072210709E+00 -0.1024383426111E+01 -0.1574752433546E+00  0.2074697490179E+01
 0.3914972408517E+00 -0.1050661766557E+01 -0.1318329071056E+00  0.2079701639373E+01
 0.5685857589707E+00 -0.1088238284963E+01 -0.1039305067472E+00  0.2071450385190E+01
 0.7668832135547E+00 -0.1137353565102E+01 -0.7409407141346E-01  0.2045947760509E+01
 0.9837258882162E+00 -0.1197587394120E+01 -0.4277230181804E-01  0.1998731806557E+01
 0.1215124550349E+01 -0.1267784867197E+01 -0.1053206352662E-01  0.1925005630899E+01
 0.1456006345110E+01 -0.1346098213658E+01  0.2198162661797E-01  0.1819739318988E+01
 0.1700407130957E+01 -0.1430013413110E+01  0.5407874437524E-01  0.1677699394553E+01
 0.1941257841664E+01 -0.1516277441091E+01  0.8499608138109E-01  0.1493576274811E+01
 0.2170500106663E+01 -0.1601017140355E+01  0.1138965949589E+00  0.1262153273630E+01
 0.2379602102725E+01 -0.1680025228764E+01  0.1399153768771E+00  0.9783217622262E+00
-0.3079571830674E+00 -0.1289835819154E+01 -0.3195586052062E+00  0.7248477582083E+00
-0.2838810287053E+00 -0.1301603025180E+01 -0.3170968155021E+00  0.8714874532627E+00
-0.2634968350658E+00 -0.1312782931584E+01 -0.3152559580276E+00  0.1005189304461E+01
-0.2465106630737E+00 -0.1323474996528E+01 -0.3139971365993E+00  0.1124073103004E+01
-0.2325804230219E+00 -0.1333757973989E+01 -0.3132676840703E+00  0.1227341266163E+01
-0.2214089745111E+00 -0.1343630268696E+01 -0.3130078533056E+00  0.1315174589156E+01
-0.2127966876848E+00 -0.1352981572068E+01 -0.3131556566170E+00  0.1388542010706E+01
-0.2066521017714E+00 -0.1361595113197E+01 -0.3136494476674E+00  0.1448968165069E+01
-0.2029698775998E+00 -0.1369171993470E+01 -0.3144283788992E+00  0.1498301419654E+01
-0.2017900891444E+00 -0.1375365995353E+01 -0.3154312215998E+00  0.1538512763997E+01
-0.2031520607345E+00 -0.1379818637171E+01 -0.3165941442987E+00  0.1571540765910E+01
-0.2070518674140E+00 -0.1382188164945E+01 -0.3178480112081E+00  0.1599185617521E+01
-0.2134078217523E+00 -0.1382170192563E+01 -0.3191156076182E+00  0.1623046267379E+01
-0.2220343755366E+00 -0.1379510845895E+01 -0.3203090490593E+00  0.1644491035551E+01
-0.2326226925346E+00 -0.1374014961452E+01 -0.3213275355855E+00  0.1664652397752E+01
-0.2447251034028E+00 -0.1365551225820E+01 -0.3220552706436E+00  0.1684437406121E+01
-0.2577395738619E+00 -0.1354013471330E+01 -0.3223506138417E+00  0.1704554351701E+01
-0.2708929731481E+00 -0.1339295449173E+01 -0.3220376892629E+00  0.1725534000085E+01
-0.2832292985213E+00 -0.1321401943346E+01 -0.3209262531557E+00  0.1747744832707E+01
-0.2936022849404E+00 -0.1300539138901E+01 -0.3188282895193E+00  0.1771427686697E+01
-0.3006663463275E+00 -0.1277094498123E+01 -0.3155521735921E+00  0.1796718663744E+01
-0.3028703773938E+00 -0.1251615112722E+01 -0.3108971026558E+00  0.1823663356091E+01
-0.2984574693867E+00 -0.1224805379389E+01 -0.3046525742948E+00  0.1852220224522E+01
-0.2854737504114E+00 -0.1197534471074E+01 -0.2966016487169E+00  0.1882250202280E+01
-0.2617895919873E+00 -0.1170843015387E+01 -0.2865265257444E+00  0.1913491094385E+01
-0.2251373983267E+00 -0.1145943498018E+01 -0.2742161833550E+00  0.1945514185030E+01
-0.1731712658964E+00 -0.1124208878496E+01 -0.2594760327451E+00  0.1977663785275E+01
-0.1035529259008E+00 -0.1107152246686E+01 -0.2421410381255E+00  0.2008981918825E+01
-0.1406333141681E-01 -0.1096382904286E+01 -0.2220892504500E+00  0.2038127191889E+01
 0.9725564714155E-01 -0.1093521588633E+01 -0.1992531912673E+00  0.2063290361261E+01
 0.2319237288605E+00 -0.1100091435705E+01 -0.1736335439563E+00  0.2082113330873E+01
 0.3908146614032E+00 -0.1117391993397E+01 -0.1453154685641E+00  0.2091628765277E+01
 0.5739309095743E+00 -0.1146352852759E+01 -0.1144843903430E+00  0.2088234081215E+01
 0.7801773789735E+00 -0.1187378160234E+01 -0.8144015746564E-01  0.2067715025260E+01
 0.1007167083856E+01 -0.1240202391803E+01 -0.4660706228396E-01  0.2025331474934E+01
 0.1251148589623E+01 -0.1303796627322E+01 -0.1052960769668E-01  0.1955958577187E+01
 0.1507227410918E+01 -0.1376387083570E+01  0.2616806585949E-01  0.1854201451869E+01
 0.1769543566139E+01 -0.1455484489175E+01  0.6281181632876E-01  0.1714450257752E+01
 0.2031052002579E+01 -0.1537829627590E+01  0.9864447646768E-01  0.1531052779463E+01
 0.2283642729350E+01 -0.1619508975798E+01  0.1328267526898E+00  0.1298524572621E+01
 0.2518674030002E+01 -0.1696244274995E+01  0.1644859534524E+00  0.1011596354089E+01
-0.3648355046092E+00 -0.1525676215946E+01 -0.3781023497452E+00  0.7296417866897E+00
-0.3364124420888E+00 -0.1538927707778E+01 -0.3750680355622E+00  0.8760484826657E+00
-0.3107778995148E+00 -0.1551491506326E+01 -0.3724538867181E+00  0.1009505587470E+01
-0.2880420176239E+00 -0.1563232368809E+01 -0.3702548828037E+00  0.1128141168299E+01
-0.2682503836812E+00 -0.1574019252031E+01 -0.3684539326327E+00  0.1231143851728E+01
-0.2514382337919E+00 -0.1583689860445E+01 -0.3670256243165E+00  0.1318667352816E+01
-0.2376586323030E+00 -0.1592034890958E+01 -0.3659387101050E+00  0.1391650196302E+01
-0.2269852397227E+00 -0.1598800577595E+01 -0.3651571689048E+00  0.1451591430253E+01
-0.2194961537033E+00 -0.1603703755877E+01 -0.3646399873497E+00  0.1500323395714E+01
-0.2152477707402E+00 -0.1606452190844E+01 -0.3643399977460E+00  0.1539811846857E+01
-0.2142466319369E+00 -0.1606764142962E+01 -0.3642021604069E+00  0.1571999634225E+01
-0.2164243358211E+00 -0.1604383769273E+01 -0.3641616264453E+00  0.1598698308520E+01
-0.2216175670796E+00 -0.1599091521981E+01 -0.3641418232382E+00  0.1621522790498E+01
-0.2295529065474E+00 -0.1590710634317E+01 -0.3640527135978E+00  0.1641860221853E+01
-0.2398348818792E+00 -0.1579111591440E+01 -0.3637893000847E+00  0.1660863929633E+01
-0.2519352098113E+00 -0.1564216018997E+01 -0.3632302511742E+00  0.1679463932805E+01
-0.2651807223812E+00 -0.1545970322031E+01 -0.3622302142802E+00  0.1698394439819E+01
-0.2787387043630E+00 -0.1524330780536E+01 -0.3606139023533E+00  0.1718215933846E+01
-0.2916042966026E+00 -0.1499348386959E+01 -0.3581905420497E+00  0.1739331052827E+01
-0.3025911708355E+00 -0.1471238728971E+01 -0.3547659852476E+00  0.1762020492920E+01
-0.3103204240559E+00 -0.1440373784849E+01 -0.3501388469984E+00  0.1786467289935E+01
-0.3132111126398E+00 -0.1407273469952E+01 -0.3440969216458E+00  0.1812771771527E+01
-0.3094752339759E+00 -0.1372611985583E+01 -0.3364174489248E+00  0.1840954935342E+01
-0.2971205711324E+00 -0.1337231336860E+01 -0.3268703864692E+00  0.1870947198143E+01
-0.2739649966284E+00 -0.1302153101935E+01 -0.3152236244099E+00  0.1902560848849E+01
-0.2376668547526E+00 -0.1268584147583E+01 -0.3012502049561E+00  0.1935443336868E+01
-0.1857772577191E+00 -0.1237910658638E+01 -0.2847375875143E+00  0.1969011793890E+01
-0.1158191489699E+00 -0.1211680168258E+01 -0.2654998674018E+00  0.2002370679019E+01
-0.2539371941312E-01 -0.1191559657263E+01 -0.2433906789620E+00  0.2034221485887E+01
 0.8767985178237E-01 -0.1179256895242E+01 -0.2183154119452E+00  0.2062767311653E+01
 0.2251849684287E+00 -0.1176414555897E+01 -0.1902459203285E+00  0.2085619825556E+01
 0.3882932517372E+00 -0.1184480934185E+01 -0.1592375388625E+00  0.2099727173069E+01
 0.5773266811853E+00 -0.1204555827098E+01 -0.1254458310518E+00  0.2101338549363E+01
 0.7915130749748E+00 -0.1237222530713E+01 -0.8914189247595E-01  0.2086023051503E+01
 0.1028768976078E+01 -0.1282386402188E+01 -0.5072348597770E-01  0.2048757703474E+01
 0.1285602299680E+01 -0.1339158764260E+01 -0.1071129307563E-01  0.1984078588149E+01
 0.1557309633130E+01 -0.1405849622527E+01  0.3029200257192E-01  0.1886210027806E+01
 0.1838134376947E+01 -0.1479997515625E+01  0.7162737333173E-01  0.1749146227891E+01
 0.2121036542823E+01 -0.1558331005907E+01  0.1125411090601E+00  0.1566869731610E+01
 0.2397815839987E+01 -0.1636879754507E+01  0.1521872193638E+00  0.1333607592029E+01
 0.2659662891737E+01 -0.1711268007859E+01  0.1896789796020E+00  0.1043917053138E+01
-0.4216419152092E+00 -0.1761299988020E+01 -0.4365883871515E+00  0.7349880638500E+00
-0.3888463999346E+00 -0.1776053467530E+01 -0.4329799799448E+00  0.8811694393782E+00
-0.3579434918320E+00 -0.1790022961255E+01 -0.4295932970189E+00  0.1014301094194E+01
-0.3294402133070E+00 -0.1802842571767E+01 -0.4264565633695E+00  0.1132522883586E+01
-0.3037647815459E+00 -0.1814173841178E+01 -0.4235877308567E+00  0.1235023870396E+01
-0.2812826204938E+00 -0.1823694169713E+01 -0.4209953643146E+00  0.1321952046216E+01
-0.2622999448822E+00 -0.1831094019780E+01 -0.4186787991713E+00  0.1394239321839E+01
-0.2470577699912E+00 -0.1836080530568E+01 -0.4166276663201E+00  0.1453381148494E+01
-0.2357205796838E+00 -0.1838384141267E+01 -0.4148209503714E+00  0.1501211181057E+01
-0.2283638931950E+00 -0.1837765028393E+01 -0.4132257904751E+00  0.1539701463498E+01
-0.2249636390874E+00 -0.1834017417847E+01 -0.4117962175231E+00  0.1570805052147E+01
-0.2253883801008E+00 -0.1826971316178E+01 -0.4104719453723E+00  0.1596346222354E+01
-0.2293940487186E+00 -0.1816492392969E+01 -0.4091772944347E+00  0.1617954021131E+01
-0.2366199547766E+00 -0.1802481463581E+01 -0.4078202897486E+00  0.1637030615041E+01
-0.2465846121471E+00 -0.1784874910540E+01 -0.4062919105917E+00  0.1654745409410E+01
-0.2586800036014E+00 -0.1763647071059E+01 -0.4044654209592E+00  0.1672046281972E+01
-0.2721630554513E+00 -0.1738796166190E+01 -0.4021918503214E+00  0.1689687940881E+01
-0.2861430616540E+00 -0.1710339801373E+01 -0.3992965785554E+00  0.1708254663663E+01
-0.2995683940535E+00 -0.1678373336732E+01 -0.3955883520519E+00  0.1728177591013E+01
-0.3112153076448E+00 -0.1643119002549E+01 -0.3908668678632E+00  0.1749772776850E+01
-0.3196746579788E+00 -0.1604929577690E+01 -0.3849208528695E+00  0.1773266945547E+01
-0.3233389655873E+00 -0.1564293196779E+01 -0.3775264380989E+00  0.1798813203221E+01
-0.3203924039616E+00 -0.1521848483413E+01 -0.3684481829652E+00  0.1826494573895E+01
-0.3088072995888E+00 -0.1478404293658E+01 -0.3574423239756E+00  0.1856312130276E+01
-0.2863510624229E+00 -0.1434956864903E+01 -0.3442615905950E+00  0.1888155740844E+01
-0.2506085451330E+00 -0.1392701272029E+01 -0.3286619683298E+00  0.1921754230862E+01
-0.1990262204998E+00 -0.1353031455866E+01 -0.3104115398986E+00  0.1956604965450E+01
-0.1289834682158E+00 -0.1317525302826E+01 -0.2893017585194E+00  0.1991884547621E+01
-0.3789284402320E-01 -0.1287905551882E+01 -0.2651596831322E+00  0.2026349255021E+01
 0.7666296516939E-01 -0.1265968201739E+01 -0.2378610508584E+00  0.2058227806869E+01
 0.2167502463611E+00 -0.1253480608687E+01 -0.2073460755548E+00  0.2085114988281E+01
 0.3838629703950E+00 -0.1252049324094E+01 -0.1736372733271E+00  0.2103886212188E+01
 0.5786713773876E+00 -0.1262958030509E+01 -0.1368573326637E+00  0.2110650676462E+01
 0.8007571004175E+00 -0.1286985984392E+01 -0.9724577824398E-01  0.2100763417572E+01
 0.1048370038173E+01 -0.1324227371721E+01 -0.5517146753191E-01  0.2068913933520E+01
 0.1318302231813E+01 -0.1373950057927E+01 -0.1112956538859E-01  0.2009286933027E+01
 0.1606057000060E+01 -0.1434559548024E+01  0.3429949091826E-01  0.1915707591285E+01
 0.1905982323185E+01 -0.1503626564195E+01  0.8047115299712E-01  0.1781750821963E+01
 0.2211024376353E+01 -0.1577861684100E+01  0.1266325403377E+00  0.1601006630585E+01
 0.2512851498548E+01 -0.1653220129268E+01  0.1719262764180E+00  0.1367387798908E+01
 0.2802424451776E+01 -0.1725199635872E+01  0.2154449663911E+00  0.1075260570522E+01
-0.4783950214855E+00 -0.1996848236994E+01 -0.4950486590727E+00  0.7408952413739E+00
-0.4411696518504E+00 -0.2013133185571E+01 -0.4908605747986E+00  0.8868594017998E+00
-0.4049475386014E+00 -0.2028539529904E+01 -0.4866974209534E+00  0.1019586610713E+01
-0.3706297050468E+00 -0.2042472526349E+01 -0.4826204534707E+00  0.1137231638302E+01
-0.3390253815763E+00 -0.2054387291390E+01 -0.4786825417262E+00  0.1238997682397E+01
-0.3108298244071E+00 -0.2063801148379E+01 -0.4749262016341E+00  0.1325047882638E+01
-0.2866029655014E+00 -0.2070304084658E+01 -0.4713814170561E+00  0.1396331040232E+01
-0.2667541580841E+00 -0.2073563823477E+01 -0.4680636032869E+00  0.1454360939083E+01
-0.2515352086598E+00 -0.2073324322552E+01 -0.4649719131710E+00  0.1500990014677E+01
-0.2410413713571E+00 -0.2069398465009E+01 -0.4620879741588E+00  0.1538208339868E+01
-0.2352181929461E+00 -0.2061657078040E+01 -0.4593750610424E+00  0.1567985302764E+01
-0.2338711639383E+00 -0.2050016824969E+01 -0.4567776045880E+00  0.1592159394656E+01
-0.2366753637943E+00 -0.2034429346818E+01 -0.4542209488909E+00  0.1612371962536E+01
-0.2431828816955E+00 -0.2014873523219E+01 -0.4516112877124E+00  0.1630036317816E+01
-0.2528265980759E+00 -0.1991351667375E+01 -0.4488356597784E+00  0.1646333004344E+01
-0.2649195921812E+00 -0.1963890287258E+01 -0.4457619825302E+00  0.1662222425046E+01
-0.2786501665241E+00 -0.1932538347086E+01 -0.4422377093118E+00  0.1678474115391E+01
-0.2930713291117E+00 -0.1897373312064E+01 -0.4380889347632E+00  0.1695689964258E+01
-0.3070869451069E+00 -0.1858532857209E+01 -0.4331239669172E+00  0.1714323689361E+01
-0.3194387602967E+00 -0.1816242903126E+01 -0.4271363390493E+00  0.1734721903914E+01
-0.3286908267560E+00 -0.1770833117826E+01 -0.4199047951734E+00  0.1757151461967E+01
-0.3332129099488E+00 -0.1722755026627E+01 -0.4111935934425E+00  0.1781815980984E+01
-0.3311652323210E+00 -0.1672606015396E+01 -0.4007542555151E+00  0.1808859722235E+01
-0.3204882798930E+00 -0.1621155453579E+01 -0.3883287524810E+00  0.1838355379501E+01
-0.2989018787971E+00 -0.1569367488417E+01 -0.3736538790108E+00  0.1870273412668E+01
-0.2639188910638E+00 -0.1518418653365E+01 -0.3564675141975E+00  0.1904429336280E+01
-0.2128804713053E+00 -0.1469704479758E+01 -0.3365169952272E+00  0.1940408519840E+01
-0.1430186014855E+00 -0.1424828318971E+01 -0.3135693887638E+00  0.1977470100037E+01
-0.5154911098684E-01 -0.1385565902388E+01 -0.2874230069579E+00  0.2014438095066E+01
 0.6419516699843E-01 -0.1353801887131E+01 -0.2579213478698E+00  0.2049581577311E+01
 0.2065827220155E+00 -0.1331432943236E+01 -0.2249700475965E+00  0.2080493568039E+01
 0.3774552471729E+00 -0.1320233324151E+01 -0.1885556182052E+00  0.2103990451627E+01
 0.5778618143048E+00 -0.1321684841929E+01 -0.1487646077416E+00  0.2116051424678E+01
 0.8077715396631E+00 -0.1336780811688E+01 -0.1058018559816E+00  0.2111821277818E+01
 0.1065801013239E+01 -0.1365824147756E+01 -0.6000462779759E-01  0.2085697547042E+01
 0.1349055007668E+01 -0.1408257904465E+01 -0.1184057953588E-01  0.2031500137124E+01
 0.1653262825154E+01 -0.1462597046972E+01  0.3813315620452E-01  0.1942634093339E+01
 0.1972880733902E+01 -0.1526450459241E+01  0.8928605626273E-01  0.1812227578369E+01
 0.2300822511012E+01 -0.1596505416117E+01  0.1408634210779E+00  0.1633445462176E+01
 0.2628581643560E+01 -0.1668623938542E+01  0.1919915438644E+00  0.1399854760326E+01
 0.2946822016575E+01 -0.1738145609404E+01  0.2417352850362E+00  0.1105608004062E+01
-0.5351133296054E+00 -0.2232460821601E+01 -0.5535148384893E+00  0.7473765407594E+00
-0.4933691929705E+00 -0.2250318349334E+01 -0.5487375166377E+00  0.8931315894279E+00
-0.4517444690351E+00 -0.2267201947905E+01 -0.5437892914911E+00  0.1025375712632E+01
-0.4115355881495E+00 -0.2282287608518E+01 -0.5387646473617E+00  0.1142281530356E+01
-0.3739346159072E+00 -0.2294823600633E+01 -0.5337516512617E+00  0.1243079961468E+01
-0.3399681619418E+00 -0.2304167191282E+01 -0.5288270785250E+00  0.1327970158370E+01
-0.3104506101042E+00 -0.2309808610846E+01 -0.5240518519990E+00  0.1397941406498E+01
-0.2859594305282E+00 -0.2311377599057E+01 -0.5194674136578E+00  0.1454547894362E+01
-0.2668326962707E+00 -0.2308633591409E+01 -0.5150932652115E+00  0.1499678442790E+01
-0.2531838140584E+00 -0.2301444359752E+01 -0.5109256423755E+00  0.1535352977235E+01
-0.2449262147167E+00 -0.2289759414229E+01 -0.5069371333432E+00  0.1563563348386E+01
-0.2418007704102E+00 -0.2273583786705E+01 -0.5030769189194E+00  0.1586163677099E+01
-0.2434005990984E+00 -0.2252956250052E+01 -0.4992713772698E+00  0.1604805637680E+01
-0.2491900450362E+00 -0.2227934262101E+01 -0.4954248688099E+00  0.1620909611349E+01
-0.2585164758193E+00 -0.2198585902832E+01 -0.4914204830529E+00  0.1635662115308E+01
-0.2706148364231E+00 -0.2164989011217E+01 -0.4871207767868E+00  0.1650030500456E+01
-0.2846061339792E+00 -0.2127241918252E+01 -0.4823696176342E+00  0.1664793208709E+01
-0.2994889012555E+00 -0.2085480233649E+01 -0.4769938340887E+00  0.1680563313964E+01
-0.3141249289512E+00 -0.2039881698450E+01 -0.4708013324957E+00  0.1697810928924E+01
-0.3272246178885E+00 -0.1990672799116E+01 -0.4635794903087E+00  0.1716908137520E+01
-0.3373290161298E+00 -0.1938156007074E+01 -0.4550970114223E+00  0.1738158046563E+01
-0.3427893994960E+00 -0.1882741205014E+01 -0.4451061275345E+00  0.1761812191016E+01
-0.3417465336890E+00 -0.1824978615552E+01 -0.4333450363054E+00  0.1788074973602E+01
-0.3321134441798E+00 -0.1765591426662E+01 -0.4195409804200E+00  0.1817091427881E+01
-0.3115661534782E+00 -0.1705504467085E+01 -0.4034141301240E+00  0.1848915483963E+01
-0.2775480534100E+00 -0.1645868354548E+01 -0.3846832873239E+00  0.1883454706125E+01
-0.2272953948355E+00 -0.1588073266877E+01 -0.3630737377527E+00  0.1920390543338E+01
-0.1578900149917E+00 -0.1533742211914E+01 -0.3383264504226E+00  0.1959075698794E+01
-0.6634387129431E-01 -0.1484700140472E+01 -0.3102088069757E+00  0.1998415945656E+01
 0.5027281877172E-01 -0.1442919837029E+01 -0.2785294078018E+00  0.2036736948381E+01
 0.1946500691273E+00 -0.1410431204205E+01 -0.2431562306389E+00  0.2071646994297E+01
 0.3690035378277E+00 -0.1389185413465E+01 -0.2040363781678E+00  0.2099919290416E+01
 0.5747936461572E+00 -0.1380877130126E+01 -0.1612166991961E+00  0.2117415104101E+01
 0.8124137430885E+00 -0.1386733158298E+01 -0.1148638847535E+00  0.2119074352240E+01
 0.1080884475114E+01 -0.1407287191442E+01 -0.6528054423827E-01  0.2098998688814E+01
 0.1377656465889E+01 -0.1442178800659E+01 -0.1290446714636E-01  0.2050628795324E+01
 0.1698708596243E+01 -0.1490049019445E+01  0.4173191598135E-01  0.1966925861801E+01
 0.2038612295660E+01 -0.1548552839944E+01  0.9801189260358E-01  0.1840539310226E+01
 0.2390231090936E+01 -0.1614349600076E+01  0.1551763004843E+00  0.1664170288537E+01
 0.2744837675778E+01 -0.1683188257780E+01  0.2123298867636E+00  0.1431002039346E+01
 0.3092726674557E+01 -0.1750215750690E+01  0.2685021887744E+00  0.1134944905432E+01
-0.5918152532686E+00 -0.2468277086825E+01 -0.6120184771385E+00  0.7544497126014E+00
-0.5454319309390E+00 -0.2487759881168E+01 -0.6066383714610E+00  0.9000033279151E+00
-0.4982885568360E+00 -0.2506170311784E+01 -0.6008917826779E+00  0.1031684733069E+01
-0.4520827349659E+00 -0.2522452421459E+01 -0.5949070401497E+00  0.1147687330098E+01
-0.4083946914021E+00 -0.2535645774970E+01 -0.5888081020483E+00  0.1247283646024E+01
-0.3685858237607E+00 -0.2544947393022E+01 -0.5827066520395E+00  0.1330730184517E+01
-0.3337258720510E+00 -0.2549749446086E+01 -0.5766950722209E+00  0.1399080789244E+01
-0.3045589703287E+00 -0.2549646913936E+01 -0.5708411853592E+00  0.1453952476375E+01
-0.2815063653584E+00 -0.2544418757180E+01 -0.5651850329295E+00  0.1497288210853E+01
-0.2646957932099E+00 -0.2533991744636E+01 -0.5597375159100E+00  0.1531149551463E+01
-0.2540048313686E+00 -0.2518397624877E+01 -0.5544804995115E+00  0.1557556747929E+01
-0.2491066524167E+00 -0.2497732429923E+01 -0.5493678246541E+00  0.1578380681127E+01
-0.2495102837650E+00 -0.2472123636426E+01 -0.5443267921493E+00  0.1595281064831E+01
-0.2545912219102E+00 -0.2441707825637E+01 -0.5392598175450E+00  0.1609680966337E+01
-0.2636111828536E+00 -0.2406618481877E+01 -0.5340459409040E+00  0.1622767426172E+01
-0.2757276860424E+00 -0.2366983638106E+01 -0.5285422727057E+00  0.1635508904610E+01
-0.2899958167955E+00 -0.2322949318437E+01 -0.5225890348338E+00  0.1648686587983E+01
-0.3053615448988E+00 -0.2274707323714E+01 -0.5160137814118E+00  0.1662918083478E+01
-0.3206471813699E+00 -0.2222473034229E+01 -0.5086240506988E+00  0.1678683477574E+01
-0.3345351946589E+00 -0.2166470230222E+01 -0.5002010924297E+00  0.1696374954090E+01
-0.3455477843193E+00 -0.2106969954147E+01 -0.4905035550023E+00  0.1716327672657E+01
-0.3520224885130E+00 -0.2044335234508E+01 -0.4792715517458E+00  0.1738838146729E+01
-0.3520857460700E+00 -0.1979062960368E+01 -0.4662297482350E+00  0.1764169486218E+01
-0.3436282973987E+00 -0.1911823095105E+01 -0.4510902852226E+00  0.1792539491314E+01
-0.3242870985109E+00 -0.1843493431571E+01 -0.4335561124768E+00  0.1824088249545E+01
-0.2914396962455E+00 -0.1775190634694E+01 -0.4133260723469E+00  0.1858820713998E+01
-0.2422190651257E+00 -0.1708291731112E+01 -0.3901021650606E+00  0.1896522722633E+01
-0.1735553930982E+00 -0.1644432535622E+01 -0.3635975911620E+00  0.1936652165441E+01
-0.8225074962717E-01 -0.1585482267443E+01 -0.3335466083842E+00  0.1978211624551E+01
 0.3489923546643E-01 -0.1533500134019E+01 -0.2997201841768E+00  0.2019601151525E+01
 0.1809252679599E+00 -0.1490652246139E+01 -0.2619453995392E+00  0.2058463381944E+01
 0.3584440183588E+00 -0.1459075472822E+01 -0.2201262941728E+00  0.2091546595684E+01
 0.5693618167495E+00 -0.1440692411316E+01 -0.1742661215101E+00  0.2114608628520E+01
 0.8145363922535E+00 -0.1436984134237E+01 -0.1244895502517E+00  0.2122391850311E+01
 0.1093434407591E+01 -0.1448739514784E+01 -0.7106102249761E-01  0.2108698981528E+01
 0.1403890748392E+01 -0.1475819020063E+01 -0.1438565454853E-01  0.2066576259124E+01
 0.1742162694403E+01 -0.1517009472128E+01  0.4503064512619E-01  0.1988514458095E+01
 0.2102947670166E+01 -0.1570022331793E+01  0.1065850692628E+00  0.1866647291333E+01
 0.2479042269839E+01 -0.1631485351170E+01  0.1695113862598E+00  0.1693166832427E+01
 0.2861449921810E+01 -0.1697013496315E+01  0.2328872885695E+00  0.1460827126389E+01
 0.3240017524370E+01 -0.1761523412634E+01  0.2956988267535E+00  0.1163261366890E+01
-0.6485191234760E+00 -0.2704436608712E+01 -0.6705911564301E+00  0.7621370398120E+00
-0.5973443498390E+00 -0.2725608983749E+01 -0.6645906766208E+00  0.9074960439802E+00
-0.5445332535440E+00 -0.2745604954741E+01 -0.6580276514624E+00  0.1038532723254E+01
-0.4921949192095E+00 -0.2763131582998E+01 -0.6510653101432E+00  0.1153464387496E+01
-0.4423066842806E+00 -0.2777016399659E+01 -0.6438646263823E+00  0.1251619789386E+01
-0.3965701124272E+00 -0.2786295809611E+01 -0.6365731938934E+00  0.1333335093517E+01
-0.3563113191422E+00 -0.2790266681929E+01 -0.6293156095917E+00  0.1399753657829E+01
-0.3224383142027E+00 -0.2788494352894E+01 -0.6221865426907E+00  0.1452578311693E+01
-0.2954502780236E+00 -0.2780783533031E+01 -0.6152467713788E+00  0.1493824088422E+01
-0.2754831242297E+00 -0.2767126080388E+01 -0.6085218499912E+00  0.1525605781847E+01
-0.2623727844101E+00 -0.2747641033769E+01 -0.6020027726063E+00  0.1549977574970E+01
-0.2557200972164E+00 -0.2722518971141E+01 -0.5956478225473E+00  0.1568827744007E+01
-0.2549468559029E+00 -0.2691978034522E+01 -0.5893849868676E+00  0.1583821266971E+01
-0.2593380456403E+00 -0.2656234478976E+01 -0.5831145136123E+00  0.1596379090720E+01
-0.2680693517981E+00 -0.2615486610860E+01 -0.5767112011252E+00  0.1607682986569E+01
-0.2802215298553E+00 -0.2569911211569E+01 -0.5700265567788E+00  0.1618696409458E+01
-0.2947851669018E+00 -0.2519700027330E+01 -0.5628970472341E+00  0.1630196897654E+01
-0.3106556802034E+00 -0.2465098868849E+01 -0.5551509180829E+00  0.1642799735599E+01
-0.3266186485280E+00 -0.2406358171575E+01 -0.5465953721656E+00  0.1656988342718E+01
-0.3413322561193E+00 -0.2343695619198E+01 -0.5370055830654E+00  0.1673169358876E+01
-0.3533043551423E+00 -0.2277346480031E+01 -0.5261301748746E+00  0.1691705468718E+01
-0.3608639814714E+00 -0.2207621572842E+01 -0.5136971185174E+00  0.1712934860302E+01
-0.3621290213473E+00 -0.2134958068168E+01 -0.4994174253450E+00  0.1737177542983E+01
-0.3549739274636E+00 -0.2059965333689E+01 -0.4829878594276E+00  0.1764724167350E+01
-0.3370023338705E+00 -0.1983465922468E+01 -0.4640936581832E+00  0.1795803406164E+01
-0.3055307549211E+00 -0.1906533821191E+01 -0.4424129218149E+00  0.1830522837246E+01
-0.2575918510583E+00 -0.1830524188370E+01 -0.4176232141087E+00  0.1868781144291E+01
-0.1899640644818E+00 -0.1757077637497E+01 -0.3894083461984E+00  0.1910153535566E+01
-0.9923489598884E-01 -0.1688101348982E+01 -0.3574672543208E+00  0.1953755456557E+01
 0.1808556907061E-01 -0.1625737841047E+01 -0.3215304591865E+00  0.1998080729824E+01
 0.1653875393144E+00 -0.1572291197406E+01 -0.2813807358112E+00  0.2040827614037E+01
 0.3457164364155E+00 -0.1530092072540E+01 -0.2368751307546E+00  0.2078740382683E+01
 0.5614611581681E+00 -0.1501306253312E+01 -0.1879690218297E+00  0.2107490760639E+01
 0.8139876698527E+00 -0.1487691188777E+01 -0.1347407057927E+00  0.2121633324013E+01
 0.1103255814437E+01 -0.1490317874105E+01 -0.7741241308716E-01  0.2114670117517E+01
 0.1427529325106E+01 -0.1509295509871E+01 -0.1635323719677E-01  0.2079237173106E+01
 0.1783378965307E+01 -0.1543580082163E+01  0.4795977734339E-01  0.2007325395162E+01
 0.2165643912974E+01 -0.1590952838031E+01  0.1149382167015E+00  0.1890510352999E+01
 0.2567038888735E+01 -0.1648007653778E+01  0.1838062497303E+00  0.1720422038806E+01
 0.2978246969795E+01 -0.1710203545530E+01  0.2536086886321E+00  0.1489331394315E+01
 0.3388581912345E+01 -0.1772185676862E+01  0.3232792519138E+00  0.1190552124355E+01
-0.7052431993130E+00 -0.2941079970954E+01 -0.7292646449203E+00  0.7704653857989E+00
-0.6490921610759E+00 -0.2964018020436E+01 -0.7226220470703E+00  0.9156352907222E+00
-0.5904304960564E+00 -0.2985667356451E+01 -0.7152195811592E+00  0.1045941404930E+01
-0.5317939091980E+00 -0.3004490539529E+01 -0.7072569002844E+00  0.1159628479963E+01
-0.4755696082315E+00 -0.3019098223193E+01 -0.6989335766998E+00  0.1256097305142E+01
-0.4238066656357E+00 -0.3028365716819E+01 -0.6904344867793E+00  0.1335787516036E+01
-0.3780885910293E+00 -0.3031498557152E+01 -0.6819174397976E+00  0.1399958241567E+01
-0.3394829630636E+00 -0.3028039615538E+01 -0.6735045257563E+00  0.1450421882125E+01
-0.3085593291325E+00 -0.3017827890796E+01 -0.6652774538991E+00  0.1489283626051E+01
-0.2854531709779E+00 -0.3000928482233E+01 -0.6572763404363E+00  0.1518722769855E+01
-0.2699508621866E+00 -0.2977554282107E+01 -0.6495010385369E+00  0.1540832337536E+01
-0.2615747112369E+00 -0.2947994845476E+01 -0.6419139209079E+00  0.1557517918388E+01
-0.2596551457005E+00 -0.2912561280457E+01 -0.6344432946854E+00  0.1570446315967E+01
-0.2633844559837E+00 -0.2871550018712E+01 -0.6269869042819E+00  0.1581031014518E+01
-0.2718517160197E+00 -0.2825223344600E+01 -0.6194150213540E+00  0.1590442327859E+01
-0.2840615579328E+00 -0.2773805009570E+01 -0.6115733226137E+00  0.1599632305832E+01
-0.2989415551183E+00 -0.2717530207338E+01 -0.6032943614811E+00  0.1609368232152E+01
-0.3153386782341E+00 -0.2656696358584E+01 -0.5944070162210E+00  0.1620256034103E+01
-0.3320046609081E+00 -0.2591586235825E+01 -0.5847181880595E+00  0.1632775626650E+01
-0.3475772692433E+00 -0.2522407952036E+01 -0.5739970528090E+00  0.1647342200123E+01
-0.3605548388572E+00 -0.2449356584004E+01 -0.5619822929465E+00  0.1664341104319E+01
-0.3692636132406E+00 -0.2372685283690E+01 -0.5483897875577E+00  0.1684148512740E+01
-0.3718193474607E+00 -0.2292764943915E+01 -0.5329168662163E+00  0.1707139115514E+01
-0.3660870453496E+00 -0.2210136670563E+01 -0.5152447508602E+00  0.1733676098055E+01
-0.3496438148658E+00 -0.2125559103640E+01 -0.4950405910779E+00  0.1764078810091E+01
-0.3197512155164E+00 -0.2040054127135E+01 -0.4719610755631E+00  0.1798562491342E+01
-0.2733460129491E+00 -0.1954945342128E+01 -0.4456582776562E+00  0.1837147168567E+01
-0.2070563902455E+00 -0.1871868881998E+01 -0.4157850606444E+00  0.1879537910462E+01
-0.1172521622217E+00 -0.1792762041070E+01 -0.3820028463507E+00  0.1924980015173E+01
-0.1481915115389E-03 -0.1719845871894E+01 -0.3439988178072E+00  0.1972082059600E+01
 0.1480234328155E+00 -0.1655562676574E+01 -0.3015078532446E+00  0.2018621524500E+01
 0.3307651402380E+00 -0.1602443978831E+01 -0.2543357715086E+00  0.2061362555308E+01
 0.5509871624861E+00 -0.1562913952389E+01 -0.2023853609965E+00  0.2095911356476E+01
 0.8106115598174E+00 -0.1539029786885E+01 -0.1456836475845E+00  0.2116647446791E+01
 0.1110144376979E+01 -0.1532174259213E+01 -0.8440597770448E-01  0.2116772309576E+01
 0.1448329957621E+01 -0.1542737044098E+01 -0.1888141757692E-01  0.2088495832891E+01
 0.1822095124377E+01 -0.1569870957201E+01  0.5044483418685E-01  0.2023276685591E+01
 0.2226442661599E+01 -0.1611443966079E+01  0.1229997409368E+00  0.1912083865462E+01
 0.2653992928294E+01 -0.1664015601782E+01  0.1979954682527E+00  0.1745923595452E+01
 0.3095054865493E+01 -0.1722865987747E+01  0.2744377796386E+00  0.1516520066937E+01
 0.3538315695419E+01 -0.1782323603348E+01  0.3511984236476E+00  0.1216816675164E+01
-0.7620056789315E+00 -0.3178349590288E+01 -0.7880710655871E+00  0.7794662897521E+00
-0.7006599306332E+00 -0.3203141449749E+01 -0.7807602877106E+00  0.9244508042902E+00
-0.6359299700355E+00 -0.3226521104755E+01 -0.7724902264691E+00  0.1053935112460E+01
-0.5707985103809E+00 -0.3246696418047E+01 -0.7634989970626E+00  0.1166195595134E+01
-0.5080794420251E+00 -0.3262054755816E+01 -0.7540268508040E+00  0.1260722599660E+01
-0.4501786608399E+00 -0.3271309856099E+01 -0.7442977144787E+00  0.1338085120314E+01
-0.3989379026507E+00 -0.3273581326265E+01 -0.7345038567281E+00  0.1399686055134E+01
-0.3555782181005E+00 -0.3268399054991E+01 -0.7247954654186E+00  0.1447472108578E+01
-0.3207293760790E+00 -0.3255647365197E+01 -0.7152753589137E+00  0.1483656844404E+01
-0.2945151888147E+00 -0.3235474900598E+01 -0.7059980284027E+00  0.1510494809989E+01
-0.2766623659226E+00 -0.3208196485462E+01 -0.6969717806626E+00  0.1530121902664E+01
-0.2666069312434E+00 -0.3174205912985E+01 -0.6881625791001E+00  0.1544459988381E+01
-0.2635828772770E+00 -0.3133909815588E+01 -0.6794985486983E+00  0.1555173413824E+01
-0.2666871621278E+00 -0.3087685175963E+01 -0.6708744776149E+00  0.1563662213117E+01
-0.2749215245849E+00 -0.3035857087939E+01 -0.6621557323717E+00  0.1571078612612E+01
-0.2872151323858E+00 -0.2978694124650E+01 -0.6531818611403E+00  0.1578356571939E+01
-0.3024341073629E+00 -0.2916472337012E+01 -0.6437812984681E+00  0.1586246324345E+01
-0.3193791721316E+00 -0.2849538145988E+01 -0.6337834730680E+00  0.1595337259646E+01
-0.3367712252686E+00 -0.2778203835552E+01 -0.6229950214474E+00  0.1606098781945E+01
-0.3532316755478E+00 -0.2702664429802E+01 -0.6111792301772E+00  0.1618948478597E+01
-0.3672544807444E+00 -0.2623070371886E+01 -0.5980649794379E+00  0.1634289169681E+01
-0.3771692613089E+00 -0.2539611639576E+01 -0.5833561888697E+00  0.1652530919347E+01
-0.3810967054960E+00 -0.2452586166224E+01 -0.5667365827890E+00  0.1674100429978E+01
-0.3769000603502E+00 -0.2362458881952E+01 -0.5478717966244E+00  0.1699432646502E+01
-0.3621377904918E+00 -0.2269915405083E+01 -0.5264106469591E+00  0.1728939266288E+01
-0.3340239143086E+00 -0.2175915400820E+01 -0.5019878705060E+00  0.1762947919523E+01
-0.2894052991548E+00 -0.2081740214141E+01 -0.4742291097257E+00  0.1801608386109E+01
-0.2247631213662E+00 -0.1989010846731E+01 -0.4427548002171E+00  0.1844768419436E+01
-0.1362482066535E+00 -0.1899685132781E+01 -0.4071866739545E+00  0.1891820996792E+01
-0.1977210038070E-01 -0.1816055940336E+01 -0.3671656136145E+00  0.1941512012657E+01
 0.1288280827406E+00 -0.1740702162920E+01 -0.3223748208396E+00  0.1991724207325E+01
 0.3135403085305E+00 -0.1676361894008E+01 -0.2725643211569E+00  0.2039268730670E+01
 0.5378369574213E+00 -0.1625732513083E+01 -0.2175791143745E+00  0.2079710623193E+01
 0.8042483093256E+00 -0.1591195429715E+01 -0.1573894264232E+00  0.2107270717426E+01
 0.1113886181651E+01 -0.1574477726298E+01 -0.9211831030204E-01  0.2114852582168E+01
 0.1466035604750E+01 -0.1576285677070E+01 -0.2205001479263E-01  0.2094224331710E+01
 0.1858030975401E+01 -0.1596001623996E+01  0.5240587106184E-01  0.2036277182573E+01
 0.2285068056832E+01 -0.1631601608785E+01  0.1306932915568E+00  0.1931318572653E+01
 0.2739663701035E+01 -0.1679612740478E+01  0.2120101952705E+00  0.1769659392807E+01
 0.3211696152937E+01 -0.1735112379324E+01  0.2953167591232E+00  0.1542402191387E+01
 0.3689123542445E+01 -0.1792062546454E+01  0.3794122048518E+00  0.1242059408722E+01
-0.8188247098104E+00 -0.3416390609341E+01 -0.8470430764522E+00  0.7891761124010E+00
-0.7520306710285E+00 -0.3443136834890E+01 -0.8390335136863E+00  0.9339765932598E+00
-0.6809783091933E+00 -0.3468332928502E+01 -0.8298622599050E+00  0.1062540721053E+01
-0.6091235360404E+00 -0.3489918928371E+01 -0.8198085050983E+00  0.1173181639502E+01
-0.5397281021502E+00 -0.3506050883330E+01 -0.8091558091534E+00  0.1265499079423E+01
-0.4755659977431E+00 -0.3515280657289E+01 -0.7981693429000E+00  0.1340220002199E+01
-0.4187375607167E+00 -0.3516649074012E+01 -0.7870773386741E+00  0.1398921282155E+01
-0.3706090563132E+00 -0.3509685146463E+01 -0.7760588521193E+00  0.1443709825083E+01
-0.3318574207787E+00 -0.3494332287109E+01 -0.7652379529805E+00  0.1476925857067E+01
-0.3025807200235E+00 -0.3470835241261E+01 -0.7546832035026E+00  0.1500909177013E+01
-0.2824336198395E+00 -0.3439620346139E+01 -0.7444108042883E+00  0.1517841431010E+01
-0.2707565677056E+00 -0.3401191636849E+01 -0.7343896518541E+00  0.1529658517004E+01
-0.2666811911387E+00 -0.3356053969711E+01 -0.7245470429666E+00  0.1538017014701E+01
-0.2692061173674E+00 -0.3304665014277E+01 -0.7147742369799E+00  0.1544296771235E+01
-0.2772449636773E+00 -0.3247411096913E+01 -0.7049312226224E+00  0.1549624818371E+01
-0.2896521631380E+00 -0.3184603044486E+01 -0.6948510518789E+00  0.1554910066488E+01
-0.3052340474914E+00 -0.3116554842060E+01 -0.6843577881080E+00  0.1560878748201E+01
-0.3227473787878E+00 -0.3043659100453E+01 -0.6732813058808E+00  0.1568096430369E+01
-0.3408853323162E+00 -0.2966254712106E+01 -0.6614280187405E+00  0.1577014863901E+01
-0.3582571857788E+00 -0.2884520095616E+01 -0.6485554659431E+00  0.1588047648991E+01
-0.3733579373899E+00 -0.2798556648337E+01 -0.6343829265984E+00  0.1601609544925E+01
-0.3845271915773E+00 -0.2708485676459E+01 -0.6186025828251E+00  0.1618139986594E+01
-0.3898982652275E+00 -0.2614525413139E+01 -0.6008847446272E+00  0.1638114530973E+01
-0.3873411963506E+00 -0.2517056513747E+01 -0.5808795506754E+00  0.1662038584227E+01
-0.3744048009525E+00 -0.2416682084244E+01 -0.5582173853573E+00  0.1690417348587E+01
-0.3482643674027E+00 -0.2314288792226E+01 -0.5325106398607E+00  0.1723695140610E+01
-0.3056845536267E+00 -0.2211104001996E+01 -0.5033577186252E+00  0.1762159665504E+01
-0.2430047351066E+00 -0.2108721471330E+01 -0.4703452482959E+00  0.1805814307207E+01
-0.1561575321928E+00 -0.2009108087960E+01 -0.4330531304836E+00  0.1854218249072E+01
-0.4074501181733E-01 -0.1914619576170E+01 -0.3910729234250E+00  0.1906278787301E+01
 0.1078066451544E+00 -0.1827967520676E+01 -0.3440321802308E+00  0.1960012484077E+01
 0.2939994076909E+00 -0.1752100446337E+01 -0.2916202120748E+00  0.2012308177577E+01
 0.5219105227626E+00 -0.1690002965318E+01 -0.2336184919923E+00  0.2058718410432E+01
 0.7947350923089E+00 -0.1644406069839E+01 -0.1699341980383E+00  0.2093326091147E+01
 0.1114257547329E+01 -0.1617416633340E+01 -0.1006318187018E+00  0.2108742883255E+01
 0.1480373276721E+01 -0.1610098551968E+01 -0.2594505543596E-01  0.2096280457003E+01
 0.1890886420246E+01 -0.1622102286060E+01  0.5375682763831E-01  0.2046224668247E+01
 0.2341224354690E+01 -0.1651538705497E+01  0.1379371318939E+00  0.1948159243226E+01
 0.2823795742199E+01 -0.1694907527909E+01  0.2257776462225E+00  0.1791616901732E+01
 0.3327988739281E+01 -0.1747058626221E+01  0.3161860273236E+00  0.1566990604990E+01
 0.3840919284665E+01 -0.1801532556044E+01  0.4078773518020E+00  0.1266289747648E+01
-0.8757183971834E+00 -0.3655351877941E+01 -0.9062140685286E+00  0.7996362369422E+00
-0.8031853846361E+00 -0.3684165951768E+01 -0.8974702806542E+00  0.9442510624482E+00
-0.7255182078874E+00 -0.3711273822798E+01 -0.8873584193597E+00  0.1071787555750E+01
-0.6466786829596E+00 -0.3734331328097E+01 -0.8762020152677E+00  0.1180602059786E+01
-0.5704023454569E+00 -0.3751253495623E+01 -0.8643311810954E+00  0.1270426515936E+01
-0.4998444562671E+00 -0.3760430424556E+01 -0.8520549888612E+00  0.1342177909952E+01
-0.4373635024214E+00 -0.3760833453752E+01 -0.8396394037464E+00  0.1397640006794E+01
-0.3844600615808E+00 -0.3752005861112E+01 -0.8272931968662E+00  0.1439107140011E+01
-0.3418418614784E+00 -0.3733966924141E+01 -0.8151617692707E+00  0.1469064430094E+01
-0.3095640566051E+00 -0.3707072409213E+01 -0.8033273051342E+00  0.1489945896143E+01
-0.2871945357197E+00 -0.3671871211934E+01 -0.7918131613297E+00  0.1503980329084E+01
-0.2739673857886E+00 -0.3628984230323E+01 -0.7805903348541E+00  0.1513113931781E+01
-0.2689051884765E+00 -0.3579017231082E+01 -0.7695844953795E+00  0.1518988992727E+01
-0.2709050037236E+00 -0.3522508326587E+01 -0.7586826773673E+00  0.1522957590590E+01
-0.2787915810195E+00 -0.3459902985343E+01 -0.7477389244146E+00  0.1526113956873E+01
-0.2913454845659E+00 -0.3391551239188E+01 -0.7365793557267E+00  0.1529334746084E+01
-0.3073150427685E+00 -0.3317801730367E+01 -0.7250233654307E+00  0.1533315134050E+01
-0.3254154276179E+00 -0.3239090258595E+01 -0.7129011478656E+00  0.1538589524614E+01
-0.3443152775522E+00 -0.3155779378847E+01 -0.7000189417109E+00  0.1545584776675E+01
-0.3626160947188E+00 -0.3068027440669E+01 -0.6861287173017E+00  0.1554703909140E+01
-0.3788195805224E+00 -0.2975882475360E+01 -0.6709404211743E+00  0.1566367754376E+01
-0.3912823392912E+00 -0.2879391699671E+01 -0.6541348175398E+00  0.1581040155306E+01
-0.3981586228910E+00 -0.2778686923148E+01 -0.6353691186756E+00  0.1599241838456E+01
-0.3973346555559E+00 -0.2674056322399E+01 -0.6142782047445E+00  0.1621546785471E+01
-0.3863597236582E+00 -0.2566010693606E+01 -0.5904740922515E+00  0.1648554248741E+01
-0.3623806423579E+00 -0.2455352319513E+01 -0.5635466007717E+00  0.1680828956551E+01
-0.3220893476154E+00 -0.2343241842381E+01 -0.5330662459426E+00  0.1718804298789E+01
-0.2616907627307E+00 -0.2231232135645E+01 -0.4985845871047E+00  0.1762652160980E+01
-0.1769024659391E+00 -0.2121285563412E+01 -0.4596376127193E+00  0.1812116976879E+01
-0.6301321410926E-01 -0.2015809191965E+01 -0.4157644874101E+00  0.1866292940168E+01
 0.8497593003128E-01 -0.1917640673540E+01 -0.3665329541636E+00  0.1923361567554E+01
 0.2721089058116E+00 -0.1829940445174E+01 -0.3115663125152E+00  0.1980323906423E+01
 0.5031121910487E+00 -0.1755993057522E+01 -0.2505761770286E+00  0.2032753562802E+01
 0.7819069236510E+00 -0.1698904981281E+01 -0.1833996142589E+00  0.2074621545164E+01
 0.1111024992016E+01 -0.1661201350190E+01 -0.1100352732746E+00  0.2098257996250E+01
 0.1491052850189E+01 -0.1644350133055E+01 -0.3065945703010E-01  0.2094505291390E+01
 0.1920339235014E+01 -0.1648315401001E+01  0.5440476761324E-01  0.2053003633799E+01
 0.2394593177948E+01 -0.1671376213332E+01  0.1446433950786E+00  0.1962543093447E+01
 0.2906116349835E+01 -0.1710013937636E+01  0.2392204860045E+00  0.1811782446540E+01
 0.3443744559567E+01 -0.1758825475928E+01  0.3369838217493E+00  0.1590301887627E+01
 0.3993626322606E+01 -0.1810868888045E+01  0.4365514934175E+00  0.1289522295374E+01
-0.9327048092444E+00 -0.3895387047169E+01 -0.9656183856715E+00  0.8108933313663E+00
-0.8541025426895E+00 -0.3926396022496E+01 -0.9560997272841E+00  0.9553171732545E+00
-0.7694874209271E+00 -0.3955520290527E+01 -0.9450015563725E+00  0.1081707273534E+01
-0.6833672860820E+00 -0.3980111463351E+01 -0.9326957637849E+00  0.1188471359116E+01
-0.5999825862660E+00 -0.3997832127297E+01 -0.9195629564151E+00  0.1275500245215E+01
-0.5228848294112E+00 -0.4006911468221E+01 -0.9059592730262E+00  0.1343937283451E+01
-0.4546888686163E+00 -0.4006263323423E+01 -0.8921904517026E+00  0.1395809281109E+01
-0.3970154303361E+00 -0.3995463917417E+01 -0.8784958826413E+00  0.1433626681930E+01
-0.3505828340116E+00 -0.3974628505185E+01 -0.8650422807295E+00  0.1460037483497E+01
-0.3153827863186E+00 -0.3944241260268E+01 -0.8519248220119E+00  0.1477577505550E+01
-0.2908792422104E+00 -0.3904986073021E+01 -0.8391730755510E+00  0.1488522229294E+01
-0.2761877287524E+00 -0.3857607770504E+01 -0.8267591121710E+00  0.1494822657297E+01
-0.2702144976937E+00 -0.3802815505745E+01 -0.8146060128264E+00  0.1498098862007E+01
-0.2717517239347E+00 -0.3741227036347E+01 -0.8025957640159E+00  0.1499666645105E+01
-0.2795347091214E+00 -0.3673344243351E+01 -0.7905758022750E+00  0.1500579330257E+01
-0.2922712283153E+00 -0.3599552762311E+01 -0.7783648097238E+00  0.1501673906547E+01
-0.3086535475272E+00 -0.3520232237887E+01 -0.7657771684937E+00  0.1503607394702E+01
-0.3273576926768E+00 -0.3435858479668E+01 -0.7526432456843E+00  0.1506875702902E+01
-0.3470309924555E+00 -0.3346814755673E+01 -0.7387691606343E+00  0.1511873509336E+01
-0.3662716143745E+00 -0.3253235993655E+01 -0.7239015323928E+00  0.1518986472427E+01
-0.3835938280327E+00 -0.3155112699577E+01 -0.7077413160681E+00  0.1528635300441E+01
-0.3973786265812E+00 -0.3052412741257E+01 -0.6899582838488E+00  0.1541302824022E+01
-0.4058100851171E+00 -0.2945174887937E+01 -0.6701970045976E+00  0.1557550691264E+01
-0.4068008366659E+00 -0.2833586627155E+01 -0.6480775024213E+00  0.1578018922308E+01
-0.3979118781105E+00 -0.2718056441243E+01 -0.6231936731570E+00  0.1603400650371E+01
-0.3762732854633E+00 -0.2599290316548E+01 -0.5951127292702E+00  0.1634384019464E+01
-0.3385156513336E+00 -0.2478368455803E+01 -0.5633768298222E+00  0.1671555250806E+01
-0.2807191241353E+00 -0.2356787639454E+01 -0.5275013605782E+00  0.1715267291650E+01
-0.1983920918367E+00 -0.2236489875846E+01 -0.4869764007931E+00  0.1765469150852E+01
-0.8650894224328E-01 -0.2119919178692E+01 -0.4412856307627E+00  0.1821468655019E+01
 0.6036624121850E-01 -0.2010029421412E+01 -0.3899326418491E+00  0.1881645966468E+01
 0.2478462755859E+00 -0.1910191415576E+01 -0.3324690329522E+00  0.1943152957280E+01
 0.4813524833921E+00 -0.1824000368347E+01 -0.2685295809923E+00  0.2001623370935E+01
 0.7655978849494E+00 -0.1754964155206E+01 -0.1978732569999E+00  0.2050948592679E+01
 0.1103945391184E+01 -0.1706067532116E+01 -0.1204244299807E+00  0.2083193231815E+01
 0.1497765864095E+01 -0.1679234948205E+01 -0.3629381736282E-01  0.2088720463869E+01
 0.1946042585376E+01 -0.1674797641112E+01  0.5424898966109E-01  0.2056482682032E+01
 0.2444830344242E+01 -0.1691244324098E+01  0.1507172062745E+00  0.1974397927769E+01
 0.2986332714263E+01 -0.1725052227881E+01  0.2522561010352E+00  0.1830140350351E+01
 0.3558768013371E+01 -0.1770539157600E+01  0.3576457764837E+00  0.1612356291311E+01
 0.4147178095491E+01 -0.1820212654395E+01  0.4653930951541E+00  0.1311776983862E+01
-0.9898019773304E+00 -0.4136655804790E+01 -0.1025291571702E+01  0.8229996801886E+00
-0.9047574810794E+00 -0.4170001106020E+01 -0.1014951732544E+01  0.9672226428918E+00
-0.8128176197738E+00 -0.4201255727473E+01 -0.1002814684392E+01  0.1092333707950E+01
-0.7190849226809E+00 -0.4227442898819E+01 -0.9893055790419E+00  0.1196802484115E+01
-0.6283416120170E+00 -0.4245959604735E+01 -0.9748602578770E+00  0.1280710172168E+01
-0.5445520330803E+00 -0.4254876159786E+01 -0.9598856528766E+00  0.1345468082385E+01
-0.4705836278273E+00 -0.4253064247293E+01 -0.9447295891016E+00  0.1393386014127E+01
-0.4081590747622E+00 -0.4240155878264E+01 -0.9296630044584E+00  0.1427220728684E+01
-0.3579826645940E+00 -0.4216386103732E+01 -0.9148737672979E+00  0.1449800542679E+01
-0.3199584387343E+00 -0.4182387444514E+01 -0.9004691900677E+00  0.1463768823815E+01
-0.2934267888627E+00 -0.4138992489851E+01 -0.8864838689523E+00  0.1471445010826E+01
-0.2773711876291E+00 -0.4087077278484E+01 -0.8728897062296E+00  0.1474777305521E+01
-0.2705738624605E+00 -0.4027456370054E+01 -0.8596060593121E+00  0.1475354056468E+01
-0.2717188972325E+00 -0.3960825609144E+01 -0.8465089138893E+00  0.1474445288122E+01
-0.2794518823440E+00 -0.3887739775150E+01 -0.8334383439180E+00  0.1473054826070E+01
-0.2924091869599E+00 -0.3808615873191E+01 -0.8202050242522E+00  0.1471972447893E+01
-0.3092291400860E+00 -0.3723860492834E+01 -0.8066179386036E+00  0.1471809960537E+01
-0.3285511239845E+00 -0.3633986112424E+01 -0.7925074590911E+00  0.1473017526101E+01
-0.3490043828276E+00 -0.3539393805020E+01 -0.7776796491578E+00  0.1475950357705E+01
-0.3691882234671E+00 -0.3440191898614E+01 -0.7618760357691E+00  0.1480969818174E+01
-0.3876355014907E+00 -0.3336309451493E+01 -0.7447890016950E+00  0.1488489970781E+01
-0.4027593178734E+00 -0.3227629969189E+01 -0.7260778682320E+00  0.1499006745195E+01
-0.4127830029813E+00 -0.3114092773585E+01 -0.7053751658242E+00  0.1513117869271E+01
-0.4156566149552E+00 -0.2995776565351E+01 -0.6822866462282E+00  0.1531526152922E+01
-0.4089652012033E+00 -0.2872977430036E+01 -0.6563885360289E+00  0.1555017621706E+01
-0.3898353202743E+00 -0.2746292740408E+01 -0.6272256214828E+00  0.1584405955865E+01
-0.3548495643109E+00 -0.2616707645103E+01 -0.5943114507387E+00  0.1620436516606E+01
-0.2999754888475E+00 -0.2485646050935E+01 -0.5571243162583E+00  0.1663655283027E+01
-0.2205211522936E+00 -0.2355011383500E+01 -0.5151065148343E+00  0.1714235145079E+01
-0.1111487756293E+00 -0.2227267001375E+01 -0.4676831623699E+00  0.1771725289052E+01
 0.3402343518723E-01 -0.2105469385086E+01 -0.4142891961531E+00  0.1834740683942E+01
 0.2212023204491E+00 -0.1993194423709E+01 -0.3543984259329E+00  0.1900626944243E+01
 0.4565503394356E+00 -0.1894355883047E+01 -0.2875611130073E+00  0.1965123171094E+01
 0.7456427368433E+00 -0.1812888304273E+01 -0.2134491166665E+00  0.2022080769347E+01
 0.1092766396895E+01 -0.1752280066268E+01 -0.1319027358402E+00  0.2063321880994E+01
 0.1500184327976E+01 -0.1714970952236E+01 -0.4295732549224E-01  0.2078724986994E+01
 0.1967622251129E+01 -0.1701722317870E+01  0.5317998744430E-01  0.2056511464639E+01
 0.2491562191244E+01 -0.1711283966665E+01  0.1560556472412E+00  0.1983639929110E+01
 0.3064128561812E+01 -0.1740149902117E+01  0.2647957358848E+00  0.1846671930645E+01
 0.3672854147354E+01 -0.1782332209894E+01  0.3781043931261E+00  0.1633177644139E+01
 0.4301518607538E+01 -0.1829711657250E+01  0.4943613974241E+00  0.1333079205004E+01
-0.1047027888713E+01 -0.4379325286511E+01 -0.1085270651217E+01  0.8360135957139E+00
-0.9551216897667E+00 -0.4415163683631E+01 -0.1074057090684E+01  0.9800201850573E+00
-0.8554330681598E+00 -0.4448671982608E+01 -0.1060821025961E+01  0.1103702661662E+01
-0.7537178322230E+00 -0.4476516150699E+01 -0.1046046812172E+01  0.1205606051435E+01
-0.6553431814662E+00 -0.4495812689514E+01 -0.1030231189548E+01  0.1286039542028E+01
-0.5647041988031E+00 -0.4504476880367E+01 -0.1013836230941E+01  0.1346730372645E+01
-0.4849142729945E+00 -0.4501357824688E+01 -0.9972544343968E+00  0.1390315667166E+01
-0.4177748512239E+00 -0.4486171057178E+01 -0.9807891962953E+00  0.1419830220272E+01
-0.3639464590828E+00 -0.4459299352857E+01 -0.9646491767624E+00  0.1438299151620E+01
-0.3232172488618E+00 -0.4421546126129E+01 -0.9489526891387E+00  0.1448476738858E+01
-0.2947819342990E+00 -0.4373907446636E+01 -0.9337378901008E+00  0.1452720877452E+01
-0.2774773197869E+00 -0.4317397767466E+01 -0.9189750311443E+00  0.1452966936767E+01
-0.2699537492269E+00 -0.4252938321987E+01 -0.9045784277221E+00  0.1450760278307E+01
-0.2707843541196E+00 -0.4181300482289E+01 -0.8904169805500E+00  0.1447314616637E+01
-0.2785252418157E+00 -0.4103087464298E+01 -0.8763225542810E+00  0.1443575253019E+01
-0.2917431624531E+00 -0.4018742688862E+01 -0.8620971831092E+00  0.1440277162607E+01
-0.3090248474659E+00 -0.3928695206146E+01 -0.8475440233518E+00  0.1437980021565E+01
-0.3289755734966E+00 -0.3833490680938E+01 -0.8324932632920E+00  0.1437081166439E+01
-0.3502096707217E+00 -0.3733545176148E+01 -0.8167509815446E+00  0.1437889127487E+01
-0.3713320307184E+00 -0.3628937486952E+01 -0.8000539154559E+00  0.1440733914298E+01
-0.3909002090424E+00 -0.3519531620706E+01 -0.7820863776037E+00  0.1446016111603E+01
-0.4073674140805E+00 -0.3405122049639E+01 -0.7624979041059E+00  0.1454238385623E+01
-0.4190061600315E+00 -0.3285542567296E+01 -0.7409097565059E+00  0.1466029084456E+01
-0.4238156920683E+00 -0.3160755242386E+01 -0.7169141975737E+00  0.1482149793076E+01
-0.4194185055335E+00 -0.3030933760334E+01 -0.6900704634564E+00  0.1503477518515E+01
-0.4029523350558E+00 -0.2896554315780E+01 -0.6599013400005E+00  0.1530952543171E+01
-0.3709671263987E+00 -0.2758491616521E+01 -0.6258917579105E+00  0.1565484588855E+01
-0.3193326873179E+00 -0.2618078385694E+01 -0.5874822233565E+00  0.1607823721779E+01
-0.2431689400506E+00 -0.2477158740850E+01 -0.5440655442873E+00  0.1658385631315E+01
-0.1368319323071E+00 -0.2338194256989E+01 -0.4950052452353E+00  0.1716989241636E+01
 0.6011206184842E-02 -0.2204326056126E+01 -0.4396629765398E+00  0.1782522771466E+01
 0.1921838595619E+00 -0.2079325199187E+01 -0.3774282735491E+00  0.1852572927440E+01
 0.4286358089553E+00 -0.1967428082747E+01 -0.3077584593443E+00  0.1923036159317E+01
 0.7218790097354E+00 -0.1873019571899E+01 -0.2302281158633E+00  0.1987772130106E+01
 0.1077227208728E+01 -0.1800137826004E+01 -0.1445821256097E+00  0.2038392415792E+01
 0.1497959591414E+01 -0.1751803653616E+01 -0.5076881319699E-01  0.2064291604203E+01
 0.1984673528263E+01 -0.1729282375038E+01  0.5107823140611E-01  0.2052917040632E+01
 0.2534381295264E+01 -0.1731648637577E+01  0.1605465339298E+00  0.1990171009657E+01
 0.3139160216950E+01 -0.1755442879002E+01  0.2767434717133E+00  0.1861354326458E+01
 0.3785786558264E+01 -0.1794344544734E+01  0.3982884086410E+00  0.1652793236289E+01
 0.4456603020539E+01 -0.1839521465758E+01  0.5234163187559E+00  0.1353459904234E+01
-0.1104400468833E+01 -0.4623571705039E+01 -0.1145594451845E+01  0.8499999215276E+00
-0.1005161966933E+01 -0.4662076485058E+01 -0.1133447707288E+01  0.9937677945645E+00
-0.8972490721674E+00 -0.4697971130511E+01 -0.1119044057211E+01  0.1115851626989E+01
-0.7871411128872E+00 -0.4727530035910E+01 -0.1102934246194E+01  0.1214889372576E+01
-0.6808404899794E+00 -0.4747572701806E+01 -0.1085682654535E+01  0.1291463431206E+01
-0.5831917607048E+00 -0.4755865823247E+01 -0.1067811532702E+01  0.1347672634107E+01
-0.4975436199570E+00 -0.4751260798032E+01 -0.1049760899240E+01  0.1386530739226E+01
-0.4257469474788E+00 -0.4733590191523E+01 -0.1031867443176E+01  0.1411383659363E+01
-0.3683828567339E+00 -0.4703416963009E+01 -0.1014359979064E+01  0.1425468264509E+01
-0.3250910564672E+00 -0.4661740565125E+01 -0.9973663391804E+00  0.1431650039522E+01
-0.2948960268405E+00 -0.4609736127408E+01 -0.9809264454666E+00  0.1432316511775E+01
-0.2764724173042E+00 -0.4548563262941E+01 -0.9650071504289E+00  0.1429377406141E+01
-0.2683309704560E+00 -0.4479250038889E+01 -0.9495162160178E+00  0.1424321924776E+01
-0.2689316239948E+00 -0.4402639521308E+01 -0.9343142429830E+00  0.1418295897875E+01
-0.2767419212110E+00 -0.4319377775535E+01 -0.9192239530468E+00  0.1412176719476E+01
-0.2902612925753E+00 -0.4229928874413E+01 -0.9040380468689E+00  0.1406637046823E+01
-0.3080274518876E+00 -0.4134739396758E+01 -0.8885533829696E+00  0.1402177774271E+01
-0.3286141106988E+00 -0.4034384597553E+01 -0.8725997546530E+00  0.1399136607868E+01
-0.3506237359131E+00 -0.3929292865370E+01 -0.8559833330118E+00  0.1397768313890E+01
-0.3726711489053E+00 -0.3819510850287E+01 -0.8384364123322E+00  0.1398364405930E+01
-0.3933447519952E+00 -0.3704834311983E+01 -0.8196358250092E+00  0.1401304859055E+01
-0.4111460859620E+00 -0.3584964464304E+01 -0.7992221219625E+00  0.1407092241204E+01
-0.4244072178708E+00 -0.3459623947321E+01 -0.7768062446137E+00  0.1416379429359E+01
-0.4311890235621E+00 -0.3328650768053E+01 -0.7519679695281E+00  0.1429981958496E+01
-0.4291658343139E+00 -0.3192086480106E+01 -0.7242504736761E+00  0.1448864885815E+01
-0.4155026788857E+00 -0.3050273491209E+01 -0.6931552443477E+00  0.1474094930464E+01
-0.3867342349132E+00 -0.2903960088318E+01 -0.6581388744532E+00  0.1506750034299E+01
-0.3386502015508E+00 -0.2754368072051E+01 -0.6186036639382E+00  0.1547794118872E+01
-0.2661982081129E+00 -0.2603258976214E+01 -0.5738914454170E+00  0.1597903757466E+01
-0.1634384780386E+00 -0.2453067646049E+01 -0.5233012326154E+00  0.1657196194559E+01
-0.2358639982916E-01 -0.2306996917886E+01 -0.4661166704887E+00  0.1724873309668E+01
 0.1608168070317E+00 -0.2168997552397E+01 -0.4016361550578E+00  0.1798814699923E+01
 0.3975532811790E+00 -0.2043627594953E+01 -0.3292148676605E+00  0.1875133506230E+01
 0.6941496843810E+00 -0.1935743056517E+01 -0.2483186781275E+00  0.1947755813665E+01
 0.1057059816084E+01 -0.1849979398808E+01 -0.1585839189079E+00  0.2008125432698E+01
 0.1490721349025E+01 -0.1790011190557E+01 -0.5985796919825E-01  0.2045162559407E+01
 0.1996757778003E+01 -0.1757694091016E+01  0.4781273810980E-01  0.2045499506464E+01
 0.2572841445307E+01 -0.1752506604813E+01  0.1640669705436E+00  0.1993875598303E+01
 0.3211051950792E+01 -0.1771076867813E+01  0.2879950208872E+00  0.1874159144450E+01
 0.3897335008509E+01 -0.1806724798060E+01  0.4181220483202E+00  0.1671233721771E+01
 0.4612398301073E+01 -0.1849806816894E+01  0.5525183050690E+00  0.1372955601189E+01
-0.1161937548706E+01 -0.4869582248894E+01 -0.1206303977495E+01  0.8650306440517E+00
-0.1054839401404E+01 -0.4910944611182E+01 -0.1193156820297E+01  0.1008529078126E+01
-0.9381701495351E+00 -0.4949367499383E+01 -0.1177507547330E+01  0.1128819407171E+01
-0.8192166495145E+00 -0.4980693149724E+01 -0.1159981977133E+01  0.1224655223339E+01
-0.7046744880225E+00 -0.5001426098506E+01 -0.1141220134311E+01  0.1296946897976E+01
-0.5998565557180E+00 -0.5009194598743E+01 -0.1121810247609E+01  0.1348229746659E+01
-0.5083307458944E+00 -0.5002883881527E+01 -0.1102242941909E+01  0.1381949026649E+01
-0.4319604691579E+00 -0.4982483834191E+01 -0.1082888876806E+01  0.1401795908331E+01
-0.3712049797274E+00 -0.4948775012383E+01 -0.1063996014277E+01  0.1411231639009E+01
-0.3255183592705E+00 -0.4902980548610E+01 -0.1045699797158E+01  0.1413229316463E+01
-0.2937279842330E+00 -0.4846470614940E+01 -0.1028039735154E+01  0.1410193328927E+01
-0.2743303238777E+00 -0.4780555802169E+01 -0.1010977240274E+01  0.1403991812104E+01
-0.2656893178661E+00 -0.4706369651574E+01 -0.9944118087060E+00  0.1396042603635E+01
-0.2661504079547E+00 -0.4624821513687E+01 -0.9781943989045E+00  0.1387411063620E+01
-0.2740944053079E+00 -0.4536593403114E+01 -0.9621375760213E+00  0.1378897056602E+01
-0.2879563478103E+00 -0.4442163381239E+01 -0.9460239599068E+00  0.1371103633826E+01
-0.3062277724746E+00 -0.4341990160782E+01 -0.9296436005041E+00  0.1364466670973E+01
-0.3274533223251E+00 -0.4236674911816E+01 -0.9128256604303E+00  0.1359257832087E+01
-0.3502264523588E+00 -0.4126655900720E+01 -0.8953764839579E+00  0.1355671252693E+01
-0.3731760760217E+00 -0.4011945421890E+01 -0.8770243126509E+00  0.1353952763259E+01
-0.3949275526704E+00 -0.3892268288305E+01 -0.8574391809719E+00  0.1354454319799E+01
-0.4140391463463E+00 -0.3767228785944E+01 -0.8362535989193E+00  0.1357671094687E+01
-0.4289132224124E+00 -0.3636433374596E+01 -0.8130693315174E+00  0.1364273769366E+01
-0.4376853322592E+00 -0.3499589171264E+01 -0.7874549124386E+00  0.1375126163223E+01
-0.4380969273396E+00 -0.3356596366145E+01 -0.7589386700061E+00  0.1391277343691E+01
-0.4273577882525E+00 -0.3207651180317E+01 -0.7270018045471E+00  0.1413918891876E+01
-0.4020066971340E+00 -0.3053359148203E+01 -0.6910731793652E+00  0.1444299174623E+01
-0.3577737698749E+00 -0.2894810151782E+01 -0.6505167940249E+00  0.1483604030341E+01
-0.2894541333077E+00 -0.2733657332111E+01 -0.6046223020934E+00  0.1532787637385E+01
-0.1908274775602E+00 -0.2572279796198E+01 -0.5526214629864E+00  0.1592293776502E+01
-0.5466224775740E-01 -0.2413913589010E+01 -0.4937151747104E+00  0.1661679897490E+01
 0.1271496783805E+00 -0.2262667072786E+01 -0.4271034852454E+00  0.1739174594992E+01
 0.3632653358270E+00 -0.2123412450641E+01 -0.3520294282084E+00  0.1821174883825E+01
 0.6623065960789E+00 -0.2001493274198E+01 -0.2678373396150E+00  0.1901742758337E+01
 0.1031990867630E+01 -0.1902189989602E+01 -0.1740398269879E+00  0.1972210351480E+01
 0.1478076893704E+01 -0.1829910601110E+01 -0.7036674252987E-01  0.2021044691173E+01
 0.2003398601579E+01 -0.1787201688041E+01  0.4323938335184E-01  0.2034026699356E+01
 0.2606451685431E+01 -0.1774043534678E+01  0.1664816326313E+00  0.1994616681170E+01
 0.3279390423290E+01 -0.1787208894319E+01  0.2984363102412E+00  0.1885050915215E+01
 0.4007252769586E+01 -0.1819632004901E+01  0.4375241594565E+00  0.1688533127354E+01
 0.4768883935329E+01 -0.1860743449087E+01  0.5816281059154E+00  0.1391608276741E+01
-0.1219656811693E+01 -0.5117557315927E+01 -0.1267442844410E+01  0.8811856319118E+00
-0.1104108136814E+01 -0.5161988022716E+01 -0.1253219250581E+01  0.1024373632622E+01
-0.9780878497366E+00 -0.5203090006105E+01 -0.1236235589590E+01  0.1142645600983E+01
-0.8497907206154E+00 -0.5236225481352E+01 -0.1217203258531E+01  0.1234900287859E+01
-0.7266720421608E+00 -0.5257564968251E+01 -0.1196847419917E+01  0.1302442718810E+01
-0.6145309665864E+00 -0.5264613573185E+01 -0.1175828925475E+01  0.1348320604723E+01
-0.5171311176215E+00 -0.5256330238407E+01 -0.1154692288412E+01  0.1376471643353E+01
-0.4363022740771E+00 -0.5232910408456E+01 -0.1133842553402E+01  0.1390966898965E+01
-0.3723316128448E+00 -0.5195394979134E+01 -0.1113545334989E+01  0.1395501262532E+01
-0.3244455375183E+00 -0.5145260662486E+01 -0.1093941256302E+01  0.1393146965349E+01
-0.2912453765773E+00 -0.5084088517330E+01 -0.1075066794801E+01  0.1386307856443E+01
-0.2710332961874E+00 -0.5013344424082E+01 -0.1056875559803E+01  0.1376791065256E+01
-0.2620201976820E+00 -0.4934264047333E+01 -0.1039256864489E+01  0.1365925747851E+01
-0.2624370274813E+00 -0.4847815711624E+01 -0.1022050563051E+01  0.1354683277429E+01
-0.2705808521555E+00 -0.4754708976271E+01 -0.1005057980662E+01  0.1343776287672E+01
-0.2848259903416E+00 -0.4655428243040E+01 -0.9880508613995E+00  0.1333731349130E+01
-0.3036209150325E+00 -0.4550438494184E+01 -0.9708118963096E+00  0.1324913669312E+01
-0.3254835902003E+00 -0.4440363104988E+01 -0.9531693532409E+00  0.1317522986534E+01
-0.3490010145014E+00 -0.4325648060669E+01 -0.9349298289655E+00  0.1311686237549E+01
-0.3728200791298E+00 -0.4206269575780E+01 -0.9158179446287E+00  0.1307596381406E+01
-0.3956091001966E+00 -0.4081879408403E+01 -0.8954977150638E+00  0.1305569690969E+01
-0.4159915599892E+00 -0.3951981916577E+01 -0.8735947083308E+00  0.1306086203595E+01
-0.4324511732216E+00 -0.3816063105673E+01 -0.8497028684404E+00  0.1309827063108E+01
-0.4432117152840E+00 -0.3673693185787E+01 -0.8233809924834E+00  0.1317697856129E+01
-0.4460978131434E+00 -0.3524622519670E+01 -0.7941440783964E+00  0.1330826438972E+01
-0.4383826679822E+00 -0.3368889259629E+01 -0.7614543968687E+00  0.1350526096641E+01
-0.4166304512729E+00 -0.3206939817156E+01 -0.7247140644849E+00  0.1378215862453E+01
-0.3765351470043E+00 -0.3039710158677E+01 -0.6832490713175E+00  0.1415309381127E+01
-0.3127633781305E+00 -0.2868716797210E+01 -0.6362960445496E+00  0.1463053176977E+01
-0.2188351264606E+00 -0.2696249860449E+01 -0.5830170060695E+00  0.1522244707118E+01
-0.8708316855981E-01 -0.2525543922031E+01 -0.5225254259043E+00  0.1592839741916E+01
 0.9125755171269E-01 -0.2360835076804E+01 -0.4539155117821E+00  0.1673475940504E+01
 0.3257573063199E+00 -0.2207293985502E+01 -0.3763073414438E+00  0.1760909546380E+01
 0.6262147205244E+00 -0.2070761694526E+01 -0.2889093991055E+00  0.1849420687939E+01
 0.1001744368199E+01 -0.1957209741065E+01 -0.1910930774207E+00  0.1930301909255E+01
 0.1459610787174E+01 -0.1871865608058E+01 -0.8245096540546E-01  0.1991603752114E+01
 0.2004077646714E+01 -0.1818083139209E+01  0.3719890205540E-01  0.2018227712442E+01
 0.2634669173593E+01 -0.1796465613731E+01  0.1676407144704E+00  0.1992230807032E+01
 0.3343717911314E+01 -0.1804008820297E+01  0.3079418227921E+00  0.1893985338137E+01
 0.4115273755357E+01 -0.1833237565370E+01  0.4564072447985E+00  0.1704729176759E+01
 0.4926052753776E+01 -0.1872520522647E+01  0.6107064553261E+00  0.1409465048374E+01
-0.1277575711659E+01 -0.5367713163799E+01 -0.1329057794896E+01  0.8985535277504E+00
-0.1152913857467E+01 -0.5415444481677E+01 -0.1313671687404E+01  0.1041377470520E+01
-0.1016878139395E+01 -0.5459384859346E+01 -0.1295252619049E+01  0.1157369899358E+01
-0.8786912240149E+00 -0.5494360172094E+01 -0.1274610298215E+01  0.1245613185761E+01
-0.7466439336597E+00 -0.5516187387856E+01 -0.1252566282968E+01  0.1307888618438E+01
-0.6270371517612E+00 -0.5522270852296E+01 -0.1229861619138E+01  0.1347845304107E+01
-0.5237969743369E+00 -0.5511693518400E+01 -0.1207098116534E+01  0.1369980792665E+01
-0.4386621120993E+00 -0.5484913863645E+01 -0.1184715212802E+01  0.1378780281494E+01
-0.3716886502940E+00 -0.5443281485651E+01 -0.1162994044519E+01  0.1378176853338E+01
-0.3218282655671E+00 -0.5388558399656E+01 -0.1142077350063E+01  0.1371327332617E+01
-0.2874256129406E+00 -0.5322551532918E+01 -0.1121995445891E+01  0.1360612270559E+01
-0.2665729021452E+00 -0.5246884165336E+01 -0.1102691429928E+01  0.1347754596371E+01
-0.2573232573094E+00 -0.5162888217114E+01 -0.1084042311038E+01  0.1333975339744E+01
-0.2577948380612E+00 -0.5071581436864E+01 -0.1065875270868E+01  0.1320137579220E+01
-0.2662053686510E+00 -0.4973690832940E+01 -0.1047979255934E+01  0.1306857144706E+01
-0.2808729861912E+00 -0.4869698439716E+01 -0.1030114300531E+01  0.1294577886189E+01
-0.3002064822763E+00 -0.4760069178978E+01 -0.1012055147332E+01  0.1283589479508E+01
-0.3226993407089E+00 -0.4645444940561E+01 -0.9936288710601E+00  0.1274014530707E+01
-0.3469342476215E+00 -0.4526277637678E+01 -0.9746423915832E+00  0.1265906598314E+01
-0.3715795755757E+00 -0.4402506254094E+01 -0.9548171801619E+00  0.1259398624776E+01
-0.3953524097890E+00 -0.4273708067991E+01 -0.9338121094709E+00  0.1254763308829E+01
-0.4169499886701E+00 -0.4139285294452E+01 -0.9112470702030E+00  0.1252457403975E+01
-0.4349486574002E+00 -0.3998600127915E+01 -0.8867097702760E+00  0.1253164592966E+01
-0.4476743522009E+00 -0.3851080900540E+01 -0.8597510633595E+00  0.1257824874643E+01
-0.4530515428883E+00 -0.3696320759852E+01 -0.8298744729142E+00  0.1267638440495E+01
-0.4484365521416E+00 -0.3534188793481E+01 -0.7965250809937E+00  0.1284035375008E+01
-0.4304419929217E+00 -0.3364956273847E+01 -0.7590796646650E+00  0.1308603337637E+01
-0.3947520673781E+00 -0.3189382610244E+01 -0.7168269462060E+00  0.1342986990141E+01
-0.3359333059709E+00 -0.3008817246490E+01 -0.6689501204604E+00  0.1388737257803E+01
-0.2472729158959E+00 -0.2825423794393E+01 -0.6145393512151E+00  0.1447030477057E+01
-0.1206868378914E+00 -0.2642393966086E+01 -0.5526161690300E+00  0.1518263450494E+01
 0.5324650105270E-01 -0.2464052750153E+01 -0.4821612570049E+00  0.1601546310104E+01
 0.2850426493183E+00 -0.2295843408368E+01 -0.4021601578025E+00  0.1694078145435E+01
 0.5857575250035E+00 -0.2144105492827E+01 -0.3116695982090E+00  0.1790453531917E+01
 0.9660454553667E+00 -0.2015543753686E+01 -0.2098996627915E+00  0.1882016531109E+01
 0.1434885195489E+01 -0.1916296330865E+01 -0.9628222850988E-01  0.1956457870397E+01
 0.1998230116994E+01 -0.1850657615121E+01  0.2951450081436E-01  0.1997784892704E+01
 0.2656890531006E+01 -0.1820003318484E+01  0.1673774449984E+00  0.1986521587785E+01
 0.3403523804641E+01 -0.1821660513619E+01  0.3163726629189E+00  0.1900907218175E+01
 0.4221109545156E+01 -0.1847727268038E+01  0.4746764624969E+00  0.1719864355779E+01
 0.5083912052635E+01 -0.1885343775099E+01  0.6397136650395E+00  0.1426577587156E+01
-0.1335711351524E+01 -0.5620285082584E+01 -0.1391199307552E+01  0.9172328233132E+00
-0.1201191917764E+01 -0.5671573055177E+01 -0.1374553015071E+01  0.1059623489092E+01
-0.1054398245737E+01 -0.5718518703031E+01 -0.1354583409938E+01  0.1173031123140E+01
-0.9057244520425E+00 -0.5755345411979E+01 -0.1332213992656E+01  0.1256771962665E+01
-0.7643826995099E+00 -0.5777497559887E+01 -0.1308376071376E+01  0.1313203880248E+01
-0.6371864261748E+00 -0.5782310791431E+01 -0.1283899462653E+01  0.1346681839602E+01
-0.5281780477206E+00 -0.5769055347805E+01 -0.1259446697872E+01  0.1362337290312E+01
-0.4389341382669E+00 -0.5738520862650E+01 -0.1235491018594E+01  0.1365102053957E+01
-0.3692108482248E+00 -0.5692419728297E+01 -0.1212326133369E+01  0.1359145491270E+01
-0.3176331225698E+00 -0.5632832108475E+01 -0.1190093063943E+01  0.1347687052031E+01
-0.2822572271219E+00 -0.5561803971844E+01 -0.1168812257210E+01  0.1333055122351E+01
-0.2609509442020E+00 -0.5481115083613E+01 -0.1148413222676E+01  0.1316861222763E+01
-0.2516069900424E+00 -0.5392184665033E+01 -0.1128758347835E+01  0.1300196753633E+01
-0.2522345951832E+00 -0.5296067761629E+01 -0.1109660487898E+01  0.1283801610614E+01
-0.2609782284402E+00 -0.5193496872888E+01 -0.1090895036521E+01  0.1268185632875E+01
-0.2761053609650E+00 -0.5084941839235E+01 -0.1072209456017E+01  0.1253704601647E+01
-0.2959887364322E+00 -0.4970860743297E+01 -0.1053369911642E+01  0.1240568807189E+01
-0.3190992588857E+00 -0.4851910382077E+01 -0.1034201943603E+01  0.1228819357437E+01
-0.3440168956923E+00 -0.4728547258871E+01 -0.1014512846030E+01  0.1218430735294E+01
-0.3694345051585E+00 -0.4600672635208E+01 -0.9940214428854E+00  0.1209468808108E+01
-0.3941234897153E+00 -0.4467788655941E+01 -0.9723824436209E+00  0.1202154614578E+01
-0.4168633677113E+00 -0.4329194077824E+01 -0.9492115032514E+00  0.1196913113964E+01
-0.4363345482385E+00 -0.4184125019572E+01 -0.9240919273321E+00  0.1194422085197E+01
-0.4509793209339E+00 -0.4031864269257E+01 -0.8965687313980E+00  0.1195647791449E+01
-0.4588390816646E+00 -0.3871841799438E+01 -0.8661361891270E+00  0.1201855051348E+01
-0.4573737720720E+00 -0.3703747955978E+01 -0.8322243580112E+00  0.1214583953638E+01
-0.4432690477634E+00 -0.3527663691061E+01 -0.7941865595992E+00  0.1235586142242E+01
-0.4122284669467E+00 -0.3344149041128E+01 -0.7512755128098E+00  0.1266737287399E+01
-0.3587514165657E+00 -0.3154354093263E+01 -0.7026211124355E+00  0.1309901293231E+01
-0.2759258990270E+00 -0.2960274195515E+01 -0.6472400285531E+00  0.1366655618911E+01
-0.1552785284400E+00 -0.2765009673621E+01 -0.5840576491154E+00  0.1437879637796E+01
 0.1325850325895E-01 -0.2572925396530E+01 -0.5119333862826E+00  0.1523221746639E+01
 0.2411692137939E+00 -0.2389699035246E+01 -0.4297059706935E+00  0.1620415504130E+01
 0.5408435954063E+00 -0.2222157664773E+01 -0.3362628188840E+00  0.1724481502785E+01
 0.9246255644349E+00 -0.2077774130431E+01 -0.2306297166359E+00  0.1826928713798E+01
 0.1403441236214E+01 -0.1963691428731E+01 -0.1120500401731E+00  0.1915170116005E+01
 0.1985240188037E+01 -0.1885295236745E+01  0.1998899055624E-01  0.1972323953021E+01
 0.2672441318149E+01 -0.1844916226756E+01  0.1655050207449E+00  0.1977250932131E+01
 0.3458233446540E+01 -0.1840362054102E+01  0.3235742833094E+00  0.1905747726617E+01
 0.4324446420251E+01 -0.1863302566306E+01  0.4922287781238E+00  0.1733988547930E+01
 0.5242485404820E+01 -0.1899439504802E+01  0.6686091899668E+00  0.1443001343023E+01
-0.1394080306830E+01 -0.5875531225477E+01 -0.1453922328127E+01  0.9373331565269E+00
-0.1248865012457E+01 -0.5930658321050E+01 -0.1435904688098E+01  0.1079201975025E+01
-0.1090482822655E+01 -0.5980782285655E+01 -0.1414253042736E+01  0.1189665903622E+01
-0.9306713384262E+00 -0.6019446456378E+01 -0.1390023579674E+01  0.1268340886910E+01
-0.7796603363697E+00 -0.6041705616366E+01 -0.1364273210876E+01  0.1318285197945E+01
-0.6447788838545E+00 -0.6044871878949E+01 -0.1337930172497E+01  0.1344682248410E+01
-0.5301227247199E+00 -0.6028482142196E+01 -0.1311720992929E+01  0.1353377852314E+01
-0.4370188773298E+00 -0.5993737427156E+01 -0.1286151280062E+01  0.1349779232693E+01
-0.3648439211448E+00 -0.5942772572681E+01 -0.1261523317563E+01  0.1338281448669E+01
-0.3118394084920E+00 -0.5878018796008E+01 -0.1237971659347E+01  0.1322135628835E+01
-0.2757412513513E+00 -0.5801771262164E+01 -0.1215502520815E+01  0.1303582289474E+01
-0.2541803908417E+00 -0.5715961335412E+01 -0.1194028363043E+01  0.1284090190997E+01
-0.2448893014777E+00 -0.5622082901067E+01 -0.1173394457994E+01  0.1264597723959E+01
-0.2457747587642E+00 -0.5521213280205E+01 -0.1153397624981E+01  0.1245706422683E+01
-0.2549160204314E+00 -0.5414076501018E+01 -0.1133798521185E+01  0.1227811642333E+01
-0.2705364893163E+00 -0.5301119227182E+01 -0.1114331159904E+01  0.1211176928964E+01
-0.2909767057973E+00 -0.5182785505881E+01 -0.1094752458649E+01  0.1195930589967E+01
-0.3146864596108E+00 -0.5059743590560E+01 -0.1074886026051E+01  0.1182028886279E+01
-0.3402438793360E+00 -0.4932453777824E+01 -0.1054539547146E+01  0.1169362104671E+01
-0.3663686855494E+00 -0.4800779857330E+01 -0.1033429723975E+01  0.1157922106244E+01
-0.3918918084952E+00 -0.4664149038998E+01 -0.1011208184567E+01  0.1147870024802E+01
-0.4156835083643E+00 -0.4521756315764E+01 -0.9874879795404E+00  0.1139590219410E+01
-0.4365397673200E+00 -0.4372710739257E+01 -0.9618501156481E+00  0.1133745696637E+01
-0.4530335270536E+00 -0.4216147475896E+01 -0.9338362145052E+00  0.1131320126351E+01
-0.4633403725465E+00 -0.4051329187762E+01 -0.9029339255165E+00  0.1133634006821E+01
-0.4650448597671E+00 -0.3877759620096E+01 -0.8685609089152E+00  0.1142328628012E+01
-0.4549315347099E+00 -0.3695315633535E+01 -0.8300494460178E+00  0.1159312064867E+01
-0.4287550257971E+00 -0.3504335500513E+01 -0.7866181169836E+00  0.1186687204861E+01
-0.3809850813582E+00 -0.3305736343125E+01 -0.7373442958839E+00  0.1226635163187E+01
-0.3045511478279E+00 -0.3101299563979E+01 -0.6811701525116E+00  0.1281152619174E+01
-0.1906278113479E+00 -0.2893978195137E+01 -0.6169212104897E+00  0.1351640463444E+01
-0.2852320389689E-01 -0.2688116662375E+01 -0.5433279813506E+00  0.1438352159310E+01
 0.1942264934484E+00 -0.2489574149270E+01 -0.4590695380049E+00  0.1539654629003E+01
 0.4914147776695E+00 -0.2305638640288E+01 -0.3628447779306E+00  0.1651122132281E+01
 0.8772293540867E+00 -0.2144574423167E+01 -0.2534690175930E+00  0.1764567628115E+01
 0.1364801778344E+01 -0.2014623250552E+01 -0.1299642963784E+00  0.1867240201407E+01
 0.1964436774761E+01 -0.1922430042696E+01  0.8401346538247E-02  0.1941401907235E+01
 0.2680563386962E+01 -0.1871499910837E+01  0.1618126976361E+00  0.1964126855568E+01
 0.3507192722039E+01 -0.1860324112234E+01  0.3293737268690E+00  0.1908419849921E+01
 0.4424942182980E+01 -0.1880178924765E+01  0.5089526592269E+00  0.1747164612868E+01
 0.5401816609198E+01 -0.1915058833882E+01  0.6973515654545E+00  0.1458795343385E+01
-0.1452698372768E+01 -0.6133737275301E+01 -0.1517287152223E+01  0.9589768794378E+00
-0.1295840251491E+01 -0.6193015454400E+01 -0.1497771163497E+01  0.1100211127548E+01
-0.1124939267730E+01 -0.6246494755647E+01 -0.1474286826644E+01  0.1207306868689E+01
-0.9532830913555E+00 -0.6286947720491E+01 -0.1448046183947E+01  0.1280266345779E+01
-0.7922259124590E+00 -0.6309026924966E+01 -0.1420250588648E+01  0.1323001599198E+01
-0.6496033896701E+00 -0.6310083792731E+01 -0.1391937457222E+01  0.1341668135490E+01
-0.5294797854057E+00 -0.6290021086602E+01 -0.1363900194725E+01  0.1342912183665E+01
-0.4328257277329E+00 -0.6250544964214E+01 -0.1336674158307E+01  0.1332638650926E+01
-0.3585470170921E+00 -0.6194277306105E+01 -0.1310564884168E+01  0.1315446310929E+01
-0.3044411627198E+00 -0.6124031815576E+01 -0.1285694614817E+01  0.1294576336838E+01
-0.2678926580381E+00 -0.6042358480216E+01 -0.1262050246457E+01  0.1272138190129E+01
-0.2462862935915E+00 -0.5951330342291E+01 -0.1239523345647E+01  0.1249422411133E+01
-0.2371980184296E+00 -0.5852499040160E+01 -0.1217939429867E+01  0.1227189442527E+01
-0.2384417210392E+00 -0.5746945985397E+01 -0.1197077559125E+01  0.1205887365538E+01
-0.2480417159791E+00 -0.5635370670366E+01 -0.1176682494803E+01  0.1185789606232E+01
-0.2641851081364E+00 -0.5518184432748E+01 -0.1156473925410E+01  0.1167064809406E+01
-0.2851842266166E+00 -0.5395809715566E+01 -0.1136198805367E+01  0.1149758226684E+01
-0.3094686078747E+00 -0.5268923015018E+01 -0.1115678341204E+01  0.1133739127066E+01
-0.3356145154649E+00 -0.5137988253632E+01 -0.1094720570132E+01  0.1118809150982E+01
-0.3623701416814E+00 -0.5002832815003E+01 -0.1073040607327E+01  0.1104879384625E+01
-0.3886307529312E+00 -0.4862810091437E+01 -0.1050288184524E+01  0.1092042693176E+01
-0.4133657184803E+00 -0.4717012118738E+01 -0.1026075582733E+01  0.1080633821911E+01
-0.4354981069420E+00 -0.4564421351497E+01 -0.9999839065886E+00  0.1071291842136E+01
-0.4537457506151E+00 -0.4404025154131E+01 -0.9715541954265E+00  0.1065008391906E+01
-0.4664355880288E+00 -0.4234917008183E+01 -0.9402705332535E+00  0.1063149521965E+01
-0.4712979152540E+00 -0.4056408585185E+01 -0.9055413135814E+00  0.1067446832723E+01
-0.4652428664085E+00 -0.3868160965837E+01 -0.8666807793637E+00  0.1079954075856E+01
-0.4441101009198E+00 -0.3670269430648E+01 -0.8228759185754E+00  0.1102993211159E+01
-0.4023816722718E+00 -0.3463383926737E+01 -0.7731531313227E+00  0.1139061520966E+01
-0.3328765113322E+00 -0.3249022817749E+01 -0.7163798764912E+00  0.1190587512133E+01
-0.2264653149471E+00 -0.3029928564596E+01 -0.6512787856134E+00  0.1259528220526E+01
-0.7186836675815E-01 -0.2810352548107E+01 -0.5764441915627E+00  0.1346808124107E+01
 0.1443539227296E+00 -0.2596265399349E+01 -0.4903823026312E+00  0.1451532293746E+01
 0.4374560957523E+00 -0.2395369490544E+01 -0.3915826847933E+00  0.1569972671229E+01
 0.8236238582904E+00 -0.2216726933449E+01 -0.2786206191836E+00  0.1694414250188E+01
 0.1318476182652E+01 -0.2069766662371E+01 -0.1502580981828E+00  0.1812095366736E+01
 0.1935090361002E+01 -0.1962577078610E+01 -0.5497343603484E-02  0.1904492826680E+01
 0.2680400583217E+01 -0.1900097232649E+01  0.1560606724390E+00  0.1946786598301E+01
 0.3549645561286E+01 -0.1881766572132E+01  0.3335758028015E+00  0.1908808723086E+01
 0.4522221651938E+01 -0.1898574972073E+01  0.5247293437922E+00  0.1759478870457E+01
 0.5561978199671E+01 -0.1932480561261E+01  0.7258995384988E+00  0.1474025128508E+01
-0.1511580204008E+01 -0.6395222181592E+01 -0.1581360500684E+01  0.9823009590301E+00
-0.1342005457023E+01 -0.6458996426951E+01 -0.1560200400044E+01  0.1122757569558E+01
-0.1157541971885E+01 -0.6516008698753E+01 -0.1534710156997E+01  0.1225980142025E+01
-0.9732761225460E+00 -0.6558154872049E+01 -0.1506286221364E+01  0.1292471568758E+01
-0.8018031700658E+00 -0.6579680666067E+01 -0.1476296789225E+01  0.1327188237468E+01
-0.6514381160189E+00 -0.6578063370799E+01 -0.1445900318909E+01  0.1337425525312E+01
-0.5261008800864E+00 -0.6553695101079E+01 -0.1415959217332E+01  0.1330719937155E+01
-0.4262761011714E+00 -0.6508895601026E+01 -0.1387034361108E+01  0.1313486006830E+01
-0.3502955985022E+00 -0.6446842057312E+01 -0.1359427551420E+01  0.1290489497835E+01
-0.2954493695333E+00 -0.6370758487951E+01 -0.1333241591364E+01  0.1264907501541E+01
-0.2587418387681E+00 -0.6283448959125E+01 -0.1308438179076E+01  0.1238667294541E+01
-0.2373066604359E+00 -0.6187112086582E+01 -0.1284883768550E+01  0.1212841892786E+01
-0.2285713185771E+00 -0.6083335532554E+01 -0.1262381389037E+01  0.1187987783699E+01
-0.2302699425821E+00 -0.5973183262717E+01 -0.1240690659548E+01  0.1164385056174E+01
-0.2403846431304E+00 -0.5857312032086E+01 -0.1219539353216E+01  0.1142179202737E+01
-0.2570752437421E+00 -0.5736084558387E+01 -0.1198631978287E+01  0.1121443139913E+01
-0.2786299115569E+00 -0.5609893796189E+01 -0.1177704759098E+01  0.1102139799470E+01
-0.3034579795093E+00 -0.5479421590901E+01 -0.1156575931316E+01  0.1084050713010E+01
-0.3301326889629E+00 -0.5345136036093E+01 -0.1135053761925E+01  0.1066885183467E+01
-0.3574313979126E+00 -0.5206830049285E+01 -0.1112852306022E+01  0.1050466942547E+01
-0.3843180652243E+00 -0.5063785289324E+01 -0.1089620687146E+01  0.1034812148883E+01
-0.4098694315194E+00 -0.4914992844455E+01 -0.1064972471064E+01  0.1020196827534E+01
-0.4331471076069E+00 -0.4759310697297E+01 -0.1038491576456E+01  0.1007226834061E+01
-0.4530278129708E+00 -0.4595580461374E+01 -0.1009721669915E+01  0.9968919377437E+00
-0.4680065821634E+00 -0.4422727319338E+01 -0.9781467948758E+00  0.9905925477455E+00
-0.4759802663138E+00 -0.4239868416356E+01 -0.9431697505883E+00  0.9901375635422E+00
-0.4740116358181E+00 -0.4046440219734E+01 -0.9040903845825E+00  0.9977122049619E+00
-0.4580611246842E+00 -0.3842275840246E+01 -0.8600674058020E+00  0.1015844446590E+01
-0.4226691909101E+00 -0.3627724175706E+01 -0.8100786853944E+00  0.1047340449086E+01
-0.3605998134670E+00 -0.3403988867877E+01 -0.7529177474882E+00  0.1095066180365E+01
-0.2624796839953E+00 -0.3173531526070E+01 -0.6872022522531E+00  0.1161563091309E+01
-0.1164936780282E+00 -0.2940424953322E+01 -0.6113837353805E+00  0.1248489331526E+01
 0.9175027554103E-01 -0.2710661543442E+01 -0.5237822613852E+00  0.1355796622577E+01
 0.3790076356697E+00 -0.2492286858480E+01 -0.4226558508602E+00  0.1480614309366E+01
 0.7636105908291E+00 -0.2295143106864E+01 -0.3063065077713E+00  0.1615899644391E+01
 0.1263967393957E+01 -0.2129923000721E+01 -0.1731911239336E+00  0.1749080270691E+01
 0.1896411596050E+01 -0.2006353327841E+01 -0.2198834668580E-01  0.1860971772406E+01
 0.2670985006214E+01 -0.1931118087537E+01  0.1479733859405E+00  0.1924775191554E+01
 0.3584701587860E+01 -0.1904918615390E+01  0.3359565995003E+00  0.1906749447350E+01
 0.4615862564733E+01 -0.1918679455107E+01  0.5394366299634E+00  0.1771054394425E+01
 0.5723099619240E+01 -0.1951997149746E+01  0.7542205051376E+00  0.1488781912984E+01
-0.1570738803376E+01 -0.6660345282096E+01 -0.1646216841625E+01  0.1007459290106E+01
-0.1387224436027E+01 -0.6728997621828E+01 -0.1623244435759E+01  0.1146956793971E+01
-0.1188025223464E+01 -0.6789716048424E+01 -0.1595548278153E+01  0.1245701883387E+01
-0.9903261841389E+00 -0.6833396783186E+01 -0.1564744616781E+01  0.1304849818100E+01
-0.8080882581568E+00 -0.6853887354239E+01 -0.1532395145314E+01  0.1330638810545E+01
-0.6500518643338E+00 -0.6848909162979E+01 -0.1499792227811E+01  0.1331699005485E+01
-0.5198439459878E+00 -0.6819496583024E+01 -0.1467868127675E+01  0.1316547660776E+01
-0.4173072976658E+00 -0.6768706766845E+01 -0.1437202834318E+01  0.1292105326515E+01
-0.3400847411728E+00 -0.6700341921472E+01 -0.1408085353511E+01  0.1263249320955E+01
-0.2848943167376E+00 -0.6618057731319E+01 -0.1380590430184E+01  0.1233024248107E+01
-0.2483360764678E+00 -0.6524903045665E+01 -0.1354647844612E+01  0.1203115964580E+01
-0.2272932497200E+00 -0.6423178584581E+01 -0.1330094386680E+01  0.1174337385528E+01
-0.2190580571769E+00 -0.6314481050616E+01 -0.1306707841030E+01  0.1147014649912E+01
-0.2213019817005E+00 -0.6199832012221E+01 -0.1284226817921E+01  0.1121246417417E+01
-0.2319803574384E+00 -0.6079825196163E+01 -0.1262361129531E+01  0.1097046098017E+01
-0.2492360440304E+00 -0.5954760317949E+01 -0.1240799290885E+01  0.1074392238365E+01
-0.2713370361357E+00 -0.5824992706998E+01 -0.1219265966795E+01  0.1053168290679E+01
-0.2966714531446E+00 -0.5691207063169E+01 -0.1197575721108E+01  0.1033068904760E+01
-0.3238069652319E+00 -0.5553876979240E+01 -0.1175536806411E+01  0.1013708194432E+01
-0.3515497193950E+00 -0.5412763756450E+01 -0.1152862712348E+01  0.9948161613333E+00
-0.3789362446479E+00 -0.5267080392816E+01 -0.1129203344319E+01  0.9763237959554E+00
-0.4051588312909E+00 -0.5115720317403E+01 -0.1104175846192E+01  0.9584393520709E+00
-0.4294289830390E+00 -0.4957421020969E+01 -0.1077370016856E+01  0.9417263021136E+00
-0.4507958639506E+00 -0.4790883010172E+01 -0.1048335790446E+01  0.9271625548572E+00
-0.4679385548832E+00 -0.4614867332609E+01 -0.1016561192646E+01  0.9161707899723E+00
-0.4789404475353E+00 -0.4428297872850E+01 -0.9814476787017E+00  0.9106220980198E+00
-0.4810437380557E+00 -0.4230381373455E+01 -0.9422850363433E+00  0.9128153019445E+00
-0.4703665490751E+00 -0.4020672685604E+01 -0.8982078603201E+00  0.9254658986387E+00
-0.4415575196158E+00 -0.3799187296019E+01 -0.8481489757654E+00  0.9516744193458E+00
-0.3873886530648E+00 -0.3566761030237E+01 -0.7908299484447E+00  0.9947413649712E+00
-0.2983149417298E+00 -0.3325498201117E+01 -0.7247626393692E+00  0.1057812167197E+01
-0.1620565940763E+00 -0.3079194395600E+01 -0.6482502075949E+00  0.1143334961640E+01
 0.3668404148746E-01 -0.2833752298446E+01 -0.5594136597276E+00  0.1252217103500E+01
 0.3161789649065E+00 -0.2597459428494E+01 -0.4562560995163E+00  0.1382619052498E+01
 0.6970403246095E+00 -0.2380888049162E+01 -0.3367695499288E+00  0.1528404479638E+01
 0.1200784862154E+01 -0.2196048264073E+01 -0.1990526833499E+00  0.1677448023805E+01
 0.1847546143535E+01 -0.2054510074477E+01 -0.4139278680522E-01  0.1810091540984E+01
 0.2651236014752E+01 -0.1965050351678E+01  0.1372371346598E+00  0.1897532032725E+01
 0.3611286570425E+01 -0.1930074945988E+01  0.3362423298977E+00  0.1901973018478E+01
 0.4705363872181E+01 -0.1940537711390E+01  0.5529652403981E+00  0.1782053545947E+01
 0.5885403700419E+01 -0.1973871382617E+01  0.7823064752176E+00  0.1503242648677E+01
-0.1630184795608E+01 -0.6929515233322E+01 -0.1711940031296E+01  0.1034625521966E+01
-0.1431330891955E+01 -0.7003469261956E+01 -0.1686960055920E+01  0.1172933456722E+01
-0.1216074411899E+01 -0.7068055011177E+01 -0.1656825909304E+01  0.1266473483069E+01
-0.1004061639998E+01 -0.7113027109358E+01 -0.1623417774062E+01  0.1317255571506E+01
-0.8107478193373E+00 -0.7131864845749E+01 -0.1588522556688E+01  0.1333096326550E+01
-0.6452064948688E+00 -0.7122694139367E+01 -0.1553580149997E+01  0.1324185168973E+01
-0.5105778026804E+00 -0.7087379695534E+01 -0.1519591522287E+01  0.1300105922446E+01
-0.4058772122404E+00 -0.7029854986974E+01 -0.1487146462003E+01  0.1268259062337E+01
-0.3279328399994E+00 -0.6954614868400E+01 -0.1456509563384E+01  0.1233554737377E+01
-0.2728280497746E+00 -0.6865757807353E+01 -0.1427717192700E+01  0.1198820794825E+01
-0.2367409510484E+00 -0.6766557093932E+01 -0.1400659629868E+01  0.1165434642961E+01
-0.2163122418791E+00 -0.6659383591528E+01 -0.1375139187173E+01  0.1133904215058E+01
-0.2087179664281E+00 -0.6545810556058E+01 -0.1350905724627E+01  0.1104299421388E+01
-0.2115884043562E+00 -0.6426788902992E+01 -0.1327675481254E+01  0.1076525776501E+01
-0.2228704009795E+00 -0.6302827101323E+01 -0.1305139519909E+01  0.1050462726647E+01
-0.2407015078508E+00 -0.6174146484675E+01 -0.1282969617623E+01  0.1025998328631E+01
-0.2633333347212E+00 -0.6041056428047E+01 -0.1260877971342E+01  0.1002941799661E+01
-0.2891304233388E+00 -0.5904242452976E+01 -0.1238674593721E+01  0.9809035696418E+00
-0.3166506304299E+00 -0.5764185809944E+01 -0.1216167306197E+01  0.9594006196605E+00
-0.3447272860965E+00 -0.5620619945266E+01 -0.1193069464051E+01  0.9380630496839E+00
-0.3724728959539E+00 -0.5472693244382E+01 -0.1169033245487E+01  0.9167282560290E+00
-0.3992034568772E+00 -0.5319206103505E+01 -0.1143681929119E+01  0.8955279158507E+00
-0.4242915827550E+00 -0.5158781566484E+01 -0.1116614646487E+01  0.8749743585406E+00
-0.4469717875472E+00 -0.4989986662100E+01 -0.1087391706133E+01  0.8560237978033E+00
-0.4661219375265E+00 -0.4811426321858E+01 -0.1055509667605E+01  0.8401084408787E+00
-0.4800305232305E+00 -0.4621836907695E+01 -0.1020373501390E+01  0.8291444544007E+00
-0.4861449752202E+00 -0.4420195000743E+01 -0.9812680098147E+00  0.8255226089795E+00
-0.4807784188261E+00 -0.4205765375027E+01 -0.9373087727375E+00  0.8321215396048E+00
-0.4587404257828E+00 -0.3978200686278E+01 -0.8873882356352E+00  0.8523134862681E+00
-0.4128810046336E+00 -0.3737916025507E+01 -0.8301594183985E+00  0.8898203538173E+00
-0.3335684868668E+00 -0.3486577226854E+01 -0.7640291541292E+00  0.9483998122959E+00
-0.2081493183787E+00 -0.3227591465144E+01 -0.6871481669439E+00  0.1031336232190E+01
-0.2049511368577E-01 -0.2966636790539E+01 -0.5974263897473E+00  0.1140597675675E+01
 0.2491655219790E+00 -0.2712106060420E+01 -0.4925881150283E+00  0.1275559752471E+01
 0.6238340212542E+00 -0.2475208515580E+01 -0.3702749043827E+00  0.1431261996772E+01
 0.1128455462052E+01 -0.2269290876254E+01 -0.2281670862403E+00  0.1596348198665E+01
 0.1787594838680E+01 -0.2107963262679E+01 -0.6407368575446E-01  0.1750968477831E+01
 0.2619891057617E+01 -0.2002517762828E+01  0.1234746607976E+00  0.1864331016780E+01
 0.3628280212904E+01 -0.1957522287573E+01  0.3341515900455E+00  0.1894186398091E+01
 0.4789718539134E+01 -0.1964479133703E+01  0.5650478895059E+00  0.1792283878372E+01
 0.6049878409320E+01 -0.1996898717616E+01  0.8105959504196E+00  0.1518242702476E+01
-0.1689925392488E+01 -0.7203201332235E+01 -0.1778625371448E+01  0.1063996530476E+01
-0.1474120511426E+01 -0.7282927180113E+01 -0.1751409564406E+01  0.1200821369765E+01
-0.1241315079098E+01 -0.7351518149034E+01 -0.1718566671235E+01  0.1288274856382E+01
-0.1014055835712E+01 -0.7397425117837E+01 -0.1682296215778E+01  0.1329493069771E+01
-0.8094177804631E+00 -0.7413822190683E+01 -0.1644648018736E+01  0.1334241906758E+01
-0.6366608952839E+00 -0.7399456022013E+01 -0.1607223407409E+01  0.1314525434781E+01
-0.4981882035598E+00 -0.7357250960575E+01 -0.1571087856238E+01  0.1281066899324E+01
-0.3919699525347E+00 -0.7292168900565E+01 -0.1536827793520E+01  0.1241689113417E+01
-0.3138856741138E+00 -0.7209457567122E+01 -0.1504668670668E+01  0.1201227983512E+01
-0.2593268329342E+00 -0.7113654329436E+01 -0.1474596254447E+01  0.1162193368144E+01
-0.2240416013325E+00 -0.7008222803129E+01 -0.1446452902446E+01  0.1125580398435E+01
-0.2044447403168E+00 -0.6895562597045E+01 -0.1420001488632E+01  0.1091546291532E+01
-0.1976217040557E+00 -0.6777185567357E+01 -0.1394961475069E+01  0.1059880483452E+01
-0.2011875654858E+00 -0.6653940757388E+01 -0.1371025685005E+01  0.1030286006925E+01
-0.2131019447007E+00 -0.6526227484664E+01 -0.1347865905958E+01  0.1002509105829E+01
-0.2315101058360E+00 -0.6394172445193E+01 -0.1325136529952E+01  0.9763540508883E+00
-0.2546506981568E+00 -0.6258030578873E+01 -0.1302536274815E+01  0.9515637686855E+00
-0.2808606237838E+00 -0.6118486689715E+01 -0.1279869481771E+01  0.9276691444613E+00
-0.3086816436060E+00 -0.5976032683727E+01 -0.1256942884197E+01  0.9040890434014E+00
-0.3369712791396E+00 -0.5830378778847E+01 -0.1233470029978E+01  0.8803476785429E+00
-0.3649210028023E+00 -0.5680613715312E+01 -0.1209106961640E+01  0.8561805347760E+00
-0.3919787691059E+00 -0.5525450863607E+01 -0.1183485944178E+01  0.8316343978003E+00
-0.4176893799313E+00 -0.5363407157588E+01 -0.1156219324733E+01  0.8071624706173E+00
-0.4414847219911E+00 -0.5192927190717E+01 -0.1126882399333E+01  0.7836899799801E+00
-0.4624545055685E+00 -0.5012472265125E+01 -0.1094985370455E+01  0.7626455698097E+00
-0.4791087747995E+00 -0.4820602227347E+01 -0.1059942216224E+01  0.7459715225447E+00
-0.4891241884400E+00 -0.4616068755708E+01 -0.1021038604044E+01  0.7361250620488E+00
-0.4890456553505E+00 -0.4397840318386E+01 -0.9773772093114E+00  0.7361173277741E+00
-0.4738984625174E+00 -0.4165181946642E+01 -0.9278160956575E+00  0.7495606106244E+00
-0.4366868354460E+00 -0.3918037293099E+01 -0.8709448386870E+00  0.7805732764704E+00
-0.3677900630787E+00 -0.3657549941444E+01 -0.8050680129010E+00  0.8335193925325E+00
-0.2542932000842E+00 -0.3386616403982E+01 -0.7281819316640E+00  0.9125514009736E+00
-0.7934445059265E-01 -0.3110531077271E+01 -0.6379751150794E+00  0.1020793387720E+01
 0.1782686512919E+00 -0.2837614810069E+01 -0.5318692396809E+00  0.1159024841963E+01
 0.5440050139205E+00 -0.2579566343240E+01 -0.4071122719303E+00  0.1323763649705E+01
 0.1046555019009E+01 -0.2351034017881E+01 -0.2608958036620E+00  0.1504821049678E+01
 0.1715585697857E+01 -0.2167850179826E+01 -0.9045289774162E-01  0.1682543944835E+01
 0.2575621255034E+01 -0.2044281558671E+01  0.1062679408561E+00  0.1824301120461E+01
 0.3634035037554E+01 -0.1987747664492E+01  0.3292574795188E+00  0.1882813912238E+01
 0.4868841447063E+01 -0.1990458087167E+01  0.5756766805573E+00  0.1802135500073E+01
 0.6215205352691E+01 -0.2022264167615E+01  0.8385882495111E+00  0.1530982413793E+01
-0.1749962909917E+01 -0.7481948038247E+01 -0.1846382217146E+01  0.1095796706697E+01
-0.1515340579629E+01 -0.7567967636549E+01 -0.1816661670306E+01  0.1230762952899E+01
-0.1263299245623E+01 -0.7640661738359E+01 -0.1780792223332E+01  0.1311055038438E+01
-0.1019818609518E+01 -0.7686995162792E+01 -0.1741362780410E+01  0.1341301404151E+01
-0.8037033788068E+00 -0.7699950437307E+01 -0.1700730788566E+01  0.1333681301926E+01
-0.6241770523657E+00 -0.7679184582521E+01 -0.1660672351723E+01  0.1302298449262E+01
-0.4825856512043E+00 -0.7628957930412E+01 -0.1622308740498E+01  0.1259062853578E+01
-0.3756024095475E+00 -0.7555421592450E+01 -0.1586204824036E+01  0.1212119131608E+01
-0.2980207321288E+00 -0.7464621335027E+01 -0.1552528436566E+01  0.1166088289753E+01
-0.2444934914575E+00 -0.7361508725342E+01 -0.1521200466028E+01  0.1123043800880E+01
-0.2103437474071E+00 -0.7249687027050E+01 -0.1492006177124E+01  0.1083519810610E+01
-0.1917870481941E+00 -0.7131533173698E+01 -0.1464664066204E+01  0.1047278246614E+01
-0.1858507309352E+00 -0.7008454642234E+01 -0.1438861096075E+01  0.1013806791609E+01
-0.1901652585189E+00 -0.6881165053417E+01 -0.1414266083461E+01  0.9825996913090E+00
-0.2027273142987E+00 -0.6749929433335E+01 -0.1390531370247E+01  0.9532736800721E+00
-0.2217042897147E+00 -0.6614762851284E+01 -0.1367293448574E+01  0.9255590067447E+00
-0.2453247655629E+00 -0.6475857180019E+01 -0.1344236409147E+01  0.8991432328280E+00
-0.2718918478424E+00 -0.6333895437018E+01 -0.1321157476659E+01  0.8734845951004E+00
-0.2999224812021E+00 -0.6189383970433E+01 -0.1297861309667E+01  0.8479038529558E+00
-0.3282938540936E+00 -0.6042015148125E+01 -0.1274061819429E+01  0.8218134966635E+00
-0.3562790997743E+00 -0.5890823841500E+01 -0.1249420606873E+01  0.7948389880186E+00
-0.3834666566690E+00 -0.5734443814723E+01 -0.1223582112511E+01  0.7669347130294E+00
-0.4095844702358E+00 -0.5571296779306E+01 -0.1196176267733E+01  0.7384879977214E+00
-0.4342726878564E+00 -0.5399719824648E+01 -0.1166798519888E+01  0.7103847938238E+00
-0.4568437208432E+00 -0.5218048225935E+01 -0.1134978406268E+01  0.6840371159114E+00
-0.4760427676399E+00 -0.5024682412385E+01 -0.1100145052398E+01  0.6613927938699E+00
-0.4897969546748E+00 -0.4818161175288E+01 -0.1061591641812E+01  0.6449462252663E+00
-0.4949181300497E+00 -0.4597157459986E+01 -0.1018415133183E+01  0.6378039493516E+00
-0.4867029089762E+00 -0.4360530432889E+01 -0.9694466828189E+00  0.6437769712464E+00
-0.4583909962575E+00 -0.4107706336733E+01 -0.9132194802061E+00  0.6673418740713E+00
-0.4004820410986E+00 -0.3839223121399E+01 -0.8479410451348E+00  0.7134463370906E+00
-0.2999341776464E+00 -0.3557336112197E+01 -0.7714540694642E+00  0.7871233952799E+00
-0.1393156551126E+00 -0.3266773738613E+01 -0.6812178888960E+00  0.8927314084157E+00
 0.1039169053241E+00 -0.2975562638999E+01 -0.5743291552931E+00  0.1032638514873E+01
 0.4576927439653E+00 -0.2695675507190E+01 -0.4475965593146E+00  0.1205171529826E+01
 0.9547254143602E+00 -0.2442952323654E+01 -0.2976453862941E+00  0.1401788924113E+01
 0.1630543198276E+01 -0.2235581721496E+01 -0.1210077064472E+00  0.1603567566339E+01
 0.2516791296590E+01 -0.2091332878929E+01  0.8509168480026E-01  0.1776321244158E+01
 0.3627219256360E+01 -0.2021300006666E+01  0.3211838547246E+00  0.1867287930591E+01
 0.4940241027005E+01 -0.2018953867790E+01  0.5842574405492E+00  0.1811017595707E+01
 0.6389992139995E+01 -0.2050934698599E+01  0.8678115012106E+00  0.1543482376796E+01
-0.1810292626457E+01 -0.7766393837205E+01 -0.1915337321273E+01  0.1130283286387E+01
-0.1554676214553E+01 -0.7859286133813E+01 -0.1882792497729E+01  0.1262907748197E+01
-0.1281488291873E+01 -0.7936116453349E+01 -0.1843520976515E+01  0.1334718916753E+01
-0.1020787132948E+01 -0.7982163851098E+01 -0.1800590223640E+01  0.1352335064352E+01
-0.7931812196839E+00 -0.7990409151330E+01 -0.1756718100380E+01  0.1330928827966E+01
-0.6075289528264E+00 -0.7961805114953E+01 -0.1713866839094E+01  0.1287012466813E+01
-0.4637152957342E+00 -0.7902275765463E+01 -0.1673198237172E+01  0.1233686096022E+01
-0.3568317565255E+00 -0.7819322446348E+01 -0.1635230864941E+01  0.1179258558600E+01
-0.2804516273483E+00 -0.7719808511284E+01 -0.1600052051569E+01  0.1127956881530E+01
-0.2284594644369E+00 -0.7609047392404E+01 -0.1567501394726E+01  0.1081283847838E+01
-0.1957743595843E+00 -0.7490712195933E+01 -0.1537297334011E+01  0.1039232147668E+01
-0.1784506662048E+00 -0.7367095736821E+01 -0.1509109303093E+01  0.1001127632431E+01
-0.1734970041616E+00 -0.7239454076287E+01 -0.1482590238182E+01  0.9661394200750E+00
-0.1785942389972E+00 -0.7108330515465E+01 -0.1457384972609E+01  0.9335502775617E+00
-0.1918034073556E+00 -0.6973829982802E+01 -0.1433126699387E+01  0.9028541955332E+00
-0.2113298912578E+00 -0.6835838348376E+01 -0.1409433668929E+01  0.8737203564978E+00
-0.2353944037408E+00 -0.6694475561667E+01 -0.1385974013734E+01  0.8457951183799E+00
-0.2622575515680E+00 -0.6550422143392E+01 -0.1362535959295E+01  0.8184733949495E+00
-0.2903998494709E+00 -0.6404203318928E+01 -0.1338920653631E+01  0.7909788530262E+00
-0.3187119695335E+00 -0.6255499530102E+01 -0.1314842319520E+01  0.7626065182099E+00
-0.3465513112751E+00 -0.6103298191110E+01 -0.1289969919699E+01  0.7328640598351E+00
-0.3736558572761E+00 -0.5946162324223E+01 -0.1263963655134E+01  0.7016071739755E+00
-0.3999475663445E+00 -0.5782432171903E+01 -0.1236475966074E+01  0.6691523483867E+00
-0.4252843163972E+00 -0.5610356676642E+01 -0.1207128216596E+01  0.6363395086870E+00
-0.4492093015659E+00 -0.5428168481457E+01 -0.1175475574120E+01  0.6045514274341E+00
-0.4707128053200E+00 -0.5234132605985E+01 -0.1140969099263E+01  0.5757196163182E+00
-0.4879898762514E+00 -0.5026594792130E+01 -0.1102916950111E+01  0.5523427539797E+00
-0.4981515945993E+00 -0.4803941745913E+01 -0.1060418683904E+01  0.5375791582262E+00
-0.4968208957469E+00 -0.4564617220058E+01 -0.1012287638245E+01  0.5353870838628E+00
-0.4775576406249E+00 -0.4307491805818E+01 -0.9570099035492E+00  0.5505485509043E+00
-0.4311015003054E+00 -0.4032418732426E+01 -0.8927040598485E+00  0.5885523992221E+00
-0.3444397140131E+00 -0.3740877658361E+01 -0.8170634866499E+00  0.6553002011074E+00
-0.1997431485665E+00 -0.3436828469247E+01 -0.7273143344006E+00  0.7564369637962E+00
 0.2669139755460E-01 -0.3127734124930E+01 -0.6202085547170E+00  0.8960882677987E+00
 0.3651964014993E+00 -0.2825544749861E+01 -0.4920696770048E+00  0.1074738086538E+01
 0.8527313034952E+00 -0.2547076094842E+01 -0.3388689633189E+00  0.1286055950263E+01
 0.1531446802626E+01 -0.2312930093756E+01 -0.1562966605550E+00  0.1512559302412E+01
 0.2441725565566E+01 -0.2144930758356E+01  0.5935896232659E-01  0.1718999993615E+01
 0.3605505340134E+01 -0.2058943259296E+01  0.3093124207767E+00  0.1846809638829E+01
 0.5004593838118E+01 -0.2050622293721E+01  0.5907943176830E+00  0.1818606740821E+01
 0.6566059269286E+01 -0.2084732463280E+01  0.8962653745566E+00  0.1557799112418E+01
-0.1870899660400E+01 -0.8057296084877E+01 -0.1985639178644E+01  0.1167753015004E+01
-0.1591731925252E+01 -0.8157701515296E+01 -0.1949886717165E+01  0.1297409343446E+01
-0.1295231504601E+01 -0.8238599261543E+01 -0.1906766181642E+01  0.1359108398916E+01
-0.1016316531711E+01 -0.8283373396733E+01 -0.1859938013404E+01  0.1362138551548E+01
-0.7774045378945E+00 -0.8285306951989E+01 -0.1812542324986E+01  0.1325388537711E+01
-0.5865152229404E+00 -0.8247157177271E+01 -0.1766734506369E+01  0.1268098414228E+01
-0.4415692070017E+00 -0.8176891677712E+01 -0.1723692202628E+01  0.1204491269011E+01
-0.3357637403464E+00 -0.8083508902995E+01 -0.1683854553760E+01  0.1142808916971E+01
-0.2613323402062E+00 -0.7974669669035E+01 -0.1647200426393E+01  0.1086663453359E+01
-0.2113863503079E+00 -0.7855961832101E+01 -0.1613469660524E+01  0.1036840207274E+01
-0.1804818446542E+00 -0.7731037503427E+01 -0.1582303893194E+01  0.9927127499233E+00
-0.1645619582060E+00 -0.7602034769673E+01 -0.1553319368722E+01  0.9531370867551E+00
-0.1606624820211E+00 -0.7470008806329E+01 -0.1526134280411E+01  0.9169530213120E+00
-0.1665536406654E+00 -0.7335297746339E+01 -0.1500370299758E+01  0.8832331932076E+00
-0.1803910195647E+00 -0.7197820709610E+01 -0.1475642367824E+01  0.8513586056862E+00
-0.2004354174249E+00 -0.7057316349889E+01 -0.1451550375093E+01  0.8209534950297E+00
-0.2249010683727E+00 -0.6913823424638E+01 -0.1427744919877E+01  0.7916406258774E+00
-0.2519943208266E+00 -0.6768019359823E+01 -0.1404002757051E+01  0.7627635539298E+00
-0.2801442330320E+00 -0.6620453067868E+01 -0.1380119480745E+01  0.7334508540578E+00
-0.3082470304573E+00 -0.6470799201003E+01 -0.1355809266495E+01  0.7028743702449E+00
-0.3357472191926E+00 -0.6318004516875E+01 -0.1330750367043E+01  0.6704167562156E+00
-0.3625422669208E+00 -0.6160571664604E+01 -0.1304622805745E+01  0.6358304862004E+00
-0.3887589730963E+00 -0.5996776447397E+01 -0.1277107103129E+01  0.5993587077240E+00
-0.4144806695534E+00 -0.5824804066081E+01 -0.1247856965721E+01  0.5617906985640E+00
-0.4394860138229E+00 -0.5642814413455E+01 -0.1216460103582E+01  0.5244682930665E+00
-0.4630157693352E+00 -0.5448968794366E+01 -0.1182396930359E+01  0.4892838978972E+00
-0.4835454770748E+00 -0.5241448575945E+01 -0.1144998827666E+01  0.4587042716864E+00
-0.4985135217203E+00 -0.5018373507741E+01 -0.1103377422334E+01  0.4358895453726E+00
-0.5039218439048E+00 -0.4777773369005E+01 -0.1056339058323E+01  0.4248834981623E+00
-0.4937364584278E+00 -0.4517936037332E+01 -0.1002334514088E+01  0.4307054320809E+00
-0.4590645631218E+00 -0.4237960107089E+01 -0.9394049480403E+00  0.4593208641206E+00
-0.3870982125821E+00 -0.3938417291418E+01 -0.8651031136911E+00  0.5174579735312E+00
-0.2598333902406E+00 -0.3622281954479E+01 -0.7764230805135E+00  0.6120647924045E+00
-0.5264882349503E-01 -0.3296137956399E+01 -0.6697573659591E+00  0.7491614467492E+00
 0.2670231507337E+00 -0.2971522671872E+01 -0.5408999122877E+00  0.9317367853547E+00
 0.7405007462360E+00 -0.2665873660313E+01 -0.3850745885534E+00  0.1156316337610E+01
 0.1417333199689E+01 -0.2402123598161E+01 -0.1969580826292E+00  0.1407770059247E+01
 0.2348413501674E+01 -0.2206723965489E+01  0.2833790765936E-01  0.1650626436806E+01
 0.3566749883425E+01 -0.2101608305125E+01  0.2930283200265E+00  0.1820193113583E+01
 0.5059627267401E+01 -0.2086549146722E+01  0.5946156329962E+00  0.1825434576377E+01
 0.6745155067113E+01 -0.2122966924781E+01  0.9244376422415E+00  0.1573385177762E+01
-0.1931754362283E+01 -0.8355564220697E+01 -0.2057463747255E+01  0.1208550537126E+01
-0.1626006631841E+01 -0.8464187098750E+01 -0.2018038776189E+01  0.1334419619601E+01
-0.1303739221498E+01 -0.8548926086025E+01 -0.1970533090868E+01  0.1383975504264E+01
-0.1005671191129E+01 -0.8591068812079E+01 -0.1919348029242E+01  0.1370113286548E+01
-0.7559133643670E+00 -0.8584673761897E+01 -0.1868117453090E+01  0.1316332709088E+01
-0.5609766057989E+00 -0.8534967636568E+01 -0.1819188875581E+01  0.1244904805570E+01
-0.4162012123783E+00 -0.8452387447039E+01 -0.1773717758314E+01  0.1171001061260E+01
-0.3125614607536E+00 -0.8347538751818E+01 -0.1732020068323E+01  0.1102472931368E+01
-0.2408609116163E+00 -0.8228802209097E+01 -0.1693932649384E+01  0.1042054247538E+01
-0.1934666794380E+00 -0.8101910091199E+01 -0.1659075378850E+01  0.9896601699092E+00
-0.1646356102938E+00 -0.7970381014595E+01 -0.1627003349222E+01  0.9439764839498E+00
-0.1502614380495E+00 -0.7836120558836E+01 -0.1597276423178E+01  0.9033663367276E+00
-0.1474584515417E+00 -0.7699933490347E+01 -0.1569478411765E+01  0.8663371036344E+00
-0.1541283192271E+00 -0.7561919830659E+01 -0.1543209652973E+01  0.8317568742873E+00
-0.1685541116999E+00 -0.7421788243309E+01 -0.1518068493623E+01  0.7989060142313E+00
-0.1890712556584E+00 -0.7279111811985E+01 -0.1493636635786E+01  0.7673828464132E+00
-0.2138880420187E+00 -0.7133838059561E+01 -0.1469545242214E+01  0.7368077508254E+00
-0.2411411787716E+00 -0.6986640382473E+01 -0.1445556333789E+01  0.7064877439203E+00
-0.2691892371803E+00 -0.6838096093612E+01 -0.1421457087340E+01  0.6754592541143E+00
-0.2969242943611E+00 -0.6687879895739E+01 -0.1396960858836E+01  0.6427651823130E+00
-0.3238815137555E+00 -0.6534904756164E+01 -0.1371757274425E+01  0.6076568053457E+00
-0.3501291094322E+00 -0.6377624955701E+01 -0.1345550833077E+01  0.5697813184922E+00
-0.3760095308288E+00 -0.6214272733514E+01 -0.1318056472509E+01  0.5293092809159E+00
-0.4018371438446E+00 -0.6042999741376E+01 -0.1288967396251E+01  0.4869774540427E+00
-0.4276266732551E+00 -0.5861930186887E+01 -0.1257911390773E+01  0.4440764154381E+00
-0.4528693307960E+00 -0.5669161723884E+01 -0.1224406229181E+01  0.4024361835820E+00
-0.4763277016895E+00 -0.5462749752421E+01 -0.1187815508522E+01  0.3644525376194E+00
-0.4957898861699E+00 -0.5240577783045E+01 -0.1147273550939E+01  0.3332315453895E+00
-0.5076853305014E+00 -0.5000276432980E+01 -0.1101592369111E+01  0.3128307945644E+00
-0.5064709788694E+00 -0.4739538814858E+01 -0.1049201974380E+01  0.3084230599198E+00
-0.4837535720121E+00 -0.4456653979788E+01 -0.9880815250836E+00  0.3263623010060E+00
-0.4271216855767E+00 -0.4151163752747E+01 -0.9156571013090E+00  0.3741265955993E+00
-0.3186573331520E+00 -0.3824835188721E+01 -0.8286985167232E+00  0.4599365581523E+00
-0.1331394669766E+00 -0.3483017985624E+01 -0.7232315012970E+00  0.5917923817600E+00
 0.1639377878205E+00 -0.3136345640806E+01 -0.5944815794556E+00  0.7755088023683E+00
 0.6182098517263E+00 -0.2802344337525E+01 -0.4368269036690E+00  0.1011172077170E+01
 0.1287308516912E+01 -0.2505990425019E+01 -0.2437363852535E+00  0.1287162048459E+01
 0.2234706772966E+01 -0.2278839388628E+01 -0.8826523263764E-02  0.1569011084191E+01
 0.3508031034631E+01 -0.2150635596602E+01  0.2714790916511E+00  0.1786090968740E+01
 0.5103149391020E+01 -0.2127196511341E+01  0.5951905848048E+00  0.1831408688434E+01
 0.6928241711839E+01 -0.2166183739009E+01  0.9524116087581E+00  0.1590300238940E+01
-0.1992805424561E+01 -0.8662304910495E+01 -0.2131022098766E+01  0.1253079022275E+01
-0.1656859439220E+01 -0.8779911233000E+01 -0.2087354165548E+01  0.1374078502253E+01
-0.1306049361344E+01 -0.8868024132697E+01 -0.2034814729129E+01  0.1408943651619E+01
-0.9880184200604E+00 -0.8905675262873E+01 -0.1978738766072E+01  0.1375474642013E+01
-0.7282520257324E+00 -0.8888421702261E+01 -0.1923334774259E+01  0.1302878264084E+01
-0.5308195277504E+00 -0.8824817134983E+01 -0.1871127360429E+01  0.1216696353320E+01
-0.3877442740218E+00 -0.8728220641818E+01 -0.1823193010336E+01  0.1132716783876E+01
-0.2874540901199E+00 -0.8610883902704E+01 -0.1779667625084E+01  0.1057967052471E+01
-0.2192820823357E+00 -0.8481751001291E+01 -0.1740206642657E+01  0.9940017620912E+00
-0.1749236099702E+00 -0.8346519853227E+01 -0.1704288718035E+01  0.9397177285771E+00
-0.1484248679406E+00 -0.8208442837559E+01 -0.1671373566005E+01  0.8930610788382E+00
-0.1357026427476E+00 -0.8069111466546E+01 -0.1640962846311E+01  0.8518938798164E+00
-0.1340047079865E+00 -0.7929033711084E+01 -0.1612607707844E+01  0.8143970110491E+00
-0.1414081813069E+00 -0.7788042804983E+01 -0.1585890220890E+01  0.7792436554237E+00
-0.1563590681266E+00 -0.7645614584470E+01 -0.1560394753771E+01  0.7456276679693E+00
-0.1772888139061E+00 -0.7501137936121E+01 -0.1535685372889E+01  0.7131428376025E+00
-0.2023995450983E+00 -0.7354457724061E+01 -0.1511371476353E+01  0.6814320207259E+00
-0.2297387019680E+00 -0.7206241294361E+01 -0.1487196021427E+01  0.6497835875199E+00
-0.2575706663595E+00 -0.7057098212843E+01 -0.1462933797640E+01  0.6171456416887E+00
-0.2847719720777E+00 -0.6906708025526E+01 -0.1438296020953E+01  0.5824262922947E+00
-0.3109733740173E+00 -0.6753956444898E+01 -0.1412985984838E+01  0.5447404390583E+00
-0.3364269403818E+00 -0.6597263307832E+01 -0.1386738070307E+01  0.5036313739197E+00
-0.3617015209631E+00 -0.6434842830951E+01 -0.1359308890638E+01  0.4592019966536E+00
-0.3873454536001E+00 -0.6264849995836E+01 -0.1330439109712E+01  0.4121380415760E+00
-0.4136053404496E+00 -0.6085418241516E+01 -0.1299804735762E+01  0.3636702897475E+00
-0.4402165057698E+00 -0.5894630514982E+01 -0.1266969423030E+01  0.3155430396300E+00
-0.4662279896523E+00 -0.5690465077361E+01 -0.1231338631751E+01  0.2700397808959E+00
-0.4897928863755E+00 -0.5470612632543E+01 -0.1192081121547E+01  0.2301514699088E+00
-0.5078104531671E+00 -0.5232335187641E+01 -0.1148029145269E+01  0.1998685567244E+00
-0.5153091908184E+00 -0.4972738157759E+01 -0.1097609486071E+01  0.1844182730174E+00
-0.5045276222078E+00 -0.4689267824020E+01 -0.1038759104724E+01  0.1904302734536E+00
-0.4636529438984E+00 -0.4380334682989E+01 -0.9687975398137E+00  0.2260171627160E+00
-0.3751472029898E+00 -0.4046285676106E+01 -0.8842865889960E+00  0.3005841078522E+00
-0.2135866458078E+00 -0.3690855701173E+01 -0.7808884810322E+00  0.4241224210338E+00
 0.5702424937782E-01 -0.3323182432104E+01 -0.6532316462792E+00  0.6055283155582E+00
 0.4863696989807E+00 -0.2960131976346E+01 -0.4947524628454E+00  0.8491786724269E+00
 0.1140670186762E+01 -0.2628121585641E+01 -0.2974902842089E+00  0.1148365995327E+01
 0.2098233086129E+01 -0.2364116166988E+01 -0.5317661696430E-01  0.1471434039844E+01
 0.3425781548389E+01 -0.2207640309584E+01  0.2436282513915E+00  0.1742596520840E+01
 0.5132469968613E+01 -0.2173248612236E+01  0.5918442800945E+00  0.1836177118681E+01
 0.7116401151296E+01 -0.2215058554477E+01  0.9802685339709E+00  0.1608795892240E+01
-0.2053969418398E+01 -0.8978884530282E+01 -0.2206570822616E+01  0.1301813695870E+01
-0.1683462185602E+01 -0.9106290529323E+01 -0.2157950575141E+01  0.1416496126050E+01
-0.1300986110484E+01 -0.9196941523406E+01 -0.2099585558064E+01  0.1433451579717E+01
-0.9624274336537E+00 -0.9227559868658E+01 -0.2037997490831E+01  0.1377196594941E+01
-0.6939973695998E+00 -0.9196290669918E+01 -0.1978057637379E+01  0.1283962735273E+01
-0.4960470380065E+00 -0.9116099471715E+01 -0.1922429330591E+01  0.1182659082851E+01
-0.3564299742736E+00 -0.9003705859674E+01 -0.1872027194685E+01  0.1089135542204E+01
-0.2607446599332E+00 -0.8872926973753E+01 -0.1826734353958E+01  0.1009037844355E+01
-0.1968882449697E+00 -0.8733011838019E+01 -0.1785980043211E+01  0.9424159371804E+00
-0.1560092247696E+00 -0.8589393512036E+01 -0.1749080573425E+01  0.8870198736400E+00
-0.1320565457776E+00 -0.8444909478672E+01 -0.1715393230451E+01  0.8400301021137E+00
-0.1210505731062E+00 -0.8300756750790E+01 -0.1684361489878E+01  0.7988181462325E+00
-0.1204286377820E+00 -0.8157107229078E+01 -0.1655507198041E+01  0.7612544616068E+00
-0.1284875845325E+00 -0.8013505853478E+01 -0.1628398711867E+01  0.7258304526093E+00
-0.1438740236272E+00 -0.7869177071226E+01 -0.1602610242851E+01  0.6916680191682E+00
-0.1651396347749E+00 -0.7723306695379E+01 -0.1577689289540E+01  0.6583791383691E+00
-0.1904797171238E+00 -0.7575623177532E+01 -0.1553220602076E+01  0.6256575620104E+00
-0.2178279008068E+00 -0.7426783512147E+01 -0.1528922305373E+01  0.5927942048942E+00
-0.2453252583523E+00 -0.7277431304472E+01 -0.1504551334984E+01  0.5586534537031E+00
-0.2718199336534E+00 -0.7127253601291E+01 -0.1479814729040E+01  0.5220027259539E+00
-0.2970455156215E+00 -0.6975114620424E+01 -0.1454432048882E+01  0.4818177025195E+00
-0.3214534654054E+00 -0.6819416165912E+01 -0.1428173947545E+01  0.4375438682874E+00
-0.3458495396195E+00 -0.6658385850490E+01 -0.1400847098896E+01  0.3892266111065E+00
-0.3710156951376E+00 -0.6490226661512E+01 -0.1372248491778E+01  0.3375059843717E+00
-0.3974206878444E+00 -0.6313134631491E+01 -0.1342111083866E+01  0.2835464667006E+00
-0.4250305077734E+00 -0.6125236062162E+01 -0.1310053333508E+01  0.2289836906939E+00
-0.4531718690752E+00 -0.5924491688967E+01 -0.1275532730615E+01  0.1759460762227E+00
-0.4803695675455E+00 -0.5708456571415E+01 -0.1237765246236E+01  0.1272443376829E+00
-0.5040267243524E+00 -0.5474072639296E+01 -0.1195619890546E+01  0.8671294881166E-01
-0.5198166588127E+00 -0.5217888035305E+01 -0.1147540955923E+01  0.5952071217258E-01
-0.5207370058608E+00 -0.4936502050693E+01 -0.1091447827575E+01  0.5243624267458E-01
-0.4957783747207E+00 -0.4627124872820E+01 -0.1024580664776E+01  0.7405042528469E-01
-0.4281004238886E+00 -0.4288497901136E+01 -0.9433196790615E+00  0.1347981452090E+00
-0.2925468147196E+00 -0.3922358523788E+01 -0.8429810802629E+00  0.2465735032643E+00
-0.5225126338290E-01 -0.3535671691848E+01 -0.7175846017391E+00  0.4214951292548E+00
 0.3459498038884E+00 -0.3143646897479E+01 -0.5595394270559E+00  0.6689174310614E+00
 0.9770369055881E+00 -0.2773106037351E+01 -0.3592138317054E+00  0.9886813789442E+00
 0.1936459596994E+01 -0.2466330936888E+01 -0.1059742695579E+00  0.1354472090674E+01
 0.3315669706245E+01 -0.2274799123712E+01  0.2081741196085E+00  0.1687032503163E+01
 0.5144138707978E+01 -0.2225643375570E+01  0.5836990751793E+00  0.1839095521916E+01
 0.7310877826966E+01 -0.2270458199498E+01  0.1008083940515E+01  0.1629282204044E+01
-0.2115114631722E+01 -0.9307017418777E+01 -0.2284426444141E+01  0.1355319129287E+01
-0.1704732861636E+01 -0.9445060150435E+01 -0.2229958635643E+01  0.1461722082454E+01
-0.1287109857607E+01 -0.9536849486502E+01 -0.2164791901080E+01  0.1456671570020E+01
-0.9278787379145E+00 -0.9556969080780E+01 -0.2096969594986E+01  0.1373941462887E+01
-0.6528023216612E+00 -0.9507773733852E+01 -0.2032115241383E+01  0.1258323186063E+01
-0.4567981580382E+00 -0.9407974329881E+01 -0.1972954526983E+01  0.1141916050597E+01
-0.3226089954715E+00 -0.9277998328626E+01 -0.1920121493432E+01  0.1039775927179E+01
-0.2328156371282E+00 -0.9132962442898E+01 -0.1873155643918E+01  0.9554824043283E+00
-0.1740179768308E+00 -0.8982038489452E+01 -0.1831211320544E+01  0.8872564174395E+00
-0.1370011234470E+00 -0.8830115499491E+01 -0.1793423351312E+01  0.8316126839103E+00
-0.1157522085434E+00 -0.8679459462995E+01 -0.1759042360519E+01  0.7849752865951E+00
-0.1064797012484E+00 -0.8530799927647E+01 -0.1727455951520E+01  0.7442579150934E+00
-0.1068642806962E+00 -0.8383945189740E+01 -0.1698161919392E+01  0.7070474670368E+00
-0.1154649305922E+00 -0.8238141041126E+01 -0.1670721219239E+01  0.6716691477342E+00
-0.1311683716237E+00 -0.8092347771682E+01 -0.1644703253169E+01  0.6371858840551E+00
-0.1526745452237E+00 -0.7945529030440E+01 -0.1619640739267E+01  0.6032502927290E+00
-0.1781714669957E+00 -0.7797279369004E+01 -0.1595090190969E+01  0.5696386623136E+00
-0.2054488001774E+00 -0.7648236989225E+01 -0.1570737181286E+01  0.5356691539557E+00
-0.2324889596743E+00 -0.7499077380079E+01 -0.1546313290993E+01  0.5001277304031E+00
-0.2580978998053E+00 -0.7349494053934E+01 -0.1521518413420E+01  0.4616353803616E+00
-0.2821228352893E+00 -0.7198334290447E+01 -0.1496091447441E+01  0.4190291596999E+00
-0.3052331661213E+00 -0.7044001825889E+01 -0.1469847020304E+01  0.3716692972210E+00
-0.3284813646639E+00 -0.6884776762606E+01 -0.1442651646951E+01  0.3195601533136E+00
-0.3528785038045E+00 -0.6718963947201E+01 -0.1414368511277E+01  0.2633055593072E+00
-0.3790995094842E+00 -0.6544884254454E+01 -0.1384796773423E+01  0.2039992052421E+00
-0.4073198285125E+00 -0.6360774340458E+01 -0.1353618853965E+01  0.1431458750240E+00
-0.4371259774229E+00 -0.6164647711632E+01 -0.1320354757486E+01  0.8267564147410E-01
-0.4674112607399E+00 -0.5953995296986E+01 -0.1284281330682E+01  0.2515125665566E-01
-0.4961064620858E+00 -0.5725507444187E+01 -0.1244322799796E+01 -0.2584351597839E-01
-0.5195922510076E+00 -0.5475233011297E+01 -0.1198965070327E+01 -0.6532268526605E-01
-0.5317419789101E+00 -0.5198956764239E+01 -0.1146139765709E+01 -0.8653730850029E-01
-0.5225475832116E+00 -0.4892665334365E+01 -0.1083042599654E+01 -0.8061514195632E-01
-0.4761930662093E+00 -0.4553359049105E+01 -0.1005910438052E+01 -0.3631926821989E-01
-0.3683170984646E+00 -0.4180428052329E+01 -0.9097490437151E+00  0.5993615904750E-01
-0.1619760009566E+00 -0.3777940152676E+01 -0.7879832424683E+00  0.2234581915265E+00
 0.1985246393274E+00 -0.3358197896980E+01 -0.6319346609470E+00  0.4691201139051E+00
 0.7965521090054E+00 -0.2946812746512E+01 -0.4300521339097E+00  0.8051029480520E+00
 0.1746815088398E+01 -0.2590588091206E+01 -0.1687546030762E+00  0.1213822606878E+01
 0.3172446817423E+01 -0.2355174706969E+01  0.1634544245265E+00  0.1615657175495E+01
 0.5133586860694E+01 -0.2285678769174E+01  0.5695816267913E+00  0.1839090395122E+01
 0.7513162527235E+01 -0.2333475527137E+01  0.1035937415456E+01  0.1652328608342E+01
-0.2176035634078E+01 -0.9648893373086E+01 -0.2364985836674E+01  0.1414271322962E+01
-0.1719241062830E+01 -0.9798366920786E+01 -0.2303521631048E+01  0.1509692399964E+01
-0.1262658571720E+01 -0.9889027828578E+01 -0.2230337313294E+01  0.1477389500119E+01
-0.8832924575272E+00 -0.9893927980093E+01 -0.2155444119643E+01  0.1363972974951E+01
-0.6044607566995E+00 -0.9822016956201E+01 -0.2085295573653E+01  0.1224484564926E+01
-0.4133958661034E+00 -0.9699315693122E+01 -0.2022542341983E+01  0.1093559366183E+01
-0.2867704205258E+00 -0.9550083623269E+01 -0.1967370838075E+01  0.9842140187283E+00
-0.2041305788005E+00 -0.9390204440755E+01 -0.1918867032504E+01  0.8971724286365E+00
-0.1510514012307E+00 -0.9228254045943E+01 -0.1875861117387E+01  0.8285451711379E+00
-0.1181970672270E+00 -0.9068262027295E+01 -0.1837291846282E+01  0.7735867201286E+00
-0.9974391811544E-01 -0.8911770254138E+01 -0.1802302861307E+01  0.7280178899416E+00
-0.9217156073872E-01 -0.8758982661675E+01 -0.1770230870861E+01  0.6883517300388E+00
-0.9345147034872E-01 -0.8609333176935E+01 -0.1740556955393E+01  0.6519294140986E+00
-0.1024426176770E+00 -0.8461772342070E+01 -0.1712843017473E+01  0.6169265468854E+00
-0.1183126184175E+00 -0.8314991987961E+01 -0.1686660946409E+01  0.5823557278260E+00
-0.1399429367654E+00 -0.8167714485383E+01 -0.1661531509188E+01  0.5479299203349E+00
-0.1655151934697E+00 -0.8019377267990E+01 -0.1636978516685E+01  0.5135420704003E+00
-0.1926386252103E+00 -0.7870584296823E+01 -0.1612644608437E+01  0.4785659574681E+00
-0.2190945761301E+00 -0.7722033928423E+01 -0.1588225724577E+01  0.4417150139764E+00
-0.2436329588872E+00 -0.7573419200075E+01 -0.1563410455089E+01  0.4014587953739E+00
-0.2662305758538E+00 -0.7423573538982E+01 -0.1537960845885E+01  0.3565018039931E+00
-0.2877967511226E+00 -0.7270928048621E+01 -0.1511744982475E+01  0.3061403409605E+00
-0.3096388719443E+00 -0.7113864744091E+01 -0.1484700745331E+01  0.2503616578066E+00
-0.3329873310648E+00 -0.6950855062414E+01 -0.1456768500403E+01  0.1897467348289E+00
-0.3587003371338E+00 -0.6780416020458E+01 -0.1427823292795E+01  0.1253155579051E+00
-0.3871334497985E+00 -0.6600969778643E+01 -0.1397620666515E+01  0.5842091127327E-01
-0.4181053746235E+00 -0.6410662847043E+01 -0.1365753664685E+01 -0.9248052453582E-02
-0.4508636956037E+00 -0.6207007970537E+01 -0.1331574353070E+01 -0.7544489924491E-01
-0.4838785757708E+00 -0.5986533961839E+01 -0.1294082526805E+01 -0.1369344651522E+00
-0.5142864858685E+00 -0.5744879947471E+01 -0.1251833305322E+01 -0.1890459168090E+00
-0.5369361507251E+00 -0.5477093001772E+01 -0.1202805848423E+01 -0.2252266528700E+00
-0.5430008668365E+00 -0.5177972455765E+01 -0.1144194681570E+01 -0.2365574891080E+00
-0.5180059234296E+00 -0.4842717398013E+01 -0.1072144680265E+01 -0.2113008289468E+00
-0.4389418349853E+00 -0.4468100379840E+01 -0.9814084575891E+00 -0.1345301219748E+00
-0.2697362060728E+00 -0.4054588375037E+01 -0.8648649291095E+00  0.1197671353049E-01
 0.4644558909582E-01 -0.3610112765925E+01 -0.7127334459865E+00  0.2488618778617E+00
 0.6001747344947E+00 -0.3156744964767E+01 -0.5113140536737E+00  0.5944187461404E+00
 0.1526917623374E+01 -0.2743878850345E+01 -0.2433922490210E+00  0.1044126550723E+01
 0.2989779052898E+01 -0.2453205747412E+01  0.1073146626963E+00  0.1523239413088E+01
 0.5094631828372E+01 -0.2355196630859E+01  0.5478870476668E+00  0.1834388866478E+01
 0.7725069253769E+01 -0.2405508339365E+01  0.1063912198734E+01  0.1678699232787E+01
-0.2236412433920E+01 -0.1000736657923E+02 -0.2448755839119E+01  0.1479485673272E+01
-0.1725072160220E+01 -0.1016889241409E+02 -0.2378792950308E+01  0.1560137522477E+01
-0.1225483627487E+01 -0.1025481579475E+02 -0.2296059918662E+01  0.1493828169596E+01
-0.8275896969178E+00 -0.1023808073188E+02 -0.2213134118739E+01  0.1345053655187E+01
-0.5490008787994E+00 -0.1013768896731E+02 -0.2137338001070E+01  0.1180769060979E+01
-0.3664020891162E+00 -0.9988661834187E+01 -0.2071012815521E+01  0.1036705888839E+01
-0.2495561726526E+00 -0.9818778969212E+01 -0.2013667058379E+01  0.9221306889717E+00
-0.1752298046523E+00 -0.9643803304356E+01 -0.1963806651065E+01  0.8340806528122E+00
-0.1284017451824E+00 -0.9471066948983E+01 -0.1919893767442E+01  0.7663784161074E+00
-0.9990755129694E-01 -0.9303413245302E+01 -0.1880664187344E+01  0.7130811654613E+00
-0.8426901313293E-01 -0.9141526454458E+01 -0.1845159121013E+01  0.6693087647123E+00
-0.7831194313007E-01 -0.8985049176921E+01 -0.1812672251021E+01  0.6312560436522E+00
-0.8033516843987E-01 -0.8833052013490E+01 -0.1782677462950E+01  0.5960670332204E+00
-0.8952757278767E-01 -0.8684213660449E+01 -0.1754748272795E+01  0.5617837219095E+00
-0.1053788229225E+00 -0.8536965425308E+01 -0.1728468875402E+01  0.5273691005598E+00
-0.1269923242250E+00 -0.8389769934448E+01 -0.1703352477117E+01  0.4926097414550E+00
-0.1525473808498E+00 -0.8241875818915E+01 -0.1678884664970E+01  0.4575503928911E+00
-0.1794294466645E+00 -0.8093825916462E+01 -0.1654651097282E+01  0.4216524962239E+00
-0.2051685537460E+00 -0.7946321003707E+01 -0.1630297935784E+01  0.3835634359968E+00
-0.2284461945823E+00 -0.7799037674946E+01 -0.1605496797829E+01  0.3415983206509E+00
-0.2493919369691E+00 -0.7650797316447E+01 -0.1580037874228E+01  0.2943438992929E+00
-0.2691804910333E+00 -0.7500092623655E+01 -0.1553854646092E+01  0.2410657175625E+00
-0.2893791011231E+00 -0.7345471140085E+01 -0.1526970070995E+01  0.1817661437754E+00
-0.3114208898495E+00 -0.7185648537442E+01 -0.1499413907801E+01  0.1170196197350E+00
-0.3363171159822E+00 -0.7019418021900E+01 -0.1471147049498E+01  0.4776998335823E-01
-0.3645660539808E+00 -0.6845468909928E+01 -0.1442007014269E+01 -0.2480199079372E-01
-0.3961809608156E+00 -0.6662169265331E+01 -0.1411670066265E+01 -0.9928845428074E-01
-0.4307375798776E+00 -0.6467153398436E+01 -0.1379578216220E+01 -0.1738257870949E+00
-0.4672435645043E+00 -0.6256901259383E+01 -0.1344828984817E+01 -0.2456248973940E+00
-0.5036223955062E+00 -0.6026767031497E+01 -0.1306077904863E+01 -0.3104656332299E+00
-0.5357745640770E+00 -0.5771188633037E+01 -0.1261392658219E+01 -0.3621807442322E+00
-0.5562052162090E+00 -0.5483887071826E+01 -0.1208018475608E+01 -0.3920695453278E+00
-0.5520658461421E+00 -0.5158301411339E+01 -0.1142073468514E+01 -0.3882626194614E+00
-0.5022433929904E+00 -0.4788450928202E+01 -0.1058138880006E+01 -0.3349885957764E+00
-0.3725869681058E+00 -0.4370622986203E+01 -0.9486420049976E+00 -0.2116797120836E+00
-0.1069729159059E+00 -0.3906819173315E+01 -0.8027584298062E+00  0.7848078699998E-02
 0.3900785181907E+00 -0.3412456922493E+01 -0.6044756898678E+00  0.3534350556638E+00
 0.1274977230834E+01 -0.2935873907389E+01 -0.3321793402608E+00  0.8388248302050E+00
 0.2760111322231E+01 -0.2575493479116E+01  0.3692356917321E-01  0.1402449024540E+01
 0.5018756607098E+01 -0.2436923940425E+01  0.5163665410292E+00  0.1822039058570E+01
 0.7948814421474E+01 -0.2488399513925E+01  0.1092082997783E+01  0.1709412467763E+01
-0.2295743486952E+01 -0.1038624378001E+02 -0.2536397491187E+01  0.1551951494390E+01
-0.1719630065793E+01 -0.1056001368230E+02 -0.2455928786215E+01  0.1612420663221E+01
-0.1172989513664E+01 -0.1063549388772E+02 -0.2361696715469E+01  0.1503386759815E+01
-0.7598097276530E+00 -0.1058844142877E+02 -0.2269650265105E+01  0.1314334505932E+01
-0.4868144831583E+00 -0.1045281959054E+02 -0.2187926847343E+01  0.1125346060645E+01
-0.3166744341250E+00 -0.1027417872405E+02 -0.2118170663199E+01  0.9705849701825E+00
-0.2117650239027E+00 -0.1008275319750E+02 -0.2058903674960E+01  0.8533691812815E+00
-0.1467179942409E+00 -0.9892872457270E+01 -0.2007918120222E+01  0.7663072181069E+00
-0.1065027811582E+00 -0.9709891645698E+01 -0.1963278914626E+01  0.7009365619828E+00
-0.8244633660071E-01 -0.9535167639341E+01 -0.1923522823851E+01  0.6502861565410E+00
-0.6956383109610E-01 -0.9368429208496E+01 -0.1887598636046E+01  0.6090268454855E+00
-0.6508771670845E-01 -0.9208751213441E+01 -0.1854767813668E+01  0.5731418232390E+00
-0.6766510654613E-01 -0.9054878256995E+01 -0.1824508699895E+01  0.5396369083295E+00
-0.7683264751013E-01 -0.8905265481838E+01 -0.1796419652638E+01  0.5064344377403E+00
-0.9244197257713E-01 -0.8758109384593E+01 -0.1770110297811E+01  0.4724362192765E+00
-0.1138684179234E+00 -0.8611596857698E+01 -0.1745093081128E+01  0.4375037863850E+00
-0.1392990821557E+00 -0.8464743983779E+01 -0.1720808638829E+01  0.4018671293066E+00
-0.1658450578860E+00 -0.8317987258720E+01 -0.1696766488605E+01  0.3651106748646E+00
-0.1907265237104E+00 -0.8171990745533E+01 -0.1672543478771E+01  0.3258230199309E+00
-0.2125481376953E+00 -0.8026385242012E+01 -0.1647786700495E+01  0.2821663582100E+00
-0.2316250733546E+00 -0.7879981902822E+01 -0.1622321419410E+01  0.2326383581368E+00
-0.2494255639024E+00 -0.7731383625093E+01 -0.1596161861584E+01  0.1765227541706E+00
-0.2677756339553E+00 -0.7579386773508E+01 -0.1569432504879E+01  0.1138778278731E+00
-0.2882858435612E+00 -0.7423044110337E+01 -0.1542266013761E+01  0.4528855603652E-01
-0.3120828791293E+00 -0.7261512778999E+01 -0.1514719154197E+01 -0.2838134918506E-01
-0.3397630542466E+00 -0.7093834575933E+01 -0.1486719548190E+01 -0.1061420911488E+00
-0.3714867463412E+00 -0.6918693206453E+01 -0.1458036012285E+01 -0.1869034631252E+00
-0.4071193640032E+00 -0.6733956557744E+01 -0.1428215205631E+01 -0.2692461488107E+00
-0.4461894637549E+00 -0.6536191477098E+01 -0.1396476208980E+01 -0.3509196665919E+00
-0.4874186797438E+00 -0.6320630521993E+01 -0.1361609860637E+01 -0.4282871302768E+00
-0.5278062918900E+00 -0.6081289392940E+01 -0.1321819156663E+01 -0.4957605649759E+00
-0.5612989494041E+00 -0.5811003947176E+01 -0.1274460598307E+01 -0.5451446226803E+00
-0.5769041995186E+00 -0.5501619089034E+01 -0.1215704675826E+01 -0.5648602634354E+00
-0.5558856323962E+00 -0.5144457318212E+01 -0.1140068607110E+01 -0.5389177769844E+00
-0.4670681674286E+00 -0.4731310519634E+01 -0.1039675752905E+01 -0.4452974550262E+00
-0.2572806611622E+00 -0.4256834009656E+01 -0.9028229476168E+00 -0.2531797491984E+00
 0.1701750386672E+00 -0.3725994781051E+01 -0.7111639590738E+00  0.7941143413323E-01
 0.9904825643188E+00 -0.3180032046646E+01 -0.4379099029907E+00  0.5901340846106E+00
 0.2474659862134E+01 -0.2732100941458E+01 -0.5148821663204E-01  0.1243007854992E+01
 0.4894045723184E+01 -0.2535123242165E+01  0.4717845032339E+00  0.1797062532538E+01
 0.8187077170013E+01 -0.2584698185801E+01  0.1120475813539E+01  0.1745813361641E+01
-0.2353233393292E+01 -0.1079073863132E+02 -0.2628794444095E+01  0.1632871851626E+01
-0.1699348274552E+01 -0.1097600611231E+02 -0.2535070915148E+01  0.1665249079711E+01
-0.1102100891621E+01 -0.1103203010416E+02 -0.2426826235318E+01  0.1502258322977E+01
-0.6793189369565E+00 -0.1094301206049E+02 -0.2324466234126E+01  0.1268261095042E+01
-0.4188265507965E+00 -0.1076461817860E+02 -0.2236688979209E+01  0.1056354068135E+01
-0.2654129492898E+00 -0.1055365768660E+02 -0.2163814159421E+01  0.8946651431348E+00
-0.1743387802842E+00 -0.1034057270906E+02 -0.2102982329205E+01  0.7779981085226E+00
-0.1192422697746E+00 -0.1013652572160E+02 -0.2051153628839E+01  0.6941023447984E+00
-0.8579235619421E-01 -0.9944173275503E+01 -0.2005993156231E+01  0.6324908695232E+00
-0.6611913538675E-01 -0.9763158312009E+01 -0.1965855518773E+01  0.5854428008848E+00
-0.5585644307664E-01 -0.9592206659104E+01 -0.1929612649190E+01  0.5473758302227E+00
-0.5268324832294E-01 -0.9429853625808E+01 -0.1896507403086E+01  0.5141893908494E+00
-0.5559581032512E-01 -0.9274584459857E+01 -0.1866036081842E+01  0.4828200902531E+00
-0.6447922900582E-01 -0.9124709753895E+01 -0.1837837823966E+01  0.4510821852271E+00
-0.7958281484664E-01 -0.8978243044202E+01 -0.1811565198804E+01  0.4177876116376E+00
-0.1006160907806E+00 -0.8833086299529E+01 -0.1786740504686E+01  0.3828543050041E+00
-0.1257943153953E+00 -0.8687962809969E+01 -0.1762751451340E+01  0.3467241805638E+00
-0.1518967156917E+00 -0.8543128227467E+01 -0.1739005014545E+01  0.3091419595119E+00
-0.1757670552362E+00 -0.8399140352730E+01 -0.1714981507148E+01  0.2686461666419E+00
-0.1959326657614E+00 -0.8255535481712E+01 -0.1690293654682E+01  0.2232571487556E+00
-0.2129394706185E+00 -0.8111119910480E+01 -0.1664811901027E+01  0.1714341017813E+00
-0.2285776414852E+00 -0.7964678941566E+01 -0.1638651341028E+01  0.1125484123043E+00
-0.2449205303322E+00 -0.7815368229483E+01 -0.1612057775985E+01  0.4676260741840E-01
-0.2637198473412E+00 -0.7662688004693E+01 -0.1585281594029E+01 -0.2531392629251E-01
-0.2861733410227E+00 -0.7506252649385E+01 -0.1558485221305E+01 -0.1029063055389E+00
-0.3129252058088E+00 -0.7345541045126E+01 -0.1531693273011E+01 -0.1852339965670E+00
-0.3442266398410E+00 -0.7179647830083E+01 -0.1504774916408E+01 -0.2715543714195E+00
-0.3801818242705E+00 -0.7006796026371E+01 -0.1477395592143E+01 -0.3609449298128E+00
-0.4208083965853E+00 -0.6823798046438E+01 -0.1448921310195E+01 -0.4517757685954E+00
-0.4656148176767E+00 -0.6625969705515E+01 -0.1418316925773E+01 -0.5411153927430E+00
-0.5127111061553E+00 -0.6407155791801E+01 -0.1383973400214E+01 -0.6241451066993E+00
-0.5575443892817E+00 -0.6159592960483E+01 -0.1343427489972E+01 -0.6934710982577E+00
-0.5911326780514E+00 -0.5873839140503E+01 -0.1292994382978E+01 -0.7382583930427E+00
-0.5974768219484E+00 -0.5538817838701E+01 -0.1227258950417E+01 -0.7430180431402E+00
-0.5492950419904E+00 -0.5141927118464E+01 -0.1138244449052E+01 -0.6854700862194E+00
-0.3987867378731E+00 -0.4669580151509E+01 -0.1013673392981E+01 -0.5319044803274E+00
-0.5324983409965E-01 -0.4112261992147E+01 -0.8331023776635E+00 -0.2291750844168E+00
 0.6753295603463E+00 -0.3495101738716E+01 -0.5639544440775E+00  0.2893261195589E+00
 0.2123740380666E+01 -0.2938728328167E+01 -0.1629975919290E+00  0.1030571550418E+01
 0.4703615444082E+01 -0.2656873724746E+01  0.4093483499669E+00  0.1750944560454E+01
 0.8442979821043E+01 -0.2698181138539E+01  0.1148959753622E+01  0.1789612735819E+01
-0.2407600585116E+01 -0.1122821638113E+02 -0.2727163433887E+01  0.1723701095965E+01
-0.1659264170282E+01 -0.1142227766560E+02 -0.2616308406163E+01  0.1716147411734E+01
-0.1009310419488E+01 -0.1144456087850E+02 -0.2490774296713E+01  0.1484876813751E+01
-0.5861659026962E+00 -0.1129821388218E+02 -0.2376875992394E+01  0.1202555098135E+01
-0.3466990777967E+00 -0.1106930920836E+02 -0.2283201691253E+01  0.9721406697257E+00
-0.2141749929451E+00 -0.1082457899032E+02 -0.2207750829550E+01  0.8088189004607E+00
-0.1383227985302E+00 -0.1059077748619E+02 -0.2145820088919E+01  0.6963691929262E+00
-0.9346107297183E-01 -0.1037392290721E+02 -0.2093476827232E+01  0.6178813037599E+00
-0.6669275436355E-01 -0.1017341548698E+02 -0.2048021678786E+01  0.5614058061271E+00
-0.5121077907018E-01 -0.9987070571040E+01 -0.2007656299938E+01  0.5188404286887E+00
-0.4335853744052E-01 -0.9812625205533E+01 -0.1971196777968E+01  0.4845789705604E+00
-0.4127633081292E-01 -0.9648140842635E+01 -0.1937883463566E+01  0.4545813748860E+00
-0.4428697158935E-01 -0.9491939506826E+01 -0.1907245324103E+01  0.4257942699060E+00
-0.5260147734411E-01 -0.9342302622954E+01 -0.1878980848059E+01  0.3959350299407E+00
-0.6689292400300E-01 -0.9197151453322E+01 -0.1852808903074E+01  0.3636755491594E+00
-0.8728187743693E-01 -0.9054110080901E+01 -0.1828278418911E+01  0.3289401186458E+00
-0.1120484233384E+00 -0.8911527412289E+01 -0.1804715194018E+01  0.2923931558280E+00
-0.1375771348357E+00 -0.8769356677105E+01 -0.1781386788933E+01  0.2539756811932E+00
-0.1602627613649E+00 -0.8627930049316E+01 -0.1757638588327E+01  0.2121881446514E+00
-0.1785688738983E+00 -0.8486613427219E+01 -0.1733036486048E+01  0.1649392187961E+00
-0.1933317978437E+00 -0.8344225454832E+01 -0.1707511475979E+01  0.1107346400994E+00
-0.2066871009898E+00 -0.8199844442718E+01 -0.1681306333795E+01  0.4912849904695E-01
-0.2209271679700E+00 -0.8053132631214E+01 -0.1654811984495E+01 -0.1956006955421E-01
-0.2378950894145E+00 -0.7904167366056E+01 -0.1628412515359E+01 -0.9469297008119E-01
-0.2588103064659E+00 -0.7753115497028E+01 -0.1602385184576E+01 -0.1756021996692E+00
-0.2843124778005E+00 -0.7599970521696E+01 -0.1576856623396E+01 -0.2617347988607E+00
-0.3146803131192E+00 -0.7444328031200E+01 -0.1551801691988E+01 -0.3527162532821E+00
-0.3501940010827E+00 -0.7284893008945E+01 -0.1527017424760E+01 -0.4481593207189E+00
-0.3913133182644E+00 -0.7118904305247E+01 -0.1502043547084E+01 -0.5471190303906E+00
-0.4382977306616E+00 -0.6942010613684E+01 -0.1476061690864E+01 -0.6474719380268E+00
-0.4903395270040E+00 -0.6748206865996E+01 -0.1447709300173E+01 -0.7453450069777E+00
-0.5443872283258E+00 -0.6529514064045E+01 -0.1414780279556E+01 -0.8344385028646E+00
-0.5935344633936E+00 -0.6275657883620E+01 -0.1373838489874E+01 -0.9051191454940E+00
-0.6247139475217E+00 -0.5973729946146E+01 -0.1319688798399E+01 -0.9431490546767E+00
-0.6151538418799E+00 -0.5607387284683E+01 -0.1244508243857E+01 -0.9273720870562E+00
-0.5246161263120E+00 -0.5154920706618E+01 -0.1135907383512E+01 -0.8237801762786E+00
-0.2708641284125E+00 -0.4589091605747E+01 -0.9719911613158E+00 -0.5713871112289E+00
 0.3355982700448E+00 -0.3907016773489E+01 -0.7142837113325E+00 -0.7232569207557E-01
 0.1697860599010E+01 -0.3220368147601E+01 -0.3045015142556E+00  0.7454236370655E+00
 0.4423345486312E+01 -0.2814676660837E+01  0.3217337698892E+00  0.1668931415635E+01
 0.8719830261430E+01 -0.2834974362079E+01  0.1176971197409E+01  0.1842735636729E+01
-0.2456741784626E+01 -0.1170947209542E+02 -0.2833242818227E+01  0.1826152784352E+01
-0.1592392263341E+01 -0.1190557123484E+02 -0.2699592739863E+01  0.1760472357180E+01
-0.8909242238916E+00 -0.1187135146079E+02 -0.2552455174972E+01  0.1443148392413E+01
-0.4816585875446E+00 -0.1164808835612E+02 -0.2425949424883E+01  0.1112402992911E+01
-0.2730354634800E+00 -0.1136207894704E+02 -0.2327022916779E+01  0.8716773675290E+00
-0.1648228031434E+00 -0.1108427873132E+02 -0.2249820340418E+01  0.7135039117993E+00
-0.1047967862198E+00 -0.1083198107695E+02 -0.2187355605227E+01  0.6091531674634E+00
-0.7000694369488E-01 -0.1060431991651E+02 -0.2134865403852E+01  0.5382292763496E+00
-0.4958878895160E-01 -0.1039721053799E+02 -0.2089359896523E+01  0.4881363198501E+00
-0.3797136757820E-01 -0.1020665985472E+02 -0.2048926274992E+01  0.4508106569013E+00
-0.3225669740440E-01 -0.1002950121740E+02 -0.2012351612948E+01  0.4208721317106E+00
-0.3103337484597E-01 -0.9863424555847E+01 -0.1978891615626E+01  0.3944938498134E+00
-0.3390390323216E-01 -0.9706709791544E+01 -0.1948122767984E+01  0.3687228837753E+00
-0.4135261094163E-01 -0.9557764865363E+01 -0.1919823523869E+01  0.3411969705487E+00
-0.5448318974031E-01 -0.9414567180485E+01 -0.1893810102265E+01  0.3103745804422E+00
-0.7391910274084E-01 -0.9274505818203E+01 -0.1869685012049E+01  0.2760884911119E+00
-0.9806649219177E-01 -0.9135448677035E+01 -0.1846703061363E+01  0.2392026535664E+00
-0.1228516895087E+00 -0.8996848065655E+01 -0.1823939978212E+01  0.1998814537343E+00
-0.1441474283707E+00 -0.8858608378694E+01 -0.1800551188243E+01  0.1566070668863E+00
-0.1603903577619E+00 -0.8719812665403E+01 -0.1776040631098E+01  0.1072440261291E+00
-0.1727815587764E+00 -0.8579338681033E+01 -0.1750424074045E+01  0.5048287622323E-01
-0.1838104601142E+00 -0.8436729871834E+01 -0.1724108092081E+01 -0.1381513461344E-01
-0.1959344387194E+00 -0.8292350335812E+01 -0.1697656980203E+01 -0.8512571751673E-01
-0.2110225274665E+00 -0.8147003552911E+01 -0.1671605240984E+01 -0.1627966311822E+00
-0.2302647695759E+00 -0.8001500692496E+01 -0.1646353116947E+01 -0.2463003246943E+00
-0.2542467528918E+00 -0.7856411679722E+01 -0.1622131710694E+01 -0.3353310679146E+00
-0.2832075513362E+00 -0.7711908209995E+01 -0.1599023176094E+01 -0.4298898194050E+00
-0.3175299215677E+00 -0.7567302796430E+01 -0.1576966567098E+01 -0.5301421869667E+00
-0.3580544982589E+00 -0.7420463040790E+01 -0.1555703530992E+01 -0.6358658724523E+00
-0.4057295792089E+00 -0.7267669054841E+01 -0.1534679749679E+01 -0.7458181551768E+00
-0.4607553967798E+00 -0.7103461814396E+01 -0.1512843464778E+01 -0.8572245631485E+00
-0.5215204492342E+00 -0.6920128769933E+01 -0.1488329866011E+01 -0.9651564769831E+00
-0.5831664100199E+00 -0.6707158104345E+01 -0.1458064924600E+01 -0.1061614448759E+01
-0.6355617926026E+00 -0.6450641432610E+01 -0.1417240666161E+01 -0.1134314630343E+01
-0.6606214522769E+00 -0.6131760037276E+01 -0.1358476318154E+01 -0.1164613163185E+01
-0.6270666086715E+00 -0.5722295768412E+01 -0.1269872494339E+01 -0.1121358787287E+01
-0.4698100388781E+00 -0.5176611560013E+01 -0.1129284336606E+01 -0.9419732134558E+00
-0.1581826035254E-01 -0.4450921286200E+01 -0.8933479226225E+00 -0.5012636672765E+00
 0.1190437498566E+01 -0.3617387335717E+01 -0.4853899746630E+00  0.3614139553415E+00
 0.4018778732892E+01 -0.3031912343046E+01  0.1973732809103E+00  0.1525213380257E+01
 0.9020249257230E+01 -0.3006130872457E+01  0.1202823694878E+01  0.1906495347941E+01
-0.2497139846754E+01 -0.1225105275721E+02 -0.2949638564747E+01  0.1942089318157E+01
-0.1488812655622E+01 -0.1243390226553E+02 -0.2784543025723E+01  0.1789513529040E+01
-0.7437567597024E+00 -0.1230673149575E+02 -0.2610097689984E+01  0.1365484994980E+01
-0.3692510620742E+00 -0.1198331621850E+02 -0.2470513492929E+01  0.9931271130452E+00
-0.2014890317258E+00 -0.1163732787960E+02 -0.2367763417547E+01  0.7551864602114E+00
-0.1193582278070E+00 -0.1133023391201E+02 -0.2289918462085E+01  0.6098973550243E+00
-0.7478467826294E-01 -0.1106297205351E+02 -0.2227551379549E+01  0.5173388304046E+00
-0.4944826944185E-01 -0.1082712217745E+02 -0.2175314121793E+01  0.4558974644453E+00
-0.3480391906658E-01 -0.1061527025216E+02 -0.2130014865985E+01  0.4132185682112E+00
-0.2660239387509E-01 -0.1042176853757E+02 -0.2089674217428E+01  0.3817181403765E+00
-0.2270340333773E-01 -0.1024271283405E+02 -0.2053083278071E+01  0.3564955831148E+00
-0.2210343308914E-01 -0.1007555305099E+02 -0.2019531326910E+01  0.3340860819159E+00
-0.2461737866920E-01 -0.9918662773888E+01 -0.1988656060145E+01  0.3117405853060E+00
-0.3091351841009E-01 -0.9770770517570E+01 -0.1960336836407E+01  0.2870536511886E+00
-0.4249755675720E-01 -0.9630142538699E+01 -0.1934528047918E+01  0.2581795627212E+00
-0.6059759417041E-01 -0.9494051372824E+01 -0.1910929821874E+01  0.2246920908876E+00
-0.8384200463561E-01 -0.9359754364984E+01 -0.1888719302068E+01  0.1875652433792E+00
-0.1076449622503E+00 -0.9225875416821E+01 -0.1866704103630E+01  0.1471877527258E+00
-0.1272970849831E+00 -0.9091548376256E+01 -0.1843769119722E+01  0.1020620662316E+00
-0.1412813658037E+00 -0.8955416039583E+01 -0.1819339508188E+01  0.5014840175499E-01
-0.1512472888753E+00 -0.8816528069647E+01 -0.1793555098431E+01 -0.9459041712362E-02
-0.1600138981583E+00 -0.8675161276740E+01 -0.1767035061311E+01 -0.7643938875237E-01
-0.1701128375021E+00 -0.8532634972470E+01 -0.1740549587931E+01 -0.1500333450547E+00
-0.1833570799490E+00 -0.8390643872174E+01 -0.1714800215977E+01 -0.2296199736947E+00
-0.2008595751427E+00 -0.8250725406208E+01 -0.1690317021458E+01 -0.3148688198787E+00
-0.2231127581238E+00 -0.8114061085406E+01 -0.1667434793553E+01 -0.4057450391914E+00
-0.2502502663236E+00 -0.7981444437467E+01 -0.1646338965291E+01 -0.5026147699314E+00
-0.2826754261319E+00 -0.7852909657473E+01 -0.1627117040967E+01 -0.6061835858337E+00
-0.3215352939654E+00 -0.7727177305544E+01 -0.1609742543889E+01 -0.7169509030858E+00
-0.3683763026702E+00 -0.7601513512249E+01 -0.1593977986736E+01 -0.8345857271922E+00
-0.4242802051158E+00 -0.7471480544012E+01 -0.1579152173357E+01 -0.9575325764810E+00
-0.4889498708817E+00 -0.7330210971728E+01 -0.1563832191825E+01 -0.1082486781626E+01
-0.5594660148342E+00 -0.7167668862616E+01 -0.1545426998519E+01 -0.1203465278490E+01
-0.6284511531866E+00 -0.6969992960883E+01 -0.1519688845459E+01 -0.1310707069937E+01
-0.6821911018567E+00 -0.6717720598061E+01 -0.1479982362037E+01 -0.1389237938150E+01
-0.6984227551987E+00 -0.6379420115353E+01 -0.1415568595204E+01 -0.1413815487331E+01
-0.6339331536267E+00 -0.5895233788446E+01 -0.1305833407873E+01 -0.1328946604052E+01
-0.3557333466240E+00 -0.5172330032946E+01 -0.1105612692389E+01 -0.9969040321449E+00
 0.6037949886007E+00 -0.4195310930307E+01 -0.7183031990447E+00 -0.1534693253891E+00
 0.3441462220763E+01 -0.3354560111451E+01  0.1738042212131E-01  0.1274531188247E+01
 0.9343794270257E+01 -0.3233935365708E+01  0.1221971799119E+01  0.1978664875188E+01
-0.2522827663493E+01 -0.1287979188695E+02 -0.3080523955993E+01  0.2073003689745E+01
-0.1334392050558E+01 -0.1301543922870E+02 -0.2869966298618E+01  0.1786705632364E+01
-0.5668167945183E+00 -0.1273703188722E+02 -0.2660769775996E+01  0.1235939941621E+01
-0.2557764665324E+00 -0.1229047245560E+02 -0.2509249821817E+01  0.8418688187572E+00
-0.1365511811445E+00 -0.1188954349534E+02 -0.2405218971138E+01  0.6248867513936E+00
-0.7961870582896E-01 -0.1156037942782E+02 -0.2327999661419E+01  0.4998656702335E+00
-0.4917711841155E-01 -0.1128279283546E+02 -0.2266394024546E+01  0.4222057675871E+00
-0.3225011321865E-01 -0.1104194755421E+02 -0.2214839566490E+01  0.3717916910486E+00
-0.2257483852796E-01 -0.1082745245038E+02 -0.2170005490116E+01  0.3372511930396E+00
-0.1724474865665E-01 -0.1063234094836E+02 -0.2129917171143E+01  0.3119490965966E+00
-0.1480792322239E-01 -0.1045221116501E+02 -0.2093403848840E+01  0.2916848958512E+00
-0.1461059659539E-01 -0.1028442234045E+02 -0.2059806618103E+01  0.2734899632744E+00
-0.1660134700223E-01 -0.1012757566627E+02 -0.2028835432887E+01  0.2549349916068E+00
-0.2150343664825E-01 -0.9980935961068E+01 -0.2000487909353E+01  0.2336489533071E+00
-0.3113485486326E-01 -0.9843407860448E+01 -0.1974908572491E+01  0.2073975777114E+00
-0.4742159172917E-01 -0.9712420478378E+01 -0.1951968443108E+01  0.1752333339448E+00
-0.6935604070255E-01 -0.9584489109982E+01 -0.1930769058908E+01  0.1380208680977E+00
-0.9181920288419E-01 -0.9456857326730E+01 -0.1909735334380E+01  0.9630973475016E-01
-0.1095017392069E+00 -0.9327299906214E+01 -0.1887360357208E+01  0.4870664996518E-01
-0.1210596004577E+00 -0.9193818869571E+01 -0.1862975721766E+01 -0.6453067783812E-02
-0.1286648114068E+00 -0.9055887732707E+01 -0.1836910536195E+01 -0.6933592279132E-01
-0.1353799864495E+00 -0.8914928642648E+01 -0.1810061752791E+01 -0.1389962111123E+00
-0.1436729762314E+00 -0.8773530416898E+01 -0.1783440705201E+01 -0.2144535283904E+00
-0.1552041452037E+00 -0.8634451180066E+01 -0.1757931091249E+01 -0.2952075115501E+00
-0.1709715831271E+00 -0.8500020816335E+01 -0.1734198505734E+01 -0.3812127570889E+00
-0.1913563790293E+00 -0.8372028711261E+01 -0.1712677043579E+01 -0.4727388582255E+00
-0.2163309606153E+00 -0.8251883294926E+01 -0.1693642876346E+01 -0.5704847431853E+00
-0.2462323163742E+00 -0.8140426307861E+01 -0.1677331749841E+01 -0.6756375833382E+00
-0.2824269614132E+00 -0.8037482280383E+01 -0.1663981873155E+01 -0.7893612201351E+00
-0.3269364317316E+00 -0.7941728414082E+01 -0.1653732993805E+01 -0.9122143172567E+00
-0.3815388047030E+00 -0.7850304627635E+01 -0.1646368711001E+01 -0.1043942657972E+01
-0.4470583705040E+00 -0.7757857990662E+01 -0.1640983296686E+01 -0.1183086785746E+01
-0.5223532438550E+00 -0.7655638438631E+01 -0.1635598360869E+01 -0.1326007162475E+01
-0.6024800683029E+00 -0.7530977088819E+01 -0.1626691455664E+01 -0.1465820220116E+01
-0.6773242369845E+00 -0.7366007965595E+01 -0.1608666464487E+01 -0.1591902986205E+01
-0.7322792196149E+00 -0.7130729696199E+01 -0.1572601806596E+01 -0.1687022333075E+01
-0.7456964057966E+00 -0.6761494859963E+01 -0.1501438275525E+01 -0.1711203935730E+01
-0.6471772996285E+00 -0.6124713350300E+01 -0.1354378150168E+01 -0.1542903184300E+01
-0.3853332573471E-01 -0.5059159688042E+01 -0.1019538617948E+01 -0.8310490581077E+00
 0.2626445879006E+01 -0.3876978776647E+01 -0.2501065832551E+00  0.8383712449281E+00
 0.9681295562532E+01 -0.3568137405397E+01  0.1222631649646E+01  0.2044362913908E+01
-0.2523702166917E+01 -0.1364255972291E+02 -0.3233252426144E+01  0.2218084520988E+01
-0.1109138293089E+01 -0.1365353983564E+02 -0.2952535669742E+01  0.1719787371090E+01
-0.3651686656023E+00 -0.1313287173113E+02 -0.2699608119573E+01  0.1034792813250E+01
-0.1527667295309E+00 -0.1255313471482E+02 -0.2541180326737E+01  0.6611191330447E+00
-0.8257550094428E-01 -0.1211496762649E+02 -0.2439508661839E+01  0.4853254906628E+00
-0.4693884120131E-01 -0.1177316381661E+02 -0.2364020566789E+01  0.3856831988519E+00
-0.2871298338999E-01 -0.1149085349545E+02 -0.2303913330098E+01  0.3253351898748E+00
-0.1871547162450E-01 -0.1124868876714E+02 -0.2253480881333E+01  0.2869327527072E+00
-0.1303292885515E-01 -0.1103377586950E+02 -0.2209361792594E+01  0.2608701901474E+00
-0.9968941712992E-02 -0.1083843857181E+02 -0.2169681535036E+01  0.2418988191169E+00
-0.8627476851342E-02 -0.1065802868985E+02 -0.2133331265130E+01  0.2266607464714E+00
-0.8644715773016E-02 -0.1048998884290E+02 -0.2099726743024E+01  0.2128013662734E+00
-0.1002556595580E-01 -0.1033325309835E+02 -0.2068655763687E+01  0.1983260550389E+00
-0.1339096132681E-01 -0.1018781619331E+02 -0.2040241461330E+01  0.1810472966361E+00
-0.2068307781702E-01 -0.1005370962547E+02 -0.2014878570682E+01  0.1583255124105E+00
-0.3456284064681E-01 -0.9929102906794E+01 -0.1992733179182E+01  0.1283193639662E+00
-0.5457755648946E-01 -0.9809712699277E+01 -0.1972858080551E+01  0.9130957939626E-01
-0.7513806275754E-01 -0.9690439488331E+01 -0.1953115539321E+01  0.4779070691446E-01
-0.9042270336647E-01 -0.9566665412958E+01 -0.1931417652045E+01 -0.3329715967311E-02
-0.9945657957666E-01 -0.9435550437739E+01 -0.1907001431880E+01 -0.6279154772602E-01
-0.1049503367777E+00 -0.9297525363298E+01 -0.1880495168037E+01 -0.1295320890547E+00
-0.1100188417038E+00 -0.9155767594219E+01 -0.1853157314799E+01 -0.2018491044923E+00
-0.1168768603953E+00 -0.9014494769516E+01 -0.1826274353196E+01 -0.2786355340404E+00
-0.1269280460469E+00 -0.8877690556199E+01 -0.1800923747285E+01 -0.3596537822328E+00
-0.1410335485862E+00 -0.8748526921091E+01 -0.1777912120428E+01 -0.4452698577138E+00
-0.1594790748387E+00 -0.8629349238366E+01 -0.1757765688834E+01 -0.5361147197473E+00
-0.1820457383050E+00 -0.8522081462714E+01 -0.1740825466144E+01 -0.6331642031898E+00
-0.2089189338270E+00 -0.8428398975320E+01 -0.1727463607571E+01 -0.7379566618798E+00
-0.2415829152243E+00 -0.8349526801562E+01 -0.1718221968961E+01 -0.8521784916286E+00
-0.2823694841745E+00 -0.8286077739914E+01 -0.1713689470354E+01 -0.9771955000785E+00
-0.3335057709157E+00 -0.8237402555468E+01 -0.1714181690820E+01 -0.1114104129336E+01
-0.3966701771777E+00 -0.8200399077917E+01 -0.1719413876640E+01 -0.1263463952924E+01
-0.4723078754021E+00 -0.8168526439291E+01 -0.1728166888690E+01 -0.1424267016890E+01
-0.5576062763762E+00 -0.8131371678126E+01 -0.1737795616796E+01 -0.1592649747218E+01
-0.6448374853255E+00 -0.8074909569490E+01 -0.1743949436950E+01 -0.1762209624481E+01
-0.7249892300519E+00 -0.7976064786135E+01 -0.1740210829168E+01 -0.1924413075184E+01
-0.7911821384307E+00 -0.7781866125989E+01 -0.1714609678434E+01 -0.2058083751837E+01
-0.8392595887199E+00 -0.7357406852710E+01 -0.1639333312714E+01 -0.2093546204717E+01
-0.6685487635718E+00 -0.6369197107952E+01 -0.1407549195279E+01 -0.1681836117229E+01
 0.1497863328781E+01 -0.4799100824119E+01 -0.6602475089060E+00  0.8603035012775E-01
 0.1000124346189E+02 -0.4131759948017E+01  0.1173896720267E+01  0.2048345867983E+01
-0.2483689216268E+01 -0.1463024083901E+02 -0.3422786062059E+01  0.2366924998271E+01
-0.7854466860972E+00 -0.1432707528130E+02 -0.3022504438518E+01  0.1524034928693E+01
-0.1587113360491E+00 -0.1343690497973E+02 -0.2719123303675E+01  0.7457028945696E+00
-0.7636429510810E-01 -0.1275957644237E+02 -0.2567188185749E+01  0.4644160174668E+00
-0.4143931800642E-01 -0.1231254015314E+02 -0.2470795931047E+01  0.3417770387546E+00
-0.2230314980301E-01 -0.1196723545146E+02 -0.2397907755984E+01  0.2699125202791E+00
-0.1391974636148E-01 -0.1168726392199E+02 -0.2340236768542E+01  0.2286487095799E+00
-0.8903197204895E-02 -0.1144747005456E+02 -0.2291274684495E+01  0.2023471861800E+00
-0.6213852072016E-02 -0.1123445864408E+02 -0.2248134532731E+01  0.1847438150078E+00
-0.4757618620943E-02 -0.1104024258371E+02 -0.2209000073382E+01  0.1719487076179E+00
-0.4164130792949E-02 -0.1086028775837E+02 -0.2172890410211E+01  0.1616211962202E+00
-0.4249629316555E-02 -0.1069227982401E+02 -0.2139305922544E+01  0.1520746029018E+00
-0.5039046249054E-02 -0.1053555741097E+02 -0.2108119322858E+01  0.1418489831407E+00
-0.6899403905231E-02 -0.1039092554042E+02 -0.2079565019854E+01  0.1291752476002E+00
-0.1157273579968E-01 -0.1026012251476E+02 -0.2054339080725E+01  0.1111941799060E+00
-0.2232299669940E-01 -0.1014325240682E+02 -0.2033115111000E+01  0.8473179722579E-01
-0.3946557466039E-01 -0.1003549679572E+02 -0.2014992504103E+01  0.4850056486029E-01
-0.5720216108154E-01 -0.9927643073338E+01 -0.1996969076641E+01  0.2362397936239E-02
-0.6952794756991E-01 -0.9810806083320E+01 -0.1976066835624E+01 -0.5398773990889E-01
-0.7609961193231E-01 -0.9681282413174E+01 -0.1951476434100E+01 -0.1192907539162E+00
-0.8001295737602E-01 -0.9541535711258E+01 -0.1924309762401E+01 -0.1906082919985E+00
-0.8408450580131E-01 -0.9397334592870E+01 -0.1896283847991E+01 -0.2654876122607E+00
-0.9005173652122E-01 -0.9254882330760E+01 -0.1868986841306E+01 -0.3429130038934E+00
-0.9896342302236E-01 -0.9119512374866E+01 -0.1843695187051E+01 -0.4231028388117E+00
-0.1115367298095E+00 -0.8995282101524E+01 -0.1821363793407E+01 -0.5069996994394E+00
-0.1280263675566E+00 -0.8885001471749E+01 -0.1802605594722E+01 -0.5957063109400E+00
-0.1480483684588E+00 -0.8790844371701E+01 -0.1787778574672E+01 -0.6904082034470E+00
-0.1715668849221E+00 -0.8715218295708E+01 -0.1777357062611E+01 -0.7927389079785E+00
-0.2000530074768E+00 -0.8661149245333E+01 -0.1772240476970E+01 -0.9046286940394E+00
-0.2359260871588E+00 -0.8631871962114E+01 -0.1773559636283E+01 -0.1028122061934E+01
-0.2815432503388E+00 -0.8629618462856E+01 -0.1782232369196E+01 -0.1165699131781E+01
-0.3391335335595E+00 -0.8654318125970E+01 -0.1798690358709E+01 -0.1320058286629E+01
-0.4103966677390E+00 -0.8702654056020E+01 -0.1822610171911E+01 -0.1493003440699E+01
-0.4947665762408E+00 -0.8767613339776E+01 -0.1852476010807E+01 -0.1683981424881E+01
-0.5853346765260E+00 -0.8839756571605E+01 -0.1885018277715E+01 -0.1889284223783E+01
-0.6761819238691E+00 -0.8909769719245E+01 -0.1917190357191E+01 -0.2108130153592E+01
-0.7681388878873E+00 -0.8947877250071E+01 -0.1943203256548E+01 -0.2334073790478E+01
-0.8811871809701E+00 -0.8885471794926E+01 -0.1953331824286E+01 -0.2560726387468E+01
-0.1134000967481E+01 -0.8334222240482E+01 -0.1893644669810E+01 -0.2636161166256E+01
 0.1881414174193E-02 -0.6555852697559E+01 -0.1310794276209E+01 -0.1176747174769E+01
 0.1023075083304E+02 -0.5255961368373E+01  0.9949579077595E+00  0.1813986755959E+01
-0.2385638644449E+01 -0.1604925077574E+02 -0.3686977938978E+01  0.2468708175301E+01
-0.3260299266745E+00 -0.1490604072104E+02 -0.3046414174937E+01  0.1066730558819E+01
-0.3670237175029E-02 -0.1356487524967E+02 -0.2713709137807E+01  0.3882403986251E+00
-0.3876570976228E-01 -0.1292292597810E+02 -0.2592338376201E+01  0.2773366044134E+00
-0.1006855951409E-01 -0.1247713332612E+02 -0.2497440414342E+01  0.1955129971040E+00
-0.7947133909605E-02 -0.1214381638630E+02 -0.2430352740257E+01  0.1571116507610E+00
-0.4278088039300E-02 -0.1187230977661E+02 -0.2375317608325E+01  0.1336668932648E+00
-0.2875383587591E-02 -0.1163881211593E+02 -0.2328337534599E+01  0.1191908934777E+00
-0.1966227803424E-02 -0.1142989058115E+02 -0.2286371395860E+01  0.1094942359915E+00
-0.1524301916318E-02 -0.1123806575309E+02 -0.2247918044499E+01  0.1024614790594E+00
-0.1354605956582E-02 -0.1105920397246E+02 -0.2212111748646E+01  0.9672892305811E-01
-0.1416787397967E-02 -0.1089139909385E+02 -0.2178563208713E+01  0.9132147485270E-01
-0.1737631388068E-02 -0.1073444400409E+02 -0.2147236359093E+01  0.8535442323081E-01
-0.2390318836756E-02 -0.1058982351649E+02 -0.2118442798632E+01  0.7774193801149E-01
-0.4458526394085E-02 -0.1046134389955E+02 -0.2093160516380E+01  0.6603202780366E-01
-0.1125549169288E-01 -0.1035336980360E+02 -0.2072925089949E+01  0.4549387995271E-01
-0.2397441449424E-01 -0.1026192667813E+02 -0.2057180249180E+01  0.1124038773379E-01
-0.3732775662707E-01 -0.1017015862896E+02 -0.2041497307537E+01 -0.3897609804138E-01
-0.4599545691253E-01 -0.1006136991112E+02 -0.2021473103729E+01 -0.1033884652057E+00
-0.5050761081256E-01 -0.9931801789951E+01 -0.1996461909902E+01 -0.1766607963240E+00
-0.5378209242552E-01 -0.9787957418719E+01 -0.1968347931560E+01 -0.2533372027162E+00
-0.5779631491392E-01 -0.9639174703086E+01 -0.1939394232499E+01 -0.3305372139747E+00
-0.6360519993148E-01 -0.9493926106431E+01 -0.1911506289756E+01 -0.4077068697234E+00
-0.7183111603592E-01 -0.9358933396233E+01 -0.1886152930560E+01 -0.4857502135867E+00
-0.8303768871516E-01 -0.9239196680415E+01 -0.1864446901609E+01 -0.5663644499202E+00
-0.9756661276088E-01 -0.9137937837648E+01 -0.1847100917606E+01 -0.6513502493752E+00
-0.1150189326426E+00 -0.9057004701379E+01 -0.1834404754139E+01 -0.7420880788690E+00
-0.1351139388247E+00 -0.8999130696133E+01 -0.1826848954214E+01 -0.8397996911749E+00
-0.1591042799802E+00 -0.8969836040714E+01 -0.1825788091345E+01 -0.9461374587782E+00
-0.1891704997752E+00 -0.8975942252781E+01 -0.1833022577825E+01 -0.1063733039527E+01
-0.2274532252956E+00 -0.9023141576024E+01 -0.1850118987833E+01 -0.1196521576106E+01
-0.2763361954370E+00 -0.9115150675129E+01 -0.1878297402102E+01 -0.1349311332451E+01
-0.3385342643874E+00 -0.9253138122253E+01 -0.1918334505913E+01 -0.1526866605832E+01
-0.4151834299023E+00 -0.9434559993393E+01 -0.1969948714014E+01 -0.1732153326910E+01
-0.5028531253051E+00 -0.9654490353523E+01 -0.2031468726037E+01 -0.1963902850011E+01
-0.5867465897585E+00 -0.9915707241133E+01 -0.2100490797478E+01 -0.2218069639906E+01
-0.6916485855778E+00 -0.1024394428978E+02 -0.2187118607661E+01 -0.2510025422861E+01
-0.7679050042103E+00 -0.1064107708805E+02 -0.2281796452454E+01 -0.2824764755070E+01
-0.1171172097710E+01 -0.1110919507759E+02 -0.2456073471659E+01 -0.3422591570474E+01
-0.1730325098104E+01 -0.1003199810828E+02 -0.2352464676332E+01 -0.3102918804644E+01
 0.1017151547601E+02 -0.8052126412573E+01  0.4238778190037E+00  0.7568970745840E+00
-0.2281427795388E+01 -0.1850108715818E+02 -0.4156503052651E+01  0.2273949178362E+01
 0.3357273098605E+00 -0.1471616587962E+02 -0.2876087756809E+01  0.9037446111861E-01
-0.6398582127755E-01 -0.1362762845378E+02 -0.2738322895816E+01  0.1425751333137E+00
 0.1081911048665E-01 -0.1302285058808E+02 -0.2602406334297E+01  0.7900626977679E-01
-0.3267031752197E-02 -0.1261422047667E+02 -0.2523497539288E+01  0.6050105977156E-01
 0.2265335438492E-03 -0.1230351408488E+02 -0.2460657546935E+01  0.4898974222323E-01
-0.3567439011141E-03 -0.1204720564029E+02 -0.2409512512743E+01  0.4249811633640E-01
-0.1042662092363E-03 -0.1182346614834E+02 -0.2364714118147E+01  0.3842757865230E-01
-0.1033269583881E-03 -0.1162066970293E+02 -0.2324154640610E+01  0.3572446208010E-01
-0.7457202920680E-04 -0.1143234177886E+02 -0.2286483304249E+01  0.3375064766542E-01
-0.7506780194122E-04 -0.1125508840940E+02 -0.2251032728983E+01  0.3210833732755E-01
-0.8736544432653E-04 -0.1108753846267E+02 -0.2217525198667E+01  0.3050128443338E-01
-0.1204544219053E-03 -0.1092995261781E+02 -0.2186014647021E+01  0.2864727602635E-01
-0.1773032306192E-03 -0.1078433406291E+02 -0.2156902305369E+01  0.2618037515496E-01
-0.3429533600561E-03 -0.1065568316460E+02 -0.2131205255348E+01  0.2232565290012E-01
-0.2412768096134E-02 -0.1055653645251E+02 -0.2111789875590E+01  0.1193980805197E-01
-0.8063987312015E-02 -0.1048915705969E+02 -0.2099444240685E+01 -0.1770708478426E-01
-0.1430354081290E-01 -0.1042099241035E+02 -0.2087059221333E+01 -0.7490314302056E-01
-0.1857470494642E-01 -0.1032053417014E+02 -0.2067821805830E+01 -0.1520839620603E+00
-0.2213596573086E-01 -0.1018794512859E+02 -0.2042016249292E+01 -0.2359961178458E+00
-0.2624651691296E-01 -0.1003670665915E+02 -0.2012590665202E+01 -0.3187345158150E+00
-0.3146815205425E-01 -0.9880685135419E+01 -0.1982430687035E+01 -0.3977609919926E+00
-0.3803585563723E-01 -0.9730719020676E+01 -0.1953751004376E+01 -0.4735209755246E+00
-0.4616034977463E-01 -0.9594832156823E+01 -0.1928198530052E+01 -0.5478561261112E+00
-0.5618037591009E-01 -0.9478981223726E+01 -0.1907032348344E+01 -0.6233059380877E+00
-0.6865142137985E-01 -0.9387115281432E+01 -0.1891153368743E+01 -0.7028044043397E+00
-0.8360329743329E-01 -0.9319607294730E+01 -0.1880642146456E+01 -0.7882333009506E+00
-0.1005989571669E+00 -0.9278216161591E+01 -0.1875763051703E+01 -0.8792997598317E+00
-0.1202537092768E+00 -0.9272635994950E+01 -0.1878577968838E+01 -0.9763698532261E+00
-0.1440079158555E+00 -0.9314655925370E+01 -0.1891732796434E+01 -0.1082951840800E+01
-0.1734725531223E+00 -0.9413477058961E+01 -0.1917389950988E+01 -0.1204562879524E+01
-0.2108879623257E+00 -0.9577428786884E+01 -0.1957663379013E+01 -0.1347817105486E+01
-0.2591775674507E+00 -0.9813627211999E+01 -0.2014560985909E+01 -0.1520348555983E+01
-0.3218264391099E+00 -0.1012581607153E+02 -0.2089528533265E+01 -0.1729511271232E+01
-0.3977580335727E+00 -0.1051152101657E+02 -0.2181855842541E+01 -0.1976678164108E+01
-0.4813746953245E+00 -0.1097552343429E+02 -0.2291379660066E+01 -0.2247109149991E+01
-0.5325938562793E+00 -0.1160822942691E+02 -0.2428164692820E+01 -0.2527538046481E+01
-0.7032621604298E+00 -0.1260418632562E+02 -0.2661489736869E+01 -0.2888727798345E+01
-0.3837945238569E+00 -0.1418959347015E+02 -0.2914677642233E+01 -0.3325524485006E+01
-0.3233596626775E+01 -0.1702750289970E+02 -0.4052219965677E+01 -0.5359090113624E+01
 0.1067504848180E+02 -0.1596648862635E+02 -0.1058288044679E+01 -0.2668219695881E+01
-0.9998987003813E+00 -0.1313258051554E+01 -0.1087183670652E+01  0.3441822371307E+00
-0.7931841276211E+00 -0.1392709822305E+01 -0.1027370153859E+01  0.4367047281723E+00
-0.6213019388978E+00 -0.1463661068963E+01 -0.9799326112091E+00  0.5201343661175E+00
-0.4789230032859E+00 -0.1531732306964E+01 -0.9450079934206E+00  0.5934880450932E+00
-0.3597859764978E+00 -0.1600032648693E+01 -0.9211147515033E+00  0.6571741620995E+00
-0.2592038900523E+00 -0.1671094271900E+01 -0.9072401338165E+00  0.7122919337662E+00
-0.1735485562772E+00 -0.1746667782995E+01 -0.9025016771690E+00  0.7603590895641E+00
-0.1002228594885E+00 -0.1827851071201E+01 -0.9061947451258E+00  0.8031311404081E+00
-0.3747410395775E-01 -0.1915019623216E+01 -0.9176720494440E+00  0.8423708119805E+00
 0.1573086614937E-01 -0.2007862969849E+01 -0.9363020863641E+00  0.8796139823205E+00
 0.5975221772706E-01 -0.2105580702528E+01 -0.9615393854174E+00  0.9160205199078E+00
 0.9400021619935E-01 -0.2207418598650E+01 -0.9933066372325E+00  0.9523983392170E+00
 0.1177937683789E+00 -0.2312327681424E+01 -0.1031430936515E+01  0.9891167073688E+00
 0.1293561444664E+00 -0.2420294280082E+01 -0.1076740921008E+01  0.1026677701848E+01
 0.1260286215052E+00 -0.2531641129652E+01 -0.1130637875961E+01  0.1065828278321E+01
 0.1040545684019E+00 -0.2646571916571E+01 -0.1194983150609E+01  0.1107273098623E+01
 0.5834925346543E-01 -0.2765149459673E+01 -0.1272196093691E+01  0.1151108754615E+01
-0.1678421213680E-01 -0.2886950511893E+01 -0.1364755316832E+01  0.1196144674012E+01
-0.1267282174922E+00 -0.3010884966750E+01 -0.1474678192854E+01  0.1239027848466E+01
-0.2693037585596E+00 -0.3131980748479E+01 -0.1598603714253E+01  0.1274503824050E+01
-0.1037835959231E+01 -0.1360446069957E+01 -0.1127192550859E+01  0.3774552321454E+00
-0.8258291349515E+00 -0.1439043759525E+01 -0.1064490257704E+01  0.4661742366619E+00
-0.6500552488648E+00 -0.1510880028767E+01 -0.1015639577911E+01  0.5470374980506E+00
-0.5032201430369E+00 -0.1579130287648E+01 -0.9787046999395E+00  0.6191597947962E+00
-0.3799545186535E+00 -0.1647211701193E+01 -0.9527681209111E+00  0.6825733017646E+00
-0.2756701133255E+00 -0.1717522511639E+01 -0.9368005313574E+00  0.7381020527658E+00
-0.1868860519812E+00 -0.1791809639612E+01 -0.9299869726899E+00  0.7870474808026E+00
-0.1110527430638E+00 -0.1871129805061E+01 -0.9316257952557E+00  0.8309850377470E+00
-0.4644735833823E-01 -0.1955868988050E+01 -0.9410886804155E+00  0.8715293904153E+00
 0.7946511248448E-02 -0.2045798776434E+01 -0.9577905622079E+00  0.9101154494301E+00
 0.5242501931115E-01 -0.2140301573712E+01 -0.9813019780793E+00  0.9478630194153E+00
 0.8662609961959E-01 -0.2238550837548E+01 -0.1011404624261E+01  0.9855342603757E+00
 0.1096095066129E+00 -0.2339982419687E+01 -0.1048275266486E+01  0.1023574274208E+01
 0.1197139116167E+00 -0.2444460617073E+01 -0.1092630948793E+01  0.1062591324643E+01
 0.1142962768786E+00 -0.2552147180668E+01 -0.1145789921875E+01  0.1103316757772E+01
 0.8963435677389E-01 -0.2663132791221E+01 -0.1209544261122E+01  0.1146346231951E+01
 0.4101399698811E-01 -0.2777170694052E+01 -0.1285993644358E+01  0.1191577989778E+01
-0.3665684571267E-01 -0.2893632933934E+01 -0.1377236192941E+01  0.1237463664033E+01
-0.1468918823076E+00 -0.3011117959544E+01 -0.1484264621906E+01  0.1280488022958E+01
-0.2970061964631E+00 -0.3132929900334E+01 -0.1612069961406E+01  0.1316080259869E+01
-0.1072868735630E+01 -0.1403752004994E+01 -0.1164011745141E+01  0.4108132130606E+00
-0.8576005959403E+00 -0.1482971382299E+01 -0.1100068826982E+01  0.4956848557985E+00
-0.6778783535424E+00 -0.1555010142490E+01 -0.1049457590474E+01  0.5741116816776E+00
-0.5272061318215E+00 -0.1623473577441E+01 -0.1010819460790E+01  0.6449313996651E+00
-0.4001589946156E+00 -0.1691284314532E+01 -0.9829783528064E+00  0.7079800717488E+00
-0.2924588064690E+00 -0.1760837138266E+01 -0.9650490915779E+00  0.7638200201145E+00
-0.2007417754219E+00 -0.1833816482439E+01 -0.9562423787693E+00  0.8135376714923E+00
-0.1225430524379E+00 -0.1911261355960E+01 -0.9558880695225E+00  0.8585275302832E+00
-0.5618165700254E-01 -0.1993572586004E+01 -0.9633844917696E+00  0.9002636178165E+00
-0.6799131878630E-03 -0.2080600051074E+01 -0.9782015807219E+00  0.9400883532662E+00
 0.4427932854229E-01 -0.2171800372444E+01 -0.9999348880975E+00  0.9790665346717E+00
 0.7833181644946E-01 -0.2266514142742E+01 -0.1028445690749E+01  0.1017951226750E+01
 0.1005347070236E+00 -0.2364280233072E+01 -0.1063960394544E+01  0.1057255906699E+01
 0.1092035797695E+00 -0.2464976199105E+01 -0.1107213128279E+01  0.1097626864105E+01
 0.1017442132897E+00 -0.2568636037387E+01 -0.1159439154385E+01  0.1139767168136E+01
 0.7458827517311E-01 -0.2675175958073E+01 -0.1222276207863E+01  0.1184145491943E+01
 0.2337126808167E-01 -0.2784193641171E+01 -0.1297586512061E+01  0.1230447142346E+01
-0.5622714961210E-01 -0.2894912076952E+01 -0.1387035432967E+01  0.1276945285846E+01
-0.1686492625429E+00 -0.3007462713978E+01 -0.1492772625179E+01  0.1320441530059E+01
-0.3172725499546E+00 -0.3121848616834E+01 -0.1616386944291E+01  0.1356020989189E+01
-0.1105854382231E+01 -0.1444265306215E+01 -0.1198556250529E+01  0.4442975674644E+00
-0.8879753668096E+00 -0.1523932021075E+01 -0.1133596469431E+01  0.5253156110868E+00
-0.7049974402866E+00 -0.1596291759584E+01 -0.1081605921196E+01  0.6012819794565E+00
-0.5508341488725E+00 -0.1664800033974E+01 -0.1041348063296E+01  0.6707651097662E+00
-0.4203865632881E+00 -0.1732314433714E+01 -0.1011769466025E+01  0.7333599435979E+00
-0.3095360721187E+00 -0.1801079256214E+01 -0.9919892018003E+00  0.7894072620504E+00
-0.2150846219187E+00 -0.1872734540638E+01 -0.9812750039127E+00  0.8397840257648E+00
-0.1346601050544E+00 -0.1948292282483E+01 -0.9789876196596E+00  0.8857085088272E+00
-0.6664333240177E-01 -0.2028170953680E+01 -0.9845627119611E+00  0.9285186933127E+00
-0.1008726033665E-01 -0.2112272510782E+01 -0.9975090898958E+00  0.9694648964533E+00
 0.3531066667131E-01 -0.2200150042792E+01 -0.1017474504196E+01  0.1009563682239E+01
 0.6919682576005E-01 -0.2291254322785E+01 -0.1044367020953E+01  0.1049565782438E+01
 0.9061607105172E-01 -0.2385201220202E+01 -0.1078455017365E+01  0.1090033507810E+01
 0.9788946215181E-01 -0.2481848999153E+01 -0.1120460979549E+01  0.1131624910413E+01
 0.8848904262496E-01 -0.2581131836581E+01 -0.1171542110188E+01  0.1174991380621E+01
 0.5903327124136E-01 -0.2682834778437E+01 -0.1233186705254E+01  0.1220470443650E+01
 0.5554489488359E-02 -0.2786449073904E+01 -0.1307020451360E+01  0.1267580618593E+01
-0.7607796607660E-01 -0.2891484426495E+01 -0.1394754320971E+01  0.1314564201700E+01
-0.1894112519400E+00 -0.2997660701880E+01 -0.1497923814496E+01  0.1358203690752E+01
-0.3367806975472E+00 -0.3105205431685E+01 -0.1617733476636E+01  0.1393594920312E+01
-0.1136871694137E+01 -0.1482139004502E+01 -0.1230935025238E+01  0.4778267928486E+00
-0.9170342821010E+00 -0.1562114897817E+01 -0.1165200111606E+01  0.5550355682230E+00
-0.7313390679096E+00 -0.1634704891244E+01 -0.1112040657982E+01  0.6285222114997E+00
-0.5741304163153E+00 -0.1703209784862E+01 -0.1070349891838E+01  0.6966160968254E+00
-0.4406080373921E+00 -0.1770360864061E+01 -0.1039155381047E+01  0.7586757046699E+00
-0.3268728790773E+00 -0.1838308195406E+01 -0.1017635102426E+01  0.8148240872758E+00
-0.2298787774783E+00 -0.1908617759262E+01 -0.1005093369719E+01  0.8657419741739E+00
-0.1473666595648E+00 -0.1982274752336E+01 -0.1000931461055E+01  0.9124774862321E+00
-0.7778738063164E-01 -0.2059705826830E+01 -0.1004621804959E+01  0.9562363145025E+00
-0.2023716743607E-01 -0.2140861497529E+01 -0.1015716369957E+01  0.9981796288007E+00
 0.2556703901449E-01 -0.2225374499403E+01 -0.1033909503760E+01  0.1039279069555E+01
 0.5927262312693E-01 -0.2312783895829E+01 -0.1059150295484E+01  0.1080282320887E+01
 0.7992146582097E-01 -0.2402752606610E+01 -0.1091730633402E+01  0.1121783771364E+01
 0.8585466022575E-01 -0.2495113807600E+01 -0.1132351796394E+01  0.1164434742100E+01
 0.7463290611420E-01 -0.2589720072008E+01 -0.1182090964972E+01  0.1208822648547E+01
 0.4308586752816E-01 -0.2686262386386E+01 -0.1242292960712E+01  0.1255164364702E+01
-0.1246854612855E-01 -0.2784244304097E+01 -0.1314455036272E+01  0.1302864022591E+01
-0.9570459377479E-01 -0.2883145638699E+01 -0.1400059605712E+01  0.1350106330124E+01
-0.2095849633789E+00 -0.2982698320831E+01 -0.1500373139773E+01  0.1393675152538E+01
-0.3555980867846E+00 -0.3083309005885E+01 -0.1616286329455E+01  0.1428866422709E+01
-0.1166011677372E+01 -0.1517512895796E+01 -0.1261256546190E+01  0.5113261570012E+00
-0.9448044389609E+00 -0.1597627940789E+01 -0.1194943215452E+01  0.5847925641464E+00
-0.7569099952106E+00 -0.1670341184346E+01 -0.1140808051498E+01  0.6557936501308E+00
-0.5970740564290E+00 -0.1738766448910E+01 -0.1097845034725E+01  0.7224470567524E+00
-0.4608062757452E+00 -0.1805500868016E+01 -0.1065164354866E+01  0.7838880062393E+00
-0.3444360089089E+00 -0.1872590518932E+01 -0.1042002465442E+01  0.8400303743185E+00
-0.2450867425112E+00 -0.1941529904036E+01 -0.1027709821271E+01  0.8913669015520E+00
-0.1606199502806E+00 -0.2013267318661E+01 -0.1021727013811E+01  0.9387834148893E+00
-0.8956885720664E-01 -0.2088232394831E+01 -0.1023566585861E+01  0.9833578931333E+00
-0.3108093307699E-01 -0.2166414883037E+01 -0.1032823030954E+01  0.1026165146673E+01
 0.1510074199716E-01 -0.2247513770943E+01 -0.1049234120943E+01  0.1068133063288E+01
 0.4862088104986E-01 -0.2331136085806E+01 -0.1072782143514E+01  0.1110003044087E+01
 0.6852463654259E-01 -0.2416975689633E+01 -0.1103771992153E+01  0.1152387496397E+01
 0.7318783142092E-01 -0.2504839478392E+01 -0.1142876271178E+01  0.1195918935294E+01
 0.6027779295787E-01 -0.2594515816281E+01 -0.1191091867941E+01  0.1241117285999E+01
 0.2682383545231E-01 -0.2685646473176E+01 -0.1249646636560E+01  0.1288095672004E+01
-0.3053665197471E-01 -0.2777716124382E+01 -0.1319878801540E+01  0.1336160405896E+01
-0.1150521090921E+00 -0.2870218618047E+01 -0.1403077238197E+01  0.1383452166521E+01
-0.2291749787505E+00 -0.2962954480853E+01 -0.1500300842208E+01  0.1426804802658E+01
-0.3738438962994E+00 -0.3056528141910E+01 -0.1612274853869E+01  0.1461786007594E+01
-0.1193347369608E+01 -0.1550495798433E+01 -0.1289606285708E+01  0.5447228773258E+00
-0.9713233500389E+00 -0.1630580264640E+01 -0.1222894695797E+01  0.6145291861984E+00
-0.7817155392423E+00 -0.1703293409482E+01 -0.1167954202938E+01  0.6830519179082E+00
-0.6196534842435E+00 -0.1771554624224E+01 -0.1123867808129E+01  0.7482190688810E+00
-0.4809561572380E+00 -0.1837812681132E+01 -0.1089821351270E+01  0.8089584448065E+00
-0.3621927230842E+00 -0.1904003051771E+01 -0.1065112011480E+01  0.8649855601945E+00
-0.2606675548163E+00 -0.1971542699365E+01 -0.1049138816804E+01  0.9166140852570E+00
-0.1743743339440E+00 -0.2041338038039E+01 -0.1041384812191E+01  0.9645751771263E+00
-0.1019378728555E+00 -0.2113814205505E+01 -0.1041403474188E+01  0.1009824407874E+01
-0.4256466072019E-01 -0.2188991417306E+01 -0.1048831354012E+01  0.1053352876907E+01
 0.3971337484241E-02 -0.2266622134455E+01 -0.1063445871879E+01  0.1096044865002E+01
 0.3730967346423E-01 -0.2346366380778E+01 -0.1085256649685E+01  0.1138631590357E+01
 0.5650506465988E-01 -0.2427938826736E+01 -0.1114573865349E+01  0.1181732481672E+01
 0.5998044691213E-01 -0.2511122457853E+01 -0.1152036742220E+01  0.1225954111591E+01
 0.4551795761133E-01 -0.2595659583377E+01 -0.1198566561070E+01  0.1271750794960E+01
 0.1035601102281E-01 -0.2681154675144E+01 -0.1255275368953E+01  0.1319143775667E+01
-0.4855301062440E-01 -0.2767087383392E+01 -0.1323350981831E+01  0.1367358905852E+01
-0.1340582501118E+00 -0.2852987521937E+01 -0.1403911509302E+01  0.1414517108007E+01
-0.2481886933403E+00 -0.2938752530709E+01 -0.1497862371504E+01  0.1457541989601E+01
-0.3914870530172E+00 -0.3025109797789E+01 -0.1605800515806E+01  0.1492287600582E+01
-0.1218948777333E+01 -0.1581187489482E+01 -0.1316064042065E+01  0.5779481268751E+00
-0.9966288219761E+00 -0.1661074574263E+01 -0.1249120593064E+01  0.6441875861278E+00
-0.8057657884063E+00 -0.1733659994954E+01 -0.1193530115152E+01  0.7102503748518E+00
-0.6418576252091E+00 -0.1801665841272E+01 -0.1148456026333E+01  0.7738919996619E+00
-0.5010325525796E+00 -0.1867383598494E+01 -0.1113155588181E+01  0.8338485164281E+00
-0.3801072998786E+00 -0.1932629464476E+01 -0.1086986276489E+01  0.8896493439428E+00
-0.2765778720124E+00 -0.1998736631771E+01 -0.1069397814066E+01  0.9414389239198E+00
-0.1885803738875E+00 -0.2066563630976E+01 -0.1059917679598E+01  0.9898018566895E+00
-0.1148401101314E+00 -0.2136524485679E+01 -0.1058141357347E+01  0.1035576958907E+01
-0.5462898148032E-01 -0.2208661292868E+01 -0.1063746426246E+01  0.1079674432097E+01
-0.7755753298696E-02 -0.2282769256835E+01 -0.1076546752032E+01  0.1122934869986E+01
 0.2541268111204E-01 -0.2358550087171E+01 -0.1096574578066E+01  0.1166075726725E+01
 0.4394628782446E-01 -0.2435733099266E+01 -0.1124139798527E+01  0.1209715297871E+01
 0.4632414880628E-01 -0.2514081632216E+01 -0.1159846014261E+01  0.1254430596513E+01
 0.3045216202091E-01 -0.2593302770078E+01 -0.1204539782732E+01  0.1300613685480E+01
-0.6219187844160E-02 -0.2672976699204E+01 -0.1259222063719E+01  0.1348205521980E+01
-0.6643269436317E-01 -0.2752591012035E+01 -0.1324941138647E+01  0.1396370026675E+01
-0.1526733823513E+00 -0.2831726469707E+01 -0.1402667926909E+01  0.1443232661881E+01
-0.2666083578621E+00 -0.2910368424562E+01 -0.1493179083952E+01  0.1485830423713E+01
-0.4084907540279E+00 -0.2989307942276E+01 -0.1596965383212E+01  0.1520292527813E+01
-0.1242884516797E+01 -0.1609683328435E+01 -0.1340706883859E+01  0.6109369029076E+00
-0.1020760173904E+01 -0.1689211639670E+01 -0.1273686749149E+01  0.6737115366910E+00
-0.8290727993891E+00 -0.1761541712405E+01 -0.1217588817455E+01  0.7373422429482E+00
-0.6636768493858E+00 -0.1829198008647E+01 -0.1171651180304E+01  0.7994253462236E+00
-0.5210096648266E+00 -0.1894308121663E+01 -0.1135199356771E+01  0.8585198091965E+00
-0.3981422435402E+00 -0.1958561312367E+01 -0.1107650668467E+01  0.9139818261786E+00
-0.2927714484438E+00 -0.2023200295528E+01 -0.1088506716906E+01  0.9657973525114E+00
-0.2031851284768E+00 -0.2089029804860E+01 -0.1077341015936E+01  0.1014413185818E+01
-0.1282169255879E+00 -0.2156446444594E+01 -0.1073791781262E+01  0.1060557555789E+01
-0.6720970882748E-01 -0.2225506693920E+01 -0.1077576706558E+01  0.1105062962256E+01
-0.2001012130562E-01 -0.2296039638724E+01 -0.1088543384453E+01  0.1148726537530E+01
 0.1300791356526E-01 -0.2367780187506E+01 -0.1106742965945E+01  0.1192249151610E+01
 0.3093434269250E-01 -0.2440468601872E+01 -0.1132481098942E+01  0.1236242190818E+01
 0.3231201779290E-01 -0.2513852180171E+01 -0.1166323873360E+01  0.1281251540373E+01
 0.1517672792189E-01 -0.2587611747606E+01 -0.1209044456185E+01  0.1327611484631E+01
-0.2280979040170E-01 -0.2661313985935E+01 -0.1261538171679E+01  0.1375194445977E+01
-0.8410059858554E-01 -0.2734464302085E+01 -0.1324725499955E+01  0.1423120329922E+01
-0.1708486384755E+00 -0.2806696555311E+01 -0.1399446237530E+01  0.1469538812204E+01
-0.2844076820846E+00 -0.2878066037426E+01 -0.1486362644400E+01  0.1511611671674E+01
-0.4248128022095E+00 -0.2949384514148E+01 -0.1585872734666E+01  0.1545720023472E+01
-0.1265223060900E+01 -0.1636077194069E+01 -0.1363611116377E+01  0.6436279664551E+00
-0.1043757815555E+01 -0.1715091842008E+01 -0.1296659335766E+01  0.7030473473988E+00
-0.8516501069434E+00 -0.1787041758222E+01 -0.1240185173482E+01  0.7642818674352E+00
-0.6851022332368E+00 -0.1854254034944E+01 -0.1193497443018E+01  0.8247790932669E+00
-0.5408611955481E+00 -0.1918687417737E+01 -0.1155987845312E+01  0.8829343906187E+00
-0.4162582516178E+00 -0.1981897543039E+01 -0.1127133220630E+01  0.9379437806572E+00
-0.3091993097646E+00 -0.2045030334765E+01 -0.1106487930122E+01  0.9896461849065E+00
-0.2181321713551E+00 -0.2108831067653E+01 -0.1093672719560E+01  0.1038360071884E+01
-0.1420056807549E+00 -0.2173673279252E+01 -0.1088369108443E+01  0.1084709915685E+01
-0.8023838290831E-01 -0.2239621470864E+01 -0.1090334128507E+01  0.1129454319720E+01
-0.3271724240049E-01 -0.2306531489990E+01 -0.1099446901435E+01  0.1173347770168E+01
 0.1766048977387E-03 -0.2374165029062E+01 -0.1115774556527E+01  0.1217072631683E+01
 0.1755712626486E-01 -0.2442270821470E+01 -0.1139615433856E+01  0.1261229406256E+01
 0.1803683028119E-01 -0.2510583374085E+01 -0.1171496872616E+01  0.1306332653348E+01
-0.2150658640137E-03 -0.2578764552061E+01 -0.1212120417350E+01  0.1352664043025E+01
-0.3932968657712E-01 -0.2646375800420E+01 -0.1262281575687E+01  0.1400038858511E+01
-0.1014868723757E+00 -0.2712944990501E+01 -0.1322782972197E+01  0.1447548681307E+01
-0.1885360543347E+00 -0.2778153749895E+01 -0.1394344204451E+01  0.1493381779625E+01
-0.3015545723065E+00 -0.2842106951950E+01 -0.1477520912653E+01  0.1534828219448E+01
-0.4404037826189E+00 -0.2905609204405E+01 -0.1572626099912E+01  0.1568492872061E+01
-0.1286033482547E+01 -0.1660463189676E+01 -0.1384853432432E+01  0.6759637635400E+00
-0.1065663218447E+01 -0.1738816492848E+01 -0.1318105460965E+01  0.7321443420845E+00
-0.8735123185632E+00 -0.1810265989647E+01 -0.1261375801660E+01  0.7910255123379E+00
-0.7061252991531E+00 -0.1876941459918E+01 -0.1214041373684E+01  0.8499144193236E+00
-0.5605602439748E+00 -0.1940628770684E+01 -0.1175558833908E+01  0.9070552842213E+00
-0.4344143516297E+00 -0.2002744200176E+01 -0.1145464516443E+01  0.9614970084474E+00
-0.3258099115578E+00 -0.2064331215806E+01 -0.1123366327012E+01  0.1012943509952E+01
-0.2333618744948E+00 -0.2126070563049E+01 -0.1108933242833E+01  0.1061595139196E+01
-0.1561401679389E+00 -0.2188307873145E+01 -0.1101890576515E+01  0.1107980219626E+01
-0.9364293388514E-01 -0.2251110482962E+01 -0.1102034103123E+01  0.1152788017437E+01
-0.4579936141362E-01 -0.2314355369423E+01 -0.1109272720680E+01  0.1196731909297E+01
-0.1299770452062E-01 -0.2377826071693E+01 -0.1123687171970E+01  0.1240474688809E+01
 0.3903336444639E-02 -0.2441278074542E+01 -0.1145566124000E+01  0.1284603355645E+01
 0.3590178112139E-02 -0.2504435870543E+01 -0.1175397472461E+01  0.1329601829656E+01
-0.1563331061813E-01 -0.2566948089143E+01 -0.1213813254809E+01  0.1375704541317E+01
-0.5569732399031E-01 -0.2628376343343E+01 -0.1261514620447E+01  0.1422680008537E+01
-0.1185251337132E+00 -0.2688271392970E+01 -0.1319194364195E+01  0.1469604288967E+01
-0.2056881709125E+00 -0.2746353580667E+01 -0.1387459619723E+01  0.1514713776184E+01
-0.3180148578919E+00 -0.2802756753113E+01 -0.1466762653452E+01  0.1555426096307E+01
-0.4552248144133E+00 -0.2858264786755E+01 -0.1557340108599E+01  0.1588548997161E+01
-0.1305385832050E+01 -0.1682936622010E+01 -0.1404511549846E+01  0.7078903770347E+00
-0.1086518831830E+01 -0.1760488661932E+01 -0.1338093518674E+01  0.7609551152588E+00
-0.8946748208351E+00 -0.1831323217186E+01 -0.1281219074620E+01  0.8175318724126E+00
-0.7267377316721E+00 -0.1897372247840E+01 -0.1233331687243E+01  0.8747942366197E+00
-0.5800791845814E+00 -0.1960245191058E+01 -0.1193952453522E+01  0.9308469098524E+00
-0.4525679261869E+00 -0.2021214027986E+01 -0.1162677515512E+01  0.9846047040172E+00
-0.3425493031520E+00 -0.2081214879055E+01 -0.1139169162748E+01  0.1035649078549E+01
-0.2488116943807E+00 -0.2140859669602E+01 -0.1123145538223E+01  0.1084073221217E+01
-0.1705510615205E+00 -0.2200462213961E+01 -0.1114376236650E+01  0.1130317742617E+01
-0.1073483130443E+00 -0.2260088632552E+01 -0.1112695361608E+01  0.1175007952532E+01
-0.5917627064961E-01 -0.2319632653488E+01 -0.1118040191509E+01  0.1218818398275E+01
-0.2643003282276E-01 -0.2378895831363E+01 -0.1130503153300E+01  0.1262391985209E+01
-0.9938349947214E-02 -0.2437639129416E+01 -0.1150361412383E+01  0.1306300579749E+01
-0.1093810694203E-01 -0.2495579249095E+01 -0.1178063154349E+01  0.1350998629759E+01
-0.3099136218951E-01 -0.2552355738134E+01 -0.1214173134072E+01  0.1396678459131E+01
-0.7183484366583E-01 -0.2607533256266E+01 -0.1259303003774E+01  0.1443070736299E+01
-0.1351514921798E+00 -0.2660683060792E+01 -0.1314042236564E+01  0.1489245825124E+01
-0.2222573486560E+00 -0.2711553505928E+01 -0.1378891098157E+01  0.1533493866195E+01
-0.3337566880712E+00 -0.2760290116233E+01 -0.1454201994335E+01  0.1573356837729E+01
-0.4692414717888E+00 -0.2807637751381E+01 -0.1540133230984E+01  0.1605827571434E+01
-0.1323351456765E+01 -0.1703594693746E+01 -0.1422664687132E+01  0.7393575134096E+00
-0.1106368069835E+01 -0.1780213784917E+01 -0.1356693468292E+01  0.7894356948972E+00
-0.9151536033041E+00 -0.1850325501006E+01 -0.1299775175729E+01  0.8437624293647E+00
-0.7469311986710E+00 -0.1915662743530E+01 -0.1251419149660E+01  0.8993836165803E+00
-0.5993895883415E+00 -0.1977655155775E+01 -0.1211211026663E+01  0.9542754818811E+00
-0.4706747763843E+00 -0.2037426126550E+01 -0.1178807421389E+01  0.1007231817919E+01
-0.3593613322417E+00 -0.2095800340331E+01 -0.1153925983182E+01  0.1057724680875E+01
-0.2644165222907E+00 -0.2153317494600E+01 -0.1136334985056E+01  0.1105751802449E+01
-0.1851664180289E+00 -0.2210256663428E+01 -0.1125848845429E+01  0.1151675369946E+01
-0.1212771374983E+00 -0.2266679779099E+01 -0.1122339747954E+01  0.1196062942387E+01
-0.7276606905702E-01 -0.2322494017546E+01 -0.1125772237848E+01  0.1239553217790E+01
-0.4003474587678E-01 -0.2377515973103E+01 -0.1136248835039E+01  0.1282769506205E+01
-0.2387996514416E-01 -0.2431511072411E+01 -0.1154033784724E+01  0.1326267578716E+01
-0.2546032769321E-01 -0.2484189850366E+01 -0.1179535580696E+01  0.1370473721977E+01
-0.4620571891231E-01 -0.2535185509672E+01 -0.1213253874357E+01  0.1415542704762E+01
-0.8766755498387E-01 -0.2584066695698E+01 -0.1255715094636E+01  0.1461174611488E+01
-0.1513039083673E+00 -0.2630421071557E+01 -0.1307410737248E+01  0.1506441210457E+01
-0.2381961778155E+00 -0.2674014405442E+01 -0.1368738970660E+01  0.1549688965329E+01
-0.3487453026739E+00 -0.2714987585243E+01 -0.1439954453669E+01  0.1588578546239E+01
-0.4824233188290E+00 -0.2754028619459E+01 -0.1521132407137E+01  0.1620271024465E+01
-0.1340003226500E+01 -0.1722536966064E+01 -0.1439393886854E+01  0.7703185129183E+00
-0.1125255319092E+01 -0.1798100091700E+01 -0.1373977039587E+01  0.8175456507071E+00
-0.9349651334237E+00 -0.1867388386481E+01 -0.1317106151014E+01  0.8696817020550E+00
-0.7666972140306E+00 -0.1931933660706E+01 -0.1268356507909E+01  0.9236501127539E+00
-0.6184621635898E+00 -0.1992982393255E+01 -0.1227378938604E+01  0.9773093359129E+00
-0.4886891884756E+00 -0.2051505598912E+01 -0.1193891547044E+01  0.1029345368004E+01
-0.3761878552964E+00 -0.2108213221954E+01 -0.1167668503346E+01  0.1079134463236E+01
-0.2801090404439E+00 -0.2163570249436E+01 -0.1148529263330E+01  0.1126591364922E+01
-0.1999121712286E+00 -0.2217819098783E+01 -0.1136333694023E+01  0.1172009967532E+01
-0.1353503044102E+00 -0.2271015569447E+01 -0.1130991957844E+01  0.1215907067577E+01
-0.8648585316940E-01 -0.2323077927773E+01 -0.1132494974170E+01  0.1258889108553E+01
-0.5372623716852E-01 -0.2373835524169E+01 -0.1140954024935E+01  0.1301560555799E+01
-0.3783478959884E-01 -0.2423057382603E+01 -0.1156619318001E+01  0.1344460518642E+01
-0.3989117525217E-01 -0.2470448927802E+01 -0.1179859845443E+01  0.1387988310313E+01
-0.6119592672879E-01 -0.2515638590048E+01 -0.1211112219813E+01  0.1432264900325E+01
-0.1031235789330E+00 -0.2558198567757E+01 -0.1250821405772E+01  0.1476965389886E+01
-0.1669219873426E+00 -0.2597728075255E+01 -0.1299385526125E+01  0.1521167667127E+01
-0.2534565794456E+00 -0.2634000077775E+01 -0.1357104625451E+01  0.1563274557739E+01
-0.3629426456590E+00 -0.2667136168804E+01 -0.1424137039186E+01  0.1601057819255E+01
-0.4947396261555E+00 -0.2697752546585E+01 -0.1500471317382E+01  0.1631830566858E+01
-0.1355415708260E+01 -0.1739865685098E+01 -0.1454782251188E+01  0.8007303784233E+00
-0.1143225961096E+01 -0.1814258911445E+01 -0.1390017886569E+01  0.8452481770913E+00
-0.9541262718506E+00 -0.1882631085934E+01 -0.1333275954777E+01  0.8952574302310E+00
-0.7860270356610E+00 -0.1946310076632E+01 -0.1284198439520E+01  0.9475640063544E+00
-0.6372667174391E+00 -0.2006355690368E+01 -0.1242502528518E+01  0.9999191871015E+00
-0.5065640096627E+00 -0.2063583194407E+01 -0.1207969182849E+01  0.1050914689067E+01
-0.3929689511246E+00 -0.2118585239180E+01 -0.1180430466449E+01  0.1099845173737E+01
-0.2958200760303E+00 -0.2171750552545E+01 -0.1159758192489E+01  0.1146555636775E+01
-0.2147126127557E+00 -0.2223283984853E+01 -0.1145858397970E+01  0.1191282619834E+01
-0.1494875688621E+00 -0.2273234241104E+01 -0.1138679247796E+01  0.1234499854984E+01
-0.1002523416499E+00 -0.2321529179777E+01 -0.1138237312184E+01  0.1276785630479E+01
-0.6741951261668E-01 -0.2368009216347E+01 -0.1144651499710E+01  0.1318726620093E+01
-0.5171779013073E-01 -0.2412446212739E+01 -0.1158157078411E+01  0.1360844872357E+01
-0.5414793139848E-01 -0.2454541061885E+01 -0.1179083823852E+01  0.1403513597891E+01
-0.7588452949696E-01 -0.2493918105758E+01 -0.1207807235507E+01  0.1446822818744E+01
-0.1181336828622E+00 -0.2530151797732E+01 -0.1244694172722E+01  0.1490426680700E+01
-0.1819467050765E+00 -0.2562847799219E+01 -0.1290053413747E+01  0.1533411854357E+01
-0.2679897357562E+00 -0.2591776911846E+01 -0.1344090320964E+01  0.1574235530350E+01
-0.3763079384944E+00 -0.2617029038314E+01 -0.1406868375532E+01  0.1610771587650E+01
-0.5061561487910E+00 -0.2639135989323E+01 -0.1478287301164E+01  0.1640469138829E+01
-0.1369665296894E+01 -0.1755686010129E+01 -0.1468915110575E+01  0.8305538184440E+00
-0.1160326402605E+01 -0.1828804891624E+01 -0.1404891704724E+01  0.8725101667641E+00
-0.9726542116299E+00 -0.1896176611849E+01 -0.1348350483615E+01  0.9204607165750E+00
-0.8049115862705E+00 -0.1958921417937E+01 -0.1299001508683E+01  0.9710984928600E+00
-0.6557721304717E+00 -0.2017908705009E+01 -0.1256629989489E+01  0.1022078325817E+01
-0.5242507279951E+00 -0.2073794945538E+01 -0.1221081463463E+01  0.1071911617674E+01
-0.4096431315446E+00 -0.2127053657316E+01 -0.1192247487741E+01  0.1119826332804E+01
-0.3114789447805E+00 -0.2177996689197E+01 -0.1170053545002E+01  0.1165611746136E+01
-0.2294908506619E+00 -0.2226791412669E+01 -0.1154452660837E+01  0.1209458751036E+01
-0.1636080820789E+00 -0.2273479429138E+01 -0.1145431127367E+01  0.1251806330811E+01
-0.1139824390495E+00 -0.2317997497964E+01 -0.1143030567497E+01  0.1293209098570E+01
-0.8103070151587E-01 -0.2360195951247E+01 -0.1147376523888E+01  0.1334237142751E+01
-0.6544599621014E-01 -0.2399848843503E+01 -0.1158688571726E+01  0.1375395034687E+01
-0.6815065675639E-01 -0.2436652756153E+01 -0.1177257601082E+01  0.1417030305212E+01
-0.9019709078665E-01 -0.2470228001292E+01 -0.1203399790225E+01  0.1459203944738E+01
-0.1326312077804E+00 -0.2500149493226E+01 -0.1237406926334E+01  0.1501551737980E+01
-0.1963204009791E+00 -0.2526024380389E+01 -0.1279502043998E+01  0.1543170082960E+01
-0.2817464012479E+00 -0.2547613158084E+01 -0.1329798989513E+01  0.1582566987112E+01
-0.3887979704597E+00 -0.2564963973923E+01 -0.1388268110339E+01  0.1617708482024E+01
-0.5166332771977E+00 -0.2578513448177E+01 -0.1454718957236E+01  0.1646163054838E+01
-0.1382830348356E+01 -0.1770106205474E+01 -0.1481880176541E+01  0.8597533000771E+00
-0.1176604125461E+01 -0.1841856172212E+01 -0.1418676336308E+01  0.8993022802288E+00
-0.9905664476069E+00 -0.1908151887165E+01 -0.1362397613887E+01  0.9452661376092E+00
-0.8233414000031E+00 -0.1969901446090E+01 -0.1312824134334E+01  0.9942298163500E+00
-0.6739463482280E+00 -0.2027779787945E+01 -0.1269811280781E+01  0.1043762748908E+01
-0.5416995594514E+00 -0.2082281807675E+01 -0.1233271239421E+01  0.1092310603678E+01
-0.4261475503400E+00 -0.2133760738946E+01 -0.1203156892913E+01  0.1139050318704E+01
-0.3270137832399E+00 -0.2182451856066E+01 -0.1179448847482E+01  0.1183730274719E+01
-0.2441692445945E+00 -0.2228486134845E+01 -0.1162148025389E+01  0.1226508131687E+01
-0.1776308912510E+00 -0.2271899001116E+01 -0.1151279046492E+01  0.1267796953697E+01
-0.1275937463356E+00 -0.2312636207029E+01 -0.1146908075172E+01  0.1308132410629E+01
-0.9447750978987E-01 -0.2350557381934E+01 -0.1149166396196E+01  0.1348069226191E+01
-0.7893883429237E-01 -0.2385438280185E+01 -0.1158257240867E+01  0.1388093915206E+01
-0.8182237945473E-01 -0.2416971162558E+01 -0.1174432961767E+01  0.1428528222292E+01
-0.1040622631002E+00 -0.2444771962861E+01 -0.1197952083163E+01  0.1469405102931E+01
-0.1465521127465E+00 -0.2468414045357E+01 -0.1229034091191E+01  0.1510343308384E+01
-0.2099869576951E+00 -0.2487501501232E+01 -0.1267819572480E+01  0.1550448520580E+01
-0.2946773129438E+00 -0.2501777757473E+01 -0.1314333879762E+01  0.1588274878000E+01
-0.4003673492096E+00 -0.2511241341888E+01 -0.1368456081345E+01  0.1621869834674E+01
-0.5261258223057E+00 -0.2516225024398E+01 -0.1429904894324E+01  0.1648903717220E+01
-0.1394991285822E+01 -0.1783237785101E+01 -0.1493767659545E+01  0.8882971084259E+00
-0.1192107734874E+01 -0.1853534520126E+01 -0.1431451856220E+01  0.9255990138604E+00
-0.1007880747523E+01 -0.1918687827548E+01 -0.1375487226794E+01  0.9696518300977E+00
-0.8413065678141E+00 -0.1979388230594E+01 -0.1325726551889E+01  0.1016937356448E+01
-0.6917563647742E+00 -0.2036111800130E+01 -0.1282098034253E+01  0.1064951226695E+01
-0.5588595201047E+00 -0.2089189292874E+01 -0.1244582938943E+01  0.1112088744921E+01
-0.4424181902419E+00 -0.2138853180960E+01 -0.1213197541388E+01  0.1157492364814E+01
-0.3423518512399E+00 -0.2185263397589E+01 -0.1187979163936E+01  0.1200885212236E+01
-0.2586698019408E+00 -0.2228516607428E+01 -0.1168977609438E+01  0.1242404778790E+01
-0.1914753903496E+00 -0.2268643926364E+01 -0.1156256075923E+01  0.1282447442773E+01
-0.1410050152658E+00 -0.2305600972865E+01 -0.1149904811505E+01  0.1321534785623E+01
-0.1076796202394E+00 -0.2339256594660E+01 -0.1150060018086E+01  0.1360207275537E+01
-0.9211842887976E-01 -0.2369387961315E+01 -0.1156908000457E+01  0.1398932516176E+01
-0.9508928451231E-01 -0.2395682895420E+01 -0.1170662921599E+01  0.1438005785041E+01
-0.1174119053621E+00 -0.2417752373559E+01 -0.1191527208071E+01  0.1477432126478E+01
-0.1598351145823E+00 -0.2435166173503E+01 -0.1219650602307E+01  0.1516813496186E+01
-0.2228920934149E+00 -0.2447521359987E+01 -0.1255094319915E+01  0.1555263331791E+01
-0.3067336678615E+00 -0.2454538925725E+01 -0.1297798115694E+01  0.1591376432086E+01
-0.4109691147426E+00 -0.2456162112682E+01 -0.1347551673472E+01  0.1623270423654E+01
-0.5345827431155E+00 -0.2452613490194E+01 -0.1403982226095E+01  0.1648698666686E+01
-0.1406230705534E+01 -0.1795195645513E+01 -0.1504670381175E+01  0.9161574120124E+00
-0.1206887011646E+01 -0.1863965449200E+01 -0.1443300652937E+01  0.9513787711946E+00
-0.1024615127126E+01 -0.1927919418138E+01 -0.1387691232754E+01  0.9935995601900E+00
-0.8587966811299E+00 -0.1987524125466E+01 -0.1337770775707E+01  0.1039203674898E+01
-0.7091681982862E+00 -0.2043051937990E+01 -0.1293543460769E+01  0.1085625310693E+01
-0.5756784842312E+00 -0.2094667111377E+01 -0.1255062426753E+01  0.1131225748862E+01
-0.4583900298270E+00 -0.2142481558531E+01 -0.1222409643428E+01  0.1175130473531E+01
-0.3574198077167E+00 -0.2186582053987E+01 -0.1195680871968E+01  0.1217053820250E+01
-0.2729145402920E+00 -0.2227034057239E+01 -0.1174975837860E+01  0.1257126762885E+01
-0.2050617310696E+00 -0.2263867192593E+01 -0.1160396591178E+01  0.1295738518340E+01
-0.1541365606912E+00 -0.2297048614702E+01 -0.1152057029513E+01  0.1333401431388E+01
-0.1205590579038E+00 -0.2326456877925E+01 -0.1150097486922E+01  0.1370642599900E+01
-0.1049098875562E+00 -0.2351870551705E+01 -0.1154686803524E+01  0.1407909500536E+01
-0.1078809168478E+00 -0.2372972901892E+01 -0.1166001291850E+01  0.1445469667694E+01
-0.1301812470120E+00 -0.2389369272181E+01 -0.1184188741017E+01  0.1483299545758E+01
-0.1724219089744E+00 -0.2400623912415E+01 -0.1209331532985E+01  0.1520983613075E+01
-0.2349837203622E+00 -0.2406323497572E+01 -0.1241414389280E+01  0.1557640728439E+01
-0.3178677392120E+00 -0.2406162652512E+01 -0.1280294280863E+01  0.1591900410888E+01
-0.4205554800506E+00 -0.2400025770933E+01 -0.1325673184600E+01  0.1621938947898E+01
-0.5419476050023E+00 -0.2388021701146E+01 -0.1377085570397E+01  0.1645572755141E+01
-0.1416633483968E+01 -0.1806098197234E+01 -0.1514683886323E+01  0.9433103333404E+00
-0.1220992965031E+01 -0.1873278340435E+01 -0.1454307509880E+01  0.9766239388569E+00
-0.1040787819248E+01 -0.1935985795345E+01 -0.1399083595310E+01  0.1017094778120E+01
-0.8758007625566E+00 -0.1994455755890E+01 -0.1349020560248E+01  0.1061014523761E+01
-0.7261468478782E+00 -0.2048751570806E+01 -0.1304202253474E+01  0.1105769282544E+01
-0.5921032191692E+00 -0.2098868824969E+01 -0.1264756857537E+01  0.1149703820914E+01
-0.4739971829272E+00 -0.2144799782103E+01 -0.1230834570442E+01  0.1191945247763E+01
-0.3721439544968E+00 -0.2186561228756E+01 -0.1202591433078E+01  0.1232216409138E+01
-0.2868258134509E+00 -0.2224191581963E+01 -0.1180178172851E+01  0.1270655929039E+01
-0.2183111945532E+00 -0.2257722773120E+01 -0.1163735961855E+01  0.1307655564086E+01
-0.1669106352378E+00 -0.2287135984384E+01 -0.1153401908297E+01  0.1343723149742E+01
-0.1330405271617E+00 -0.2312320565699E+01 -0.1149319710730E+01  0.1379372974198E+01
-0.1172415757802E+00 -0.2333056800418E+01 -0.1151640233892E+01  0.1415030745024E+01
-0.1201303973170E+00 -0.2349023369514E+01 -0.1160502267467E+01  0.1450934377214E+01
-0.1423090886750E+00 -0.2359819309381E+01 -0.1176000344104E+01  0.1487030276017E+01
-0.1842574339971E+00 -0.2365001550819E+01 -0.1198151719825E+01  0.1522883992330E+01
-0.2462124048433E+00 -0.2364143599028E+01 -0.1226867318708E+01  0.1557616911351E+01
-0.3280334860607E+00 -0.2356911051542E+01 -0.1261923929472E+01  0.1589887198258E+01
-0.4290789174792E+00 -0.2343128441141E+01 -0.1302937455247E+01  0.1617918298453E+01
-0.5481595265825E+00 -0.2322790120516E+01 -0.1349346330714E+01  0.1639568807489E+01
-0.1426286892742E+01 -0.1816067508866E+01 -0.1523906564891E+01  0.9697360250670E+00
-0.1234477884054E+01 -0.1881606576940E+01 -0.1464559692952E+01  0.1001320969163E+01
-0.1056417229677E+01 -0.1943030347082E+01 -0.1409740357501E+01  0.1040126660753E+01
-0.8923071743579E+00 -0.2000334024900E+01 -0.1359541360203E+01  0.1082358816755E+01
-0.7426562230616E+00 -0.2053366097178E+01 -0.1314130487179E+01  0.1125370044882E+01
-0.6080793899881E+00 -0.2101951517996E+01 -0.1273714523522E+01  0.1167507480441E+01
-0.4891730056494E+00 -0.2145964573537E+01 -0.1238514659076E+01  0.1207919642530E+01
-0.3864504453261E+00 -0.2185356282308E+01 -0.1208749158922E+01  0.1246356033252E+01
-0.3003266007189E+00 -0.2220143288829E+01 -0.1184620845083E+01  0.1282977539130E+01
-0.2311465264546E+00 -0.2250364647265E+01 -0.1166310248690E+01  0.1318188218982E+01
-0.1792517716020E+00 -0.2276018909575E+01 -0.1153977217226E+01  0.1352495885217E+01
-0.1450517271420E+00 -0.2297007944969E+01 -0.1147768042981E+01  0.1386402162751E+01
-0.1290453863926E+00 -0.2313114448944E+01 -0.1147815119697E+01  0.1420308873045E+01
-0.1317746518577E+00 -0.2324012657432E+01 -0.1154220032439E+01  0.1454421838351E+01
-0.1537380276723E+00 -0.2329294695165E+01 -0.1167025376774E+01  0.1488655290293E+01
-0.1952901676374E+00 -0.2328508546421E+01 -0.1186185392599E+01  0.1522553760050E+01
-0.2565318379763E+00 -0.2321212262359E+01 -0.1211539724085E+01  0.1555237911579E+01
-0.3371874615773E+00 -0.2307040901129E+01 -0.1242787327320E+01  0.1585388692621E+01
-0.4364929380849E+00 -0.2285760461574E+01 -0.1279459094594E+01  0.1611265788290E+01
-0.5531572032368E+00 -0.2257256342406E+01 -0.1320894363102E+01  0.1630749056440E+01
-0.1435280726363E+01 -0.1825229475990E+01 -0.1532439791219E+01  0.9954187530916E+00
-0.1247395385077E+01 -0.1889087707749E+01 -0.1474147049889E+01  0.1025460471718E+01
-0.1071521871945E+01 -0.1949200844503E+01 -0.1419739673130E+01  0.1062688143631E+01
-0.9083034950779E+00 -0.2005314150177E+01 -0.1369400289797E+01  0.1103228564220E+01
-0.7586590370040E+00 -0.2057054827330E+01 -0.1323385512880E+01  0.1144416954108E+01
-0.6235515271895E+00 -0.2104075490665E+01 -0.1281984695140E+01  0.1184623305164E+01
-0.5038501665318E+00 -0.2146134965350E+01 -0.1245493008825E+01  0.1223038639411E+01
-0.4002654579104E+00 -0.2183123855678E+01 -0.1214192974307E+01  0.1259458109386E+01
-0.3133407594511E+00 -0.2215043475283E+01 -0.1188340587311E+01  0.1294079842234E+01
-0.2434922375654E+00 -0.2241945875281E+01 -0.1168155910075E+01  0.1327329905498E+01
-0.1910870966091E+00 -0.2263851198535E+01 -0.1153820995791E+01  0.1359720221293E+01
-0.1565236503546E+00 -0.2280676220581E+01 -0.1145483936435E+01  0.1391739403565E+01
-0.1402570074910E+00 -0.2292207179213E+01 -0.1143258164851E+01  0.1423762760737E+01
-0.1427546525775E+00 -0.2298114240839E+01 -0.1147208376996E+01  0.1455960959319E+01
-0.1644147029805E+00 -0.2297982136466E+01 -0.1157326511604E+01  0.1488213269072E+01
-0.2054724388827E+00 -0.2291348422116E+01 -0.1173505801693E+01  0.1520040561375E+01
-0.2658993303357E+00 -0.2277753783882E+01 -0.1195516960650E+01  0.1550559353387E+01
-0.3452897378246E+00 -0.2256802220741E+01 -0.1222983217424E+01  0.1578468052638E+01
-0.4427548068200E+00 -0.2228204992769E+01 -0.1255351102623E+01  0.1602053281732E+01
-0.5568863146614E+00 -0.2191752385013E+01 -0.1291860185570E+01  0.1619199392469E+01
-0.1443707450072E+01 -0.1833714029208E+01 -0.1540388091355E+01  0.1020346988719E+01
-0.1259800454215E+01 -0.1895863656013E+01 -0.1483162128045E+01  0.1049037316600E+01
-0.1086120273722E+01 -0.1954649619849E+01 -0.1429161846354E+01  0.1084775943329E+01
-0.9237763551571E+00 -0.2009555742043E+01 -0.1378666082187E+01  0.1123618770721E+01
-0.7741166555185E+00 -0.2059980898191E+01 -0.1332025846865E+01  0.1162901593642E+01
-0.6384629516611E+00 -0.2105403978396E+01 -0.1289617453856E+01  0.1201039603764E+01
-0.5179606764674E+00 -0.2145471825276E+01 -0.1251813272645E+01  0.1237288845987E+01
-0.4135153276670E+00 -0.2180021226273E+01 -0.1218962177260E+01  0.1271509963232E+01
-0.3257932412900E+00 -0.2209045853742E+01 -0.1191374371643E+01  0.1303953579171E+01
-0.2552748718867E+00 -0.2232617729475E+01 -0.1169309519674E+01  0.1335077299376E+01
-0.2023466200684E+00 -0.2250783706416E+01 -0.1152971250523E+01  0.1365400826029E+01
-0.1673908679783E+00 -0.2263478534493E+01 -0.1142508616264E+01  0.1395398849910E+01
-0.1508161910277E+00 -0.2270493595348E+01 -0.1138015596710E+01  0.1425417007877E+01
-0.1530156704572E+00 -0.2271495661733E+01 -0.1139520323239E+01  0.1455587168057E+01
-0.1742900531886E+00 -0.2266061759994E+01 -0.1146965349287E+01  0.1485750220199E+01
-0.2147607452946E+00 -0.2253717650688E+01 -0.1160184843169E+01  0.1515400245640E+01
-0.2742763198754E+00 -0.2233984966283E+01 -0.1178882801505E+01  0.1543646147620E+01
-0.3523049381229E+00 -0.2206436908736E+01 -0.1202608664973E+01  0.1569199400599E+01
-0.4478287994075E+00 -0.2170736620704E+01 -0.1230725744331E+01  0.1590366884323E+01
-0.5593023460641E+00 -0.2126598083476E+01 -0.1262373198682E+01  0.1605024977511E+01
-0.1451662374499E+01 -0.1841655395763E+01 -0.1547859348097E+01  0.1044513512913E+01
-0.1271749482330E+01 -0.1902080987792E+01 -0.1491700317174E+01  0.1072050751965E+01
-0.1100230846149E+01 -0.1959533805375E+01 -0.1438089382569E+01  0.1106390569936E+01
-0.9387112211910E+00 -0.2013222933458E+01 -0.1387409049166E+01  0.1143527292481E+01
-0.7889888929797E+00 -0.2062311226895E+01 -0.1340111052942E+01  0.1180817484335E+01
-0.6527556508530E+00 -0.2106102898781E+01 -0.1296663515039E+01  0.1216746014997E+01
-0.5314358750043E+00 -0.2144137405641E+01 -0.1257519438714E+01  0.1250658021570E+01
-0.4261266417179E+00 -0.2176205695067E+01 -0.1223096195187E+01  0.1282500308029E+01
-0.3376102718176E+00 -0.2202302821079E+01 -0.1193759150633E+01  0.1312591426931E+01
-0.2664232426570E+00 -0.2222528883724E+01 -0.1169807496432E+01  0.1341429745714E+01
-0.2129634994614E+00 -0.2236963466065E+01 -0.1151465670877E+01  0.1369545848032E+01
-0.1775918031390E+00 -0.2245563041422E+01 -0.1138882774055E+01  0.1397398964474E+01
-0.1606670233525E+00 -0.2248126238462E+01 -0.1132132830181E+01  0.1425301364026E+01
-0.1625075394729E+00 -0.2244317481845E+01 -0.1131207757150E+01  0.1453341908543E+01
-0.1833195841003E+00 -0.2233706014924E+01 -0.1136002028660E+01  0.1481319064077E+01
-0.2231160695460E+00 -0.2215804525108E+01 -0.1146292676580E+01  0.1508696515809E+01
-0.2816288726852E+00 -0.2190113941988E+01 -0.1161719119950E+01  0.1534572132167E+01
-0.3582033698263E+00 -0.2156177430298E+01 -0.1181758973061E+01  0.1557667349984E+01
-0.4516872530994E+00 -0.2113618481798E+01 -0.1205693692344E+01  0.1576305786402E+01
-0.5603700255268E+00 -0.2062096856766E+01 -0.1232559431551E+01  0.1588347893900E+01
-0.1459243863953E+01 -0.1849192430491E+01 -0.1554965054445E+01  0.1067915536764E+01
-0.1283300289554E+01 -0.1907891259379E+01 -0.1499860024194E+01  0.1094504539489E+01
-0.1113871705955E+01 -0.1964015649510E+01 -0.1446607053400E+01  0.1127536328558E+01
-0.9530921173516E+00 -0.2016484572677E+01 -0.1395701040773E+01  0.1162954650040E+01
-0.8032337459883E+00 -0.2064216506843E+01 -0.1347701615413E+01  0.1198159726884E+01
-0.6663701004979E+00 -0.2106340625125E+01 -0.1303174037737E+01  0.1231733030436E+01
-0.5442063703507E+00 -0.2142294913896E+01 -0.1262655600393E+01  0.1263134530071E+01
-0.4380262922508E+00 -0.2171834001658E+01 -0.1226634335026E+01  0.1292418659986E+01
-0.3487194933879E+00 -0.2194964771577E+01 -0.1195531601501E+01  0.1319987389661E+01
-0.2768686360841E+00 -0.2211824663852E+01 -0.1169685848003E+01  0.1346388627232E+01
-0.2228742801576E+00 -0.2222532889272E+01 -0.1149341366717E+01  0.1372166264442E+01
-0.1870689922858E+00 -0.2227072047752E+01 -0.1134646285940E+01  0.1397761861170E+01
-0.1697581986656E+00 -0.2225250638084E+01 -0.1125654150417E+01  0.1423450099071E+01
-0.1711849336919E+00 -0.2216732234758E+01 -0.1122321066325E+01  0.1449272085024E+01
-0.1914636465699E+00 -0.2201078545245E+01 -0.1124494827301E+01  0.1474979177957E+01
-0.2305041833632E+00 -0.2177787995202E+01 -0.1131897321055E+01  0.1500000547491E+01
-0.2879281395374E+00 -0.2146338995388E+01 -0.1144105550513E+01  0.1523419656761E+01
-0.3629617115655E+00 -0.2106245340528E+01 -0.1160527311541E+01  0.1543966262839E+01
-0.4543112824704E+00 -0.2057100002494E+01 -0.1180363300939E+01  0.1559980816148E+01
-0.5600667067096E+00 -0.1998534892733E+01 -0.1202542748688E+01  0.1569306030696E+01
-0.1466553588098E+01 -0.1856469036258E+01 -0.1561820629486E+01  0.1090554843512E+01
-0.1294512136394E+01 -0.1913451464931E+01 -0.1507742888798E+01  0.1116407111361E+01
-0.1127060439573E+01 -0.1968262929163E+01 -0.1454801979616E+01  0.1148221307132E+01
-0.9669012720629E+00 -0.2019514490043E+01 -0.1403615404630E+01  0.1181903788734E+01
-0.8168070560644E+00 -0.2065871249377E+01 -0.1354858800121E+01  0.1214924568281E+01
-0.6792450274476E+00 -0.2106287783168E+01 -0.1309200417669E+01  0.1245991435805E+01
-0.5562019320654E+00 -0.2140108097742E+01 -0.1267265710795E+01  0.1274706719778E+01
-0.4491414897972E+00 -0.2167061760745E+01 -0.1229615524636E+01  0.1301254694983E+01
-0.3590500714721E+00 -0.2187179450208E+01 -0.1196727872154E+01  0.1326136143770E+01
-0.2865449819622E+00 -0.2200646361745E+01 -0.1168979928577E+01  0.1349956692122E+01
-0.2320191093960E+00 -0.2207629048246E+01 -0.1146634631184E+01  0.1373275183943E+01
-0.1957693331438E+00 -0.2208141227282E+01 -0.1129837960534E+01  0.1396512589475E+01
-0.1780432955209E+00 -0.2202004410456E+01 -0.1118622418972E+01  0.1419901304920E+01
-0.1790076598120E+00 -0.2188883376867E+01 -0.1112908784416E+01  0.1443429437949E+01
-0.1986877265836E+00 -0.2168333017233E+01 -0.1112499746772E+01  0.1466795888231E+01
-0.2368959290057E+00 -0.2139836444010E+01 -0.1117064212484E+01  0.1489390577347E+01
-0.2931506562939E+00 -0.2102847329163E+01 -0.1126119050308E+01  0.1510279113729E+01
-0.3665633651967E+00 -0.2056849930227E+01 -0.1139004245960E+01  0.1528199401289E+01
-0.4556921291409E+00 -0.2001415750487E+01 -0.1154840700496E+01  0.1541513004172E+01
-0.5583859397063E+00 -0.1936179510268E+01 -0.1172445758514E+01  0.1548051435681E+01
-0.1473696827353E+01 -0.1863634697280E+01 -0.1568545812599E+01  0.1112437958977E+01
-0.1305445717035E+01 -0.1918924610413E+01 -0.1515454050057E+01  0.1137771752626E+01
-0.1139813795430E+01 -0.1972449479207E+01 -0.1462763735369E+01  0.1168457345395E+01
-0.9801186757713E+00 -0.2022491849927E+01 -0.1411226943499E+01  0.1200379775841E+01
-0.8296620915836E+00 -0.2067453871316E+01 -0.1361644499109E+01  0.1231108880712E+01
-0.6913171093996E+00 -0.2106117063635E+01 -0.1314794057992E+01  0.1259511663308E+01
-0.5673513363412E+00 -0.2137740833990E+01 -0.1271393316831E+01  0.1285362228397E+01
-0.4593997378618E+00 -0.2162042909433E+01 -0.1232078041104E+01  0.1308997550966E+01
-0.3685327648387E+00 -0.2179091339577E+01 -0.1197383326038E+01  0.1331032346166E+01
-0.2953889888715E+00 -0.2189130614856E+01 -0.1167724210790E+01  0.1352137351840E+01
-0.2403419196090E+00 -0.2192383050706E+01 -0.1143380733148E+01  0.1372887111090E+01
-0.2036443151953E+00 -0.2188898936374E+01 -0.1124495325385E+01  0.1393678357567E+01
-0.1854810549020E+00 -0.2178516423986E+01 -0.1111078812259E+01  0.1414696112798E+01
-0.1859409671208E+00 -0.2160904242001E+01 -0.1103017245490E+01  0.1435869829956E+01
-0.2049627514177E+00 -0.2135611886616E+01 -0.1100070077085E+01  0.1456839893492E+01
-0.2422674679223E+00 -0.2102106371767E+01 -0.1101855701859E+01  0.1476951457076E+01
-0.2972784774626E+00 -0.2059813778359E+01 -0.1107833357426E+01  0.1495248463975E+01
-0.3689987008840E+00 -0.2008187152529E+01 -0.1117277348270E+01  0.1510478110121E+01
-0.4558321976400E+00 -0.1946784415580E+01 -0.1129229805349E+01  0.1521032080936E+01
-0.5553408519379E+00 -0.1875277577516E+01 -0.1142390658946E+01  0.1524747869916E+01
-0.1480782847954E+01 -0.1870845158098E+01 -0.1575265158849E+01  0.1133576358979E+01
-0.1316163129327E+01 -0.1924480446529E+01 -0.1523102476789E+01  0.1158616812064E+01
-0.1152147288996E+01 -0.1976755865306E+01 -0.1470584478792E+01  0.1188259975922E+01
-0.9927215341126E+00 -0.2025601599480E+01 -0.1418611869191E+01  0.1218389417673E+01
-0.8417490392625E+00 -0.2069146826341E+01 -0.1368121053363E+01  0.1246709536238E+01
-0.7025206087742E+00 -0.2106003039840E+01 -0.1320006111501E+01  0.1272283043669E+01
-0.5775821661921E+00 -0.2135356707004E+01 -0.1275081267168E+01  0.1295087209582E+01
-0.4687287727710E+00 -0.2156929151461E+01 -0.1234059221259E+01  0.1315635079737E+01
-0.3770999611525E+00 -0.2170841070287E+01 -0.1197532281739E+01  0.1334669915884E+01
-0.3033402406979E+00 -0.2177408850516E+01 -0.1165952069913E+01  0.1352933963198E+01
-0.2477905734632E+00 -0.2176919525386E+01 -0.1139613743569E+01  0.1371017184309E+01
-0.2106502252514E+00 -0.2169465664224E+01 -0.1118654465216E+01  0.1389287694760E+01
-0.1920356570475E+00 -0.2154906070897E+01 -0.1103062609336E+01  0.1407877808706E+01
-0.1919558748944E+00 -0.2132917014806E+01 -0.1092690255387E+01  0.1426652413175E+01
-0.2102654155806E+00 -0.2103045090867E+01 -0.1087255935272E+01  0.1445186594452E+01
-0.2466005076795E+00 -0.2064740964188E+01 -0.1086330489022E+01  0.1462774173214E+01
-0.3002992124530E+00 -0.2017399480694E+01 -0.1089318383016E+01  0.1478432806871E+01
-0.3702649922322E+00 -0.1960438575734E+01 -0.1095430674166E+01  0.1490921091602E+01
-0.4547457590036E+00 -0.1893408073677E+01 -0.1103632298560E+01  0.1498674891672E+01
-0.5509667598533E+00 -0.1816053858496E+01 -0.1112499687803E+01  0.1499568116332E+01
-0.1487925351197E+01 -0.1878263276371E+01 -0.1582108650944E+01  0.1153986725808E+01
-0.1326727808373E+01 -0.1930296397238E+01 -0.1530801372754E+01  0.1178965946145E+01
-0.1164074693607E+01 -0.1981370223156E+01 -0.1478359107129E+01  0.1207648325447E+01
-0.1004683592052E+01 -0.2029035017841E+01 -0.1425847743034E+01  0.1235940776230E+01
-0.8530143897459E+00 -0.2071136766488E+01 -0.1374351039944E+01  0.1261722658445E+01
-0.7127869353402E+00 -0.2106121967548E+01 -0.1324887180997E+01  0.1284292946727E+01
-0.5868205686276E+00 -0.2133118551903E+01 -0.1278371383407E+01  0.1303865478705E+01
-0.4770564739481E+00 -0.2151869374131E+01 -0.1235595145463E+01  0.1321153053990E+01
-0.3846856810425E+00 -0.2162564831902E+01 -0.1197207738047E+01  0.1337041302766E+01
-0.3103412507587E+00 -0.2165606779267E+01 -0.1163695571160E+01  0.1352349115687E+01
-0.2543169598234E+00 -0.2161356223375E+01 -0.1135366393223E+01  0.1367680410140E+01
-0.2167483172541E+00 -0.2149953655845E+01 -0.1112349924535E+01  0.1383369562713E+01
-0.1976769969685E+00 -0.2131282700405E+01 -0.1094611054989E+01  0.1399490827705E+01
-0.1970295255798E+00 -0.2105031744967E+01 -0.1081968794413E+01  0.1415838633469E+01
-0.2145785281822E+00 -0.2070748618774E+01 -0.1074103756345E+01  0.1431915292703E+01
-0.2498825488684E+00 -0.2027868500284E+01 -0.1070542990386E+01  0.1446955325512E+01
-0.3022059945863E+00 -0.1975750423358E+01 -0.1070639513718E+01  0.1459944005464E+01
-0.3703660355464E+00 -0.1913770250332E+01 -0.1073544051640E+01  0.1469653808119E+01
-0.4524588321301E+00 -0.1841471375557E+01 -0.1078147194878E+01  0.1474583875240E+01
-0.5453244733928E+00 -0.1758710681835E+01 -0.1082896520210E+01  0.1472690791407E+01
-0.1495243044060E+01 -0.1886060124820E+01 -0.1589212485343E+01  0.1173691267875E+01
-0.1337204424768E+01 -0.1936558749885E+01 -0.1538668688185E+01  0.1198848394967E+01
-0.1175607404720E+01 -0.1986489312238E+01 -0.1486185453201E+01  0.1226644952263E+01
-0.1015974318129E+01 -0.2032990383855E+01 -0.1433013406298E+01  0.1253042550649E+01
-0.8634002166059E+00 -0.2073614728793E+01 -0.1380397020836E+01  0.1276142720083E+01
-0.7220441472294E+00 -0.2106651552270E+01 -0.1329486975393E+01  0.1295525790537E+01
-0.5949909853897E+00 -0.2131187947740E+01 -0.1281304095321E+01  0.1311677568589E+01
-0.4843107632741E+00 -0.2147009024911E+01 -0.1236720297310E+01  0.1325534328557E+01
-0.3912255647607E+00 -0.2154393769244E+01 -0.1196441083948E+01  0.1338136750651E+01
-0.3163374753004E+00 -0.2153843921864E+01 -0.1160985253722E+01  0.1350383943802E+01
-0.2598770258836E+00 -0.2145803740525E+01 -0.1130669957344E+01  0.1362890924753E+01
-0.2219049250172E+00 -0.2130466766480E+01 -0.1105614692200E+01  0.1375952439024E+01
-0.2023809499122E+00 -0.2107745324267E+01 -0.1085759346110E+01  0.1389579611469E+01
-0.2011455804534E+00 -0.2077345496067E+01 -0.1070890803249E+01  0.1403491005022E+01
-0.2178913821944E+00 -0.2038822915193E+01 -0.1060655717082E+01  0.1417108191240E+01
-0.2521071017981E+00 -0.1991600453877E+01 -0.1054542548493E+01  0.1429596565792E+01
-0.3029975053000E+00 -0.1934995953009E+01 -0.1051856922738E+01  0.1439900381284E+01
-0.3693114471708E+00 -0.1868331414936E+01 -0.1051692142523E+01  0.1446808003420E+01
-0.4490082400932E+00 -0.1791140495104E+01 -0.1052869902872E+01  0.1448905779530E+01
-0.5385026679390E+00 -0.1703427573646E+01 -0.1053707210872E+01  0.1444297377451E+01
-0.1502860337189E+01 -0.1894416395885E+01 -0.1596720060495E+01  0.1192718122533E+01
-0.1347658718727E+01 -0.1943464169579E+01 -0.1546827753580E+01  0.1218299287003E+01
-0.1186753627877E+01 -0.1992319812622E+01 -0.1494164513245E+01  0.1245275585605E+01
-0.1026557905569E+01 -0.2037673749530E+01 -0.1440188874244E+01  0.1269703278298E+01
-0.8728433216297E+00 -0.2076776306738E+01 -0.1386321221817E+01  0.1289961450376E+01
-0.7302163791573E+00 -0.2107770638090E+01 -0.1333853894723E+01  0.1305961899237E+01
-0.6020158571974E+00 -0.2129724623265E+01 -0.1283918022561E+01  0.1318499689245E+01
-0.4904195000016E+00 -0.2142489419479E+01 -0.1237467189017E+01  0.1328757957654E+01
-0.3966568488374E+00 -0.2146453334225E+01 -0.1195261783008E+01  0.1337943563854E+01
-0.3212772822386E+00 -0.2142233127654E+01 -0.1157849889713E+01  0.1347037489523E+01
-0.2644307179449E+00 -0.2130365327511E+01 -0.1125554138509E+01  0.1356661334955E+01
-0.2260914743391E+00 -0.2111100587088E+01 -0.1098480266085E+01  0.1367063436661E+01
-0.2061296088750E+00 -0.2084382758648E+01 -0.1076540810005E+01  0.1378187347994E+01
-0.2042946886834E+00 -0.2049941824307E+01 -0.1059491158418E+01  0.1389671580128E+01
-0.2202002227658E+00 -0.2007351155904E+01 -0.1046949145320E+01  0.1400849068676E+01
-0.2532737748141E+00 -0.1956028943813E+01 -0.1038372275121E+01  0.1410803998584E+01
-0.3026778882571E+00 -0.1895247074904E+01 -0.1033024730066E+01  0.1418426642707E+01
-0.3671164943595E+00 -0.1824254068351E+01 -0.1029944161862E+01  0.1422521236071E+01
-0.4444392505987E+00 -0.1742560701837E+01 -0.1027889975038E+01  0.1421790519616E+01
-0.5306190729055E+00 -0.1650359936218E+01 -0.1025060131688E+01  0.1414569823465E+01
-0.1510908223755E+01 -0.1903524226464E+01 -0.1604783247533E+01  0.1211101869189E+01
-0.1358157252852E+01 -0.1951221644143E+01 -0.1555408077643E+01  0.1237359962090E+01
-0.1197517352009E+01 -0.1999079917336E+01 -0.1502400712781E+01  0.1263568714614E+01
-0.1036392060406E+01 -0.2043299806469E+01 -0.1447455173760E+01  0.1285930294632E+01
-0.8812742396905E+00 -0.2080821759830E+01 -0.1392185116244E+01  0.1303166509512E+01
-0.7372232099694E+00 -0.2109658769681E+01 -0.1338034527042E+01  0.1315576191814E+01
-0.6078153232849E+00 -0.2128885742023E+01 -0.1286249497432E+01  0.1324302590153E+01
-0.4953103988482E+00 -0.2138446963945E+01 -0.1237865957373E+01  0.1330798270842E+01
-0.4009183644122E+00 -0.2138862574102E+01 -0.1193697038074E+01  0.1336445377736E+01
-0.3251118996505E+00 -0.2130880032867E+01 -0.1154316205356E+01  0.1342306125915E+01
-0.2679418130090E+00 -0.2115136692792E+01 -0.1120046894885E+01  0.1349002191015E+01
-0.2292843327668E+00 -0.2091942805876E+01 -0.1090976752395E+01  0.1356727559291E+01
-0.2089114442730E+00 -0.2061274377094E+01 -0.1066987333336E+01  0.1365354662682E+01
-0.2064750954785E+00 -0.2022890955631E+01 -0.1047802041364E+01  0.1374440020565E+01
-0.2215089194926E+00 -0.1976397515944E+01 -0.1033016022035E+01  0.1383221368093E+01
-0.2533883983426E+00 -0.1921223187005E+01 -0.1022067442521E+01  0.1390687354426E+01
-0.3012557840873E+00 -0.1856593274562E+01 -0.1014189054993E+01  0.1395654409166E+01
-0.3638023431401E+00 -0.1781654231652E+01 -0.1008364587595E+01  0.1396936744929E+01
-0.4388059941518E+00 -0.1695856848218E+01 -0.1003291533369E+01  0.1393388710318E+01
-0.5218096313696E+00 -0.1599624977776E+01 -0.9970742637696E+00  0.1383687563196E+01
-0.1519525402367E+01 -0.1913589605175E+01 -0.1613564049452E+01  0.1228884189697E+01
-0.1368767057006E+01 -0.1960055012230E+01 -0.1564546368573E+01  0.1256078284477E+01
-0.1207897043683E+01 -0.2007001266409E+01 -0.1511002201911E+01  0.1281554941401E+01
-0.1045426531984E+01 -0.2050092798998E+01 -0.1454894081872E+01  0.1301728365256E+01
-0.8886160900541E+00 -0.2085955976265E+01 -0.1398048867624E+01  0.1315739878270E+01
-0.7429789837508E+00 -0.2112495558793E+01 -0.1342073031591E+01  0.1324336685344E+01
-0.6123069370782E+00 -0.2128825025029E+01 -0.1288332018923E+01  0.1329050327778E+01
-0.4989109903069E+00 -0.2135012272056E+01 -0.1237943930171E+01  0.1331623912991E+01
-0.4039505933314E+00 -0.2131733358804E+01 -0.1191771454481E+01  0.1333621425849E+01
-0.3277953867163E+00 -0.2119882421408E+01 -0.1150408566901E+01  0.1336183025455E+01
-0.2703776482903E+00 -0.2100205655881E+01 -0.1114174150135E+01  0.1339921618781E+01
-0.2314643780827E+00 -0.2073073597785E+01 -0.1083132845911E+01  0.1344967235332E+01
-0.2107212606945E+00 -0.2038491601131E+01 -0.1057130042377E+01  0.1351118453280E+01
-0.2076934187586E+00 -0.1996251289921E+01 -0.1035854010452E+01  0.1357851243636E+01
-0.2218301681928E+00 -0.1946006082923E+01 -0.1018883035440E+01  0.1364305274774E+01
-0.2524631966124E+00 -0.1887224338854E+01 -0.1005653139119E+01  0.1369358461428E+01
-0.2987430235921E+00 -0.1819096989838E+01 -0.9953848037874E+00  0.1371723411015E+01
-0.3593924153784E+00 -0.1740630869875E+01 -0.9870109415655E+00  0.1370205436079E+01
-0.4321773535938E+00 -0.1651145339250E+01 -0.9791616631529E+00  0.1363846798985E+01
-0.5122121434949E+00 -0.1551285534271E+01 -0.9698439060901E+00  0.1351813022915E+01
-0.1528859806673E+01 -0.1924835682249E+01 -0.1623236875676E+01  0.1246114722775E+01
-0.1379555140854E+01 -0.1970206312944E+01 -0.1574387879292E+01  0.1274508874511E+01
-0.1217884007380E+01 -0.2016331294343E+01 -0.1520081187954E+01  0.1299265948391E+01
-0.1053601340623E+01 -0.2058287390858E+01 -0.1462587700086E+01  0.1317097858807E+01
-0.8947832954208E+00 -0.2092388187999E+01 -0.1403970593646E+01  0.1327655895284E+01
-0.7473921262691E+00 -0.2116459787547E+01 -0.1346010396080E+01  0.1332202794153E+01
-0.6154054439985E+00 -0.2129691692592E+01 -0.1290195650925E+01  0.1332698941338E+01
-0.5011486504485E+00 -0.2132309179724E+01 -0.1237725177042E+01  0.1331196854942E+01
-0.4056957969884E+00 -0.2125169568809E+01 -0.1189506718908E+01  0.1329445802361E+01
-0.3292847363472E+00 -0.2109329585836E+01 -0.1146148728519E+01  0.1328657630927E+01
-0.2717088020685E+00 -0.2085651525211E+01 -0.1107959351011E+01  0.1329425074836E+01
-0.2326161963035E+00 -0.2054565659229E+01 -0.1074975469374E+01  0.1331802279858E+01
-0.2115595395652E+00 -0.2016099830701E+01 -0.1046999901370E+01  0.1335511299684E+01
-0.2079656124725E+00 -0.1970073305330E+01 -0.1023678288771E+01  0.1339952912692E+01
-0.2211876404089E+00 -0.1916201996116E+01 -0.1004573126619E+01  0.1344173257937E+01
-0.2505178053577E+00 -0.1854038998763E+01 -0.9891416954279E+00  0.1346927985192E+01
-0.2951517319962E+00 -0.1782782287909E+01 -0.9766289868784E+00  0.1346783224131E+01
-0.3539084863788E+00 -0.1701263758491E+01 -0.9659309526390E+00  0.1342491157315E+01
-0.4246234624461E+00 -0.1608539732205E+01 -0.9555866990622E+00  0.1333306546643E+01
-0.5019937254591E+00 -0.1505400062432E+01 -0.9434750779158E+00  0.1319065041237E+01
-0.1539070632276E+01 -0.1937507358001E+01 -0.1633991651286E+01  0.1262852187681E+01
-0.1390587808772E+01 -0.1981940304325E+01 -0.1585088209135E+01  0.1292713123461E+01
-0.1227460166492E+01 -0.2027335856531E+01 -0.1529754126941E+01  0.1316732850644E+01
-0.1060844596164E+01 -0.2068129232031E+01 -0.1470617695522E+01  0.1332032310093E+01
-0.8996800905572E+00 -0.2100331144724E+01 -0.1410005277006E+01  0.1338878907188E+01
-0.7503644958223E+00 -0.2121728150130E+01 -0.1349883540174E+01  0.1339123449767E+01
-0.6170226014055E+00 -0.2131629123586E+01 -0.1291866307470E+01  0.1335195065869E+01
-0.5019506786600E+00 -0.2130453588998E+01 -0.1237230002661E+01  0.1329471407070E+01
-0.4060982048725E+00 -0.2119266218492E+01 -0.1186921275971E+01  0.1323886742965E+01
-0.3295400510286E+00 -0.2099301658316E+01 -0.1141555600496E+01  0.1319715116129E+01
-0.2719091732006E+00 -0.2071544549184E+01 -0.1101423246727E+01  0.1317515044366E+01
-0.2327266948578E+00 -0.2036482945209E+01 -0.1066528528126E+01  0.1317250226453E+01
-0.2114307482883E+00 -0.1994159758350E+01 -0.1036627535491E+01  0.1318562040208E+01
-0.2073171097578E+00 -0.1944405927081E+01 -0.1011309824749E+01  0.1320783723011E+01
-0.2196206902485E+00 -0.1886999174212E+01 -0.9901113337851E+00  0.1322883616175E+01
-0.2475819785439E+00 -0.1821632446067E+01 -0.9725307771004E+00  0.1323498168483E+01
-0.2904908371537E+00 -0.1747614275663E+01 -0.9579094005944E+00  0.1320994269763E+01
-0.3473598265438E+00 -0.1663600109604E+01 -0.9451511675921E+00  0.1313981185917E+01
-0.4162116026709E+00 -0.1568173320995E+01 -0.9326609117573E+00  0.1301912568363E+01
-0.4913200887125E+00 -0.1462043303393E+01 -0.9180807919608E+00  0.1285517782730E+01
-0.1550331668871E+01 -0.1951878466359E+01 -0.1646038759383E+01  0.1279165824561E+01
-0.1401929605318E+01 -0.1995550566275E+01 -0.1596815676599E+01  0.1310758656854E+01
-0.1236595386753E+01 -0.2040302289994E+01 -0.1540141904164E+01  0.1333983496396E+01
-0.1067069658171E+01 -0.2079874531332E+01 -0.1479063765315E+01  0.1346515160736E+01
-0.9031992175478E+00 -0.2109999833154E+01 -0.1416203550238E+01  0.1349360535812E+01
-0.7517908352228E+00 -0.2128473536256E+01 -0.1353724251162E+01  0.1345035062629E+01
-0.6170672694567E+00 -0.2134773402754E+01 -0.1293365112659E+01  0.1336474489861E+01
-0.5012444381438E+00 -0.2129552087119E+01 -0.1236474363738E+01  0.1326393232068E+01
-0.4051042806778E+00 -0.2114108523509E+01 -0.1184030014965E+01  0.1316905961184E+01
-0.3285249464891E+00 -0.2089869171533E+01 -0.1136645232587E+01  0.1309335841399E+01
-0.2709560783514E+00 -0.2057945298023E+01 -0.1094583644120E+01  0.1304190607380E+01
-0.2317854967933E+00 -0.2018880192769E+01 -0.1057812871411E+01  0.1301326311616E+01
-0.2103375777779E+00 -0.1972722585602E+01 -0.1026038274186E+01  0.1300297902826E+01
-0.2057818864734E+00 -0.1919305377458E+01 -0.9987910115146E+00  0.1300374815050E+01
-0.2171899234129E+00 -0.1858418404262E+01 -0.9755359115328E+00  0.1300473183272E+01
-0.2437085275103E+00 -0.1789934879206E+01 -0.9558123987324E+00  0.1299147292368E+01
-0.2847571532778E+00 -0.1713456868802E+01 -0.9391605879955E+00  0.1294523626177E+01
-0.3397271918987E+00 -0.1627620718255E+01 -0.9246535154270E+00  0.1284906049968E+01
-0.4069939413530E+00 -0.1530222765254E+01 -0.9104918497959E+00  0.1269834321601E+01
-0.4804150918831E+00 -0.1421402193825E+01 -0.8938541220156E+00  0.1251212648108E+01
-0.1562835766652E+01 -0.1968262423063E+01 -0.1659616144957E+01  0.1295137389340E+01
-0.1413643095002E+01 -0.2011369690660E+01 -0.1609756005179E+01  0.1328717416391E+01
-0.1245242044900E+01 -0.2055539935202E+01 -0.1551367526713E+01  0.1351037960884E+01
-0.1072172748275E+01 -0.2093789067092E+01 -0.1488002049448E+01  0.1360515604254E+01
-0.9052198132552E+00 -0.2121608202196E+01 -0.1422609163654E+01  0.1359036699331E+01
-0.7515592060234E+00 -0.2136863842126E+01 -0.1357558829187E+01  0.1349859471066E+01
-0.6154451637433E+00 -0.2139251089788E+01 -0.1294707235876E+01  0.1336460597623E+01
-0.4989576493077E+00 -0.2129700322026E+01 -0.1235469243393E+01  0.1321898412559E+01
-0.4026629937346E+00 -0.2109770771372E+01 -0.1180843866605E+01  0.1308458103070E+01
-0.3262067982320E+00 -0.2081092542632E+01 -0.1131430687336E+01  0.1297494934244E+01
-0.2688311225639E+00 -0.2044905025920E+01 -0.1087455987029E+01  0.1289446848678E+01
-0.2297842845736E+00 -0.2001801153145E+01 -0.1048845153068E+01  0.1284042963133E+01
-0.2082843375995E+00 -0.1951830682157E+01 -0.1015254056711E+01  0.1280745131373E+01
-0.2033752791890E+00 -0.1894812327207E+01 -0.9861481725050E+00  0.1278758683733E+01
-0.2139999304599E+00 -0.1830542917358E+01 -0.9609351360373E+00  0.1276955801625E+01
-0.2389912356169E+00 -0.1758870339905E+01 -0.9389949381137E+00  0.1273900300401E+01
-0.2779499247559E+00 -0.1680031500635E+01 -0.9202512675998E+00  0.1267520432701E+01
-0.3308964562205E+00 -0.1593106762698E+01 -0.9042815105983E+00  0.1255572273933E+01
-0.3970136750477E+00 -0.1494958508098E+01 -0.8892269238231E+00  0.1237324508723E+01
-0.4695970041922E+00 -0.1383898854410E+01 -0.8711430513336E+00  0.1216143922997E+01
-0.1576812136340E+01 -0.1987041197039E+01 -0.1675011062440E+01  0.1310862249186E+01
-0.1425780199393E+01 -0.2029774096946E+01 -0.1624110515160E+01  0.1346660266892E+01
-0.1253335221149E+01 -0.2073386041809E+01 -0.1563558989625E+01  0.1367900931473E+01
-0.1076022617114E+01 -0.2110134855473E+01 -0.1497494008318E+01  0.1373983587879E+01
-0.9056121936168E+00 -0.2135372375090E+01 -0.1429262743667E+01  0.1367825388839E+01
-0.7495489570345E+00 -0.2147057904940E+01 -0.1361405221675E+01  0.1353501378445E+01
-0.6120597689718E+00 -0.2145177500947E+01 -0.1295901513575E+01  0.1335062791743E+01
-0.4950186621033E+00 -0.2130980848524E+01 -0.1234219766864E+01  0.1315912493662E+01
-0.3987261191022E+00 -0.2106314826973E+01 -0.1177369241669E+01  0.1298490378023E+01
-0.3225573258142E+00 -0.2073021936258E+01 -0.1125922250318E+01  0.1284162100844E+01
-0.2655201108916E+00 -0.2032465733752E+01 -0.1080053344243E+01  0.1273274407211E+01
-0.2267199233903E+00 -0.1985281057850E+01 -0.1039640458546E+01  0.1265408509720E+01
-0.2052717067720E+00 -0.1931509211221E+01 -0.1004287028910E+01  0.1259928285990E+01
-0.2001177466971E+00 -0.1870965361964E+01 -0.9734090586017E+00  0.1255971443509E+01
-0.2100570123141E+00 -0.1803398564424E+01 -0.9463241186668E+00  0.1252359215847E+01
-0.2337979253322E+00 -0.1728701529576E+01 -0.9223747414676E+00  0.1247687997198E+01
-0.2699967217866E+00 -0.1646753497193E+01 -0.9008726006353E+00  0.1240022701957E+01
-0.3206182311307E+00 -0.1559411107283E+01 -0.8836137868132E+00  0.1226400883709E+01
-0.3861451948595E+00 -0.1462604121971E+01 -0.8689121767064E+00  0.1204867269858E+01
-0.4594660770618E+00 -0.1350656295279E+01 -0.8507575128425E+00  0.1180261572663E+01
-0.1592514949808E+01 -0.2008675305536E+01 -0.1692559415719E+01  0.1326456687857E+01
-0.1438429021336E+01 -0.2051262434128E+01 -0.1640154979908E+01  0.1364639645462E+01
-0.1260723846345E+01 -0.2094121133517E+01 -0.1576777136536E+01  0.1384547347676E+01
-0.1078497166250E+01 -0.2129204131934E+01 -0.1507619606322E+01  0.1386850997626E+01
-0.9042228376381E+00 -0.2151494065296E+01 -0.1436186940736E+01  0.1375622203941E+01
-0.7456358069464E+00 -0.2159207844235E+01 -0.1365276512592E+01  0.1355846416872E+01
-0.6068119151943E+00 -0.2152653464136E+01 -0.1296948724996E+01  0.1332174279615E+01
-0.4893557622557E+00 -0.2133458663270E+01 -0.1232722776870E+01  0.1308349668759E+01
-0.3932501915642E+00 -0.2103790072624E+01 -0.1173608921192E+01  0.1286942570288E+01
-0.3175519324648E+00 -0.2065695716328E+01 -0.1120126392092E+01  0.1269301696221E+01
-0.2610138965942E+00 -0.2020661544570E+01 -0.1072387454627E+01  0.1255659569244E+01
-0.2225932279716E+00 -0.1969347050227E+01 -0.1030211928141E+01  0.1245426081062E+01
-0.2013098686744E+00 -0.1911775845881E+01 -0.9931502833221E+00  0.1237866838797E+01
-0.1960022391126E+00 -0.1847760439254E+01 -0.9605684563958E+00  0.1232052377989E+01
-0.2054188066899E+00 -0.1777060270470E+01 -0.9317651639020E+00  0.1226729855257E+01
-0.2279821019055E+00 -0.1699366481896E+01 -0.9058538320892E+00  0.1220508913939E+01
-0.2625194897023E+00 -0.1614855414357E+01 -0.8823662026698E+00  0.1211623086999E+01
-0.3068476215587E+00 -0.1522962889701E+01 -0.8600109381109E+00  0.1197802706582E+01
-0.3743697630959E+00 -0.1433562655676E+01 -0.8497282346673E+00  0.1173717259422E+01
-0.4512246777190E+00 -0.1324626956453E+01 -0.8346502659440E+00  0.1143492030613E+01
-0.1610842679797E+01 -0.2034450522302E+01 -0.1713287800641E+01  0.1341968014556E+01
-0.1451224257787E+01 -0.2075867095969E+01 -0.1657732932061E+01  0.1382606717319E+01
-0.1267433569369E+01 -0.2118221192300E+01 -0.1591257733948E+01  0.1400950543322E+01
-0.1079387455000E+01 -0.2151224804896E+01 -0.1518387758300E+01  0.1399017614512E+01
-0.9009035378244E+00 -0.2170183458934E+01 -0.1443410884816E+01  0.1382300808727E+01
-0.7396850192939E+00 -0.2173451543535E+01 -0.1369174181057E+01  0.1356758170453E+01
-0.5996020507518E+00 -0.2161764520582E+01 -0.1297842285235E+01  0.1327669453769E+01
-0.4818997720348E+00 -0.2137178540263E+01 -0.1230966803658E+01  0.1299110622062E+01
-0.3861879730533E+00 -0.2102219179417E+01 -0.1169551358695E+01  0.1273749062638E+01
-0.3111851078639E+00 -0.2059159109612E+01 -0.1114061779388E+01  0.1252873056725E+01
-0.2552960743468E+00 -0.2009504663270E+01 -0.1064456343980E+01  0.1236582961036E+01
-0.2174114866783E+00 -0.1954022140876E+01 -0.1020573802362E+01  0.1224095706430E+01
-0.1964212729990E+00 -0.1892650976950E+01 -0.9818639549855E+00  0.1214570145773E+01
-0.1910392494815E+00 -0.1825176271444E+01 -0.9476212924315E+00  0.1207034879536E+01
-0.2000186405143E+00 -0.1751468371123E+01 -0.9171988931430E+00  0.1200133330129E+01
-0.2217677856279E+00 -0.1671154378730E+01 -0.8896734149916E+00  0.1192428981310E+01
-0.2543545379420E+00 -0.1583631375590E+01 -0.8638533771688E+00  0.1182220787344E+01
-0.2978156136300E+00 -0.1490238668664E+01 -0.8403855105467E+00  0.1167953019565E+01
-0.3447284779175E+00 -0.1386405171148E+01 -0.8136328129972E+00  0.1147271382513E+01
-0.4574356762318E+00 -0.1326039427453E+01 -0.8382332966057E+00  0.1108236661559E+01
 0.3400184482403E+00  0.6495893785704E+00  0.4651156774214E+00 -0.2579916411163E-01
 0.3218409658878E-01  0.4845274595879E+00  0.2428544307871E+00 -0.3794430122852E-01
 0.7177943221346E-02  0.3420142282906E+00  0.1641203201944E+00 -0.1491441127235E-01
-0.2163547323861E-02  0.1861420465155E+00  0.8646989440077E-01  0.6089125191382E-02
-0.6253436527396E-02  0.3553751298277E-01  0.1376351589912E-01  0.2115977168558E-01
-0.8380145206615E-02 -0.1014253995414E+00 -0.5160860590066E-01  0.3054197190957E-01
-0.9392416810839E-02 -0.2201759870275E+00 -0.1078971495303E+00  0.3434218500475E-01
-0.1036048255266E-01 -0.3183822005756E+00 -0.1545090606784E+00  0.3272729858385E-01
-0.1157975080221E-01 -0.3935512246633E+00 -0.1904115579858E+00  0.2606847095028E-01
-0.1361779178203E-01 -0.4436185528756E+00 -0.2149010814440E+00  0.1515633168415E-01
-0.1883186393282E-01 -0.4666752105018E+00 -0.2281883244055E+00  0.1148827319996E-02
-0.2172217266931E-01 -0.4496958131474E+00 -0.2215664527719E+00 -0.1842575313513E-01
-0.9759946993858E-02 -0.3942901050749E+00 -0.1899035239907E+00 -0.4203677706002E-01
-0.1935673241735E-02 -0.3436503770774E+00 -0.1624254432380E+00 -0.7097030900094E-01
-0.4056088541855E-02 -0.3336845230805E+00 -0.1587380870599E+00 -0.1092050643933E+00
-0.1194890356613E+00 -0.5557294419944E+00 -0.3173526836933E+00 -0.1004003005426E+00
-0.6075026401107E+00 -0.1139305262730E+01 -0.8209997122529E+00 -0.3937085510049E-01
-0.1463265964322E+01 -0.1913960445876E+01 -0.1587296408767E+01  0.7513706214179E-02
-0.2334981222783E+01 -0.2651562535975E+01 -0.2343675560672E+01  0.2847191831599E-01
-0.3038251888981E+01 -0.3252988794412E+01 -0.2956883113695E+01  0.3472216671763E-01
 0.1658532537100E+00  0.3722527196737E+00  0.2529098068489E+00 -0.1977306510470E-01
 0.3612925334856E-01  0.3578772005952E+00  0.1851830328839E+00  0.2127373470922E-01
-0.6205799951796E-02  0.2268138420621E+00  0.1036857795288E+00  0.4408829705738E-01
-0.1149266010652E-01  0.9115115006111E-01  0.3743949018370E-01  0.6310975763041E-01
-0.1272220989498E-01 -0.4606965418322E-01 -0.2763217604667E-01  0.7469976372892E-01
-0.1165889884026E-01 -0.1751793199396E+00 -0.8781396260383E-01  0.7916985441019E-01
-0.9596146709482E-02 -0.2914170758957E+00 -0.1414762142656E+00  0.7724780547791E-01
-0.7229534298319E-02 -0.3917185470424E+00 -0.1875055977545E+00  0.6922221347232E-01
-0.5155229284118E-02 -0.4739238057014E+00 -0.2251671458721E+00  0.5528577424425E-01
-0.4260486022974E-02 -0.5364242472973E+00 -0.2541218240160E+00  0.3585324531886E-01
-0.4559856458389E-02 -0.5761065428147E+00 -0.2729132069662E+00  0.1078201188649E-01
-0.2604592927748E-02 -0.5872443285580E+00 -0.2772289923952E+00 -0.2289257169006E-01
 0.6000366713582E-02 -0.5815596326591E+00 -0.2705128543083E+00 -0.6258194818215E-01
 0.1536803691367E-01 -0.5916761095541E+00 -0.2708647934540E+00 -0.1065054219125E+00
-0.5066638975704E-02 -0.6886743146148E+00 -0.3260582473605E+00 -0.1462743721627E+00
-0.1230429014957E+00 -0.9977266629716E+00 -0.5267616939636E+00 -0.1185916895409E+00
-0.5087306582508E+00 -0.1537741653296E+01 -0.9618419839876E+00 -0.1562016226274E-01
-0.1204496656207E+01 -0.2163754300319E+01 -0.1583077945552E+01  0.8314520354262E-01
-0.2002164304413E+01 -0.2772969500461E+01 -0.2244312882598E+01  0.1369636402869E+00
-0.2721813129320E+01 -0.3328440773365E+01 -0.2843619327050E+01  0.1568747000844E+00
 0.6314776284416E-01  0.1879696876855E+00  0.1180252014496E+00 -0.2283366951792E-01
 0.6317580407165E-03  0.1931919971805E+00  0.9109716472291E-01  0.5873244557641E-01
-0.1462387802820E-01  0.1096832187059E+00  0.4467789000520E-01  0.9616079798952E-01
-0.2035979376937E-01 -0.9631814160813E-02 -0.1409605569143E-01  0.1156784854998E+00
-0.1789127739202E-01 -0.1335059941988E+00 -0.7115671746722E-01  0.1255026822066E+00
-0.1353608489572E-01 -0.2547768365038E+00 -0.1261070727379E+00  0.1268433700363E+00
-0.8097642980648E-02 -0.3679646253461E+00 -0.1767492656653E+00  0.1208334332452E+00
-0.2286362970187E-02 -0.4699175185541E+00 -0.2219358237535E+00  0.1080369757966E+00
 0.3330789863683E-02 -0.5585514899994E+00 -0.2609537284019E+00  0.8866035722338E-01
 0.8214365891093E-02 -0.6324239603374E+00 -0.2933785086456E+00  0.6280751655817E-01
 0.1250996901678E-01 -0.6899681080847E+00 -0.3184053245544E+00  0.2997737735363E-01
 0.1831214918173E-01 -0.7296312953227E+00 -0.3343199978383E+00 -0.1202000626529E-01
 0.2788434739361E-01 -0.7651005283467E+00 -0.3464916041691E+00 -0.6030881076333E-01
 0.3163102528348E-01 -0.8342701473400E+00 -0.3772403864098E+00 -0.1083128845012E+00
 0.3769388609530E-02 -0.9974052641356E+00 -0.4670088603128E+00 -0.1394926869715E+00
-0.1065644129846E+00 -0.1335533196834E+01 -0.6777858748958E+00 -0.9809280933379E-01
-0.4278888254427E+00 -0.1835551875678E+01 -0.1063817126829E+01  0.2151330516823E-01
-0.1013967534460E+01 -0.2377028459475E+01 -0.1593768113107E+01  0.1451964937786E+00
-0.1729080380947E+01 -0.2898909861058E+01 -0.2175155408225E+01  0.2247664914391E+00
-0.2417953522364E+01 -0.3384638744187E+01 -0.2727218358362E+01  0.2638245702181E+00
-0.2510552777583E-01  0.3377494067622E-01  0.4074624052850E-02 -0.2361106155704E-01
-0.3705012977752E-01  0.4190461677380E-01  0.2281608882466E-02  0.8519808702683E-01
-0.3226328689742E-01 -0.1709716334643E-01 -0.2319941155577E-01  0.1382718107212E+00
-0.2850401058438E-01 -0.1142520891263E+00 -0.6709536669384E-01  0.1632007779755E+00
-0.2259290052388E-01 -0.2258372453502E+00 -0.1167621682647E+00  0.1732904624505E+00
-0.1448765089271E-01 -0.3392018419568E+00 -0.1662340612176E+00  0.1731697409448E+00
-0.5509611659776E-02 -0.4490773795075E+00 -0.2136558853067E+00  0.1646735214123E+00
 0.3892779018341E-02 -0.5521418429356E+00 -0.2576770593875E+00  0.1487286074793E+00
 0.1327716548725E-01 -0.6464321672909E+00 -0.2975828500930E+00  0.1256848779913E+00
 0.2226014944808E-01 -0.7309973439444E+00 -0.3331064805684E+00  0.9562746702775E-01
 0.3083719517038E-01 -0.8056931696297E+00 -0.3641823070722E+00  0.5822242577177E-01
 0.4044762838483E-01 -0.8712033650688E+00 -0.3904551952511E+00  0.1227922038590E-01
 0.5002175961713E-01 -0.9430491814614E+00 -0.4197228872022E+00 -0.3853425364170E-01
 0.4978523633878E-01 -0.1056824235509E+01 -0.4733083284096E+00 -0.8425459827006E-01
 0.1857429808791E-01 -0.1260205436052E+01 -0.5835666333629E+00 -0.1051758805873E+00
-0.8393476585498E-01 -0.1605029289097E+01 -0.7938131038140E+00 -0.5503291469835E-01
-0.3593392562293E+00 -0.2068441886872E+01 -0.1141057134364E+01  0.6965057255046E-01
-0.8619917828570E+00 -0.2551636816055E+01 -0.1604405437419E+01  0.2045184954087E+00
-0.1499056118253E+01 -0.3008708230529E+01 -0.2118649238554E+01  0.3013399663822E+00
-0.2144833275939E+01 -0.3434110190078E+01 -0.2622103422377E+01  0.3567324388440E+00
-0.1055571154542E+00 -0.1011046193523E+00 -0.9713101511266E-01 -0.2093308832280E-01
-0.7754435734412E-01 -0.9731699654400E-01 -0.8218483611896E-01  0.1059244791574E+00
-0.5398124890080E-01 -0.1426315666780E+00 -0.9240802308765E-01  0.1726216836768E+00
-0.3939216619737E-01 -0.2229373115417E+00 -0.1232948542246E+00  0.2049668425382E+00
-0.2736892584341E-01 -0.3217839015484E+00 -0.1641018284579E+00  0.2177227470863E+00
-0.1516200263699E-01 -0.4275350873416E+00 -0.2080676317622E+00  0.2178146035718E+00
-0.2379536173808E-02 -0.5338785033268E+00 -0.2520412779260E+00  0.2083711265034E+00
 0.1073089280634E-01 -0.6375408663511E+00 -0.2946006868188E+00  0.1908373965002E+00
 0.2392368012333E-01 -0.7367087521355E+00 -0.3350089829960E+00  0.1658490644554E+00
 0.3686808254077E-01 -0.8309359853186E+00 -0.3732119133590E+00  0.1337014458284E+00
 0.4941505490089E-01 -0.9210348785990E+00 -0.4096613160991E+00  0.9447190811518E-01
 0.6211276116071E-01 -0.1009206295767E+01 -0.4451339601360E+00  0.4805338586283E-01
 0.7165853059953E-01 -0.1110634917567E+01 -0.4883189006359E+00 -0.1197322472809E-02
 0.6880157533538E-01 -0.1256546302079E+01 -0.5582400201536E+00 -0.4152456257991E-01
 0.3632427786136E-01 -0.1483387709757E+01 -0.6801198112660E+00 -0.5274551819483E-01
-0.5937598578093E-01 -0.1824263068446E+01 -0.8853103532410E+00  0.2575243906826E-02
-0.2997443480524E+00 -0.2254104859600E+01 -0.1200309124552E+01  0.1264289412343E+00
-0.7353851140225E+00 -0.2691814081873E+01 -0.1610783617985E+01  0.2645501459284E+00
-0.1302796027873E+01 -0.3099417689288E+01 -0.2069040441818E+01  0.3716698928360E+00
-0.1901299308657E+01 -0.3474766388415E+01 -0.2526750871215E+01  0.4393616765731E+00
-0.1811689885520E+00 -0.2223403190373E+00 -0.1896493740859E+00 -0.1461918393985E-01
-0.1202162293096E+00 -0.2255716020794E+00 -0.1625202803406E+00  0.1236263611849E+00
-0.7898821516405E-01 -0.2640475467967E+00 -0.1612268077126E+00  0.2013820750106E+00
-0.5285612643831E-01 -0.3324051854448E+00 -0.1810728161258E+00  0.2415339238811E+00
-0.3343805012074E-01 -0.4203850615808E+00 -0.2132968619587E+00  0.2585521075379E+00
-0.1616145091275E-01 -0.5187393180623E+00 -0.2514033607806E+00  0.2604860764940E+00
 0.7157262445125E-03 -0.6214774352500E+00 -0.2917580024926E+00  0.2515606228864E+00
 0.1764664352950E-01 -0.7252542740401E+00 -0.3325755854965E+00  0.2339133731097E+00
 0.3459227574260E-01 -0.8284589959840E+00 -0.3731173575671E+00  0.2085959493084E+00
 0.5127270403030E-01 -0.9310153189434E+00 -0.4134790279604E+00  0.1762589767147E+00
 0.6732928982756E-01 -0.1034341072264E+01 -0.4544955365924E+00  0.1375021230851E+00
 0.8253795305056E-01 -0.1141316088051E+01 -0.4976257221879E+00  0.9317946154882E-01
 0.9214763413452E-01 -0.1265677043516E+01 -0.5515588210105E+00  0.4804964034042E-01
 0.8774304103469E-01 -0.1433743990339E+01 -0.6326204445684E+00  0.1449975884369E-01
 0.5504092062833E-01 -0.1673041587975E+01 -0.7604603117239E+00  0.1179653693932E-01
-0.3462268200140E-01 -0.2004246783229E+01 -0.9582686462276E+00  0.6987749173479E-01
-0.2469644194874E+00 -0.2403034950888E+01 -0.1245499700917E+01  0.1897314691382E+00
-0.6274450596902E+00 -0.2802976561110E+01 -0.1612298157687E+01  0.3262960753451E+00
-0.1133241774518E+01 -0.3171119238826E+01 -0.2023049671141E+01  0.4385055162591E+00
-0.1684593397750E+01 -0.3505719587381E+01 -0.2439447096824E+01  0.5146556913817E+00
-0.2531489862058E+00 -0.3330511463173E+00 -0.2755140615871E+00 -0.4872032974104E-02
-0.1646706803279E+00 -0.3442777087348E+00 -0.2392057422527E+00  0.1399050768336E+00
-0.1067525792759E+00 -0.3801258834740E+00 -0.2288328769120E+00  0.2262415106669E+00
-0.6887336507485E-01 -0.4405879431954E+00 -0.2394468142797E+00  0.2737910271596E+00
-0.4127066897363E-01 -0.5200030467151E+00 -0.2637986457046E+00  0.2959242569660E+00
-0.1818099631665E-01 -0.6117877977649E+00 -0.2960853324673E+00  0.3009881785595E+00
 0.3214914492434E-02 -0.7109424729084E+00 -0.3326319516118E+00  0.2939212397832E+00
 0.2407727828539E-01 -0.8144082242962E+00 -0.3714555436829E+00  0.2775197204640E+00
 0.4469255141851E-01 -0.9207545740599E+00 -0.4117491495971E+00  0.2533361061235E+00
 0.6483460579981E-01 -0.1030149169379E+01 -0.4536978437317E+00  0.2224556679635E+00
 0.8395598346705E-01 -0.1144270112245E+01 -0.4983476392618E+00  0.1860086855765E+00
 0.1012161180563E+00 -0.1266095593086E+01 -0.5474933518752E+00  0.1456012140277E+00
 0.1110325594314E+00 -0.1407411943983E+01 -0.6092983091936E+00  0.1061168996401E+00
 0.1058315936253E+00 -0.1589906543605E+01 -0.6975152247212E+00  0.7981525660200E-01
 0.7353964564318E-01 -0.1834145857493E+01 -0.8274849174708E+00  0.8437437890693E-01
-0.1057278002974E-01 -0.2152444867709E+01 -0.1016618291859E+01  0.1435779432574E+00
-0.1997466906946E+00 -0.2522403503033E+01 -0.1279410587807E+01  0.2577502011031E+00
-0.5340242825308E+00 -0.2889699183919E+01 -0.1609150025150E+01  0.3898156742218E+00
-0.9854751634885E+00 -0.3225295415240E+01 -0.1979062166983E+01  0.5033102833599E+00
-0.1491536627385E+01 -0.3526566679584E+01 -0.2358508548293E+01  0.5846646636106E+00
-0.3221115146872E+00 -0.4352425319311E+00 -0.3559564010077E+00  0.8005840094126E-02
-0.2104851638995E+00 -0.4546131664177E+00 -0.3125962144562E+00  0.1557516498213E+00
-0.1369228869767E+00 -0.4904912542472E+00 -0.2948846456273E+00  0.2484676689143E+00
-0.8736491407943E-01 -0.5461360916923E+00 -0.2977454719575E+00  0.3026369035697E+00
-0.5115407937349E-01 -0.6192114158082E+00 -0.3150717819363E+00  0.3302002565997E+00
-0.2171538419277E-01 -0.7055215478910E+00 -0.3418013572125E+00  0.3392908888070E+00
 0.4574623575760E-02 -0.8013304721349E+00 -0.3744752478730E+00  0.3352007477843E+00
 0.2950342786055E-01 -0.9041215971397E+00 -0.4110705385186E+00  0.3212462079096E+00
 0.5370349823621E-01 -0.1012709545082E+01 -0.4507328408743E+00  0.2994753527919E+00
 0.7704375790964E-01 -0.1127385745756E+01 -0.4936607330357E+00  0.2714255145585E+00
 0.9883974099492E-01 -0.1249829177496E+01 -0.5409650337834E+00  0.2387040783471E+00
 0.1178035325040E+00 -0.1382753461341E+01 -0.5945264650456E+00  0.2034490279898E+00
 0.1279595147924E+00 -0.1535894326750E+01 -0.6617293599418E+00  0.1704587038066E+00
 0.1225055364365E+00 -0.1726831077867E+01 -0.7540330025596E+00  0.1513955368314E+00
 0.9106841797669E-01 -0.1970742800509E+01 -0.8834469575495E+00  0.1620676860304E+00
 0.1221882002974E-01 -0.2274288735601E+01 -0.1063172857622E+01  0.2212907439041E+00
-0.1573152649171E+00 -0.2617404601742E+01 -0.1304118334022E+01  0.3289578255238E+00
-0.4523987242922E+00 -0.2955760353430E+01 -0.1601834762467E+01  0.4547597188914E+00
-0.8558739948806E+00 -0.3263729006666E+01 -0.1936213405816E+01  0.5668068815501E+00
-0.1319288730556E+01 -0.3537472331195E+01 -0.2282677693233E+01  0.6507177767013E+00
-0.3883916846246E+00 -0.5302882644912E+00 -0.4317795749893E+00  0.2369512884647E-01
-0.2572645029918E+00 -0.5575395844035E+00 -0.3829579201045E+00  0.1717958977408E+00
-0.1691883875895E+00 -0.5951122757378E+00 -0.3592213108527E+00  0.2690046435927E+00
-0.1082361030269E+00 -0.6482148640478E+00 -0.3555319536233E+00  0.3288730274249E+00
-0.6325035189466E-01 -0.7168673797803E+00 -0.3666553329572E+00  0.3618256869674E+00
-0.2712670387456E-01 -0.7988477457177E+00 -0.3882079903237E+00  0.3754908382267E+00
 0.4343945700641E-02 -0.8916850278196E+00 -0.4170503075381E+00  0.3752356050902E+00
 0.3345900225777E-01 -0.9935308116938E+00 -0.4512337492904E+00  0.3647276462513E+00
 0.6117630264046E-01 -0.1103495371324E+01 -0.4898899610385E+00  0.3464411372494E+00
 0.8748814831393E-01 -0.1221921638149E+01 -0.5331837388699E+00  0.3223261809652E+00
 0.1116404492699E+00 -0.1350318435954E+01 -0.5821786522649E+00  0.2943804870238E+00
 0.1320505986327E+00 -0.1490946714594E+01 -0.6386811728818E+00  0.2650783029077E+00
 0.1426637159941E+00 -0.1651598209492E+01 -0.7091992101452E+00  0.2389903518693E+00
 0.1373636752876E+00 -0.1846323958149E+01 -0.8032113309077E+00  0.2269064458148E+00
 0.1071271111418E+00 -0.2086143948397E+01 -0.9301379111508E+00  0.2427000082346E+00
 0.3336949113626E-01 -0.2373917797368E+01 -0.1100057701139E+01  0.3012101563505E+00
-0.1191832049869E+00 -0.2691982310685E+01 -0.1321247789015E+01  0.4020626653571E+00
-0.3806711428027E+00 -0.3004247351471E+01 -0.1590911688274E+01  0.5206042199567E+00
-0.7417150137621E+00 -0.3288212853730E+01 -0.1894066092917E+01  0.6292740530650E+00
-0.1165407588012E+01 -0.3538932008168E+01 -0.2211039604596E+01  0.7136346982609E+00
-0.4521863133071E+00 -0.6191757815706E+00 -0.5035401833154E+00  0.4189198393638E-01
-0.3046513144015E+00 -0.6538331649709E+00 -0.4504877041625E+00  0.1884390989205E+00
-0.2032586674672E+00 -0.6941112597712E+00 -0.4217638647323E+00  0.2885544635804E+00
-0.1313671815966E+00 -0.7463137485247E+00 -0.4125100361107E+00  0.3531771845863E+00
-0.7764125583035E-01 -0.8121014769560E+00 -0.4181790833490E+00  0.3912545233989E+00
-0.3466854143921E-01 -0.8908089580615E+00 -0.4349744236621E+00  0.4097606744983E+00
 0.2165998182522E-02 -0.9811005416834E+00 -0.4600992342784E+00  0.4139420134476E+00
 0.3555283645369E-01 -0.1081808694402E+01 -0.4917402519884E+00  0.4076577221889E+00
 0.6673239198683E-01 -0.1192355811815E+01 -0.5290430059774E+00  0.3937059450760E+00
 0.9583499784323E-01 -0.1313093229816E+01 -0.5721113675762E+00  0.3743727892369E+00
 0.1220973431633E+00 -0.1445269058093E+01 -0.6218907044396E+00  0.3519440575141E+00
 0.1437724480522E+00 -0.1590621155644E+01 -0.6800188908434E+00  0.3290693583241E+00
 0.1549486436845E+00 -0.1755201626264E+01 -0.7521188999047E+00  0.3100033579237E+00
 0.1501197267591E+00 -0.1950086098820E+01 -0.8459841927227E+00  0.3045154834858E+00
 0.1213685268204E+00 -0.2183098187875E+01 -0.9690129382380E+00  0.3245987554147E+00
 0.5259623923883E-01 -0.2454598244752E+01 -0.1128940939728E+01  0.3819247017703E+00
-0.8503535658008E-01 -0.2749233599351E+01 -0.1332106405909E+01  0.4759670171858E+00
-0.3174675261107E+00 -0.3037707959261E+01 -0.1576932474125E+01  0.5867615500587E+00
-0.6408933813007E+00 -0.3300431213213E+01 -0.1852422554723E+01  0.6907244012238E+00
-0.1027823835211E+01 -0.3531639203580E+01 -0.2142947622796E+01  0.7738872916392E+00
-0.5136176005310E+00 -0.7026383462293E+00 -0.5716402935275E+00  0.6231857267179E-01
-0.3523310402228E+00 -0.7441225967115E+00 -0.5153332080520E+00  0.2059316944662E+00
-0.2388581659562E+00 -0.7876734640878E+00 -0.4824698648970E+00  0.3076374954114E+00
-0.1566165129988E+00 -0.8401299662185E+00 -0.4684708440439E+00  0.3761065508100E+00
-0.9434680866029E-01 -0.9042669451112E+00 -0.4693484630822E+00  0.4189103476083E+00
-0.4450796598444E-01 -0.9806055952958E+00 -0.4818033725797E+00  0.4423084126735E+00
-0.2227156612162E-02 -0.1068762783069E+01 -0.5033652703733E+00  0.4512971198217E+00
 0.3547250635216E-01 -0.1168193973343E+01 -0.5323790881352E+00  0.4497917704431E+00
 0.7006413130882E-01 -0.1278616155144E+01 -0.5680194497617E+00  0.4408035910151E+00
 0.1018183373778E+00 -0.1400362271137E+01 -0.6103156473190E+00  0.4268600496000E+00
 0.1300098084945E+00 -0.1534385173656E+01 -0.6600564199517E+00  0.4104303190707E+00
 0.1528318169931E+00 -0.1681902892668E+01 -0.7186634037442E+00  0.3942123764554E+00
 0.1646705945980E+00 -0.1847467282914E+01 -0.7909144415022E+00  0.3820949097231E+00
 0.1605687154937E+00 -0.2039676436184E+01 -0.8831806264843E+00  0.3827631083661E+00
 0.1335437694943E+00 -0.2263917428462E+01 -0.1001275617175E+01  0.4064477550193E+00
 0.6968257158474E-01 -0.2518976716720E+01 -0.1151168245294E+01  0.4623040268447E+00
-0.5466015879435E-01 -0.2791658467853E+01 -0.1337769751131E+01  0.5497336657244E+00
-0.2617564157127E+00 -0.3058271363995E+01 -0.1560413052505E+01  0.6526381201513E+00
-0.5517416335155E+00 -0.3301928340273E+01 -0.1811224883087E+01  0.7510147872572E+00
-0.9047798382368E+00 -0.3516391090918E+01 -0.2077950331432E+01  0.8317162492213E+00
-0.5727655882938E+00 -0.7812341256613E+00 -0.6363798639448E+00  0.8472504679632E-01
-0.4000308851287E+00 -0.8289201413481E+00 -0.5776069809791E+00  0.2244214646037E+00
-0.2757267413172E+00 -0.8760046963839E+00 -0.5413137743465E+00  0.3266365484119E+00
-0.1838253592750E+00 -0.9294948228055E+00 -0.5232604842507E+00  0.3981105634718E+00
-0.1133383756882E+00 -0.9928912243053E+00 -0.5199279106782E+00  0.4451691106760E+00
-0.5674070195361E-01 -0.1067590576750E+01 -0.5284356996502E+00  0.4733500223209E+00
-0.9024050370551E-02 -0.1153969635247E+01 -0.5466070308539E+00  0.4873199068076E+00
 0.3298168010669E-01 -0.1252012737871E+01 -0.5729445956960E+00  0.4909424874656E+00
 0.7093217620080E-01 -0.1361691083884E+01 -0.6066566850724E+00  0.4873367586520E+00
 0.1052319471399E+00 -0.1483300400608E+01 -0.6476921714871E+00  0.4791739661751E+00
 0.1352267365109E+00 -0.1617498307977E+01 -0.6966676368218E+00  0.4690081271115E+00
 0.1591297787175E+00 -0.1765026852939E+01 -0.7547716229696E+00  0.4594881412066E+00
 0.1717278225232E+00 -0.1929177989969E+01 -0.8260015766045E+00  0.4541128618312E+00
 0.1685650225418E+00 -0.2116507801214E+01 -0.9155331036540E+00  0.4604746980215E+00
 0.1434712028749E+00 -0.2330570539997E+01 -0.1027936685840E+01  0.4871924851868E+00
 0.8446092915818E-01 -0.2569244709653E+01 -0.1167848373870E+01  0.5414262801273E+00
-0.2790780130830E-01 -0.2821320875071E+01 -0.1339137474502E+01  0.6225599877764E+00
-0.2127374539939E+00 -0.3067740277028E+01 -0.1541824529670E+01  0.7176660524474E+00
-0.4729056298462E+00 -0.3294105106482E+01 -0.1770495041584E+01  0.8099177677040E+00
-0.7947710073012E+00 -0.3494029190390E+01 -0.2015736087802E+01  0.8872129002476E+00
-0.6296855338046E+00 -0.8553962905753E+00 -0.6979884556882E+00  0.1088879736853E+00
-0.4475163183955E+00 -0.9086462769514E+00 -0.6373964181964E+00  0.2439848092368E+00
-0.3136207765850E+00 -0.9593111905016E+00 -0.5982780230133E+00  0.3458292590802E+00
-0.2128232555627E+00 -0.1014327749354E+01 -0.5767609708479E+00  0.4195460660413E+00
-0.1345487110751E+00 -0.1077636131264E+01 -0.5697268744542E+00  0.4703537000246E+00
-0.7140332737473E-01 -0.1151253838922E+01 -0.5746488667021E+00  0.5030927517781E+00
-0.1834373044098E-01 -0.1236136342387E+01 -0.5896056327336E+00  0.5220555263499E+00
 0.2791388586522E-01 -0.1332690045341E+01 -0.6132447933981E+00  0.5309723650325E+00
 0.6916094884088E-01 -0.1441088502797E+01 -0.6448059487240E+00  0.5329775728174E+00
 0.1059240456948E+00 -0.1561575911522E+01 -0.6841563752036E+00  0.5307951275639E+00
 0.1376406613615E+00 -0.1694533834938E+01 -0.7317397897250E+00  0.5269766533992E+00
 0.1626010225800E+00 -0.1840290996489E+01 -0.7885142857373E+00  0.5240489390854E+00
 0.1760542621436E+00 -0.2001102736364E+01 -0.8577727807078E+00  0.5251140560095E+00
 0.1740091382772E+00 -0.2181857014043E+01 -0.9436884992165E+00  0.5366995648922E+00
 0.1510186180564E+00 -0.2384755527127E+01 -0.1049856344601E+01  0.5659769538188E+00
 0.9680198948083E-01 -0.2607250829264E+01 -0.1179910951705E+01  0.6185289492008E+00
-0.4665409534612E-02 -0.2839956138206E+01 -0.1336972124047E+01  0.6937572749293E+00
-0.1697701078327E+00 -0.3067656879700E+01 -0.1521590680281E+01  0.7813209280217E+00
-0.4032583643005E+00 -0.3278224604788E+01 -0.1730296991083E+01  0.8671694875480E+00
-0.6964947575844E+00 -0.3465400423124E+01 -0.1956090729972E+01  0.9403768968349E+00
-0.6844176166377E+00 -0.9254662866908E+00 -0.7566454326453E+00  0.1346075031679E+00
-0.4945866087511E+00 -0.9836488317508E+00 -0.6947706552737E+00  0.2646478073483E+00
-0.3523138384384E+00 -0.1037790582021E+01 -0.6533490759590E+00  0.3654122256464E+00
-0.2434328161163E+00 -0.1094607300624E+01 -0.6288788532730E+00  0.4406918983966E+00
-0.1578802848555E+00 -0.1158267348904E+01 -0.6185893862982E+00  0.4947347207388E+00
-0.8848346112688E-01 -0.1231204157415E+01 -0.6202531791416E+00  0.5317260161523E+00
-0.3024534670072E-01 -0.1314791628027E+01 -0.6321673765188E+00  0.5555637296861E+00
 0.2016501251590E-01 -0.1409752919293E+01 -0.6531063145285E+00  0.5697853035099E+00
 0.6463286984534E-01 -0.1516409321545E+01 -0.6823349305682E+00  0.5774635974654E+00
 0.1037924003485E+00 -0.1634942578389E+01 -0.7196405818537E+00  0.5812959669923E+00
 0.1371837791868E+00 -0.1765487117233E+01 -0.7653025669404E+00  0.5837580943681E+00
 0.1632117796891E+00 -0.1908026997114E+01 -0.8200631501095E+00  0.5872011198967E+00
 0.1776169290108E+00 -0.2063979743342E+01 -0.8865905204868E+00  0.5943334056669E+00
 0.1768413417703E+00 -0.2236880696366E+01 -0.9682184942042E+00  0.6106688786566E+00
 0.1560935554456E+00 -0.2427957863897E+01 -0.1067776222264E+01  0.6421006387006E+00
 0.1066072087867E+00 -0.2634582669806E+01 -0.1188148463666E+01  0.6929732698532E+00
 0.1515579632599E-01 -0.2849045490430E+01 -0.1331928152851E+01  0.7627321166783E+00
-0.1323285086892E+00 -0.3059347328593E+01 -0.1500087639718E+01  0.8431304580805E+00
-0.3418387564561E+00 -0.3255416312842E+01 -0.1690709878282E+01  0.9225030135099E+00
-0.6088069562482E+00 -0.3431329546089E+01 -0.1898864151282E+01  0.9911581666451E+00
-0.7369924568059E+00 -0.9917166416159E+00 -0.8124932741975E+00  0.1617042902218E+00
-0.5410702343504E+00 -0.1054217814001E+01 -0.7497853808236E+00  0.2864008534310E+00
-0.3915967162640E+00 -0.1111628487413E+01 -0.7065158439363E+00  0.3855193340275E+00
-0.2754737328226E+00 -0.1170352777814E+01 -0.6795384582758E+00  0.4617619974427E+00
-0.1832122456499E+00 -0.1234631578621E+01 -0.6663865957172E+00  0.5185343540396E+00
-0.1079284984258E+00 -0.1307151658311E+01 -0.6650876719792E+00  0.5594172412214E+00
-0.4473697295480E-01 -0.1389569007877E+01 -0.6741238092809E+00  0.5879108954407E+00
 0.9685582611620E-02 -0.1482827456843E+01 -0.6923766791325E+00  0.6073186889897E+00
 0.5728205525329E-01 -0.1587343995576E+01 -0.7191291101275E+00  0.6205912917957E+00
 0.9877916586018E-01 -0.1703230155275E+01 -0.7540919631124E+00  0.6303340594846E+00
 0.1338241679010E+00 -0.1830406508441E+01 -0.7973936980314E+00  0.6388876524472E+00
 0.1609581977500E+00 -0.1968581055893E+01 -0.8495827411726E+00  0.6483893767736E+00
 0.1764163241300E+00 -0.2118506923457E+01 -0.9127825793687E+00  0.6611616602724E+00
 0.1770409015402E+00 -0.2282632155298E+01 -0.9896278867563E+00  0.6817681534723E+00
 0.1586413541947E+00 -0.2461499623411E+01 -0.1082343383786E+01  0.7149899953866E+00
 0.1138026542903E+00 -0.2652635209975E+01 -0.1193251298145E+01  0.7642164240215E+00
 0.3162461025223E-01 -0.2849872603010E+01 -0.1324576553237E+01  0.8289658560654E+00
-0.9997676506279E-01 -0.3043950203735E+01 -0.1477645671587E+01  0.9026741102936E+00
-0.2878067606350E+00 -0.3226669916765E+01 -0.1651804034189E+01  0.9756719679993E+00
-0.5306832235735E+00 -0.3392594908315E+01 -0.1843940717311E+01  0.1039490328647E+01
-0.7874342452245E+00 -0.1054366882205E+01 -0.8656465276963E+00  0.1900166327843E+00
-0.5868204689049E+00 -0.1120596775936E+01 -0.8024861030398E+00  0.3092091814602E+00
-0.4312770877399E+00 -0.1180998127549E+01 -0.7577693492637E+00  0.4062359949253E+00
-0.3087658757841E+00 -0.1241612559034E+01 -0.7286778625164E+00  0.4829168196362E+00
-0.2104063259791E+00 -0.1306639699441E+01 -0.7130116301392E+00  0.5419315258560E+00
-0.1296530382491E+00 -0.1378892097352E+01 -0.7090162119340E+00  0.5863107730399E+00
-0.6178355948049E-01 -0.1460196070670E+01 -0.7153304243563E+00  0.6191648791705E+00
-0.3526521225067E-02 -0.1551632361725E+01 -0.7309246731328E+00  0.6435365286346E+00
 0.4708794849706E-01 -0.1653667136531E+01 -0.7550922164608E+00  0.6622083889311E+00
 0.9086546969249E-01 -0.1766336270479E+01 -0.7874712743723E+00  0.6776430301678E+00
 0.1275610219311E+00 -0.1889381466519E+01 -0.8280556068560E+00  0.6920015647439E+00
 0.1558633901617E+00 -0.2022300495704E+01 -0.8772254373801E+00  0.7071818561963E+00
 0.1724857457393E+00 -0.2165334803520E+01 -0.9366390547812E+00  0.7251293733171E+00
 0.1746334553649E+00 -0.2320069469345E+01 -0.1008354924013E+01  0.7495229595403E+00
 0.1586495357771E+00 -0.2486584422472E+01 -0.1094129393972E+01  0.7841843284471E+00
 0.1183415030344E+00 -0.2662674603146E+01 -0.1195836554019E+01  0.8317908424093E+00
 0.4478029178933E-01 -0.2843587918225E+01 -0.1315439581088E+01  0.8919869027282E+00
-0.7235954360281E-01 -0.3022431310764E+01 -0.1454551697863E+01  0.9595680126384E+00
-0.2404146688192E+00 -0.3192812249848E+01 -0.1613616647681E+01  0.1026464515539E+01
-0.4611735271805E+00 -0.3349887797307E+01 -0.1791198817966E+01  0.1085321148002E+01
-0.8357618674893E+00 -0.1113593938006E+01 -0.9161972262588E+00  0.2193981302759E+00
-0.6317118118804E+00 -0.1182991968951E+01 -0.8529107748277E+00  0.3330208103775E+00
-0.4711784196697E+00 -0.1246061100844E+01 -0.8071025725941E+00  0.4276105704931E+00
-0.3431321854772E+00 -0.1308457650895E+01 -0.7762472211260E+00  0.5042731685093E+00
-0.2393113717339E+00 -0.1374253964565E+01 -0.7583757061368E+00  0.5650673275915E+00
-0.1535455403424E+00 -0.1446293504176E+01 -0.7519243490165E+00  0.6125285309736E+00
-0.8131362550003E-01 -0.1526482785870E+01 -0.7556643114271E+00  0.6493919679599E+00
-0.1943276640007E-01 -0.1615970895549E+01 -0.7686397191667E+00  0.6784239180804E+00
 0.3406966558459E-01 -0.1715231067089E+01 -0.7901458567032E+00  0.7022062406855E+00
 0.8006579146088E-01 -0.1824220225449E+01 -0.8197525818953E+00  0.7230222233689E+00
 0.1184192289275E+00 -0.1942534386150E+01 -0.8573341217201E+00  0.7428235664889E+00
 0.1479708061361E+00 -0.2069525285583E+01 -0.9031306030495E+00  0.7632545135271E+00
 0.1658866120226E+00 -0.2205057877065E+01 -0.9584104921389E+00  0.7858931278755E+00
 0.1696918695262E+00 -0.2350055060611E+01 -0.1024770697211E+01  0.8135943908663E+00
 0.1561853863547E+00 -0.2504303430085E+01 -0.1103615477754E+01  0.8493445510791E+00
 0.1202023294355E+00 -0.2665932435023E+01 -0.1196493146591E+01  0.8952988027974E+00
 0.5463718190897E-01 -0.2831288282291E+01 -0.1305026013870E+01  0.9513352139927E+00
-0.4924473352747E-01 -0.2995643756639E+01 -0.1431097586748E+01  0.1013417306446E+01
-0.1989732372943E+00 -0.3154424497549E+01 -0.1576096931379E+01  0.1074696951858E+01
-0.3993529266038E+00 -0.3303738764408E+01 -0.1740453090361E+01  0.1128652362500E+01
-0.8819908953959E+00 -0.1169540522215E+01 -0.9642197638314E+00  0.2497156403457E+00
-0.6756338398553E+00 -0.1241575669213E+01 -0.9010884669767E+00  0.3577732848199E+00
-0.5111420302219E+00 -0.1306973415204E+01 -0.8545142571829E+00  0.4496640352096E+00
-0.3783982302871E+00 -0.1370975776100E+01 -0.8222057809168E+00  0.5259124568968E+00
-0.2697690859798E+00 -0.1437480998500E+01 -0.8024075376701E+00  0.5880500462872E+00
-0.1794727246554E+00 -0.1509283021387E+01 -0.7937151986268E+00  0.6381713332016E+00
-0.1032258974137E+00 -0.1588310534787E+01 -0.7950221211179E+00  0.6786554070127E+00
-0.3795875260559E-01 -0.1675720999004E+01 -0.8054294812138E+00  0.7119830956325E+00
 0.1828035996102E-01 -0.1771960574711E+01 -0.8242296988421E+00  0.7405128998691E+00
 0.6642413184768E-01 -0.1876897695995E+01 -0.8509225729908E+00  0.7663261093483E+00
 0.1064425511718E+00 -0.1990017648642E+01 -0.8852802935656E+00  0.7911500464158E+00
 0.1373366822655E+00 -0.2110582038649E+01 -0.9274253151478E+00  0.8163733403139E+00
 0.1566925554133E+00 -0.2238209996452E+01 -0.9783131948066E+00  0.8432186395722E+00
 0.1623264343838E+00 -0.2373339274277E+01 -0.1039176032114E+01  0.8737739902920E+00
 0.1513967057802E+00 -0.2515625016481E+01 -0.1111187303211E+01  0.9102801873786E+00
 0.1195602367654E+00 -0.2663539633159E+01 -0.1195670313272E+01  0.9544745139447E+00
 0.6106064485849E-01 -0.2814359840422E+01 -0.1294050618633E+01  0.1006532084305E+01
-0.3051221478497E-01 -0.2964384652850E+01 -0.1407601524218E+01  0.1063706230846E+01
-0.1629531233608E+00 -0.3111827568511E+01 -0.1539146921276E+01  0.1120138882411E+01
-0.3440963776637E+00 -0.3254177452324E+01 -0.1691188695805E+01  0.1169555172882E+01
-0.9261156945250E+00 -0.1222299110274E+01 -0.1009754955694E+01  0.2808511548349E+00
-0.7185058980841E+00 -0.1296511795590E+01 -0.9470583136248E+00  0.3834002965832E+00
-0.5510085948487E+00 -0.1363869872940E+01 -0.8999928775781E+00  0.4723986984582E+00
-0.4144077320900E+00 -0.1429288428129E+01 -0.8665371931049E+00  0.5478881239983E+00
-0.3016090287629E+00 -0.1496356151697E+01 -0.8450436326728E+00  0.6109580052449E+00
-0.2072874913882E+00 -0.1567839040335E+01 -0.8343094677937E+00  0.6633208347193E+00
-0.1273938448199E+00 -0.1645619781273E+01 -0.8333164021501E+00  0.7070148490149E+00
-0.5899978303337E-01 -0.1730826106152E+01 -0.8412181657837E+00  0.7442310472388E+00
-0.1919327808864E-03 -0.1823843240814E+01 -0.8572965294150E+00  0.7770885943164E+00
 0.5000476561705E-01 -0.1924446594318E+01 -0.8809876572548E+00  0.8074537233078E+00
 0.9169429555213E-01 -0.2032007332641E+01 -0.9119471251189E+00  0.8368342642441E+00
 0.1240176169262E+00 -0.2145787909520E+01 -0.9502320351088E+00  0.8663741487190E+00
 0.1449756518358E+00 -0.2265257476283E+01 -0.9965324549629E+00  0.8969573819575E+00
 0.1526400280538E+00 -0.2390557686008E+01 -0.1051821296571E+01  0.9299634310881E+00
 0.1444848103201E+00 -0.2521334414843E+01 -0.1117119311292E+01  0.9669575481809E+00
 0.1167388606293E+00 -0.2656482073021E+01 -0.1193679306797E+01  0.1009292520646E+01
 0.6462072319351E-01 -0.2793967864661E+01 -0.1282793153236E+01  0.1057328850544E+01
-0.1728265575091E-01 -0.2931172605855E+01 -0.1385773969440E+01  0.1109548835422E+01
-0.1316022591234E+00 -0.3064408631217E+01 -0.1502125114650E+01  0.1162165248197E+01
-0.2940047074693E+00 -0.3200233150690E+01 -0.1642291789169E+01  0.1208316717804E+01
-0.9682487453663E+00 -0.1272063655438E+01 -0.1052946825707E+01  0.3126822374630E+00
-0.7601280142011E+00 -0.1347780040082E+01 -0.9907167830001E+00  0.4098382836455E+00
-0.5907316753170E+00 -0.1417008301271E+01 -0.9436377866030E+00  0.4958165274742E+00
-0.4509662768742E+00 -0.1483495446313E+01 -0.9091970075918E+00  0.5702214465728E+00
-0.3346691294228E+00 -0.1550953474804E+01 -0.8862426217386E+00  0.6338439171316E+00
-0.2368282829849E+00 -0.1621976395482E+01 -0.8736381966634E+00  0.6880407081420E+00
-0.1536738756009E+00 -0.1698401620054E+01 -0.8704754807498E+00  0.7345264493694E+00
-0.8242315272782E-01 -0.1781282104015E+01 -0.8759414684476E+00  0.7751984415622E+00
-0.2122962759774E-01 -0.1870924959410E+01 -0.8893126536379E+00  0.8119237237378E+00
 0.3091567512710E-01 -0.1966989713514E+01 -0.9099547957340E+00  0.8463449305308E+00
 0.7421049109632E-01 -0.2068761558323E+01 -0.9374389992190E+00  0.8797635659323E+00
 0.1081022305731E+00 -0.2175402653201E+01 -0.9716311961707E+00  0.9131392664449E+00
 0.1307845009943E+00 -0.2286613651004E+01 -0.1013239697934E+01  0.9470245828336E+00
 0.1406900621310E+00 -0.2402241627044E+01 -0.1062929232813E+01  0.9821334532076E+00
 0.1355810931787E+00 -0.2522035873439E+01 -0.1121633743878E+01  0.1019447617783E+01
 0.1121164241665E+00 -0.2645400245871E+01 -0.1190643393181E+01  0.1059953477103E+01
 0.6606382009861E-01 -0.2771042640089E+01 -0.1271340042171E+01  0.1104051740853E+01
-0.7301477778896E-02 -0.2896933806249E+01 -0.1364990580031E+01  0.1150797450073E+01
-0.1122228997650E+00 -0.3020968090553E+01 -0.1472599761715E+01  0.1198282110076E+01
-0.2395831235312E+00 -0.3131271562190E+01 -0.1584301698271E+01  0.1243151131278E+01
-0.1619684997206E+01 -0.2055935451594E+01 -0.1727541606554E+01  0.1356993700698E+01
-0.1458518761707E+01 -0.2103695479503E+01 -0.1674240689122E+01  0.1400079394196E+01
-0.1267371931200E+01 -0.2148372437930E+01 -0.1605399849419E+01  0.1416171578309E+01
-0.1072606267851E+01 -0.2181132134817E+01 -0.1529257045375E+01  0.1409146057556E+01
-0.8887204343486E+00 -0.2196674777397E+01 -0.1450135745842E+01  0.1385976867093E+01
-0.7239570066484E+00 -0.2193992339468E+01 -0.1371436189196E+01  0.1353736714583E+01
-0.5821344167836E+00 -0.2174597161259E+01 -0.1295663838394E+01  0.1318426313121E+01
-0.4643034333841E+00 -0.2141399119310E+01 -0.1224680196660E+01  0.1284503850440E+01
-0.3698235421785E+00 -0.2097663200038E+01 -0.1159718765900E+01  0.1254746879683E+01
-0.2971761420543E+00 -0.2046225297691E+01 -0.1101398673887E+01  0.1230362496570E+01
-0.2445589183479E+00 -0.1988995378355E+01 -0.1049770516788E+01  0.1211243287574E+01
-0.2100940580221E+00 -0.1926630011296E+01 -0.1004260310032E+01  0.1196280326808E+01
-0.1925264186411E+00 -0.1859193903981E+01 -0.9643085491866E+00  0.1184364250790E+01
-0.1904579615689E+00 -0.1786648994328E+01 -0.9292402669147E+00  0.1174447309951E+01
-0.2020913698078E+00 -0.1708696664584E+01 -0.8980703738864E+00  0.1165164256449E+01
-0.2260150746436E+00 -0.1625084810113E+01 -0.8700169436289E+00  0.1155087318546E+01
-0.2606057616885E+00 -0.1535570341177E+01 -0.8442027662056E+00  0.1142454994832E+01
-0.3022035617582E+00 -0.1438271712454E+01 -0.8180233768049E+00  0.1125178980661E+01
-0.3480298261852E+00 -0.1336236973152E+01 -0.7916053936809E+00  0.1099901315550E+01
-0.3246442867450E+00 -0.1179696353299E+01 -0.7070400990274E+00  0.1066171701800E+01
-0.1639974697240E+01 -0.2091172447263E+01 -0.1753639153468E+01  0.1374229756129E+01
-0.1465266582203E+01 -0.2139822965702E+01 -0.1694392083218E+01  0.1421207621782E+01
-0.1261429139771E+01 -0.2185892600982E+01 -0.1620241214044E+01  0.1433805356432E+01
-0.1055006363574E+01 -0.2216431699407E+01 -0.1537575885701E+01  0.1419110744341E+01
-0.8626278300500E+00 -0.2226444828822E+01 -0.1451864145987E+01  0.1386417406326E+01
-0.6927366829965E+00 -0.2215427481488E+01 -0.1366837153841E+01  0.1344469614335E+01
-0.5488791717636E+00 -0.2185805523847E+01 -0.1285301803677E+01  0.1300288740919E+01
-0.4315331323115E+00 -0.2141350006147E+01 -0.1209255072008E+01  0.1258809886728E+01
-0.3394074861053E+00 -0.2085994706172E+01 -0.1139939027479E+01  0.1222873170345E+01
-0.2703587615029E+00 -0.2023001657396E+01 -0.1077879394149E+01  0.1193488956525E+01
-0.2219533936813E+00 -0.1954465774019E+01 -0.1022917006225E+01  0.1170215845067E+01
-0.1918449516228E+00 -0.1881272536487E+01 -0.9743652169402E+00  0.1151601641328E+01
-0.1785893345829E+00 -0.1803747706799E+01 -0.9316984070865E+00  0.1136525183380E+01
-0.1806083646517E+00 -0.1722191042404E+01 -0.8943157190479E+00  0.1124049627336E+01
-0.1958693710306E+00 -0.1636672036848E+01 -0.8612944595184E+00  0.1112778067507E+01
-0.2226892291255E+00 -0.1547091930644E+01 -0.8317971429820E+00  0.1101125153769E+01
-0.2580994178719E+00 -0.1452718785029E+01 -0.8040845533240E+00  0.1086984898800E+01
-0.2986609712555E+00 -0.1353489243884E+01 -0.7765105991460E+00  0.1067687348569E+01
-0.3276179402700E+00 -0.1243040280944E+01 -0.7382093620980E+00  0.1041569630157E+01
-0.3663988634757E+00 -0.1142272788946E+01 -0.7090756748399E+00  0.1019580538272E+01
-0.1661237400384E+01 -0.2129550764453E+01 -0.1781670432954E+01  0.1392130655143E+01
-0.1472197869048E+01 -0.2182088541700E+01 -0.1717514608695E+01  0.1442426613987E+01
-0.1252708533310E+01 -0.2228855768617E+01 -0.1636335217755E+01  0.1450324326506E+01
-0.1033521819204E+01 -0.2256419758892E+01 -0.1546272537783E+01  0.1426281756062E+01
-0.8322200000450E+00 -0.2259436937556E+01 -0.1453078756987E+01  0.1382564012930E+01
-0.6574257666105E+00 -0.2238384530337E+01 -0.1361030836113E+01  0.1329820245852E+01
-0.5121161769855E+00 -0.2196832016157E+01 -0.1273205647548E+01  0.1276138472571E+01
-0.3959830777484E+00 -0.2139616170453E+01 -0.1191731643632E+01  0.1226858433947E+01
-0.3069093793496E+00 -0.2071456188491E+01 -0.1117831814050E+01  0.1184766104062E+01
-0.2419975870861E+00 -0.1996088795359E+01 -0.1051900597081E+01  0.1150569910466E+01
-0.1981948604277E+00 -0.1915866172409E+01 -0.9936086829129E+00  0.1123439116718E+01
-0.1726322357691E+00 -0.1831775084075E+01 -0.9420714379372E+00  0.1101533839632E+01
-0.1637175921175E+00 -0.1744382801778E+01 -0.8968071828562E+00  0.1083688966276E+01
-0.1696919696399E+00 -0.1654301723289E+01 -0.8572770335024E+00  0.1069060050821E+01
-0.1881982824038E+00 -0.1561856980047E+01 -0.8225259712654E+00  0.1056161912830E+01
-0.2170374321763E+00 -0.1467038771536E+01 -0.7915158137374E+00  0.1043266693932E+01
-0.2530463778937E+00 -0.1369774759744E+01 -0.7627259327551E+00  0.1028210677238E+01
-0.2907967030333E+00 -0.1269180396364E+01 -0.7331892348573E+00  0.1009165603539E+01
-0.3303622202960E+00 -0.1169741682291E+01 -0.7050488324277E+00  0.9879801340762E+00
-0.3812247972022E+00 -0.1068941794680E+01 -0.6815782964560E+00  0.9688763731721E+00
-0.1684723277431E+01 -0.2173141520485E+01 -0.1813196450421E+01  0.1411154907216E+01
-0.1478284021809E+01 -0.2230448148416E+01 -0.1743104115585E+01  0.1463966569630E+01
-0.1240963719147E+01 -0.2278081761490E+01 -0.1653951371704E+01  0.1465360474856E+01
-0.1007637970764E+01 -0.2301396535089E+01 -0.1555246213806E+01  0.1430026195781E+01
-0.7971787656091E+00 -0.2295613493037E+01 -0.1453612357877E+01  0.1373652264417E+01
-0.6178921325739E+00 -0.2262467971310E+01 -0.1353769245392E+01  0.1309041456867E+01
-0.4719087164514E+00 -0.2207049830707E+01 -0.1259110513971E+01  0.1245354371789E+01
-0.3578666652195E+00 -0.2135477227873E+01 -0.1171871626781E+01  0.1188220682369E+01
-0.2726384054323E+00 -0.2053361144615E+01 -0.1093219785749E+01  0.1140219904783E+01
-0.2124762727036E+00 -0.1964941173809E+01 -0.1023386197265E+01  0.1101629492823E+01
-0.1736602413738E+00 -0.1872777405227E+01 -0.9618256914629E+00  0.1071138328215E+01
-0.1528083335387E+00 -0.1777888620447E+01 -0.9074275660716E+00  0.1046458997933E+01
-0.1481996542119E+00 -0.1681023569478E+01 -0.8597349129538E+00  0.1026355580884E+01
-0.1578860005655E+00 -0.1583065734086E+01 -0.8182473132110E+00  0.1010060959825E+01
-0.1791853828055E+00 -0.1484542556320E+01 -0.7819521294056E+00  0.9960283987942E+00
-0.2097860494959E+00 -0.1385744168817E+01 -0.7498992007049E+00  0.9825313105994E+00
-0.2463598189106E+00 -0.1286705343652E+01 -0.7205406245771E+00  0.9677121826081E+00
-0.2868009422125E+00 -0.1188266742507E+01 -0.6932818100598E+00  0.9506693592591E+00
-0.3312243558947E+00 -0.1090337330885E+01 -0.6681339910917E+00  0.9324675827106E+00
-0.3878408534372E+00 -0.9900926406653E+00 -0.6476287405856E+00  0.9133501290581E+00
-0.1710651772957E+01 -0.2222909258249E+01 -0.1848773679978E+01  0.1431645392784E+01
-0.1483198024254E+01 -0.2285988176886E+01 -0.1771517510042E+01  0.1485856978462E+01
-0.1225508242977E+01 -0.2334151616069E+01 -0.1673040129508E+01  0.1478478453765E+01
-0.9768787599453E+00 -0.2351673569662E+01 -0.1564419590947E+01  0.1429554028705E+01
-0.7571867814348E+00 -0.2334778305993E+01 -0.1453223587405E+01  0.1358783051745E+01
-0.5740738230091E+00 -0.2287095869559E+01 -0.1344749752096E+01  0.1281305056638E+01
-0.4284169438367E+00 -0.2215637295745E+01 -0.1242705489452E+01  0.1207304455569E+01
-0.3175108254178E+00 -0.2128046215260E+01 -0.1149411806203E+01  0.1142521564991E+01
-0.2370238470287E+00 -0.2030900724172E+01 -0.1065924545761E+01  0.1089127212905E+01
-0.1822589870381E+00 -0.1928907339818E+01 -0.9922481711056E+00  0.1046803090601E+01
-0.1488017394655E+00 -0.1824744333431E+01 -0.9275666519087E+00  0.1013647156307E+01
-0.1327741819231E+00 -0.1719354890545E+01 -0.8705006618521E+00  0.9868612317361E+00
-0.1323679118188E+00 -0.1613600796571E+01 -0.8206052908620E+00  0.9651182775530E+00
-0.1454762824798E+00 -0.1508583714135E+01 -0.7774081964370E+00  0.9477350502798E+00
-0.1692748265564E+00 -0.1405012615722E+01 -0.7399150959940E+00  0.9331573206734E+00
-0.2015231345199E+00 -0.1303269657709E+01 -0.7072526105538E+00  0.9197518591743E+00
-0.2397198905077E+00 -0.1203647666198E+01 -0.6783827499311E+00  0.9059225209530E+00
-0.2823215172153E+00 -0.1105910331116E+01 -0.6524689670608E+00  0.8907148112050E+00
-0.3300484605225E+00 -0.1008864299817E+01 -0.6292889957636E+00  0.8741386988757E+00
-0.3882594761142E+00 -0.9099640360486E+00 -0.6101650491689E+00  0.8545777822142E+00
-0.1739286082084E+01 -0.2279988610258E+01 -0.1889059100609E+01  0.1454011578417E+01
-0.1486445924556E+01 -0.2349863130636E+01 -0.1803065251367E+01  0.1508017390452E+01
-0.1205672084848E+01 -0.2397852987625E+01 -0.1693656779767E+01  0.1489057843518E+01
-0.9406845585573E+00 -0.2407436843332E+01 -0.1573617054897E+01  0.1423894757022E+01
-0.7119752212035E+00 -0.2376553261051E+01 -0.1451608382978E+01  0.1336905664883E+01
-0.5259946809723E+00 -0.2311439237029E+01 -0.1333593938078E+01  0.1245708854367E+01
-0.3819218033731E+00 -0.2221539163183E+01 -0.1223626651178E+01  0.1161368247432E+01
-0.2753713782061E+00 -0.2116252859811E+01 -0.1124063389017E+01  0.1089468030778E+01
-0.2006081457548E+00 -0.2003144013590E+01 -0.1035763512265E+01  0.1031503453005E+01
-0.1518992618896E+00 -0.1887278168359E+01 -0.9584133897859E+00  0.9863601086853E+00
-0.1241300340448E+00 -0.1771300277713E+01 -0.8908522442667E+00  0.9514233365867E+00
-0.1129726915806E+00 -0.1655935451776E+01 -0.8313868252691E+00  0.9233288240301E+00
-0.1165965287961E+00 -0.1542067061173E+01 -0.7795718853081E+00  0.9006481177787E+00
-0.1328256280199E+00 -0.1430954660532E+01 -0.7349767337551E+00  0.8827922763997E+00
-0.1588379416021E+00 -0.1323361394892E+01 -0.6966336863855E+00  0.8682294940311E+00
-0.1927267178418E+00 -0.1219638832554E+01 -0.6638118070024E+00  0.8554008306349E+00
-0.2323745195296E+00 -0.1119716717663E+01 -0.6354828798687E+00  0.8427311116209E+00
-0.2766281585021E+00 -0.1022703519806E+01 -0.6106858872557E+00  0.8289773774344E+00
-0.3260476697059E+00 -0.9268429163950E+00 -0.5888585739739E+00  0.8133317873268E+00
-0.3837544423609E+00 -0.8304905313755E+00 -0.5706951362086E+00  0.7935651340056E+00
-0.1770905337910E+01 -0.2345717245647E+01 -0.1934812609364E+01  0.1478733609490E+01
-0.1487437077864E+01 -0.2423441794261E+01 -0.1838113065236E+01  0.1530244580181E+01
-0.1180694071830E+01 -0.2470030515820E+01 -0.1715840551844E+01  0.1496248545104E+01
-0.8984910187267E+00 -0.2468766377826E+01 -0.1582610972366E+01  0.1411842632327E+01
-0.6613264124010E+00 -0.2420290487729E+01 -0.1448359939388E+01  0.1306804238515E+01
-0.4737965642473E+00 -0.2334360761342E+01 -0.1319833939680E+01  0.1201290327737E+01
-0.3328476621366E+00 -0.2223425623516E+01 -0.1201448441209E+01  0.1106970750640E+01
-0.2320454944955E+00 -0.2098836626382E+01 -0.1095514594034E+01  0.1028888488029E+01
-0.1640497834521E+00 -0.1969063999989E+01 -0.1002563475674E+01  0.9675212067363E+00
-0.1220293566920E+00 -0.1839325209180E+01 -0.9218366436218E+00  0.9207267140405E+00
-0.1001997265612E+00 -0.1712008894230E+01 -0.8517380496117E+00  0.8850572682605E+00
-0.9386573483112E-01 -0.1587439895525E+01 -0.7902136442630E+00  0.8565467431720E+00
-0.1012650691870E+00 -0.1466414332032E+01 -0.7368093167042E+00  0.8336647393758E+00
-0.1202449267456E+00 -0.1350263355171E+01 -0.6911388907480E+00  0.8159217594090E+00
-0.1481287489559E+00 -0.1239689211459E+01 -0.6522744397406E+00  0.8018158737632E+00
-0.1833211970809E+00 -0.1134797746156E+01 -0.6195159017499E+00  0.7898104085459E+00
-0.2240054695963E+00 -0.1035136771285E+01 -0.5917968517130E+00  0.7782681160086E+00
-0.2691532859038E+00 -0.9393089603105E+00 -0.5679772542801E+00  0.7656528679263E+00
-0.3190108772340E+00 -0.8454239115062E+00 -0.5472843493198E+00  0.7506569450295E+00
-0.3749701313433E+00 -0.7525382830459E+00 -0.5299289534189E+00  0.7310844504382E+00
-0.1805843999088E+01 -0.2421743655692E+01 -0.1986966192707E+01  0.1506376186569E+01
-0.1485453681384E+01 -0.2508349880209E+01 -0.1877087669188E+01  0.1552168780130E+01
-0.1149729748653E+01 -0.2551577855166E+01 -0.1739614569383E+01  0.1498906022323E+01
-0.8497347842283E+00 -0.2535544101736E+01 -0.1591081072368E+01  0.1391905270930E+01
-0.6051121070699E+00 -0.2464984257678E+01 -0.1442945287772E+01  0.1267083891014E+01
-0.4177684739987E+00 -0.2354332050271E+01 -0.1302887243102E+01  0.1147054069329E+01
-0.2817889821653E+00 -0.2219657029070E+01 -0.1175679622298E+01  0.1043632598429E+01
-0.1882842541542E+00 -0.2074357857873E+01 -0.1063441789955E+01  0.9607855910493E+00
-0.1281196724830E+00 -0.1927580147051E+01 -0.9661789127303E+00  0.8975500485089E+00
-0.9334374708254E-01 -0.1784354295352E+01 -0.8825180777060E+00  0.8505060075687E+00
-0.7758307332753E-01 -0.1646510271371E+01 -0.8103238699529E+00  0.8152726432626E+00
-0.7590101433976E-01 -0.1513759176559E+01 -0.7471402878275E+00  0.7872811062762E+00
-0.8670473585519E-01 -0.1386693157332E+01 -0.6924970080414E+00  0.7649129295704E+00
-0.1079615259069E+00 -0.1266642075671E+01 -0.6460636911032E+00  0.7477860399876E+00
-0.1372262756373E+00 -0.1154140412367E+01 -0.6069423418224E+00  0.7344422074626E+00
-0.1732224971117E+00 -0.1048973825714E+01 -0.5744322702709E+00  0.7233623811115E+00
-0.2143542153231E+00 -0.9503145441625E+00 -0.5473943155698E+00  0.7128538401646E+00
-0.2596192742478E+00 -0.8564089497788E+00 -0.5245332639621E+00  0.7011726128811E+00
-0.3088783601390E+00 -0.7653435239114E+00 -0.5048842842232E+00  0.6867629143447E+00
-0.3623304333304E+00 -0.6766538678401E+00 -0.4883226203116E+00  0.6677594973636E+00
-0.1844527118055E+01 -0.2510147330586E+01 -0.2046696985670E+01  0.1537599800357E+01
-0.1479634535166E+01 -0.2606546889851E+01 -0.1920505264887E+01  0.1573183367697E+01
-0.1111850222527E+01 -0.2643404253743E+01 -0.1764969599370E+01  0.1495500913351E+01
-0.7938771012700E+00 -0.2607339910140E+01 -0.1598571991308E+01  0.1362243221703E+01
-0.5433280271859E+00 -0.2509133220921E+01 -0.1434656782972E+01  0.1216167379315E+01
-0.3583861081316E+00 -0.2369340480622E+01 -0.1282031493462E+01  0.1082020111223E+01
-0.2295385769078E+00 -0.2208259786130E+01 -0.1145765227722E+01  0.9710426955429E+00
-0.1450024083462E+00 -0.2041235641434E+01 -0.1027531880790E+01  0.8854027015872E+00
-0.9368981836521E-01 -0.1877626887810E+01 -0.9265188495525E+00  0.8221982199751E+00
-0.6657186420439E-01 -0.1721774085560E+01 -0.8405225942575E+00  0.7764908458553E+00
-0.5683510226163E-01 -0.1574572626659E+01 -0.7667616306480E+00  0.7429166657821E+00
-0.5947370543912E-01 -0.1434897467324E+01 -0.7023544494174E+00  0.7163578857150E+00
-0.7317086842441E-01 -0.1303041634705E+01 -0.6468198748301E+00  0.6951457411613E+00
-0.9610565548511E-01 -0.1180292739832E+01 -0.5999072442772E+00  0.6790289209731E+00
-0.1261487709159E+00 -0.1066967222425E+01 -0.5607645154477E+00  0.6666350704499E+00
-0.1623407278740E+00 -0.9624983678324E+00 -0.5286743736411E+00  0.6564983538903E+00
-0.2032684180627E+00 -0.8657107547690E+00 -0.5024202099565E+00  0.6469238963823E+00
-0.2478947450843E+00 -0.7745606937289E+00 -0.4805540550233E+00  0.6360598649626E+00
-0.2957061402275E+00 -0.6871276115622E+00 -0.4619318621695E+00  0.6222748140804E+00
-0.3461379936778E+00 -0.6032264648194E+00 -0.4462012943619E+00  0.6041368522756E+00
-0.1887529788699E+01 -0.2613613256158E+01 -0.2115537225717E+01  0.1573170254706E+01
-0.1468959008316E+01 -0.2720425314646E+01 -0.1969010626798E+01  0.1592337904999E+01
-0.1066048725494E+01 -0.2746376597101E+01 -0.1791839897075E+01  0.1483993163976E+01
-0.7304313894885E+00 -0.2683234582438E+01 -0.1604423002736E+01  0.1320599216519E+01
-0.4761375182958E+00 -0.2550553310370E+01 -0.1422544685865E+01  0.1152310635358E+01
-0.2963577792089E+00 -0.2376784125203E+01 -0.1256376691887E+01  0.1005306219839E+01
-0.1771189868430E+00 -0.2186930797600E+01 -0.1111103395870E+01  0.8891599689311E+00
-0.1032821561151E+00 -0.1997827378573E+01 -0.9875214787988E+00  0.8033026347290E+00
-0.6170980604802E-01 -0.1818254304304E+01 -0.8835831296244E+00  0.7423493816280E+00
-0.4243835398108E-01 -0.1651178240466E+01 -0.7959997973712E+00  0.6996624999154E+00
-0.3845140158086E-01 -0.1496142526636E+01 -0.7212591444327E+00  0.6689363757634E+00
-0.4489380272140E-01 -0.1350997825075E+01 -0.6560690634005E+00  0.6446345356365E+00
-0.6082670672335E-01 -0.1215696324296E+01 -0.5999658230574E+00  0.6251065002225E+00
-0.8473334769238E-01 -0.1091495978457E+01 -0.5528277818882E+00  0.6102757651405E+00
-0.1148774961528E+00 -0.9784856282554E+00 -0.5138806671684E+00  0.5989239688995E+00
-0.1506110143636E+00 -0.8757408855905E+00 -0.4823853917549E+00  0.5896978603350E+00
-0.1906744704390E+00 -0.7817529522845E+00 -0.4570408875208E+00  0.5809680922087E+00
-0.2339607329166E+00 -0.6942112505465E+00 -0.4362408311212E+00  0.5708629025191E+00
-0.2796197487176E+00 -0.6111620753448E+00 -0.4186674562474E+00  0.5577799547736E+00
-0.3266427291904E+00 -0.5325555274911E+00 -0.4038231796161E+00  0.5407192354449E+00
-0.1935679235529E+01 -0.2735695884249E+01 -0.2195546300727E+01  0.1613962032159E+01
-0.1452238678794E+01 -0.2852946035047E+01 -0.2023436810373E+01  0.1608174858896E+01
-0.1011252616061E+01 -0.2861205667148E+01 -0.1820055388492E+01  0.1461655235881E+01
-0.6589963599452E+00 -0.2761542616561E+01 -0.1607653314880E+01  0.1264219122485E+01
-0.4039241322970E+00 -0.2586122246494E+01 -0.1405321794467E+01  0.1073654598943E+01
-0.2326810886143E+00 -0.2373371458992E+01 -0.1224844694268E+01  0.9162623228006E+00
-0.1258159397158E+00 -0.2153098623844E+01 -0.1071089842156E+01  0.7983508068416E+00
-0.6436625930462E-01 -0.1942570402030E+01 -0.9432602284350E+00  0.7154521722365E+00
-0.3316512995536E-01 -0.1748763382984E+01 -0.8375063989572E+00  0.6591826135101E+00
-0.2160849368646E-01 -0.1572431767840E+01 -0.7491989210172E+00  0.6211660025793E+00
-0.2282197237557E-01 -0.1411382564749E+01 -0.6740761307390E+00  0.5943373504073E+00
-0.3235911281564E-01 -0.1262349256853E+01 -0.6085129322011E+00  0.5729630856978E+00
-0.4974061967112E-01 -0.1124986091283E+01 -0.5521215527483E+00  0.5555063689995E+00
-0.7383860230867E-01 -0.1000589221461E+01 -0.5049810758911E+00  0.5421224054940E+00
-0.1033767765052E+00 -0.8890405874925E+00 -0.4664361598959E+00  0.5318293278016E+00
-0.1379983806756E+00 -0.7890627502522E+00 -0.4357187304309E+00  0.5234521342221E+00
-0.1765680154333E+00 -0.6988137174626E+00 -0.4114294134175E+00  0.5154911793971E+00
-0.2178816226536E+00 -0.6157115158154E+00 -0.3917887740867E+00  0.5061218751825E+00
-0.2607948597943E+00 -0.5377334669268E+00 -0.3753083126070E+00  0.4938256040259E+00
-0.3040778431994E+00 -0.4648703914053E+00 -0.3614056693476E+00  0.4779803853730E+00
-0.1990238089613E+01 -0.2881237583853E+01 -0.2289593560722E+01  0.1660946365465E+01
-0.1428126140202E+01 -0.3007824590192E+01 -0.2084896837997E+01  0.1618474480738E+01
-0.9463395017103E+00 -0.2988223243092E+01 -0.1849244485367E+01  0.1424820321231E+01
-0.5792893536843E+00 -0.2839367323491E+01 -0.1606768634197E+01  0.1189774181712E+01
-0.3273565846825E+00 -0.2611439955731E+01 -0.1381234370491E+01  0.9783458629446E+00
-0.1687163024166E+00 -0.2355064183444E+01 -0.1186176825346E+01  0.8146833106796E+00
-0.7721361479835E-01 -0.2104091131523E+01 -0.1025213228171E+01  0.6995642245085E+00
-0.2963096786065E-01 -0.1874206145572E+01 -0.8948034410439E+00  0.6232956199551E+00
-0.9008671211050E-02 -0.1668866229656E+01 -0.7886012014071E+00  0.5741568705402E+00
-0.4617379999614E-02 -0.1485740861783E+01 -0.7004683718611E+00  0.5422523900736E+00
-0.1018534695050E-01 -0.1320681007256E+01 -0.6255071848906E+00  0.5201239674877E+00
-0.2193864915601E-01 -0.1169370281395E+01 -0.5599151959388E+00  0.5021473844453E+00
-0.3989022521317E-01 -0.1031307291864E+01 -0.5034628317491E+00  0.4869999990858E+00
-0.6336755957489E-01 -0.9079385710846E+00 -0.4565138802521E+00  0.4751210899048E+00
-0.9160656133077E-01 -0.7989756171486E+00 -0.4185736228236E+00  0.4658483574280E+00
-0.1245018598143E+00 -0.7027945309997E+00 -0.3888293026964E+00  0.4582437514116E+00
-0.1610046027271E+00 -0.6172052327685E+00 -0.3657586217552E+00  0.4509887042203E+00
-0.1997868123178E+00 -0.5393323582960E+00 -0.3473860093074E+00  0.4423516580363E+00
-0.2394451238733E+00 -0.4670496616924E+00 -0.3320525483737E+00  0.4309183642838E+00
-0.2786797299605E+00 -0.4003362550072E+00 -0.3191375121254E+00  0.4163684413431E+00
-0.2053246898566E+01 -0.3057064030655E+01 -0.2401846130642E+01  0.1715144178762E+01
-0.1395161401581E+01 -0.3189788765083E+01 -0.2154926572866E+01  0.1619842501811E+01
-0.8701451389738E+00 -0.3126936364766E+01 -0.1878628301993E+01  0.1368518429265E+01
-0.4911675149532E+00 -0.2911874887317E+01 -0.1599429925010E+01  0.1093312619588E+01
-0.2474730806103E+00 -0.2620403745527E+01 -0.1347902104866E+01  0.8647864797895E+00
-0.1062927164487E+00 -0.2317155238106E+01 -0.1139020535752E+01  0.7011344010029E+00
-0.3322675257848E-01 -0.2037483669104E+01 -0.9732338957221E+00  0.5945319747364E+00
-0.5213441429639E-03 -0.1792094909989E+01 -0.8425296373050E+00  0.5287824504444E+00
 0.9948064541835E-02 -0.1578833883338E+01 -0.7373763329641E+00  0.4889346992709E+00
 0.8212808471534E-02 -0.1391674462397E+01 -0.6502269756960E+00  0.4641829123476E+00
-0.5928783388356E-03 -0.1224620933356E+01 -0.5758504900358E+00  0.4472277641686E+00
-0.1357248770900E-01 -0.1072570803302E+01 -0.5104873454804E+00  0.4329022007724E+00
-0.3117644545409E-01 -0.9350892483237E+00 -0.4541448749237E+00  0.4201652881683E+00
-0.5323436006604E-01 -0.8139091066422E+00 -0.4075574283192E+00  0.4097691318523E+00
-0.7953389045671E-01 -0.7086099731352E+00 -0.3704276149486E+00  0.4014445730007E+00
-0.1101571826371E+00 -0.6172245509733E+00 -0.3418694139298E+00  0.3945336262050E+00
-0.1440927188911E+00 -0.5371829938272E+00 -0.3201995841654E+00  0.3879333011695E+00
-0.1798565967444E+00 -0.4652794123499E+00 -0.3032139235053E+00  0.3800327326643E+00
-0.2158131084457E+00 -0.3992535746740E+00 -0.2890813403331E+00  0.3695225263321E+00
-0.2506957700375E+00 -0.3390555154834E+00 -0.2771831034918E+00  0.3563026890866E+00
-0.2128203565408E+01 -0.3273212722701E+01 -0.2538665648972E+01  0.1777498795263E+01
-0.1351890032190E+01 -0.3404921208595E+01 -0.2235701277499E+01  0.1607014389141E+01
-0.7814265824197E+00 -0.3275116960133E+01 -0.1906575460164E+01  0.1285944358450E+01
-0.3945973366690E+00 -0.2971084063700E+01 -0.1581870254161E+01  0.9703154884272E+00
-0.1658225244601E+00 -0.2604776713098E+01 -0.1302181638350E+01  0.7321236318565E+00
-0.4787357641259E-01 -0.2254668413631E+01 -0.1082194732576E+01  0.5774215373657E+00
 0.3879675959254E-02 -0.1951729010285E+01 -0.9154891848112E+00  0.4859427015283E+00
 0.2159711827013E-01 -0.1696564931964E+01 -0.7872348704393E+00  0.4342866987818E+00
 0.2318924017369E-01 -0.1479559789214E+01 -0.6844941563127E+00  0.4052230983538E+00
 0.1685347853525E-01 -0.1291099995276E+01 -0.5988958613490E+00  0.3881054824991E+00
 0.6095795367782E-02 -0.1123915723085E+01 -0.5253753646946E+00  0.3764409598748E+00
-0.7092238694074E-02 -0.9725023714610E+00 -0.4604094656051E+00  0.3658238378817E+00
-0.2344623623225E-01 -0.8367574443321E+00 -0.4042957288398E+00  0.3554914593303E+00
-0.4333814827390E-01 -0.7188369213008E+00 -0.3582222817915E+00  0.3465028881932E+00
-0.6714334066521E-01 -0.6182209071130E+00 -0.3221211956387E+00  0.3390427837100E+00
-0.9503962616524E-01 -0.5325947894955E+00 -0.2949881746124E+00  0.3327552243246E+00
-0.1259881638328E+00 -0.4589547841590E+00 -0.2749231848589E+00  0.3267686857651E+00
-0.1583103328510E+00 -0.3937090496143E+00 -0.2594491091007E+00  0.3196067881565E+00
-0.1901602591090E+00 -0.3344349820874E+00 -0.2465597627369E+00  0.3100571598137E+00
-0.2203831371829E+00 -0.2810690329908E+00 -0.2356825193839E+00  0.2981663318869E+00
-0.2221483358339E+01 -0.3545246719350E+01 -0.2710363129639E+01  0.1848565468960E+01
-0.1297152787849E+01 -0.3661104119916E+01 -0.2330380740739E+01  0.1571611397681E+01
-0.6785999413263E+00 -0.3426797954943E+01 -0.1929537006352E+01  0.1167684089778E+01
-0.2895532853145E+00 -0.3003911422525E+01 -0.1547928408758E+01  0.8160506224315E+00
-0.8472043637338E-01 -0.2553993396296E+01 -0.1240195498209E+01  0.5811753173181E+00
 0.3104910062071E-02 -0.2163524605625E+01 -0.1015397254339E+01  0.4471960085133E+00
 0.3159993677511E-01 -0.1847045586754E+01 -0.8532594533261E+00  0.3774519260060E+00
 0.3570820551561E-01 -0.1589151136366E+01 -0.7301181756479E+00  0.3423354974258E+00
 0.3070687304441E-01 -0.1372397984809E+01 -0.6305948209299E+00  0.3245384754633E+00
 0.2158087396726E-01 -0.1185062000082E+01 -0.5468361278868E+00  0.3149438907395E+00
 0.1017886638117E-01 -0.1019329997872E+01 -0.4743010305977E+00  0.3083752867928E+00
-0.2260147890386E-02 -0.8697122601692E+00 -0.4098270307485E+00  0.3013776627211E+00
-0.1651823638172E-01 -0.7366989175667E+00 -0.3540120614579E+00  0.2933754197328E+00
-0.3357853258208E-01 -0.6230022524771E+00 -0.3085929681951E+00  0.2856969112650E+00
-0.5444692502902E-01 -0.5280289684474E+00 -0.2737636692396E+00  0.2790299760693E+00
-0.7926769108847E-01 -0.4491017100441E+00 -0.2483336179024E+00  0.2733158940531E+00
-0.1068902705309E+00 -0.3826953449895E+00 -0.2301052387110E+00  0.2679102598334E+00
-0.1353944480519E+00 -0.3247470769070E+00 -0.2162665161821E+00  0.2614758111329E+00
-0.1627542245275E+00 -0.2726442581573E+00 -0.2046372863428E+00  0.2528923594090E+00
-0.1879992179780E+00 -0.2263576190062E+00 -0.1947477128886E+00  0.2422966522856E+00
-0.2345791060308E+01 -0.3899240845994E+01 -0.2935164988518E+01  0.1927715912694E+01
-0.1230458513524E+01 -0.3968138169861E+01 -0.2443340434993E+01  0.1499763994273E+01
-0.5590296636733E+00 -0.3567975661584E+01 -0.1939692497951E+01  0.1000635206238E+01
-0.1754755740956E+00 -0.2988761639343E+01 -0.1487191486544E+01  0.6267422862099E+00
-0.8308771365391E-02 -0.2456590292578E+01 -0.1158502557115E+01  0.4161024569310E+00
 0.4194953265951E-01 -0.2042754196308E+01 -0.9403781895298E+00  0.3164812972935E+00
 0.4743429956938E-01 -0.1726504268234E+01 -0.7891628832707E+00  0.2732528555483E+00
 0.4182191956699E-01 -0.1472085872825E+01 -0.6722240563260E+00  0.2550920549807E+00
 0.3300992322139E-01 -0.1258921821969E+01 -0.5761785909500E+00  0.2480057490499E+00
 0.2291744728221E-01 -0.1074635137995E+01 -0.4943073133813E+00  0.2453457838368E+00
 0.1203991349324E-01 -0.9116248033234E+00 -0.4228048971478E+00  0.2434556827446E+00
 0.1188052709364E-02 -0.7647089420520E+00 -0.3588548170808E+00  0.2398987136594E+00
-0.1020429507874E-01 -0.6352289030079E+00 -0.3033536023313E+00  0.2341221924565E+00
-0.2386799609323E-01 -0.5266003458553E+00 -0.2587201200596E+00  0.2276669221975E+00
-0.4149400973122E-01 -0.4381828018581E+00 -0.2254481008751E+00  0.2217627503804E+00
-0.6301086014925E-01 -0.3669035333684E+00 -0.2020597644408E+00  0.2166061486243E+00
-0.8703835856109E-01 -0.3085662092585E+00 -0.1859341464036E+00  0.2117522961360E+00
-0.1113708357157E+00 -0.2585149389556E+00 -0.1738463136546E+00  0.2060045109913E+00
-0.1338485067789E+00 -0.2139063112385E+00 -0.1634447640536E+00  0.1983448189855E+00
-0.1537877283804E+00 -0.1748485880707E+00 -0.1544590683403E+00  0.1889731734679E+00
-0.2528165952099E+01 -0.4382682944571E+01 -0.3248098973197E+01  0.2011195569739E+01
-0.1153831332811E+01 -0.4337949470545E+01 -0.2581136971030E+01  0.1366995061153E+01
-0.4143198061549E+00 -0.3663691801987E+01 -0.1916665450965E+01  0.7669089157497E+00
-0.5269533733403E-01 -0.2893510927475E+01 -0.1384716940948E+01  0.4029378152017E+00
 0.5639469868326E-01 -0.2304024883317E+01 -0.1056386184098E+01  0.2470459542990E+00
 0.6100010317382E-01 -0.1900110374554E+01 -0.8643818253564E+00  0.1933671713694E+00
 0.5152240352967E-01 -0.1594007079984E+01 -0.7249677960948E+00  0.1767201532620E+00
 0.4085353543567E-01 -0.1347862003276E+01 -0.6142939783270E+00  0.1739509748148E+00
 0.3103382083572E-01 -0.1140600666859E+01 -0.5214964163084E+00  0.1763005349642E+00
 0.2148106172622E-01 -0.9608608197658E+00 -0.4415084851588E+00  0.1797062562591E+00
 0.1207849581482E-01 -0.8015340944119E+00 -0.3710441303995E+00  0.1819373896407E+00
 0.3508092296417E-02 -0.6579410643680E+00 -0.3075834960935E+00  0.1815940585750E+00
-0.4323484878213E-02 -0.5325533138845E+00 -0.2523320947785E+00  0.1779429064162E+00
-0.1413720981270E-01 -0.4296966050148E+00 -0.2086018924398E+00  0.1726759436660E+00
-0.2839013614643E-01 -0.3487472087723E+00 -0.1772545516622E+00  0.1675843169267E+00
-0.4649992549478E-01 -0.2861320995387E+00 -0.1563370513692E+00  0.1630188348642E+00
-0.6671370329576E-01 -0.2367501354671E+00 -0.1426280038568E+00  0.1586821290978E+00
-0.8649297974658E-01 -0.1951522247394E+00 -0.1323732457727E+00  0.1535259561891E+00
-0.1036696613800E+00 -0.1582557777544E+00 -0.1231049560809E+00  0.1466739709212E+00
-0.1179397779388E+00 -0.1264023195182E+00 -0.1148407855135E+00  0.1384012622305E+00
-0.2844713465691E+01 -0.5104856469460E+01 -0.3736297860044E+01  0.2084507806006E+01
-0.1061510540869E+01 -0.4764698483856E+01 -0.2738318234675E+01  0.1126657872030E+01
-0.2295716234101E+00 -0.3640175757436E+01 -0.1818781264385E+01  0.4444252738997E+00
 0.8541796126787E-01 -0.2664398443973E+01 -0.1212120823797E+01  0.1588294436404E+00
 0.8071801957572E-01 -0.2122008345735E+01 -0.9594064508613E+00  0.9292678096480E-01
 0.6163668882990E-01 -0.1742506553142E+01 -0.7900088342227E+00  0.8371062493591E-01
 0.4546684113019E-01 -0.1453887830779E+01 -0.6619578634558E+00  0.8952416629625E-01
 0.3457409838834E-01 -0.1218409642249E+01 -0.5564027042034E+00  0.9951072831082E-01
 0.2576698255576E-01 -0.1018776239574E+01 -0.4667143496148E+00  0.1097521052822E+00
 0.1789106871538E-01 -0.8447159902592E+00 -0.3886077121399E+00  0.1182314716930E+00
 0.1065886188910E-01 -0.6897799014852E+00 -0.3191868878006E+00  0.1239278634350E+00
 0.4906550908891E-02 -0.5498124287798E+00 -0.2561057619497E+00  0.1265317613980E+00
 0.1316832912972E-02 -0.4286813938994E+00 -0.2008613431542E+00  0.1249397856970E+00
-0.4348667075808E-02 -0.3321611786620E+00 -0.1581596270956E+00  0.1209489085797E+00
-0.1532475431090E-01 -0.2596886558183E+00 -0.1292563024329E+00  0.1168601976916E+00
-0.3006424983572E-01 -0.2069473535199E+00 -0.1113954532946E+00  0.1129805929257E+00
-0.4620495144395E-01 -0.1674574376327E+00 -0.1004213226113E+00  0.1090978839988E+00
-0.6101451455551E-01 -0.1348846092229E+00 -0.9207258794233E-01  0.1043528927267E+00
-0.7235045246109E-01 -0.1057254454719E+00 -0.8369567181620E-01  0.9807899687635E-01
-0.8061790578577E-01 -0.8090466244695E-01 -0.7591560687683E-01  0.9069636221270E-01
-0.3469439743699E+01 -0.6302514874350E+01 -0.4592818658834E+01  0.2107516353476E+01
-0.9969122293121E+00 -0.5253888299013E+01 -0.2937876240861E+01  0.6703548559366E+00
 0.1616308678910E+00 -0.3175515025275E+01 -0.1416525550377E+01  0.2567737716870E-01
 0.1138963775932E+00 -0.2407755556964E+01 -0.1078113811570E+01 -0.5076056286957E-01
 0.7449483842947E-01 -0.1921201010230E+01 -0.8679518985448E+00 -0.3474243660751E-01
 0.4644484130910E-01 -0.1578435684249E+01 -0.7200356943556E+00 -0.1095008722676E-01
 0.3301641474414E-01 -0.1308363305457E+01 -0.5994130371146E+00  0.1187140614153E-01
 0.2445608847787E-01 -0.1085517578427E+01 -0.4986988990110E+00  0.3188707535202E-01
 0.1817335018359E-01 -0.8945657294147E+00 -0.4119044171939E+00  0.4847281939841E-01
 0.1276274653933E-01 -0.7270624033600E+00 -0.3357208378542E+00  0.6101486141407E-01
 0.7984756974566E-02 -0.5772582637369E+00 -0.2675585474997E+00  0.6940927676293E-01
 0.5577659816618E-02 -0.4406457788732E+00 -0.2044820154380E+00  0.7458859109481E-01
 0.6889838979782E-02 -0.3233447003343E+00 -0.1487337844594E+00  0.7505799174830E-01
 0.5595910568775E-02 -0.2333856155867E+00 -0.1070611610869E+00  0.7270555176425E-01
-0.2740125000049E-02 -0.1709994828927E+00 -0.8165761550250E-01  0.7008160109894E-01
-0.1416531565728E-01 -0.1296815249844E+00 -0.6760801493011E-01  0.6698993443991E-01
-0.2571584528749E-01 -0.1008964789959E+00 -0.5950779226228E-01  0.6339144933542E-01
-0.3508308322591E-01 -0.7787516571247E-01 -0.5309037686638E-01  0.5880818727184E-01
-0.4023806582384E-01 -0.5682508993933E-01 -0.4561968309298E-01  0.5273952312031E-01
-0.4143953689752E-01 -0.3778877005985E-01 -0.3723730417552E-01  0.4580498290196E-01
-0.6314396965862E+01 -0.9988320824310E+01 -0.7662277341946E+01  0.1696804877345E+01
 0.3803284211847E+00 -0.3909132172776E+01 -0.1658537759041E+01 -0.2516039917653E+00
 0.1646559011941E+00 -0.2763832746758E+01 -0.1221613114317E+01 -0.2975714145904E+00
 0.9009624388843E-01 -0.2129519744095E+01 -0.9585290426660E+00 -0.1991073664233E+00
 0.4089828395065E-01 -0.1720259962166E+01 -0.7892999867592E+00 -0.1373599174986E+00
 0.2430725839283E-01 -0.1409131455080E+01 -0.6508673707923E+00 -0.9164302881776E-01
 0.1643195269989E-01 -0.1159683779605E+01 -0.5373283572824E+00 -0.5660000960484E-01
 0.1178123244088E-01 -0.9507179878403E+00 -0.4413002739184E+00 -0.2898208787307E-01
 0.8944522980386E-02 -0.7690752740522E+00 -0.3572614520976E+00 -0.7629276890696E-02
 0.6966250124013E-02 -0.6082289577728E+00 -0.2825934718782E+00  0.8097568835507E-02
 0.4278617142098E-02 -0.4650494711443E+00 -0.2165623008318E+00  0.1843044973614E-01
 0.4600583494068E-02 -0.3322131626850E+00 -0.1539779118292E+00  0.2519075886069E-01
 0.1391027834812E-01 -0.2139175539213E+00 -0.9400341928097E-01  0.2780979670483E-01
 0.1525983418217E-01 -0.1324070569648E+00 -0.5505919456817E-01  0.2854404748110E-01
 0.8152605173737E-02 -0.8357103401866E-01 -0.3544666146721E-01  0.2805866589308E-01
 0.1174655624037E-02 -0.5449948742077E-01 -0.2506267088090E-01  0.2552419333592E-01
-0.5467796232527E-02 -0.3737275530367E-01 -0.2013505917094E-01  0.2193351384242E-01
-0.8836343681676E-02 -0.2428095086733E-01 -0.1556512839856E-01  0.1719263130911E-01
-0.7257624465512E-02 -0.1155704236502E-01 -0.8842893387920E-02  0.1097055309195E-01
-0.1549498406908E-02  0.6483177202851E-03 -0.4235549216384E-03  0.3690219589596E-02
-0.4108322754772E+00 -0.3270563204988E+01 -0.1730255871430E+01  0.1278629536946E+01
-0.4262063646739E+00 -0.3290287292519E+01 -0.1746752014450E+01  0.1251630569229E+01
-0.4819088571454E+00 -0.3340725053193E+01 -0.1796637933302E+01  0.1218353692486E+01
-0.5460277062834E+00 -0.3392585598567E+01 -0.1851148248585E+01  0.1181628097284E+01
-0.6197001853717E+00 -0.3444028848442E+01 -0.1909952641048E+01  0.1142088665899E+01
-0.7027671437137E+00 -0.3493458905880E+01 -0.1972226238307E+01  0.1099789643973E+01
-0.7959415513198E+00 -0.3540146560798E+01 -0.2037961407526E+01  0.1054697612774E+01
-0.9000759769795E+00 -0.3583442195578E+01 -0.2107253535757E+01  0.1006754179774E+01
-0.1016206825769E+01 -0.3622738408064E+01 -0.2180304254371E+01  0.9558777714542E+00
-0.1145526467822E+01 -0.3657433307579E+01 -0.2257391088713E+01  0.9019412797185E+00
-0.1289392680860E+01 -0.3686940386816E+01 -0.2338876535876E+01  0.8447404174269E+00
-0.1449336058132E+01 -0.3710710997346E+01 -0.2425222109923E+01  0.7839520211245E+00
-0.1627059897263E+01 -0.3728273163017E+01 -0.2517006531948E+01  0.7190797854454E+00
-0.1824415219956E+01 -0.3739291809795E+01 -0.2614942297351E+01  0.6493848915606E+00
-0.2043313045593E+01 -0.3743651091135E+01 -0.2719873137363E+01  0.5738030510020E+00
-0.2285538279785E+01 -0.3741583109181E+01 -0.2832747045629E+01  0.4908569029888E+00
-0.2552206529072E+01 -0.3733665822839E+01 -0.2954359997905E+01  0.3986207898729E+00
-0.2843394197183E+01 -0.3721190616233E+01 -0.3085354854480E+01  0.2947904268697E+00
-0.3154126477258E+01 -0.3702562897130E+01 -0.3222643997789E+01  0.1775628263458E+00
-0.3496964395738E+01 -0.3689596701694E+01 -0.3377683707226E+01  0.4447810419823E-01
-0.4073198749817E+00 -0.3228659375554E+01 -0.1708910243418E+01  0.1320795087938E+01
-0.4607263214900E+00 -0.3297122582893E+01 -0.1766188980580E+01  0.1294277127100E+01
-0.5163297552924E+00 -0.3348307990953E+01 -0.1816379736128E+01  0.1266413825119E+01
-0.5866018930080E+00 -0.3404493992127E+01 -0.1875815061255E+01  0.1233401082788E+01
-0.6665776294926E+00 -0.3461091224822E+01 -0.1940004356607E+01  0.1196700981945E+01
-0.7569395620710E+00 -0.3517160510098E+01 -0.2008827028824E+01  0.1156650884487E+01
-0.8583133486672E+00 -0.3571605827665E+01 -0.2082062007595E+01  0.1113320048570E+01
-0.9717016406743E+00 -0.3623664635827E+01 -0.2159822144478E+01  0.1066622312671E+01
-0.1098240970662E+01 -0.3672656869701E+01 -0.2242321979283E+01  0.1016392891747E+01
-0.1239201990209E+01 -0.3717960429039E+01 -0.2329866331137E+01  0.9623919865470E+00
-0.1395969241474E+01 -0.3758996624299E+01 -0.2422833950768E+01  0.9042849522161E+00
-0.1570023114638E+01 -0.3795247744546E+01 -0.2521677297421E+01  0.8416083434072E+00
-0.1762901874255E+01 -0.3826293359337E+01 -0.2626921753126E+01  0.7737282084999E+00
-0.1976127924595E+01 -0.3851864314161E+01 -0.2739156345268E+01  0.6997966416819E+00
-0.2211081746609E+01 -0.3871918177817E+01 -0.2859009957228E+01  0.6187181595827E+00
-0.2468764200261E+01 -0.3886694172720E+01 -0.2987065427725E+01  0.5291541175730E+00
-0.2749585138503E+01 -0.3896852123127E+01 -0.3123825505043E+01  0.4296026560779E+00
-0.3052594401229E+01 -0.3902977984202E+01 -0.3269119012861E+01  0.3186729978592E+00
-0.3378684527906E+01 -0.3907925542670E+01 -0.3424706724484E+01  0.1951889568823E+00
-0.3722472481675E+01 -0.3910225509866E+01 -0.3587368046925E+01  0.5763787002455E-01
-0.4285871141027E+00 -0.3208845501762E+01 -0.1709593325120E+01  0.1363766629297E+01
-0.4850746107300E+00 -0.3278590850084E+01 -0.1768922762096E+01  0.1337257524993E+01
-0.5500178352689E+00 -0.3343490515946E+01 -0.1829948920429E+01  0.1311539965911E+01
-0.6243901024140E+00 -0.3405005970354E+01 -0.1893816149397E+01  0.1282166527523E+01
-0.7100233190694E+00 -0.3467070174920E+01 -0.1963233937196E+01  0.1248583256966E+01
-0.8066586130731E+00 -0.3528925630874E+01 -0.2037724589487E+01  0.1211033997938E+01
-0.9151239788677E+00 -0.3589987724573E+01 -0.2117402495247E+01  0.1169568684398E+01
-0.1036408304464E+01 -0.3649535714518E+01 -0.2202393683335E+01  0.1124085330231E+01
-0.1171689789844E+01 -0.3706916847339E+01 -0.2292945113660E+01  0.1074360209112E+01
-0.1322247121804E+01 -0.3761522192408E+01 -0.2389371571619E+01  0.1020068674662E+01
-0.1489428767422E+01 -0.3812798765587E+01 -0.2492046934193E+01  0.9607807427245E+00
-0.1674610947685E+01 -0.3860267195648E+01 -0.2601392720769E+01  0.8959443215549E+00
-0.1879140099366E+01 -0.3903555076491E+01 -0.2717866725759E+01  0.8248645935148E+00
-0.2104248302640E+01 -0.3942443321984E+01 -0.2841945056365E+01  0.7466894958259E+00
-0.2350928018336E+01 -0.3976914789958E+01 -0.2974086112355E+01  0.6604156607916E+00
-0.2619799129555E+01 -0.4007219470227E+01 -0.3114698733997E+01  0.5649334336399E+00
-0.2910886243477E+01 -0.4033828938101E+01 -0.3264016127063E+01  0.4591399068665E+00
-0.3224014264970E+01 -0.4057772167527E+01 -0.3422439614593E+01  0.3420822467245E+00
-0.3557585334259E+01 -0.4079550572716E+01 -0.3589453867174E+01  0.2130331866394E+00
-0.3910087630799E+01 -0.4100494279282E+01 -0.3764973488189E+01  0.7189663759695E-01
-0.4488317483003E+00 -0.3186611573585E+01 -0.1708658356952E+01  0.1404170043671E+01
-0.5109609970221E+00 -0.3257767929429E+01 -0.1771302590939E+01  0.1379857923122E+01
-0.5802791440480E+00 -0.3326787969521E+01 -0.1836321538720E+01  0.1355687280693E+01
-0.6597239972128E+00 -0.3394414618896E+01 -0.1905445144738E+01  0.1328830843401E+01
-0.7499362427720E+00 -0.3461385730333E+01 -0.1979321322339E+01  0.1298025127852E+01
-0.8518084548634E+00 -0.3528375100141E+01 -0.2058686265630E+01  0.1262900227113E+01
-0.9660630706541E+00 -0.3595042795382E+01 -0.2143719751599E+01  0.1223306580929E+01
-0.1093727843432E+01 -0.3660911462117E+01 -0.2234680467940E+01  0.1179035905241E+01
-0.1235956542712E+01 -0.3725423378510E+01 -0.2331848557060E+01  0.1129786297598E+01
-0.1393994422206E+01 -0.3788032914445E+01 -0.2435552842048E+01  0.1075157388535E+01
-0.1569120900752E+01 -0.3848234232780E+01 -0.2546156906302E+01  0.1014650367116E+01
-0.1762598291372E+01 -0.3905591250734E+01 -0.2664049078033E+01  0.9476643423103E+00
-0.1975608440074E+01 -0.3959770201121E+01 -0.2789627954286E+01  0.8734942539939E+00
-0.2209173535231E+01 -0.4010576377380E+01 -0.2923282451513E+01  0.7913382711870E+00
-0.2464068403780E+01 -0.4057995153692E+01 -0.3065369864237E+01  0.7003245194439E+00
-0.2740718788181E+01 -0.4102210719512E+01 -0.3216176860459E+01  0.5995677850945E+00
-0.3039210008810E+01 -0.4143668358592E+01 -0.3375952824116E+01  0.4882553538616E+00
-0.3359094949027E+01 -0.4182887856183E+01 -0.3544731909458E+01  0.3657430236977E+00
-0.3699690955637E+01 -0.4220610461258E+01 -0.3722541656499E+01  0.2317133818040E+00
-0.4059944330707E+01 -0.4257327900014E+01 -0.3909117938524E+01  0.8630662345915E-01
-0.4686416099917E+00 -0.3160794089970E+01 -0.1705834774656E+01  0.1441836056844E+01
-0.5350047755854E+00 -0.3231627170913E+01 -0.1770317010364E+01  0.1420492550863E+01
-0.6086831275645E+00 -0.3302804437123E+01 -0.1838399150740E+01  0.1398365858090E+01
-0.6919996296363E+00 -0.3373670389067E+01 -0.1910864903944E+01  0.1373702570801E+01
-0.7862448664974E+00 -0.3444547762782E+01 -0.1988472530718E+01  0.1345261486644E+01
-0.8922744122567E+00 -0.3515600872002E+01 -0.2071701378347E+01  0.1312350496970E+01
-0.1011037024419E+01 -0.3586791387821E+01 -0.2160979348272E+01  0.1274545572436E+01
-0.1143544113105E+01 -0.3657788227863E+01 -0.2256626194531E+01  0.1231476858831E+01
-0.1290927260640E+01 -0.3728164526275E+01 -0.2358973133867E+01  0.1182731772307E+01
-0.1454377367224E+01 -0.3797458436102E+01 -0.2468362821303E+01  0.1127828278179E+01
-0.1635098972910E+01 -0.3865225932589E+01 -0.2585152699028E+01  0.1066208929028E+01
-0.1834255229172E+01 -0.3931075474300E+01 -0.2709705423759E+01  0.9972436804170E+00
-0.2052908682762E+01 -0.3994700472335E+01 -0.2842376295686E+01  0.9202394076335E+00
-0.2291957611509E+01 -0.4055910847124E+01 -0.2983498167990E+01  0.8344596734140E+00
-0.2552070795723E+01 -0.4114658597992E+01 -0.3133362807099E+01  0.7391593886239E+00
-0.2833647921516E+01 -0.4171063861719E+01 -0.3292214529770E+01  0.6336363187361E+00
-0.3136771681640E+01 -0.4225392080948E+01 -0.3460216959640E+01  0.5172943623272E+00
-0.3461282714566E+01 -0.4278074633440E+01 -0.3637497944337E+01  0.3897168194524E+00
-0.3806833288891E+01 -0.4329584649245E+01 -0.3824116421224E+01  0.2507223700157E+00
-0.4173135082559E+01 -0.4380330379143E+01 -0.4020128756804E+01  0.1004215260533E+00
-0.4875111170116E+00 -0.3130382615243E+01 -0.1700410049847E+01  0.1476667878405E+01
-0.5574242200045E+00 -0.3200219016552E+01 -0.1766092316702E+01  0.1458608958322E+01
-0.6346955602515E+00 -0.3271747209635E+01 -0.1836028097190E+01  0.1438907135739E+01
-0.7213876245386E+00 -0.3344151188332E+01 -0.1910803237203E+01  0.1416477284766E+01
-0.8188391683203E+00 -0.3417260136417E+01 -0.1990966668177E+01  0.1390232595320E+01
-0.9281055735294E+00 -0.3491087542744E+01 -0.2077020759381E+01  0.1359363799553E+01
-0.1050173004479E+01 -0.3565536630364E+01 -0.2169383522874E+01  0.1323258499579E+01
-0.1186086838822E+01 -0.3640386207480E+01 -0.2268442326008E+01  0.1281382165039E+01
-0.1336947243998E+01 -0.3715305063085E+01 -0.2374558578306E+01  0.1233199892305E+01
-0.1503895169628E+01 -0.3789916745773E+01 -0.2488091593928E+01  0.1178140277683E+01
-0.1688069009995E+01 -0.3863840618260E+01 -0.2609397518661E+01  0.1115586542287E+01
-0.1890557965921E+01 -0.3936727427651E+01 -0.2738824128032E+01  0.1044881754785E+01
-0.2112351602922E+01 -0.4008288551394E+01 -0.2876700865232E+01  0.9653441383325E+00
-0.2354289914240E+01 -0.4078320839974E+01 -0.3023327046812E+01  0.8762920204243E+00
-0.2617021864203E+01 -0.4146727117774E+01 -0.3178962013466E+01  0.7770788439208E+00
-0.2900973198120E+01 -0.4213522750575E+01 -0.3343813087406E+01  0.6671365301832E+00
-0.3206351089600E+01 -0.4278841692369E+01 -0.3518040598602E+01  0.5460229761736E+00
-0.3533166703354E+01 -0.4342913639924E+01 -0.3701757751952E+01  0.4134596876992E+00
-0.3881380558060E+01 -0.4406104411959E+01 -0.3895117926029E+01  0.2693319205537E+00
-0.4251125886539E+01 -0.4468869512964E+01 -0.4098397827371E+01  0.1136124665720E+00
-0.5054537319452E+00 -0.3095205433809E+01 -0.1692309803612E+01  0.1508634520009E+01
-0.5782278489845E+00 -0.3163339907438E+01 -0.1758536841058E+01  0.1493898471376E+01
-0.6584792079457E+00 -0.3234012781493E+01 -0.1829471230396E+01  0.1476848077832E+01
-0.7479294196528E+00 -0.3306439575409E+01 -0.1905553422846E+01  0.1456746067007E+01
-0.8479243453995E+00 -0.3380304095642E+01 -0.1987267362249E+01  0.1432659538455E+01
-0.9595693441673E+00 -0.3455473123402E+01 -0.2075069954494E+01  0.1403747477518E+01
-0.1083901819671E+01 -0.3531825630190E+01 -0.2169391895932E+01  0.1369282008407E+01
-0.1221965885377E+01 -0.3609171939477E+01 -0.2270634771922E+01  0.1328597540798E+01
-0.1374839447864E+01 -0.3687254895222E+01 -0.2379184335216E+01  0.1281043211129E+01
-0.1543619404893E+01 -0.3765770017220E+01 -0.2495413022064E+01  0.1225956409145E+01
-0.1729393687692E+01 -0.3844396846479E+01 -0.2619681544416E+01  0.1162655931465E+01
-0.1933203181597E+01 -0.3922825804292E+01 -0.2752333616387E+01  0.1090449604235E+01
-0.2156001844620E+01 -0.4000781613316E+01 -0.2893688217890E+01  0.1008652175936E+01
-0.2398619507222E+01 -0.4078042157051E+01 -0.3044030974488E+01  0.9166112934767E+00
-0.2661731540220E+01 -0.4154450497936E+01 -0.3203605549808E+01  0.8137396319021E+00
-0.2945843268771E+01 -0.4229920449344E+01 -0.3372608938960E+01  0.6995504770366E+00
-0.3251287298993E+01 -0.4304429589867E+01 -0.3551186928757E+01  0.5736914028268E+00
-0.3578244390775E+01 -0.4378014515519E+01 -0.3739441676474E+01  0.4359675014962E+00
-0.3926735495706E+01 -0.4450754144714E+01 -0.3937420121010E+01  0.2863362750293E+00
-0.4296904894635E+01 -0.4523127760577E+01 -0.4145415337435E+01  0.1247687412639E+00
-0.5224755913847E+00 -0.3055292020300E+01 -0.1681550773227E+01  0.1537698333777E+01
-0.5975892962509E+00 -0.3121066458886E+01 -0.1747768200481E+01  0.1526178898876E+01
-0.6802612603285E+00 -0.3189879622988E+01 -0.1818966210545E+01  0.1511848576334E+01
-0.7719377107867E+00 -0.3261092771372E+01 -0.1895524321807E+01  0.1494126199655E+01
-0.8738851225333E+00 -0.3334362189057E+01 -0.1977876231431E+01  0.1472182997742E+01
-0.9872114414451E+00 -0.3409508518312E+01 -0.2066458375845E+01  0.1445175218647E+01
-0.1112956980073E+01 -0.3486394343380E+01 -0.2161695116540E+01  0.1412302335542E+01
-0.1252156453613E+01 -0.3564860959427E+01 -0.2263998178386E+01  0.1372798392408E+01
-0.1405859523698E+01 -0.3644706170496E+01 -0.2373765870251E+01  0.1325911087640E+01
-0.1575127060261E+01 -0.3725689915924E+01 -0.2491383972488E+01  0.1270888851779E+01
-0.1761010468012E+01 -0.3807548946016E+01 -0.2617222917955E+01  0.1206980483212E+01
-0.1964523627025E+01 -0.3890014627436E+01 -0.2751632972618E+01  0.1133446060260E+01
-0.2186612061433E+01 -0.3972829088094E+01 -0.2894937332935E+01  0.1049576486100E+01
-0.2428124153341E+01 -0.4055758133031E+01 -0.3047424666865E+01  0.9547188365093E+00
-0.2689788818807E+01 -0.4138599597731E+01 -0.3209342547632E+01  0.8483046226961E+00
-0.2972201917208E+01 -0.4221184604213E+01 -0.3380891656493E+01  0.7298775952673E+00
-0.3275822780564E+01 -0.4303371294760E+01 -0.3562221206367E+01  0.5991177584163E+00
-0.3600966137124E+01 -0.4385024854239E+01 -0.3753415756421E+01  0.4558593861152E+00
-0.3947760138062E+01 -0.4465985633262E+01 -0.3954460502492E+01  0.3001088192642E+00
-0.4315655425880E+01 -0.4545864471613E+01 -0.4164914341258E+01  0.1320875708119E+00
-0.5385967913462E+00 -0.3010805517455E+01 -0.1668219080905E+01  0.1563817573094E+01
-0.6156600925338E+00 -0.3073587760812E+01 -0.1733946486674E+01  0.1555322316773E+01
-0.7002943193156E+00 -0.3139684870223E+01 -0.1804790214505E+01  0.1543654965747E+01
-0.7937317375422E+00 -0.3208625171848E+01 -0.1881107742642E+01  0.1528282379358E+01
-0.8971323774863E+00 -0.3280112645974E+01 -0.1963305156047E+01  0.1508431237076E+01
-0.1011559182419E+01 -0.3353976119811E+01 -0.2051801586844E+01  0.1483255943478E+01
-0.1138026184322E+01 -0.3430095061552E+01 -0.2147016980115E+01  0.1451903999686E+01
-0.1277539266946E+01 -0.3508347768478E+01 -0.2249366900944E+01  0.1413529534995E+01
-0.1431115417731E+01 -0.3588587177883E+01 -0.2359260213955E+01  0.1367291316186E+01
-0.1599782519826E+01 -0.3670634815283E+01 -0.2477096141218E+01  0.1312352284124E+01
-0.1784566664428E+01 -0.3754285383468E+01 -0.2603260455908E+01  0.1247886665483E+01
-0.1986471668263E+01 -0.3839315467438E+01 -0.2738119946835E+01  0.1173095320432E+01
-0.2206455246946E+01 -0.3925493466283E+01 -0.2882015887908E+01  0.1087227586801E+01
-0.2445405194324E+01 -0.4012589034696E+01 -0.3035257279941E+01  0.9896068149450E+00
-0.2704118376568E+01 -0.4100381042956E+01 -0.3198114719065E+01  0.8796561630338E+00
-0.2983284668456E+01 -0.4188663241844E+01 -0.3370815509291E+01  0.7569210856012E+00
-0.3283475593844E+01 -0.4277245726111E+01 -0.3553539011366E+01  0.6210857456386E+00
-0.3605132104089E+01 -0.4365945902789E+01 -0.3746406653730E+01  0.4719852110093E+00
-0.3948539479382E+01 -0.4454557469672E+01 -0.3949455556038E+01  0.3096273393828E+00
-0.4313585743358E+01 -0.4542537861559E+01 -0.4162378083754E+01  0.1343527456754E+00
-0.5537732346301E+00 -0.2961966640976E+01 -0.1652397737344E+01  0.1586957177256E+01
-0.6323877355639E+00 -0.3021088141724E+01 -0.1717133657970E+01  0.1581242322260E+01
-0.7185053593598E+00 -0.3083654085177E+01 -0.1787014934400E+01  0.1572091958235E+01
-0.8131795602451E+00 -0.3149346165770E+01 -0.1862387086504E+01  0.1558967882360E+01
-0.9174487528051E+00 -0.3217949559847E+01 -0.1943637202017E+01  0.1541115877540E+01
-0.1032299535136E+01 -0.3289340006941E+01 -0.2031170579625E+01  0.1517681290573E+01
-0.1158689795086E+01 -0.3363439658802E+01 -0.2125400837937E+01  0.1487768340760E+01
-0.1297576668769E+01 -0.3440178587636E+01 -0.2226744964863E+01  0.1450463658776E+01
-0.1449933126564E+01 -0.3519470512319E+01 -0.2335619704351E+01  0.1404846243492E+01
-0.1616752194095E+01 -0.3601201014917E+01 -0.2452438002015E+01  0.1349996740620E+01
-0.1799041232183E+01 -0.3685223658916E+01 -0.2577604492279E+01  0.1285011753898E+01
-0.1997809412338E+01 -0.3771360681237E+01 -0.2711509937103E+01  0.1209024603985E+01
-0.2214050823822E+01 -0.3859406193264E+01 -0.2854524790790E+01  0.1121231512901E+01
-0.2448725333698E+01 -0.3949131257095E+01 -0.3006992590045E+01  0.1020920727721E+01
-0.2702739067674E+01 -0.4040290885126E+01 -0.3169224069778E+01  0.9075012033409E+00
-0.2976926571970E+01 -0.4132633193688E+01 -0.3341493081384E+01  0.7805270988935E+00
-0.3272037127918E+01 -0.4225909751136E+01 -0.3524035024217E+01  0.6397150534206E+00
-0.3588737069363E+01 -0.4319888650379E+01 -0.3717054078851E+01  0.4849530193092E+00
-0.3927635727015E+01 -0.4414344269970E+01 -0.3920730588639E+01  0.3163081610343E+00
-0.4289823479321E+01 -0.4509281921130E+01 -0.4135579527723E+01  0.1340137208959E+00
-0.5679295136685E+00 -0.2908982733574E+01 -0.1634148752059E+01  0.1607109920383E+01
-0.6476299598083E+00 -0.2963678229457E+01 -0.1697314844650E+01  0.1603920860666E+01
-0.7346702921840E+00 -0.3021827553324E+01 -0.1765553982911E+01  0.1597113162863E+01
-0.8299432816384E+00 -0.3083244640410E+01 -0.1839198318698E+01  0.1586124567940E+01
-0.9343547831291E+00 -0.3147807433629E+01 -0.1918616237010E+01  0.1570200745069E+01
-0.1048789608721E+01 -0.3215460455556E+01 -0.2004197525127E+01  0.1548473635916E+01
-0.1174122455559E+01 -0.3286188453147E+01 -0.2096346121775E+01  0.1520010620142E+01
-0.1311238477398E+01 -0.3359987255080E+01 -0.2195476088696E+01  0.1483840714874E+01
-0.1461049713551E+01 -0.3436840777981E+01 -0.2302008525181E+01  0.1438970897096E+01
-0.1624504177047E+01 -0.3516704929825E+01 -0.2416368274101E+01  0.1384401758764E+01
-0.1802588025457E+01 -0.3599496710821E+01 -0.2538979819611E+01  0.1319147356966E+01
-0.1996321817130E+01 -0.3685086767964E+01 -0.2670262028222E+01  0.1242260962585E+01
-0.2206751680250E+01 -0.3773294730892E+01 -0.2810621806108E+01  0.1152866248630E+01
-0.2434935884426E+01 -0.3863887734870E+01 -0.2960447093561E+01  0.1050191870933E+01
-0.2681927433698E+01 -0.3956583423191E+01 -0.3120100094824E+01  0.9336061257026E+00
-0.2948754018893E+01 -0.4051058891195E+01 -0.3289912059397E+01  0.8026474164980E+00
-0.3236400365818E+01 -0.4146967751886E+01 -0.3470183006520E+01  0.6570455051643E+00
-0.3545800292653E+01 -0.4243963543704E+01 -0.3661188993802E+01  0.4967274756304E+00
-0.3877905701402E+01 -0.4341763986850E+01 -0.3863244743680E+01  0.3217928584735E+00
-0.4233779146545E+01 -0.4440213306223E+01 -0.4076776442461E+01  0.1323778295395E+00
-0.5810323601207E+00 -0.2852126617495E+01 -0.1613584715387E+01  0.1624247541247E+01
-0.6613281518787E+00 -0.2901595559414E+01 -0.1674574140060E+01  0.1623312447899E+01
-0.7487071335399E+00 -0.2954413562023E+01 -0.1740466722500E+01  0.1618645123899E+01
-0.8439070477311E+00 -0.3010505155492E+01 -0.1811573730920E+01  0.1609659002646E+01
-0.9476922503369E+00 -0.3069840911147E+01 -0.1888240581108E+01  0.1595594420242E+01
-0.1060825154241E+01 -0.3132444125723E+01 -0.1970836556584E+01  0.1575571695506E+01
-0.1184072478308E+01 -0.3198374323519E+01 -0.2059749991635E+01  0.1548629626835E+01
-0.1318222926765E+01 -0.3267704265550E+01 -0.2155385774921E+01  0.1513750013448E+01
-0.1464105466436E+01 -0.3340497843838E+01 -0.2258163550101E+01  0.1469875868788E+01
-0.1622604511174E+01 -0.3416790591825E+01 -0.2368515692402E+01  0.1415929868250E+01
-0.1794671019875E+01 -0.3496572394556E+01 -0.2486884398475E+01  0.1350837116749E+01
-0.1981329011732E+01 -0.3579771855051E+01 -0.2613717400759E+01  0.1273554171780E+01
-0.2183676589670E+01 -0.3666242571654E+01 -0.2749461998849E+01  0.1183104509511E+01
-0.2402880063152E+01 -0.3755752788384E+01 -0.2894557432880E+01  0.1078619030950E+01
-0.2640159619933E+01 -0.3847980992849E+01 -0.3049426080273E+01  0.9593785596886E+00
-0.2896765998264E+01 -0.3942520939271E+01 -0.3214464852488E+01  0.8248534781414E+00
-0.3173948736391E+01 -0.4038898875763E+01 -0.3390038369114E+01  0.6747336143387E+00
-0.3472923527647E+01 -0.4136608946466E+01 -0.3576480253762E+01  0.5089383827748E+00
-0.3794819913179E+01 -0.4235157353500E+01 -0.3774089305766E+01  0.3275879279393E+00
-0.4140483731332E+01 -0.4334075708059E+01 -0.3983042926411E+01  0.1309208404402E+00
-0.5930712782077E+00 -0.2791722010053E+01 -0.1590852841447E+01  0.1638326951445E+01
-0.6734939600253E+00 -0.2835195325845E+01 -0.1649083960176E+01  0.1639340566973E+01
-0.7606581828038E+00 -0.2881797182989E+01 -0.1711954017580E+01  0.1636568121652E+01
-0.8551492173612E+00 -0.2931544349091E+01 -0.1779745971719E+01  0.1629406596660E+01
-0.9575824784192E+00 -0.2984492863981E+01 -0.1852775406229E+01  0.1617094986712E+01
-0.1068581278283E+01 -0.3040745879487E+01 -0.1931383759253E+01  0.1598749422107E+01
-0.1188782092190E+01 -0.3100442613310E+01 -0.2015935606472E+01  0.1573391492942E+01
-0.1318852125275E+01 -0.3163739409855E+01 -0.2106818016167E+01  0.1539968372468E+01
-0.1459510924193E+01 -0.3230788336535E+01 -0.2204440646951E+01  0.1497369339664E+01
-0.1611552579458E+01 -0.3301715017450E+01 -0.2309235764690E+01  0.1444443485940E+01
-0.1775866910504E+01 -0.3376595779467E+01 -0.2421657458144E+01  0.1380022213675E+01
-0.1953458098411E+01 -0.3455434043638E+01 -0.2542179300315E+01  0.1302948876279E+01
-0.2145458396045E+01 -0.3538136697182E+01 -0.2671289687041E+01  0.1212116716071E+01
-0.2353133386594E+01 -0.3624492569202E+01 -0.2809484192098E+01  0.1106514897105E+01
-0.2577874416885E+01 -0.3714156872678E+01 -0.2957254698594E+01  0.9852805920589E+00
-0.2821173603843E+01 -0.3806646879711E+01 -0.3115075619369E+01  0.8477525589872E+00
-0.3084578080746E+01 -0.3901355088599E+01 -0.3283388581264E+01  0.6935185681766E+00
-0.3369616638756E+01 -0.3997582423718E+01 -0.3462583550581E+01  0.5224459332921E+00
-0.3677677010256E+01 -0.4094586846059E+01 -0.3652964003203E+01  0.3346868556381E+00
-0.4009824913169E+01 -0.4191658326079E+01 -0.3854697112670E+01  0.1306728054433E+00
-0.6040409681225E+00 -0.2728127665483E+01 -0.1566119253822E+01  0.1649306178143E+01
-0.6841656611997E+00 -0.2764900824522E+01 -0.1621061244178E+01  0.1651923174603E+01
-0.7706180055212E+00 -0.2804467602391E+01 -0.1680290231457E+01  0.1650748778505E+01
-0.8638334350329E+00 -0.2846918540147E+01 -0.1744053423911E+01  0.1645174792350E+01
-0.9642735277008E+00 -0.2892383243454E+01 -0.1812628677845E+01  0.1634448298978E+01
-0.1072409391987E+01 -0.2941038604380E+01 -0.1886320553508E+01  0.1617693084375E+01
-0.1188727697030E+01 -0.2993101444000E+01 -0.1965459691299E+01  0.1593928354570E+01
-0.1313749366063E+01 -0.3048812738323E+01 -0.2050404183861E+01  0.1562082684629E+01
-0.1448055051222E+01 -0.3108417278207E+01 -0.2141541989400E+01  0.1521005986299E+01
-0.1592314650616E+01 -0.3172139977826E+01 -0.2239293669688E+01  0.1469483136371E+01
-0.1747319337846E+01 -0.3240158793381E+01 -0.2344114715731E+01  0.1406252644095E+01
-0.1914014263435E+01 -0.3312574059180E+01 -0.2456496505399E+01  0.1330033323681E+01
-0.2093528700592E+01 -0.3389374771287E+01 -0.2576964625247E+01  0.1239561501595E+01
-0.2287198323328E+01 -0.3470403910285E+01 -0.2706073042935E+01  0.1133640553329E+01
-0.2496571996563E+01 -0.3555327246844E+01 -0.2844392637187E+01  0.1011203022253E+01
-0.2723393898553E+01 -0.3643613051770E+01 -0.2992493259062E+01  0.8713826960458E+00
-0.2969551295066E+01 -0.3734532170040E+01 -0.3150919220608E+01  0.7135897665794E+00
-0.3236979534642E+01 -0.3827187559304E+01 -0.3320158525734E+01  0.5375785206919E+00
-0.3527525364147E+01 -0.3920580878830E+01 -0.3500609925321E+01  0.3434990045320E+00
-0.3842792107932E+01 -0.4013715705273E+01 -0.3692558662840E+01  0.1319345576405E+00
-0.6139320135934E+00 -0.2661729889413E+01 -0.1539561090508E+01  0.1657151258997E+01
-0.6933824638527E+00 -0.2691180093543E+01 -0.1590744397941E+01  0.1660986371034E+01
-0.7786891173215E+00 -0.2722979804630E+01 -0.1645784389143E+01  0.1661059617662E+01
-0.8701420163278E+00 -0.2757273374749E+01 -0.1704885229482E+01  0.1656770312025E+01
-0.9680470043452E+00 -0.2794247704158E+01 -0.1768278508511E+01  0.1647385966378E+01
-0.1072713817901E+01 -0.2834141054213E+01 -0.1836221785236E+01  0.1632052841930E+01
-0.1184463113701E+01 -0.2877238774170E+01 -0.1908999882457E+01  0.1609805705479E+01
-0.1303646289207E+01 -0.2923860762139E+01 -0.1986928309093E+01  0.1579574547106E+01
-0.1430674243075E+01 -0.2974343172447E+01 -0.2070358180044E+01  0.1540189844676E+01
-0.1566053454171E+01 -0.3029014951367E+01 -0.2159682145125E+01  0.1490389151793E+01
-0.1710428627356E+01 -0.3088168675072E+01 -0.2255340726420E+01  0.1428828200742E+01
-0.1864630708771E+01 -0.3152024846736E+01 -0.2357828105108E+01  0.1354100106821E+01
-0.2029727346909E+01 -0.3220689239926E+01 -0.2467695789554E+01  0.1264766789837E+01
-0.2207069802613E+01 -0.3294104219188E+01 -0.2585551783688E+01  0.1159407146164E+01
-0.2398326134164E+01 -0.3371997735981E+01 -0.2712052212090E+01  0.1036686121514E+01
-0.2605486097483E+01 -0.3453838208483E+01 -0.2847882416581E+01  0.8954464973656E+00
-0.2830821226625E+01 -0.3538809459726E+01 -0.2993726414992E+01  0.7348198263550E+00
-0.3076788382551E+01 -0.3625824647100E+01 -0.3150228115946E+01  0.5543449768891E+00
-0.3345881364254E+01 -0.3713596143838E+01 -0.3317954420388E+01  0.3540750929048E+00
-0.3640459968002E+01 -0.3800761142733E+01 -0.3497373913175E+01  0.1346510374780E+00
-0.6227256596178E+00 -0.2592938672008E+01 -0.1511362232031E+01  0.1661838907939E+01
-0.7011698506781E+00 -0.2614536570848E+01 -0.1558382014164E+01  0.1666469950072E+01
-0.7849571548706E+00 -0.2637939955745E+01 -0.1608761637909E+01  0.1667388176117E+01
-0.8742385869794E+00 -0.2663325041594E+01 -0.1662654901213E+01  0.1664013022536E+01
-0.9691659794323E+00 -0.2690916008509E+01 -0.1720238529969E+01  0.1655645733563E+01
-0.1069883040255E+01 -0.2720994418341E+01 -0.1781712401021E+01  0.1641471273437E+01
-0.1176532718636E+01 -0.2753898046110E+01 -0.1847302454745E+01  0.1620560049566E+01
-0.1289277075978E+01 -0.2790012119824E+01 -0.1917265917164E+01  0.1591867107871E+01
-0.1408327612715E+01 -0.2829754497115E+01 -0.1991898586568E+01  0.1554229417601E+01
-0.1533985770361E+01 -0.2873554723962E+01 -0.2071544027078E+01  0.1506363157928E+01
-0.1666694263235E+01 -0.2921825817254E+01 -0.2156604432360E+01  0.1446863775880E+01
-0.1807099760681E+01 -0.2974926965353E+01 -0.2247552555535E+01  0.1374212654824E+01
-0.1956125962061E+01 -0.3033115170766E+01 -0.2344943326481E+01  0.1286795797201E+01
-0.2115052692514E+01 -0.3096484424891E+01 -0.2449422438968E+01  0.1182941961246E+01
-0.2285590462919E+01 -0.3164892995038E+01 -0.2561727218742E+01  0.1060989648884E+01
-0.2469931422875E+01 -0.3237884765183E+01 -0.2682673601583E+01  0.9193925289611E+00
-0.2670749640327E+01 -0.3314620708483E+01 -0.2813124056806E+01  0.7568680840623E+00
-0.2891124055290E+01 -0.3393850433100E+01 -0.2953938002051E+01  0.5725808649194E+00
-0.3134372661309E+01 -0.3473959942249E+01 -0.3105916315795E+01  0.3663299516221E+00
-0.3403822302064E+01 -0.3553119942887E+01 -0.3269762846834E+01  0.1386884536141E+00
-0.6303916878854E+00 -0.2522182321431E+01 -0.1481709780620E+01  0.1663359555640E+01
-0.7075342223410E+00 -0.2535502477128E+01 -0.1524227244884E+01  0.1668332493912E+01
-0.7894800936915E+00 -0.2549996779598E+01 -0.1569554126465E+01  0.1669644946142E+01
-0.8762505494881E+00 -0.2565850694790E+01 -0.1617787580707E+01  0.1666747700860E+01
-0.9678490693884E+00 -0.2583302799625E+01 -0.1669041374203E+01  0.1658988212376E+01
-0.1064253941785E+01 -0.2602655064803E+01 -0.1723447228725E+01  0.1645605954522E+01
-0.1165424642337E+01 -0.2624274841656E+01 -0.1781158752959E+01  0.1625727486044E+01
-0.1271319926276E+01 -0.2648590509358E+01 -0.1842357900075E+01  0.1598358711451E+01
-0.1381926959244E+01 -0.2676081592291E+01 -0.1907264014384E+01  0.1562374030492E+01
-0.1497302573344E+01 -0.2707262856967E+01 -0.1976145747234E+01  0.1516503244258E+01
-0.1617629053201E+01 -0.2742660695846E+01 -0.2049336176854E+01  0.1459318081062E+01
-0.1743287579381E+01 -0.2782779052330E+01 -0.2127251311509E+01  0.1389221631615E+01
-0.1874952176915E+01 -0.2828051171893E+01 -0.2210411568333E+01  0.1304446322353E+01
-0.2013704729781E+01 -0.2878772665014E+01 -0.2299464369721E+01  0.1203069734541E+01
-0.2161165345202E+01 -0.2935011306507E+01 -0.2395203020228E+01  0.1083062772520E+01
-0.2319618671465E+01 -0.2996491207831E+01 -0.2498571636932E+01  0.9423904310322E+00
-0.2492097325535E+01 -0.3062460925711E+01 -0.2610642371464E+01  0.7791868536389E+00
-0.2682365681587E+01 -0.3131580486888E+01 -0.2732554692253E+01  0.5920132423640E+00
-0.2894754024236E+01 -0.3201897676998E+01 -0.2865426292312E+01  0.3801692909518E+00
-0.3133830079709E+01 -0.3270987056282E+01 -0.3010264046281E+01  0.1439734374394E+00
-0.6368871209617E+00 -0.2449903780255E+01 -0.1450791719892E+01  0.1661718677043E+01
-0.7124587560609E+00 -0.2454633944011E+01 -0.1488533565258E+01  0.1666553755656E+01
-0.7922811589008E+00 -0.2459836391063E+01 -0.1528495244606E+01  0.1667768038352E+01
-0.8762576527458E+00 -0.2465683682307E+01 -0.1570712423491E+01  0.1664852214473E+01
-0.9642532616013E+00 -0.2472404631250E+01 -0.1615229205543E+01  0.1657209809782E+01
-0.1056087323529E+01 -0.2480295324645E+01 -0.1662099840426E+01  0.1644148105665E+01
-0.1151537445969E+01 -0.2489724185962E+01 -0.1711392962667E+01  0.1624868374871E+01
-0.1250353575623E+01 -0.2501132247577E+01 -0.1763198332432E+01  0.1598452703601E+01
-0.1352282505996E+01 -0.2515029229265E+01 -0.1817636510963E+01  0.1563846180331E+01
-0.1457104915181E+01 -0.2531984812742E+01 -0.1874872167368E+01  0.1519834045260E+01
-0.1564688932833E+01 -0.2552613237214E+01 -0.1935132015014E+01  0.1465014162685E+01
-0.1675066199560E+01 -0.2577547952205E+01 -0.1998728646260E+01  0.1397766449487E+01
-0.1788538258578E+01 -0.2607401363943E+01 -0.2066091617344E+01  0.1316223299295E+01
-0.1905822100841E+01 -0.2642702437910E+01 -0.2137806527791E+01  0.1218249526114E+01
-0.2028241339057E+01 -0.2683801931261E+01 -0.2214660331432E+01  0.1101448299269E+01
-0.2157957635334E+01 -0.2730731672279E+01 -0.2297683968750E+01  0.9632225342523E+00
-0.2298200280503E+01 -0.2783002090948E+01 -0.2388165108525E+01  0.8009383544857E+00
-0.2453400382621E+01 -0.2839354760990E+01 -0.2487594911187E+01  0.6122429036427E+00
-0.2629094583753E+01 -0.2897563274939E+01 -0.2597529186997E+01  0.3955482739176E+00
-0.2831510113230E+01 -0.2954474018176E+01 -0.2719412534864E+01  0.1505822552370E+00
-0.6421562698058E+00 -0.2376555889958E+01 -0.1418794711491E+01  0.1656939007501E+01
-0.7159029805999E+00 -0.2372505837707E+01 -0.1451552140923E+01  0.1661138516817E+01
-0.7933468175880E+00 -0.2368176972805E+01 -0.1485916177716E+01  0.1661729913204E+01
-0.8742874021027E+00 -0.2363709133987E+01 -0.1521858368102E+01  0.1658248457695E+01
-0.9584651624648E+00 -0.2359297710465E+01 -0.1559348546322E+01  0.1650159336251E+01
-0.1045553157710E+01 -0.2355205536512E+01 -0.1598356582230E+01  0.1636846266754E+01
-0.1135157142724E+01 -0.2351770255279E+01 -0.1638855872904E+01  0.1617598970553E+01
-0.1226823558862E+01 -0.2349408630603E+01 -0.1680829124785E+01  0.1591596810854E+01
-0.1320055993953E+01 -0.2348618579155E+01 -0.1724277044987E+01  0.1557886544197E+01
-0.1414342494617E+01 -0.2349978595414E+01 -0.1769230907827E+01  0.1515352378626E+01
-0.1509198511446E+01 -0.2354143022588E+01 -0.1815770516391E+01  0.1462676745561E+01
-0.1604233412615E+01 -0.2361830141121E+01 -0.1864049865528E+01  0.1398290718736E+01
-0.1699252837116E+01 -0.2373797976087E+01 -0.1914333877350E+01  0.1320314444883E+01
-0.1794415031147E+01 -0.2390799595813E+01 -0.1967050869682E+01  0.1226491439708E+01
-0.1890465773686E+01 -0.2413504403486E+01 -0.2022865978140E+01  0.1114128537331E+01
-0.1989079049178E+01 -0.2442363255623E+01 -0.2082777877974E+01  0.9800703035063E+00
-0.2093309193180E+01 -0.2477378581036E+01 -0.2148223248433E+01  0.8207715784172E+00
-0.2208038123273E+01 -0.2517703111955E+01 -0.2221098374924E+01  0.6325898675576E+00
-0.2340154205006E+01 -0.2561106790615E+01 -0.2303592662099E+01  0.4124399031334E+00
-0.2498134544823E+01 -0.2603627517065E+01 -0.2397828163006E+01  0.1588024356435E+00
-0.6461313015635E+00 -0.2302596096064E+01 -0.1385901873370E+01  0.1649061657396E+01
-0.7178033433585E+00 -0.2289704802203E+01 -0.1413528824829E+01  0.1652119758710E+01
-0.7926272445989E+00 -0.2275761647382E+01 -0.1442142775573E+01  0.1651544066137E+01
-0.8703138658390E+00 -0.2260856674913E+01 -0.1471650150421E+01  0.1646914070555E+01
-0.9504966828174E+00 -0.2245131281858E+01 -0.1501945139588E+01  0.1637756800240E+01
-0.1032720999894E+01 -0.2228789889347E+01 -0.1532910114055E+01  0.1623534536950E+01
-0.1116439276399E+01 -0.2212108007165E+01 -0.1564417219307E+01  0.1603631410968E+01
-0.1201011826617E+01 -0.2195438914237E+01 -0.1596331844152E+01  0.1577336496028E+01
-0.1285712734568E+01 -0.2179220146534E+01 -0.1628518449988E+01  0.1543820651302E+01
-0.1369742709671E+01 -0.2163980081113E+01 -0.1660849707456E+01  0.1502104042290E+01
-0.1452253083165E+01 -0.2150343898245E+01 -0.1693220576968E+01  0.1451010772799E+01
-0.1532388788313E+01 -0.2139036949289E+01 -0.1725570092296E+01  0.1389106421476E+01
-0.1609364083227E+01 -0.2130881716511E+01 -0.1757915521418E+01  0.1314613761665E+01
-0.1682594700122E+01 -0.2126781457583E+01 -0.1790406789580E+01  0.1225302313297E+01
-0.1751927258837E+01 -0.2127678535633E+01 -0.1823414718776E+01  0.1118350674458E+01
-0.1818032869051E+01 -0.2134464632733E+01 -0.1857673821127E+01  0.9901925420322E+00
-0.1883069142401E+01 -0.2147801874089E+01 -0.1894509372945E+01  0.8363924593569E+00
-0.1951694705977E+01 -0.2167746579188E+01 -0.1936137399117E+01  0.6517001079610E+00
-0.2032012787331E+01 -0.2192797293880E+01 -0.1985660733132E+01  0.4306574435732E+00
-0.2135574624162E+01 -0.2218516450369E+01 -0.2046422799839E+01  0.1691922523270E+00
-0.6487411242660E+00 -0.2228481160468E+01 -0.1352294470395E+01  0.1638150154717E+01
-0.7180900384704E+00 -0.2206825957046E+01 -0.1374710514406E+01  0.1639567195359E+01
-0.7900576675087E+00 -0.2183354757738E+01 -0.1397503836321E+01  0.1637278181094E+01
-0.8642831533162E+00 -0.2158095672256E+01 -0.1420518044416E+01  0.1630901593610E+01
-0.9403136885338E+00 -0.2131121863836E+01 -0.1443574705952E+01  0.1620020925848E+01
-0.1017589781752E+01 -0.2102560623977E+01 -0.1466470686973E+01  0.1604171532140E+01
-0.1095436311119E+01 -0.2072599968232E+01 -0.1488977047518E+01  0.1582827705616E+01
-0.1173056124939E+01 -0.2041494993068E+01 -0.1510839021631E+01  0.1555387619718E+01
-0.1249524773308E+01 -0.2009575735172E+01 -0.1531777235100E+01  0.1521152955896E+01
-0.1323786547572E+01 -0.1977257525539E+01 -0.1551490710427E+01  0.1479299374221E+01
-0.1394653949040E+01 -0.1945054187971E+01 -0.1569662820414E+01  0.1428832907896E+01
-0.1460815651567E+01 -0.1913593701471E+01 -0.1585972391905E+01  0.1368525582891E+01
-0.1520863294151E+01 -0.1883634806259E+01 -0.1600114103134E+01  0.1296820807775E+01
-0.1573357855023E+01 -0.1856081111776E+01 -0.1611836310307E+01  0.1211695100873E+01
-0.1616977148882E+01 -0.1831985370996E+01 -0.1621012380231E+01  0.1110457652935E+01
-0.1650832487634E+01 -0.1812531589744E+01 -0.1627781112239E+01  0.9894649298843E+00
-0.1675132230907E+01 -0.1798964761019E+01 -0.1632825582064E+01  0.8437342029155E+00
-0.1692615121152E+01 -0.1792444925719E+01 -0.1637978217875E+01  0.6664949002820E+00
-0.1711332688167E+01 -0.1793551687149E+01 -0.1647295652221E+01  0.4490512690282E+00
-0.1746786300227E+01 -0.1799399055237E+01 -0.1666707112841E+01  0.1823339139522E+00
-0.6499423388556E+00 -0.2154669285129E+01 -0.1318167459929E+01  0.1624303103108E+01
-0.7167297883198E+00 -0.2124472601932E+01 -0.1335365120031E+01  0.1623604693152E+01
-0.7856140154590E+00 -0.2091735050713E+01 -0.1352354057671E+01  0.1619075046307E+01
-0.8561828736407E+00 -0.2056419847817E+01 -0.1368923275613E+01  0.1610363823987E+01
-0.9279185639072E+00 -0.2018527210737E+01 -0.1384829510570E+01  0.1597100767893E+01
-0.1000181324921E+01 -0.1978099799065E+01 -0.1399792124723E+01  0.1578881184371E+01
-0.1072197760804E+01 -0.1935225518689E+01 -0.1413488937777E+01  0.1555253958309E+01
-0.1143049135766E+01 -0.1890040497075E+01 -0.1425552123820E+01  0.1525709624178E+01
-0.1211656658899E+01 -0.1842734274456E+01 -0.1435563735036E+01  0.1489665285627E+01
-0.1276761959627E+01 -0.1793558667196E+01 -0.1443050690947E+01  0.1446442496423E+01
-0.1336901822987E+01 -0.1742841447153E+01 -0.1447479333294E+01  0.1395233017029E+01
-0.1390377317798E+01 -0.1691005836380E+01 -0.1448250078790E+01  0.1335045071263E+01
-0.1435219649196E+01 -0.1638596645971E+01 -0.1444693655064E+01  0.1264618575985E+01
-0.1469160257888E+01 -0.1586313276674E+01 -0.1436072557601E+01  0.1182290460772E+01
-0.1489626383832E+01 -0.1535048807890E+01 -0.1421597336504E+01  0.1085778141376E+01
-0.1493816313938E+01 -0.1485930438200E+01 -0.1400480969953E+01  0.9718257410706E+00
-0.1479016714381E+01 -0.1440363570519E+01 -0.1372108730423E+01  0.8356155817784E+00
-0.1443569510981E+01 -0.1400053954935E+01 -0.1336503025591E+01  0.6697783981225E+00
-0.1390372566709E+01 -0.1367449756584E+01 -0.1296176488660E+01  0.4627668802896E+00
-0.1336663875176E+01 -0.1346236224589E+01 -0.1260963043691E+01  0.1975645595028E+00
-0.6496880845323E+00 -0.2081589488674E+01 -0.1283700456151E+01  0.1607641262967E+01
-0.7136794778725E+00 -0.2043206122214E+01 -0.1295736228754E+01  0.1604389302513E+01
-0.7792570377425E+00 -0.2001626597413E+01 -0.1307015305208E+01  0.1597127249568E+01
-0.8459759123021E+00 -0.1956755338057E+01 -0.1317283684327E+01  0.1585527294749E+01
-0.9132724890525E+00 -0.1908526678210E+01 -0.1326245605250E+01  0.1569252463490E+01
-0.9804489056178E+00 -0.1856906010038E+01 -0.1333556806976E+01  0.1547939828421E+01
-0.1046660962052E+01 -0.1801887335577E+01 -0.1338817696490E+01  0.1521188581717E+01
-0.1110903989412E+01 -0.1743490572209E+01 -0.1341565440559E+01  0.1488550660797E+01
-0.1171992395767E+01 -0.1681760711071E+01 -0.1341263956812E+01  0.1449520870488E+01
-0.1228529333409E+01 -0.1616770198270E+01 -0.1337290776498E+01  0.1403523102273E+01
-0.1278862642984E+01 -0.1548625667150E+01 -0.1328919502392E+01  0.1349888519539E+01
-0.1321022008135E+01 -0.1477480318343E+01 -0.1315296090108E+01  0.1287819797699E+01
-0.1352630040483E+01 -0.1403553651932E+01 -0.1295406332149E+01  0.1216331766942E+01
-0.1370776782603E+01 -0.1327160796527E+01 -0.1268030658975E+01  0.1134151349261E+01
-0.1371842470724E+01 -0.1248753563407E+01 -0.1231680132918E+01  0.1039544655518E+01
-0.1351251429103E+01 -0.1168975670948E+01 -0.1184506734019E+01  0.9300076640083E+00
-0.1303139296496E+01 -0.1088723809427E+01 -0.1124175656932E+01  0.8016853115395E+00
-0.1220045702914E+01 -0.1009244504096E+01 -0.1047766394637E+01  0.6482109355163E+00
-0.1092877235210E+01 -0.9320677764802E+00 -0.9517241530803E+00  0.4581289464742E+00
-0.9203640949876E+00 -0.8631746498393E+00 -0.8382632079425E+00  0.2084681978670E+00
-0.6479368439241E+00 -0.2009644581954E+01 -0.1249063266995E+01  0.1588307627621E+01
-0.7088940220973E+00 -0.1963548485289E+01 -0.1256047975286E+01  0.1582112862935E+01
-0.7709384697442E+00 -0.1913698878299E+01 -0.1261779550380E+01  0.1571681840163E+01
-0.8336064721025E+00 -0.1859955675006E+01 -0.1265974205930E+01  0.1556702070461E+01
-0.8963035190697E+00 -0.1802206238441E+01 -0.1268299582813E+01  0.1536858022156E+01
-0.9582902522296E+00 -0.1740362231511E+01 -0.1268366664141E+01  0.1511810511881E+01
-0.1018672078167E+01 -0.1674351966522E+01 -0.1265721297793E+01  0.1481182934202E+01
-0.1076385499689E+01 -0.1604111934589E+01 -0.1259833790915E+01  0.1444552169807E+01
-0.1130175968991E+01 -0.1529579633553E+01 -0.1250085130025E+01  0.1401440935933E+01
-0.1178562672611E+01 -0.1450688631507E+01 -0.1235748109801E+01  0.1351308376410E+01
-0.1219784675945E+01 -0.1367366372829E+01 -0.1215960989840E+01  0.1293535634467E+01
-0.1251719956988E+01 -0.1279535377425E+01 -0.1189690004156E+01  0.1227402364662E+01
-0.1271763198969E+01 -0.1187119102712E+01 -0.1155674678859E+01  0.1152047969619E+01
-0.1276637499033E+01 -0.1090054700790E+01 -0.1112345331095E+01  0.1066406565714E+01
-0.1262094397628E+01 -0.9883162394628E+00 -0.1057692996750E+01  0.9690945329637E+00
-0.1222411713488E+01 -0.8819514124953E+00 -0.9890506667035E+00  0.8582069003430E+00
-0.1149498863794E+01 -0.7711310568547E+00 -0.9026960604151E+00  0.7309258379044E+00
-0.1031124300325E+01 -0.6561499796515E+00 -0.7930189095775E+00  0.5826941427638E+00
-0.8469785101263E+00 -0.5371733023805E+00 -0.6505513502282E+00  0.4052804939684E+00
-0.5552213523220E+00 -0.4101690086815E+00 -0.4537334685208E+00  0.1801985694872E+00
-0.6446609726273E+00 -0.1939208567141E+01 -0.1214418680611E+01  0.1566468854584E+01
-0.7023419108455E+00 -0.1885980975108E+01 -0.1216511753312E+01  0.1557003750138E+01
-0.7606225719152E+00 -0.1828563258445E+01 -0.1216917337183E+01  0.1543042234977E+01
-0.8190306923804E+00 -0.1766792293426E+01 -0.1215336800246E+01  0.1524283856447E+01
-0.8769510140426E+00 -0.1700537129032E+01 -0.1211419424173E+01  0.1500428423239E+01
-0.9336126759964E+00 -0.1629693216554E+01 -0.1204753766443E+01  0.1471149683169E+01
-0.9880817871270E+00 -0.1554171128978E+01 -0.1194858867539E+01  0.1436078073490E+01
-0.1039250139644E+01 -0.1473884904192E+01 -0.1181173467607E+01  0.1394790134601E+01
-0.1085813941806E+01 -0.1388742551838E+01 -0.1163041549063E+01  0.1346800566164E+01
-0.1126237667125E+01 -0.1298639655692E+01 -0.1139692338833E+01  0.1291553291685E+01
-0.1158697095647E+01 -0.1203456473682E+01 -0.1110212174769E+01  0.1228408495634E+01
-0.1180992248299E+01 -0.1103059319954E+01 -0.1073504234356E+01  0.1156622798139E+01
-0.1190414154609E+01 -0.9973082181385E+00 -0.1028229512583E+01  0.1075319349354E+01
-0.1183536483552E+01 -0.8860751052245E+00 -0.9727174442577E+00  0.9834435776561E+00
-0.1155877244205E+01 -0.7692808294008E+00 -0.9048242922998E+00  0.8796985173419E+00
-0.1101319905462E+01 -0.6469658144112E+00 -0.8216942862561E+00  0.7624512880101E+00
-0.1011052974831E+01 -0.5194202786979E+00 -0.7193224273340E+00  0.6296000578754E+00
-0.8713988366806E+00 -0.3873866418173E+00 -0.5916291733934E+00  0.4784008530934E+00
-0.6588783287792E+00 -0.2523759583472E+00 -0.4282895138631E+00  0.3052931431396E+00
-0.3216011029201E+00 -0.1139446886500E+00 -0.2047065215187E+00  0.1066646332219E+00
-0.6398519088752E+00 -0.1870621056258E+01 -0.1179922290620E+01  0.1542314346755E+01
-0.6940149731561E+00 -0.1810935763991E+01 -0.1177326843473E+01  0.1529324706589E+01
-0.7483025115394E+00 -0.1746760497116E+01 -0.1172679611094E+01  0.1511563023659E+01
-0.8022424287650E+00 -0.1677933902145E+01 -0.1165682872571E+01  0.1488743683573E+01
-0.8552060859124E+00 -0.1604340863654E+01 -0.1155987063364E+01  0.1460585202336E+01
-0.9063966312621E+00 -0.1525905772744E+01 -0.1143182126983E+01  0.1426776384015E+01
-0.9548457154632E+00 -0.1442579631343E+01 -0.1126789910141E+01  0.1386955554544E+01
-0.9994058759198E+00 -0.1354328689614E+01 -0.1106255242995E+01  0.1340699668797E+01
-0.1038731506187E+01 -0.1261128399641E+01 -0.1080934152997E+01  0.1287518152175E+01
-0.1071243671023E+01 -0.1162964250995E+01 -0.1050077720685E+01  0.1226847499862E+01
-0.1095073592610E+01 -0.1059840726463E+01 -0.1012809727395E+01  0.1158044348631E+01
-0.1107976854979E+01 -0.9518007229745E+00 -0.9680954591828E+00  0.1080376403584E+01
-0.1107204935258E+01 -0.8389602724129E+00 -0.9146976452853E+00  0.9930126117973E+00
-0.1089311087831E+01 -0.7215678637370E+00 -0.8511131050783E+00  0.8950174641271E+00
-0.1049850380222E+01 -0.6001057787324E+00 -0.7754793927416E+00  0.7853619275897E+00
-0.9829029575046E+00 -0.4754677716706E+00 -0.6854342409738E+00  0.6629819813643E+00
-0.8802847470637E+00 -0.3492796849510E+00 -0.5778952815812E+00  0.5269641008226E+00
-0.7302516345247E+00 -0.2245628400762E+00 -0.4487628019242E+00  0.3770799497287E+00
-0.5150775739047E+00 -0.1070338029633E+00 -0.2923923463863E+00  0.2153619078898E+00
-0.2132542173926E+00 -0.1306732360942E-01 -0.1063711240011E+00  0.5206954976587E-01
-0.6335240144423E+00 -0.1804181520616E+01 -0.1145721598572E+01  0.1516053968774E+01
-0.6839359631591E+00 -0.1738788624116E+01 -0.1138680553131E+01  0.1499368768424E+01
-0.7340121778002E+00 -0.1668749801712E+01 -0.1129298127506E+01  0.1477640810575E+01
-0.7832914842966E+00 -0.1593929105022E+01 -0.1117293674146E+01  0.1450609306307E+01
-0.8311393613527E+00 -0.1514260898402E+01 -0.1102338119289E+01  0.1418025324608E+01
-0.8767381110200E+00 -0.1429742624539E+01 -0.1084045942963E+01  0.1379608136033E+01
-0.9190899182278E+00 -0.1340420267204E+01 -0.1061969784459E+01  0.1335022067045E+01
-0.9570152003425E+00 -0.1246378610541E+01 -0.1035595088488E+01  0.1283868668295E+01
-0.9891381595142E+00 -0.1147741398535E+01 -0.1004333389736E+01  0.1225687324443E+01
-0.1013855756918E+01 -0.1044683308103E+01 -0.9675133581060E+00  0.1159960085525E+01
-0.1029286988174E+01 -0.9374553518267E+00 -0.9243688974559E+00  0.1086119789090E+01
-0.1033198033412E+01 -0.8264269786835E+00 -0.8740237534680E+00  0.1003563927683E+01
-0.1022896448932E+01 -0.7121513530645E+00 -0.8154724648702E+00  0.9116809671763E+00
-0.9950847387809E+00 -0.5954655304223E+00 -0.7475586246294E+00  0.8099027368949E+00
-0.9456623265625E+00 -0.4776464279994E+00 -0.6689551129474E+00  0.6978097253392E+00
-0.8694707889844E+00 -0.3606604083575E+00 -0.5781616612843E+00  0.5753434747060E+00
-0.7600234557099E+00 -0.2475879650204E+00 -0.4735773665421E+00  0.4432415703085E+00
-0.6094134879786E+00 -0.1433812889610E+00 -0.3538135442642E+00  0.3039495942334E+00
-0.4097015950693E+00 -0.5668532706269E-01 -0.2192018528461E+00  0.1636601459981E+00
-0.1607332444097E+00 -0.3542519189223E-02 -0.7720960869566E-01  0.3623098583956E-01
-0.6257198975945E+00 -0.1740146903150E+01 -0.1111957393529E+01  0.1487915796210E+01
-0.6721640321804E+00 -0.1669854390578E+01 -0.1100748655905E+01  0.1467454030422E+01
-0.7178328654294E+00 -0.1594901442082E+01 -0.1086985121773E+01  0.1441701716639E+01
-0.7622914321733E+00 -0.1515194380223E+01 -0.1070418329111E+01  0.1410440478219E+01
-0.8049094006057E+00 -0.1430745415604E+01 -0.1050757760953E+01  0.1373476998047E+01
-0.8448556380416E+00 -0.1341661119551E+01 -0.1027662873462E+01  0.1330585555658E+01
-0.8811120395108E+00 -0.1248122786297E+01 -0.1000740365591E+01  0.1281483760221E+01
-0.9124817444365E+00 -0.1150376116746E+01 -0.9695431922968E+00  0.1225831327948E+01
-0.9375832024060E+00 -0.1048735945363E+01 -0.9335699970834E+00  0.1163241638148E+01
-0.9548283407204E+00 -0.9436067168220E+00 -0.8922644747818E+00  0.1093300856106E+01
-0.9623851555552E+00 -0.8355189311883E+00 -0.8450149186262E+00  0.1015594506311E+01
-0.9581254824942E+00 -0.7251834743196E+00 -0.7911552076958E+00  0.9297459386264E+00
-0.9395595548086E+00 -0.6135684432357E+00 -0.7299701572293E+00  0.8354761049652E+00
-0.9037626073511E+00 -0.5020066036090E+00 -0.6607115274755E+00  0.7327011120048E+00
-0.8473098258362E+00 -0.3923462668258E+00 -0.5826383620733E+00  0.6216955833210E+00
-0.7662664632818E+00 -0.2871650962967E+00 -0.4951128317461E+00  0.5033698256471E+00
-0.6563593587203E+00 -0.1900719477681E+00 -0.3978227130405E+00  0.3797409536707E+00
-0.5136743750396E+00 -0.1061230738561E+00 -0.2913048002421E+00  0.2547223465657E+00
-0.3367839115834E+00 -0.4221430788714E-01 -0.1781291626993E+00  0.1352808083048E+00
-0.1285998229324E+00 -0.4098250073040E-02 -0.6236809415437E-01  0.3202683150576E-01
-0.6165125616549E+00 -0.1678727153989E+01 -0.1078762663616E+01  0.1458143155436E+01
-0.6587973651853E+00 -0.1604382867112E+01 -0.1063694706482E+01  0.1433915987280E+01
-0.6998944628916E+00 -0.1525489810782E+01 -0.1045930605974E+01  0.1404184428163E+01
-0.7394185923186E+00 -0.1442004035818E+01 -0.1025268632624E+01  0.1368799040721E+01
-0.7767564103533E+00 -0.1354037082551E+01 -0.1001472939125E+01  0.1327652462023E+01
-0.8110727594766E+00 -0.1261830433148E+01 -0.9742644980623E+00  0.1280602038964E+01
-0.8413419830035E+00 -0.1165723135136E+01 -0.9433206031330E+00  0.1227446042469E+01
-0.8663709749846E+00 -0.1066136598094E+01 -0.9082785570430E+00  0.1167932485696E+01
-0.8848056313465E+00 -0.9635803296101E+00 -0.8687413994462E+00  0.1101784100184E+01
-0.8951221716466E+00 -0.8586757766556E+00 -0.8242850336113E+00  0.1028732170580E+01
-0.8956079450469E+00 -0.7521954126055E+00 -0.7744675761323E+00  0.9485590466957E+00
-0.8843375828530E+00 -0.6451158660708E+00 -0.7188431191709E+00  0.8611541573317E+00
-0.8591529082648E+00 -0.5386855897319E+00 -0.6569840923921E+00  0.7665925161270E+00
-0.8176613784281E+00 -0.4345082844354E+00 -0.5885197400531E+00  0.6652491785193E+00
-0.7572816924946E+00 -0.3346415792507E+00 -0.5132039364186E+00  0.5579684317468E+00
-0.6753935959644E+00 -0.2417027278737E+00 -0.4310352711107E+00  0.4463112413781E+00
-0.5696961408855E+00 -0.1589435461085E+00 -0.3424606520186E+00  0.3329004689006E+00
-0.4389574987555E+00 -0.9017473043567E-01 -0.2486921470891E+00  0.2218351746564E+00
-0.2839066715683E+00 -0.3887091420938E-01 -0.1517054649307E+00  0.1189132183228E+00
-0.1082654299621E+00 -0.6580189877178E-02 -0.5397744118755E-01  0.3114868773793E-01
-0.6060113597510E+00 -0.1620088007417E+01 -0.1046266699915E+01  0.1426992767914E+01
-0.6439757115851E+00 -0.1542560212045E+01 -0.1027671881500E+01  0.1399097054945E+01
-0.6803756137125E+00 -0.1460688885833E+01 -0.1006300312234E+01  0.1365516279003E+01
-0.7149084863405E+00 -0.1374479162578E+01 -0.9820121925008E+00  0.1326210044148E+01
-0.7469919406857E+00 -0.1284161354282E+01 -0.9546420462137E+00  0.1281192627752E+01
-0.7757950834656E+00 -0.1190129359807E+01 -0.9239844859943E+00  0.1230429891545E+01
-0.8002976151885E+00 -0.1092885837456E+01 -0.8897962204859E+00  0.1173820251465E+01
-0.8193329009439E+00 -0.9930186924154E+00 -0.8518052467184E+00  0.1111217735226E+01
-0.8316087735184E+00 -0.8912050372034E+00 -0.8097224889855E+00  0.1042471621462E+01
-0.8357129870564E+00 -0.7882344183540E+00 -0.7632552786070E+00  0.9674727972046E+00
-0.8301123114347E+00 -0.6850440423933E+00 -0.7121234844929E+00  0.8862062088798E+00
-0.8131548976122E+00 -0.5827611185577E+00 -0.6560805259358E+00  0.7988136658041E+00
-0.7830875321133E+00 -0.4827485657166E+00 -0.5949429644710E+00  0.7056737084168E+00
-0.7381043021341E+00 -0.3866488676004E+00 -0.5286339884344E+00  0.6075062112820E+00
-0.6764522336542E+00 -0.2964151496492E+00 -0.4572476689928E+00  0.5055082074861E+00
-0.5966302063016E+00 -0.2143030236914E+00 -0.3811386171300E+00  0.4015205074413E+00
-0.4977256591907E+00 -0.1427662662675E+00 -0.3010312042018E+00  0.2982023486491E+00
-0.3798453872530E+00 -0.8409725716390E-01 -0.2180530423229E+00  0.1991283949748E+00
-0.2445509758527E+00 -0.3976119877950E-01 -0.1336267217382E+00  0.1086416476174E+00
-0.9500655413437E-01 -0.9479174983842E-02 -0.4910829256101E-01  0.3126114049344E-01
-0.5943683649296E+00 -0.1564359439285E+01 -0.1014602065407E+01  0.1394732705431E+01
-0.6278826435054E+00 -0.1484511011072E+01 -0.9928250151334E+00  0.1363324682697E+01
-0.6595014284280E+00 -0.1400552819074E+01 -0.9682254938703E+00  0.1326070429394E+01
-0.6890505190457E+00 -0.1312551645795E+01 -0.9407530150889E+00  0.1283100759626E+01
-0.7159871221429E+00 -0.1220883580380E+01 -0.9103292278768E+00  0.1234588795961E+01
-0.7394858877439E+00 -0.1126107359032E+01 -0.8768288237605E+00  0.1180625300095E+01
-0.7585410730739E+00 -0.1028882817743E+01 -0.8400892265533E+00  0.1121214714898E+01
-0.7720320175800E+00 -0.9299379033367E+00 -0.7999258608019E+00  0.1056318348941E+01
-0.7787574633214E+00 -0.8300714926208E+00 -0.7561496073750E+00  0.9859095830647E+00
-0.7774524388439E+00 -0.7301752899321E+00 -0.7085850307275E+00  0.9100294014407E+00
-0.7668011652282E+00 -0.6312627452147E+00 -0.6570900362416E+00  0.8288419324751E+00
-0.7454576576590E+00 -0.5344970894908E+00 -0.6015787296346E+00  0.7426939177033E+00
-0.7120853215839E+00 -0.4412120519334E+00 -0.5420497641783E+00  0.6521824840229E+00
-0.6654283696342E+00 -0.3529170966647E+00 -0.4786223679465E+00  0.5582335694447E+00
-0.6044294577682E+00 -0.2712727979479E+00 -0.4115800591426E+00  0.4621882843250E+00
-0.5284068749099E+00 -0.1980115671663E+00 -0.3414166669099E+00  0.3658839865903E+00
-0.4372823711253E+00 -0.1347583370338E+00 -0.2688591321528E+00  0.2716965592825E+00
-0.3318256223240E+00 -0.8272804512441E-01 -0.1948402232066E+00  0.1824860706504E+00
-0.2138209256109E+00 -0.4233035399568E-01 -0.1203911011097E+00  0.1013850524420E+00
-0.8587315583943E-01 -0.1275998396429E-01 -0.4635757559017E-01  0.3141145667258E-01
-0.5817953081486E+00 -0.1511670493470E+01 -0.9839289242653E+00  0.1361635521368E+01
-0.6107373965033E+00 -0.1430285374445E+01 -0.9592806999128E+00  0.1326866313443E+01
-0.6375331077196E+00 -0.1344961713417E+01 -0.9317725635708E+00  0.1286096450244E+01
-0.6621783456867E+00 -0.1255886874017E+01 -0.9014906509744E+00  0.1239712859263E+01
-0.6841560712747E+00 -0.1163618008381E+01 -0.8684538152354E+00  0.1188078089940E+01
-0.7026372914715E+00 -0.1068891797908E+01 -0.8326186698964E+00  0.1131409147932E+01
-0.7166327564299E+00 -0.9725104305606E+00 -0.7938972958719E+00  0.1069805698500E+01
-0.7250808423749E+00 -0.8753048697704E+00 -0.7521812828005E+00  0.1003321787399E+01
-0.7268906779244E+00 -0.7781417810302E+00 -0.7073652539145E+00  0.9320374999428E+00
-0.7209645747033E+00 -0.6819473048399E+00 -0.6593685817129E+00  0.8561199389304E+00
-0.7062175832022E+00 -0.5877312195438E+00 -0.6081559357481E+00  0.7758756103610E+00
-0.6816062009809E+00 -0.4966020347017E+00 -0.5537578693663E+00  0.6917991597315E+00
-0.6461752811762E+00 -0.4097668468164E+00 -0.4962927988977E+00  0.6046217221779E+00
-0.5991299484905E+00 -0.3285087030664E+00 -0.4359901651259E+00  0.5153581666268E+00
-0.5399369245063E+00 -0.2541312675951E+00 -0.3732120493410E+00  0.4253465208735E+00
-0.4684517605208E+00 -0.1878559677651E+00 -0.3084646315120E+00  0.3362644374279E+00
-0.3850587422381E+00 -0.1306637259830E+00 -0.2423895594491E+00  0.2500986694656E+00
-0.2907923741327E+00 -0.8309246496204E-01 -0.1757258739288E+00  0.1690422061829E+00
-0.1874090147333E+00 -0.4505351242278E-01 -0.1092573874863E+00  0.9531352275628E-01
-0.7748931410393E-01 -0.1588327972258E-01 -0.4388511898715E-01  0.3098357949556E-01
-0.5684800241811E+00 -0.1462112856410E+01 -0.9543786514570E+00  0.1327947687358E+01
-0.5926815939075E+00 -0.1379761261778E+01 -0.9270481398210E+00  0.1289884492477E+01
-0.6146670404749E+00 -0.1293545079988E+01 -0.8968596943430E+00  0.1245690421931E+01
-0.6345609903768E+00 -0.1203833140037E+01 -0.8640452391029E+00  0.1196096147489E+01
-0.6518378510105E+00 -0.1111423659286E+01 -0.8287329077375E+00  0.1141669137852E+01
-0.6656401795293E+00 -0.1017244582768E+01 -0.7909558362734E+00  0.1082732712337E+01
-0.6749897364380E+00 -0.9222175827924E+00 -0.7506874381342E+00  0.1019453188210E+01
-0.6788907774808E+00 -0.8272310609778E+00 -0.7078772622801E+00  0.9519504734963E+00
-0.6763732947741E+00 -0.7331621946920E+00 -0.6624816783688E+00  0.8803861437336E+00
-0.6665134357571E+00 -0.6409095903263E+00 -0.6144888207006E+00  0.8050250315673E+00
-0.6484517239701E+00 -0.5514158836179E+00 -0.5639377741360E+00  0.7262785795790E+00
-0.6214212196378E+00 -0.4656734548612E+00 -0.5109344957186E+00  0.6447380050872E+00
-0.5847908272728E+00 -0.3847098222189E+00 -0.4556653041054E+00  0.5612009979046E+00
-0.5381255693009E+00 -0.3095501799328E+00 -0.3984076011293E+00  0.4766905235865E+00
-0.4812605630135E+00 -0.2411529776527E+00 -0.3395343632519E+00  0.3924591795853E+00
-0.4143811487431E+00 -0.1803175919466E+00 -0.2795084074152E+00  0.3099680377796E+00
-0.3380933656274E+00 -0.1275687718618E+00 -0.2188612040648E+00  0.2308273486335E+00
-0.2534733663710E+00 -0.8304304031748E-01 -0.1581627107424E+00  0.1566915532881E+00
-0.1620906754905E+00 -0.4641206193105E-01 -0.9799628633956E-01  0.8911854609802E-01
-0.6616630491268E-01 -0.1693503942845E-01 -0.3905763174126E-01  0.2942546752060E-01
-0.5543406118932E+00 -0.1415567322970E+01 -0.9258567270375E+00  0.1293870453988E+01
-0.5736476895971E+00 -0.1332673955477E+01 -0.8959711709121E+00  0.1252512567502E+01
-0.5908772861228E+00 -0.1245832961807E+01 -0.8632538143375E+00  0.1204968671541E+01
-0.6062391595703E+00 -0.1155738413996E+01 -0.8281294574755E+00  0.1152399840542E+01
-0.6191269093505E+00 -0.1063504885812E+01 -0.7908369417204E+00  0.1095563073303E+01
-0.6286184501904E+00 -0.9702559576207E+00 -0.7514709697652E+00  0.1034837560757E+01
-0.6337397307088E+00 -0.8769898873730E+00 -0.7100429186975E+00  0.9704081521955E+00
-0.6335670293440E+00 -0.7845888048727E+00 -0.6665332403913E+00  0.9024247392059E+00
-0.6272596836128E+00 -0.6938763896984E+00 -0.6209339528814E+00  0.8311022017515E+00
-0.6140682081019E+00 -0.6056651826723E+00 -0.5732746922098E+00  0.7567744261569E+00
-0.5933454418812E+00 -0.5207806949857E+00 -0.5236392829993E+00  0.6799220388726E+00
-0.5645679134909E+00 -0.4400592951178E+00 -0.4721747868485E+00  0.6011868617831E+00
-0.5273703321772E+00 -0.3643247338170E+00 -0.4190966799543E+00  0.5213780481540E+00
-0.4815899751656E+00 -0.2943453611103E+00 -0.3646896071247E+00  0.4414688172715E+00
-0.4273155709991E+00 -0.2307749795428E+00 -0.3093025579702E+00  0.3625791806391E+00
-0.3649286334975E+00 -0.1740801193132E+00 -0.2533341131785E+00  0.2859387047093E+00
-0.2951293958302E+00 -0.1244680613125E+00 -0.1972108043569E+00  0.2128238179922E+00
-0.2189292454642E+00 -0.8182319698489E-01 -0.1413536475925E+00  0.1444682773355E+00
-0.1376314069425E+00 -0.4568149665675E-01 -0.8615706447312E-01  0.8194826225563E-01
-0.5264771169323E-01 -0.1507770518012E-01 -0.3183094584974E-01  0.2601390773365E-01
-0.5394528627293E+00 -0.1372137260172E+01 -0.8984473554846E+00  0.1259605230389E+01
-0.5536780620477E+00 -0.1288984382795E+01 -0.8660513468795E+00  0.1214916310272E+01
-0.5662565095699E+00 -0.1201615755023E+01 -0.8308999622512E+00  0.1164146924294E+01
-0.5773620501106E+00 -0.1111282779022E+01 -0.7936630676793E+00  0.1108961612194E+01
-0.5862067334881E+00 -0.1019505952893E+01 -0.7546849606848E+00  0.1050231335524E+01
-0.5917712231029E+00 -0.9275769837822E+00 -0.7140936554248E+00  0.9882969495377E+00
-0.5930850794101E+00 -0.8364810582536E+00 -0.6718960829978E+00  0.9232972509733E+00
-0.5893128288135E+00 -0.7470077056300E+00 -0.6280706495954E+00  0.8553766860877E+00
-0.5797517236083E+00 -0.6598563386273E+00 -0.5826157877730E+00  0.7847816786395E+00
-0.5638248159143E+00 -0.5757064834611E+00 -0.5355797093480E+00  0.7118932040196E+00
-0.5410779715893E+00 -0.4952359487396E+00 -0.4870675413192E+00  0.6372319538017E+00
-0.5111929609484E+00 -0.4191106640332E+00 -0.4372427026323E+00  0.5614535444989E+00
-0.4740112914041E+00 -0.3479550363083E+00 -0.3863241730449E+00  0.4853379509203E+00
-0.4295641230976E+00 -0.2823103563860E+00 -0.3345810045087E+00  0.4097719623592E+00
-0.3780999248519E+00 -0.2225852184828E+00 -0.2823220166512E+00  0.3357217567740E+00
-0.3201054883943E+00 -0.1690080648460E+00 -0.2298833694399E+00  0.2641934341347E+00
-0.2562952221897E+00 -0.1215790085215E+00 -0.1776008879838E+00  0.1961817762779E+00
-0.1875827938807E+00 -0.8005553118613E-01 -0.1257900124624E+00  0.1326048295346E+00
-0.1149709287172E+00 -0.4392355150792E-01 -0.7468040551639E-01  0.7422027371052E-01
-0.3942886585794E-01 -0.1245992702549E-01 -0.2438773259336E-01  0.2151610973076E-01
-0.5239451103531E+00 -0.1331990790390E+01 -0.8722898711370E+00  0.1225325221111E+01
-0.5328920170654E+00 -0.1248584749483E+01 -0.8372940781541E+00  0.1177197220914E+01
-0.5409946599102E+00 -0.1160528808239E+01 -0.7997160280018E+00  0.1123426193774E+01
-0.5481603914290E+00 -0.1070003515613E+01 -0.7605370343808E+00  0.1066166229978E+01
-0.5533182948696E+00 -0.9790140284124E+00 -0.7201961901159E+00  0.1006212467336E+01
-0.5553192448271E+00 -0.8888758035976E+00 -0.6787716710380E+00  0.9437260518608E+00
-0.5532299318692E+00 -0.8004164014327E+00 -0.6362137750382E+00  0.8787378392899E+00
-0.5463162257544E+00 -0.7142093628963E+00 -0.5924470251632E+00  0.8113738569337E+00
-0.5340266829129E+00 -0.6307776416462E+00 -0.5474580311542E+00  0.7419104994755E+00
-0.5159471289794E+00 -0.5506436939422E+00 -0.5012976855017E+00  0.6707667691668E+00
-0.4917900996143E+00 -0.4743338134304E+00 -0.4540782379793E+00  0.5984844967392E+00
-0.4613994145071E+00 -0.4023541217591E+00 -0.4059641610154E+00  0.5257078336768E+00
-0.4247653626217E+00 -0.3351566522572E+00 -0.3571633460872E+00  0.4531623348836E+00
-0.3820421308264E+00 -0.2731009724903E+00 -0.3079172577778E+00  0.3816307552657E+00
-0.3335638033516E+00 -0.2164179102435E+00 -0.2584914047341E+00  0.3119235764602E+00
-0.2798464118192E+00 -0.1651746429097E+00 -0.2091598951921E+00  0.2448443982784E+00
-0.2215971191889E+00 -0.1192713709252E+00 -0.1602081899473E+00  0.1811541421591E+00
-0.1596240751379E+00 -0.7840205475750E-01 -0.1118722807671E+00  0.1215432094318E+00
-0.9478596816122E-01 -0.4214438689813E-01 -0.6435726671466E-01  0.6659410255763E-01
-0.2779600157604E-01 -0.9996058834539E-02 -0.1776226834792E-01  0.1674535244693E-01
-0.5079712841405E+00 -0.1295312864319E+01 -0.8475435476261E+00  0.1191088354819E+01
-0.5114758202802E+00 -0.1211060386318E+01 -0.8095920150476E+00  0.1139334000502E+01
-0.5153232614343E+00 -0.1121763919294E+01 -0.7694309729909E+00  0.1083013344814E+01
-0.5188864619787E+00 -0.1031138292357E+01 -0.7285116326898E+00  0.1024488331629E+01
-0.5206436758201E+00 -0.9414648835014E+00 -0.6871910211382E+00  0.9641188161378E+00
-0.5194151726069E+00 -0.8538205887665E+00 -0.6454208062085E+00  0.9017261985989E+00
-0.5142793560405E+00 -0.7685448599282E+00 -0.6029273799761E+00  0.8372351912714E+00
-0.5046562384740E+00 -0.6859375692199E+00 -0.5595790881968E+00  0.7707957247429E+00
-0.4901405718589E+00 -0.6063304255082E+00 -0.5153413674555E+00  0.7027368836187E+00
-0.4704619852779E+00 -0.5301057873383E+00 -0.4702668519368E+00  0.6335173158426E+00
-0.4454646955290E+00 -0.4576617737256E+00 -0.4244694394731E+00  0.5636878397478E+00
-0.4151095077279E+00 -0.3893749052873E+00 -0.3781076731581E+00  0.4938645305796E+00
-0.3794815453864E+00 -0.3255634520905E+00 -0.3313711479737E+00  0.4247052274666E+00
-0.3387992516372E+00 -0.2664554414785E+00 -0.2844697050429E+00  0.3568850924285E+00
-0.2934185368775E+00 -0.2121605585613E+00 -0.2376221742535E+00  0.2910694790740E+00
-0.2438418053808E+00 -0.1626583265200E+00 -0.1910550615088E+00  0.2278860046544E+00
-0.1906903469264E+00 -0.1177698625401E+00 -0.1449762980816E+00  0.1678996563435E+00
-0.1348263867412E+00 -0.7727580632551E-01 -0.9968803048850E-01  0.1116088180776E+00
-0.7700311316072E-01 -0.4071709751471E-01 -0.5532849887712E-01  0.5950758285923E-01
-0.1796532339577E-01 -0.7802249158227E-02 -0.1211075906966E-01  0.1208704571690E-01
-0.4917788934273E+00 -0.1262225358933E+01 -0.8243819965182E+00  0.1156640283305E+01
-0.4896832610316E+00 -0.1175249789390E+01 -0.7825185317136E+00  0.1101203279785E+01
-0.4895217618139E+00 -0.1083872033152E+01 -0.7394950817583E+00  0.1043316379042E+01
-0.4895518659742E+00 -0.9935496145065E+00 -0.6970576940579E+00  0.9847100828272E+00
-0.4882567148536E+00 -0.9065114959677E+00 -0.6555410574233E+00  0.9247205629893E+00
-0.4840264426003E+00 -0.8222998245749E+00 -0.6139733440151E+00  0.8628688491641E+00
-0.4761807066170E+00 -0.7408009373468E+00 -0.5719813712122E+00  0.7991472603695E+00
-0.4642699348810E+00 -0.6620579249588E+00 -0.5293740927820E+00  0.7338154950072E+00
-0.4480209983617E+00 -0.5862900573266E+00 -0.4861261949405E+00  0.6672835710979E+00
-0.4272707654115E+00 -0.5137935280615E+00 -0.4423002168105E+00  0.6000456571310E+00
-0.4019566631215E+00 -0.4448818924788E+00 -0.3980141201227E+00  0.5326466123969E+00
-0.3721145247824E+00 -0.3798402750884E+00 -0.3534187550429E+00  0.4656602893356E+00
-0.3378804006715E+00 -0.3188931300103E+00 -0.3086835586375E+00  0.3996703258129E+00
-0.2994905515546E+00 -0.2621798319747E+00 -0.2639850795892E+00  0.3352493491052E+00
-0.2572818646279E+00 -0.2097395334470E+00 -0.2195000565385E+00  0.2729360860847E+00
-0.2116809923796E+00 -0.1614930437961E+00 -0.1753917965577E+00  0.2132110435237E+00
-0.1632487308350E+00 -0.1172753891325E+00 -0.1318463360503E+00  0.1564781585547E+00
-0.1125387297654E+00 -0.7669095688216E-01 -0.8893795249878E-01  0.1030471845339E+00
-0.6106981764221E-01 -0.3983191815715E-01 -0.4742381570541E-01  0.5320334737928E-01
-0.9364289776920E-02 -0.5770900817140E-02 -0.7113539561165E-02  0.7599694852725E-02
-0.4761845831033E+00 -0.1232595201356E+01 -0.8031264966589E+00  0.1120868346413E+01
-0.4680912250523E+00 -0.1138220924362E+01 -0.7549667083098E+00  0.1062848496816E+01
-0.4627113410603E+00 -0.1043540677794E+01 -0.7079384470657E+00  0.1005670014093E+01
-0.4601902412720E+00 -0.9571045771002E+00 -0.6661285629454E+00  0.9481795679885E+00
-0.4558403972625E+00 -0.8744814212125E+00 -0.6252512530974E+00  0.8888392156267E+00
-0.4488868873984E+00 -0.7947226934625E+00 -0.5844965015221E+00  0.8275512969696E+00
-0.4387060824019E+00 -0.7174080512461E+00 -0.5433736414363E+00  0.7645866640582E+00
-0.4249793947131E+00 -0.6426060742290E+00 -0.5017651691301E+00  0.7003672212771E+00
-0.4075079942669E+00 -0.5705440079079E+00 -0.4596844398563E+00  0.6353671675659E+00
-0.3861992353152E+00 -0.5015027836626E+00 -0.4172199478614E+00  0.5700860513743E+00
-0.3610502724013E+00 -0.4357521353075E+00 -0.3744971306733E+00  0.5050366236995E+00
-0.3321418733060E+00 -0.3735175617313E+00 -0.3316599336263E+00  0.4407347649417E+00
-0.2996319062985E+00 -0.3149596955951E+00 -0.2888580521573E+00  0.3776866253000E+00
-0.2637483636106E+00 -0.2601618778865E+00 -0.2462378128791E+00  0.3163723533529E+00
-0.2247783338491E+00 -0.2091201788725E+00 -0.2039323004619E+00  0.2572266591679E+00
-0.1830680324993E+00 -0.1617471474356E+00 -0.1620631341584E+00  0.2006181935520E+00
-0.1389720473721E+00 -0.1178217827112E+00 -0.1206930998330E+00  0.1468227255651E+00
-0.9307789267703E-01 -0.7716706910502E-01 -0.8001513183462E-01  0.9601192541585E-01
-0.4515286517226E-01 -0.3854512475668E-01 -0.3933805516683E-01  0.4811589567298E-01
-0.7334106310789E-03 -0.4276487630283E-02 -0.2354652176868E-02  0.3126747784154E-02
-0.4616695971241E+00 -0.1201065970342E+01 -0.7814857147268E+00  0.1079202679137E+01
-0.4403928107022E+00 -0.1086026108043E+01 -0.7174168899906E+00  0.1027486595593E+01
-0.4356588974110E+00 -0.1002578479939E+01 -0.6759715656399E+00  0.9732327045177E+00
-0.4297609521836E+00 -0.9235749142475E+00 -0.6360678556093E+00  0.9162007324415E+00
-0.4227625135897E+00 -0.8469630105992E+00 -0.5967709948551E+00  0.8568210953313E+00
-0.4135238973479E+00 -0.7719756053162E+00 -0.5571847648389E+00  0.7956791732993E+00
-0.4015719774374E+00 -0.6987869892970E+00 -0.5171687130535E+00  0.7332905606002E+00
-0.3865950992045E+00 -0.6276990621586E+00 -0.4767182546315E+00  0.6701263092410E+00
-0.3684417810151E+00 -0.5590393547725E+00 -0.4359161327145E+00  0.6066382787186E+00
-0.3470684987302E+00 -0.4931005308023E+00 -0.3948794428787E+00  0.5432747731908E+00
-0.3225186108063E+00 -0.4301230613171E+00 -0.3537415850008E+00  0.4804839507979E+00
-0.2949053216291E+00 -0.3702856439548E+00 -0.3126397530315E+00  0.4187091987137E+00
-0.2643980362745E+00 -0.3137006534407E+00 -0.2717063834770E+00  0.3583792630047E+00
-0.2312079391168E+00 -0.2604117595056E+00 -0.2310612577665E+00  0.2998948701791E+00
-0.1955739506721E+00 -0.2103953668180E+00 -0.1908055787364E+00  0.2436130428550E+00
-0.1577363270309E+00 -0.1635525015122E+00 -0.1510057490323E+00  0.1898279696284E+00
-0.1179531015852E+00 -0.1197426513234E+00 -0.1117170035837E+00  0.1387523001490E+00
-0.7624790251303E-01 -0.7854863782586E-01 -0.7275437377475E-01  0.9045927837786E-01
-0.3337483439292E-01 -0.4022835337014E-01 -0.3459349816090E-01  0.4490731610052E-01
 0.1725819329275E-01  0.2207267586787E-02  0.9148766590177E-02  0.7189948200081E-03
</DataArray>
<DataArray type="Float64" Name="S_Mises" NumberOfComponents="1" ComponentName0="S_Mises" format="ascii">
 0.1010996378836E+02
 0.9117608717906E+01
 0.8287521947980E+01
 0.7939186574471E+01
 0.7646355809611E+01
 0.7406532266538E+01
 0.7186523831696E+01
 0.6977340149849E+01
 0.6772479837929E+01
 0.6568658732586E+01
 0.6363892686113E+01
 0.6157107474823E+01
 0.5947853449660E+01
 0.5736319213342E+01
 0.5523813402639E+01
 0.5314150143270E+01
 0.5105420458336E+01
 0.4881206056105E+01
 0.4627699352361E+01
 0.4346084672811E+01
 0.4043536192053E+01
 0.3726973105369E+01
 0.3401566548287E+01
 0.3071064784611E+01
 0.2738396279639E+01
 0.2406095684134E+01
 0.2076580481291E+01
 0.1753669079229E+01
 0.1443208866950E+01
 0.1151216864554E+01
 0.8832630440429E+00
 0.6451071604297E+00
 0.4428571941098E+00
 0.2828205715633E+00
 0.1711385842460E+00
 0.1124410223141E+00
 0.1109895685715E+00
 0.1628144942072E+00
 0.3032812643506E+00
 0.4173449970822E+00
 0.1201946318958E+01
 0.8538045995695E+01
 0.8806567710665E+01
 0.8154107608862E+01
 0.7733353102167E+01
 0.7441698661856E+01
 0.7191575908555E+01
 0.6968457872910E+01
 0.6757917224059E+01
 0.6553689406241E+01
 0.6351784539690E+01
 0.6149932014479E+01
 0.5946803025274E+01
 0.5741737927272E+01
 0.5534697188266E+01
 0.5326114658633E+01
 0.5115528018474E+01
 0.4899293425196E+01
 0.4670722425337E+01
 0.4424023030325E+01
 0.4157802223041E+01
 0.3874722594739E+01
 0.3578984404650E+01
 0.3274587073650E+01
 0.2964908340295E+01
 0.2652826064318E+01
 0.2341016568581E+01
 0.2032383084523E+01
 0.1730496203942E+01
 0.1439696659421E+01
 0.1164769395989E+01
 0.9105934722558E+00
 0.6820532808308E+00
 0.4840250378538E+00
 0.3212278164025E+00
 0.1978376079412E+00
 0.1175602699210E+00
 0.8212797429419E-01
 0.9265315927310E-01
 0.1347236529905E+00
 0.1354971372392E+00
 0.6905209799806E+00
 0.7573630540729E+01
 0.8147340655001E+01
 0.7891848269268E+01
 0.7502183172049E+01
 0.7214310712751E+01
 0.6967802077181E+01
 0.6745183127199E+01
 0.6536145367708E+01
 0.6333991811772E+01
 0.6134903890856E+01
 0.5936473549969E+01
 0.5737250139477E+01
 0.5536398423354E+01
 0.5333514736236E+01
 0.5127935259125E+01
 0.4917530811154E+01
 0.4699272510379E+01
 0.4470972307677E+01
 0.4230878018822E+01
 0.3977524879631E+01
 0.3711215670621E+01
 0.3434057138213E+01
 0.3148862973289E+01
 0.2858466665665E+01
 0.2565548176495E+01
 0.2272783827282E+01
 0.1983094554398E+01
 0.1699677992122E+01
 0.1425985388501E+01
 0.1165822281313E+01
 0.9232475564693E+00
 0.7023139245367E+00
 0.5068984118936E+00
 0.3405389503944E+00
 0.2063545625981E+00
 0.1072456525454E+00
 0.4818811869238E-01
 0.3918288962391E-01
 0.6270311604534E-01
 0.5028639127250E-01
 0.4125348643856E+00
 0.6887374298292E+01
 0.7501296107390E+01
 0.7508845777545E+01
 0.7233663400852E+01
 0.6967659107524E+01
 0.6732891688848E+01
 0.6516248965271E+01
 0.6311346749640E+01
 0.6112955770312E+01
 0.5917666292992E+01
 0.5723252668240E+01
 0.5528256209038E+01
 0.5331717481083E+01
 0.5132846531798E+01
 0.4930271951020E+01
 0.4721503513328E+01
 0.4504496909381E+01
 0.4279293899105E+01
 0.4046187001471E+01
 0.3804199537410E+01
 0.3552607486241E+01
 0.3292094646409E+01
 0.3024424792117E+01
 0.2751823177613E+01
 0.2476662679785E+01
 0.2201458348458E+01
 0.1928930719506E+01
 0.1661876048075E+01
 0.1403107744504E+01
 0.1155661128847E+01
 0.9228218939871E+00
 0.7078864909885E+00
 0.5139426178361E+00
 0.3437609771549E+00
 0.1999118728212E+00
 0.8607551500386E-01
 0.3566999308965E-01
 0.8645622022848E-01
 0.1383909500286E+00
 0.1079989169925E+00
 0.2234515735228E+00
 0.6351379231228E+01
 0.6925685519909E+01
 0.7079364444260E+01
 0.6924912874766E+01
 0.6703114721720E+01
 0.6487044503464E+01
 0.6281200120264E+01
 0.6083220499851E+01
 0.5890260979280E+01
 0.5699817629914E+01
 0.5510063873999E+01
 0.5319676071779E+01
 0.5127636150619E+01
 0.4932883341166E+01
 0.4733747389548E+01
 0.4527940503630E+01
 0.4314292847336E+01
 0.4093977750322E+01
 0.3868307238212E+01
 0.3636807262999E+01
 0.3398406031677E+01
 0.3152913345242E+01
 0.2901247021534E+01
 0.2645033397989E+01
 0.2386266154680E+01
 0.2127183399237E+01
 0.1870198663206E+01
 0.1617704799606E+01
 0.1372000840841E+01
 0.1135501677944E+01
 0.9108256599114E+00
 0.7006239621995E+00
 0.5073983470698E+00
 0.3334825158755E+00
 0.1814840370891E+00
 0.5972585845251E-01
 0.7343997507681E-01
 0.1551985940802E+00
 0.2134513704029E+00
 0.1794530007934E+00
 0.1117778220315E+00
 0.5905822607630E+01
 0.6419175995951E+01
 0.6645448483809E+01
 0.6589635595899E+01
 0.6421856644483E+01
 0.6231364417167E+01
 0.6040132140541E+01
 0.5851667999767E+01
 0.5665749597664E+01
 0.5481190066109E+01
 0.5296763946249E+01
 0.5111409441742E+01
 0.4924144385756E+01
 0.4733799000909E+01
 0.4538696926723E+01
 0.4336958245407E+01
 0.4128090194406E+01
 0.3913831461967E+01
 0.3695973810362E+01
 0.3474430038225E+01
 0.3248091529176E+01
 0.3016274758350E+01
 0.2779260837219E+01
 0.2538129306397E+01
 0.2294460584379E+01
 0.2050147293111E+01
 0.1807245520807E+01
 0.1567753129732E+01
 0.1333527534884E+01
 0.1106473806543E+01
 0.8886591508541E+00
 0.6822187792854E+00
 0.4892572179527E+00
 0.3119755593411E+00
 0.1538281366100E+00
 0.4462610932870E-01
 0.1258650134072E+00
 0.2218649825395E+00
 0.2819031569344E+00
 0.2538129289221E+00
 0.1472625565618E+00
 0.5519110455109E+01
 0.5970023345141E+01
 0.6226066660891E+01
 0.6242307609137E+01
 0.6127783488996E+01
 0.5967203351159E+01
 0.5793623931182E+01
 0.5616814149803E+01
 0.5439402896976E+01
 0.5261705939913E+01
 0.5083267763590E+01
 0.4903398058273E+01
 0.4721254730018E+01
 0.4535711960442E+01
 0.4345267371814E+01
 0.4148493226296E+01
 0.3945393927147E+01
 0.3737970296695E+01
 0.3528205107253E+01
 0.3316274121672E+01
 0.3101155533738E+01
 0.2881912187719E+01
 0.2658367326476E+01
 0.2431125630657E+01
 0.2201351577571E+01
 0.1970560780999E+01
 0.1740433239028E+01
 0.1512586481803E+01
 0.1288487774461E+01
 0.1069618880082E+01
 0.8576060214546E+00
 0.6541995736277E+00
 0.4612861824622E+00
 0.2812642092889E+00
 0.1201007346151E+00
 0.6724860958723E-01
 0.1829613021759E+00
 0.2871873559255E+00
 0.3491659356758E+00
 0.3317161462990E+00
 0.2472865055457E+00
 0.5173058105226E+01
 0.5566589535702E+01
 0.5828305048087E+01
 0.5893567777551E+01
 0.5825910056544E+01
 0.5696430469400E+01
 0.5542520245534E+01
 0.5378999748509E+01
 0.5211325818392E+01
 0.5041370656569E+01
 0.4869544562218E+01
 0.4695618234943E+01
 0.4518985142340E+01
 0.4338684890326E+01
 0.4153487868265E+01
 0.3962395824903E+01
 0.3765769753178E+01
 0.3565707047246E+01
 0.3364226439507E+01
 0.3161665901280E+01
 0.2957124333164E+01
 0.2749551280860E+01
 0.2538449743951E+01
 0.2324025098107E+01
 0.2107045027213E+01
 0.1888643044060E+01
 0.1670124005217E+01
 0.1452744520510E+01
 0.1237623895588E+01
 0.1025891983902E+01
 0.8188334714193E+00
 0.6179395707574E+00
 0.4250607179730E+00
 0.2432485304270E+00
 0.8606328369258E-01
 0.1130691671350E+00
 0.2432753034939E+00
 0.3530173350266E+00
 0.4181552378942E+00
 0.4126853529077E+00
 0.3503648275500E+00
 0.4856487141389E+01
 0.5199381536818E+01
 0.5453642572897E+01
 0.5550145288590E+01
 0.5520941864114E+01
 0.5421255093708E+01
 0.5287861886079E+01
 0.5138721668561E+01
 0.4981732640179E+01
 0.4820261770302E+01
 0.4655611739285E+01
 0.4488073228015E+01
 0.4317351213203E+01
 0.4142736027915E+01
 0.3963316705794E+01
 0.3778478194716E+01
 0.3588834697629E+01
 0.3396489556688E+01
 0.3203415214687E+01
 0.3010037454740E+01
 0.2815569816797E+01
 0.2618924639527E+01
 0.2419383642229E+01
 0.2216822650038E+01
 0.2011644416980E+01
 0.1804612856716E+01
 0.1596671183182E+01
 0.1388738237239E+01
 0.1181623314080E+01
 0.9761657624849E+00
 0.7733975232610E+00
 0.5746712522356E+00
 0.3820092427808E+00
 0.1999654527673E+00
 0.6786273719606E-01
 0.1679980385740E+00
 0.3065643723295E+00
 0.4206449855918E+00
 0.4899886271849E+00
 0.4959857746953E+00
 0.4500141758116E+00
 0.4562151157562E+01
 0.4861061063299E+01
 0.5101087366083E+01
 0.5215849294075E+01
 0.5216661269779E+01
 0.5143906545969E+01
 0.5030808793371E+01
 0.4896581362657E+01
 0.4750922596960E+01
 0.4598517183227E+01
 0.4441526863237E+01
 0.4280786807146E+01
 0.4116364062780E+01
 0.3947852089587E+01
 0.3774671552296E+01
 0.3596539720848E+01
 0.3414250014425E+01
 0.3229862921181E+01
 0.3045262574696E+01
 0.2860910159515E+01
 0.2676112338798E+01
 0.2489781080016E+01
 0.2301044557914E+01
 0.2109508796755E+01
 0.1915249096198E+01
 0.1718683010129E+01
 0.1520413535937E+01
 0.1321047623804E+01
 0.1121120318332E+01
 0.9212349509157E+00
 0.7222512140335E+00
 0.5255056733777E+00
 0.3334809743905E+00
 0.1542801516695E+00
 0.8822905559763E-01
 0.2283420509562E+00
 0.3727780291227E+00
 0.4907364097628E+00
 0.5648846739874E+00
 0.5810534661188E+00
 0.5465642449682E+00
 0.4285139439887E+01
 0.4546033103262E+01
 0.4768688712153E+01
 0.4892544134236E+01
 0.4915824991626E+01
 0.4866393038639E+01
 0.4772542801790E+01
 0.4653238999112E+01
 0.4519253341857E+01
 0.4376321347652E+01
 0.4227379223125E+01
 0.4073798015427E+01
 0.3916030860282E+01
 0.3753999352969E+01
 0.3587448787306E+01
 0.3416380770184E+01
 0.3241715467512E+01
 0.3065445315514E+01
 0.2889346459835E+01
 0.2713879593343E+01
 0.2538419137169E+01
 0.2361890682234E+01
 0.2183313364677E+01
 0.2002072216314E+01
 0.1817953349303E+01
 0.1631056865409E+01
 0.1441671599743E+01
 0.1250120181516E+01
 0.1056697741024E+01
 0.8618213180149E+00
 0.6662545643605E+00
 0.4714577611200E+00
 0.2808693440898E+00
 0.1121946016810E+00
 0.1359193604413E+00
 0.2927544729949E+00
 0.4418282258259E+00
 0.5635145026448E+00
 0.6426831341863E+00
 0.6675607453781E+00
 0.6411432209792E+00
 0.4021995495159E+01
 0.4250025058263E+01
 0.4454245567948E+01
 0.4580878206456E+01
 0.4620286365438E+01
 0.4590380235772E+01
 0.4514179678753E+01
 0.4409369565902E+01
 0.4287115588466E+01
 0.4153890660919E+01
 0.4013281302262E+01
 0.3867156845549E+01
 0.3716356122562E+01
 0.3561132123250E+01
 0.3401535726235E+01
 0.3237810021673E+01
 0.3070964547842E+01
 0.2902911753474E+01
 0.2735312419844E+01
 0.2568602672669E+01
 0.2402200599201E+01
 0.2235046849823E+01
 0.2066079644005E+01
 0.1894501666475E+01
 0.1719846008902E+01
 0.1541926327797E+01
 0.1360745543560E+01
 0.1176370243478E+01
 0.9888888216313E+00
 0.7985789156049E+00
 0.6061861452649E+00
 0.4134825498706E+00
 0.2258930228423E+00
 0.8958167419548E-01
 0.1948726340989E+00
 0.3604868926636E+00
 0.5135466855262E+00
 0.6389351733936E+00
 0.7231023514265E+00
 0.7553647915137E+00
 0.7348206201838E+00
 0.3770205131898E+01
 0.3969746926950E+01
 0.4155622691652E+01
 0.4280776766450E+01
 0.4331183567738E+01
 0.4317160839110E+01
 0.4256708039272E+01
 0.4165623948816E+01
 0.4054909877544E+01
 0.3931459318888E+01
 0.3799360509387E+01
 0.3660920486511E+01
 0.3517342892847E+01
 0.3369198730386E+01
 0.3216818191700E+01
 0.3060648147567E+01
 0.2901760387529E+01
 0.2741982693738E+01
 0.2582859683685E+01
 0.2424787063091E+01
 0.2267205710095E+01
 0.2109066423113E+01
 0.1949243516215E+01
 0.1786787294805E+01
 0.1621010404480E+01
 0.1451470781537E+01
 0.1277914083630E+01
 0.1100178992206E+01
 0.9181793426883E+00
 0.7320996326043E+00
 0.5427569917297E+00
 0.3525363858633E+00
 0.1713924506808E+00
 0.1073098274329E+00
 0.2595520339597E+00
 0.4309952044218E+00
 0.5876970931967E+00
 0.7168125060571E+00
 0.8058531746015E+00
 0.8444411240575E+00
 0.8284680425292E+00
 0.3527886186845E+01
 0.3702636263007E+01
 0.3870877021508E+01
 0.3991758815412E+01
 0.4049122883414E+01
 0.4047677437329E+01
 0.4000957170034E+01
 0.3922598677546E+01
 0.3823026365565E+01
 0.3709266405735E+01
 0.3585751485863E+01
 0.3455149915877E+01
 0.3318993446063E+01
 0.3178145492129E+01
 0.3033185024494E+01
 0.2884729372591E+01
 0.2733892223738E+01
 0.2582415736694E+01
 0.2431730844867E+01
 0.2282182589611E+01
 0.2133217417761E+01
 0.1983788635449E+01
 0.1832716369406E+01
 0.1678921461136E+01
 0.1521524509762E+01
 0.1359856684486E+01
 0.1193434159604E+01
 0.1021895030587E+01
 0.8450100219169E+00
 0.6629191726048E+00
 0.4766292049891E+00
 0.2897034291174E+00
 0.1239741027067E+00
 0.1555375651509E+00
 0.3278944095242E+00
 0.5038235273487E+00
 0.6639995260236E+00
 0.7968960868770E+00
 0.8906814094578E+00
 0.9348319549645E+00
 0.9227584054990E+00
 0.3293593385034E+01
 0.3446671667888E+01
 0.3598294137908E+01
 0.3713134410273E+01
 0.3774331892970E+01
 0.3782570076690E+01
 0.3747588013779E+01
 0.3680815833599E+01
 0.3591828518111E+01
 0.3487544707263E+01
 0.3372589223540E+01
 0.3249906755036E+01
 0.3121309459540E+01
 0.2987919116638E+01
 0.2850530581278E+01
 0.2709901791267E+01
 0.2567172318016E+01
 0.2423999380416E+01
 0.2281704084456E+01
 0.2140574318127E+01
 0.2000048296699E+01
 0.1859073478433E+01
 0.1716420873811E+01
 0.1570899210932E+01
 0.1421461222090E+01
 0.1267237633328E+01
 0.1107541169975E+01
 0.9418353702146E+00
 0.7697791073358E+00
 0.5915238032479E+00
 0.4084453193863E+00
 0.2265172917300E+00
 0.1007995126460E+00
 0.2166465592940E+00
 0.3988446099894E+00
 0.5785647245070E+00
 0.7421528751731E+00
 0.8789135631880E+00
 0.9773764436283E+00
 0.1026613349830E+01
 0.1018192771891E+01
 0.3066191560373E+01
 0.3200237364509E+01
 0.3336383980608E+01
 0.3444124211506E+01
 0.3506778201816E+01
 0.3522230960522E+01
 0.3497099726597E+01
 0.3440712480061E+01
 0.3361641176150E+01
 0.3266511560591E+01
 0.3160003149079E+01
 0.3045250397559E+01
 0.2924291733280E+01
 0.2798467971203E+01
 0.2668755922336E+01
 0.2536026975148E+01
 0.2401433274227E+01
 0.2266548216095E+01
 0.2132587228853E+01
 0.1999777018759E+01
 0.1867536706309E+01
 0.1734799874227E+01
 0.1600290610596E+01
 0.1462718556554E+01
 0.1320888771185E+01
 0.1173754798132E+01
 0.1020449636114E+01
 0.8602867207040E+00
 0.6928451253060E+00
 0.5183587444884E+00
 0.3388849733803E+00
 0.1659644882898E+00
 0.1209640724048E+00
 0.2835410401808E+00
 0.4717179442235E+00
 0.6548466652823E+00
 0.8218519701310E+00
 0.9625907448085E+00
 0.1065763440621E+01
 0.1119877353673E+01
 0.1115128787532E+01
 0.2844770883996E+01
 0.2962024688358E+01
 0.3083859878542E+01
 0.3183929732873E+01
 0.3246257429255E+01
 0.3266856879163E+01
 0.3249845169514E+01
 0.3202637799006E+01
 0.3132742925821E+01
 0.3046361884675E+01
 0.2948112270929E+01
 0.2841235466136E+01
 0.2727939605055E+01
 0.2609742576498E+01
 0.2487769175796E+01
 0.2362979210551E+01
 0.2236525730086E+01
 0.2109899192435E+01
 0.1984213193505E+01
 0.1859630794436E+01
 0.1735543553228E+01
 0.1610863947630E+01
 0.1484269601412E+01
 0.1354380745165E+01
 0.1219871318759E+01
 0.1079537706404E+01
 0.9323542322930E+00
 0.7775069905228E+00
 0.6145297652630E+00
 0.4438403641720E+00
 0.2687999173451E+00
 0.1161227112593E+00
 0.1715426943440E+00
 0.3535638424607E+00
 0.5460016153625E+00
 0.7323278518886E+00
 0.9028002218029E+00
 0.1047659602382E+01
 0.1155685597987E+01
 0.1214722509494E+01
 0.1213803340661E+01
 0.2628588707169E+01
 0.2730959984315E+01
 0.2839612435082E+01
 0.2931772889446E+01
 0.2992456467072E+01
 0.3016495146071E+01
 0.3006050461639E+01
 0.2966855794947E+01
 0.2905362284716E+01
 0.2827263366707E+01
 0.2737021433618E+01
 0.2637909669210E+01
 0.2532250222325E+01
 0.2421695623927E+01
 0.2307485429857E+01
 0.2190644605210E+01
 0.2072316430194E+01
 0.1953908743190E+01
 0.1836436547030E+01
 0.1719997745333E+01
 0.1603949750538E+01
 0.1487177645611E+01
 0.1368312015611E+01
 0.1245890733700E+01
 0.1118469890446E+01
 0.9847054528557E+00
 0.8434312018180E+00
 0.6937269449959E+00
 0.5351209656686E+00
 0.3683780431326E+00
 0.1996159953615E+00
 0.9873700623892E-01
 0.2344546195636E+00
 0.4254586485968E+00
 0.6212799510412E+00
 0.8106963247958E+00
 0.9847187763967E+00
 0.1133864172017E+01
 0.1246979779988E+01
 0.1311242275246E+01
 0.1314342080926E+01
 0.2417028734112E+01
 0.2506151378331E+01
 0.2602683571428E+01
 0.2686916724788E+01
 0.2744997908167E+01
 0.2771081753444E+01
 0.2765835409129E+01
 0.2733551596742E+01
 0.2679676996858E+01
 0.2609353640405E+01
 0.2526818677823E+01
 0.2435312129047E+01
 0.2337217831275E+01
 0.2234281767470E+01
 0.2127826427030E+01
 0.2018920257098E+01
 0.1908686730677E+01
 0.1798450699521E+01
 0.1689131081529E+01
 0.1580759644598E+01
 0.1472654509625E+01
 0.1363667973642E+01
 0.1252382378206E+01
 0.1137258180866E+01
 0.1016743909209E+01
 0.8893685574620E+00
 0.7538403099826E+00
 0.6091520196811E+00
 0.4548764614744E+00
 0.2924238420647E+00
 0.1348807590859E+00
 0.1294071700972E+00
 0.3024732997798E+00
 0.4984879260177E+00
 0.6972015615759E+00
 0.8896686140036E+00
 0.1067354154533E+01
 0.1220966789666E+01
 0.1339465525606E+01
 0.1409490855215E+01
 0.1416720330659E+01
 0.2209571760832E+01
 0.2286849100288E+01
 0.2372242941606E+01
 0.2448674804027E+01
 0.2503470611183E+01
 0.2530471969476E+01
 0.2529232939208E+01
 0.2502839779758E+01
 0.2455815681247E+01
 0.2392739206924E+01
 0.2317573670533E+01
 0.2233472251727E+01
 0.2142833241762E+01
 0.2047457418664E+01
 0.1948720304243E+01
 0.1847713680809E+01
 0.1745531650753E+01
 0.1643415036853E+01
 0.1542188432513E+01
 0.1441816746144E+01
 0.1341574719532E+01
 0.1240277233240E+01
 0.1136456745625E+01
 0.1028499458363E+01
 0.9147538405986E+00
 0.7936319683226E+00
 0.6637277404291E+00
 0.5239643882926E+00
 0.3740286054453E+00
 0.2166184665919E+00
 0.8758367521514E-01
 0.1862807049970E+00
 0.3728970541080E+00
 0.5721470645749E+00
 0.7734631135025E+00
 0.9689882737573E+00
 0.1150479381483E+01
 0.1308771482197E+01
 0.1432910654412E+01
 0.1509601404545E+01
 0.1520308135791E+01
 0.2005774307186E+01
 0.2072415605323E+01
 0.2147567433767E+01
 0.2216413943871E+01
 0.2267450287604E+01
 0.2294464272133E+01
 0.2296206589906E+01
 0.2274773563054E+01
 0.2233861150517E+01
 0.2177495825457E+01
 0.2109337159777E+01
 0.2032409221288E+01
 0.1949083643656E+01
 0.1861180786565E+01
 0.1770101646047E+01
 0.1676942746803E+01
 0.1582759702914E+01
 0.1488707681321E+01
 0.1395518010798E+01
 0.1303088085160E+01
 0.1210645921574E+01
 0.1116964926870E+01
 0.1020525654054E+01
 0.9196416001135E+00
 0.8125659675730E+00
 0.6976002957839E+00
 0.5732309323862E+00
 0.4383256323542E+00
 0.2927931798033E+00
 0.1423835207014E+00
 0.9215570982570E-01
 0.2523418438877E+00
 0.4444882414857E+00
 0.6460556580416E+00
 0.8497986377730E+00
 0.1048427807096E+01
 0.1233885268406E+01
 0.1397134596044E+01
 0.1527146552846E+01
 0.1611250259857E+01
 0.1627252646202E+01
 0.1805252745636E+01
 0.1862302840730E+01
 0.1928023775415E+01
 0.1989553167534E+01
 0.2036513032672E+01
 0.2062818732940E+01
 0.2066665708030E+01
 0.2049354132019E+01
 0.2013854858279E+01
 0.1963670137698E+01
 0.1902141437135E+01
 0.1832132245301E+01
 0.1755953009029E+01
 0.1675412478940E+01
 0.1591912222730E+01
 0.1506536545409E+01
 0.1420293959774E+01
 0.1334251905941E+01
 0.1249048891710E+01
 0.1164514087944E+01
 0.1079825919259E+01
 0.9937126257473E+00
 0.9046004067062E+00
 0.8107300447627E+00
 0.7102614716354E+00
 0.6013877822586E+00
 0.4824879183711E+00
 0.3523811203003E+00
 0.2113933611029E+00
 0.7584262617688E-01
 0.1439679451843E+00
 0.3218718484654E+00
 0.5165566915377E+00
 0.7199089364479E+00
 0.9259748517319E+00
 0.1127779702099E+01
 0.1317404957672E+01
 0.1485867297953E+01
 0.1622347703803E+01
 0.1713352604890E+01
 0.1742579492284E+01
 0.1607671328809E+01
 0.1656034772457E+01
 0.1713053965528E+01
 0.1767560654610E+01
 0.1810243948894E+01
 0.1835270964403E+01
 0.1840478391295E+01
 0.1826539682100E+01
 0.1795802129138E+01
 0.1751282402927E+01
 0.1696001894632E+01
 0.1632641805968E+01
 0.1563423476158E+01
 0.1490117188871E+01
 0.1414103060611E+01
 0.1336437956978E+01
 0.1258075305448E+01
 0.1179992480526E+01
 0.1102735105353E+01
 0.1026063290562E+01
 0.9491032600874E+00
 0.8705345553325E+00
 0.7887260664065E+00
 0.7018442879665E+00
 0.6079549081858E+00
 0.5051393412304E+00
 0.3916585180454E+00
 0.2662701505510E+00
 0.1301657345896E+00
 0.5857496083040E-01
 0.2105245356427E+00
 0.3927945078073E+00
 0.5886560756135E+00
 0.7934541476272E+00
 0.1001784198703E+01
 0.1206863212871E+01
 0.1400869270545E+01
 0.1574912389168E+01
 0.1718195121050E+01
 0.1817551125668E+01
 0.1859585578629E+01
 0.1412733029197E+01
 0.1453193819921E+01
 0.1502163157725E+01
 0.1549949760202E+01
 0.1588242430471E+01
 0.1611542662808E+01
 0.1617482467560E+01
 0.1606254097457E+01
 0.1579678087178E+01
 0.1540330446472E+01
 0.1490920007002E+01
 0.1433932473143E+01
 0.1371478498940E+01
 0.1305267494228E+01
 0.1236639150859E+01
 0.1166609574247E+01
 0.1096069946724E+01
 0.1025905192648E+01
 0.9565676193988E+00
 0.8877472856401E+00
 0.8185157178999E+00
 0.7475002660028E+00
 0.6730090939499E+00
 0.5931315183963E+00
 0.5058352948199E+00
 0.4090808113777E+00
 0.3009824187833E+00
 0.1801614691186E+00
 0.5066938092549E-01
 0.1152345284223E+00
 0.2812840749829E+00
 0.4641660000108E+00
 0.6604669830363E+00
 0.8664764865030E+00
 0.1077043204985E+01
 0.1285511643568E+01
 0.1484146312053E+01
 0.1664134498725E+01
 0.1814792134036E+01
 0.1923581896524E+01
 0.1978205788899E+01
 0.1220172438574E+01
 0.1253410222695E+01
 0.1294909612789E+01
 0.1336274754885E+01
 0.1370125276972E+01
 0.1391349717281E+01
 0.1397495049783E+01
 0.1388395564968E+01
 0.1365434632981E+01
 0.1330795412485E+01
 0.1286888663386E+01
 0.1235998591702E+01
 0.1180109526120E+01
 0.1120852078653E+01
 0.1059509782689E+01
 0.9970468249784E+00
 0.9342861366190E+00
 0.8720180904393E+00
 0.8106011048791E+00
 0.7496541330675E+00
 0.6881916732533E+00
 0.6247856867144E+00
 0.5576805455821E+00
 0.4848860335006E+00
 0.4042691912525E+00
 0.3136601429256E+00
 0.2109839317869E+00
 0.9447622140369E-01
 0.3941512161193E-01
 0.1875711025144E+00
 0.3534005516344E+00
 0.5354684096808E+00
 0.7317451231760E+00
 0.9387911396897E+00
 0.1151587319065E+01
 0.1363577088472E+01
 0.1567104995887E+01
 0.1753443637827E+01
 0.1912108635649E+01
 0.2031102738497E+01
 0.2098540678049E+01
 0.1029750198159E+01
 0.1056353628305E+01
 0.1090896375629E+01
 0.1126126704970E+01
 0.1155528599931E+01
 0.1174408948595E+01
 0.1180321643556E+01
 0.1172846138187E+01
 0.1153009767062E+01
 0.1122651126320E+01
 0.1083902343263E+01
 0.1038846209890E+01
 0.9893306775502E+00
 0.9368942518887E+00
 0.8827522101501E+00
 0.8278083961941E+00
 0.7728133240111E+00
 0.7184616510871E+00
 0.6650177223200E+00
 0.6120287949572E+00
 0.5584510323981E+00
 0.5028000317655E+00
 0.4432581078254E+00
 0.3777638785052E+00
 0.3041064930529E+00
 0.2200472036799E+00
 0.1235527430888E+00
 0.1810808022570E-01
 0.1176186099436E+00
 0.2626118807471E+00
 0.4258338149350E+00
 0.6063760560410E+00
 0.8022957939583E+00
 0.1010237322181E+01
 0.1225269146950E+01
 0.1440923501214E+01
 0.1649625194541E+01
 0.1842748556355E+01
 0.2010031989175E+01
 0.2139886088683E+01
 0.2220596846001E+01
 0.8412485838950E+00
 0.8617263808204E+00
 0.8897643874456E+00
 0.9191298548573E+00
 0.9441095986037E+00
 0.9604451198620E+00
 0.9657669786388E+00
 0.9594851328137E+00
 0.9423431752098E+00
 0.9158824062639E+00
 0.8819793570435E+00
 0.8425209285839E+00
 0.7992143363263E+00
 0.7534979917666E+00
 0.7065116212590E+00
 0.6590946015455E+00
 0.6119245446422E+00
 0.5656019735382E+00
 0.5202991195841E+00
 0.4754938119991E+00
 0.4300881182422E+00
 0.3825524451278E+00
 0.3310367164957E+00
 0.2734858494121E+00
 0.2078345976371E+00
 0.1326557546210E+00
 0.5398301584438E-01
 0.8155879579497E-01
 0.1982334284113E+00
 0.3382292575061E+00
 0.4980961866182E+00
 0.6766645946448E+00
 0.8719598490190E+00
 0.1080674321122E+01
 0.1297955530348E+01
 0.1517425244127E+01
 0.1731593504918E+01
 0.1931946112742E+01
 0.2108433079551E+01
 0.2249766600207E+01
 0.2344339363043E+01
 0.6544679839589E+00
 0.6692581345671E+00
 0.6911868252575E+00
 0.7149391522681E+00
 0.7355503192284E+00
 0.7492022322331E+00
 0.7536538906842E+00
 0.7482155766593E+00
 0.7334110285177E+00
 0.7105301541878E+00
 0.6812204410288E+00
 0.6471846388565E+00
 0.6099924211788E+00
 0.5709824292536E+00
 0.5312205057801E+00
 0.4914871485401E+00
 0.4523967196643E+00
 0.4144666764586E+00
 0.3777887504057E+00
 0.3417883073220E+00
 0.3053472114555E+00
 0.2669693537347E+00
 0.2249685073274E+00
 0.1778428713602E+00
 0.1255997118044E+00
 0.7776855233467E-01
 0.8670229811828E-01
 0.1669157448813E+00
 0.2789224052391E+00
 0.4137940041031E+00
 0.5699173175814E+00
 0.7461705996066E+00
 0.9406053974367E+00
 0.1149978378966E+01
 0.1369525400090E+01
 0.1592965239807E+01
 0.1812899549892E+01
 0.2020927371134E+01
 0.2207185827117E+01
 0.2360615068872E+01
 0.2469710442149E+01
 0.4692241179844E+00
 0.4787015594104E+00
 0.4948646557390E+00
 0.5132411925631E+00
 0.5295707293554E+00
 0.5404739897626E+00
 0.5438749850639E+00
 0.5390409445276E+00
 0.5263333639795E+00
 0.5068380288803E+00
 0.4820077743810E+00
 0.4533860030205E+00
 0.4224258139496E+00
 0.3903891557263E+00
 0.3582981813238E+00
 0.3269154607084E+00
 0.2968430894104E+00
 0.2685694206401E+00
 0.2421653870943E+00
 0.2170995877427E+00
 0.1924354352697E+00
 0.1671856252911E+00
 0.1410180283715E+00
 0.1161467299948E+00
 0.1021866755669E+00
 0.1179680948041E+00
 0.1706730940399E+00
 0.2528000079098E+00
 0.3594143322167E+00
 0.4890455285255E+00
 0.6411314093449E+00
 0.8147715529874E+00
 0.1008122517374E+01
 0.1218040276514E+01
 0.1439867994791E+01
 0.1667433111535E+01
 0.1893435111227E+01
 0.2109582574042E+01
 0.2306172435800E+01
 0.2472322560883E+01
 0.2596638765633E+01
 0.2853461665749E+00
 0.2898292803121E+00
 0.3005244482199E+00
 0.3137720983853E+00
 0.3259932875394E+00
 0.3342393213422E+00
 0.3366211382783E+00
 0.3324122111892E+00
 0.3218762300319E+00
 0.3059657080881E+00
 0.2860158492143E+00
 0.2635013243542E+00
 0.2398751677583E+00
 0.2164786930510E+00
 0.1944957690035E+00
 0.1749229588260E+00
 0.1586026080713E+00
 0.1461353968577E+00
 0.1375457111335E+00
 0.1322770929852E+00
 0.1296800944515E+00
 0.1296663972089E+00
 0.1334133069654E+00
 0.1439042242934E+00
 0.1656768599262E+00
 0.2033913128438E+00
 0.2604136030120E+00
 0.3387449404078E+00
 0.4396331544199E+00
 0.5638565647483E+00
 0.7116321314388E+00
 0.8823750348821E+00
 0.1074419711287E+01
 0.1284763437533E+01
 0.1508881317907E+01
 0.1740723828602E+01
 0.1973094114487E+01
 0.2197803738663E+01
 0.2405283307731E+01
 0.2584791391001E+01
 0.2725045377904E+01
 0.1026805474920E+00
 0.1024375504479E+00
 0.1079368251047E+00
 0.1165479082302E+00
 0.1254371998325E+00
 0.1320400948469E+00
 0.1346705968698E+00
 0.1327566729252E+00
 0.1267634886919E+00
 0.1179951772801E+00
 0.1083946958032E+00
 0.1003239718051E+00
 0.9612633840013E-01
 0.9730581229097E-01
 0.1038283905188E+00
 0.1144032369462E+00
 0.1273789366989E+00
 0.1413054145680E+00
 0.1552072757967E+00
 0.1687144353624E+00
 0.1820184269480E+00
 0.1958643380552E+00
 0.2116601490409E+00
 0.2316528891285E+00
 0.2590172099046E+00
 0.2976555193395E+00
 0.3516567238872E+00
 0.4246788852125E+00
 0.5195588273344E+00
 0.6381636483708E+00
 0.7813521176283E+00
 0.9489124719101E+00
 0.1139421449777E+01
 0.1350062426328E+01
 0.1576470856809E+01
 0.1812736720734E+01
 0.2051772614796E+01
 0.2285485479333E+01
 0.2504415357883E+01
 0.2697930217640E+01
 0.2854847878018E+01
 0.7898402817235E-01
 0.8373847435268E-01
 0.8336556481165E-01
 0.8132372080067E-01
 0.8086241347860E-01
 0.8393458764045E-01
 0.9094020528365E-01
 0.1013870944625E+00
 0.1146134117233E+00
 0.1300165893835E+00
 0.1469988403500E+00
 0.1649195743628E+00
 0.1831258295983E+00
 0.2010197828603E+00
 0.2181211928416E+00
 0.2341065433393E+00
 0.2487470718291E+00
 0.2618557240606E+00
 0.2734759799213E+00
 0.2840292469235E+00
 0.2942660119878E+00
 0.3052518193014E+00
 0.3184453678464E+00
 0.3358481041784E+00
 0.3601542221469E+00
 0.3947750175375E+00
 0.4436129430157E+00
 0.5106051716209E+00
 0.5991999423246E+00
 0.7119414803459E+00
 0.8502526920060E+00
 0.1014335345741E+01
 0.1203066446495E+01
 0.1413861769373E+01
 0.1642548540974E+01
 0.1883374681942E+01
 0.2129368535964E+01
 0.2372524802550E+01
 0.2603470128502E+01
 0.2811651537205E+01
 0.2985963455244E+01
 0.2596848453771E+00
 0.2687690047453E+00
 0.2732039641826E+00
 0.2752769091120E+00
 0.2771973659839E+00
 0.2806395585000E+00
 0.2865511359379E+00
 0.2951868361032E+00
 0.3062710363890E+00
 0.3191947882813E+00
 0.3331914930199E+00
 0.3474725319390E+00
 0.3613229146471E+00
 0.3741632543298E+00
 0.3855863647599E+00
 0.3953744013635E+00
 0.4034273603834E+00
 0.4097083791127E+00
 0.4144224653219E+00
 0.4181508709295E+00
 0.4217917450616E+00
 0.4265226026051E+00
 0.4338382476724E+00
 0.4456566397073E+00
 0.4644558070149E+00
 0.4933614732270E+00
 0.5360716286159E+00
 0.5965582595360E+00
 0.6785856827673E+00
 0.7851919428808E+00
 0.9183183560629E+00
 0.1078612841757E+01
 0.1265306462416E+01
 0.1476095056295E+01
 0.1707031897684E+01
 0.1952543454435E+01
 0.2205781164622E+01
 0.2458820392434E+01
 0.2702352158000E+01
 0.2925870478902E+01
 0.3118311171188E+01
 0.4396275573712E+00
 0.4529049268008E+00
 0.4620523264859E+00
 0.4687255998030E+00
 0.4745594774073E+00
 0.4808327001070E+00
 0.4883023739467E+00
 0.4971937597031E+00
 0.5072955876627E+00
 0.5181035761370E+00
 0.5289673503819E+00
 0.5392149356586E+00
 0.5482450198083E+00
 0.5555879027606E+00
 0.5609418303481E+00
 0.5641909124543E+00
 0.5653437425454E+00
 0.5644868387211E+00
 0.5619460320819E+00
 0.5584076440272E+00
 0.5548644903315E+00
 0.5525751916674E+00
 0.5530839647937E+00
 0.5582986568726E+00
 0.5706075558885E+00
 0.5929843668736E+00
 0.6289905672072E+00
 0.6825930022586E+00
 0.7577628782687E+00
 0.8579389003867E+00
 0.9855537188969E+00
 0.1141730412121E+01
 0.1326105522341E+01
 0.1536704288437E+01
 0.1769843370070E+01
 0.2020150947080E+01
 0.2280910471848E+01
 0.2544271687502E+01
 0.2800967672525E+01
 0.3040504278509E+01
 0.3251813674271E+01
 0.6189325346943E+00
 0.6363034288749E+00
 0.6500720923768E+00
 0.6613535202466E+00
 0.6712757853670E+00
 0.6807272296072E+00
 0.6902207672329E+00
 0.6998735962367E+00
 0.7094715918624E+00
 0.7185776871575E+00
 0.7266487682926E+00
 0.7331381613950E+00
 0.7375734560790E+00
 0.7396090458331E+00
 0.7390583496754E+00
 0.7359108321441E+00
 0.7302813222760E+00
 0.7223724830205E+00
 0.7126164489235E+00
 0.7017817567161E+00
 0.6909291754098E+00
 0.6813762718516E+00
 0.6747107914514E+00
 0.6728526850963E+00
 0.6781546424851E+00
 0.6935097715444E+00
 0.7223970142862E+00
 0.7687811700584E+00
 0.8367948195172E+00
 0.9302256119444E+00
 0.1051981801226E+01
 0.1203688969272E+01
 0.1385439474536E+01
 0.1595639454150E+01
 0.1830909776833E+01
 0.2086106580064E+01
 0.2354656336653E+01
 0.2628777899194E+01
 0.2899223544074E+01
 0.3155472075360E+01
 0.3386398496278E+01
 0.7977256221398E+00
 0.8191254603346E+00
 0.8374546784560E+00
 0.8533304754958E+00
 0.8674059742474E+00
 0.8801854521974E+00
 0.8919211299979E+00
 0.9025941123308E+00
 0.9119596495926E+00
 0.9196275587100E+00
 0.9251509243876E+00
 0.9281049313856E+00
 0.9281473129874E+00
 0.9250596319822E+00
 0.9187731476226E+00
 0.9093833373897E+00
 0.8971092976784E+00
 0.8822650780798E+00
 0.8653802786969E+00
 0.8472918495696E+00
 0.8291112914697E+00
 0.8121983240150E+00
 0.7981741336327E+00
 0.7889749734853E+00
 0.7869413338292E+00
 0.7949241023798E+00
 0.8163557372886E+00
 0.8552101781168E+00
 0.9157608267348E+00
 0.1002113469729E+01
 0.1117643184757E+01
 0.1264504551074E+01
 0.1443295853675E+01
 0.1652858320295E+01
 0.1890161906722E+01
 0.2150320664833E+01
 0.2426917726344E+01
 0.2712237035281E+01
 0.2997026430310E+01
 0.3270694839669E+01
 0.3521999042346E+01
 0.9761296330168E+00
 0.1001527290565E+01
 0.1024387715205E+01
 0.1044856963734E+01
 0.1063132838518E+01
 0.1079340898610E+01
 0.1093465003479E+01
 0.1105335222811E+01
 0.1114660142162E+01
 0.1121083502517E+01
 0.1124246338813E+01
 0.1123841863011E+01
 0.1119657239066E+01
 0.1111602028000E+01
 0.1099726256234E+01
 0.1084231285273E+01
 0.1065438711582E+01
 0.1043770325038E+01
 0.1019846828576E+01
 0.9945638166972E+00
 0.9690709894882E+00
 0.9447569464135E+00
 0.9232659460884E+00
 0.9065479961640E+00
 0.8969408275743E+00
 0.8972739580243E+00
 0.9109566257189E+00
 0.9419826570764E+00
 0.9947562098182E+00
 0.1073681489786E+01
 0.1182595730872E+01
 0.1324208367285E+01
 0.1499674026554E+01
 0.1708326439082E+01
 0.1947534251541E+01
 0.2212703834592E+01
 0.2497591868540E+01
 0.2794544944592E+01
 0.3094282019337E+01
 0.3386095325311E+01
 0.3658555370677E+01
 0.1154264472438E+01
 0.1183660964071E+01
 0.1211054063610E+01
 0.1236136050172E+01
 0.1258662152467E+01
 0.1278383100843E+01
 0.1295010168506E+01
 0.1308213450290E+01
 0.1317644952337E+01
 0.1322974098559E+01
 0.1323924461501E+01
 0.1320304635209E+01
 0.1312030567184E+01
 0.1299140141099E+01
 0.1281802456393E+01
 0.1260324228701E+01
 0.1235127775809E+01
 0.1206739437666E+01
 0.1175865796524E+01
 0.1143453259620E+01
 0.1110679594833E+01
 0.1078951052586E+01
 0.1049924938594E+01
 0.1025559531809E+01
 0.1008192156255E+01
 0.1000641859917E+01
 0.1006309282407E+01
 0.1029216413781E+01
 0.1073892471429E+01
 0.1145026278455E+01
 0.1246914717954E+01
 0.1382847176338E+01
 0.1554585613732E+01
 0.1762017378089E+01
 0.2002964889519E+01
 0.2273166542209E+01
 0.2566573434150E+01
 0.2875594377373E+01
 0.3190894317481E+01
 0.3501597997984E+01
 0.3796014811903E+01
 0.1332247719935E+01
 0.1365675220234E+01
 0.1397632672175E+01
 0.1427369105419E+01
 0.1454204730569E+01
 0.1477517677832E+01
 0.1496744124911E+01
 0.1511389049384E+01
 0.1521042338806E+01
 0.1525394698989E+01
 0.1524249588807E+01
 0.1517529949418E+01
 0.1505280531384E+01
 0.1487667908044E+01
 0.1464980298682E+01
 0.1437628954219E+01
 0.1406134998179E+01
 0.1371126253105E+01
 0.1333390456545E+01
 0.1293917932555E+01
 0.1253905611126E+01
 0.1214767266928E+01
 0.1178163469519E+01
 0.1146053714187E+01
 0.1120773192970E+01
 0.1105135234602E+01
 0.1102540489461E+01
 0.1117044606068E+01
 0.1153297684471E+01
 0.1216262332046E+01
 0.1310693312489E+01
 0.1440483965244E+01
 0.1608055190693E+01
 0.1813913189265E+01
 0.2056395537367E+01
 0.2331618642693E+01
 0.2633753740985E+01
 0.2955274046091E+01
 0.3286764934269E+01
 0.3617128910191E+01
 0.3934332485260E+01
 0.1510195266113E+01
 0.1547716453469E+01
 0.1584299701196E+01
 0.1618755515223E+01
 0.1649972130391E+01
 0.1676955527150E+01
 0.1698865276532E+01
 0.1715039010739E+01
 0.1725002648562E+01
 0.1728467280065E+01
 0.1725316342659E+01
 0.1715587881270E+01
 0.1699456390431E+01
 0.1677217777550E+01
 0.1649279327849E+01
 0.1616155769487E+01
 0.1578464917080E+01
 0.1536932960849E+01
 0.1492424244906E+01
 0.1445966537791E+01
 0.1398767619848E+01
 0.1352239193715E+01
 0.1308035340837E+01
 0.1268108650977E+01
 0.1234787787938E+01
 0.1210880950191E+01
 0.1199792993264E+01
 0.1205616052656E+01
 0.1233117008504E+01
 0.1287522592229E+01
 0.1374043325181E+01
 0.1497198920495E+01
 0.1660121280538E+01
 0.1864005140324E+01
 0.2107771795485E+01
 0.2387969078532E+01
 0.2699019982602E+01
 0.3033467668896E+01
 0.3381792329389E+01
 0.3732615510748E+01
 0.4073471752559E+01
 0.1688221954946E+01
 0.1729929669020E+01
 0.1771229698714E+01
 0.1810493395638E+01
 0.1846175829559E+01
 0.1876909432178E+01
 0.1901576333918E+01
 0.1919347134852E+01
 0.1929685350929E+01
 0.1932324945549E+01
 0.1927232188987E+01
 0.1914562876998E+01
 0.1894623234633E+01
 0.1867839535781E+01
 0.1834738050608E+01
 0.1795935709937E+01
 0.1752144673577E+01
 0.1704186248351E+01
 0.1652996841758E+01
 0.1599635345424E+01
 0.1545312321221E+01
 0.1491427988900E+01
 0.1439620038974E+01
 0.1391825151408E+01
 0.1350359085311E+01
 0.1318022416092E+01
 0.1298224946186E+01
 0.1295095636976E+01
 0.1313513324186E+01
 0.1358959212635E+01
 0.1437096223993E+01
 0.1553090687892E+01
 0.1710837657473E+01
 0.1912294739568E+01
 0.2157043617429E+01
 0.2442125688758E+01
 0.2762254485440E+01
 0.3110052978078E+01
 0.3475870994435E+01
 0.3847986382900E+01
 0.4213404644671E+01
 0.1866442231772E+01
 0.1912459441254E+01
 0.1958596798384E+01
 0.2002780644242E+01
 0.2043027544600E+01
 0.2077593094765E+01
 0.2105081717552E+01
 0.2124499729822E+01
 0.2135253171723E+01
 0.2137104757954E+01
 0.2130109249046E+01
 0.2114544784804E+01
 0.2090852405342E+01
 0.2059590210592E+01
 0.2021403369349E+01
 0.1977009525305E+01
 0.1927212585017E+01
 0.1872925537364E+01
 0.1815152227273E+01
 0.1754976353653E+01
 0.1693603237978E+01
 0.1632412185303E+01
 0.1573014309663E+01
 0.1517320556812E+01
 0.1467625777164E+01
 0.1426717950788E+01
 0.1398009693323E+01
 0.1385664779157E+01
 0.1394667971097E+01
 0.1430744509484E+01
 0.1500004388103E+01
 0.1608277926019E+01
 0.1760274986733E+01
 0.1958795093277E+01
 0.2204166042567E+01
 0.2493995167148E+01
 0.2823333998280E+01
 0.3184900677169E+01
 0.3568890547041E+01
 0.3963170907919E+01
 0.4354112290691E+01
 0.2044970807188E+01
 0.2095450892140E+01
 0.2146575948963E+01
 0.2195816143600E+01
 0.2240740005773E+01
 0.2279221107245E+01
 0.2309586498453E+01
 0.2330683474326E+01
 0.2341868981356E+01
 0.2342943836001E+01
 0.2334059805137E+01
 0.2315623935958E+01
 0.2288216265244E+01
 0.2252528590733E+01
 0.2209324868669E+01
 0.2159421731001E+01
 0.2103711959780E+01
 0.2043196582452E+01
 0.1978942130626E+01
 0.1912050728320E+01
 0.1843714377250E+01
 0.1775281896774E+01
 0.1708327270966E+01
 0.1644725085905E+01
 0.1586739838595E+01
 0.1537139803956E+01
 0.1499335742585E+01
 0.1477521956283E+01
 0.1476781576641E+01
 0.1503072078312E+01
 0.1562942593886E+01
 0.1662901162867E+01
 0.1808522832611E+01
 0.2003532643661E+01
 0.2249100240447E+01
 0.2543483201693E+01
 0.2882129020871E+01
 0.3257873331869E+01
 0.3660734717530E+01
 0.4078098851725E+01
 0.4495585377767E+01
 0.2223923350270E+01
 0.2279050711139E+01
 0.2335344196632E+01
 0.2389801067052E+01
 0.2439527952737E+01
 0.2482009335448E+01
 0.2515295991001E+01
 0.2538084195503E+01
 0.2549693855926E+01
 0.2549976862359E+01
 0.2539193427136E+01
 0.2517888031935E+01
 0.2486784939791E+01
 0.2446711866738E+01
 0.2398551363194E+01
 0.2343217049171E+01
 0.2281687414097E+01
 0.2215047658203E+01
 0.2144422111158E+01
 0.2070924847674E+01
 0.1995726367058E+01
 0.1920135233930E+01
 0.1845677335244E+01
 0.1774179480892E+01
 0.1707865034955E+01
 0.1649473517157E+01
 0.1602406824661E+01
 0.1570883252401E+01
 0.1560074963640E+01
 0.1576158063355E+01
 0.1626109728111E+01
 0.1717124968316E+01
 0.1855692071790E+01
 0.2046549345330E+01
 0.2291814927300E+01
 0.2590494836780E+01
 0.2938503183011E+01
 0.3328824181314E+01
 0.3751280209106E+01
 0.4192699871939E+01
 0.4637824667411E+01
 0.2403417226365E+01
 0.2463408240113E+01
 0.2525082046440E+01
 0.2584940281844E+01
 0.2639609263619E+01
 0.2686175497103E+01
 0.2722415629434E+01
 0.2746886039175E+01
 0.2758885650560E+01
 0.2758334225631E+01
 0.2745614850642E+01
 0.2721419892337E+01
 0.2686624019617E+01
 0.2642193324845E+01
 0.2589128583336E+01
 0.2528438065297E+01
 0.2461182472677E+01
 0.2388527084627E+01
 0.2311649009306E+01
 0.2231667711371E+01
 0.2149723896280E+01
 0.2067075890823E+01
 0.1985190091816E+01
 0.1905833342515E+01
 0.1831175829857E+01
 0.1763917446397E+01
 0.1707441981335E+01
 0.1665982918563E+01
 0.1644790122644E+01
 0.1650242567865E+01
 0.1689730725431E+01
 0.1771140457184E+01
 0.1901917754468E+01
 0.2087905349483E+01
 0.2332288229868E+01
 0.2634935111801E+01
 0.2992312691288E+01
 0.3397595856969E+01
 0.3840395412113E+01
 0.4306902942357E+01
 0.4780841593009E+01
 0.2583572296587E+01
 0.2648676649509E+01
 0.2715974933022E+01
 0.2781443862558E+01
 0.2841206185106E+01
 0.2891939835521E+01
 0.2931150950957E+01
 0.2957270781801E+01
 0.2969597771621E+01
 0.2968140432925E+01
 0.2953422202984E+01
 0.2926295626386E+01
 0.2887792756480E+01
 0.2839020597176E+01
 0.2781097472787E+01
 0.2715123545029E+01
 0.2642237870625E+01
 0.2563681485690E+01
 0.2480679149004E+01
 0.2394349098005E+01
 0.2305793868761E+01
 0.2216211370029E+01
 0.2126996707050E+01
 0.2039843824914E+01
 0.1956856484906E+01
 0.1880682337898E+01
 0.1814675635307E+01
 0.1763073920311E+01
 0.1731191231993E+01
 0.1725591193138E+01
 0.1754058727615E+01
 0.1825168138334E+01
 0.1947362460488E+01
 0.2127682277663E+01
 0.2370510090144E+01
 0.2676710046147E+01
 0.3043405868401E+01
 0.3464018996306E+01
 0.3927938951183E+01
 0.4420635691743E+01
 0.4924658964254E+01
 0.2764511798534E+01
 0.2835014235697E+01
 0.2908214834894E+01
 0.2979528736726E+01
 0.3044546653448E+01
 0.3099525833964E+01
 0.3141707584736E+01
 0.3169417144054E+01
 0.3181977978236E+01
 0.3179512602672E+01
 0.3162705371567E+01
 0.3132583009545E+01
 0.3090342521421E+01
 0.3037234222730E+01
 0.2974492836685E+01
 0.2903307133511E+01
 0.2824890262356E+01
 0.2740554471930E+01
 0.2651566972015E+01
 0.2559038149007E+01
 0.2464023958735E+01
 0.2367651558613E+01
 0.2271232596918E+01
 0.2176374501985E+01
 0.2085100224156E+01
 0.1999990882687E+01
 0.1924357600430E+01
 0.1862428445755E+01
 0.1819565704365E+01
 0.1802496691885E+01
 0.1819377460908E+01
 0.1879461125056E+01
 0.1992220201731E+01
 0.2165987181086E+01
 0.2406485327408E+01
 0.2715728061788E+01
 0.3091622819847E+01
 0.3527910736852E+01
 0.4013758040648E+01
 0.4533823654958E+01
 0.5069311805459E+01
 0.2946363330983E+01
 0.3022585874138E+01
 0.3102002071777E+01
 0.3179420490130E+01
 0.3249865705292E+01
 0.3309160933391E+01
 0.3354291176510E+01
 0.3383500012557E+01
 0.3396167106930E+01
 0.3392558926115E+01
 0.3373544400749E+01
 0.3340339949273E+01
 0.3294315405165E+01
 0.3236866393060E+01
 0.3169342206072E+01
 0.3093016293104E+01
 0.3009171183110E+01
 0.2919185583019E+01
 0.2824363932311E+01
 0.2725802203244E+01
 0.2624501394374E+01
 0.2521507492480E+01
 0.2418036229534E+01
 0.2315594290528E+01
 0.2216108379358E+01
 0.2122077192753E+01
 0.2036752992137E+01
 0.1964338341860E+01
 0.1910225232787E+01
 0.1881280717576E+01
 0.1886003825431E+01
 0.1934308720245E+01
 0.2036720924896E+01
 0.2202957297013E+01
 0.2440237502318E+01
 0.2751901962920E+01
 0.3136795275909E+01
 0.3589073071926E+01
 0.4097686617329E+01
 0.4646389437602E+01
 0.5214848357954E+01
 0.3129259969517E+01
 0.3211564669468E+01
 0.3297547330997E+01
 0.3381355363874E+01
 0.3457406979962E+01
 0.3521077220224E+01
 0.3569107188066E+01
 0.3599689494822E+01
 0.3612297641879E+01
 0.3607377023959E+01
 0.3586007849258E+01
 0.3549612975686E+01
 0.3499742897418E+01
 0.3437939817206E+01
 0.3365664848867E+01
 0.3284271403844E+01
 0.3195106180730E+01
 0.3099609401283E+01
 0.2999117555873E+01
 0.2894705784002E+01
 0.2787311870589E+01
 0.2677890213907E+01
 0.2567547970775E+01
 0.2457676355614E+01
 0.2350089455265E+01
 0.2247186149668E+01
 0.2152141995742E+01
 0.2069115439812E+01
 0.2003506801670E+01
 0.1962295645507E+01
 0.1954290686523E+01
 0.1990040386788E+01
 0.2081135669964E+01
 0.2238765729892E+01
 0.2471813762726E+01
 0.2785151630214E+01
 0.3178746675045E+01
 0.3647291041155E+01
 0.4179543207135E+01
 0.4758251803497E+01
 0.5361331278043E+01
 0.3313341545672E+01
 0.3402133852035E+01
 0.3495073977326E+01
 0.3585582479538E+01
 0.3667424313722E+01
 0.3735512047104E+01
 0.3786360509433E+01
 0.3818149737241E+01
 0.3830492065835E+01
 0.3824052144395E+01
 0.3800151065192E+01
 0.3760435721562E+01
 0.3706644612782E+01
 0.3640466673548E+01
 0.3563470892610E+01
 0.3477084988012E+01
 0.3382714074492E+01
 0.3281854788297E+01
 0.3175870613758E+01
 0.3065809682940E+01
 0.2952538533831E+01
 0.2836909664979E+01
 0.2719908917716E+01
 0.2602796946395E+01
 0.2487258066934E+01
 0.2375572579767E+01
 0.2270819446327E+01
 0.2177091722227E+01
 0.2099773619121E+01
 0.2045926433143E+01
 0.2024629851944E+01
 0.2047030108677E+01
 0.2125782438345E+01
 0.2273628201312E+01
 0.2501290893687E+01
 0.2815407639074E+01
 0.3217292581711E+01
 0.3702330713826E+01
 0.4259128458637E+01
 0.4869324702079E+01
 0.5508839086029E+01
 0.3498756129520E+01
 0.3594488981438E+01
 0.3694820711223E+01
 0.3792366332948E+01
 0.3880183422160E+01
 0.3952708540079E+01
 0.4006254813123E+01
 0.4039037433361E+01
 0.4050860931700E+01
 0.4042655159945E+01
 0.4016014351101E+01
 0.3972827373774E+01
 0.3915027049714E+01
 0.3844447635632E+01
 0.3762760544367E+01
 0.3671461041346E+01
 0.3572006320108E+01
 0.3465944220184E+01
 0.3354660380888E+01
 0.3239170110712E+01
 0.3120261006236E+01
 0.2998673582297E+01
 0.2875259683467E+01
 0.2751134124064E+01
 0.2627833708015E+01
 0.2507500210395E+01
 0.2393094168650E+01
 0.2288619275668E+01
 0.2199415915321E+01
 0.2132592476255E+01
 0.2097455210449E+01
 0.2105701141279E+01
 0.2171032820072E+01
 0.2307811027331E+01
 0.2528782845241E+01
 0.2842616082745E+01
 0.3252241574308E+01
 0.3753936899756E+01
 0.4336222228131E+01
 0.4979516271141E+01
 0.5657467921264E+01
 0.3685661765310E+01
 0.3788840532095E+01
 0.3897044653793E+01
 0.4001989601103E+01
 0.4095963658865E+01
 0.4172915930593E+01
 0.4228991565694E+01
 0.4262499942478E+01
 0.4273500595855E+01
 0.4263240328309E+01
 0.4233621002918E+01
 0.4186791090737E+01
 0.4124882381479E+01
 0.4049870971232E+01
 0.3963523405437E+01
 0.3867394466050E+01
 0.3762986473332E+01
 0.3651893211465E+01
 0.3535517968035E+01
 0.3414837899457E+01
 0.3290554431867E+01
 0.3163286372590E+01
 0.3033739108969E+01
 0.2902866352110E+01
 0.2772039312894E+01
 0.2643240360615E+01
 0.2519288019412E+01
 0.2404069961231E+01
 0.2302851537844E+01
 0.2222749402964E+01
 0.2173245995527E+01
 0.2166531139570E+01
 0.2217319420531E+01
 0.2341640492210E+01
 0.2554450070352E+01
 0.2866744979128E+01
 0.3283396810645E+01
 0.3801830490496E+01
 0.4410580006564E+01
 0.5088727860449E+01
 0.5807333701874E+01
 0.3874228522533E+01
 0.3985416954767E+01
 0.4102024953529E+01
 0.4214756310319E+01
 0.4315059825825E+01
 0.4396389629126E+01
 0.4454768592519E+01
 0.4488672928406E+01
 0.4498490554316E+01
 0.4485842789336E+01
 0.4452975216596E+01
 0.4402312390725E+01
 0.4336187287309E+01
 0.4256711722237E+01
 0.4165737886296E+01
 0.4064870608638E+01
 0.3955649752967E+01
 0.3839709826312E+01
 0.3718467724225E+01
 0.3592857752698E+01
 0.3463488538171E+01
 0.3330847958640E+01
 0.3195482885545E+01
 0.3058170924742E+01
 0.2920099577901E+01
 0.2783070317942E+01
 0.2649734567583E+01
 0.2523834724225E+01
 0.2410526258273E+01
 0.2316890729236E+01
 0.2252530122054E+01
 0.2230057640001E+01
 0.2265144113225E+01
 0.2375513790779E+01
 0.2578511068621E+01
 0.2887792771659E+01
 0.3310558602583E+01
 0.3845705305275E+01
 0.4481928294932E+01
 0.5196853107008E+01
 0.5958574850355E+01
 0.4064640941772E+01
 0.4184468332898E+01
 0.4310067030941E+01
 0.4430995415799E+01
 0.4537783991722E+01
 0.4623390928000E+01
 0.4683778066847E+01
 0.4717677416152E+01
 0.4725890323171E+01
 0.4710475778351E+01
 0.4674059866773E+01
 0.4619357525619E+01
 0.4548901839685E+01
 0.4464930978917E+01
 0.4369370732335E+01
 0.4263864910613E+01
 0.4149982709409E+01
 0.4029394282097E+01
 0.3903526713583E+01
 0.3773267545610E+01
 0.3639126713473E+01
 0.3501452592189E+01
 0.3360622078155E+01
 0.3217222213647E+01
 0.3072239008459E+01
 0.2927271350723E+01
 0.2784777341775E+01
 0.2648322451143E+01
 0.2522913685176E+01
 0.2415549275826E+01
 0.2335887521752E+01
 0.2296883854065E+01
 0.2315087125179E+01
 0.2409911704346E+01
 0.2601256592057E+01
 0.2905799600426E+01
 0.3333528546253E+01
 0.3885224333553E+01
 0.4549958197369E+01
 0.5303776965316E+01
 0.6111355871519E+01
 0.4257100977351E+01
 0.4386270785580E+01
 0.4521507603403E+01
 0.4651064842373E+01
 0.4764467245718E+01
 0.4854186181451E+01
 0.4916203763514E+01
 0.4949616151244E+01
 0.4955735807337E+01
 0.4937127546807E+01
 0.4896834174032E+01
 0.4837871864460E+01
 0.4762968470359E+01
 0.4674475266486E+01
 0.4574376674145E+01
 0.4464342683096E+01
 0.4345963008427E+01
 0.4220938654459E+01
 0.4090704275845E+01
 0.3956097684528E+01
 0.3817525107541E+01
 0.3675187636510E+01
 0.3529281544477E+01
 0.3380189716980E+01
 0.3228679660568E+01
 0.3076126304087E+01
 0.2924767567170E+01
 0.2777958268807E+01
 0.2640514656555E+01
 0.2519298217478E+01
 0.2423953373897E+01
 0.2367684707755E+01
 0.2367816934442E+01
 0.2445413154816E+01
 0.2623067019501E+01
 0.2920862203525E+01
 0.3352116102591E+01
 0.3920015457887E+01
 0.4614315920124E+01
 0.5409374154737E+01
 0.6265872211520E+01
 0.4451831569415E+01
 0.4591131812831E+01
 0.4736720665168E+01
 0.4875356030793E+01
 0.4995461272480E+01
 0.5089045258815E+01
 0.5152217380694E+01
 0.5184569134058E+01
 0.5188035108311E+01
 0.5165757996196E+01
 0.5121231291977E+01
 0.5057778321749E+01
 0.4978311043751E+01
 0.4885276064809E+01
 0.4780698217793E+01
 0.4666259018149E+01
 0.4543559342229E+01
 0.4414326696463E+01
 0.4280001684188E+01
 0.4141370539850E+01
 0.3998731767900E+01
 0.3852132326735E+01
 0.3701578249617E+01
 0.3547235898054E+01
 0.3389638546900E+01
 0.3229916726532E+01
 0.3070061308886E+01
 0.2913181167146E+01
 0.2763855960548E+01
 0.2628751599732E+01
 0.2517421088238E+01
 0.2443213028935E+01
 0.2424100923119E+01
 0.2482711743524E+01
 0.2644433448863E+01
 0.2933153466631E+01
 0.3366148994531E+01
 0.3949667420551E+01
 0.4674588065211E+01
 0.5513505049381E+01
 0.6422357265519E+01
 0.4649081019746E+01
 0.4799396837753E+01
 0.4956124637777E+01
 0.5104299020152E+01
 0.5231139573364E+01
 0.5328238997961E+01
 0.5391973689831E+01
 0.5422588191866E+01
 0.5422763734735E+01
 0.5396295051806E+01
 0.5347155863253E+01
 0.5278975876664E+01
 0.5194834071561E+01
 0.5097249483638E+01
 0.4988265590653E+01
 0.4869558849952E+01
 0.4742731481321E+01
 0.4609533787230E+01
 0.4471411918159E+01
 0.4329099971631E+01
 0.4182785830077E+01
 0.4032356521255E+01
 0.3877619480821E+01
 0.3718513804849E+01
 0.3555324680260E+01
 0.3388919474398E+01
 0.3221015934389E+01
 0.3054440814454E+01
 0.2893488207103E+01
 0.2744564116524E+01
 0.2617044845627E+01
 0.2524305738209E+01
 0.2484816689555E+01
 0.2522634304147E+01
 0.2665983112320E+01
 0.2942947764788E+01
 0.3375489090358E+01
 0.3973728573831E+01
 0.4730279288406E+01
 0.5616002931262E+01
 0.6581092374795E+01
 0.4849128403020E+01
 0.5011457279711E+01
 0.5180190955211E+01
 0.5338368068795E+01
 0.5471898070848E+01
 0.5572035296622E+01
 0.5635604225123E+01
 0.5663690447713E+01
 0.5659859202206E+01
 0.5628630831003E+01
 0.5574481615116E+01
 0.5501338241217E+01
 0.5412422106457E+01
 0.5310296115421E+01
 0.5196996856837E+01
 0.5074177178174E+01
 0.4943430481436E+01
 0.4806527028050E+01
 0.4664919573834E+01
 0.4519290972635E+01
 0.4369716785738E+01
 0.4215919462806E+01
 0.4057500971087E+01
 0.3894164465417E+01
 0.3725935730469E+01
 0.3553402743366E+01
 0.3377985805461E+01
 0.3202193423073E+01
 0.3029982646902E+01
 0.2867429893059E+01
 0.2723641436117E+01
 0.2611889834136E+01
 0.2550963867000E+01
 0.2566161425698E+01
 0.2688509605610E+01
 0.2950653847393E+01
 0.3380054494374E+01
 0.3991714035138E+01
 0.4780784229812E+01
 0.5716634608684E+01
 0.6742421080720E+01
 0.5052290325190E+01
 0.5227760601149E+01
 0.5409454407066E+01
 0.5578087764268E+01
 0.5718154707011E+01
 0.5820693364213E+01
 0.5883209171893E+01
 0.5907850552668E+01
 0.5899215044759E+01
 0.5862617697721E+01
 0.5803049090399E+01
 0.5724712747262E+01
 0.5630939355023E+01
 0.5524301085184E+01
 0.5406798212741E+01
 0.5280039463747E+01
 0.5145599060046E+01
 0.5005265506754E+01
 0.4860500938318E+01
 0.4711939459878E+01
 0.4559543858907E+01
 0.4402868573218E+01
 0.4241304945025E+01
 0.4074314058368E+01
 0.3901654274989E+01
 0.3723621479901E+01
 0.3541317111019E+01
 0.3356896515817E+01
 0.3173926707976E+01
 0.2998079965779E+01
 0.2838091047419E+01
 0.2706987885833E+01
 0.2623676189488E+01
 0.2614449876387E+01
 0.2713008143157E+01
 0.2956857435747E+01
 0.3379850161250E+01
 0.4003117713807E+01
 0.4825390980427E+01
 0.5814979760340E+01
 0.6906747516187E+01
 0.5258929453579E+01
 0.5448822919759E+01
 0.5644525631519E+01
 0.5824039482215E+01
 0.5970347466327E+01
 0.6074455510930E+01
 0.6134847062738E+01
 0.6154991573652E+01
 0.6140674314403E+01
 0.6098064342372E+01
 0.6032663638296E+01
 0.5948919533443E+01
 0.5850229549861E+01
 0.5739134311428E+01
 0.5617564467154E+01
 0.5487062203512E+01
 0.5349172156658E+01
 0.5205700754279E+01
 0.5058124261644E+01
 0.4907032253088E+01
 0.4752275527526E+01
 0.4593238311330E+01
 0.4429098104565E+01
 0.4259070861870E+01
 0.4082643628983E+01
 0.3899812131846E+01
 0.3711341756807E+01
 0.3519002440249E+01
 0.3325917999225E+01
 0.3137278091819E+01
 0.2961336565539E+01
 0.2810722587340E+01
 0.2704233569850E+01
 0.2668856286188E+01
 0.2740717306536E+01
 0.2962371621198E+01
 0.3375021025720E+01
 0.4007405764016E+01
 0.4863344637162E+01
 0.5910394879478E+01
 0.7073992123467E+01
 0.5469465404791E+01
 0.5675244984402E+01
 0.5886106225226E+01
 0.6076867900682E+01
 0.6228929996032E+01
 0.6333535670451E+01
 0.6390521850341E+01
 0.6404974483044E+01
 0.6384022721984E+01
 0.6334732084677E+01
 0.6263093819991E+01
 0.6173751122007E+01
 0.6070116116604E+01
 0.5954650982363E+01
 0.5829179700907E+01
 0.5695153684250E+01
 0.5554077689928E+01
 0.5407777420946E+01
 0.5257750266435E+01
 0.5104547287152E+01
 0.4947909234973E+01
 0.4787049128365E+01
 0.4620929575125E+01
 0.4448521987989E+01
 0.4269043246280E+01
 0.4082186705949E+01
 0.3888370236886E+01
 0.3688950481161E+01
 0.3486556512590E+01
 0.3285814468903E+01
 0.3094380811679E+01
 0.2924319837775E+01
 0.2794073511133E+01
 0.2730962423036E+01
 0.2773164150088E+01
 0.2968309002769E+01
 0.3365889859494E+01
 0.4004127304935E+01
 0.4893593173451E+01
 0.6002761925096E+01
 0.7243907513378E+01
 0.5684388811392E+01
 0.5907732602581E+01
 0.6135007012176E+01
 0.6337287022437E+01
 0.6494363635475E+01
 0.6598103637728E+01
 0.6650166913845E+01
 0.6657586294351E+01
 0.6628981679790E+01
 0.6572331667760E+01
 0.6494070417004E+01
 0.6398972482785E+01
 0.6290402664975E+01
 0.6170692239638E+01
 0.6041518089912E+01
 0.5904214910762E+01
 0.5760237525660E+01
 0.5611434207679E+01
 0.5459332948231E+01
 0.5304454119640E+01
 0.5146431347850E+01
 0.4984306562685E+01
 0.4816828837954E+01
 0.4642729915425E+01
 0.4460963693148E+01
 0.4270926115582E+01
 0.4072683430514E+01
 0.3867157436285E+01
 0.3656434755072E+01
 0.3444496892186E+01
 0.3238281043811E+01
 0.3049109470617E+01
 0.2894801473939E+01
 0.2802600062969E+01
 0.2812217897488E+01
 0.2976154270969E+01
 0.3353078863689E+01
 0.3992793214066E+01
 0.4915428291742E+01
 0.6090225599478E+01
 0.7425052332501E+01
 0.5904279734786E+01
 0.6147123014527E+01
 0.6392170067765E+01
 0.6606084739993E+01
 0.6767104156846E+01
 0.6868263757543E+01
 0.6913625593743E+01
 0.6912527043828E+01
 0.6875201642584E+01
 0.6810520886672E+01
 0.6725286255813E+01
 0.6624321679122E+01
 0.6510873815816E+01
 0.6387086038644E+01
 0.6254444853872E+01
 0.6114140688013E+01
 0.5967568664373E+01
 0.5816605090924E+01
 0.5662820729074E+01
 0.5506714804943E+01
 0.5347817421976E+01
 0.5185000514750E+01
 0.5016803669566E+01
 0.4841728830522E+01
 0.4658481199800E+01
 0.4466172812918E+01
 0.4264523284997E+01
 0.4054006538146E+01
 0.3836125542557E+01
 0.3614138843457E+01
 0.3394139872968E+01
 0.3186522654161E+01
 0.3008198761420E+01
 0.2885876332280E+01
 0.2860143365286E+01
 0.2987873849192E+01
 0.3337572432484E+01
 0.3973158695466E+01
 0.4927448663528E+01
 0.6173928351890E+01
 0.7611475169707E+01
 0.6129832112906E+01
 0.6394419288733E+01
 0.6658695090673E+01
 0.6884124301886E+01
 0.7047580819487E+01
 0.7144026550307E+01
 0.7180627986709E+01
 0.7169396060208E+01
 0.7122256317951E+01
 0.7048903475642E+01
 0.6956397085475E+01
 0.6849511185781E+01
 0.6731296357342E+01
 0.6603648129616E+01
 0.6467817270343E+01
 0.6324820824477E+01
 0.6175984657512E+01
 0.6023220893374E+01
 0.5868158048783E+01
 0.5711285228527E+01
 0.5552032852700E+01
 0.5389104747446E+01
 0.5220838108552E+01
 0.5045520789053E+01
 0.4861631806663E+01
 0.4668022723455E+01
 0.4464082379024E+01
 0.4249834642680E+01
 0.4026167219957E+01
 0.3795543986263E+01
 0.3563091674016E+01
 0.3338084474681E+01
 0.3136226872037E+01
 0.2983196248514E+01
 0.2919661429026E+01
 0.3006023189998E+01
 0.3320914145661E+01
 0.3945093768436E+01
 0.4928581032858E+01
 0.6252711844198E+01
 0.7804198024090E+01
 0.6361886729584E+01
 0.6650835642860E+01
 0.6935870571344E+01
 0.7172339947205E+01
 0.7336164391093E+01
 0.7425271558708E+01
 0.7450764027324E+01
 0.7427678313517E+01
 0.7369638519275E+01
 0.7287029751122E+01
 0.7187023755567E+01
 0.7074229956002E+01
 0.6951420698302E+01
 0.6820183070549E+01
 0.6681485662552E+01
 0.6536141405133E+01
 0.6385397261343E+01
 0.6231211270987E+01
 0.6075287508063E+01
 0.5918117023050E+01
 0.5759034000843E+01
 0.5596576657220E+01
 0.5428890463930E+01
 0.5254071710351E+01
 0.5070405134966E+01
 0.4876516529422E+01
 0.4671492403769E+01
 0.4454917658520E+01
 0.4227046120783E+01
 0.3989486573092E+01
 0.3746283438816E+01
 0.3505400081444E+01
 0.3281025763471E+01
 0.3097282368281E+01
 0.2994005974636E+01
 0.3033889108613E+01
 0.3305375069167E+01
 0.3908868059493E+01
 0.4917439175327E+01
 0.6324989563928E+01
 0.8004522366919E+01
 0.6601476441248E+01
 0.6917857785015E+01
 0.7225209760169E+01
 0.7471722221658E+01
 0.7633119540535E+01
 0.7711699646507E+01
 0.7723453427965E+01
 0.7686732105081E+01
 0.7616758644408E+01
 0.7524399552453E+01
 0.7416755930614E+01
 0.7298146289633E+01
 0.7170982549300E+01
 0.7036485134890E+01
 0.6895294220828E+01
 0.6747986049949E+01
 0.6595718331244E+01
 0.6440507206960E+01
 0.6284152712895E+01
 0.6127160218203E+01
 0.5968769894262E+01
 0.5807357348249E+01
 0.5640891357506E+01
 0.5467307201964E+01
 0.5284737816553E+01
 0.5091630375039E+01
 0.4886811644681E+01
 0.4669454250748E+01
 0.4439176150376E+01
 0.4196687315687E+01
 0.3944849030269E+01
 0.3690132286746E+01
 0.3444903397053E+01
 0.3231187140815E+01
 0.3086980551087E+01
 0.3075635758672E+01
 0.3294232780725E+01
 0.3865330915408E+01
 0.4892354187582E+01
 0.6388917918122E+01
 0.8213963079417E+01
 0.6849889395107E+01
 0.7197324085069E+01
 0.7528490375212E+01
 0.7783285691169E+01
 0.7938535452083E+01
 0.8002773285049E+01
 0.7997913970324E+01
 0.7945779960567E+01
 0.7862946950639E+01
 0.7760468025730E+01
 0.7645157548280E+01
 0.7520911528012E+01
 0.7389704727847E+01
 0.7252338922767E+01
 0.7109081457861E+01
 0.6960237034115E+01
 0.6806861958024E+01
 0.6651044142024E+01
 0.6494702029272E+01
 0.6338366824856E+01
 0.6181184619942E+01
 0.6021372025538E+01
 0.5856741767000E+01
 0.5685108200815E+01
 0.5504506631772E+01
 0.5313266108274E+01
 0.5110011612246E+01
 0.4893547938825E+01
 0.4662875476970E+01
 0.4417784388040E+01
 0.4159875824583E+01
 0.3893968446216E+01
 0.3630312445278E+01
 0.3388294287961E+01
 0.3203006492346E+01
 0.3136463558233E+01
 0.3292112825062E+01
 0.3816240570345E+01
 0.4851547520468E+01
 0.6442193050854E+01
 0.8434336055403E+01
 0.7108759251280E+01
 0.7491535841207E+01
 0.7847794682481E+01
 0.8108007335513E+01
 0.8252226752133E+01
 0.8297644378495E+01
 0.8273131082348E+01
 0.8203905267026E+01
 0.8107460895027E+01
 0.7994654731138E+01
 0.7871774175361E+01
 0.7742164572597E+01
 0.7607298945350E+01
 0.7467519415339E+01
 0.7322680011945E+01
 0.7172776084426E+01
 0.7018746843025E+01
 0.6862765925854E+01
 0.6706893541180E+01
 0.6551695615467E+01
 0.6396220529514E+01
 0.6238530687423E+01
 0.6076310991771E+01
 0.5907306393248E+01
 0.5729521416309E+01
 0.5541241220941E+01
 0.5340963046088E+01
 0.5127187807417E+01
 0.4898340440227E+01
 0.4653299381924E+01
 0.4392362924236E+01
 0.4118574340912E+01
 0.3839809539168E+01
 0.3572301754703E+01
 0.3347157311648E+01
 0.3222766597338E+01
 0.3305406358635E+01
 0.3764820781229E+01
 0.4793335354399E+01
 0.6481826833170E+01
 0.8667862184535E+01
 0.7380196947423E+01
 0.7803408368405E+01
 0.8185541799767E+01
 0.8446716960760E+01
 0.8573595272616E+01
 0.8595071509284E+01
 0.8547833714992E+01
 0.8460057824001E+01
 0.8349498733037E+01
 0.8226356405102E+01
 0.8096142344089E+01
 0.7961537203995E+01
 0.7823467405859E+01
 0.7681791129587E+01
 0.7535915391027E+01
 0.7385484572466E+01
 0.7231298901920E+01
 0.7075629861437E+01
 0.6920701630160E+01
 0.6767118444943E+01
 0.6613822379861E+01
 0.6458729038306E+01
 0.6299434397246E+01
 0.6133679343471E+01
 0.5959517812709E+01
 0.5775278708405E+01
 0.5579421609816E+01
 0.5370228167143E+01
 0.5145616931440E+01
 0.4903598240067E+01
 0.4643170405905E+01
 0.4365533115476E+01
 0.4075991763979E+01
 0.3787176334480E+01
 0.3525168066873E+01
 0.3342273083890E+01
 0.3342765147172E+01
 0.3716593386936E+01
 0.4716510853787E+01
 0.6503872962219E+01
 0.8917300447796E+01
 0.7666988143027E+01
 0.8136679329021E+01
 0.8544494369980E+01
 0.8799910312266E+01
 0.8901442850900E+01
 0.8893333073515E+01
 0.8820484229563E+01
 0.8713071784663E+01
 0.8588220222891E+01
 0.8454963478153E+01
 0.8317800869070E+01
 0.8178660177455E+01
 0.8037904041484E+01
 0.7894905936231E+01
 0.7748603074815E+01
 0.7598242677795E+01
 0.7444454075705E+01
 0.7289613252826E+01
 0.7136125783772E+01
 0.6984628562886E+01
 0.6833942508062E+01
 0.6681849446081E+01
 0.6525910701274E+01
 0.6363945216018E+01
 0.6194149961047E+01
 0.6014997145010E+01
 0.5825013707924E+01
 0.5622367638389E+01
 0.5404569660222E+01
 0.5168847422052E+01
 0.4912959486220E+01
 0.4636267962890E+01
 0.4341405415604E+01
 0.4037067178306E+01
 0.3743399874663E+01
 0.3504150550468E+01
 0.3415638480079E+01
 0.3680587246024E+01
 0.4621101219881E+01
 0.6503099776322E+01
 0.9186132362604E+01
 0.7972897719769E+01
 0.8496196510667E+01
 0.8927702209645E+01
 0.9167439827710E+01
 0.9233728746629E+01
 0.9190150919220E+01
 0.9089292873482E+01
 0.8961698991360E+01
 0.8822774623059E+01
 0.8679880167847E+01
 0.8536304057164E+01
 0.8393170105361E+01
 0.8250295253969E+01
 0.8106599003336E+01
 0.7960543132916E+01
 0.7810926854466E+01
 0.7658161307543E+01
 0.7504722092665E+01
 0.7353202528159E+01
 0.7204251500981E+01
 0.7056547075003E+01
 0.6907761619090E+01
 0.6755498441147E+01
 0.6597756922384E+01
 0.6432983246884E+01
 0.6259901367170E+01
 0.6077222997837E+01
 0.5883128287289E+01
 0.5674849886032E+01
 0.5448965798070E+01
 0.5202123985118E+01
 0.4931948279192E+01
 0.4638423500980E+01
 0.4326163936643E+01
 0.4008728572516E+01
 0.3719041680012E+01
 0.3538792348963E+01
 0.3671016957987E+01
 0.4509848487597E+01
 0.6472651697817E+01
 0.9478826757907E+01
 0.8303154865769E+01
 0.8888312550018E+01
 0.9338306190805E+01
 0.9548016504085E+01
 0.9567277686064E+01
 0.9482652090526E+01
 0.9352269069577E+01
 0.9204658905460E+01
 0.9052335308324E+01
 0.8900547678899E+01
 0.8751236619000E+01
 0.8604717227006E+01
 0.8460320170251E+01
 0.8316582242533E+01
 0.8171511126944E+01
 0.8023404531318E+01
 0.7872385609079E+01
 0.7721002905488E+01
 0.7572021823525E+01
 0.7426059270012E+01
 0.7281623265712E+01
 0.7136322455089E+01
 0.6987911104061E+01
 0.6834695454963E+01
 0.6675487252564E+01
 0.6509374281080E+01
 0.6335378352419E+01
 0.6151835620282E+01
 0.5955862345162E+01
 0.5743572978784E+01
 0.5510713995315E+01
 0.5253380353705E+01
 0.4969091270737E+01
 0.4658487770742E+01
 0.4328314089301E+01
 0.3998963378654E+01
 0.3730726301013E+01
 0.3709443794337E+01
 0.4391038664332E+01
 0.6403875720667E+01
 0.9801241995671E+01
 0.8665254890856E+01
 0.9321412467470E+01
 0.9779046004442E+01
 0.9938432579737E+01
 0.9897476842257E+01
 0.9767413812158E+01
 0.9607319080007E+01
 0.9440702988286E+01
 0.9276139639926E+01
 0.9116469738656E+01
 0.8962229948472E+01
 0.8812974333788E+01
 0.8667650722520E+01
 0.8524534617683E+01
 0.8381243469554E+01
 0.8235524275821E+01
 0.8087111078108E+01
 0.7938559422314E+01
 0.7792749950786E+01
 0.7650188734845E+01
 0.7509187037966E+01
 0.7367374201466E+01
 0.7222810228151E+01
 0.7074262091465E+01
 0.6921029082401E+01
 0.6762670479013E+01
 0.6598644275467E+01
 0.6427600444299E+01
 0.6246732221967E+01
 0.6051934935571E+01
 0.5838353147948E+01
 0.5600885152789E+01
 0.5334943031810E+01
 0.5037611596869E+01
 0.4709203501422E+01
 0.4356940761523E+01
 0.4013856206155E+01
 0.3827243067054E+01
 0.4283731215897E+01
 0.6286861445303E+01
 0.1016129765137E+02
 0.9070342259633E+01
 0.9806569059648E+01
 0.1025115348125E+02
 0.1033240695830E+02
 0.1021807191471E+02
 0.1004065205947E+02
 0.9852387618952E+01
 0.9668687863707E+01
 0.9493532648953E+01
 0.9327239204237E+01
 0.9168979268364E+01
 0.9017647358037E+01
 0.8871952440621E+01
 0.8730088862747E+01
 0.8589414497930E+01
 0.8447098385867E+01
 0.8302343622615E+01
 0.8157576952770E+01
 0.8015661993064E+01
 0.7876865052502E+01
 0.7739290447621E+01
 0.7600739660368E+01
 0.7459795621356E+01
 0.7315869052866E+01
 0.7168867228658E+01
 0.7018912578339E+01
 0.6866015135143E+01
 0.6709303821621E+01
 0.6546273051706E+01
 0.6372907822484E+01
 0.6184151169908E+01
 0.5974167231621E+01
 0.5736797926222E+01
 0.5466319436178E+01
 0.5157741574243E+01
 0.4806174809993E+01
 0.4414167223954E+01
 0.4067955591897E+01
 0.4226877383296E+01
 0.6113250768528E+01
 0.1057027104658E+02
 0.9535719116418E+01
 0.1035818607430E+02
 0.1075198401175E+02
 0.1071903048220E+02
 0.1052131123447E+02
 0.1029860108877E+02
 0.1008561660856E+02
 0.9887652479772E+01
 0.9704012976767E+01
 0.9532563670494E+01
 0.9371261053450E+01
 0.9218488309633E+01
 0.9072887872805E+01
 0.8932814869680E+01
 0.8795601118455E+01
 0.8657872487031E+01
 0.8518112968462E+01
 0.8378359568030E+01
 0.8241188676719E+01
 0.8106430701569E+01
 0.7972026571249E+01
 0.7836212723826E+01
 0.7698391777372E+01
 0.7558828053697E+01
 0.7418146047269E+01
 0.7277091527275E+01
 0.7136315166489E+01
 0.6995586582869E+01
 0.6852956281253E+01
 0.6704880926268E+01
 0.6546613456864E+01
 0.6372179756063E+01
 0.6174547251305E+01
 0.5946228723884E+01
 0.5678819816805E+01
 0.5358537630548E+01
 0.4959603319562E+01
 0.4488881408540E+01
 0.4293538401012E+01
 0.5885585725554E+01
 0.1104577728613E+02
 0.1008968247923E+02
 0.1099398636584E+02
 0.1127008945451E+02
 0.1108116342998E+02
 0.1079889099767E+02
 0.1053802447871E+02
 0.1030547476841E+02
 0.1009690472102E+02
 0.9907275772887E+01
 0.9732288070677E+01
 0.9568949973808E+01
 0.9415311035779E+01
 0.9270126241569E+01
 0.9132202003290E+01
 0.8999228823795E+01
 0.8867471961607E+01
 0.8734473263187E+01
 0.8601389669397E+01
 0.8469984793556E+01
 0.8339379287053E+01
 0.8207528382729E+01
 0.8073542194961E+01
 0.7938029724962E+01
 0.7802335947449E+01
 0.7667890553451E+01
 0.7536072617935E+01
 0.7408207246079E+01
 0.7284845078298E+01
 0.7164882567614E+01
 0.7045719709761E+01
 0.6923549612279E+01
 0.6792989174041E+01
 0.6646952493377E+01
 0.6477409542679E+01
 0.6275064522636E+01
 0.6022420451474E+01
 0.5675789464308E+01
 0.5160408518278E+01
 0.4609099632422E+01
 0.5644611954204E+01
 0.1161998143935E+02
 0.1078160779567E+02
 0.1173182880261E+02
 0.1177533096609E+02
 0.1139545690947E+02
 0.1104418626166E+02
 0.1075651422610E+02
 0.1051087701711E+02
 0.1029612163786E+02
 0.1010324005560E+02
 0.9926415807792E+01
 0.9762033050716E+01
 0.9608009597745E+01
 0.9463364995626E+01
 0.9327647767896E+01
 0.9199490260260E+01
 0.9075304916328E+01
 0.8951501330450E+01
 0.8827428923504E+01
 0.8703029549033E+01
 0.8576389597468E+01
 0.8445955599677E+01
 0.8312406965588E+01
 0.8178024119514E+01
 0.8045456313491E+01
 0.7917000199441E+01
 0.7794609713311E+01
 0.7680215589922E+01
 0.7575234810929E+01
 0.7479753362976E+01
 0.7392709594989E+01
 0.7311985394735E+01
 0.7233636873312E+01
 0.7151475134034E+01
 0.7058065743956E+01
 0.6946044718323E+01
 0.6800538441474E+01
 0.6577764887709E+01
 0.6157220425147E+01
 0.5369425630069E+01
 0.5542531312293E+01
 0.1236555353721E+02
 0.1170529072230E+02
 0.1257325443824E+02
 0.1220116756583E+02
 0.1163943410137E+02
 0.1125481271706E+02
 0.1095209882807E+02
 0.1070153334195E+02
 0.1048536945012E+02
 0.1029207730446E+02
 0.1011512376321E+02
 0.9950619743942E+01
 0.9796576375886E+01
 0.9652369564223E+01
 0.9518472967403E+01
 0.9395226146246E+01
 0.9280377794266E+01
 0.9169292118625E+01
 0.9057700854271E+01
 0.8941770779021E+01
 0.8818346651853E+01
 0.8687461501590E+01
 0.8552381420323E+01
 0.8417546617313E+01
 0.8287095633318E+01
 0.8164237389628E+01
 0.8051371309362E+01
 0.7950772555555E+01
 0.7864682447928E+01
 0.7794837618716E+01
 0.7742501922028E+01
 0.7708084194563E+01
 0.7690001073308E+01
 0.7684103181964E+01
 0.7684480879023E+01
 0.7687426195472E+01
 0.7688570610015E+01
 0.7660102926848E+01
 0.7525710295047E+01
 0.6852053866488E+01
 0.6009893176741E+01
 0.1349466779074E+02
 0.1306165322852E+02
 0.1342810386903E+02
 0.1242977067812E+02
 0.1181616180033E+02
 0.1142823243666E+02
 0.1112426958132E+02
 0.1087807117122E+02
 0.1066507699889E+02
 0.1047425188473E+02
 0.1029875974215E+02
 0.1013495240672E+02
 0.9981111920423E+01
 0.9837029175815E+01
 0.9704012342296E+01
 0.9584769711493E+01
 0.9480917008100E+01
 0.9387956553005E+01
 0.9294248004932E+01
 0.9188312632484E+01
 0.9066320416815E+01
 0.8932133680344E+01
 0.8792890361992E+01
 0.8655598798282E+01
 0.8525974439841E+01
 0.8408198396954E+01
 0.8304982997040E+01
 0.8218313302902E+01
 0.8150901355727E+01
 0.8106918347607E+01
 0.8091072517806E+01
 0.8107078104679E+01
 0.8156683345864E+01
 0.8239092026312E+01
 0.8351253505760E+01
 0.8491159766040E+01
 0.8671751161745E+01
 0.8899304014342E+01
 0.9210020821339E+01
 0.9361938522991E+01
 0.8008747285161E+01
 0.1579493924188E+02
 0.1536815457734E+02
 0.1373067177097E+02
 0.1244390324185E+02
 0.1194343232665E+02
 0.1155877151777E+02
 0.1127652004143E+02
 0.1104118944389E+02
 0.1083631062485E+02
 0.1065044528906E+02
 0.1047786060264E+02
 0.1031540484925E+02
 0.1016183393097E+02
 0.1001738029073E+02
 0.9883877743155E+01
 0.9765847960941E+01
 0.9673488080213E+01
 0.9607665287196E+01
 0.9540700491515E+01
 0.9445555671081E+01
 0.9321473853475E+01
 0.9179905032705E+01
 0.9033154303168E+01
 0.8890987093554E+01
 0.8760607061097E+01
 0.8647231886935E+01
 0.8554084610750E+01
 0.8481489283734E+01
 0.8431375248368E+01
 0.8412190552953E+01
 0.8433715520181E+01
 0.8503242119592E+01
 0.8626822597151E+01
 0.8808924819606E+01
 0.9050549729271E+01
 0.9350254771388E+01
 0.9716419834979E+01
 0.1026003120394E+02
 0.1105268896429E+02
 0.1273045915965E+02
 0.1340335707304E+02
 0.2312679322898E+02
 0.2801092418167E+00
 0.5233293546184E+00
 0.7321810172244E+00
 0.9137527203908E+00
 0.1075693105087E+01
 0.1224103461284E+01
 0.1363578594756E+01
 0.1497287597915E+01
 0.1627056818773E+01
 0.1753502421267E+01
 0.1876237422269E+01
 0.1994095360022E+01
 0.2105576423957E+01
 0.2209131395755E+01
 0.2302740683286E+01
 0.2383333275133E+01
 0.2446569604255E+01
 0.2487162931858E+01
 0.2499526009320E+01
 0.2481249992434E+01
 0.2885039758670E+00
 0.5353884725274E+00
 0.7483095307097E+00
 0.9338573471106E+00
 0.1099160606059E+01
 0.1250111710741E+01
 0.1391171630265E+01
 0.1525430952648E+01
 0.1654698330201E+01
 0.1779645986699E+01
 0.1899989668335E+01
 0.2014696886446E+01
 0.2122463795074E+01
 0.2221735191937E+01
 0.2310365629066E+01
 0.2385216097874E+01
 0.2441999511316E+01
 0.2475775073687E+01
 0.2482301148209E+01
 0.2458136582238E+01
 0.2960288654188E+00
 0.5461198725388E+00
 0.7625662880537E+00
 0.9515853169663E+00
 0.1119906320062E+01
 0.1273143988747E+01
 0.1415600661873E+01
 0.1550276621009E+01
 0.1678956238961E+01
 0.1802345524298E+01
 0.1920242339492E+01
 0.2031756938539E+01
 0.2135672401489E+01
 0.2230425037754E+01
 0.2313800988111E+01
 0.2382643333565E+01
 0.2432832806926E+01
 0.2459966948683E+01
 0.2460330318945E+01
 0.2431024472520E+01
 0.3028931576511E+00
 0.5554873693592E+00
 0.7749648455712E+00
 0.9670098895964E+00
 0.1137996820143E+01
 0.1293265259022E+01
 0.1436932681114E+01
 0.1571894105259E+01
 0.1699894814186E+01
 0.1821658884263E+01
 0.1937054804226E+01
 0.2045297289985E+01
 0.2145225408677E+01
 0.2235263481947E+01
 0.2313168534879E+01
 0.2375831686545E+01
 0.2419384831165E+01
 0.2439838301518E+01
 0.2433894084675E+01
 0.2399748773090E+01
 0.3091608521973E+00
 0.5635852318943E+00
 0.7855512116288E+00
 0.9801952949702E+00
 0.1153508335692E+01
 0.1310552076454E+01
 0.1455245435568E+01
 0.1590360844997E+01
 0.1717589163728E+01
 0.1837658557803E+01
 0.1950489321928E+01
 0.2055373342961E+01
 0.2151187788847E+01
 0.2236352555172E+01
 0.2308630696231E+01
 0.2365014622103E+01
 0.2401894061443E+01
 0.2415648335058E+01
 0.2403495345533E+01
 0.2364518686387E+01
 0.3148745847979E+00
 0.5704835317800E+00
 0.7943990161410E+00
 0.9912147473964E+00
 0.1166522693090E+01
 0.1325090880352E+01
 0.1470626639796E+01
 0.1605764587754E+01
 0.1732126002713E+01
 0.1850428166077E+01
 0.1960625825373E+01
 0.2062067240523E+01
 0.2153659119748E+01
 0.2233828606851E+01
 0.2300375394870E+01
 0.2350422044215E+01
 0.2380618395726E+01
 0.2387724340637E+01
 0.2369458481754E+01
 0.2325550854995E+01
 0.3200657096521E+00
 0.5762444552870E+00
 0.8015841011119E+00
 0.1000151621616E+01
 0.1177129449229E+01
 0.1336976587888E+01
 0.1483173896376E+01
 0.1618203802938E+01
 0.1743603563114E+01
 0.1860065247423E+01
 0.1967562874787E+01
 0.2065485951937E+01
 0.2152767385437E+01
 0.2227854326037E+01
 0.2288605908148E+01
 0.2332293330560E+01
 0.2355834650448E+01
 0.2356366373832E+01
 0.2332057301584E+01
 0.2283086155362E+01
 0.3247604514052E+00
 0.5809244076580E+00
 0.8071831015007E+00
 0.1007094856605E+01
 0.1185426016866E+01
 0.1346312623525E+01
 0.1492994456190E+01
 0.1627787745017E+01
 0.1752132290782E+01
 0.1866681985187E+01
 0.1971417430599E+01
 0.2065758465539E+01
 0.2148663765511E+01
 0.2218611991168E+01
 0.2273538836521E+01
 0.2310877971757E+01
 0.2327818095655E+01
 0.2321854875421E+01
 0.2291546275282E+01
 0.2237376488787E+01
 0.3289824550432E+00
 0.5845768337828E+00
 0.8112729879518E+00
 0.1012137669742E+01
 0.1191516627281E+01
 0.1353210774289E+01
 0.1500205102346E+01
 0.1634636483237E+01
 0.1757835019205E+01
 0.1870405116792E+01
 0.1972323617296E+01
 0.2063032826754E+01
 0.2141518072776E+01
 0.2206299238568E+01
 0.2255401641940E+01
 0.2286430047323E+01
 0.2296839284425E+01
 0.2284458333827E+01
 0.2248176786846E+01
 0.2188685320948E+01
 0.3327542344150E+00
 0.5872539128343E+00
 0.8139315583893E+00
 0.1015376998592E+01
 0.1195511717127E+01
 0.1357790790084E+01
 0.1504931948099E+01
 0.1638880721669E+01
 0.1760846687140E+01
 0.1871375180332E+01
 0.1970430993708E+01
 0.2057473179753E+01
 0.2131515062724E+01
 0.2191125649829E+01
 0.2234429258744E+01
 0.2259205345439E+01
 0.2263164609932E+01
 0.2244440015027E+01
 0.2202203247431E+01
 0.2137289066112E+01
 0.3360979963965E+00
 0.5890077202353E+00
 0.8152379898773E+00
 0.1016913404721E+01
 0.1197527538763E+01
 0.1360180007731E+01
 0.1507310101323E+01
 0.1640661410675E+01
 0.1761313708546E+01
 0.1869745370661E+01
 0.1965902609190E+01
 0.2049257021347E+01
 0.2118851296329E+01
 0.2173309642517E+01
 0.2210861388427E+01
 0.2229459986024E+01
 0.2227057963852E+01
 0.2202062360452E+01
 0.2153885328656E+01
 0.2083466372249E+01
 0.3390361542206E+00
 0.5898910119663E+00
 0.8152733425637E+00
 0.1016851137676E+01
 0.1197685926141E+01
 0.1360512985016E+01
 0.1507483219997E+01
 0.1640129151048E+01
 0.1759393076905E+01
 0.1865680156069E+01
 0.1958913002956E+01
 0.2038572670682E+01
 0.2103732368523E+01
 0.2153075839523E+01
 0.2184940514455E+01
 0.2197449872542E+01
 0.2188782150047E+01
 0.2157589636861E+01
 0.2103488571930E+01
 0.2027495256413E+01
 0.3415916462768E+00
 0.5899577575729E+00
 0.8141209654860E+00
 0.1015298248949E+01
 0.1196114135401E+01
 0.1358931145610E+01
 0.1505602988505E+01
 0.1637443451484E+01
 0.1755251299240E+01
 0.1859353779075E+01
 0.1949646230951E+01
 0.2025616933794E+01
 0.2086370463886E+01
 0.2130652871613E+01
 0.2156910411257E+01
 0.2163430343308E+01
 0.2148599689716E+01
 0.2111288872364E+01
 0.2051286113350E+01
 0.1969662443458E+01
 0.3437881386664E+00
 0.5892635003144E+00
 0.8118668052202E+00
 0.1012366697770E+01
 0.1192944707526E+01
 0.1355582413803E+01
 0.1501828527943E+01
 0.1632771878244E+01
 0.1749063223176E+01
 0.1850948710979E+01
 0.1938293961039E+01
 0.2010592966922E+01
 0.2066982221820E+01
 0.2106271556211E+01
 0.2127014964600E+01
 0.2127655816405E+01
 0.2106773039341E+01
 0.2063430196669E+01
 0.1997559532178E+01
 0.1910267586507E+01
 0.3456501546606E+00
 0.5878655977856E+00
 0.8085996326881E+00
 0.1008172431379E+01
 0.1188315331820E+01
 0.1350620837876E+01
 0.1496325764885E+01
 0.1626289143818E+01
 0.1741010816365E+01
 0.1840654114489E+01
 0.1925053666079E+01
 0.1993708333958E+01
 0.2045786867742E+01
 0.2080163348041E+01
 0.2095497143745E+01
 0.2090379299250E+01
 0.2063564397539E+01
 0.2014286615444E+01
 0.1942598091643E+01
 0.1849623158150E+01
 0.3472031576712E+00
 0.5858233809391E+00
 0.8044112068042E+00
 0.1002835437558E+01
 0.1182368702466E+01
 0.1344206204145E+01
 0.1489266777150E+01
 0.1618176167217E+01
 0.1731281936017E+01
 0.1828664343794E+01
 0.1910126922258E+01
 0.1975173234409E+01
 0.2023004548019E+01
 0.2052558959618E+01
 0.2062598009956E+01
 0.2051851725937E+01
 0.2019235132243E+01
 0.1964133108610E+01
 0.1886697139251E+01
 0.1788053220746E+01
 0.3484736013845E+00
 0.5831982572363E+00
 0.7993963916313E+00
 0.9964797740330E+00
 0.1175252368259E+01
 0.1336503647037E+01
 0.1480829132378E+01
 0.1608619130819E+01
 0.1720069115850E+01
 0.1815177502189E+01
 0.1893717816018E+01
 0.1955198882111E+01
 0.1998854824635E+01
 0.2023687093430E+01
 0.2028555723834E+01
 0.2012321139698E+01
 0.1974044875915E+01
 0.1913245259920E+01
 0.1830156135138E+01
 0.1725891489954E+01
 0.3494889624847E+00
 0.5800537801974E+00
 0.7936532471066E+00
 0.9892335877677E+00
 0.1167118584897E+01
 0.1327683266760E+01
 0.1471195236696E+01
 0.1597808555856E+01
 0.1707568392443E+01
 0.1800394071874E+01
 0.1876031459742E+01
 0.1933996016583E+01
 0.1973555295726E+01
 0.1993773250348E+01
 0.1993604538219E+01
 0.1972031744107E+01
 0.1928250380004E+01
 0.1861897616285E+01
 0.1773276401758E+01
 0.1663479025385E+01
 0.3502777637041E+00
 0.5764557024183E+00
 0.7872831107429E+00
 0.9812291379688E+00
 0.1158124180707E+01
 0.1317919765615E+01
 0.1460551706716E+01
 0.1585938411091E+01
 0.1693978182866E+01
 0.1784515619366E+01
 0.1857272605660E+01
 0.1911773520321E+01
 0.1947320303191E+01
 0.1963038575290E+01
 0.1957973754060E+01
 0.1931222834086E+01
 0.1882104188138E+01
 0.1810361853783E+01
 0.1716358670461E+01
 0.1601161586185E+01
 0.3508695946392E+00
 0.5724720275517E+00
 0.7803906880391E+00
 0.9726028384730E+00
 0.1148430448697E+01
 0.1307392114525E+01
 0.1449088776556E+01
 0.1573205266107E+01
 0.1679498222305E+01
 0.1767743578781E+01
 0.1837644350556E+01
 0.1888737124904E+01
 0.1920359705537E+01
 0.1931698723885E+01
 0.1921886642474E+01
 0.1890127648332E+01
 0.1835853199627E+01
 0.1758904820265E+01
 0.1659700516689E+01
 0.1539286661402E+01
 0.3512951368010E+00
 0.5681730754734E+00
 0.7730841692843E+00
 0.9634953360225E+00
 0.1138203078485E+01
 0.1296283260875E+01
 0.1436999749519E+01
 0.1559807497443E+01
 0.1664328567030E+01
 0.1750278113024E+01
 0.1817346924035E+01
 0.1865088191724E+01
 0.1892877698933E+01
 0.1899962738430E+01
 0.1885559337941E+01
 0.1848972172071E+01
 0.1789737195730E+01
 0.1707786485412E+01
 0.1603593582494E+01
 0.1478199577027E+01
 0.3515861990519E+00
 0.5636315747078E+00
 0.7654753908277E+00
 0.9540516415070E+00
 0.1127612141620E+01
 0.1284779887601E+01
 0.1424480501763E+01
 0.1545944552905E+01
 0.1648668665671E+01
 0.1732317052207E+01
 0.1796576554711E+01
 0.1841022557036E+01
 0.1865071674339E+01
 0.1868031925134E+01
 0.1849199706287E+01
 0.1807973912005E+01
 0.1743987359817E+01
 0.1657257908126E+01
 0.1548320024741E+01
 0.1418234753051E+01
 0.3517757694797E+00
 0.5589227966381E+00
 0.7576800596985E+00
 0.9444213317313E+00
 0.1116832143413E+01
 0.1273072231899E+01
 0.1411729042895E+01
 0.1531816277009E+01
 0.1632716500347E+01
 0.1714054909103E+01
 0.1775524411697E+01
 0.1816729435870E+01
 0.1837131103428E+01
 0.1836098726969E+01
 0.1813006188833E+01
 0.1767340655903E+01
 0.1698824806084E+01
 0.1607559164591E+01
 0.1494148492412E+01
 0.1359707542784E+01
 0.3518980903528E+00
 0.5541247473917E+00
 0.7498180620799E+00
 0.9347588401295E+00
 0.1106042153922E+01
 0.1261353970258E+01
 0.1398945136109E+01
 0.1517622298349E+01
 0.1616667798461E+01
 0.1695681973166E+01
 0.1754375623109E+01
 0.1792390385394E+01
 0.1809236451643E+01
 0.1804345588724E+01
 0.1777166620964E+01
 0.1727269220887E+01
 0.1654459128096E+01
 0.1558917233780E+01
 0.1441330729335E+01
 0.1302911050891E+01
 0.3519887637905E+00
 0.5493184354908E+00
 0.7420138784182E+00
 0.9252238557825E+00
 0.1095426029828E+01
 0.1249822174026E+01
 0.1386329977137E+01
 0.1503561476650E+01
 0.1600715314341E+01
 0.1677383485491E+01
 0.1733308377001E+01
 0.1768178333601E+01
 0.1781558120687E+01
 0.1772943810347E+01
 0.1741857015793E+01
 0.1687944183733E+01
 0.1611086984963E+01
 0.1511544125659E+01
 0.1390098999786E+01
 0.1248112510974E+01
 0.3520848970785E+00
 0.5445882366193E+00
 0.7343971310776E+00
 0.9159818512570E+00
 0.1085172737700E+01
 0.1238677336630E+01
 0.1374085927360E+01
 0.1489831403546E+01
 0.1585048177757E+01
 0.1659338897938E+01
 0.1712493114762E+01
 0.1744256686396E+01
 0.1754255429194E+01
 0.1742052386145E+01
 0.1707240298586E+01
 0.1649536578629E+01
 0.1568890774390E+01
 0.1465635405946E+01
 0.1340663931356E+01
 0.1195548791920E+01
 0.3522252988274E+00
 0.5400223817738E+00
 0.7271032949578E+00
 0.9072047614878E+00
 0.1075476787705E+01
 0.1228123470013E+01
 0.1362416291943E+01
 0.1476627946763E+01
 0.1569851303341E+01
 0.1641721219887E+01
 0.1692091832392E+01
 0.1720778536152E+01
 0.1727475650447E+01
 0.1711816832324E+01
 0.1673464975282E+01
 0.1612202543545E+01
 0.1528037405004E+01
 0.1421369057189E+01
 0.1293212742544E+01
 0.1145422121065E+01
 0.3524507404046E+00
 0.5357136019027E+00
 0.7202746075262E+00
 0.8990718379596E+00
 0.1066538784886E+01
 0.1218368263651E+01
 0.1351525128928E+01
 0.1464144822424E+01
 0.1555304850684E+01
 0.1624696454917E+01
 0.1672257510803E+01
 0.1697886009088E+01
 0.1701353143382E+01
 0.1682368015902E+01
 0.1640663719265E+01
 0.1576081885416E+01
 0.1488677115190E+01
 0.1378904630803E+01
 0.1247908003788E+01
 0.1097896413016E+01
 0.3528043026536E+00
 0.5317599720408E+00
 0.7140612221822E+00
 0.8917707031735E+00
 0.1058566100032E+01
 0.1209623291448E+01
 0.1341617066184E+01
 0.1452573170089E+01
 0.1541583712750E+01
 0.1608423116961E+01
 0.1653133689148E+01
 0.1675709793394E+01
 0.1676008624860E+01
 0.1653820996890E+01
 0.1608951833471E+01
 0.1541296489259E+01
 0.1450942243362E+01
 0.1338382598046E+01
 0.1204887044059E+01
 0.1053094149972E+01
 0.3533318323987E+00
 0.5282660114329E+00
 0.7086226582275E+00
 0.8854986314512E+00
 0.1051773657142E+01
 0.1202104245715E+01
 0.1332897099292E+01
 0.1442101103210E+01
 0.1528857007197E+01
 0.1593051811094E+01
 0.1634854198428E+01
 0.1654368917361E+01
 0.1651548686760E+01
 0.1626273950573E+01
 0.1578425550903E+01
 0.1507948488192E+01
 0.1414945918967E+01
 0.1299923839768E+01
 0.1164261861668E+01
 0.1011094037861E+01
 0.3540825488955E+00
 0.5253441187485E+00
 0.7041296161736E+00
 0.8804640834098E+00
 0.1046384826655E+01
 0.1196031168524E+01
 0.1325570338165E+01
 0.1432913205002E+01
 0.1517287538383E+01
 0.1578724845828E+01
 0.1617543050148E+01
 0.1633970849437E+01
 0.1628065715371E+01
 0.1599807312248E+01
 0.1549160137090E+01
 0.1476117980097E+01
 0.1380780666061E+01
 0.1263629426274E+01
 0.1126119065143E+01
 0.9719288572539E+00
 0.3551098549501E+00
 0.5231164495238E+00
 0.7007662385010E+00
 0.8768885101792E+00
 0.1042632390573E+01
 0.1191628628414E+01
 0.1319841654917E+01
 0.1425189930931E+01
 0.1507031186124E+01
 0.1565575811123E+01
 0.1601314413279E+01
 0.1614611943117E+01
 0.1605638407560E+01
 0.1574483406964E+01
 0.1521207810669E+01
 0.1445859849376E+01
 0.1348516486215E+01
 0.1229581501638E+01
 0.1090519942281E+01
 0.9355826405800E+00
 0.3564724373406E+00
 0.5217173909497E+00
 0.6987329131028E+00
 0.8750084272039E+00
 0.1040759517874E+01
 0.1189125770870E+01
 0.1315915178816E+01
 0.1419106884691E+01
 0.1498236192245E+01
 0.1553729052746E+01
 0.1586272549755E+01
 0.1596378149031E+01
 0.1584333101354E+01
 0.1550347083486E+01
 0.1494595765299E+01
 0.1417199150063E+01
 0.1318197200354E+01
 0.1197845498998E+01
 0.1057505755516E+01
 0.9019907728289E+00
 0.3582357919852E+00
 0.5212968614317E+00
 0.6982497311485E+00
 0.8750777175052E+00
 0.1041020645236E+01
 0.1188756148022E+01
 0.1313993582560E+01
 0.1414833946025E+01
 0.1491042350502E+01
 0.1543299033208E+01
 0.1572511553366E+01
 0.1579345739609E+01
 0.1564206018000E+01
 0.1527428266543E+01
 0.1469325301245E+01
 0.1390124601250E+01
 0.1289833141257E+01
 0.1168471665009E+01
 0.1027114247766E+01
 0.8710596276570E+00
 0.3604744155134E+00
 0.5220247911711E+00
 0.6995606963160E+00
 0.8773700379177E+00
 0.1043682076457E+01
 0.1190757208421E+01
 0.1314277088741E+01
 0.1412534209934E+01
 0.1485580089240E+01
 0.1534389603470E+01
 0.1560114807658E+01
 0.1563581414423E+01
 0.1545305862724E+01
 0.1505747352848E+01
 0.1445374456476E+01
 0.1364580389548E+01
 0.1263386331172E+01
 0.1141492849837E+01
 0.9994027495545E+00
 0.8427109442743E+00
 0.3632751051957E+00
 0.5240972897808E+00
 0.7029387192720E+00
 0.8821809428857E+00
 0.1049022033462E+01
 0.1195369305132E+01
 0.1316962146459E+01
 0.1412362677077E+01
 0.1481969438552E+01
 0.1527093277059E+01
 0.1549154368442E+01
 0.1549141548114E+01
 0.1527674658984E+01
 0.1485323689380E+01
 0.1422708870432E+01
 0.1340460399736E+01
 0.1238741591895E+01
 0.1116908999749E+01
 0.9744792307234E+00
 0.8169135589912E+00
 0.3667422394147E+00
 0.5277456343074E+00
 0.7086907996884E+00
 0.8898291468965E+00
 0.1057329680974E+01
 0.1202834315539E+01
 0.1322239725630E+01
 0.1414464600978E+01
 0.1480318822040E+01
 0.1521490572907E+01
 0.1539690527505E+01
 0.1536071226683E+01
 0.1511345387149E+01
 0.1466179258474E+01
 0.1401310301674E+01
 0.1317617803011E+01
 0.1215658209151E+01
 0.1094629048193E+01
 0.9525406791524E+00
 0.7937586581815E+00
 0.3710078949477E+00
 0.5332478241965E+00
 0.7171630770370E+00
 0.9006539465110E+00
 0.1068903834331E+01
 0.1213393894574E+01
 0.1330293053144E+01
 0.1418973394088E+01
 0.1480723506942E+01
 0.1517649394532E+01
 0.1531771944851E+01
 0.1524403687210E+01
 0.1496339263360E+01
 0.1448329818138E+01
 0.1381195706471E+01
 0.1295962520084E+01
 0.1193692151475E+01
 0.1074307638453E+01
 0.9338891546622E+00
 0.7737014234973E+00
 0.3762496462683E+00
 0.5409563259222E+00
 0.7287268115418E+00
 0.9150132564040E+00
 0.1084051568140E+01
 0.1227287144083E+01
 0.1341295178412E+01
 0.1426007364039E+01
 0.1483263868312E+01
 0.1515624260700E+01
 0.1525436109012E+01
 0.1514161757866E+01
 0.1482662811572E+01
 0.1431777962324E+01
 0.1362380221982E+01
 0.1275567403485E+01
 0.1172510734690E+01
 0.1054616349747E+01
 0.9188900617974E+00
 0.7582624477864E+00
 0.3828081117225E+00
 0.5512080763516E+00
 0.7437715224908E+00
 0.9332843346145E+00
 0.1103082978330E+01
 0.1244750000322E+01
 0.1355406329468E+01
 0.1435665164649E+01
 0.1488000429938E+01
 0.1515459175310E+01
 0.1520707802505E+01
 0.1505359105045E+01
 0.1470314322624E+01
 0.1416496194039E+01
 0.1344869760098E+01
 0.1256489538891E+01
 0.1152507291330E+01
 0.1034060917532E+01
 0.9036121355257E+00
 0.7541333189858E+00
 0.2697350775018E+00
 0.3920474209903E+00
 0.2901658922295E+00
 0.1631708024898E+00
 0.3620268494467E-01
 0.8064686012748E-01
 0.1826737983279E+00
 0.2669368814245E+00
 0.3310202005029E+00
 0.3726441325020E+00
 0.3881171121245E+00
 0.3709057685579E+00
 0.3332334206936E+00
 0.2961151648734E+00
 0.2856463556553E+00
 0.3783379403578E+00
 0.4635264030791E+00
 0.4032483477911E+00
 0.3123249181020E+00
 0.2649635732499E+00
 0.1794746692935E+00
 0.2788924939047E+00
 0.2019094259665E+00
 0.8892426413680E-01
 0.2893354222384E-01
 0.1417237233419E+00
 0.2442310896798E+00
 0.3331922782966E+00
 0.4062198281020E+00
 0.4611526944667E+00
 0.4952803924630E+00
 0.5066219941519E+00
 0.5091347624083E+00
 0.5259998714253E+00
 0.5923873222298E+00
 0.7582442047303E+00
 0.8932619802010E+00
 0.8368644004305E+00
 0.6827350891025E+00
 0.5558262692303E+00
 0.1083611492736E+00
 0.1668634026956E+00
 0.1076908695058E+00
 0.9334168780192E-02
 0.1002282449155E+00
 0.2090756270441E+00
 0.3118580835964E+00
 0.4052281482396E+00
 0.4868893255796E+00
 0.5551250063351E+00
 0.6087032456100E+00
 0.6480894418242E+00
 0.6871010834159E+00
 0.7502789062831E+00
 0.8675549521921E+00
 0.1065197110807E+01
 0.1220961627178E+01
 0.1184820781067E+01
 0.1022571379047E+01
 0.8550808793841E+00
 0.5099264473140E-01
 0.6837697135497E-01
 0.1321746142384E-01
 0.7438340611510E-01
 0.1761724824311E+00
 0.2814108492034E+00
 0.3843829573734E+00
 0.4818209158625E+00
 0.5716407084658E+00
 0.6526865374126E+00
 0.7248293937682E+00
 0.7899061906535E+00
 0.8604418450694E+00
 0.9588279862684E+00
 0.1108081986831E+01
 0.1318280604159E+01
 0.1481917191049E+01
 0.1466854740143E+01
 0.1314372501238E+01
 0.1129020979611E+01
 0.7301144401914E-02
 0.1790912593229E-01
 0.7699967580183E-01
 0.1591494592165E+00
 0.2551859133562E+00
 0.3573724295434E+00
 0.4605726647344E+00
 0.5617346410785E+00
 0.6590739936398E+00
 0.7519178243937E+00
 0.8408409802883E+00
 0.9282244765754E+00
 0.1024370476439E+01
 0.1148337890609E+01
 0.1316824964622E+01
 0.1529481316541E+01
 0.1694259038190E+01
 0.1697433903107E+01
 0.1561514836348E+01
 0.1372173773441E+01
 0.3765430436581E-01
 0.9182825403469E-01
 0.1605961498830E+00
 0.2423723188707E+00
 0.3353823968967E+00
 0.4355409181481E+00
 0.5391568030498E+00
 0.6437211878858E+00
 0.7478036675487E+00
 0.8510956893764E+00
 0.9545154743161E+00
 0.1060364534274E+01
 0.1176437565566E+01
 0.1318265010082E+01
 0.1497350326789E+01
 0.1706840828907E+01
 0.1868903515375E+01
 0.1886874134472E+01
 0.1769571471383E+01
 0.1584809409627E+01
 0.7139701641720E-01
 0.1562918395978E+00
 0.2371983730485E+00
 0.3222768863124E+00
 0.4149361908916E+00
 0.5144258456629E+00
 0.6188427675811E+00
 0.7265367260353E+00
 0.8365147041903E+00
 0.9487258560732E+00
 0.1064150527965E+01
 0.1184642239851E+01
 0.1315586493599E+01
 0.1469227042806E+01
 0.1652948197975E+01
 0.1856050325591E+01
 0.2013136878845E+01
 0.2042658286583E+01
 0.1943850200340E+01
 0.1768805730298E+01
 0.1005743355670E+00
 0.2123604988031E+00
 0.3067771608726E+00
 0.3977617833035E+00
 0.4923629799727E+00
 0.5925952567912E+00
 0.6983434723750E+00
 0.8089686191581E+00
 0.9239888027586E+00
 0.1043542389420E+01
 0.1168491843312E+01
 0.1300074443037E+01
 0.1441558620745E+01
 0.1602295512486E+01
 0.1786471097993E+01
 0.1981336131530E+01
 0.2132125423779E+01
 0.2170384431151E+01
 0.2088922769169E+01
 0.1926521004688E+01
 0.1259386960301E+00
 0.2611921870306E+00
 0.3695728735539E+00
 0.4681856395333E+00
 0.5665325583828E+00
 0.6687892308334E+00
 0.7764403247344E+00
 0.8898655081682E+00
 0.1009119847845E+01
 0.1134492722393E+01
 0.1266638751781E+01
 0.1406147982247E+01
 0.1554535650307E+01
 0.1718688733081E+01
 0.1900356101528E+01
 0.2085954078396E+01
 0.2229704871878E+01
 0.2274351775502E+01
 0.2208643186356E+01
 0.2060371656115E+01
 0.1481456952794E+00
 0.3037643772540E+00
 0.4259424211017E+00
 0.5332098570180E+00
 0.6366210334933E+00
 0.7419590066397E+00
 0.8520400800079E+00
 0.9681723912834E+00
 0.1090925136790E+01
 0.1220713975086E+01
 0.1357959418397E+01
 0.1502655953178E+01
 0.1654935125365E+01
 0.1819633005203E+01
 0.1996684949093E+01
 0.2172489536937E+01
 0.2308829569420E+01
 0.2357946668969E+01
 0.2306260337916E+01
 0.2172677698954E+01
 0.1677139902015E+00
 0.3408921492319E+00
 0.4762846461325E+00
 0.5926948066330E+00
 0.7020509077903E+00
 0.8112674348259E+00
 0.9242056045404E+00
 0.1042959490094E+01
 0.1168553988739E+01
 0.1301509711943E+01
 0.1442023937300E+01
 0.1589588891447E+01
 0.1743293650827E+01
 0.1906301913944E+01
 0.2077245722065E+01
 0.2243048555259E+01
 0.2371847631104E+01
 0.2423900208090E+01
 0.2384535780319E+01
 0.2265607441701E+01
 0.1850522416456E+00
 0.3732543157772E+00
 0.5210029312521E+00
 0.6466318468534E+00
 0.7624377218865E+00
 0.8760712361810E+00
 0.9921656077614E+00
 0.1113438558623E+01
 0.1241292272925E+01
 0.1376330421960E+01
 0.1518555638575E+01
 0.1667064807503E+01
 0.1820201552830E+01
 0.1979793774774E+01
 0.2143587407270E+01
 0.2299385124099E+01
 0.2420676299038E+01
 0.2474462814663E+01
 0.2445842635809E+01
 0.2341164343221E+01
 0.2004842404575E+00
 0.4014173494337E+00
 0.5604867556841E+00
 0.6950988418297E+00
 0.8175468577251E+00
 0.9358970280249E+00
 0.1055310609547E+01
 0.1178967552597E+01
 0.1308561814152E+01
 0.1444757457416E+01
 0.1587396945808E+01
 0.1735285425952E+01
 0.1886268053350E+01
 0.2041128928757E+01
 0.2197067024334E+01
 0.2342989191911E+01
 0.2456916323813E+01
 0.2511522177450E+01
 0.2492242193105E+01
 0.2401190990754E+01
 0.2142682891847E+00
 0.4258556746671E+00
 0.5951032901127E+00
 0.7382308708356E+00
 0.8672598968566E+00
 0.9904167609083E+00
 0.1113181285236E+01
 0.1239046741658E+01
 0.1369915215532E+01
 0.1506489121654E+01
 0.1648485256178E+01
 0.1794508984442E+01
 0.1942104337975E+01
 0.2091257981281E+01
 0.2238891809449E+01
 0.2375151165141E+01
 0.2481927596967E+01
 0.2536680408520E+01
 0.2525538923351E+01
 0.2447379366067E+01
 0.2266117816694E+00
 0.4469684313458E+00
 0.6251943947058E+00
 0.7762008450733E+00
 0.9115487992708E+00
 0.1039425007979E+01
 0.1165453307534E+01
 0.1293309519081E+01
 0.1425027408878E+01
 0.1561327970658E+01
 0.1701834940613E+01
 0.1845032201669E+01
 0.1988315638628E+01
 0.2131075743209E+01
 0.2270160104015E+01
 0.2397015841992E+01
 0.2496881637697E+01
 0.2551299777666E+01
 0.2547313070750E+01
 0.2481281275816E+01
 0.2376821049434E+00
 0.4650931153570E+00
 0.6510765827212E+00
 0.8092067146112E+00
 0.9504562024434E+00
 0.1082818917380E+01
 0.1211921178769E+01
 0.1341510505905E+01
 0.1473685475819E+01
 0.1609169105513E+01
 0.1747522921641E+01
 0.1887176108433E+01
 0.2025494505872E+01
 0.2161434620424E+01
 0.2291904093444E+01
 0.2409639849733E+01
 0.2502809057788E+01
 0.2556523524560E+01
 0.2558924959931E+01
 0.2504311157073E+01
 0.2476145877733E+00
 0.4805165905061E+00
 0.6730426418972E+00
 0.8374633812423E+00
 0.9840804086746E+00
 0.1120580880683E+01
 0.1252482309303E+01
 0.1383512771602E+01
 0.1515778170939E+01
 0.1649989937269E+01
 0.1785676905087E+01
 0.1921272969235E+01
 0.2054209270145E+01
 0.2183144985925E+01
 0.2305127512678E+01
 0.2414071842831E+01
 0.2500672539826E+01
 0.2553290938090E+01
 0.2561472206241E+01
 0.2517724055844E+01
 0.2565180193583E+00
 0.4934832712435E+00
 0.6913650877968E+00
 0.8611979546140E+00
 0.1012564351414E+01
 0.1152763321566E+01
 0.1287121770183E+01
 0.1419275135578E+01
 0.1551286501011E+01
 0.1683842281283E+01
 0.1816466927015E+01
 0.1947654553474E+01
 0.2074986293540E+01
 0.2196952471017E+01
 0.2310797323137E+01
 0.2411443201279E+01
 0.2491556705503E+01
 0.2542396129500E+01
 0.2555689171326E+01
 0.2522514958102E+01
 0.2644760475159E+00
 0.5042047006223E+00
 0.7062985749098E+00
 0.8806511310475E+00
 0.1036086351113E+01
 0.1179475033655E+01
 0.1315897684245E+01
 0.1448839387329E+01
 0.1580276072112E+01
 0.1710849440706E+01
 0.1840100483038E+01
 0.1966644768587E+01
 0.2088292085592E+01
 0.2203496859055E+01
 0.2309768079046E+01
 0.2402888059527E+01
 0.2476964056810E+01
 0.2525052480880E+01
 0.2541693913501E+01
 0.2519049732022E+01
 0.2715597995528E+00
 0.5128353797153E+00
 0.7181070359417E+00
 0.8960777268275E+00
 0.1054851042666E+01
 0.1200868897824E+01
 0.1338926816105E+01
 0.1472317003937E+01
 0.1602888592428E+01
 0.1731211425896E+01
 0.1856832602658E+01
 0.1978545494525E+01
 0.2094526965376E+01
 0.2203288300735E+01
 0.2302677052069E+01
 0.2389288474387E+01
 0.2458345992680E+01
 0.2504011256012E+01
 0.2520800296851E+01
 0.2506316603245E+01
 0.3935670365992E+00
 0.5688674556229E+00
 0.7698194587791E+00
 0.9649613107741E+00
 0.1136497303365E+01
 0.1276093999657E+01
 0.1381590679993E+01
 0.1454509598632E+01
 0.1498182917614E+01
 0.1516351571798E+01
 0.1512211562885E+01
 0.1487945157007E+01
 0.1444688195069E+01
 0.1383613897299E+01
 0.1306017088620E+01
 0.1212901895241E+01
 0.1105465799189E+01
 0.9852484261585E+00
 0.8573028072840E+00
 0.7418707867519E+00
 0.4064650923853E+00
 0.5941100406512E+00
 0.8072608894602E+00
 0.1010600655601E+01
 0.1184730238573E+01
 0.1321571840041E+01
 0.1419991747331E+01
 0.1482755226561E+01
 0.1514337976348E+01
 0.1519391783768E+01
 0.1501819723439E+01
 0.1464408484061E+01
 0.1408684313642E+01
 0.1336269600621E+01
 0.1248982237192E+01
 0.1148194582762E+01
 0.1035843030353E+01
 0.9148517115070E+00
 0.7941780764116E+00
 0.6734491387411E+00
 0.4212138692774E+00
 0.6244813884724E+00
 0.8517961790274E+00
 0.1063649788686E+01
 0.1239481201584E+01
 0.1371903825201E+01
 0.1461268337737E+01
 0.1511945306264E+01
 0.1529807191165E+01
 0.1520570650497E+01
 0.1488898378321E+01
 0.1438117563843E+01
 0.1370092566740E+01
 0.1286873672279E+01
 0.1190781292894E+01
 0.1083711222097E+01
 0.9683397662549E+00
 0.8485965851934E+00
 0.7283156538357E+00
 0.5971672181604E+00
 0.4385306088455E+00
 0.6608270430894E+00
 0.9043537411797E+00
 0.1124816943454E+01
 0.1300995312257E+01
 0.1426863376257E+01
 0.1504823960570E+01
 0.1541272062999E+01
 0.1543729041083E+01
 0.1519084248686E+01
 0.1472758795259E+01
 0.1408552195020E+01
 0.1328598253232E+01
 0.1235346419630E+01
 0.1131573773389E+01
 0.1019533848869E+01
 0.9021387743685E+00
 0.7819454483455E+00
 0.6587929383422E+00
 0.5232009577526E+00
 0.4590549114017E+00
 0.7043721396008E+00
 0.9660339838297E+00
 0.1194787391949E+01
 0.1369379599579E+01
 0.1486001703353E+01
 0.1549809459497E+01
 0.1569685150961E+01
 0.1555032096712E+01
 0.1513967196624E+01
 0.1452615943624E+01
 0.1375142211869E+01
 0.1283854240336E+01
 0.1181528131656E+01
 0.1071221945122E+01
 0.9552078372765E+00
 0.8359082166260E+00
 0.7144636938451E+00
 0.5892424174550E+00
 0.4534849301482E+00
 0.4835375179686E+00
 0.7565464264139E+00
 0.1038103238262E+01
 0.1274209804036E+01
 0.1444541500306E+01
 0.1548581649689E+01
 0.1595068723120E+01
 0.1595863826347E+01
 0.1562441210956E+01
 0.1504126783949E+01
 0.1427624162529E+01
 0.1337298280921E+01
 0.1235496146338E+01
 0.1125191142373E+01
 0.1009486690596E+01
 0.8903407591776E+00
 0.7695306804893E+00
 0.6472949638366E+00
 0.5216598103976E+00
 0.3885959364135E+00
 0.5128922611187E+00
 0.8190507304980E+00
 0.1121956488157E+01
 0.1363645154904E+01
 0.1526110314115E+01
 0.1613496675549E+01
 0.1639083540064E+01
 0.1618200098341E+01
 0.1564497490801E+01
 0.1488385368298E+01
 0.1396926012732E+01
 0.1294456233359E+01
 0.1183189012540E+01
 0.1066140307840E+01
 0.9462354978729E+00
 0.8249511570375E+00
 0.7034752211782E+00
 0.5815030644455E+00
 0.4572235007360E+00
 0.3287285045110E+00
 0.5482559066468E+00
 0.8939199609126E+00
 0.1219103480621E+01
 0.1463481770945E+01
 0.1613327696300E+01
 0.1679173889579E+01
 0.1679919919160E+01
 0.1634797487074E+01
 0.1559598285304E+01
 0.1465541088120E+01
 0.1359714919701E+01
 0.1246134578907E+01
 0.1126690389305E+01
 0.1004293803621E+01
 0.8815251762484E+00
 0.7593086854067E+00
 0.6383173288447E+00
 0.5179183379661E+00
 0.3966218498474E+00
 0.2739907949712E+00
 0.5910622407595E+00
 0.9836034685399E+00
 0.1331140509665E+01
 0.1573816053304E+01
 0.1704898329273E+01
 0.1743459078906E+01
 0.1715182728769E+01
 0.1643495369379E+01
 0.1546066325124E+01
 0.1434450821230E+01
 0.1315310129579E+01
 0.1191995270297E+01
 0.1065899217195E+01
 0.9397140517686E+00
 0.8155585155722E+00
 0.6937780072692E+00
 0.5745875320629E+00
 0.4571363470378E+00
 0.3402608443543E+00
 0.2244594064580E+00
 0.6431424123599E+00
 0.1091064519206E+01
 0.1459694298910E+01
 0.1694275077270E+01
 0.1798789990826E+01
 0.1803485917666E+01
 0.1741992392245E+01
 0.1641934650167E+01
 0.1522257294142E+01
 0.1394135761120E+01
 0.1263236732719E+01
 0.1131894186812E+01
 0.1000879331016E+01
 0.8725957884453E+00
 0.7486255092437E+00
 0.6287352829966E+00
 0.5127195943461E+00
 0.3995600795917E+00
 0.2883650097499E+00
 0.1801789663381E+00
 0.7068660065323E+00
 0.1219904495688E+01
 0.1606312877161E+01
 0.1823747693609E+01
 0.1891966648082E+01
 0.1855540030759E+01
 0.1757008940736E+01
 0.1627686430763E+01
 0.1486713074832E+01
 0.1343903452203E+01
 0.1203298233006E+01
 0.1065910624175E+01
 0.9318565355390E+00
 0.8032365705639E+00
 0.6810558868358E+00
 0.5645237888407E+00
 0.4530398369695E+00
 0.3454371979651E+00
 0.2410293070888E+00
 0.1411482765037E+00
 0.7853459259855E+00
 0.1374516383706E+01
 0.1772258338022E+01
 0.1959970105682E+01
 0.1980038006614E+01
 0.1894945992438E+01
 0.1756546792019E+01
 0.1598469682575E+01
 0.1438359855429E+01
 0.1283469566174E+01
 0.1135624604178E+01
 0.9943474284019E+00
 0.8591935566709E+00
 0.7320001620347E+00
 0.6131819133488E+00
 0.5014307405769E+00
 0.3957705277989E+00
 0.2948898960932E+00
 0.1982475489292E+00
 0.1073088488190E+00
 0.8827459305418E+00
 0.1560267644702E+01
 0.1958113626234E+01
 0.2098878454228E+01
 0.2056818465910E+01
 0.1916042955589E+01
 0.1736848697605E+01
 0.1552479953925E+01
 0.1376730300767E+01
 0.1213048163935E+01
 0.1060676455713E+01
 0.9176981044601E+00
 0.7833479871120E+00
 0.6592771015480E+00
 0.5453087126277E+00
 0.4396750650527E+00
 0.3410391416792E+00
 0.2479399487862E+00
 0.1599321100868E+00
 0.7854049533339E-01
 0.1004759796133E+01
 0.1783694841600E+01
 0.2163025373652E+01
 0.2233586336342E+01
 0.2113831059801E+01
 0.1912388328822E+01
 0.1694614618692E+01
 0.1488820200295E+01
 0.1302152025611E+01
 0.1133365806403E+01
 0.9791930827054E+00
 0.8365860317060E+00
 0.7048207547337E+00
 0.5854457823447E+00
 0.4776898731939E+00
 0.3794014011699E+00
 0.2888910177562E+00
 0.2045328085440E+00
 0.1259328270862E+00
 0.5466619002239E-01
 0.1159392831422E+01
 0.2052638620764E+01
 0.2383193887504E+01
 0.2352778632247E+01
 0.2139917812224E+01
 0.1877475237108E+01
 0.1627866091287E+01
 0.1407940970813E+01
 0.1215790916755E+01
 0.1045566157024E+01
 0.8920946831253E+00
 0.7516908790649E+00
 0.6241039678431E+00
 0.5108358148237E+00
 0.4105061683585E+00
 0.3206776543576E+00
 0.2393053572476E+00
 0.1645641843069E+00
 0.9605976934586E-01
 0.3546896726553E-01
 0.1358309633859E+01
 0.2376024051689E+01
 0.2608763302914E+01
 0.2438225793857E+01
 0.2121563093671E+01
 0.1806403921009E+01
 0.1537101454140E+01
 0.1311784545008E+01
 0.1119449998779E+01
 0.9510319433418E+00
 0.8003722318731E+00
 0.6636816425920E+00
 0.5416334055701E+00
 0.4356920649961E+00
 0.3438438297032E+00
 0.2634946135836E+00
 0.1922154888760E+00
 0.1279127604509E+00
 0.7011261742318E-01
 0.2073334298987E-01
 0.1619385318313E+01
 0.2762444556764E+01
 0.2816696813196E+01
 0.2461805644589E+01
 0.2045295115620E+01
 0.1699267437328E+01
 0.1425821445373E+01
 0.1203301948697E+01
 0.1015211088583E+01
 0.8511996652137E+00
 0.7050070931587E+00
 0.5731681205660E+00
 0.4577438991805E+00
 0.3601312230691E+00
 0.2776679668515E+00
 0.2077673309097E+00
 0.1475370207001E+00
 0.9448023743924E-01
 0.4792157679625E-01
 0.1036550607971E-01
 0.1971816649330E+01
 0.3211814276805E+01
 0.2955950417490E+01
 0.2382667354809E+01
 0.1908599685686E+01
 0.1563247395493E+01
 0.1299166505491E+01
 0.1085696785830E+01
 0.9050913588636E+00
 0.7474513222941E+00
 0.6069398082255E+00
 0.4806787804923E+00
 0.3726100276839E+00
 0.2840734008334E+00
 0.2117861100581E+00
 0.1533501918188E+00
 0.1052031868021E+00
 0.6424275824870E-01
 0.2939315471333E-01
 0.4852036680278E-02
 0.2470967020443E+01
 0.3691415609603E+01
 0.2891467133273E+01
 0.2184898617925E+01
 0.1729211014257E+01
 0.1407938151437E+01
 0.1162298810188E+01
 0.9617922968778E+00
 0.7908923617450E+00
 0.6410656292097E+00
 0.5071229733356E+00
 0.3866611873230E+00
 0.2861490302893E+00
 0.2070768618681E+00
 0.1458100666868E+00
 0.1001330049817E+00
 0.6521904152426E-01
 0.3721364471491E-01
 0.1465694913738E-01
 0.3955437584802E-02
 0.3219081880579E+01
 0.3716289998314E+01
 0.2537343979365E+01
 0.1923217271728E+01
 0.1526039647644E+01
 0.1242089317783E+01
 0.1019123390071E+01
 0.8340245822828E+00
 0.6741706922992E+00
 0.5330799405807E+00
 0.4066850374160E+00
 0.2918547956106E+00
 0.1973959054529E+00
 0.1279315605367E+00
 0.7946721736602E-01
 0.4824175408244E-01
 0.2766037945690E-01
 0.1341227043033E-01
 0.3765944536290E-02
 0.1903556595097E-02
 0.2479060940817E+01
 0.2482871475634E+01
 0.2478461984809E+01
 0.2468021532319E+01
 0.2448976684914E+01
 0.2420086334530E+01
 0.2380108683650E+01
 0.2327752658780E+01
 0.2261608498450E+01
 0.2180141867106E+01
 0.2081697325560E+01
 0.1964516719383E+01
 0.1826782561269E+01
 0.1666710418840E+01
 0.1482734690618E+01
 0.1273869492735E+01
 0.1040406421573E+01
 0.7852893189461E+00
 0.5175902371606E+00
 0.2726030117844E+00
 0.2445785302242E+01
 0.2458976840138E+01
 0.2455303938197E+01
 0.2443301633973E+01
 0.2423285695545E+01
 0.2393857953395E+01
 0.2353535388381E+01
 0.2300801262463E+01
 0.2234098976575E+01
 0.2151812878397E+01
 0.2052276812873E+01
 0.1933811265474E+01
 0.1794799016823E+01
 0.1633817370139E+01
 0.1449857179290E+01
 0.1242677240479E+01
 0.1013372473038E+01
 0.7654450800622E+00
 0.5077964752412E+00
 0.2808392327119E+00
 0.2410245911103E+01
 0.2421889426789E+01
 0.2422036473900E+01
 0.2411116107611E+01
 0.2390958766754E+01
 0.2361137617794E+01
 0.2320439284561E+01
 0.2267396835947E+01
 0.2200443795906E+01
 0.2117972472388E+01
 0.2018375180292E+01
 0.1900102975193E+01
 0.1761756966567E+01
 0.1602225618043E+01
 0.1420884293011E+01
 0.1217878090120E+01
 0.9945634153060E+00
 0.7543779928741E+00
 0.5067830375670E+00
 0.2914506883059E+00
 0.2373493961037E+01
 0.2381489918077E+01
 0.2381432699759E+01
 0.2371432485724E+01
 0.2351580416114E+01
 0.2321696397790E+01
 0.2280871349793E+01
 0.2227817258233E+01
 0.2161073253805E+01
 0.2079118393755E+01
 0.1980449734340E+01
 0.1863660284392E+01
 0.1727535606196E+01
 0.1571179783672E+01
 0.1394179130474E+01
 0.1196824268003E+01
 0.9804619094942E+00
 0.7484446697319E+00
 0.5098783286926E+00
 0.3024558242889E+00
 0.2334013550878E+01
 0.2338075709393E+01
 0.2336126491766E+01
 0.2325595677047E+01
 0.2305653999026E+01
 0.2275712573077E+01
 0.2234929289809E+01
 0.2182158361833E+01
 0.2116073314580E+01
 0.2035275233192E+01
 0.1938382808178E+01
 0.1824118003850E+01
 0.1691399638465E+01
 0.1539452550918E+01
 0.1367940508851E+01
 0.1177145037704E+01
 0.9682985562103E+00
 0.7444928947158E+00
 0.5143276295088E+00
 0.3131182168002E+00
 0.2291365871617E+01
 0.2291501941507E+01
 0.2286758692523E+01
 0.2274652122877E+01
 0.2253884143086E+01
 0.2223563305442E+01
 0.2182765431106E+01
 0.2130411791830E+01
 0.2065287429529E+01
 0.1986112531327E+01
 0.1891620443211E+01
 0.1780637142028E+01
 0.1652164852376E+01
 0.1505474214535E+01
 0.1340213451521E+01
 0.1156565690612E+01
 0.9555639034959E+00
 0.7399979444675E+00
 0.5179918082999E+00
 0.3224805550198E+00
 0.2245390540795E+01
 0.2241584855280E+01
 0.2233532233243E+01
 0.2219070702154E+01
 0.2196770476184E+01
 0.2165570386246E+01
 0.2124481744804E+01
 0.2072455177714E+01
 0.2008360331699E+01
 0.1931019332981E+01
 0.1839263222138E+01
 0.1731996652983E+01
 0.1608267603120E+01
 0.1467343777801E+01
 0.1308805456202E+01
 0.1132688432173E+01
 0.9397933228313E+00
 0.7325954163503E+00
 0.5187588676920E+00
 0.3292358923412E+00
 0.2196107847267E+01
 0.2188240915509E+01
 0.2176492232269E+01
 0.2159064262424E+01
 0.2134572312742E+01
 0.2101913504309E+01
 0.2060083085462E+01
 0.2008067451843E+01
 0.1944809277329E+01
 0.1869218885974E+01
 0.1780210037393E+01
 0.1676748267721E+01
 0.1557906703307E+01
 0.1422930405340E+01
 0.1271319671723E+01
 0.1102968107750E+01
 0.9184724984599E+00
 0.7200413219925E+00
 0.5149080103124E+00
 0.3322966153516E+00
 0.2143641859327E+01
 0.2131503181463E+01
 0.2115712785825E+01
 0.2094803021809E+01
 0.2067522831709E+01
 0.2032815766720E+01
 0.1989714995549E+01
 0.1937264610931E+01
 0.1874484188098E+01
 0.1800367044017E+01
 0.1713900484307E+01
 0.1614099881268E+01
 0.1500053338340E+01
 0.1370979217801E+01
 0.1226308757854E+01
 0.1065831265122E+01
 0.8900181835887E+00
 0.7009368786820E+00
 0.5055605744368E+00
 0.3315149207902E+00
 0.2088221970205E+01
 0.2071576771721E+01
 0.2051452448207E+01
 0.2026669005244E+01
 0.1996151131780E+01
 0.1958949382031E+01
 0.1914182896681E+01
 0.1860983323686E+01
 0.1798461626035E+01
 0.1725697591096E+01
 0.1641746800696E+01
 0.1545661046657E+01
 0.1436521462971E+01
 0.1313488776584E+01
 0.1175884883472E+01
 0.1023344812995E+01
 0.8561553753122E+00
 0.6761868861398E+00
 0.4901975893044E+00
 0.3252742559167E+00
 0.2030093017964E+01
 0.2008680433418E+01
 0.1983939616610E+01
 0.1954944243941E+01
 0.1920814181987E+01
 0.1880747820932E+01
 0.1833990736376E+01
 0.1779794084146E+01
 0.1717382644482E+01
 0.1645936388950E+01
 0.1564584573389E+01
 0.1472411579635E+01
 0.1368476418966E+01
 0.1251852709823E+01
 0.1121705739297E+01
 0.9774480394525E+00
 0.8190924487584E+00
 0.6482178081037E+00
 0.4713597982136E+00
 0.3157144796434E+00
 0.1969520187193E+01
 0.1943070643773E+01
 0.1913425574740E+01
 0.1879888657758E+01
 0.1841782484584E+01
 0.1798479644043E+01
 0.1749383948727E+01
 0.1693896624532E+01
 0.1631383479996E+01
 0.1561148206777E+01
 0.1482413150928E+01
 0.1394309113251E+01
 0.1295878396851E+01
 0.1186100477810E+01
 0.1063959927072E+01
 0.9286015356754E+00
 0.7796965531719E+00
 0.6184442105264E+00
 0.4510601756267E+00
 0.3045402061296E+00
 0.1906793099512E+01
 0.1875045174809E+01
 0.1840207522947E+01
 0.1801795688107E+01
 0.1759335171774E+01
 0.1712388047321E+01
 0.1660539721308E+01
 0.1603368667907E+01
 0.1540411234580E+01
 0.1471126432519E+01
 0.1394862993430E+01
 0.1310831533763E+01
 0.1218087668446E+01
 0.1115537736618E+01
 0.1001990049508E+01
 0.8763009700762E+00
 0.7377441629253E+00
 0.5870296704749E+00
 0.4297995342242E+00
 0.2921223064752E+00
 0.1842227249078E+01
 0.1804937829796E+01
 0.1764627793990E+01
 0.1721006279413E+01
 0.1673795605609E+01
 0.1622753320609E+01
 0.1567661440103E+01
 0.1508297859835E+01
 0.1444398608821E+01
 0.1375614798957E+01
 0.1301466356107E+01
 0.1221295472686E+01
 0.1134226074813E+01
 0.1039142234373E+01
 0.9347111578586E+00
 0.8195043441704E+00
 0.6923489503991E+00
 0.5533275240845E+00
 0.4071809672993E+00
 0.2783224838707E+00
 0.1776165552739E+01
 0.1733120383889E+01
 0.1687078903062E+01
 0.1637922739958E+01
 0.1585558615547E+01
 0.1529936794839E+01
 0.1471042065575E+01
 0.1408866863576E+01
 0.1343372280720E+01
 0.1274439267484E+01
 0.1201810972417E+01
 0.1125027955793E+01
 0.1043361328514E+01
 0.9557559800154E+00
 0.8608102388622E+00
 0.7568486313296E+00
 0.6422230781679E+00
 0.5162491039587E+00
 0.3824437518464E+00
 0.2628820046762E+00
 0.1708979500687E+01
 0.1660007130509E+01
 0.1608012297296E+01
 0.1553024686940E+01
 0.1495116702158E+01
 0.1434419835639E+01
 0.1371117971124E+01
 0.1305423607635E+01
 0.1237540301577E+01
 0.1167611883019E+01
 0.1095657555901E+01
 0.1021492187079E+01
 0.9446335759990E+00
 0.8642050064326E+00
 0.7788560215482E+00
 0.6867572375845E+00
 0.5858068446678E+00
 0.4744482847717E+00
 0.3546726631347E+00
 0.2455126951663E+00
 0.1641066330830E+01
 0.1586053755225E+01
 0.1527940164739E+01
 0.1466875844773E+01
 0.1403074366682E+01
 0.1336828377891E+01
 0.1268506432395E+01
 0.1198534448152E+01
 0.1127363229806E+01
 0.1055420982658E+01
 0.9830478437491E+00
 0.9104085041644E+00
 0.8373796562499E+00
 0.7634131271408E+00
 0.6873878785282E+00
 0.6074967051024E+00
 0.5213000912538E+00
 0.4263416839091E+00
 0.3228082495876E+00
 0.2258949853186E+00
 0.1572846942999E+01
 0.1511756666399E+01
 0.1447437038940E+01
 0.1380129719657E+01
 0.1310160284813E+01
 0.1237954654152E+01
 0.1164040687396E+01
 0.1089037073273E+01
 0.1013629837749E+01
 0.9385343094139E+00
 0.8644378427892E+00
 0.7919161831261E+00
 0.7213143884788E+00
 0.6525830543165E+00
 0.5850664797515E+00
 0.5172638877692E+00
 0.4466669387707E+00
 0.3700439432683E+00
 0.2855628357709E+00
 0.2036417073345E+00
 0.1504761739690E+01
 0.1437648848794E+01
 0.1367136870785E+01
 0.1293529660162E+01
 0.1217232790748E+01
 0.1138771557218E+01
 0.1058798090531E+01
 0.9780891709816E+00
 0.8975349578328E+00
 0.8181163045629E+00
 0.7408652294963E+00
 0.6667992932723E+00
 0.5968158243570E+00
 0.5315264173192E+00
 0.4710082811158E+00
 0.4144560809961E+00
 0.3597694269487E+00
 0.3033457972499E+00
 0.2413196198943E+00
 0.1782463345445E+00
 0.1437265530835E+01
 0.1364293312527E+01
 0.1287726388859E+01
 0.1207903466615E+01
 0.1125277696297E+01
 0.1040437071596E+01
 0.9541167542777E+00
 0.8672059819567E+00
 0.7807507964582E+00
 0.6959513126831E+00
 0.6141489436709E+00
 0.5367941175428E+00
 0.4653772417606E+00
 0.4012936826138E+00
 0.3455979956472E+00
 0.2985913759117E+00
 0.2592020343651E+00
 0.2242356506094E+00
 0.1882893056877E+00
 0.1490698139587E+00
 0.1370815269956E+01
 0.1292265683703E+01
 0.1209923406736E+01
 0.1124137190322E+01
 0.1035378398542E+01
 0.9442632587123E+00
 0.8515687986214E+00
 0.7582476880925E+00
 0.6654454611346E+00
 0.5745219254641E+00
 0.4870765889014E+00
 0.4049740081839E+00
 0.3303542415515E+00
 0.2655829008758E+00
 0.2130192731898E+00
 0.1743713056518E+00
 0.1495435970453E+00
 0.1356671384530E+00
 0.1269872700696E+00
 0.1157322984717E+00
 0.1305845185854E+01
 0.1222117040408E+01
 0.1134422912112E+01
 0.1043101876805E+01
 0.9486220556463E+00
 0.8516023425269E+00
 0.7528298739488E+00
 0.6532815170420E+00
 0.5541575515018E+00
 0.4569390662510E+00
 0.3634921887443E+00
 0.2762762390185E+00
 0.1988093678461E+00
 0.1367331331248E+00
 0.9889990962429E-01
 0.8965290039017E-01
 0.9376061476164E-01
 0.9326188002720E-01
 0.8508300377983E-01
 0.8091279608686E-01
 0.1242767119530E+01
 0.1154370477986E+01
 0.1061885346105E+01
 0.9656308675094E+00
 0.8660626258145E+00
 0.7637920640581E+00
 0.6596043978742E+00
 0.5544881879861E+00
 0.4496969181174E+00
 0.3468924673765E+00
 0.2485443393169E+00
 0.1593984204100E+00
 0.9371128473832E-01
 0.8931823254213E-01
 0.1324535051866E+00
 0.1750277967491E+00
 0.1990713676960E+00
 0.1944238173861E+00
 0.1519378948000E+00
 0.7291010981797E-01
 0.1181965498014E+01
 0.1089516462049E+01
 0.9929312987100E+00
 0.8925100921446E+00
 0.7887005532293E+00
 0.6821157444372E+00
 0.5735540324754E+00
 0.4640452056959E+00
 0.3549779371086E+00
 0.2485177454457E+00
 0.1495302107081E+00
 0.7966681793601E-01
 0.1039949982549E+00
 0.1764963586669E+00
 0.2465233731521E+00
 0.3015301352770E+00
 0.3327034499710E+00
 0.3286586544172E+00
 0.2714935336484E+00
 0.1289143807245E+00
 0.1123787724591E+01
 0.1027998322051E+01
 0.9281198618049E+00
 0.8244433711618E+00
 0.7174257227708E+00
 0.6077084605843E+00
 0.4961447395480E+00
 0.3838812281695E+00
 0.2726451803644E+00
 0.1660838995653E+00
 0.8077341380198E-01
 0.9617878546361E-01
 0.1796522853449E+00
 0.2649856919141E+00
 0.3397472611622E+00
 0.3969623192720E+00
 0.4282349175855E+00
 0.4208645155966E+00
 0.3531012303472E+00
 0.1803097887723E+00
 0.1068534860508E+01
 0.9701965473935E+00
 0.8679237107266E+00
 0.7620123457147E+00
 0.6529522347970E+00
 0.5414500606649E+00
 0.4284695594788E+00
 0.3153786817796E+00
 0.2045866664019E+00
 0.1039327450075E+00
 0.7148640867402E-01
 0.1486998781539E+00
 0.2395312145495E+00
 0.3230753220294E+00
 0.3926229424209E+00
 0.4416242879239E+00
 0.4613409020706E+00
 0.4388751203943E+00
 0.3538687745329E+00
 0.1734998375547E+00
 0.1016453351337E+01
 0.9164159741347E+00
 0.8127095164920E+00
 0.7056458562642E+00
 0.5957701640058E+00
 0.4838887913610E+00
 0.3711257135281E+00
 0.2591675858893E+00
 0.1515779328220E+00
 0.6727985219303E-01
 0.9902552822940E-01
 0.1875582222126E+00
 0.2741007806584E+00
 0.3493544032795E+00
 0.4075566073019E+00
 0.4421853719538E+00
 0.4448104673442E+00
 0.4042270870562E+00
 0.3060410580438E+00
 0.1362203396975E+00
 0.9677284002137E+00
 0.8668772024258E+00
 0.7627259222520E+00
 0.6556030694868E+00
 0.5461239564608E+00
 0.4352178019836E+00
 0.3241958410681E+00
 0.2151165820822E+00
 0.1132127062807E+00
 0.5777624071281E-01
 0.1223948225606E+00
 0.2079583148655E+00
 0.2861357015673E+00
 0.3504775077170E+00
 0.3957612318504E+00
 0.4161157726045E+00
 0.4046143393672E+00
 0.3534392187345E+00
 0.2553580119399E+00
 0.1078949912430E+00
 0.9224782888066E+00
 0.8217108632266E+00
 0.7180966932434E+00
 0.6119660722765E+00
 0.5040099046770E+00
 0.3952898878908E+00
 0.2873026775578E+00
 0.1824578180490E+00
 0.8791454745291E-01
 0.6135537075109E-01
 0.1336753393677E+00
 0.2121923127016E+00
 0.2806831559701E+00
 0.3339398990348E+00
 0.3674800210429E+00
 0.3765936616031E+00
 0.3563931745126E+00
 0.3024715647000E+00
 0.2124280081079E+00
 0.8812937424063E-01
 0.8807516973666E+00
 0.7809567363835E+00
 0.6788168705813E+00
 0.5746338788298E+00
 0.4691761500864E+00
 0.3636386155438E+00
 0.2596760103287E+00
 0.1599413089931E+00
 0.7304152846139E-01
 0.6375065263301E-01
 0.1336028857289E+00
 0.2038742101920E+00
 0.2628587607265E+00
 0.3062339867838E+00
 0.3304133212099E+00
 0.3319976015007E+00
 0.3080037904208E+00
 0.2565032862428E+00
 0.1775581304036E+00
 0.7413518044681E-01
 0.8425295892364E+00
 0.7445637022219E+00
 0.6447381748741E+00
 0.5432964307661E+00
 0.4410970944474E+00
 0.3394694627513E+00
 0.2401851164428E+00
 0.1459716863819E+00
 0.6560750670363E-01
 0.6100814700685E-01
 0.1246479925331E+00
 0.1866888503576E+00
 0.2371209218987E+00
 0.2723615182323E+00
 0.2897157038174E+00
 0.2869594221308E+00
 0.2625549484208E+00
 0.2160830199395E+00
 0.1487138670387E+00
 0.6338696690621E-01
 0.8077408214755E+00
 0.7123856841389E+00
 0.6155312189842E+00
 0.5173764968482E+00
 0.4189100789417E+00
 0.3216073018777E+00
 0.2273167889279E+00
 0.1386742765377E+00
 0.6331364206429E-01
 0.5397319908119E-01
 0.1097093298367E+00
 0.1640709097822E+00
 0.2071719656638E+00
 0.2360113472671E+00
 0.2486586918876E+00
 0.2437994361474E+00
 0.2208551356397E+00
 0.1802227790756E+00
 0.1234805722626E+00
 0.5342587577121E-01
 0.7763025867049E+00
 0.6841946219440E+00
 0.5907060951164E+00
 0.4960794384033E+00
 0.4015127876383E+00
 0.3086553636273E+00
 0.2194018465984E+00
 0.1361807351878E+00
 0.6486020177254E-01
 0.4505648976689E-01
 0.9142034721976E-01
 0.1387682316216E+00
 0.1756993023982E+00
 0.1995788823454E+00
 0.2090656180234E+00
 0.2034886026868E+00
 0.1828540690122E+00
 0.1479418500625E+00
 0.1003757056351E+00
 0.4270835253749E-01
 0.7481818426870E+00
 0.6598191498237E+00
 0.5698783704931E+00
 0.4788070401062E+00
 0.3881391045202E+00
 0.2997297107062E+00
 0.2154809800938E+00
 0.1375344757864E+00
 0.6999428365158E-01
 0.3730861594595E-01
 0.7117851713650E-01
 0.1119604633543E+00
 0.1437132857359E+00
 0.1638208693789E+00
 0.1713503077147E+00
 0.1660687927866E+00
 0.1483321413603E+00
 0.1190796297952E+00
 0.7982062867539E-01
 0.3259995554071E-01
 0.7234025426327E+00
 0.6391888638252E+00
 0.5527873582311E+00
 0.4651557567073E+00
 0.3783274272968E+00
 0.2943666233127E+00
 0.2151057773325E+00
 0.1423303659521E+00
 0.7871167291818E-01
 0.3570096685914E-01
 0.5042489720712E-01
 0.8448834515469E-01
 0.1119182756051E+00
 0.1293013636487E+00
 0.1358799408518E+00
 0.1316743423393E+00
 0.1172171221275E+00
 0.9346684662386E-01
 0.6171320821595E-01
 0.2340760450469E-01
 0.7019995828186E+00
 0.6221079963933E+00
 0.5389550860858E+00
 0.4545292002369E+00
 0.3715183460468E+00
 0.2920994915733E+00
 0.2178875529684E+00
 0.1502368514108E+00
 0.9078355199024E-01
 0.4389468284105E-01
 0.3268940785764E-01
 0.5732558900187E-01
 0.8088277995359E-01
 0.9637127815200E-01
 0.1027842503619E+00
 0.1002020474742E+00
 0.8920477157312E-01
 0.7070186167788E-01
 0.4577364951228E-01
 0.1545683949421E-01
 0.6840005288659E+00
 0.6080578441854E+00
 0.5274843626256E+00
 0.4460535534341E+00
 0.3670719984880E+00
 0.2925191202524E+00
 0.2235381044483E+00
 0.1610060651422E+00
 0.1058635226957E+00
 0.5974160774204E-01
 0.2908006659659E-01
 0.3285084507405E-01
 0.5126158627745E-01
 0.6522974855539E-01
 0.7198745375328E-01
 0.7135675205111E-01
 0.6382539243824E-01
 0.5024480658861E-01
 0.3162243575042E-01
 0.8835362444836E-02
 0.6692979121458E+00
 0.5958153242901E+00
 0.5168821869512E+00
 0.4387367423101E+00
 0.3646280805265E+00
 0.2955630225877E+00
 0.2320578373577E+00
 0.1745904346122E+00
 0.1236995109154E+00
 0.8007298676700E-01
 0.4502614266349E-01
 0.2352993567203E-01
 0.2566327511770E-01
 0.3644164687555E-01
 0.4349141344928E-01
 0.4488268733464E-01
 0.4069380198258E-01
 0.3155985115547E-01
 0.1863999264726E-01
 0.3144916497059E-02
 0.6570735904598E+00
 0.5823466110972E+00
 0.5050385674378E+00
 0.4324358277818E+00
 0.3647437605411E+00
 0.3018173487198E+00
 0.2438422247579E+00
 0.1911721571503E+00
 0.1442098593143E+00
 0.1033459947919E+00
 0.6896869547765E-01
 0.4161875111710E-01
 0.2271907621280E-01
 0.1602126482367E-01
 0.1879692804231E-01
 0.2116466089765E-01
 0.1987080874515E-01
 0.1469526265293E-01
 0.6249119435347E-02
 0.3072073427026E-02
 0.6422760063663E+00
 0.5610068853293E+00
 0.4928590407168E+00
 0.4295783259763E+00
 0.3693379603815E+00
 0.3124589388597E+00
 0.2595039179141E+00
 0.2110077111599E+00
 0.1673910855891E+00
 0.1289546875541E+00
 0.9588462288486E-01
 0.6826328365763E-01
 0.4608513159390E-01
 0.2927743664545E-01
 0.1769422991502E-01
 0.1087542099384E-01
 0.7297342947662E-02
 0.5053297038514E-02
 0.6332750467992E-02
 0.1304755866944E-01
</DataArray>
<DataArray type="Float64" Name="S_Hyd" NumberOfComponents="1" ComponentName0="S_Hyd" format="ascii">
-0.5460224727950E+01
-0.3819965895676E+01
-0.3646756912730E+01
-0.3459666369459E+01
-0.3338554144126E+01
-0.3232276309120E+01
-0.3136545802822E+01
-0.3045140387902E+01
-0.2955734860481E+01
-0.2866766326626E+01
-0.2777396020437E+01
-0.2687146836271E+01
-0.2595825949977E+01
-0.2503515382646E+01
-0.2410820719163E+01
-0.2320061303454E+01
-0.2230870415592E+01
-0.2134791796175E+01
-0.2024870947554E+01
-0.1902160151992E+01
-0.1770246401979E+01
-0.1632285318119E+01
-0.1490516581492E+01
-0.1346520090509E+01
-0.1201521774778E+01
-0.1056588597195E+01
-0.9126322647489E+00
-0.7711634992811E+00
-0.6347918472294E+00
-0.5062746970535E+00
-0.3881421368012E+00
-0.2830501286649E+00
-0.1938757391939E+00
-0.1237058600722E+00
-0.7560124411213E-01
-0.5237178824516E-01
-0.5488039236826E-01
-0.8794368014725E-01
-0.1379442674484E+00
-0.3202372731949E+00
-0.1333410361385E-01
-0.4808891730834E+01
-0.3984454738135E+01
-0.3557000605221E+01
-0.3390875804172E+01
-0.3250910740388E+01
-0.3141117494791E+01
-0.3042228885227E+01
-0.2949797339920E+01
-0.2860291639832E+01
-0.2771972919329E+01
-0.2683764830166E+01
-0.2595068221754E+01
-0.2505598999249E+01
-0.2415357503433E+01
-0.2324928269890E+01
-0.2235247014730E+01
-0.2144848931467E+01
-0.2048528866071E+01
-0.1941789308067E+01
-0.1824433358194E+01
-0.1698837106797E+01
-0.1567546643854E+01
-0.1432585416151E+01
-0.1295488094114E+01
-0.1157493983663E+01
-0.1019685332305E+01
-0.8831621232022E+00
-0.7494505906071E+00
-0.6206972399230E+00
-0.4992995385664E+00
-0.3876027127291E+00
-0.2879722005966E+00
-0.2028753396381E+00
-0.1348062393812E+00
-0.8613433652602E-01
-0.5850383184045E-01
-0.5341591429447E-01
-0.6809925085111E-01
-0.1120584472151E+00
-0.1461432740527E+00
 0.8299619514622E-01
-0.4417275200248E+01
-0.3900013157287E+01
-0.3507944209023E+01
-0.3303499608029E+01
-0.3163324481313E+01
-0.3047816154206E+01
-0.2947310022422E+01
-0.2854055244250E+01
-0.2764724488303E+01
-0.2677180633288E+01
-0.2590215913944E+01
-0.2503110408185E+01
-0.2415491466255E+01
-0.2327295582603E+01
-0.2238833978514E+01
-0.2150216085904E+01
-0.2059852363022E+01
-0.1964282043649E+01
-0.1860504962753E+01
-0.1748004583867E+01
-0.1628267568054E+01
-0.1503294798952E+01
-0.1374865934603E+01
-0.1244435302625E+01
-0.1113224769129E+01
-0.9823437126741E+00
-0.8529645214920E+00
-0.7265567365573E+00
-0.6049788650201E+00
-0.4903133899733E+00
-0.3846638433669E+00
-0.2901173352013E+00
-0.2087527190280E+00
-0.1425664819810E+00
-0.9323732245708E-01
-0.6193341517632E-01
-0.4852873690222E-01
-0.5200058971108E-01
-0.6749347199871E-01
-0.4916264870404E-01
 0.1131942663204E+00
-0.4119811624456E+01
-0.3756473994416E+01
-0.3428214433925E+01
-0.3216008413212E+01
-0.3070505346852E+01
-0.2953291578589E+01
-0.2851332830683E+01
-0.2757864340240E+01
-0.2668932352366E+01
-0.2582330713489E+01
-0.2496700795836E+01
-0.2411235539469E+01
-0.2325483243061E+01
-0.2239283770525E+01
-0.2152668123838E+01
-0.2065306022461E+01
-0.1975736458994E+01
-0.1881567057676E+01
-0.1780753892907E+01
-0.1672753671165E+01
-0.1558493993575E+01
-0.1439514719845E+01
-0.1317352497245E+01
-0.1193357551799E+01
-0.1068716717673E+01
-0.9445450401661E+00
-0.8220262219992E+00
-0.7025499258296E+00
-0.5877575170365E+00
-0.4794642396035E+00
-0.3795225076687E+00
-0.2897430596546E+00
-0.2118537393744E+00
-0.1473957545300E+00
-0.9754096791654E-01
-0.6279193274202E-01
-0.4253492596403E-01
-0.3432542890288E-01
-0.2794793223620E-01
 0.1018218175426E-01
 0.1255465189112E+00
-0.3869003030043E+01
-0.3596840662731E+01
-0.3324599164302E+01
-0.3121833795226E+01
-0.2974559989803E+01
-0.2856645096693E+01
-0.2754362259612E+01
-0.2661077436130E+01
-0.2572856495418E+01
-0.2487365239779E+01
-0.2403177761425E+01
-0.2319412354974E+01
-0.2235549388920E+01
-0.2151321101654E+01
-0.2066540576577E+01
-0.1980658084895E+01
-0.1892400058824E+01
-0.1800079157578E+01
-0.1702289932468E+01
-0.1598554213985E+01
-0.1489458289248E+01
-0.1376181560270E+01
-0.1260033579465E+01
-0.1142249755864E+01
-0.1023966728800E+01
-0.9062819727800E+00
-0.7903555549268E+00
-0.6774880394108E+00
-0.5691400669683E+00
-0.4668956181077E+00
-0.3723651605271E+00
-0.2870936402467E+00
-0.2124864489328E+00
-0.1496969108057E+00
-0.9944591352670E-01
-0.6174867621842E-01
-0.3547556421669E-01
-0.1697551405698E-01
 0.4185246256953E-02
 0.4980284703330E-01
 0.1377252053006E+00
-0.3646233580689E+01
-0.3433764848409E+01
-0.3206518350658E+01
-0.3019741013254E+01
-0.2875261044778E+01
-0.2757962903008E+01
-0.2656232622766E+01
-0.2563648029702E+01
-0.2476431461059E+01
-0.2392240193571E+01
-0.2309609956794E+01
-0.2227613502671E+01
-0.2145671943812E+01
-0.2063421300291E+01
-0.1980523331374E+01
-0.1896331295305E+01
-0.1809758531165E+01
-0.1719605761939E+01
-0.1624909419056E+01
-0.1525279558227E+01
-0.1421094534765E+01
-0.1313262615641E+01
-0.1202892986088E+01
-0.1091104154214E+01
-0.9789709477244E+00
-0.8675546048767E+00
-0.7579703990757E+00
-0.6514259901281E+00
-0.5492234945435E+00
-0.4527426635343E+00
-0.3633682241053E+00
-0.2823948775011E+00
-0.2109370133287E+00
-0.1498101302709E+00
-0.9935895546427E-01
-0.5921140876839E-01
-0.2778618130013E-01
-0.9841866923948E-03
 0.3007095290685E-01
 0.7914037569127E-01
 0.1526856529400E+00
-0.3442397513638E+01
-0.3271648798366E+01
-0.3080128006094E+01
-0.2910902333743E+01
-0.2772425013150E+01
-0.2657289844477E+01
-0.2556900507410E+01
-0.2465523421448E+01
-0.2379616202469E+01
-0.2296917581547E+01
-0.2215967381557E+01
-0.2135815824103E+01
-0.2055839354625E+01
-0.1975598560409E+01
-0.1894658771221E+01
-0.1812344326495E+01
-0.1727737125513E+01
-0.1639987428112E+01
-0.1548446319971E+01
-0.1452811032391E+01
-0.1353333018114E+01
-0.1250719846044E+01
-0.1145910536387E+01
-0.1039910703817E+01
-0.9337258441217E+00
-0.8283675928462E+00
-0.7248933927769E+00
-0.6244169621780E+00
-0.5280973460393E+00
-0.4371314871884E+00
-0.3526964401348E+00
-0.2758558949861E+00
-0.2074631567912E+00
-0.1480415584154E+00
-0.9762524825264E-01
-0.5553069579532E-01
-0.1988056582474E-01
 0.1335531612653E-01
 0.5128362433788E-01
 0.1027441257441E+00
 0.1699323348619E+00
-0.3252329362740E+01
-0.3112125833660E+01
-0.2949156119531E+01
-0.2796950198658E+01
-0.2666280633902E+01
-0.2554669710544E+01
-0.2456375451863E+01
-0.2366677360722E+01
-0.2282381815142E+01
-0.2201369473090E+01
-0.2122225676580E+01
-0.2044000873558E+01
-0.1966043725981E+01
-0.1887862861156E+01
-0.1808968608469E+01
-0.1728694355436E+01
-0.1646268528753E+01
-0.1561098300914E+01
-0.1472764023493E+01
-0.1381041142242E+01
-0.1286103869614E+01
-0.1188511923893E+01
-0.1089063006751E+01
-0.9886576061705E+00
-0.8882282434661E+00
-0.7887282422483E+00
-0.6911494462238E+00
-0.5965123477258E+00
-0.5058449270292E+00
-0.4201791398439E+00
-0.3405025653533E+00
-0.2676684125420E+00
-0.2022975127120E+00
-0.1446622380045E+00
-0.9454090961726E-01
-0.5101088730008E-01
-0.1204660994010E-01
 0.2608533347184E-01
 0.6902258429653E-01
 0.1227487666233E+00
 0.1882234968028E+00
-0.3072792608176E+01
-0.2955756962939E+01
-0.2815863133520E+01
-0.2679348721305E+01
-0.2557296444828E+01
-0.2450219177309E+01
-0.2354695682184E+01
-0.2267109501265E+01
-0.2184712656224E+01
-0.2105576782120E+01
-0.2028366426041E+01
-0.1952154335027E+01
-0.1876278937553E+01
-0.1800219136115E+01
-0.1723460573612E+01
-0.1645366685388E+01
-0.1565291598777E+01
-0.1482835319537E+01
-0.1397748447125E+01
-0.1309873908187E+01
-0.1219339512729E+01
-0.1126595992242E+01
-0.1032325078068E+01
-0.9373317526533E+00
-0.8424751038338E+00
-0.7486452159507E+00
-0.6567642247965E+00
-0.5677613945347E+00
-0.4825437934920E+00
-0.4019938454921E+00
-0.3269272205150E+00
-0.2580071719786E+00
-0.1956490712699E+00
-0.1399107556501E+00
-0.9036153572519E-01
-0.4590420237531E-01
-0.4465593812762E-02
 0.3734019549761E-01
 0.8406832738508E-01
 0.1401041215555E+00
 0.2063796271402E+00
-0.2901613918111E+01
-0.2802651651233E+01
-0.2681638122025E+01
-0.2559262304481E+01
-0.2446012555744E+01
-0.2344125937236E+01
-0.2251928197962E+01
-0.2166839602463E+01
-0.2086606310087E+01
-0.2009528673874E+01
-0.1934376827496E+01
-0.1860265448438E+01
-0.1786539594505E+01
-0.1712667860389E+01
-0.1638133083291E+01
-0.1562340076063E+01
-0.1484750532274E+01
-0.1405111776449E+01
-0.1323302874556E+01
-0.1239224018857E+01
-0.1152976022318E+01
-0.1064929049020E+01
-0.9756701870433E+00
-0.8859190807709E+00
-0.7964632766977E+00
-0.7081276389477E+00
-0.6217631395594E+00
-0.5382108158022E+00
-0.4582659433331E+00
-0.3826752293122E+00
-0.3120990634853E+00
-0.2470305444720E+00
-0.1877046193941E+00
-0.1339965738657E+00
-0.8530663500451E-01
-0.4041422068537E-01
 0.2746444348467E-02
 0.4724560405687E-01
 0.9688694878960E-01
 0.1551891058930E+00
 0.2234637296474E+00
-0.2737257786481E+01
-0.2652723330131E+01
-0.2547343584443E+01
-0.2437575021007E+01
-0.2332947757606E+01
-0.2236618856950E+01
-0.2148166361097E+01
-0.2065903910872E+01
-0.1988071996046E+01
-0.1913222006800E+01
-0.1840249190635E+01
-0.1768326466990E+01
-0.1696820587967E+01
-0.1625206020824E+01
-0.1552978462177E+01
-0.1479589860503E+01
-0.1404594240826E+01
-0.1327853225794E+01
-0.1249344177165E+01
-0.1169015616196E+01
-0.1086953726495E+01
-0.1003468931853E+01
-0.9190712299592E+00
-0.8344048607022E+00
-0.7501893124979E+00
-0.6671844675727E+00
-0.5861706407414E+00
-0.5079044440233E+00
-0.4330778780532E+00
-0.3623145407427E+00
-0.2961351285946E+00
-0.2348812596359E+00
-0.1786303199297E+00
-0.1271029651314E+00
-0.7956352620292E-01
-0.3470501173380E-01
 0.9507698473572E-02
 0.5588876069657E-01
 0.1077371735626E+00
 0.1681153104544E+00
 0.2387823292195E+00
-0.2578595826001E+01
-0.2505803040157E+01
-0.2413516223666E+01
-0.2314944263088E+01
-0.2218559945616E+01
-0.2127939010374E+01
-0.2043522422904E+01
-0.1964352128757E+01
-0.1889128680612E+01
-0.1816660483477E+01
-0.1745980387423E+01
-0.1676332198729E+01
-0.1607116985399E+01
-0.1537828085785E+01
-0.1467985168418E+01
-0.1397089834920E+01
-0.1324775849177E+01
-0.1250994748672E+01
-0.1175800039336E+01
-0.1099181059170E+01
-0.1021217345627E+01
-0.9421749535068E+00
-0.8625011018550E+00
-0.7827739231299E+00
-0.7036493173126E+00
-0.6258240404702E+00
-0.5500097114399E+00
-0.4768829498823E+00
-0.4070406219422E+00
-0.3409948788964E+00
-0.2791412515235E+00
-0.2216872290574E+00
-0.1685732906860E+00
-0.1193896282588E+00
-0.7329150605935E-01
-0.2891053339168E-01
 0.1575276839594E-01
 0.6331750660238E-01
 0.1167498234974E+00
 0.1788772458284E+00
 0.2518421455765E+00
-0.2424771998766E+01
-0.2361692276319E+01
-0.2280486693587E+01
-0.2191853442296E+01
-0.2103235138444E+01
-0.2018319635840E+01
-0.1938118458140E+01
-0.1862243955640E+01
-0.1789803184503E+01
-0.1719853622779E+01
-0.1651571253880E+01
-0.1584279633241E+01
-0.1517424070476E+01
-0.1450526840378E+01
-0.1383139336212E+01
-0.1314813429240E+01
-0.1245252275733E+01
-0.1174479046060E+01
-0.1102606894562E+01
-0.1029659796350E+01
-0.9557158694954E+00
-0.8810082658470E+00
-0.8059330797824E+00
-0.7310108330785E+00
-0.6568388510446E+00
-0.5840537574269E+00
-0.5133015021965E+00
-0.4451836278562E+00
-0.3802097402815E+00
-0.3187914256985E+00
-0.2612125414639E+00
-0.2075624137273E+00
-0.1576631202604E+00
-0.1109951212772E+00
-0.6662591133636E-01
-0.2314204336915E-01
 0.2142409350086E-01
 0.6954883772831E-01
 0.1239807644309E+00
 0.1874261059991E+00
 0.2623045719433E+00
-0.2275119304330E+01
-0.2220187909984E+01
-0.2148452899489E+01
-0.2068655130040E+01
-0.1987289848320E+01
-0.1907974674099E+01
-0.1832078313838E+01
-0.1759645356565E+01
-0.1690128268173E+01
-0.1622815669686E+01
-0.1557025963648E+01
-0.1492167624103E+01
-0.1427737432533E+01
-0.1363294054978E+01
-0.1298425846473E+01
-0.1232734437556E+01
-0.1165983873014E+01
-0.1098255059850E+01
-0.1029708365176E+01
-0.9603973836566E+00
-0.8904022980369E+00
-0.8199320278769E+00
-0.7493410726737E+00
-0.6791000136796E+00
-0.6097528547342E+00
-0.5418798494094E+00
-0.4760650686228E+00
-0.4128402430524E+00
-0.3526353743309E+00
-0.2957716895969E+00
-0.2424338763266E+00
-0.1926076943965E+00
-0.1460133021298E+00
-0.1020391126193E+00
-0.5968167681564E-01
-0.1749320954944E-01
 0.2646872518452E-01
 0.7457874007447E-01
 0.1294441748877E+00
 0.1937050164669E+00
 0.2699486464316E+00
-0.2129105946514E+01
-0.2081093681072E+01
-0.2017525950090E+01
-0.1945604195998E+01
-0.1870978776194E+01
-0.1797093479669E+01
-0.1725521580088E+01
-0.1656625027298E+01
-0.1590140731871E+01
-0.1525564502813E+01
-0.1462351400339E+01
-0.1399996601749E+01
-0.1338053053229E+01
-0.1276120995480E+01
-0.1213829067382E+01
-0.1150827470153E+01
-0.1086934113982E+01
-0.1022276943876E+01
-0.9570540624565E+00
-0.8913446453546E+00
-0.8252333201917E+00
-0.7589114396873E+00
-0.6926997647711E+00
-0.6270258252347E+00
-0.5623855963495E+00
-0.4993072141325E+00
-0.4383171861431E+00
-0.3798829312079E+00
-0.3243622990491E+00
-0.2719957595396E+00
-0.2228804037638E+00
-0.1769117188292E+00
-0.1337225729845E+00
-0.9262440347882E-01
-0.5255623171536E-01
-0.1204335058096E-01
 0.3083785120508E-01
 0.7839060115323E-01
 0.1331323662877E+00
 0.1976643851528E+00
 0.2746436107303E+00
-0.1986299286702E+01
-0.1944225058626E+01
-0.1887759568775E+01
-0.1822882627531E+01
-0.1754503940652E+01
-0.1685839420812E+01
-0.1618559620852E+01
-0.1553251402616E+01
-0.1489879627639E+01
-0.1428120579208E+01
-0.1367556549156E+01
-0.1307768302833E+01
-0.1248367366531E+01
-0.1188998797401E+01
-0.1129333361402E+01
-0.1069068224700E+01
-0.1008069314678E+01
-0.9465032745407E+00
-0.8845986481218E+00
-0.8224569628299E+00
-0.7601689737475E+00
-0.6979136888889E+00
-0.6359846784570E+00
-0.5747726063670E+00
-0.5147306273438E+00
-0.4563392988899E+00
-0.4000722231137E+00
-0.3463381432037E+00
-0.2954300035751E+00
-0.2475165665515E+00
-0.2026180358749E+00
-0.1605517093322E+00
-0.1208761408374E+00
-0.8283868828738E-01
-0.4533175988407E-01
-0.6859392708086E-02
 0.3448762146491E-01
 0.8096180123769E-01
 0.1350266673909E+00
 0.1992660833374E+00
 0.2763295152531E+00
-0.1846340984799E+01
-0.1809410802732E+01
-0.1759169253839E+01
-0.1700617944542E+01
-0.1638023498050E+01
-0.1574350704457E+01
-0.1511293305001E+01
-0.1449590350121E+01
-0.1389384680014E+01
-0.1330505952731E+01
-0.1272651922522E+01
-0.1215485510876E+01
-0.1158677284699E+01
-0.1101918728659E+01
-0.1044923425638E+01
-0.9874336377414E+00
-0.9293583863460E+00
-0.8708964302379E+00
-0.8123010882743E+00
-0.7536936724343E+00
-0.6951723099902E+00
-0.6369078429776E+00
-0.5791721787373E+00
-0.5223246846653E+00
-0.4667807450650E+00
-0.4129780176003E+00
-0.3613420583144E+00
-0.3122286258467E+00
-0.2658727915056E+00
-0.2223801493967E+00
-0.1817039282494E+00
-0.1435942211910E+00
-0.1075467899282E+00
-0.7275605618481E-01
-0.3807692167382E-01
-0.1997062823500E-02
 0.3738044679462E-01
 0.8226916258358E-01
 0.1351028055004E+00
 0.1984793397190E+00
 0.2750037944717E+00
-0.1708929421531E+01
-0.1676492911581E+01
-0.1631744948245E+01
-0.1578896835557E+01
-0.1521659572835E+01
-0.1462742342713E+01
-0.1403811993039E+01
-0.1345703541746E+01
-0.1288694976165E+01
-0.1232743397779E+01
-0.1177649031741E+01
-0.1123151808238E+01
-0.1068980191938E+01
-0.1014872364348E+01
-0.9605845126336E+00
-0.9059019560099E+00
-0.8507726121159E+00
-0.7954220928201E+00
-0.7401240512824E+00
-0.6850175546706E+00
-0.6302090757226E+00
-0.5758647109335E+00
-0.5222394373658E+00
-0.4696663640560E+00
-0.4185279582793E+00
-0.3692236927517E+00
-0.3221360321729E+00
-0.2775734313750E+00
-0.2357198970753E+00
-0.1966259196307E+00
-0.1601869392248E+00
-0.1260958390273E+00
-0.9379587688413E-01
-0.6243821556200E-01
-0.3084824359966E-01
 0.2498495576070E-02
 0.3948589875555E-01
 0.8229431000881E-01
 0.1333347504277E+00
 0.1952674352928E+00
 0.2707080237458E+00
-0.1573806997406E+01
-0.1545325819135E+01
-0.1505459522582E+01
-0.1457775272479E+01
-0.1405504918735E+01
-0.1351108601175E+01
-0.1296193382852E+01
-0.1241647415362E+01
-0.1187847944890E+01
-0.1134855660406E+01
-0.1082559914623E+01
-0.1030771342431E+01
-0.9792739117220E+00
-0.9278516939183E+00
-0.8763025653649E+00
-0.8244527538756E+00
-0.7722854446110E+00
-0.7200488394967E+00
-0.6680334150400E+00
-0.6163943993152E+00
-0.5652474186852E+00
-0.5147566899375E+00
-0.4651643705824E+00
-0.4167818954499E+00
-0.3699634545749E+00
-0.3250750156535E+00
-0.2824609235176E+00
-0.2423879492313E+00
-0.2049956125163E+00
-0.1702869235005E+00
-0.1381080604465E+00
-0.1081038236489E+00
-0.7967417133559E-01
-0.5193563133159E-01
-0.2369086306654E-01
 0.6591454087181E-02
 0.4078318583720E-01
 0.8102370142204E-01
 0.1297110866374E+00
 0.1895552949070E+00
 0.2635083171766E+00
-0.1440750778934E+01
-0.1415775290089E+01
-0.1380274513099E+01
-0.1337286040257E+01
-0.1289628453751E+01
-0.1239525548915E+01
-0.1188503904441E+01
-0.1137472610351E+01
-0.1086878612245E+01
-0.1036864846982E+01
-0.9873967264168E+00
-0.9383486109975E+00
-0.8895566553575E+00
-0.8408491780200E+00
-0.7920642910156E+00
-0.7430669148928E+00
-0.6938723218379E+00
-0.6447478033142E+00
-0.5959978586936E+00
-0.5477926336590E+00
-0.5002576186705E+00
-0.4535576078169E+00
-0.4079255610067E+00
-0.3636554362740E+00
-0.3210775693626E+00
-0.2805290203369E+00
-0.2423209456039E+00
-0.2066839543916E+00
-0.1737194230055E+00
-0.1433900952470E+00
-0.1155008238258E+00
-0.8965667985134E-01
-0.6522265678642E-01
-0.4128823860575E-01
-0.1663995071871E-01
 0.1025700757098E-01
 0.4125502901183E-01
 0.7846748768444E-01
 0.1242060048691E+00
 0.1813242502625E+00
 0.2531936252715E+00
-0.1309565491999E+01
-0.1287717240097E+01
-0.1256144034597E+01
-0.1217444367516E+01
-0.1174079798331E+01
-0.1128053504903E+01
-0.1080799438718E+01
-0.1033223762107E+01
-0.9858191026333E+00
-0.9387919497208E+00
-0.8921713981353E+00
-0.8458882693511E+00
-0.7998269595802E+00
-0.7538577693260E+00
-0.7078571918351E+00
-0.6617265901727E+00
-0.6155104995642E+00
-0.5694923870155E+00
-0.5239885208406E+00
-0.4791830035850E+00
-0.4352118447269E+00
-0.3922425683260E+00
-0.3505021716322E+00
-0.3102710036721E+00
-0.2718597568654E+00
-0.2355810680140E+00
-0.2017177566708E+00
-0.1704696679280E+00
-0.1419061448963E+00
-0.1159565020873E+00
-0.9239167200057E-01
-0.7078469194006E-01
-0.5047313072051E-01
-0.3052642376705E-01
-0.9720429778077E-02
 0.1347727365354E-01
 0.4090192318984E-01
 0.7461115125461E-01
 0.1169267938430E+00
 0.1703178723877E+00
 0.2397582152003E+00
-0.1180078192410E+01
-0.1161036593249E+01
-0.1133017464475E+01
-0.1098252157583E+01
-0.1058892968079E+01
-0.1016739280504E+01
-0.9731262047729E+00
-0.9289395545584E+00
-0.8846983453266E+00
-0.8406564996970E+00
-0.7968953623180E+00
-0.7533949644925E+00
-0.7100836195255E+00
-0.6668709082640E+00
-0.6236695660163E+00
-0.5804151418947E+00
-0.5371788980970E+00
-0.4942580186336E+00
-0.4519787101293E+00
-0.4105382983705E+00
-0.3700839368982E+00
-0.3307878030227E+00
-0.2928738569036E+00
-0.2566124244236E+00
-0.2222985630009E+00
-0.1902248392461E+00
-0.1606504808591E+00
-0.1337498253079E+00
-0.1095660646154E+00
-0.8800157468126E-01
-0.6880030619727E-01
-0.5151037108731E-01
-0.3544885170331E-01
-0.1967135785943E-01
-0.2948779989332E-02
 0.1624602323543E-01
 0.3972098960467E-01
 0.6950170665589E-01
 0.1077750389285E+00
 0.1572350638967E+00
 0.2203048492175E+00
-0.1052134155323E+01
-0.1035626227631E+01
-0.1010841290761E+01
-0.9797011840094E+00
-0.9440893669671E+00
-0.9056181795810E+00
-0.8655217133629E+00
-0.8246529497516E+00
-0.7835419462402E+00
-0.7424763339525E+00
-0.7015793443670E+00
-0.6608731974734E+00
-0.6203256235424E+00
-0.5798825035284E+00
-0.5394904895289E+00
-0.4991170792234E+00
-0.4588579631990E+00
-0.4190219416686E+00
-0.3799436591013E+00
-0.3418331132638E+00
-0.3048492119191E+00
-0.2691705332654E+00
-0.2350206756920E+00
-0.2026632852306E+00
-0.1723816014827E+00
-0.1444523329897E+00
-0.1191157372828E+00
-0.9652575027909E-01
-0.7670507521427E-01
-0.5953532627467E-01
-0.4473999504377E-01
-0.3184888848406E-01
-0.2016496109468E-01
-0.8735866951293E-02
 0.3667832312905E-02
 0.1856246435572E-01
 0.3773089597451E-01
 0.6313691993171E-01
 0.9693841050540E-01
 0.1414871269801E+00
 0.1990349270179E+00
-0.9255936638851E+00
-0.9113860272181E+00
-0.8895603858620E+00
-0.8617755160146E+00
-0.8296802096193E+00
-0.7947157515634E+00
-0.7580157215465E+00
-0.7203915316526E+00
-0.6823721873266E+00
-0.6442674604104E+00
-0.6062332147255E+00
-0.5683272155014E+00
-0.5305520943526E+00
-0.4928869045347E+00
-0.4553097865857E+00
-0.4178179913744E+00
-0.3805295403401E+00
-0.3437630339906E+00
-0.3078603137498E+00
-0.2730436443901E+00
-0.2394842912541E+00
-0.2073688439025E+00
-0.1769230089771E+00
-0.1484068855765E+00
-0.1220955337535E+00
-0.9825387147188E-01
-0.7710767526566E-01
-0.5879543176709E-01
-0.4332480978781E-01
-0.3056255507148E-01
-0.2021786352882E-01
-0.1180842344862E-01
-0.4628997603995E-02
 0.2275422301532E-02
 0.1012974038419E-01
 0.2043664174249E-01
 0.3494646195280E-01
 0.5557504513835E-01
 0.8438501306194E-01
 0.1235719688135E+00
 0.1752813322747E+00
-0.8003294703823E+00
-0.7882220417013E+00
-0.7691188824477E+00
-0.7444533680095E+00
-0.7156684811506E+00
-0.6840493103908E+00
-0.6506311489412E+00
-0.6161779169950E+00
-0.5812081204754E+00
-0.5460440033352E+00
-0.5108658950645E+00
-0.4757609326579E+00
-0.4407622390753E+00
-0.4058788705227E+00
-0.3711179937066E+00
-0.3365044804856E+00
-0.3021767608103E+00
-0.2684616502367E+00
-0.2357071521923E+00
-0.2041475107256E+00
-0.1739669489694E+00
-0.1453615685947E+00
-0.1185614833127E+00
-0.9382619397889E-01
-0.7142605249074E-01
-0.5161810947102E-01
-0.3461801343993E-01
-0.2055360162936E-01
-0.9422768636029E-02
-0.1083033199834E-02
 0.4764855356853E-02
 0.8609495929794E-02
 0.1115879237839E-01
 0.1336538876762E-01
 0.1644554300638E-01
 0.2188418470631E-01
 0.3139841601339E-01
 0.4684911627264E-01
 0.7021537574170E-01
 0.1035886145444E+00
 0.1490641670403E+00
-0.6762247665576E+00
-0.6660457479013E+00
-0.6494607719880E+00
-0.6277085164844E+00
-0.6020505246025E+00
-0.5736292413683E+00
-0.5433849343912E+00
-0.5120302000198E+00
-0.4800657294441E+00
-0.4478182140961E+00
-0.4154853120919E+00
-0.3831778784496E+00
-0.3509553108019E+00
-0.3188535409579E+00
-0.2869063222763E+00
-0.2551640974609E+00
-0.2237839398144E+00
-0.1930994850329E+00
-0.1634640286956E+00
-0.1351236002501E+00
-0.1082759785247E+00
-0.8312818772518E-01
-0.5991690199166E-01
-0.3890380947460E-01
-0.2035786976501E-01
-0.4532048124379E-02
 0.8363917778152E-02
 0.1820818775979E-01
 0.2500755936629E-01
 0.2890832153839E-01
 0.3021258837403E-01
 0.2940972207070E-01
 0.2720507222112E-01
 0.2454427120137E-01
 0.2263090803956E-01
 0.2292915339243E-01
 0.2712054306373E-01
 0.3701091096653E-01
 0.5450805355368E-01
 0.8162695532870E-01
 0.1204192279345E+00
-0.5531715436992E+00
-0.5447734028478E+00
-0.5305303086722E+00
-0.5115113899905E+00
-0.4888173289899E+00
-0.4634601205471E+00
-0.4362888228552E+00
-0.4079624076743E+00
-0.3789581382419E+00
-0.3496005330571E+00
-0.3200983918495E+00
-0.2905811720328E+00
-0.2611305827378E+00
-0.2318064099759E+00
-0.2026666225612E+00
-0.1737852824298E+00
-0.1453364859013E+00
-0.1176594542926E+00
-0.9111203940779E-01
-0.6595193719656E-01
-0.4239107683850E-01
-0.2064873869751E-01
-0.9701845443530E-03
 0.1637807095200E-01
 0.3112528991096E-01
 0.4301894711648E-01
 0.5185113125922E-01
 0.5750148689467E-01
 0.5997658275722E-01
 0.5942128784531E-01
 0.5613522118017E-01
 0.5060323164774E-01
 0.4352316474566E-01
 0.3582923595512E-01
 0.2870869267382E-01
 0.2360214288877E-01
 0.2215397149974E-01
 0.2611711723419E-01
 0.3733783840070E-01
 0.5776869324592E-01
 0.8941454347639E-01
-0.4310692540299E+00
-0.4243254775512E+00
-0.4122722761118E+00
-0.3958299108728E+00
-0.3759555769215E+00
-0.3535416712998E+00
-0.3293500797276E+00
-0.3039849496482E+00
-0.2778958493454E+00
-0.2513996905152E+00
-0.2247110877887E+00
-0.1979735196605E+00
-0.1712873353111E+00
-0.1447333068300E+00
-0.1183913514039E+00
-0.9235731107358E-01
-0.6682082127212E-01
-0.4212559254298E-01
-0.1863340704371E-01
 0.3386432001817E-02
 0.2370725572100E-01
 0.4209626160993E-01
 0.5829768494909E-01
 0.7203767837374E-01
 0.8304069129564E-01
 0.9105112449224E-01
 0.9585893618668E-01
 0.9734087419090E-01
 0.9549850052182E-01
 0.9047019916129E-01
 0.8254791831180E-01
 0.7220691713433E-01
 0.6013279458356E-01
 0.4724416604586E-01
 0.3470850511964E-01
 0.2394034226822E-01
 0.1654601952087E-01
 0.1422824456237E-01
 0.1877891483176E-01
 0.3209624680344E-01
 0.5613507373246E-01
-0.3098237070223E+00
-0.3046261606748E+00
-0.2946321568830E+00
-0.2806301475326E+00
-0.2634484991526E+00
-0.2438695812044E+00
-0.2225721343017E+00
-0.2001050533202E+00
-0.1768869992273E+00
-0.1532228366317E+00
-0.1293284364882E+00
-0.1053572326977E+00
-0.8142485607508E-01
-0.5763038355348E-01
-0.3407354510038E-01
-0.1087024763096E-01
 0.1177568749473E-01
 0.3351703537571E-01
 0.5398861770280E-01
 0.7290953605539E-01
 0.9003780063776E-01
 0.1051258825807E+00
 0.1179057004785E+00
 0.1280936909040E+00
 0.1354065845818E+00
 0.1395823198680E+00
 0.1404048892708E+00
 0.1377438828520E+00
 0.1315912026179E+00
 0.1220738160164E+00
 0.1094709683747E+00
 0.9424340419903E-01
 0.7705989117577E-01
 0.5881943095821E-01
 0.4066648256126E-01
 0.2398726552514E-01
 0.1034959286930E-01
 0.1408490305212E-02
-0.1092964211186E-02
 0.4694811878364E-02
 0.2067619412074E-01
-0.1893461502260E+00
-0.1856029220761E+00
-0.1775562330332E+00
-0.1658768213935E+00
-0.1512765740251E+00
-0.1344362001101E+00
-0.1159551567089E+00
-0.9632717780416E-01
-0.7593762204175E-01
-0.5507569221281E-01
-0.3395463558548E-01
-0.1273426353078E-01
 0.8457548181443E-02
 0.2950588952560E-01
 0.5029320159182E-01
 0.7068509495291E-01
 0.9046478877442E-01
 0.1092824096200E+00
 0.1267698398415E+00
 0.1426345611243E+00
 0.1566186929301E+00
 0.1684588341893E+00
 0.1778728675426E+00
 0.1845652453299E+00
 0.1882421957166E+00
 0.1886319264620E+00
 0.1855087441352E+00
 0.1787309296191E+00
 0.1682761776047E+00
 0.1542552127179E+00
 0.1369296507708E+00
 0.1167409018508E+00
 0.9433642477219E-01
 0.7059171030454E-01
 0.4662510779305E-01
 0.2379250366143E-01
 0.3622883975202E-02
-0.1227408409098E-01
-0.2219947136100E-01
-0.2434723107884E-01
-0.1686081460855E-01
-0.6955249586510E-01
-0.6718612717102E-01
-0.6099163737479E-01
-0.5153370194083E-01
-0.3941810221134E-01
-0.2523113782316E-01
-0.9496574060986E-02
 0.7346595783697E-02
 0.2494808500651E-01
 0.4303728609325E-01
 0.6140686074334E-01
 0.7989374319399E-01
 0.9836052796686E-01
 0.1166787202256E+00
 0.1347147498057E+00
 0.1523171875444E+00
 0.1692573957872E+00
 0.1851836188419E+00
 0.1997251903901E+00
 0.2125779195085E+00
 0.2234674801922E+00
 0.2321135103504E+00
 0.2382182273873E+00
 0.2414719411363E+00
 0.2415677105766E+00
 0.2382208601307E+00
 0.2311923987059E+00
 0.2203252451626E+00
 0.2055784270924E+00
 0.1870416774263E+00
 0.1649541238318E+00
 0.1397330818205E+00
 0.1120002796090E+00
 0.8260386313682E-01
 0.5263306821254E-01
 0.2341155396275E-01
-0.3570749978135E-02
-0.2674738947763E-01
-0.4445927289331E-01
-0.5493861265250E-01
-0.5637154630621E-01
 0.4963733691786E-01
 0.5069130590441E-01
 0.5511363041718E-01
 0.6243608481593E-01
 0.7215031883634E-01
 0.8375822252709E-01
 0.9680846785208E-01
 0.1109161986785E+00
 0.1257674989752E+00
 0.1411127311294E+00
 0.1567532326660E+00
 0.1725253863801E+00
 0.1882846572761E+00
 0.2038909830374E+00
 0.2191964241013E+00
 0.2340338100378E+00
 0.2481636275821E+00
 0.2612329129182E+00
 0.2728687846029E+00
 0.2827553059441E+00
 0.2906011698694E+00
 0.2961080217123E+00
 0.2989608720780E+00
 0.2988338367086E+00
 0.2954042526839E+00
 0.2883715198808E+00
 0.2774798402598E+00
 0.2625528057251E+00
 0.2435263864504E+00
 0.2204646249521E+00
 0.1935793332955E+00
 0.1632589863701E+00
 0.1300951639633E+00
 0.9490484088392E-01
 0.5874516596188E-01
 0.2290572995583E-01
-0.1116281757707E-01
-0.4193519571861E-01
-0.6778789826750E-01
-0.8698563744435E-01
-0.9775019213387E-01
 0.1682999878725E+00
 0.1680942133946E+00
 0.1708107129833E+00
 0.1760698150894E+00
 0.1834534010997E+00
 0.1925462815616E+00
 0.2029666908219E+00
 0.2143832328806E+00
 0.2265193139242E+00
 0.2391481847942E+00
 0.2520821751450E+00
 0.2651594334758E+00
 0.2782303905228E+00
 0.2911452001025E+00
 0.3037430132749E+00
 0.3158420694787E+00
 0.3271928416837E+00
 0.3374417458518E+00
 0.3462139692593E+00
 0.3531817425772E+00
 0.3580362655572E+00
 0.3604602183067E+00
 0.3601199504612E+00
 0.3566714375147E+00
 0.3497738541178E+00
 0.3391077431783E+00
 0.3243970876374E+00
 0.3054422654310E+00
 0.2821518510668E+00
 0.2545595214343E+00
 0.2228449402006E+00
 0.1873629638648E+00
 0.1486705565101E+00
 0.1075496445427E+00
 0.6502228320868E-01
 0.2234214147470E-01
-0.1907966838493E-01
-0.5775705308033E-01
-0.9209774192375E-01
-0.1203926172553E+00
-0.1408906484903E+00
 0.2865091483876E+00
 0.2850854634884E+00
 0.2861499227225E+00
 0.2894049783816E+00
 0.2945168370134E+00
 0.3011488392107E+00
 0.3089863120917E+00
 0.3177506521371E+00
 0.3272032905855E+00
 0.3371419145024E+00
 0.3473917705258E+00
 0.3577947365339E+00
 0.3681980113168E+00
 0.3784435151717E+00
 0.3883587647223E+00
 0.3977484114398E+00
 0.4063536590013E+00
 0.4138208097184E+00
 0.4197733600269E+00
 0.4238716135676E+00
 0.4257887930378E+00
 0.4251877024400E+00
 0.4217146650798E+00
 0.4150056760693E+00
 0.4046994192300E+00
 0.3904547555302E+00
 0.3719721299793E+00
 0.3490248885009E+00
 0.3214899072921E+00
 0.2893658199610E+00
 0.2527952673206E+00
 0.2120946314656E+00
 0.1677816887748E+00
 0.1205993271768E+00
 0.7153140306780E-01
 0.2179373674325E-01
-0.2724242370234E-01
-0.7412822063563E-01
-0.1172981007780E+00
-0.1550622210910E+00
-0.1856872278681E+00
 0.4043359964210E+00
 0.4017262098015E+00
 0.4011807825605E+00
 0.4024791293485E+00
 0.4053670224047E+00
 0.4095827584641E+00
 0.4148767077809E+00
 0.4210224633927E+00
 0.4278200135396E+00
 0.4350927283674E+00
 0.4426803552751E+00
 0.4504301409624E+00
 0.4581875741624E+00
 0.4657876611815E+00
 0.4730473727845E+00
 0.4797586251072E+00
 0.4856539816353E+00
 0.4903800604885E+00
 0.4935588698208E+00
 0.4948386901802E+00
 0.4938743167071E+00
 0.4903078321905E+00
 0.4837642600986E+00
 0.4738578834592E+00
 0.4602046807243E+00
 0.4424391137112E+00
 0.4202348611971E+00
 0.3933344804420E+00
 0.3615788670263E+00
 0.3249269060645E+00
 0.2834792632005E+00
 0.2375088643520E+00
 0.1874895637545E+00
 0.1341210425826E+00
 0.7834568604306E-01
 0.2133940309511E-01
-0.3556686196397E-01
-0.9095957608593E-01
-0.1432951973388E+00
-0.1908957275615E+00
-0.2320351291354E+00
 0.5218495861093E+00
 0.5180761256069E+00
 0.5159520765936E+00
 0.5153297714656E+00
 0.5160308207997E+00
 0.5178656684130E+00
 0.5206481061632E+00
 0.5242034462238E+00
 0.5283706557739E+00
 0.5329997902604E+00
 0.5379463824070E+00
 0.5430643883483E+00
 0.5481988401078E+00
 0.5531789221534E+00
 0.5578119616155E+00
 0.5618778426217E+00
 0.5651010042457E+00
 0.5671287365227E+00
 0.5675817290176E+00
 0.5660961471586E+00
 0.5623079469952E+00
 0.5558377158454E+00
 0.5462880002788E+00
 0.5332497521890E+00
 0.5163141475973E+00
 0.4950886419024E+00
 0.4692170092379E+00
 0.4384073170959E+00
 0.4024602047235E+00
 0.3612900518824E+00
 0.3149504827983E+00
 0.2636658109371E+00
 0.2078610109133E+00
 0.1481881409868E+00
 0.8554460257381E-01
 0.2106412679167E-01
-0.4396325269001E-01
-0.1081574874074E+00
-0.1699921606513E+00
-0.2277931870892E+00
-0.2798307502794E+00
 0.6391172024760E+00
 0.6341936231291E+00
 0.6305119082257E+00
 0.6279942654004E+00
 0.6265353603606E+00
 0.6260156988375E+00
 0.6263113054567E+00
 0.6272988875453E+00
 0.6288567499896E+00
 0.6308624353659E+00
 0.6331882807348E+00
 0.6356960145224E+00
 0.6382312073110E+00
 0.6406180901636E+00
 0.6426550631907E+00
 0.6441105332888E+00
 0.6447012196777E+00
 0.6440753705279E+00
 0.6418524983411E+00
 0.6376565711204E+00
 0.6311043393474E+00
 0.6217941975905E+00
 0.6093051410235E+00
 0.5932032900676E+00
 0.5730530443728E+00
 0.5484323598998E+00
 0.5189520590460E+00
 0.4842820702374E+00
 0.4441784953843E+00
 0.3985063775861E+00
 0.3472670836004E+00
 0.2906309335193E+00
 0.2289687778427E+00
 0.1628803129087E+00
 0.9321412341042E-01
 0.2105921513186E-01
-0.5233613106910E-01
-0.1256236310976E+00
-0.1972889504855E+00
-0.2656535020809E+00
-0.3289719028197E+00
 0.7562046901002E+00
 0.7501360618096E+00
 0.7449077641862E+00
 0.7405097564121E+00
 0.7369078561148E+00
 0.7340512395178E+00
 0.7318774111219E+00
 0.7303143287408E+00
 0.7292799656434E+00
 0.7286799864435E+00
 0.7284043117687E+00
 0.7283232438465E+00
 0.7282836374328E+00
 0.7281054181542E+00
 0.7275785911347E+00
 0.7264604933275E+00
 0.7244604195643E+00
 0.7212277957507E+00
 0.7163810752036E+00
 0.7095319616846E+00
 0.7002776853011E+00
 0.6881938347458E+00
 0.6728348894946E+00
 0.6537407648206E+00
 0.6304472409911E+00
 0.6025004024305E+00
 0.5694751679571E+00
 0.5309997282099E+00
 0.4867813518793E+00
 0.4366308184684E+00
 0.3804918359322E+00
 0.3184750737703E+00
 0.2508916589881E+00
 0.1782837827380E+00
 0.1014469706957E+00
 0.2142258588524E-01
-0.6058400439152E-01
-0.1432547448846E+00
-0.2250822153253E+00
-0.3043744349480E+00
-0.3793579544932E+00
 0.8731767634603E+00
 0.8659599491363E+00
 0.8591865833687E+00
 0.8529131161478E+00
 0.8471754511935E+00
 0.8419907181737E+00
 0.8373575879447E+00
 0.8332553222932E+00
 0.8296418904406E+00
 0.8264515706876E+00
 0.8235924248192E+00
 0.8209438805504E+00
 0.8183545787074E+00
 0.8156405693688E+00
 0.8125838110930E+00
 0.8089308318733E+00
 0.8043836906542E+00
 0.7985931471941E+00
 0.7911766942792E+00
 0.7817337260191E+00
 0.7698416961795E+00
 0.7550528668218E+00
 0.7368963567799E+00
 0.7148846390740E+00
 0.6885231726401E+00
 0.6573239284971E+00
 0.6208230720881E+00
 0.5786035098538E+00
 0.5303193596791E+00
 0.4757220958095E+00
 0.4146921459601E+00
 0.3472745423419E+00
 0.2737146619285E+00
 0.1944915540728E+00
 0.1103429336936E+00
 0.2225913050077E-01
-0.6859898098467E-01
-0.1609423039957E+00
-0.2532650775305E+00
-0.3438525485662E+00
-0.4308899274316E+00
 0.9900973058507E+00
 0.9817211374066E+00
 0.9733948298196E+00
 0.9652408949554E+00
 0.9573650715641E+00
 0.9498523914733E+00
 0.9427628224053E+00
 0.9361271949493E+00
 0.9299438147943E+00
 0.9241759368415E+00
 0.9187501106761E+00
 0.9135551978317E+00
 0.9084418865010E+00
 0.9032225642090E+00
 0.8976713084098E+00
 0.8915239539898E+00
 0.8844754076405E+00
 0.8761778586464E+00
 0.8662479230776E+00
 0.8542726674906E+00
 0.8398095799184E+00
 0.8223871766728E+00
 0.8015085010774E+00
 0.7766574953177E+00
 0.7473077487417E+00
 0.7129350195421E+00
 0.6730339820970E+00
 0.6271387697400E+00
 0.5748460067776E+00
 0.5158426893341E+00
 0.4499400896058E+00
 0.3771112317276E+00
 0.2975292117887E+00
 0.2116037093355E+00
 0.1200092541049E+00
 0.2368115877770E-01
-0.7626631146199E-01
-0.1785721103080E+00
-0.2817268386574E+00
-0.3839830829606E+00
-0.4834705640688E+00
 0.1107029663232E+01
 0.1097475019647E+01
 0.1087578569477E+01
 0.1077529281343E+01
 0.1067503289267E+01
 0.1057654143916E+01
 0.1048103690983E+01
 0.1038934814414E+01
 0.1030186517630E+01
 0.1021851272062E+01
 0.1013874254096E+01
 0.1006153825345E+01
 0.9985427421400E+00
 0.9908497253158E+00
 0.9828409539012E+00
 0.9742415414757E+00
 0.9647392232885E+00
 0.9539876563312E+00
 0.9416026532989E+00
 0.9271589691042E+00
 0.9101940115422E+00
 0.8902122440147E+00
 0.8666900618487E+00
 0.8390819504206E+00
 0.8068282502292E+00
 0.7693665650941E+00
 0.7261474664884E+00
 0.6766528924428E+00
 0.6204176062472E+00
 0.5570588086863E+00
 0.4863124552390E+00
 0.4080727512682E+00
 0.3224333943884E+00
 0.2297277666543E+00
 0.1305610868553E+00
 0.2580893397224E-01
-0.8346383092627E-01
-0.1960237827730E+00
-0.3103525971148E+00
-0.4246597682539E+00
-0.5370043708804E+00
 0.1224036939077E+01
 0.1213276727856E+01
 0.1201783550433E+01
 0.1189814065525E+01
 0.1177616189473E+01
 0.1165413289607E+01
 0.1153390130119E+01
 0.1141682356541E+01
 0.1130370051823E+01
 0.1119475017919E+01
 0.1108960985252E+01
 0.1098735635664E+01
 0.1088653570780E+01
 0.1078519621697E+01
 0.1068091868545E+01
 0.1057084532285E+01
 0.1045178056689E+01
 0.1032027550008E+01
 0.1017248088766E+01
 0.1000402172437E+01
 0.9810070978228E+00
 0.9585430915888E+00
 0.9324594848910E+00
 0.9021805592422E+00
 0.8671122141861E+00
 0.8266521344288E+00
 0.7802043204329E+00
 0.7271951732940E+00
 0.6670932084847E+00
 0.5994403609099E+00
 0.5238907925729E+00
 0.4402525828788E+00
 0.3485322386922E+00
 0.2489790974116E+00
 0.1421220432304E+00
 0.2877130873979E-01
-0.9006128913404E-01
-0.2131701358786E+00
-0.3390227683098E+00
-0.4657745713551E+00
-0.5913976461632E+00
 0.1341182296206E+01
 0.1329181336736E+01
 0.1316055286582E+01
 0.1302130604117E+01
 0.1287729236774E+01
 0.1273146371977E+01
 0.1258631203554E+01
 0.1244373069929E+01
 0.1230493527478E+01
 0.1217043684870E+01
 0.1204005530262E+01
 0.1191295630302E+01
 0.1178769959098E+01
 0.1166229012743E+01
 0.1153422387928E+01
 0.1140053099401E+01
 0.1125794080489E+01
 0.1110301822378E+01
 0.1093190730756E+01
 0.1074011152794E+01
 0.1052260336683E+01
 0.1027394224277E+01
 0.9988348382869E+00
 0.9659757068602E+00
 0.9281873048405E+00
 0.8848258326423E+00
 0.8352464178456E+00
 0.7788166827257E+00
 0.7149344997638E+00
 0.6430609103877E+00
 0.5627614646343E+00
 0.4737502556263E+00
 0.3759380389911E+00
 0.2694814082391E+00
 0.1548248242518E+00
 0.3270647398740E-01
-0.9591955349568E-01
-0.2298764305485E+00
-0.3676124948958E+00
-0.5072173709658E+00
-0.6465584957988E+00
 0.1458529271729E+01
 0.1445244076194E+01
 0.1430439144556E+01
 0.1414513783004E+01
 0.1397867136041E+01
 0.1380868956411E+01
 0.1363834862660E+01
 0.1347009034786E+01
 0.1330554891276E+01
 0.1314552664549E+01
 0.1299002060943E+01
 0.1283827825874E+01
 0.1268886573614E+01
 0.1253973792992E+01
 0.1238830027325E+01
 0.1223146630039E+01
 0.1206588707979E+01
 0.1188814017680E+01
 0.1169436361597E+01
 0.1147994091363E+01
 0.1123964571936E+01
 0.1096779561496E+01
 0.1065833719198E+01
 0.1030489488924E+01
 0.9900811698613E+00
 0.9439221394049E+00
 0.8913165442443E+00
 0.8315701109626E+00
 0.7640056832143E+00
 0.6879976270711E+00
 0.6030156990012E+00
 0.5086715367007E+00
 0.4047707169666E+00
 0.2913672915509E+00
 0.1688119533127E+00
 0.3776283468491E-01
-0.1008896671209E+00
-0.2459994788189E+00
-0.3959909315881E+00
-0.5488755524615E+00
-0.7023968385732E+00
 0.1576142111602E+01
 0.1561520556031E+01
 0.1544980433753E+01
 0.1526997975163E+01
 0.1508053682882E+01
 0.1488595410473E+01
 0.1469007695215E+01
 0.1449590912837E+01
 0.1430550700063E+01
 0.1411996039272E+01
 0.1393943544016E+01
 0.1376325141109E+01
 0.1358997080521E+01
 0.1341748938569E+01
 0.1324311448299E+01
 0.1306363706059E+01
 0.1287562580948E+01
 0.1267566930396E+01
 0.1245990027423E+01
 0.1222358445176E+01
 0.1196129944023E+01
 0.1166712363252E+01
 0.1133473151503E+01
 0.1095743579642E+01
 0.1052821280845E+01
 0.1003975728545E+01
 0.9484582076738E+00
 0.8855095894382E+00
 0.8143733377964E+00
 0.7343312181103E+00
 0.6447496336728E+00
 0.5451286355447E+00
 0.4351582233454E+00
 0.3147788489377E+00
 0.1842366183163E+00
 0.4410002903765E-01
-0.1048117408222E+00
-0.2613865798678E+00
-0.4240203852758E+00
-0.5906335109122E+00
-0.7588244002808E+00
 0.1694086131868E+01
 0.1678067006535E+01
 0.1659724499200E+01
 0.1639616989837E+01
 0.1618311598211E+01
 0.1596338665977E+01
 0.1574154657801E+01
 0.1552117684965E+01
 0.1530475886956E+01
 0.1509366388262E+01
 0.1488821590089E+01
 0.1468779285469E+01
 0.1449094067939E+01
 0.1429548456208E+01
 0.1409862427738E+01
 0.1389702086501E+01
 0.1368715559220E+01
 0.1346562595040E+01
 0.1322856021054E+01
 0.1297110915779E+01
 0.1268765837442E+01
 0.1237205150287E+01
 0.1201769474331E+01
 0.1161759086924E+01
 0.1116434756851E+01
 0.1065021266496E+01
 0.1006715424749E+01
 0.9406904849107E+00
 0.8661062502122E+00
 0.7821458371376E+00
 0.6880643519174E+00
 0.5832404169071E+00
 0.4672369781827E+00
 0.3398683918563E+00
 0.2012636349044E+00
 0.5189011022757E-01
-0.1075136539415E+00
-0.2758742603621E+00
-0.4515552868378E+00
-0.6323720467947E+00
-0.8157546934742E+00
 0.1812428114551E+01
 0.1794940539019E+01
 0.1774716816682E+01
 0.1752404008775E+01
 0.1728662340725E+01
 0.1704109956561E+01
 0.1679278786640E+01
 0.1654586373186E+01
 0.1630323518297E+01
 0.1606654590318E+01
 0.1583626302994E+01
 0.1561180650322E+01
 0.1539168971646E+01
 0.1517365335892E+01
 0.1495477830259E+01
 0.1473158693160E+01
 0.1450046712855E+01
 0.1425802278026E+01
 0.1400037866037E+01
 0.1372257417563E+01
 0.1341880825686E+01
 0.1308269618834E+01
 0.1270738221572E+01
 0.1228556394233E+01
 0.1180948169838E+01
 0.1127093187548E+01
 0.1066132478646E+01
 0.9971691618269E+00
 0.9192752140234E+00
 0.8315289644946E+00
 0.7330658992242E+00
 0.6231326172926E+00
 0.5011523478341E+00
 0.3667992239630E+00
 0.2200705438164E+00
 0.6131891329877E-01
-0.1088095338753E+00
-0.2892867865649E+00
-0.4784409660679E+00
-0.6739676351295E+00
-0.8731029759931E+00
 0.1931236747362E+01
 0.1912199430823E+01
 0.1890003089276E+01
 0.1865391504406E+01
 0.1839125889993E+01
 0.1811918523553E+01
 0.1784380881247E+01
 0.1756991743465E+01
 0.1730084539975E+01
 0.1703849622866E+01
 0.1678346130261E+01
 0.1653518203809E+01
 0.1629212005422E+01
 0.1605191508099E+01
 0.1581151584916E+01
 0.1556729600117E+01
 0.1531554317969E+01
 0.1505286472676E+01
 0.1477538302921E+01
 0.1447803046807E+01
 0.1415482614559E+01
 0.1379916550562E+01
 0.1340393992551E+01
 0.1296154988747E+01
 0.1246387330837E+01
 0.1190225443761E+01
 0.1126753645653E+01
 0.1055002708056E+01
 0.9739527894920E+00
 0.8825712505659E+00
 0.7798652740141E+00
 0.6649380576474E+00
 0.5370591553156E+00
 0.3957465090857E+00
 0.2408488569707E+00
 0.7258763382428E-01
-0.1084979779749E+00
-0.3014344088059E+00
-0.5045121958056E+00
-0.7152915440851E+00
-0.9307861787500E+00
 0.2050583117941E+01
 0.2029903439881E+01
 0.2005629343880E+01
 0.1978611133514E+01
 0.1949720491543E+01
 0.1919771281914E+01
 0.1889459154741E+01
 0.1859325985828E+01
 0.1829747511875E+01
 0.1800938357772E+01
 0.1772967715889E+01
 0.1745779390781E+01
 0.1719212097276E+01
 0.1693017806755E+01
 0.1666876667137E+01
 0.1640410028134E+01
 0.1613235857175E+01
 0.1585014898500E+01
 0.1555359279002E+01
 0.1523752052617E+01
 0.1489577984893E+01
 0.1452155718432E+01
 0.1410750314130E+01
 0.1364573275512E+01
 0.1312777055756E+01
 0.1254451227388E+01
 0.1188622886718E+01
 0.1114248618680E+01
 0.1030213016876E+01
 0.9353663131247E+00
 0.8285783820173E+00
 0.7087968430642E+00
 0.5751222188729E+00
 0.4268982280320E+00
 0.2638054684045E+00
 0.8591464991763E-01
-0.1063599735679E+00
-0.3121112906067E+00
-0.5295914651934E+00
-0.7562087768619E+00
-0.9887227825707E+00
 0.2170541275480E+01
 0.2148114154694E+01
 0.2121642025576E+01
 0.2092093598365E+01
 0.2060462353509E+01
 0.2027672436704E+01
 0.1994508844027E+01
 0.1961578368233E+01
 0.1929298329567E+01
 0.1897905354710E+01
 0.1867475757012E+01
 0.1837950039466E+01
 0.1809156832979E+01
 0.1780833938986E+01
 0.1752645086798E+01
 0.1724194344808E+01
 0.1695088025655E+01
 0.1664986505909E+01
 0.1633501942805E+01
 0.1600107811042E+01
 0.1564172735784E+01
 0.1524995789275E+01
 0.1481819494611E+01
 0.1433828377343E+01
 0.1380140909775E+01
 0.1319802663612E+01
 0.1251783500277E+01
 0.1174964432123E+01
 0.1088131075063E+01
 0.9900104781770E+00
 0.8793259421604E+00
 0.7548565377246E+00
 0.6155169110454E+00
 0.4604562260088E+00
 0.2891642476287E+00
 0.1015376251331E+00
-0.1021564615437E+00
-0.3210930638724E+00
-0.5534869365536E+00
-0.7965768073903E+00
-0.1046832624513E+01
 0.2291188875239E+01
 0.2266895386426E+01
 0.2238088086630E+01
 0.2205868464997E+01
 0.2171365282107E+01
 0.2135623038884E+01
 0.2099521772410E+01
 0.2063734860726E+01
 0.2028719932936E+01
 0.1994732653591E+01
 0.1961852866572E+01
 0.1930014276891E+01
 0.1899032408454E+01
 0.1868628462762E+01
 0.1838447883264E+01
 0.1808076071286E+01
 0.1777106743872E+01
 0.1745199487635E+01
 0.1711966644765E+01
 0.1676872803842E+01
 0.1639271629662E+01
 0.1598444224076E+01
 0.1553612469935E+01
 0.1503935920381E+01
 0.1448500929365E+01
 0.1386310471481E+01
 0.1316277732561E+01
 0.1237207312513E+01
 0.1147782876581E+01
 0.1046602452234E+01
 0.9322333294012E+00
 0.8032723001409E+00
 0.6584297271449E+00
 0.4966373500879E+00
 0.3171678338773E+00
 0.1197159369099E+00
-0.9562547503216E-01
-0.3281339370125E+00
-0.5759900346219E+00
-0.8362440862562E+00
-0.1105036596416E+01
 0.2412607925032E+01
 0.2386313610961E+01
 0.2355015065416E+01
 0.2319963925457E+01
 0.2282440240280E+01
 0.2243620467357E+01
 0.2204485856443E+01
 0.2165777726718E+01
 0.2127992002129E+01
 0.2091399568346E+01
 0.2056079444776E+01
 0.2021954455440E+01
 0.1988823592715E+01
 0.1956388773515E+01
 0.1924275128148E+01
 0.1892047896319E+01
 0.1859287177920E+01
 0.1825651298190E+01
 0.1790752945679E+01
 0.1754048603521E+01
 0.1714878340649E+01
 0.1672507177070E+01
 0.1626138642842E+01
 0.1574909805321E+01
 0.1517877321164E+01
 0.1454003591039E+01
 0.1382146341567E+01
 0.1301033571894E+01
 0.1209244589171E+01
 0.1105242912248E+01
 0.9874303371593E+00
 0.8542069598836E+00
 0.7040588476741E+00
 0.5356746725782E+00
 0.3480796496535E+00
 0.1407334833122E+00
-0.8647876562981E-01
-0.3329632611280E+00
-0.5968726130707E+00
-0.8750483080470E+00
-0.1163256197386E+01
 0.2534885657343E+01
 0.2506438470037E+01
 0.2472471148477E+01
 0.2434406486833E+01
 0.2393694810110E+01
 0.2351657821749E+01
 0.2309384548147E+01
 0.2267685078645E+01
 0.2227090642322E+01
 0.2187882485435E+01
 0.2150133562903E+01
 0.2113751093357E+01
 0.2078513703168E+01
 0.2044101100719E+01
 0.2010115936363E+01
 0.1976101698261E+01
 0.1941623768509E+01
 0.1906338682810E+01
 0.1869859634712E+01
 0.1831635866513E+01
 0.1790995407888E+01
 0.1747189394966E+01
 0.1699405715778E+01
 0.1646761964518E+01
 0.1588288137070E+01
 0.1522908774826E+01
 0.1449428110971E+01
 0.1366498125666E+01
 0.1272592073297E+01
 0.1166033997660E+01
 0.1045050838832E+01
 0.9078310122912E+00
 0.7526146735419E+00
 0.5778187910358E+00
 0.3821861500955E+00
 0.1649019287632E+00
-0.7439780318695E-01
-0.3352814247775E+00
-0.6158836379364E+00
-0.9128144782619E+00
-0.1221412895485E+01
 0.2658115556785E+01
 0.2627343342183E+01
 0.2590505205930E+01
 0.2549220564774E+01
 0.2505132534828E+01
 0.2459723207732E+01
 0.2414196203090E+01
 0.2369430396182E+01
 0.2325988060155E+01
 0.2284154671762E+01
 0.2243990863916E+01
 0.2205382832470E+01
 0.2168084595154E+01
 0.2131750515264E+01
 0.2095958485842E+01
 0.2060228575479E+01
 0.2024110269529E+01
 0.1987257717443E+01
 0.1949284758961E+01
 0.1909634336611E+01
 0.1867624195750E+01
 0.1822494117775E+01
 0.1773419518530E+01
 0.1719502105367E+01
 0.1659748925218E+01
 0.1593050142206E+01
 0.1518159310478E+01
 0.1433653874609E+01
 0.1337900224307E+01
 0.1229078687168E+01
 0.1105232324336E+01
 0.9643225020352E+00
 0.8043203056172E+00
 0.6233391886776E+00
 0.4197993203701E+00
 0.1925644546286E+00
-0.5902900089572E-01
-0.3347548858399E+00
-0.6327453179805E+00
-0.9493529132051E+00
-0.1279427314192E+01
 0.2782398580553E+01
 0.2749105996004E+01
 0.2709166786235E+01
 0.2664427952226E+01
 0.2616752110257E+01
 0.2567798893419E+01
 0.2518893364466E+01
 0.2470982006504E+01
 0.2424652236630E+01
 0.2380186098329E+01
 0.2337624485392E+01
 0.2296826416830E+01
 0.2257516667637E+01
 0.2219320948237E+01
 0.2181790045950E+01
 0.2144418885406E+01
 0.2106739797124E+01
 0.2068403861522E+01
 0.2029025666865E+01
 0.1988042861084E+01
 0.1944764863092E+01
 0.1898422982929E+01
 0.1848183831714E+01
 0.1793137440530E+01
 0.1732272356743E+01
 0.1664448695354E+01
 0.1588373099475E+01
 0.1502551006961E+01
 0.1405242207421E+01
 0.1294480041032E+01
 0.1168115283726E+01
 0.1023866759851E+01
 0.8594119307152E+00
 0.6725256294168E+00
 0.4612594275440E+00
 0.2241000775635E+00
-0.3997798061606E-01
-0.3310100373794E+00
-0.6471485585827E+00
-0.9844575440229E+00
-0.1337218363328E+01
 0.2907844620144E+01
 0.2871809340535E+01
 0.2828506050349E+01
 0.2780047124826E+01
 0.2728546387871E+01
 0.2675860311767E+01
 0.2623441953282E+01
 0.2572302528183E+01
 0.2523046603796E+01
 0.2475943287949E+01
 0.2431005011443E+01
 0.2388056696432E+01
 0.2346788886846E+01
 0.2306795221317E+01
 0.2267597014211E+01
 0.2228662292134E+01
 0.2189504890109E+01
 0.2149772025407E+01
 0.2109079068102E+01
 0.2066859422285E+01
 0.2022416344020E+01
 0.1974975934556E+01
 0.1923700207408E+01
 0.1867672405818E+01
 0.1805867828608E+01
 0.1737121796259E+01
 0.1660098871421E+01
 0.1573236214431E+01
 0.1474688573456E+01
 0.1362340288106E+01
 0.1233842405658E+01
 0.1086655949208E+01
 0.9181390646088E+00
 0.7256895468499E+00
 0.5069380288910E+00
 0.2599285895290E+00
-0.1680269286784E-01
-0.3236253912536E+00
-0.6587474455578E+00
-0.1017905305814E+01
-0.1394703113590E+01
 0.3034574266764E+01
 0.2995542289796E+01
 0.2948573616674E+01
 0.2896092331931E+01
 0.2840501142024E+01
 0.2783874879874E+01
 0.2727800355578E+01
 0.2673348283418E+01
 0.2621129735789E+01
 0.2571389197704E+01
 0.2524100461570E+01
 0.2479046660510E+01
 0.2435878829485E+01
 0.2394155088520E+01
 0.2353364960383E+01
 0.2312947822098E+01
 0.2272397582516E+01
 0.2231356654699E+01
 0.2189441113076E+01
 0.2146081188004E+01
 0.2100576342964E+01
 0.2052151139984E+01
 0.1999967788342E+01
 0.1943108366724E+01
 0.1880541043155E+01
 0.1811082604673E+01
 0.1733361537203E+01
 0.1645751816714E+01
 0.1546306243444E+01
 0.1432759735191E+01
 0.1302557555052E+01
 0.1152888368809E+01
 0.9807645930837E+00
 0.7831653598616E+00
 0.5572412314475E+00
 0.3005161926339E+00
 0.1099468707044E-01
-0.3121213410023E+00
-0.6671515973186E+00
-0.1049458674553E+01
-0.1451799058970E+01
 0.3162720962095E+01
 0.3120400761339E+01
 0.3069420275878E+01
 0.3012572405320E+01
 0.2952593541786E+01
 0.2891800601909E+01
 0.2831918399499E+01
 0.2774068687768E+01
 0.2718855069078E+01
 0.2666483149616E+01
 0.2616876325656E+01
 0.2569767505189E+01
 0.2524762746723E+01
 0.2481381288282E+01
 0.2439078676144E+01
 0.2397263926805E+01
 0.2355409488948E+01
 0.2313151833909E+01
 0.2270107495660E+01
 0.2225704584407E+01
 0.2179241347232E+01
 0.2129944915680E+01
 0.2076983127120E+01
 0.2019443314753E+01
 0.1956293565459E+01
 0.1886339477753E+01
 0.1808180746712E+01
 0.1720134790244E+01
 0.1620157350670E+01
 0.1505835476277E+01
 0.1374404487439E+01
 0.1222767455577E+01
 0.1047564509762E+01
 0.8453116912237E+00
 0.6126130079353E+00
 0.3463822435659E+00
 0.4397669282551E-01
-0.2959467682060E+00
-0.6719131906571E+00
-0.1078873246530E+01
-0.1508440991544E+01
 0.3292433642366E+01
 0.3246488831205E+01
 0.3191096516680E+01
 0.3129489194702E+01
 0.3064790252570E+01
 0.2999584418375E+01
 0.2935736218896E+01
 0.2874405632943E+01
 0.2816170672052E+01
 0.2761180826080E+01
 0.2709295655582E+01
 0.2660188740327E+01
 0.2613415649608E+01
 0.2568453603947E+01
 0.2524722227711E+01
 0.2481598550955E+01
 0.2438531903310E+01
 0.2395151412474E+01
 0.2351073583628E+01
 0.2305725396064E+01
 0.2258406660595E+01
 0.2208351664962E+01
 0.2154740006954E+01
 0.2096671554856E+01
 0.2033122360046E+01
 0.1962895333029E+01
 0.1884570049285E+01
 0.1796415698333E+01
 0.1696297930467E+01
 0.1581659877249E+01
 0.1449525260739E+01
 0.1296500399090E+01
 0.1118827305562E+01
 0.9125121877014E+00
 0.6735390914938E+00
 0.3981053617563E+00
 0.8278557258244E-01
-0.2744742659113E+00
-0.6724846514447E+00
-0.1105930467063E+01
-0.1564612931006E+01
 0.3423880020075E+01
 0.3373920069944E+01
 0.3313651777460E+01
 0.3246835507806E+01
 0.3177045073925E+01
 0.3107160261411E+01
 0.3039183006834E+01
 0.2974292887073E+01
 0.2913019090594E+01
 0.2855434349943E+01
 0.2801319224949E+01
 0.2750278340193E+01
 0.2701811415704E+01
 0.2655350929534E+01
 0.2610279007404E+01
 0.2565939203383E+01
 0.2521755911370E+01
 0.2477349156679E+01
 0.2432334582191E+01
 0.2386138898471E+01
 0.2338066461941E+01
 0.2287363829833E+01
 0.2233229265242E+01
 0.2174783385260E+01
 0.2111019308997E+01
 0.2040746977438E+01
 0.1962535995259E+01
 0.1874617522197E+01
 0.1774776449232E+01
 0.1660318816180E+01
 0.1528058289284E+01
 0.1374296316822E+01
 0.1194852764657E+01
 0.9851762178230E+00
 0.7405497995695E+00
 0.4563341668141E+00
 0.1281473699176E+00
-0.2469493185287E+00
-0.6683031717923E+00
-0.1130095764979E+01
-0.1621191880708E+01
 0.3557250698724E+01
 0.3502819085315E+01
 0.3437133299789E+01
 0.3364592389776E+01
 0.3289295996628E+01
 0.3214446774902E+01
 0.3142175673457E+01
 0.3073655548873E+01
 0.3009337303968E+01
 0.2949192472273E+01
 0.2892905768969E+01
 0.2840002941998E+01
 0.2789922915494E+01
 0.2742051335960E+01
 0.2695731778441E+01
 0.2650273026994E+01
 0.2605072517282E+01
 0.2559738931757E+01
 0.2513885737177E+01
 0.2466940029322E+01
 0.2418213893251E+01
 0.2366971858964E+01
 0.2312438620751E+01
 0.2253764770680E+01
 0.2189970713716E+01
 0.2119884406123E+01
 0.2042077182731E+01
 0.1954754394349E+01
 0.1855632168272E+01
 0.1741889655744E+01
 0.1610136005808E+01
 0.1456363845243E+01
 0.1275950214314E+01
 0.1063738466153E+01
 0.8142245337498E+00
 0.5217916008446E+00
 0.1809057932368E+00
-0.2125358790730E+00
-0.6585149508604E+00
-0.1151353346818E+01
-0.1677176478196E+01
 0.3692764388436E+01
 0.3633323295495E+01
 0.3561584402438E+01
 0.3482725517573E+01
 0.3401461534893E+01
 0.3321344662203E+01
 0.3244617440705E+01
 0.3172409608678E+01
 0.3105056834574E+01
 0.3042400894276E+01
 0.2984012317194E+01
 0.2929328096032E+01
 0.2877722156415E+01
 0.2828532131799E+01
 0.2781062705961E+01
 0.2734586863191E+01
 0.2688472784910E+01
 0.2642314920507E+01
 0.2595722587101E+01
 0.2548123607216E+01
 0.2498841182716E+01
 0.2447164194634E+01
 0.2392352505758E+01
 0.2333597010797E+01
 0.2269956784349E+01
 0.2200290077474E+01
 0.2123183257258E+01
 0.2036830241073E+01
 0.1938893341561E+01
 0.1826438937732E+01
 0.1695882069211E+01
 0.1542908119769E+01
 0.1362435760874E+01
 0.1148658296322E+01
 0.8951931075131E+00
 0.5952907651961E+00
 0.2420154098892E+00
-0.1701833674872E+00
-0.6423677014726E+00
-0.1168514866588E+01
-0.1735622980869E+01
 0.3830674594978E+01
 0.3765584948698E+01
 0.3687041907246E+01
 0.3601180402562E+01
 0.3513436157131E+01
 0.3427733635625E+01
 0.3346396432790E+01
 0.3270461689272E+01
 0.3200104063400E+01
 0.3135002750522E+01
 0.3074594629843E+01
 0.3018218568706E+01
 0.2965180439543E+01
 0.2914769909024E+01
 0.2866253363181E+01
 0.2818867302854E+01
 0.2771947993047E+01
 0.2725071884752E+01
 0.2677841274010E+01
 0.2629684606385E+01
 0.2579939807361E+01
 0.2527927278878E+01
 0.2472951901441E+01
 0.2414256403212E+01
 0.2350951119048E+01
 0.2281938170189E+01
 0.2205833872831E+01
 0.2120837341472E+01
 0.2024575251350E+01
 0.1914019783331E+01
 0.1785408097527E+01
 0.1634126953008E+01
 0.1454628650738E+01
 0.1240417094031E+01
 0.9841393417889E+00
 0.6777379182219E+00
 0.3125933172284E+00
-0.1187179231790E+00
-0.6186248338716E+00
-0.1181588620693E+01
-0.1792530726854E+01
 0.3971278307974E+01
 0.3899773385904E+01
 0.3813532315928E+01
 0.3719875980616E+01
 0.3625084604956E+01
 0.3533468968860E+01
 0.3447384362447E+01
 0.3367709065701E+01
 0.3294400811878E+01
 0.3226939280978E+01
 0.3164607747092E+01
 0.3106638698867E+01
 0.3052268522921E+01
 0.3000740562254E+01
 0.2951284698999E+01
 0.2903100714136E+01
 0.2855489804296E+01
 0.2808005479233E+01
 0.2760238927215E+01
 0.2711618499319E+01
 0.2661500701037E+01
 0.2609245579090E+01
 0.2554214174541E+01
 0.2495713900452E+01
 0.2432920176954E+01
 0.2364793831353E+01
 0.2289997626895E+01
 0.2206754817265E+01
 0.2112678090411E+01
 0.2004669003283E+01
 0.1878809872750E+01
 0.1730206205897E+01
 0.1552846141744E+01
 0.1339514715285E+01
 0.1081799811142E+01
 0.7701491675434E+00
 0.3939161603670E+00
-0.5667581461494E-01
-0.5860566327755E+00
-0.1189231251225E+01
-0.1848875261524E+01
 0.4114927443412E+01
 0.4036077502260E+01
 0.3941066132797E+01
 0.3838696010817E+01
 0.3736234859785E+01
 0.3638377705983E+01
 0.3547435472577E+01
 0.3464040093631E+01
 0.3387865256699E+01
 0.3318150716496E+01
 0.3254006658037E+01
 0.3194552806688E+01
 0.3138956784551E+01
 0.3086419267620E+01
 0.3036136949544E+01
 0.2987273234476E+01
 0.2939090447931E+01
 0.2891112631678E+01
 0.2842914139377E+01
 0.2793921682979E+01
 0.2743514514781E+01
 0.2691101632737E+01
 0.2636112912284E+01
 0.2577934760491E+01
 0.2515822750305E+01
 0.2448812427954E+01
 0.2375630987544E+01
 0.2294547073385E+01
 0.2203184710864E+01
 0.2098403922702E+01
 0.1976163025628E+01
 0.1831314179877E+01
 0.1657397012866E+01
 0.1446462984632E+01
 0.1188963144147E+01
 0.8736537964893E+00
 0.4874727644538E+00
 0.1765304630832E-01
-0.5429581765599E+00
-0.1190381154828E+01
-0.1904823193863E+01
 0.4262044144608E+01
 0.4174708279256E+01
 0.4069629407723E+01
 0.3957477483002E+01
 0.3846669500751E+01
 0.3742254674387E+01
 0.3646385975392E+01
 0.3559335205969E+01
 0.3480413242095E+01
 0.3408577393744E+01
 0.3342747090502E+01
 0.3281925651868E+01
 0.3225215375638E+01
 0.3171780402393E+01
 0.3120789468789E+01
 0.3071370707639E+01
 0.3022742915171E+01
 0.2974392005919E+01
 0.2925867558947E+01
 0.2876592006186E+01
 0.2825971934584E+01
 0.2773476106173E+01
 0.2718617747517E+01
 0.2660878186383E+01
 0.2599609439242E+01
 0.2533938814594E+01
 0.2462677232922E+01
 0.2384162213489E+01
 0.2296058262026E+01
 0.2195218944883E+01
 0.2077518183651E+01
 0.1937595055567E+01
 0.1768573156031E+01
 0.1561776942671E+01
 0.1306463276335E+01
 0.9895049134036E+00
 0.5949805610295E+00
 0.1063532326080E+00
-0.4872564967324E+00
-0.1183688545490E+01
-0.1960537043597E+01
 0.4413141590432E+01
 0.4315901096689E+01
 0.4199171063985E+01
 0.4075994931047E+01
 0.3956115225632E+01
 0.3844858613437E+01
 0.3744054342878E+01
 0.3653468662548E+01
 0.3571960042066E+01
 0.3498161103410E+01
 0.3430786418300E+01
 0.3368722937925E+01
 0.3311014354967E+01
 0.3256797383293E+01
 0.3205220445902E+01
 0.3155378539898E+01
 0.3106441165577E+01
 0.3057844572776E+01
 0.3009102632603E+01
 0.2959629421328E+01
 0.2908864061642E+01
 0.2856347859621E+01
 0.2801694163002E+01
 0.2744496949476E+01
 0.2684222134401E+01
 0.2620106634481E+01
 0.2551065429553E+01
 0.2475530461732E+01
 0.2391239751398E+01
 0.2295081883347E+01
 0.2182895628043E+01
 0.2049161304106E+01
 0.1886639334695E+01
 0.1685962139590E+01
 0.1435169185657E+01
 0.1119078840216E+01
 0.7184276544896E+00
 0.2119485364838E+00
-0.4163482340470E+00
-0.1167398135862E+01
-0.2016167855994E+01
 0.4568852831547E+01
 0.4459917215905E+01
 0.4329583748396E+01
 0.4193939137894E+01
 0.4064230432299E+01
 0.3945909004967E+01
 0.3840242939176E+01
 0.3746311241315E+01
 0.3662422595609E+01
 0.3586846658083E+01
 0.3518084677353E+01
 0.3454911860139E+01
 0.3396323796609E+01
 0.3341442396986E+01
 0.3289406465492E+01
 0.3239281438310E+01
 0.3190180342323E+01
 0.3141474323563E+01
 0.3092626543582E+01
 0.3043036789053E+01
 0.2992182857726E+01
 0.2939694004105E+01
 0.2885303258073E+01
 0.2828736987427E+01
 0.2769593512453E+01
 0.2707237674312E+01
 0.2640709482180E+01
 0.2568562629470E+01
 0.2488645568690E+01
 0.2397930110877E+01
 0.2292279502953E+01
 0.2166085172410E+01
 0.2011820851122E+01
 0.1819498064836E+01
 0.1575966465367E+01
 0.1263869306200E+01
 0.8601042571389E+00
 0.3375092019614E+00
-0.3269088449935E+00
-0.1139163239437E+01
-0.2071874805185E+01
 0.4729971614613E+01
 0.4607043204888E+01
 0.4460674571197E+01
 0.4310888185754E+01
 0.4170591095518E+01
 0.4045084633736E+01
 0.3934741627290E+01
 0.3837734017353E+01
 0.3751722188187E+01
 0.3674583646935E+01
 0.3604605677853E+01
 0.3540461697758E+01
 0.3481113867559E+01
 0.3425685992407E+01
 0.3373321850929E+01
 0.3323062977112E+01
 0.3273956992715E+01
 0.3225289176823E+01
 0.3176451409710E+01
 0.3126820871350E+01
 0.3075921653573E+01
 0.3023489927406E+01
 0.2969401453789E+01
 0.2913536964627E+01
 0.2855646550129E+01
 0.2795241298319E+01
 0.2731507295450E+01
 0.2663148673070E+01
 0.2588165021472E+01
 0.2503666579554E+01
 0.2405611666973E+01
 0.2288389334724E+01
 0.2144289333903E+01
 0.1962816890805E+01
 0.1729729836740E+01
 0.1425466874272E+01
 0.1022628094649E+01
 0.4867844919973E+00
-0.2146293227274E+00
-0.1095774081727E+01
-0.2127824371046E+01
 0.4897511617422E+01
 0.4757585841539E+01
 0.4592119780300E+01
 0.4426268182513E+01
 0.4274675949059E+01
 0.4142025579608E+01
 0.4027334066748E+01
 0.3927613253358E+01
 0.3839787487202E+01
 0.3761328327981E+01
 0.3690318196201E+01
 0.3625344457024E+01
 0.3565354881627E+01
 0.3509496502011E+01
 0.3456937707878E+01
 0.3406704911930E+01
 0.3357769288245E+01
 0.3309302153469E+01
 0.3260595831079E+01
 0.3210993555786E+01
 0.3160075709214E+01
 0.3107709253593E+01
 0.3053940104068E+01
 0.2998827778364E+01
 0.2942294062460E+01
 0.2884013992726E+01
 0.2823340097470E+01
 0.2759156398178E+01
 0.2689657936235E+01
 0.2612155777289E+01
 0.2522785285111E+01
 0.2416036921214E+01
 0.2284146908665E+01
 0.2116277733733E+01
 0.1897283986435E+01
 0.1605516839676E+01
 0.1208951364723E+01
 0.6643586722718E+00
-0.7384713742941E-01
-0.1032733069234E+01
-0.2184165968444E+01
 0.5072794919382E+01
 0.4911857511437E+01
 0.4723393372284E+01
 0.4539300473842E+01
 0.4375853640349E+01
 0.4236341273793E+01
 0.4117807298788E+01
 0.4015836190578E+01
 0.3926557780494E+01
 0.3847045599931E+01
 0.3775197225212E+01
 0.3709535581272E+01
 0.3649017354479E+01
 0.3592839260662E+01
 0.3540220551660E+01
 0.3490186118916E+01
 0.3441617234921E+01
 0.3393532935070E+01
 0.3345086916005E+01
 0.3295573360067E+01
 0.3244642798529E+01
 0.3192323683526E+01
 0.3138864970781E+01
 0.3084531989220E+01
 0.3029438270775E+01
 0.2973439059457E+01
 0.2916071988360E+01
 0.2856430375793E+01
 0.2792952383277E+01
 0.2723219687458E+01
 0.2643638280497E+01
 0.2548921164962E+01
 0.2431409321459E+01
 0.2280137185906E+01
 0.2079351479989E+01
 0.1805645872812E+01
 0.1422327900486E+01
 0.8758197951058E+00
 0.1029764319854E+00
-0.9435689947509E+00
-0.2240951599251E+01
 0.5257588822903E+01
 0.5070141767338E+01
 0.4853652410365E+01
 0.4648932410524E+01
 0.4473377902870E+01
 0.4327628265103E+01
 0.4205964606182E+01
 0.4102307206736E+01
 0.4011986262643E+01
 0.3931710988723E+01
 0.3859225250457E+01
 0.3793014759072E+01
 0.3732072117341E+01
 0.3675675602289E+01
 0.3623130352617E+01
 0.3573480964999E+01
 0.3525502858901E+01
 0.3478009985901E+01
 0.3429962971705E+01
 0.3380587267385E+01
 0.3329623760708E+01
 0.3277302641360E+01
 0.3224115511933E+01
 0.3170563148688E+01
 0.3116970403904E+01
 0.3063386507982E+01
 0.3009549795444E+01
 0.2954791147595E+01
 0.2897842584406E+01
 0.2836633816322E+01
 0.2767946766057E+01
 0.2686854946579E+01
 0.2585988733844E+01
 0.2454517870355E+01
 0.2276488869836E+01
 0.2027346760788E+01
 0.1666204734637E+01
 0.1127908874149E+01
 0.3259951798099E+00
-0.8186966897674E+00
-0.2297919478709E+01
 0.5454326800044E+01
 0.5232616747349E+01
 0.4981548531567E+01
 0.4753751925758E+01
 0.4566403325802E+01
 0.4415501604270E+01
 0.4291640124545E+01
 0.4186953602472E+01
 0.4096043306708E+01
 0.4015312550016E+01
 0.3942393506981E+01
 0.3875766879005E+01
 0.3814490600840E+01
 0.3757961649452E+01
 0.3705617760133E+01
 0.3656556792416E+01
 0.3609430343215E+01
 0.3562773533624E+01
 0.3515277133003E+01
 0.3466072929055E+01
 0.3415022909552E+01
 0.3362612625834E+01
 0.3309623927893E+01
 0.3256824990276E+01
 0.3204770329357E+01
 0.3153713207631E+01
 0.3103603345436E+01
 0.3054034811596E+01
 0.3004087056865E+01
 0.2952123345070E+01
 0.2895418564391E+01
 0.2829560523976E+01
 0.2747676945629E+01
 0.2639377564022E+01
 0.2489016456807E+01
 0.2271814738814E+01
 0.1943982298492E+01
 0.1428567404926E+01
 0.6090030209488E+00
-0.6434675317880E+00
-0.2353942365587E+01
 0.5666485566090E+01
 0.5399185412681E+01
 0.5104910286552E+01
 0.4851898789517E+01
 0.4654045775766E+01
 0.4499640624962E+01
 0.4374711156131E+01
 0.4269730754685E+01
 0.4178719741156E+01
 0.4097852499098E+01
 0.4024703175918E+01
 0.3957783182106E+01
 0.3896245487587E+01
 0.3839647000058E+01
 0.3787620157497E+01
 0.3739369977664E+01
 0.3693406076864E+01
 0.3647879911125E+01
 0.3601102331769E+01
 0.3552081218088E+01
 0.3500848104618E+01
 0.3448216141343E+01
 0.3395313918245E+01
 0.3343210440454E+01
 0.3292706193006E+01
 0.3244263381103E+01
 0.3198046312475E+01
 0.3153933095032E+01
 0.3111407023347E+01
 0.3069359461243E+01
 0.3025686891985E+01
 0.2976659695060E+01
 0.2916129812988E+01
 0.2834481297124E+01
 0.2716952602569E+01
 0.2539744957141E+01
 0.2258568645166E+01
 0.1786695823058E+01
 0.9707799372713E+00
-0.3947465569188E+00
-0.2405647359884E+01
 0.5899277056238E+01
 0.5569085982290E+01
 0.5220195315146E+01
 0.4941026924502E+01
 0.4735526776290E+01
 0.4579836867300E+01
 0.4455102703775E+01
 0.4350628189562E+01
 0.4260029679071E+01
 0.4179348382959E+01
 0.4106166505154E+01
 0.4039062603664E+01
 0.3977312070900E+01
 0.3920673624129E+01
 0.3869056047791E+01
 0.3821859596290E+01
 0.3777438557229E+01
 0.3733408160900E+01
 0.3687538193654E+01
 0.3638678971192E+01
 0.3587110152318E+01
 0.3534070078736E+01
 0.3481099132634E+01
 0.3429600389367E+01
 0.3380634000936E+01
 0.3334869545694E+01
 0.3292677889694E+01
 0.3254234041524E+01
 0.3219485047799E+01
 0.3187955933885E+01
 0.3158304307495E+01
 0.3127664344812E+01
 0.3090853958656E+01
 0.3039377653176E+01
 0.2959964687318E+01
 0.2831137155252E+01
 0.2611666783315E+01
 0.2211225357320E+01
 0.1436606380250E+01
-0.3476084381098E-01
-0.2443943567889E+01
 0.6161047835480E+01
 0.5739932525960E+01
 0.5321539485910E+01
 0.5018499581316E+01
 0.4810437882541E+01
 0.4655999265021E+01
 0.4532787992806E+01
 0.4429679077974E+01
 0.4340010926340E+01
 0.4259834289388E+01
 0.4186807645690E+01
 0.4119613185050E+01
 0.4057670815388E+01
 0.4000975769023E+01
 0.3949817095934E+01
 0.3903936837739E+01
 0.3861538069864E+01
 0.3819470621331E+01
 0.3774720667543E+01
 0.3725951397265E+01
 0.3673821026770E+01
 0.3620123460629E+01
 0.3566881366110E+01
 0.3515862138840E+01
 0.3468396968399E+01
 0.3425354044623E+01
 0.3387285710629E+01
 0.3354663458025E+01
 0.3327963704984E+01
 0.3307465946540E+01
 0.3292737381113E+01
 0.3281966552617E+01
 0.3271196681118E+01
 0.3253382870929E+01
 0.3217332889022E+01
 0.3145203574137E+01
 0.3002876513761E+01
 0.2708756266699E+01
 0.2039077210575E+01
 0.5002131602986E+00
-0.2445263268927E+01
 0.6466504771990E+01
 0.5905071266157E+01
 0.5399216172101E+01
 0.5082360590364E+01
 0.4879017263091E+01
 0.4728041074867E+01
 0.4607826602978E+01
 0.4506961706700E+01
 0.4418723530317E+01
 0.4339363016187E+01
 0.4266662477279E+01
 0.4199453433900E+01
 0.4137311475999E+01
 0.4080482871990E+01
 0.4029757091324E+01
 0.3985466308874E+01
 0.3945716112106E+01
 0.3906231030137E+01
 0.3862835256123E+01
 0.3814002816398E+01
 0.3760990289371E+01
 0.3706314583574E+01
 0.3652548661036E+01
 0.3601847449844E+01
 0.3555824196702E+01
 0.3515531334013E+01
 0.3481650889055E+01
 0.3454927172239E+01
 0.3436443895249E+01
 0.3427378898147E+01
 0.3428363339068E+01
 0.3438827710578E+01
 0.3456333734461E+01
 0.3475591190433E+01
 0.3487898830588E+01
 0.3480421615118E+01
 0.3429219314285E+01
 0.3278666584715E+01
 0.2815098355601E+01
 0.1320495001414E+01
-0.2347793411380E+01
 0.6845572039113E+01
 0.6045008801972E+01
 0.5438246539819E+01
 0.5134376307741E+01
 0.4941591800730E+01
 0.4795815452416E+01
 0.4680473478964E+01
 0.4582549312086E+01
 0.4496269009629E+01
 0.4418000091903E+01
 0.4345780766458E+01
 0.4278611791957E+01
 0.4216238593360E+01
 0.4159129988061E+01
 0.4108678110429E+01
 0.4066230171506E+01
 0.4029984958162E+01
 0.3993938103687E+01
 0.3952133622171E+01
 0.3902952819735E+01
 0.3848619477012E+01
 0.3792567648888E+01
 0.3737973636196E+01
 0.3687390328313E+01
 0.3642727541580E+01
 0.3605211144676E+01
 0.3575557104944E+01
 0.3554714081080E+01
 0.3544480909927E+01
 0.3547119228518E+01
 0.3564464694130E+01
 0.3597380672746E+01
 0.3645220298557E+01
 0.3704951975608E+01
 0.3770036508615E+01
 0.3834380666769E+01
 0.3886406464835E+01
 0.3906663600061E+01
 0.3787289292591E+01
 0.2621588519865E+01
-0.1989915790809E+01
 0.7373955786389E+01
 0.6092828274216E+01
 0.5427418208219E+01
 0.5184676688020E+01
 0.4994880766660E+01
 0.4860705420156E+01
 0.4750635157657E+01
 0.4656675011372E+01
 0.4572742734938E+01
 0.4495836033170E+01
 0.4424223442353E+01
 0.4357126363320E+01
 0.4294472664858E+01
 0.4236885544652E+01
 0.4186320980775E+01
 0.4145850128415E+01
 0.4114360447269E+01
 0.4082994564374E+01
 0.4042946157253E+01
 0.3992923770222E+01
 0.3936695814235E+01
 0.3878788416833E+01
 0.3823012532040E+01
 0.3772305814276E+01
 0.3728893756913E+01
 0.3694201789338E+01
 0.3668809462720E+01
 0.3653697863057E+01
 0.3651576137346E+01
 0.3666045110127E+01
 0.3700237929717E+01
 0.3756594757556E+01
 0.3836668964185E+01
 0.3939897379103E+01
 0.4062937401622E+01
 0.4200981542790E+01
 0.4374237161005E+01
 0.4563592848240E+01
 0.4912146882320E+01
 0.4704929294239E+01
-0.8477556274802E+00
 0.8313006002074E+01
 0.5752175442190E+01
 0.5476645723625E+01
 0.5204812603962E+01
 0.5046995015905E+01
 0.4921315032758E+01
 0.4819024965646E+01
 0.4729428177565E+01
 0.4648309223498E+01
 0.4572966551713E+01
 0.4502065402061E+01
 0.4435050342260E+01
 0.4372029239751E+01
 0.4313804557170E+01
 0.4262410457768E+01
 0.4223579698733E+01
 0.4198888429230E+01
 0.4174118390833E+01
 0.4135643560305E+01
 0.4084032447870E+01
 0.4025181280421E+01
 0.3964861324836E+01
 0.3907501960230E+01
 0.3856397012216E+01
 0.3814064649327E+01
 0.3782306690518E+01
 0.3761284246207E+01
 0.3751526056820E+01
 0.3757155891022E+01
 0.3783465545886E+01
 0.3834779854357E+01
 0.3915326709408E+01
 0.4029121921786E+01
 0.4179057014635E+01
 0.4363711630895E+01
 0.4582759263225E+01
 0.4856329325335E+01
 0.5322979407638E+01
 0.5829355212079E+01
 0.8104439830716E+01
 0.2116576063075E+01
 0.1133446807529E+01
 0.1071088034595E+01
 0.1021631873023E+01
 0.9852211012235E+00
 0.9603111255646E+00
 0.9458460985896E+00
 0.9409060054805E+00
 0.9447562252719E+00
 0.9567219255392E+00
 0.9761447300213E+00
 0.1002455956739E+01
 0.1035575006561E+01
 0.1075321616520E+01
 0.1122559685541E+01
 0.1178750128036E+01
 0.1245833499593E+01
 0.1326332099966E+01
 0.1422830013621E+01
 0.1537430459032E+01
 0.1666629407097E+01
 0.1175158193349E+01
 0.1109787717393E+01
 0.1058858285181E+01
 0.1020351710208E+01
 0.9933114469191E+00
 0.9766643854408E+00
 0.9695608880942E+00
 0.9712694477935E+00
 0.9811350089346E+00
 0.9985476091311E+00
 0.1023059510827E+01
 0.1054443120730E+01
 0.1092882726520E+01
 0.1139125884750E+01
 0.1194546941888E+01
 0.1261014231856E+01
 0.1340716780474E+01
 0.1435841990863E+01
 0.1547424821252E+01
 0.1680668686068E+01
 0.1213544161922E+01
 0.1146880268407E+01
 0.1094115362169E+01
 0.1053833056684E+01
 0.1024807220651E+01
 0.1006115012104E+01
 0.9969335455434E+00
 0.9965641593067E+00
 0.1004379578259E+01
 0.1019827181661E+01
 0.1042485310666E+01
 0.1072209339014E+01
 0.1109235306864E+01
 0.1154328582538E+01
 0.1208776992828E+01
 0.1274287963588E+01
 0.1352802961717E+01
 0.1446058219844E+01
 0.1556294867233E+01
 0.1685169370360E+01
 0.1249558646325E+01
 0.1181834619105E+01
 0.1127631707022E+01
 0.1085660748714E+01
 0.1054823487676E+01
 0.1034201510044E+01
 0.1023031388823E+01
 0.1020646669066E+01
 0.1026458999348E+01
 0.1039956287005E+01
 0.1060771293439E+01
 0.1088808172659E+01
 0.1124346722172E+01
 0.1168140172183E+01
 0.1221394968048E+01
 0.1285662737483E+01
 0.1362638345259E+01
 0.1454105571181E+01
 0.1561665256105E+01
 0.1686573201956E+01
 0.1283315241293E+01
 0.1214783097175E+01
 0.1159361539045E+01
 0.1115896697672E+01
 0.1083374760834E+01
 0.1060938725637E+01
 0.1047863302153E+01
 0.1043524290985E+01
 0.1047371670807E+01
 0.1058938344974E+01
 0.1077905654716E+01
 0.1104220522729E+01
 0.1138187258064E+01
 0.1180536981256E+01
 0.1232392710288E+01
 0.1295156493190E+01
 0.1370389295499E+01
 0.1459636612728E+01
 0.1564218807994E+01
 0.1685064474042E+01
 0.1314927039786E+01
 0.1245791865067E+01
 0.1189353077018E+01
 0.1144561846688E+01
 0.1110490499543E+01
 0.1086342997761E+01
 0.1071442155939E+01
 0.1065204760918E+01
 0.1067122612633E+01
 0.1076772949023E+01
 0.1093882383296E+01
 0.1118432449423E+01
 0.1150741015081E+01
 0.1191509306050E+01
 0.1241776630421E+01
 0.1302823091428E+01
 0.1376043859299E+01
 0.1462782655112E+01
 0.1564143433937E+01
 0.1680882297360E+01
 0.1344483151250E+01
 0.1274932770159E+01
 0.1217654383887E+01
 0.1171691972199E+01
 0.1136196729880E+01
 0.1110435928778E+01
 0.1093783023662E+01
 0.1085699061391E+01
 0.1085718517516E+01
 0.1093462477346E+01
 0.1108698889616E+01
 0.1131437785666E+01
 0.1162002542475E+01
 0.1201059584387E+01
 0.1249569395612E+01
 0.1308691344358E+01
 0.1379663791949E+01
 0.1463652427117E+01
 0.1561601198518E+01
 0.1674132455537E+01
 0.1372066769627E+01
 0.1302274663101E+01
 0.1244318632838E+01
 0.1197326497605E+01
 0.1160523913085E+01
 0.1133241013615E+01
 0.1114904105950E+01
 0.1105020561487E+01
 0.1103168651052E+01
 0.1109012233531E+01
 0.1122357254055E+01
 0.1143237328042E+01
 0.1171975536656E+01
 0.1209201165890E+01
 0.1255796796930E+01
 0.1312805983589E+01
 0.1381321615015E+01
 0.1462355926322E+01
 0.1556718622125E+01
 0.1664921359839E+01
 0.1397758243030E+01
 0.1327886187574E+01
 0.1269401109750E+01
 0.1221508679446E+01
 0.1183505714420E+01
 0.1154784741458E+01
 0.1134826153626E+01
 0.1123185316424E+01
 0.1119485050481E+01
 0.1123431036435E+01
 0.1134864381494E+01
 0.1153838413295E+01
 0.1180671786040E+01
 0.1215954678579E+01
 0.1260493158623E+01
 0.1315220649338E+01
 0.1381096800208E+01
 0.1458997143772E+01
 0.1549612121303E+01
 0.1653356683674E+01
 0.1421637123782E+01
 0.1351836331110E+01
 0.1292959012882E+01
 0.1244284570400E+01
 0.1205178819532E+01
 0.1175096338429E+01
 0.1153572524884E+01
 0.1140211986189E+01
 0.1134682689483E+01
 0.1136731327427E+01
 0.1146231877942E+01
 0.1163254326897E+01
 0.1188109709687E+01
 0.1221347805473E+01
 0.1263700011758E+01
 0.1315995687561E+01
 0.1379071611691E+01
 0.1453678002894E+01
 0.1540394145637E+01
 0.1639546362312E+01
 0.1443783368219E+01
 0.1374195057420E+01
 0.1315051369957E+01
 0.1265702710918E+01
 0.1225582616189E+01
 0.1194207689416E+01
 0.1171169151459E+01
 0.1156121893459E+01
 0.1148779539200E+01
 0.1148929173323E+01
 0.1156475817172E+01
 0.1171503649395E+01
 0.1194313620699E+01
 0.1225414388297E+01
 0.1265464884857E+01
 0.1315196095927E+01
 0.1375330296960E+01
 0.1446500457101E+01
 0.1529178088152E+01
 0.1623609903256E+01
 0.1464278001302E+01
 0.1395033670812E+01
 0.1335739037547E+01
 0.1285813888918E+01
 0.1244758943054E+01
 0.1212153156562E+01
 0.1187644448318E+01
 0.1170938967402E+01
 0.1161796504044E+01
 0.1160044102402E+01
 0.1165616371882E+01
 0.1178609672495E+01
 0.1199312963916E+01
 0.1228193503462E+01
 0.1265840078132E+01
 0.1312890367902E+01
 0.1369958929845E+01
 0.1437567317581E+01
 0.1516082932880E+01
 0.1605670818051E+01
 0.1483203612548E+01
 0.1414425107681E+01
 0.1355084760013E+01
 0.1304671030620E+01
 0.1262751923593E+01
 0.1228969441441E+01
 0.1203029218585E+01
 0.1184689667316E+01
 0.1173757308962E+01
 0.1170098888184E+01
 0.1173677441484E+01
 0.1184599851339E+01
 0.1203141607427E+01
 0.1229728586252E+01
 0.1264881700980E+01
 0.1309149781773E+01
 0.1363045239057E+01
 0.1426983184639E+01
 0.1501229113862E+01
 0.1585861448475E+01
 0.1500644693139E+01
 0.1432444150126E+01
 0.1373153223640E+01
 0.1322329127548E+01
 0.1279607831816E+01
 0.1244695444811E+01
 0.1217356526866E+01
 0.1197402851070E+01
 0.1184688321345E+01
 0.1179119277234E+01
 0.1180686251704E+01
 0.1189505262091E+01
 0.1205837163401E+01
 0.1230066649499E+01
 0.1262648912197E+01
 0.1304047850821E+01
 0.1354678529574E+01
 0.1414853760891E+01
 0.1484738617883E+01
 0.1564321163374E+01
 0.1516687881515E+01
 0.1449167586370E+01
 0.1390011104187E+01
 0.1338845183938E+01
 0.1295374978775E+01
 0.1259372128973E+01
 0.1230661552251E+01
 0.1209109607022E+01
 0.1194618331859E+01
 0.1187133685921E+01
 0.1186672944537E+01
 0.1193360076225E+01
 0.1207440360427E+01
 0.1229257605712E+01
 0.1259203290254E+01
 0.1297659884439E+01
 0.1344949306014E+01
 0.1401285656189E+01
 0.1466735117447E+01
 0.1541193146426E+01
 0.1531422139199E+01
 0.1464674332984E+01
 0.1405727102364E+01
 0.1354278170964E+01
 0.1310103608323E+01
 0.1273042378999E+01
 0.1242981425534E+01
 0.1219843059660E+01
 0.1203578308056E+01
 0.1194172879528E+01
 0.1191670168170E+01
 0.1196201058884E+01
 0.1207994470480E+01
 0.1227353671331E+01
 0.1254608294101E+01
 0.1290062542447E+01
 0.1333948941788E+01
 0.1386386182948E+01
 0.1447343351574E+01
 0.1516621894204E+01
 0.1544938910124E+01
 0.1479045544660E+01
 0.1420371982886E+01
 0.1368688993475E+01
 0.1323845805651E+01
 0.1285750868849E+01
 0.1254355060733E+01
 0.1229638162263E+01
 0.1211601134943E+01
 0.1200269646287E+01
 0.1195712676179E+01
 0.1198067095973E+01
 0.1207544785115E+01
 0.1224408834593E+01
 0.1248928769708E+01
 0.1281333416432E+01
 0.1321769343803E+01
 0.1370262983393E+01
 0.1426688257481E+01
 0.1490751913676E+01
 0.1557332243490E+01
 0.1492364703740E+01
 0.1434018600622E+01
 0.1382140450099E+01
 0.1336655399719E+01
 0.1297543917307E+01
 0.1264822970863E+01
 0.1238531470922E+01
 0.1218721339602E+01
 0.1205458464212E+01
 0.1198836933212E+01
 0.1198998744329E+01
 0.1206138130217E+01
 0.1220478367177E+01
 0.1242230495664E+01
 0.1271550630131E+01
 0.1308502591106E+01
 0.1353023569760E+01
 0.1404894300299E+01
 0.1463726153135E+01
 0.1568698910741E+01
 0.1504717704594E+01
 0.1446741926006E+01
 0.1394697194101E+01
 0.1348587865682E+01
 0.1308469340787E+01
 0.1274427077262E+01
 0.1246560911224E+01
 0.1224974811797E+01
 0.1209775171614E+01
 0.1201080734969E+01
 0.1199037807584E+01
 0.1203822414262E+01
 0.1215618370196E+01
 0.1234579753403E+01
 0.1260792451458E+01
 0.1294240535738E+01
 0.1334774890862E+01
 0.1382084811861E+01
 0.1435684958849E+01
 0.1579138522509E+01
 0.1516192938449E+01
 0.1458619069968E+01
 0.1406425692898E+01
 0.1359700224053E+01
 0.1318576300558E+01
 0.1283210511824E+01
 0.1253765538777E+01
 0.1230398522755E+01
 0.1213256643176E+01
 0.1202482842639E+01
 0.1198226934530E+01
 0.1200646203363E+01
 0.1209885344766E+01
 0.1226042914053E+01
 0.1249136901547E+01
 0.1279074440859E+01
 0.1315622822358E+01
 0.1358381604622E+01
 0.1406765325937E+01
 0.1588753655499E+01
 0.1526881384649E+01
 0.1469729311420E+01
 0.1417394186487E+01
 0.1370050935806E+01
 0.1327915143835E+01
 0.1291217412754E+01
 0.1260185295519E+01
 0.1235030244877E+01
 0.1215940474136E+01
 0.1203082632801E+01
 0.1196609238364E+01
 0.1196658318345E+01
 0.1203335780576E+01
 0.1216686033204E+01
 0.1236661368886E+01
 0.1263094608140E+01
 0.1295671896675E+01
 0.1333904164751E+01
 0.1377102636248E+01
 0.1597649997857E+01
 0.1536876714238E+01
 0.1480154129859E+01
 0.1427672645017E+01
 0.1379699792405E+01
 0.1336537237665E+01
 0.1298492713569E+01
 0.1265860762632E+01
 0.1238908274015E+01
 0.1217864674307E+01
 0.1202919763645E+01
 0.1194227935790E+01
 0.1191907450518E+01
 0.1196025756804E+01
 0.1206574450350E+01
 0.1223442220897E+01
 0.1246390024956E+01
 0.1275025058663E+01
 0.1308770300737E+01
 0.1346832961748E+01
 0.1605936523545E+01
 0.1546275412758E+01
 0.1489977246642E+01
 0.1437332726463E+01
 0.1388707800191E+01
 0.1344494794637E+01
 0.1305081924796E+01
 0.1270832910400E+01
 0.1242071155558E+01
 0.1219067373679E+01
 0.1202033859002E+01
 0.1191126006245E+01
 0.1186441794362E+01
 0.1188010551810E+01
 0.1195772387490E+01
 0.1209554413051E+01
 0.1229048029221E+01
 0.1253783503944E+01
 0.1283097054814E+01
 0.1316091209408E+01
 0.1613725706120E+01
 0.1555176929099E+01
 0.1499284678031E+01
 0.1446447734605E+01
 0.1397137057605E+01
 0.1351840688224E+01
 0.1311030906453E+01
 0.1275142843991E+01
 0.1244557414510E+01
 0.1219586540937E+01
 0.1200464212134E+01
 0.1187345872872E+01
 0.1180308697332E+01
 0.1179344259489E+01
 0.1184342542562E+01
 0.1195071090411E+01
 0.1211153978208E+01
 0.1232046591062E+01
 0.1256999809080E+01
 0.1285008771281E+01
 0.1621133782963E+01
 0.1563683857709E+01
 0.1508164802955E+01
 0.1455092576934E+01
 0.1405050622748E+01
 0.1358628254453E+01
 0.1316385628213E+01
 0.1278831542978E+01
 0.1246405288822E+01
 0.1219459715980E+01
 0.1198249512049E+01
 0.1182929108659E+01
 0.1173554329056E+01
 0.1170079411592E+01
 0.1172345673038E+01
 0.1180063166540E+01
 0.1192790895146E+01
 0.1209911454545E+01
 0.1230591528634E+01
 0.1253714782710E+01
 0.1628281084614E+01
 0.1571902163374E+01
 0.1516708449451E+01
 0.1463343722245E+01
 0.1412512368521E+01
 0.1364911076095E+01
 0.1321191913534E+01
 0.1281939591726E+01
 0.1247652464612E+01
 0.1218723757428E+01
 0.1195427596275E+01
 0.1177916173653E+01
 0.1166223374983E+01
 0.1160266607032E+01
 0.1159840163530E+01
 0.1164598861833E+01
 0.1174039011922E+01
 0.1187472513795E+01
 0.1203982860041E+01
 0.1222337069496E+01
 0.1635292445744E+01
 0.1579941459169E+01
 0.1525009003335E+01
 0.1471279156399E+01
 0.1419586820670E+01
 0.1370742743676E+01
 0.1325495162387E+01
 0.1284506896133E+01
 0.1248335810151E+01
 0.1217414604839E+01
 0.1192035234488E+01
 0.1172346192318E+01
 0.1158358763716E+01
 0.1149954151537E+01
 0.1146881571706E+01
 0.1148743180516E+01
 0.1154975204416E+01
 0.1164821067228E+01
 0.1177282139523E+01
 0.1191003029467E+01
 0.1642297721633E+01
 0.1587915350882E+01
 0.1533162544364E+01
 0.1478978334261E+01
 0.1426338972989E+01
 0.1376176586705E+01
 0.1329340046788E+01
 0.1286572381830E+01
 0.1248491104393E+01
 0.1215567053709E+01
 0.1188107947473E+01
 0.1166256784897E+01
 0.1150001445760E+01
 0.1139187715029E+01
 0.1133522147240E+01
 0.1132557320296E+01
 0.1135672358721E+01
 0.1142044747377E+01
 0.1150595377080E+01
 0.1159840102051E+01
 0.1649432426171E+01
 0.1595941859455E+01
 0.1541268007964E+01
 0.1486522117642E+01
 0.1432834065393E+01
 0.1381265361295E+01
 0.1332770167979E+01
 0.1288173664514E+01
 0.1248152750330E+01
 0.1213214533729E+01
 0.1183679858807E+01
 0.1159683965878E+01
 0.1141190250788E+01
 0.1128010021653E+01
 0.1119810301100E+01
 0.1116098013180E+01
 0.1116198643887E+01
 0.1119226779173E+01
 0.1124025800855E+01
 0.1128977225146E+01
 0.1656838551408E+01
 0.1604143954279E+01
 0.1549427390053E+01
 0.1493992702760E+01
 0.1439137322078E+01
 0.1386060891631E+01
 0.1335827676150E+01
 0.1289346695165E+01
 0.1247353472651E+01
 0.1210388883629E+01
 0.1178783574584E+01
 0.1152662127899E+01
 0.1131961873430E+01
 0.1116460626590E+01
 0.1105790004823E+01
 0.1099416701389E+01
 0.1096616793682E+01
 0.1096445001543E+01
 0.1097672879357E+01
 0.1098545817486E+01
 0.1664665597856E+01
 0.1612650213962E+01
 0.1557745984581E+01
 0.1501473509781E+01
 0.1445313616728E+01
 0.1390613637323E+01
 0.1338552834341E+01
 0.1290125369499E+01
 0.1246123988690E+01
 0.1207120099869E+01
 0.1173450061322E+01
 0.1145224109171E+01
 0.1122351059176E+01
 0.1104575890469E+01
 0.1091500174663E+01
 0.1082558331249E+01
 0.1076983231076E+01
 0.1073771574858E+01
 0.1071629975825E+01
 0.1068679713604E+01
 0.1673071899251E+01
 0.1621595658213E+01
 0.1566332660709E+01
 0.1509049013545E+01
 0.1451427038588E+01
 0.1394972168897E+01
 0.1340983520914E+01
 0.1290541106722E+01
 0.1244492658863E+01
 0.1203436045958E+01
 0.1167708466895E+01
 0.1137401297013E+01
 0.1112391051568E+01
 0.1092389364158E+01
 0.1076974152490E+01
 0.1065559675956E+01
 0.1057346037881E+01
 0.1051273720796E+01
 0.1045984791913E+01
 0.1039502957638E+01
 0.1682226352331E+01
 0.1631122812603E+01
 0.1575300170668E+01
 0.1516804470951E+01
 0.1457540311314E+01
 0.1399182524712E+01
 0.1343154660343E+01
 0.1290622397511E+01
 0.1242485135539E+01
 0.1199362125008E+01
 0.1161585818102E+01
 0.1129223607259E+01
 0.1102114301401E+01
 0.1079932906377E+01
 0.1062239762186E+01
 0.1048446891529E+01
 0.1037741605739E+01
 0.1029011408940E+01
 0.1020828118665E+01
 0.1011113861285E+01
 0.1692310788199E+01
 0.1641383111030E+01
 0.1584765496559E+01
 0.1524825477189E+01
 0.1463714025689E+01
 0.1403287436632E+01
 0.1345097595838E+01
 0.1290394335738E+01
 0.1240124028235E+01
 0.1194921016901E+01
 0.1155106559430E+01
 0.1120719108302E+01
 0.1091553090545E+01
 0.1067239068858E+01
 0.1047320921048E+01
 0.1031232833183E+01
 0.1018187668928E+01
 0.1007034399170E+01
 0.9962499645710E+00
 0.9836229552689E+00
 0.1703523213854E+01
 0.1652538774077E+01
 0.1594850049988E+01
 0.1533197174572E+01
 0.1470005504096E+01
 0.1407325395375E+01
 0.1346839344154E+01
 0.1289878090106E+01
 0.1237428566445E+01
 0.1190132436614E+01
 0.1148292323037E+01
 0.1111912722731E+01
 0.1080739347376E+01
 0.1054344287196E+01
 0.1032243732748E+01
 0.1013915067237E+01
 0.9986715044705E+00
 0.9853703679132E+00
 0.9723486118076E+00
 0.9571480613553E+00
 0.1716082964871E+01
 0.1664765282730E+01
 0.1605679860304E+01
 0.1542002651606E+01
 0.1476467533647E+01
 0.1411329540880E+01
 0.1348401928290E+01
 0.1289090296334E+01
 0.1234414273051E+01
 0.1185013116870E+01
 0.1141161673498E+01
 0.1102826186991E+01
 0.1069699479189E+01
 0.1041292758482E+01
 0.1017048079736E+01
 0.9964852684829E+00
 0.9791248700251E+00
 0.9640004751936E+00
 0.9492361854676E+00
 0.9318904692412E+00
 0.1730238111557E+01
 0.1678256263614E+01
 0.1617383168938E+01
 0.1551321288272E+01
 0.1483145726368E+01
 0.1415327292445E+01
 0.1349801163136E+01
 0.1288042404909E+01
 0.1231092543904E+01
 0.1179576676067E+01
 0.1133730711838E+01
 0.1093476863596E+01
 0.1058456358822E+01
 0.1028111926300E+01
 0.1001825994619E+01
 0.9789521712119E+00
 0.9594108976637E+00
 0.9427615765057E+00
 0.9270663689896E+00
 0.9082129699787E+00
 0.1746288131940E+01
 0.1693221603833E+01
 0.1630093417528E+01
 0.1561217160301E+01
 0.1490082437458E+01
 0.1419337361217E+01
 0.1351046261165E+01
 0.1286739759164E+01
 0.1227470062581E+01
 0.1173833837464E+01
 0.1126013062962E+01
 0.1083880479929E+01
 0.1047022648968E+01
 0.1014830722421E+01
 0.9865932318018E+00
 0.9616247321254E+00
 0.9392076065381E+00
 0.9212143750756E+00
 0.9058871645123E+00
 0.8869599617278E+00
 0.1764583223687E+01
 0.1709948811791E+01
 0.1643874038799E+01
 0.1571773634835E+01
 0.1497301281223E+01
 0.1423373387925E+01
 0.1352138034775E+01
 0.1285179067465E+01
 0.1223549728460E+01
 0.1167791346962E+01
 0.1118020965264E+01
 0.1074050735447E+01
 0.1035411999293E+01
 0.1001443711587E+01
 0.9714147470207E+00
 0.9444008052969E+00
 0.9199137022430E+00
 0.8966071497903E+00
 0.8858868844796E+00
 0.8701673000388E+00
 0.1786193667580E+01
 0.1728274761939E+01
 0.1658970831872E+01
 0.1583000006066E+01
 0.1504832627192E+01
 0.1427436914628E+01
 0.1353069618856E+01
 0.1283348371985E+01
 0.1219319503722E+01
 0.1161468665621E+01
 0.1109752360532E+01
 0.1064002476639E+01
 0.1023645401645E+01
 0.9879456044523E+00
 0.9562286349266E+00
 0.9275318597831E+00
 0.9006130969001E+00
 0.8761465976136E+00
 0.8482554873543E+00
 0.8739028000967E+00
-0.4849078347440E+00
-0.2531886623212E+00
-0.1711041639021E+00
-0.9014946453082E-01
-0.1434919745150E-01
 0.5380471688289E-01
 0.1124885177895E+00
 0.1610839146022E+00
 0.1985141778171E+00
 0.2240458087006E+00
 0.2378984662801E+00
 0.2309948128628E+00
 0.1979845253532E+00
 0.1693371645190E+00
 0.1654928995608E+00
 0.3308570537830E+00
 0.8559358716979E+00
 0.1654840939655E+01
 0.2443406439810E+01
 0.3082707932363E+01
-0.2636719267442E+00
-0.1930631622759E+00
-0.1080979405464E+00
-0.3903266004610E-01
 0.2880801337496E-01
 0.9155072712791E-01
 0.1474964789569E+00
 0.1954845596984E+00
 0.2347487269525E+00
 0.2649355191121E+00
 0.2845265354131E+00
 0.2890259712936E+00
 0.2820240400846E+00
 0.2823909553648E+00
 0.3399330669837E+00
 0.5491770861436E+00
 0.1002771431845E+01
 0.1650442967359E+01
 0.2339815562491E+01
 0.2964624409912E+01
-0.1230475506597E+00
-0.9497363998137E-01
-0.4657907689430E-01
 0.1469588787387E-01
 0.7418466301935E-01
 0.1314733313792E+00
 0.1842705113307E+00
 0.2313799017593E+00
 0.2720581428459E+00
 0.3058627010306E+00
 0.3319544878741E+00
 0.3485463813264E+00
 0.3612359283741E+00
 0.3932931694888E+00
 0.4868815786130E+00
 0.7066278282382E+00
 0.1109085942650E+01
 0.1661588035681E+01
 0.2267715216743E+01
 0.2843270208304E+01
-0.4248012317747E-02
-0.2378698626250E-02
 0.2418662059987E-01
 0.6995048880151E-01
 0.1217307713796E+00
 0.1733078513557E+00
 0.2227476254913E+00
 0.2686420411016E+00
 0.3102459506322E+00
 0.3472812250216E+00
 0.3796794271772E+00
 0.4070703106450E+00
 0.4375834363488E+00
 0.4934491091933E+00
 0.6083992571089E+00
 0.8275923862553E+00
 0.1189612759155E+01
 0.1672678012110E+01
 0.2208804529112E+01
 0.2733682296131E+01
 0.1012642499730E+00
 0.8568206333569E-01
 0.9634027955548E-01
 0.1285414439879E+00
 0.1710848852833E+00
 0.2169215739136E+00
 0.2627664391422E+00
 0.3071368867879E+00
 0.3492646850027E+00
 0.3890932720456E+00
 0.4270937132657E+00
 0.4640758315808E+00
 0.5090984292010E+00
 0.5819949156324E+00
 0.7090610810540E+00
 0.9229831358225E+00
 0.1251386110735E+01
 0.1679327604627E+01
 0.2157084719660E+01
 0.2634272189429E+01
 0.1977195605584E+00
 0.1694360372432E+00
 0.1680875232245E+00
 0.1887780426696E+00
 0.2223733245534E+00
 0.2621013765852E+00
 0.3041732371660E+00
 0.3467277386690E+00
 0.3889946926028E+00
 0.4310738809578E+00
 0.4738357730096E+00
 0.5188012857294E+00
 0.5750294101308E+00
 0.6595404646241E+00
 0.7928203263567E+00
 0.9990460371525E+00
 0.1298499690431E+01
 0.1680906592829E+01
 0.2109136894828E+01
 0.2543253360652E+01
 0.2872380647034E+00
 0.2493847104385E+00
 0.2385704465540E+00
 0.2496360408500E+00
 0.2750241204645E+00
 0.3086847088496E+00
 0.3467865033426E+00
 0.3872621632312E+00
 0.4292703907462E+00
 0.4730041357704E+00
 0.5195539226800E+00
 0.5707909423016E+00
 0.6352258979149E+00
 0.7271967249003E+00
 0.8626970431071E+00
 0.1059878646532E+01
 0.1333853593845E+01
 0.1677624497200E+01
 0.2063277581903E+01
 0.2458870618421E+01
 0.3711034825420E+00
 0.3258981815911E+00
 0.3074329289504E+00
 0.3104154925764E+00
 0.3284790923727E+00
 0.3563460964321E+00
 0.3904103654774E+00
 0.4285629025992E+00
 0.4699129625734E+00
 0.5146675736273E+00
 0.5639848234282E+00
 0.6198254646277E+00
 0.6898880572998E+00
 0.7861195146632E+00
 0.9210404466940E+00
 0.1108414257731E+01
 0.1359612733561E+01
 0.1669997946730E+01
 0.2018605469121E+01
 0.2379812918328E+01
 0.4501531747017E+00
 0.3992540024999E+00
 0.3745073247267E+00
 0.3706609735660E+00
 0.3822576882107E+00
 0.4047274799720E+00
 0.4347971298857E+00
 0.4704351862421E+00
 0.5107363432406E+00
 0.5558724095682E+00
 0.6069522129830E+00
 0.6658590962810E+00
 0.7393779012144E+00
 0.8373905379231E+00
 0.9697182494687E+00
 0.1146868669124E+01
 0.1377471101562E+01
 0.1658610060849E+01
 0.1974664653470E+01
 0.2305126400259E+01
 0.5249674260644E+00
 0.4696573945116E+00
 0.4397112639902E+00
 0.4300636554107E+00
 0.4359739387118E+00
 0.4534839743876E+00
 0.4796779259264E+00
 0.5126653699788E+00
 0.5515554752685E+00
 0.5964565331830E+00
 0.6483541397898E+00
 0.7089558661451E+00
 0.7841239608280E+00
 0.8819835215944E+00
 0.1010247533098E+01
 0.1176980981747E+01
 0.1388791787280E+01
 0.1644035986499E+01
 0.1931249049745E+01
 0.2234136887196E+01
 0.5959654134293E+00
 0.5372622816621E+00
 0.5030004983136E+00
 0.4884057744204E+00
 0.4893207389512E+00
 0.5023056446200E+00
 0.5247850700181E+00
 0.5550335183752E+00
 0.5921904911989E+00
 0.6362865270262E+00
 0.6881439283710E+00
 0.7492448264729E+00
 0.8245703766059E+00
 0.9207627823915E+00
 0.1043883092048E+01
 0.1200154130143E+01
 0.1394696125926E+01
 0.1626813610738E+01
 0.1888298285625E+01
 0.2166373753529E+01
 0.6634598592999E+00
 0.6021860024853E+00
 0.5643484040158E+00
 0.5455268887771E+00
 0.5420525035572E+00
 0.5509223261178E+00
 0.5698669054905E+00
 0.5973252178201E+00
 0.6324718642519E+00
 0.6752535416516E+00
 0.7263130694292E+00
 0.7868895657302E+00
 0.8611505813501E+00
 0.9544919607755E+00
 0.1071678674321E+01
 0.1217544051455E+01
 0.1396122050293E+01
 0.1607434086897E+01
 0.1845835259304E+01
 0.2101512095165E+01
 0.7276900933560E+00
 0.6645196711811E+00
 0.6237366633666E+00
 0.6013039919214E+00
 0.5939705722643E+00
 0.5991020109997E+00
 0.6146952351871E+00
 0.6393403176246E+00
 0.6722445008934E+00
 0.7132694136770E+00
 0.7628776544339E+00
 0.8220680865488E+00
 0.8942737516426E+00
 0.9838454583275E+00
 0.1094531084557E+01
 0.1230119930496E+01
 0.1393864557262E+01
 0.1586339222605E+01
 0.1803926653390E+01
 0.2039328636893E+01
 0.7888431119913E+00
 0.7243353652585E+00
 0.6811511654729E+00
 0.6556396566711E+00
 0.6449123400194E+00
 0.6466469325612E+00
 0.6590681170823E+00
 0.6808980737684E+00
 0.7113704607560E+00
 0.7502635866314E+00
 0.7978686349954E+00
 0.8549594558447E+00
 0.9243177782725E+00
 0.1009419282933E+01
 0.1113213510238E+01
 0.1238707974895E+01
 0.1388605948985E+01
 0.1563921159000E+01
 0.1762654982527E+01
 0.1979666884540E+01
 0.8470674575398E+00
 0.7816911430584E+00
 0.7365803492045E+00
 0.7084549896376E+00
 0.6947434733294E+00
 0.6933892762385E+00
 0.7028099300374E+00
 0.7218395177878E+00
 0.7497303501499E+00
 0.7861809841758E+00
 0.8313253461905E+00
 0.8857351997720E+00
 0.9516243928987E+00
 0.1031739713505E+01
 0.1128400551001E+01
 0.1244027951277E+01
 0.1380941515331E+01
 0.1540524213462E+01
 0.1722093570530E+01
 0.1922406283066E+01
 0.9024825517086E+00
 0.8366344492936E+00
 0.7900148548508E+00
 0.7596854324449E+00
 0.7433525518532E+00
 0.7391871158449E+00
 0.7457700181688E+00
 0.7620278520277E+00
 0.7872238014983E+00
 0.8209806917195E+00
 0.8632920171480E+00
 0.9145541809743E+00
 0.9764960375206E+00
 0.1051263645998E+01
 0.1140688093555E+01
 0.1246723218043E+01
 0.1371415735841E+01
 0.1516447517410E+01
 0.1682281188782E+01
 0.1867420047484E+01
 0.9551843439179E+00
 0.8892048518865E+00
 0.8414473643691E+00
 0.8092790191660E+00
 0.7906470141451E+00
 0.7839211311783E+00
 0.7878202409323E+00
 0.8013477937054E+00
 0.8237690860694E+00
 0.8546356719612E+00
 0.8938164263142E+00
 0.9415616941655E+00
 0.9991939190603E+00
 0.1068377962765E+01
 0.1150577840495E+01
 0.1247407750726E+01
 0.1360559038084E+01
 0.1491995358971E+01
 0.1643164888741E+01
 0.1814514927124E+01
 0.1005250393814E+01
 0.9394326586818E+00
 0.8908765675363E+00
 0.8571932624348E+00
 0.8365525407165E+00
 0.8274903148898E+00
 0.8288528511062E+00
 0.8397030776079E+00
 0.8593033045308E+00
 0.8871320457126E+00
 0.9229517970120E+00
 0.9668902238437E+00
 0.1019943545282E+01
 0.1083396290669E+01
 0.1158471871304E+01
 0.1246549903222E+01
 0.1349116604732E+01
 0.1467499463951E+01
 0.1604642537716E+01
 0.1763154175264E+01
 0.1052723253498E+01
 0.9873586690997E+00
 0.9382904484557E+00
 0.9034111177745E+00
 0.8810029377109E+00
 0.8698119998389E+00
 0.8687766760810E+00
 0.8770146849899E+00
 0.8937772343365E+00
 0.9184764953185E+00
 0.9507533874027E+00
 0.9906674425675E+00
 0.1038938093137E+01
 0.1096579651508E+01
 0.1164656305272E+01
 0.1244474173063E+01
 0.1337380098235E+01
 0.1444743077015E+01
 0.1566045334997E+01
 0.1712176549109E+01
 0.1097753075504E+01
 0.1032874945761E+01
 0.9837925877304E+00
 0.9478862435929E+00
 0.9239550753217E+00
 0.9108142917100E+00
 0.9075169921348E+00
 0.9132155750636E+00
 0.9271557468818E+00
 0.9486762780404E+00
 0.9773300221487E+00
 0.1012977206266E+01
 0.1056356282648E+01
 0.1108160265909E+01
 0.1169362841379E+01
 0.1241309071629E+01
 0.1325439620720E+01
 0.1423075288019E+01
 0.1535263584011E+01
 0.1651718794664E+01
 0.1801054018451E+01
 0.1745484976777E+01
 0.1673714739516E+01
 0.1594331816014E+01
 0.1511843652529E+01
 0.1429795178438E+01
 0.1350798472146E+01
 0.1276794249785E+01
 0.1209068502706E+01
 0.1148266704544E+01
 0.1094441604497E+01
 0.1046994793117E+01
 0.1005342957270E+01
 0.9687824076039E+00
 0.9362861360928E+00
 0.9070389427952E+00
 0.8801262896904E+00
 0.8528328836723E+00
 0.8252907310062E+00
 0.7371269130239E+00
 0.1828262099323E+01
 0.1766493877041E+01
 0.1689187651599E+01
 0.1603004649561E+01
 0.1513645601620E+01
 0.1425000439442E+01
 0.1339995499762E+01
 0.1260712736822E+01
 0.1188447073252E+01
 0.1123746604349E+01
 0.1066445391308E+01
 0.1015827568350E+01
 0.9713451494896E+00
 0.9323717087013E+00
 0.8979452891324E+00
 0.8671927675839E+00
 0.8383009187417E+00
 0.8095536047618E+00
 0.7696225277705E+00
 0.7392491090873E+00
 0.1857486199264E+01
 0.1790600339814E+01
 0.1705966506561E+01
 0.1612071371960E+01
 0.1514911898196E+01
 0.1418947044354E+01
 0.1327384613563E+01
 0.1242443630611E+01
 0.1165399127297E+01
 0.1096662326509E+01
 0.1035889905250E+01
 0.9821595859271E+00
 0.9349691922505E+00
 0.8937569088106E+00
 0.8575270779053E+00
 0.8251973391500E+00
 0.7951823567975E+00
 0.7643887780850E+00
 0.7350509116716E+00
 0.7105816294461E+00
 0.1890353749446E+01
 0.1817278761936E+01
 0.1724332284114E+01
 0.1621426906553E+01
 0.1515468205508E+01
 0.1411376449758E+01
 0.1312689687043E+01
 0.1221738506625E+01
 0.1139739778599E+01
 0.1066934547926E+01
 0.1002754446021E+01
 0.9460415066857E+00
 0.8963193788814E+00
 0.8530663492876E+00
 0.8152266895103E+00
 0.7818098063391E+00
 0.7512019290467E+00
 0.7227831649264E+00
 0.6965652259571E+00
 0.6751874115627E+00
 0.1927444903728E+01
 0.1846901237061E+01
 0.1744233329518E+01
 0.1630990640185E+01
 0.1515062891611E+01
 0.1401973148221E+01
 0.1295586576344E+01
 0.1198322948960E+01
 0.1111283038987E+01
 0.1034471499321E+01
 0.9670375749351E+00
 0.9075432447734E+00
 0.8555246664173E+00
 0.8104893976838E+00
 0.7714008460907E+00
 0.7373484675943E+00
 0.7072501022123E+00
 0.6802336051307E+00
 0.6560672520344E+00
 0.6361295204439E+00
 0.1969444597650E+01
 0.1879791435520E+01
 0.1765727284080E+01
 0.1640579485596E+01
 0.1513378955077E+01
 0.1390342618693E+01
 0.1275695872578E+01
 0.1171895875678E+01
 0.1079838557203E+01
 0.9991969400115E+00
 0.9287608520082E+00
 0.8667649895420E+00
 0.8127451584257E+00
 0.7662523407689E+00
 0.7262776742933E+00
 0.6920591191328E+00
 0.6625247056871E+00
 0.6366725218545E+00
 0.6139163866916E+00
 0.5949800366484E+00
 0.2017145064307E+01
 0.1916330645787E+01
 0.1788855046498E+01
 0.1649956122973E+01
 0.1509992279839E+01
 0.1375997088423E+01
 0.1252573908954E+01
 0.1142132238304E+01
 0.1045225753039E+01
 0.9610637364979E+00
 0.8879822234677E+00
 0.8238397582063E+00
 0.7681629059745E+00
 0.7205490575550E+00
 0.6800308000518E+00
 0.6458782816622E+00
 0.6169796975313E+00
 0.5921465001648E+00
 0.5705730460200E+00
 0.5524791226027E+00
 0.2071517949162E+01
 0.1956963743593E+01
 0.1813640724401E+01
 0.1658786652777E+01
 0.1504347217506E+01
 0.1358329255791E+01
 0.1225708544511E+01
 0.1108694633994E+01
 0.1007292910755E+01
 0.9200720400470E+00
 0.8448057382171E+00
 0.7789334929088E+00
 0.7219649670761E+00
 0.6735557642272E+00
 0.6327696766087E+00
 0.5988761976987E+00
 0.5706876916851E+00
 0.5468538293296E+00
 0.5263687227579E+00
 0.5091023071607E+00
 0.2133790478104E+01
 0.2002228896635E+01
 0.1840074691880E+01
 0.1666596334240E+01
 0.1495706010360E+01
 0.1336586027405E+01
 0.1194521196920E+01
 0.1071256643523E+01
 0.9659451852427E+00
 0.8762895146740E+00
 0.7993897865229E+00
 0.7322418740603E+00
 0.6743441259864E+00
 0.6254352131980E+00
 0.5846268362627E+00
 0.5511711564492E+00
 0.5237997942627E+00
 0.5010031646122E+00
 0.4815885379864E+00
 0.4651885842864E+00
 0.2205560090191E+01
 0.2052798316587E+01
 0.1868088406556E+01
 0.1672696324887E+01
 0.1483078504843E+01
 0.1309839532100E+01
 0.1158384393438E+01
 0.1029543671162E+01
 0.9211824133255E+00
 0.8298721306061E+00
 0.7519510242166E+00
 0.6839868970658E+00
 0.6254962846923E+00
 0.5763523693460E+00
 0.5357479305255E+00
 0.5029124305697E+00
 0.4764894367481E+00
 0.4548042715281E+00
 0.4364830934366E+00
 0.4210071454325E+00
 0.2288973806835E+01
 0.2109540508071E+01
 0.1897504557234E+01
 0.1676064097129E+01
 0.1465122724419E+01
 0.1276965747291E+01
 0.1116668135239E+01
 0.9833989632566E+00
 0.8731449706321E+00
 0.7810797275145E+00
 0.7027602226213E+00
 0.6344071006234E+00
 0.5756160879009E+00
 0.5264696332204E+00
 0.4862845079646E+00
 0.4542599537863E+00
 0.4289370487711E+00
 0.4084606375186E+00
 0.3912788797760E+00
 0.3767846346508E+00
 0.2387023078062E+01
 0.2173615856130E+01
 0.1927935743390E+01
 0.1675141770457E+01
 0.1440010303635E+01
 0.1236652437069E+01
 0.1068839324831E+01
 0.9328801848256E+00
 0.8221587007579E+00
 0.7302755378811E+00
 0.6521245130325E+00
 0.5837413754966E+00
 0.5248867829419E+00
 0.4759400036372E+00
 0.4363852671010E+00
 0.4053752311701E+00
 0.3813228190836E+00
 0.3621683933071E+00
 0.3461824446465E+00
 0.3327178323644E+00
 0.2504052353288E+01
 0.2246625579843E+01
 0.1958569935244E+01
 0.1667490775760E+01
 0.1405259643668E+01
 0.1187489496769E+01
 0.1014648105801E+01
 0.8783819638123E+00
 0.7687540505869E+00
 0.6778962098740E+00
 0.6003547672434E+00
 0.5322102121638E+00
 0.4734701895672E+00
 0.4249002983425E+00
 0.3861904928468E+00
 0.3564170491800E+00
 0.3338250989612E+00
 0.3161166441999E+00
 0.3013826744843E+00
 0.2889781296709E+00
 0.2646693979027E+01
 0.2330837506095E+01
 0.1987706334239E+01
 0.1649183884843E+01
 0.1357593625303E+01
 0.1128245574207E+01
 0.9544461730458E+00
 0.8207342280443E+00
 0.7136215684510E+00
 0.6243807926965E+00
 0.5477317641373E+00
 0.4800013585867E+00
 0.4214998031347E+00
 0.3734657837887E+00
 0.3358284811390E+00
 0.3075408634244E+00
 0.2866220442836E+00
 0.2704894971887E+00
 0.2570516679778E+00
 0.2457115631859E+00
 0.2825697735776E+01
 0.2429545882835E+01
 0.2011644967540E+01
 0.1613797705533E+01
 0.1292969776960E+01
 0.1058605649968E+01
 0.8895683677684E+00
 0.7611870354995E+00
 0.6574286442315E+00
 0.5701057513338E+00
 0.4944840540295E+00
 0.4272664796027E+00
 0.3690764051354E+00
 0.3217245844181E+00
 0.2854131875720E+00
 0.2589010063450E+00
 0.2398969514105E+00
 0.2254693470470E+00
 0.2133452563425E+00
 0.2030348499576E+00
 0.3060065631607E+01
 0.2547312372793E+01
 0.2022232607736E+01
 0.1550476233328E+01
 0.1207800540353E+01
 0.9803942843929E+00
 0.8227442839784E+00
 0.7008293365278E+00
 0.6006968298992E+00
 0.5153416680313E+00
 0.4407965956593E+00
 0.3741252354745E+00
 0.3162622668060E+00
 0.2697294873360E+00
 0.2350416374881E+00
 0.2106580526528E+00
 0.1938462380744E+00
 0.1812440294420E+00
 0.1703998606903E+00
 0.1610317949304E+00
 0.3386315956622E+01
 0.2690972591462E+01
 0.1998225686369E+01
 0.1443641068586E+01
 0.1101338789577E+01
 0.9011640322456E+00
 0.7558174908497E+00
 0.6404341487225E+00
 0.5436877541106E+00
 0.4602960810661E+00
 0.3868332429989E+00
 0.3206721560550E+00
 0.2630696311804E+00
 0.2174785690891E+00
 0.1847972988603E+00
 0.1629896921342E+00
 0.1486972808732E+00
 0.1380061500862E+00
 0.1283434650718E+00
 0.1197276276568E+00
 0.3895289265065E+01
 0.2854842419800E+01
 0.1896176215077E+01
 0.1263700435501E+01
 0.1000232259007E+01
 0.8236262328448E+00
 0.6901262843681E+00
 0.5800794160215E+00
 0.4865745355444E+00
 0.4051442112279E+00
 0.3327693091323E+00
 0.2670038799402E+00
 0.2094086347135E+00
 0.1648898242778E+00
 0.1347565708540E+00
 0.1161356855501E+00
 0.1046945705626E+00
 0.9599057057359E-01
 0.8725718991638E-01
 0.7914605836985E-01
 0.4788257758961E+01
 0.3062892256396E+01
 0.1476803235920E+01
 0.1123990996980E+01
 0.9048860234484E+00
 0.7506755124319E+00
 0.6249199759424E+00
 0.5199201296532E+00
 0.4294322654750E+00
 0.3500068315583E+00
 0.2789440180873E+00
 0.2131833781648E+00
 0.1550628819380E+00
 0.1116169553683E+00
 0.8513240779843E-01
 0.7048495185727E-01
 0.6204003884857E-01
 0.5534954193492E-01
 0.4756094628538E-01
 0.3882187037763E-01
 0.7988331710706E+01
 0.1729113836877E+01
 0.1273596653294E+01
 0.9993175142909E+00
 0.8228872216582E+00
 0.6785638558266E+00
 0.5601933947291E+00
 0.4600790097726E+00
 0.3724640677231E+00
 0.2946187265090E+00
 0.2257777182780E+00
 0.1605301636734E+00
 0.9800356495139E-01
 0.5740213911692E-01
 0.3695503010405E-01
 0.2612916755921E-01
 0.2099187023571E-01
 0.1622747431585E-01
 0.9219186739483E-02
 0.4415785360870E-03
 0.1803883783965E+01
 0.1821081890548E+01
 0.1873090614547E+01
 0.1929920517812E+01
 0.1991227224954E+01
 0.2056150762633E+01
 0.2124683173215E+01
 0.2196923902772E+01
 0.2273083162734E+01
 0.2353450288038E+01
 0.2438403201184E+01
 0.2528423055134E+01
 0.2624113197409E+01
 0.2726216442367E+01
 0.2835612424697E+01
 0.2953289478198E+01
 0.3080077449939E+01
 0.3216646555965E+01
 0.3359777790726E+01
 0.3521414934886E+01
 0.1781629831318E+01
 0.1841345961654E+01
 0.1893672494124E+01
 0.1955636982130E+01
 0.2022557736974E+01
 0.2094309033664E+01
 0.2170660394643E+01
 0.2251729473660E+01
 0.2337739939882E+01
 0.2429009583462E+01
 0.2525933272180E+01
 0.2628982718869E+01
 0.2738705662239E+01
 0.2855716194675E+01
 0.2980669960551E+01
 0.3114174600236E+01
 0.3256754255558E+01
 0.3408230466097E+01
 0.3570438931687E+01
 0.3740022012822E+01
 0.1782341980328E+01
 0.1844196074303E+01
 0.1907819090548E+01
 0.1974404074055E+01
 0.2046775810395E+01
 0.2124436277811E+01
 0.2207504732896E+01
 0.2296112567439E+01
 0.2390517250281E+01
 0.2491046961944E+01
 0.2598091489067E+01
 0.2712090288034E+01
 0.2833520633872E+01
 0.2962878893663E+01
 0.3100642973550E+01
 0.3247239111260E+01
 0.3402910436213E+01
 0.3568075349030E+01
 0.3742196591383E+01
 0.3925185132757E+01
 0.1781367226279E+01
 0.1846677172464E+01
 0.1914462884096E+01
 0.1986527920283E+01
 0.2063547765148E+01
 0.2146289940212E+01
 0.2234941872545E+01
 0.2329773257830E+01
 0.2431076159427E+01
 0.2539193392900E+01
 0.2654504013278E+01
 0.2777412873380E+01
 0.2908335531827E+01
 0.3047677454708E+01
 0.3195811140570E+01
 0.3353035456051E+01
 0.3519610397173E+01
 0.3695571571556E+01
 0.3880947691131E+01
 0.4075463389748E+01
 0.1778423491539E+01
 0.1845649652288E+01
 0.1916628905143E+01
 0.1992178307549E+01
 0.2073088386666E+01
 0.2159858887535E+01
 0.2252935920170E+01
 0.2352652845166E+01
 0.2459354973594E+01
 0.2573399541543E+01
 0.2695159201509E+01
 0.2825012042411E+01
 0.2963328483594E+01
 0.3110455542208E+01
 0.3266697400271E+01
 0.3432308771002E+01
 0.3607460240742E+01
 0.3792285097448E+01
 0.3986844786453E+01
 0.4191198072835E+01
 0.1772767927367E+01
 0.1841245184420E+01
 0.1914156955692E+01
 0.1992114016691E+01
 0.2075688657638E+01
 0.2165404625218E+01
 0.2261697719239E+01
 0.2364971790770E+01
 0.2475603628463E+01
 0.2593967836443E+01
 0.2720435715639E+01
 0.2855369840535E+01
 0.2999113673183E+01
 0.3151979267009E+01
 0.3314236998481E+01
 0.3486103012034E+01
 0.3667744460190E+01
 0.3859279365077E+01
 0.4060867632016E+01
 0.4272797742292E+01
 0.1764322989789E+01
 0.1833368199160E+01
 0.1907321073278E+01
 0.1986640805969E+01
 0.2071831934430E+01
 0.2163370807355E+01
 0.2261706448598E+01
 0.2367257532259E+01
 0.2480426226101E+01
 0.2601600814726E+01
 0.2731157359529E+01
 0.2869454200759E+01
 0.3016823891942E+01
 0.3173564212920E+01
 0.3339929195988E+01
 0.3516124219025E+01
 0.3702301272539E+01
 0.3898566860922E+01
 0.4104969920477E+01
 0.4321815997549E+01
 0.1753106128304E+01
 0.1822141318539E+01
 0.1896369031287E+01
 0.1976184934655E+01
 0.2062041181007E+01
 0.2154392778534E+01
 0.2253682146664E+01
 0.2360338530475E+01
 0.2474777188148E+01
 0.2597400316224E+01
 0.2728594110661E+01
 0.2868723742360E+01
 0.3018126160821E+01
 0.3177102317746E+01
 0.3345910321390E+01
 0.3524759392638E+01
 0.3713805093897E+01
 0.3913135582595E+01
 0.4122735424605E+01
 0.4342144746250E+01
 0.1739207129902E+01
 0.1807731446673E+01
 0.1881589801348E+01
 0.1961154884011E+01
 0.2046850059836E+01
 0.2139112296358E+01
 0.2238379408663E+01
 0.2345084645456E+01
 0.2459654269856E+01
 0.2582504492109E+01
 0.2714037501268E+01
 0.2854635694179E+01
 0.3004654867046E+01
 0.3164417169654E+01
 0.3334204712863E+01
 0.3514254473197E+01
 0.3704753443774E+01
 0.3905828220203E+01
 0.4117517501698E+01
 0.4339500562890E+01
 0.1722712537650E+01
 0.1790203178419E+01
 0.1863058126312E+01
 0.1941637604173E+01
 0.2026345171556E+01
 0.2117603373901E+01
 0.2215843430608E+01
 0.2321500073756E+01
 0.2435007781078E+01
 0.2556797070342E+01
 0.2687289794459E+01
 0.2826893343559E+01
 0.2975993935959E+01
 0.3134949726946E+01
 0.3304084674192E+01
 0.3483684282348E+01
 0.3673993967757E+01
 0.3875226599531E+01
 0.4087570195208E+01
 0.4311561642725E+01
 0.1703686999767E+01
 0.1769541011305E+01
 0.1840683942806E+01
 0.1917462080249E+01
 0.2000259484589E+01
 0.2089482529801E+01
 0.2185552343494E+01
 0.2288900607058E+01
 0.2399966338905E+01
 0.2519192460324E+01
 0.2647021518629E+01
 0.2783890204439E+01
 0.2930222739083E+01
 0.3086423570952E+01
 0.3252870317238E+01
 0.3429908323162E+01
 0.3617850374741E+01
 0.3816984276720E+01
 0.4027638143977E+01
 0.4250256298410E+01
 0.1682247897667E+01
 0.1745832617118E+01
 0.1814529139354E+01
 0.1888661978048E+01
 0.1968591247531E+01
 0.2054701945516E+01
 0.2147398931154E+01
 0.2247104322412E+01
 0.2354255620125E+01
 0.2469303598467E+01
 0.2592709270969E+01
 0.2724939422514E+01
 0.2866460386724E+01
 0.3017730094806E+01
 0.3179188897685E+01
 0.3351250596674E+01
 0.3534295327089E+01
 0.3728670909291E+01
 0.3934688857482E+01
 0.4152534121934E+01
 0.1658548709903E+01
 0.1719257748682E+01
 0.1784803127791E+01
 0.1855479846057E+01
 0.1931616916210E+01
 0.2013570305674E+01
 0.2101720103991E+01
 0.2196469850432E+01
 0.2298246635893E+01
 0.2407501120533E+01
 0.2524706716038E+01
 0.2650357147455E+01
 0.2784961593423E+01
 0.2929036715965E+01
 0.3083095329386E+01
 0.3247632034308E+01
 0.3423107250203E+01
 0.3609927537685E+01
 0.3808409286506E+01
 0.4018726783972E+01
 0.1632762629143E+01
 0.1690042576633E+01
 0.1751791946456E+01
 0.1818268466364E+01
 0.1889761816333E+01
 0.1966589516625E+01
 0.2049096277443E+01
 0.2137655429416E+01
 0.2232671439609E+01
 0.2334582766043E+01
 0.2443864282319E+01
 0.2561028276005E+01
 0.2686622699042E+01
 0.2821225092183E+01
 0.2965430626865E+01
 0.3119833403128E+01
 0.3285000895238E+01
 0.3461441873227E+01
 0.3649572056099E+01
 0.3849688825348E+01
 0.1605074331171E+01
 0.1658435651779E+01
 0.1715817770365E+01
 0.1777433540186E+01
 0.1843524405672E+01
 0.1914358885784E+01
 0.1990233923442E+01
 0.2071478453480E+01
 0.2158458531855E+01
 0.2251583516888E+01
 0.2351312676283E+01
 0.2458161220205E+01
 0.2572704125463E+01
 0.2695575268496E+01
 0.2827458694079E+01
 0.2969068907515E+01
 0.3121119033781E+01
 0.3284280381865E+01
 0.3459143976160E+01
 0.3646198341303E+01
 0.1575675521219E+01
 0.1624696145230E+01
 0.1677219582841E+01
 0.1733406176595E+01
 0.1793440172637E+01
 0.1857529953206E+01
 0.1925911073163E+01
 0.1998851704322E+01
 0.2076660232133E+01
 0.2159694840467E+01
 0.2248374837616E+01
 0.2343193093857E+01
 0.2444728153103E+01
 0.2553653185458E+01
 0.2670736892233E+01
 0.2796829929880E+01
 0.2932831468539E+01
 0.3079637496814E+01
 0.3238082973118E+01
 0.3408901697261E+01
 0.1544761263312E+01
 0.1589087981451E+01
 0.1636343666585E+01
 0.1686629608329E+01
 0.1740064414405E+01
 0.1796785411771E+01
 0.1856952745650E+01
 0.1920756111903E+01
 0.1988424188640E+01
 0.2060237059182E+01
 0.2136541975301E+01
 0.2217772647740E+01
 0.2304471639047E+01
 0.2397313921505E+01
 0.2497126557312E+01
 0.2604893838742E+01
 0.2721733540903E+01
 0.2848833620243E+01
 0.2987359331182E+01
 0.3138360394090E+01
 0.1512527540370E+01
 0.1551875421777E+01
 0.1593537598190E+01
 0.1637551252848E+01
 0.1683962366132E+01
 0.1732827496200E+01
 0.1784218198199E+01
 0.1838228051877E+01
 0.1894982748741E+01
 0.1954653965097E+01
 0.2017478061687E+01
 0.2083780932675E+01
 0.2154010413288E+01
 0.2228777022180E+01
 0.2308901200583E+01
 0.2395457758788E+01
 0.2489789159992E+01
 0.2593450018266E+01
 0.2708062348563E+01
 0.2835132222090E+01
 0.1479168957085E+01
 0.1513320319743E+01
 0.1549146656037E+01
 0.1586618301397E+01
 0.1625703806417E+01
 0.1666371758817E+01
 0.1708594423636E+01
 0.1752353771417E+01
 0.1797650539365E+01
 0.1844517332619E+01
 0.1893037350142E+01
 0.1943371139754E+01
 0.1995794896851E+01
 0.2050755165547E+01
 0.2108945385104E+01
 0.2171406727592E+01
 0.2239637007550E+01
 0.2315613203384E+01
 0.2401617885907E+01
 0.2499863408298E+01
 0.1444876423666E+01
 0.1473678990130E+01
 0.1503510555851E+01
 0.1534273563724E+01
 0.1565857701421E+01
 0.1598140334432E+01
 0.1630988167623E+01
 0.1664260861669E+01
 0.1697817110363E+01
 0.1731524166080E+01
 0.1765272519459E+01
 0.1798998609966E+01
 0.1832720440385E+01
 0.1866594315762E+01
 0.1901006837748E+01
 0.1936723774304E+01
 0.1975126796478E+01
 0.2018526228094E+01
 0.2070156938114E+01
 0.2133504624790E+01
 0.1409838918376E+01
 0.1433208836641E+01
 0.1456972087189E+01
 0.1480965623329E+01
 0.1505003419441E+01
 0.1528873697567E+01
 0.1552337775623E+01
 0.1575130046546E+01
 0.1596959247860E+01
 0.1617511594512E+01
 0.1636456985808E+01
 0.1653460581648E+01
 0.1668204067848E+01
 0.1680425092369E+01
 0.1689991633370E+01
 0.1697048396539E+01
 0.1702307524663E+01
 0.1707679421582E+01
 0.1717393342512E+01
 0.1737630822768E+01
 0.1374259694638E+01
 0.1392189170094E+01
 0.1409901041281E+01
 0.1427175332357E+01
 0.1443758428405E+01
 0.1459357749570E+01
 0.1473637405757E+01
 0.1486213918887E+01
 0.1496651556130E+01
 0.1504457105923E+01
 0.1509074201145E+01
 0.1509877744323E+01
 0.1506169983410E+01
 0.1497182030721E+01
 0.1482090842742E+01
 0.1460075907364E+01
 0.1430496338441E+01
 0.1393375497169E+01
 0.1351332937318E+01
 0.1314621047819E+01
 0.1338326009786E+01
 0.1350873942947E+01
 0.1362632980121E+01
 0.1373338311562E+01
 0.1382681590837E+01
 0.1390303907544E+01
 0.1395788664707E+01
 0.1398653334060E+01
 0.1398339021217E+01
 0.1394196769392E+01
 0.1385469270842E+01
 0.1371266138862E+01
 0.1350530008188E+01
 0.1321989412702E+01
 0.1284092055683E+01
 0.1234911278023E+01
 0.1172012920952E+01
 0.1092352200549E+01
 0.9922230549234E+00
 0.8739339842564E+00
 0.1302214897624E+01
 0.1309496827557E+01
 0.1315472299475E+01
 0.1319845451013E+01
 0.1322269780108E+01
 0.1322339715961E+01
 0.1319581780827E+01
 0.1313443741731E+01
 0.1303280244189E+01
 0.1288333137973E+01
 0.1267704012871E+01
 0.1240315112856E+01
 0.1204852326846E+01
 0.1159679176973E+01
 0.1102701211280E+01
 0.1031137930896E+01
 0.9411086603545E+00
 0.8267643965180E+00
 0.6782343875784E+00
 0.4730412765081E+00
 0.1266096073460E+01
 0.1268278213089E+01
 0.1268701055848E+01
 0.1267053262017E+01
 0.1262969189083E+01
 0.1256019886331E+01
 0.1245703927881E+01
 0.1231436170481E+01
 0.1212532680902E+01
 0.1188189887217E+01
 0.1157455248033E+01
 0.1119185267536E+01
 0.1071983961777E+01
 0.1014109677678E+01
 0.9433274553019E+00
 0.8566600020430E+00
 0.7499318936209E+00
 0.6168048839638E+00
 0.4465146003298E+00
 0.2134174376962E+00
 0.1230131751918E+01
 0.1227425860207E+01
 0.1222580873250E+01
 0.1215286401160E+01
 0.1205178004310E+01
 0.1191828176997E+01
 0.1174738418982E+01
 0.1153329936176E+01
 0.1126931352942E+01
 0.1094761880901E+01
 0.1055908015489E+01
 0.1009291012379E+01
 0.9536209509854E+00
 0.8873306855488E+00
 0.8084785172320E+00
 0.7146016567164E+00
 0.6024865711986E+00
 0.4678590921750E+00
 0.3048345744181E+00
 0.1108975550011E+00
 0.1194475711210E+01
 0.1187135046802E+01
 0.1177353369006E+01
 0.1164838087821E+01
 0.1149246126348E+01
 0.1130175559507E+01
 0.1107159989964E+01
 0.1079662966457E+01
 0.1047070982595E+01
 0.1008684141042E+01
 0.9637037458189E+00
 0.9112162551878E+00
 0.8501734222891E+00
 0.7793696312775E+00
 0.6974212891697E+00
 0.6027642862087E+00
 0.4937295957575E+00
 0.3688694404013E+00
 0.2285295916594E+00
 0.8049512409819E-01
 0.1159274731425E+01
 0.1147589026221E+01
 0.1133239809761E+01
 0.1115968047169E+01
 0.1095470859054E+01
 0.1071393210352E+01
 0.1043325063800E+01
 0.1010800351160E+01
 0.9732963816173E+00
 0.9302331774414E+00
 0.8809730017899E+00
 0.8248213881699E+00
 0.7610327184245E+00
 0.6888269128119E+00
 0.6074314849118E+00
 0.5161814637749E+00
 0.4147513398430E+00
 0.3037007497126E+00
 0.1857091273900E+00
 0.6502205571994E-01
 0.1124667459753E+01
 0.1108958312926E+01
 0.1090438293216E+01
 0.1068897086920E+01
 0.1044088810676E+01
 0.1015722563562E+01
 0.9834619070909E+00
 0.9469287100404E+00
 0.9057091201343E+00
 0.8593609939712E+00
 0.8074236445949E+00
 0.7494321893649E+00
 0.6849408634629E+00
 0.6135631343055E+00
 0.5350424027213E+00
 0.4493771983163E+00
 0.3570334463375E+00
 0.2592747920934E+00
 0.1581610169028E+00
 0.5627435367561E-01
 0.1090788689028E+01
 0.1071402601710E+01
 0.1049121603927E+01
 0.1023799947140E+01
 0.9952651137273E+00
 0.9633029764221E+00
 0.9276598910434E+00
 0.8880522800259E+00
 0.8441787665691E+00
 0.7957342280058E+00
 0.7424266127736E+00
 0.6839988473685E+00
 0.6202596874336E+00
 0.5511290527230E+00
 0.4767050174321E+00
 0.3973572823744E+00
 0.3138410432200E+00
 0.2273318955799E+00
 0.1393129654568E+00
 0.5119800722641E-01
 0.1057776623207E+01
 0.1035072889904E+01
 0.1009426580458E+01
 0.9807850599764E+00
 0.9490666434665E+00
 0.9141406901787E+00
 0.8758377057902E+00
 0.8339652605729E+00
 0.7883261877724E+00
 0.7387375865011E+00
 0.6850513155615E+00
 0.6271778255948E+00
 0.5651157125652E+00
 0.4989892780818E+00
 0.4290941049529E+00
 0.3559450363287E+00
 0.2802999467706E+00
 0.2031312968850E+00
 0.1255141269054E+00
 0.4833023846463E-01
 0.1025798241961E+01
 0.1000101156954E+01
 0.9714224615690E+00
 0.9398519568929E+00
 0.9054092982970E+00
 0.8680492530918E+00
 0.8276801609542E+00
 0.7841889983153E+00
 0.7374659042897E+00
 0.6874268204187E+00
 0.6340349128314E+00
 0.5773220350163E+00
 0.5174116422967E+00
 0.4545429388943E+00
 0.3890934138141E+00
 0.3215907865993E+00
 0.2527040092234E+00
 0.1832035710079E+00
 0.1139066382141E+00
 0.4575257093789E-01
 0.9949905106826E+00
 0.9664969985023E+00
 0.9350239382687E+00
 0.9008131231722E+00
 0.8639981393447E+00
 0.8246135328567E+00
 0.7826315857882E+00
 0.7379997002462E+00
 0.6906723892783E+00
 0.6406372822613E+00
 0.5879351272413E+00
 0.5326763900726E+00
 0.4750553178657E+00
 0.4153611167876E+00
 0.3539826346394E+00
 0.2914023827017E+00
 0.2281744471847E+00
 0.1648930391436E+00
 0.1021663412537E+00
 0.4071965869413E-01
 0.9652548873003E+00
 0.9340976053286E+00
 0.8999880207558E+00
 0.8633690103471E+00
 0.8244895789609E+00
 0.7834484591921E+00
 0.7402575122598E+00
 0.6948963582027E+00
 0.6473566753975E+00
 0.5976693609947E+00
 0.5459218066220E+00
 0.4922673318191E+00
 0.4369305819828E+00
 0.3802083144668E+00
 0.3224643695040E+00
 0.2641142886631E+00
 0.2056027538332E+00
 0.1473686966805E+00
 0.8982332269079E-01
 0.3318545424103E-01
 0.9366791594618E+00
 0.9029045972407E+00
 0.8662574089480E+00
 0.8274359656040E+00
 0.7867992156885E+00
 0.7444806207700E+00
 0.7004874068872E+00
 0.6547970613463E+00
 0.6074079500029E+00
 0.5583703362411E+00
 0.5077938205494E+00
 0.4558487758713E+00
 0.4027635002524E+00
 0.3488184946641E+00
 0.2943357199953E+00
 0.2396656408934E+00
 0.1851583728984E+00
 0.1311427791764E+00
 0.7785829524717E-01
 0.2542550849226E-01
 0.9094085906268E+00
 0.8729236149009E+00
 0.8337464987170E+00
 0.7929003138077E+00
 0.7508428377993E+00
 0.7076555731542E+00
 0.6632867027800E+00
 0.6176575379380E+00
 0.5707541185711E+00
 0.5226295028078E+00
 0.4734007170080E+00
 0.4232392324272E+00
 0.3723617869887E+00
 0.3210201203648E+00
 0.2694910394431E+00
 0.2180603166404E+00
 0.1670255600204E+00
 0.1166328035542E+00
 0.6709587392467E-01
 0.1851810958616E-01
 0.8836092320284E+00
 0.8440427405485E+00
 0.8021727179065E+00
 0.7595121290084E+00
 0.7164331934866E+00
 0.6728855225273E+00
 0.6285838653149E+00
 0.5833909652969E+00
 0.5372707882742E+00
 0.4902782081843E+00
 0.4425319695759E+00
 0.3941973620577E+00
 0.3454720484835E+00
 0.2965747993862E+00
 0.2477337565641E+00
 0.1991850644699E+00
 0.1511455025160E+00
 0.1039300745184E+00
 0.5768290318418E-01
 0.1262611054122E-01
 0.8594620829594E+00
 0.8158171940452E+00
 0.7709629589080E+00
 0.7267197248462E+00
 0.6834364227482E+00
 0.6400998703968E+00
 0.5963210050586E+00
 0.5519006508740E+00
 0.5068124168763E+00
 0.4611215034278E+00
 0.4149508919077E+00
 0.3684578516379E+00
 0.3218190297731E+00
 0.2752184877061E+00
 0.2288404848711E+00
 0.1828552775778E+00
 0.1374568186726E+00
 0.9272254638211E-01
 0.4944185050159E-01
 0.7416243385075E-02
 0.8373020937061E+00
 0.7870929525747E+00
 0.7380634886398E+00
 0.6944744604392E+00
 0.6518576905241E+00
 0.6093686941277E+00
 0.5664959250281E+00
 0.5231168793574E+00
 0.4792454806770E+00
 0.4349739889464E+00
 0.3904331794607E+00
 0.3457731228879E+00
 0.3011498846836E+00
 0.2567160181254E+00
 0.2126102710612E+00
 0.1689594380311E+00
 0.1258289766388E+00
 0.8342003120555E-01
 0.4101201503192E-01
 0.2454850146077E-02
 0.8147404273975E+00
 0.7479452695786E+00
 0.7047363143299E+00
 0.6631345740134E+00
 0.6221655063480E+00
 0.5808947558343E+00
 0.5391758932626E+00
 0.4970041386649E+00
 0.4544657561674E+00
 0.4116828241371E+00
 0.3687944190414E+00
 0.3259435728718E+00
 0.2832683577307E+00
 0.2408936521296E+00
 0.1989249654088E+00
 0.1574315258585E+00
 0.1164709188308E+00
 0.7585030470454E-01
 0.3606556197465E-01
-0.9538075823237E-02
</DataArray>
<DataArray type="Float64" Name="S_Oct" NumberOfComponents="1" ComponentName0="S_Oct" format="ascii">
 0.4765882634867E+01
 0.4298081968425E+01
 0.3906775312433E+01
 0.3742568442609E+01
 0.3604526696227E+01
 0.3491472793831E+01
 0.3387759823034E+01
 0.3289149689736E+01
 0.3192577612566E+01
 0.3096495422074E+01
 0.2999967782062E+01
 0.2902488298628E+01
 0.2803845005172E+01
 0.2704126809870E+01
 0.2603950610010E+01
 0.2505114401700E+01
 0.2406718284598E+01
 0.2301022601761E+01
 0.2181518395565E+01
 0.2048763962504E+01
 0.1906141240916E+01
 0.1756911970737E+01
 0.1603513848634E+01
 0.1447713823108E+01
 0.1290892385939E+01
 0.1134244382957E+01
 0.9789094266672E+00
 0.8266875319200E+00
 0.6803351843260E+00
 0.5426888343618E+00
 0.4163741920095E+00
 0.3041064318212E+00
 0.2087648833682E+00
 0.1333228960077E+00
 0.8067550229532E-01
 0.5300520624122E-01
 0.5232098438526E-01
 0.7675148861958E-01
 0.1429681590861E+00
 0.1967383183541E+00
 0.5666029285048E+00
 0.4024873481093E+01
 0.4151455831460E+01
 0.3843883189834E+01
 0.3645537613235E+01
 0.3508050391563E+01
 0.3390141394905E+01
 0.3284962544231E+01
 0.3185712730553E+01
 0.3089438813962E+01
 0.2994259947100E+01
 0.2899105754183E+01
 0.2803349830368E+01
 0.2706681216113E+01
 0.2609081275758E+01
 0.2510754528331E+01
 0.2411483034142E+01
 0.2309549069319E+01
 0.2201799666664E+01
 0.2085504456579E+01
 0.1960006764497E+01
 0.1826561747971E+01
 0.1687149428193E+01
 0.1543655150242E+01
 0.1397671195346E+01
 0.1250554199592E+01
 0.1103565793676E+01
 0.9580745740232E+00
 0.8157637337499E+00
 0.6786795138188E+00
 0.5490775589484E+00
 0.4292578794242E+00
 0.3215230000040E+00
 0.2281715910203E+00
 0.1514282448560E+00
 0.9326154276594E-01
 0.5541844270618E-01
 0.3871549836569E-01
 0.4367711814691E-01
 0.6350933907722E-01
 0.6387396304880E-01
 0.3255147116639E+00
 0.3570243675701E+01
 0.3840693217192E+01
 0.3720252951530E+01
 0.3536563063106E+01
 0.3400858684382E+01
 0.3284653399160E+01
 0.3179709819725E+01
 0.3081168474885E+01
 0.2985872374723E+01
 0.2892021428768E+01
 0.2798480469012E+01
 0.2704565652659E+01
 0.2609883245670E+01
 0.2514242958367E+01
 0.2417331863475E+01
 0.2318146255507E+01
 0.2215258305822E+01
 0.2107636558170E+01
 0.1994455024988E+01
 0.1875023209817E+01
 0.1749483844761E+01
 0.1618830059608E+01
 0.1484388240960E+01
 0.1347494108725E+01
 0.1209411008707E+01
 0.1071400570961E+01
 0.9348397380993E+00
 0.8012358893751E+00
 0.6722159587213E+00
 0.5495738938500E+00
 0.4352230719289E+00
 0.3310739590411E+00
 0.2389542029484E+00
 0.1605316007214E+00
 0.9727647369458E-01
 0.5055608544511E-01
 0.2271609700000E-01
 0.1847099130637E-01
 0.2955853237146E-01
 0.2370523218012E-01
 0.1944708000553E+00
 0.3246739380595E+01
 0.3536144896816E+01
 0.3539703845457E+01
 0.3409981629042E+01
 0.3284586002618E+01
 0.3173915580119E+01
 0.3071789220828E+01
 0.2975197390060E+01
 0.2881674985520E+01
 0.2789614643049E+01
 0.2697967181438E+01
 0.2606044969032E+01
 0.2513395724163E+01
 0.2419647059616E+01
 0.2324152486440E+01
 0.2225738101114E+01
 0.2123440206971E+01
 0.2017278489832E+01
 0.1907390844459E+01
 0.1793316859926E+01
 0.1674715229610E+01
 0.1551908299189E+01
 0.1425727519797E+01
 0.1297221886344E+01
 0.1167509983725E+01
 0.1037777417796E+01
 0.9093066614680E+00
 0.7834158820570E+00
 0.6614313339161E+00
 0.5447838806411E+00
 0.4350224127105E+00
 0.3337008920589E+00
 0.2422748734751E+00
 0.1620504787023E+00
 0.9423936060774E-01
 0.4057638690224E-01
 0.1681499599904E-01
 0.4075585306621E-01
 0.6523811948005E-01
 0.5091117771079E-01
 0.1053360819365E+00
 0.2994068882859E+01
 0.3264799463662E+01
 0.3337244403351E+01
 0.3264435235249E+01
 0.3159878583200E+01
 0.3058022105505E+01
 0.2960986132685E+01
 0.2867657644598E+01
 0.2776695654272E+01
 0.2686919798426E+01
 0.2597469020051E+01
 0.2507719349381E+01
 0.2417190862374E+01
 0.2325383507560E+01
 0.2231509919716E+01
 0.2134491623284E+01
 0.2033777152251E+01
 0.1929919619520E+01
 0.1823537519902E+01
 0.1714407385023E+01
 0.1602023966816E+01
 0.1486297604609E+01
 0.1367660961883E+01
 0.1246880701456E+01
 0.1124896653127E+01
 0.1002763870952E+01
 0.8816201046127E+00
 0.7625933558396E+00
 0.6467673989014E+00
 0.5352806243486E+00
 0.4293673337347E+00
 0.3302773031554E+00
 0.2391898746506E+00
 0.1572051655885E+00
 0.8555239553519E-01
 0.2815503968264E-01
 0.3461993625799E-01
 0.7316131886981E-01
 0.1006219409770E+00
 0.8459495584352E-01
 0.5269257062981E-01
 0.2784031476227E+01
 0.3026028584244E+01
 0.3132694457951E+01
 0.3106384010272E+01
 0.3027292254081E+01
 0.2937493356949E+01
 0.2847345597226E+01
 0.2758502749258E+01
 0.2670859974009E+01
 0.2583857776478E+01
 0.2496918469825E+01
 0.2409541518451E+01
 0.2321263924473E+01
 0.2231534249545E+01
 0.2139562249757E+01
 0.2044461723367E+01
 0.1946000379876E+01
 0.1844997844786E+01
 0.1742298762930E+01
 0.1637862027191E+01
 0.1531165030797E+01
 0.1421885557034E+01
 0.1310156123122E+01
 0.1196485629388E+01
 0.1081619092253E+01
 0.9664487022598E+00
 0.8519437086876E+00
 0.7390459128401E+00
 0.6286309085434E+00
 0.5215967545413E+00
 0.4189179411550E+00
 0.3216010167237E+00
 0.2306380643725E+00
 0.1470666890497E+00
 0.7251527902281E-01
 0.2103694968286E-01
 0.5933333632959E-01
 0.1045881557743E+00
 0.1328904226042E+00
 0.1196485621291E+00
 0.6942023490647E-01
 0.2601733619283E+01
 0.2814295994127E+01
 0.2934995970691E+01
 0.2942652027116E+01
 0.2888664839141E+01
 0.2812966636216E+01
 0.2731140512922E+01
 0.2647791582660E+01
 0.2564159116038E+01
 0.2480391967148E+01
 0.2396275404147E+01
 0.2311484011908E+01
 0.2225620823536E+01
 0.2138155123158E+01
 0.2048378683119E+01
 0.1955618461347E+01
 0.1859876533559E+01
 0.1762096096445E+01
 0.1663211837837E+01
 0.1563306613138E+01
 0.1461898738280E+01
 0.1358546433813E+01
 0.1253166375624E+01
 0.1146043612903E+01
 0.1037727085518E+01
 0.9289312606564E+00
 0.8204480970128E+00
 0.7130401056093E+00
 0.6073989618648E+00
 0.5042231755940E+00
 0.4042793555713E+00
 0.3083926365077E+00
 0.2174523917911E+00
 0.1325892197955E+00
 0.5661602924790E-01
 0.3170129857633E-01
 0.8624878497554E-01
 0.1353814178973E+00
 0.1645984005838E+00
 0.1563724909847E+00
 0.1165719766449E+00
 0.2438602977118E+01
 0.2624115472518E+01
 0.2747489348217E+01
 0.2778254493926E+01
 0.2746360338377E+01
 0.2685323075647E+01
 0.2612769100320E+01
 0.2535684798781E+01
 0.2456642550105E+01
 0.2376524918490E+01
 0.2295525320823E+01
 0.2213535663861E+01
 0.2130270025487E+01
 0.2045275671588E+01
 0.1957972958151E+01
 0.1867891305023E+01
 0.1775200885906E+01
 0.1680890421888E+01
 0.1585911552549E+01
 0.1490423599094E+01
 0.1394001779195E+01
 0.1296150903944E+01
 0.1196636685099E+01
 0.1095555937680E+01
 0.9932705513383E+00
 0.8903148691302E+00
 0.7873040063409E+00
 0.6848303345229E+00
 0.5834214994190E+00
 0.4836101190548E+00
 0.3860018002021E+00
 0.2912995072307E+00
 0.2003755440631E+00
 0.1146684569191E+00
 0.4057062100680E-01
 0.5330131654953E-01
 0.1146810778638E+00
 0.1664139676491E+00
 0.1971202695358E+00
 0.1945417410249E+00
 0.1651635636333E+00
 0.2289369993614E+01
 0.2451011961773E+01
 0.2570871763642E+01
 0.2616363580088E+01
 0.2602596953768E+01
 0.2555604159535E+01
 0.2492721998416E+01
 0.2422416625646E+01
 0.2348411287952E+01
 0.2272293189917E+01
 0.2194676420947E+01
 0.2115698009327E+01
 0.2035218879746E+01
 0.1952904492003E+01
 0.1868325412438E+01
 0.1781191702700E+01
 0.1691792900834E+01
 0.1601120531842E+01
 0.1510104414174E+01
 0.1418945263915E+01
 0.1327272340241E+01
 0.1234572914684E+01
 0.1140508386475E+01
 0.1045020219020E+01
 0.9482982723885E+00
 0.8507026589336E+00
 0.7526780139689E+00
 0.6546574832296E+00
 0.5570225721294E+00
 0.4601689534768E+00
 0.3645830888338E+00
 0.2709026262725E+00
 0.1800808840308E+00
 0.9426461843652E-01
 0.3199080110748E-01
 0.7919503486780E-01
 0.1445158310296E+00
 0.1982939478560E+00
 0.2309828539911E+00
 0.2338099364394E+00
 0.2121387168976E+00
 0.2150618680207E+01
 0.2291526161080E+01
 0.2404675645321E+01
 0.2458774936992E+01
 0.2459157706009E+01
 0.2424860800296E+01
 0.2371546008430E+01
 0.2308270590778E+01
 0.2239606390135E+01
 0.2167761789108E+01
 0.2093755842545E+01
 0.2017982253431E+01
 0.1940472628416E+01
 0.1861035322446E+01
 0.1779397234254E+01
 0.1695425083612E+01
 0.1609492891911E+01
 0.1522571982580E+01
 0.1435550544707E+01
 0.1348645982772E+01
 0.1261531454654E+01
 0.1173694056900E+01
 0.1084722807142E+01
 0.9944319834387E+00
 0.9028570823889E+00
 0.8101949407816E+00
 0.7167298143127E+00
 0.6227478220413E+00
 0.5285011864125E+00
 0.4342743205724E+00
 0.3404724874422E+00
 0.2477257501316E+00
 0.1572044389255E+00
 0.7272836096534E-01
 0.4159157567384E-01
 0.1076414751074E+00
 0.1757292481800E+00
 0.2313353620789E+00
 0.2662891890432E+00
 0.2739112307497E+00
 0.2576528559807E+00
 0.2020034104183E+01
 0.2143020556543E+01
 0.2247981417154E+01
 0.2306367423049E+01
 0.2317342124470E+01
 0.2294039678360E+01
 0.2249798252432E+01
 0.2193557900503E+01
 0.2130396455952E+01
 0.2063017667717E+01
 0.1992805676879E+01
 0.1920406801262E+01
 0.1846034651094E+01
 0.1769652266036E+01
 0.1691139576443E+01
 0.1610497339808E+01
 0.1528159326503E+01
 0.1445064779971E+01
 0.1362050983298E+01
 0.1279335109184E+01
 0.1196622256924E+01
 0.1113405945219E+01
 0.1029223790412E+01
 0.9437858937203E+00
 0.8569914274485E+00
 0.7688875800211E+00
 0.6796105096151E+00
 0.5893123050986E+00
 0.4981320922285E+00
 0.4062664654263E+00
 0.3140754136372E+00
 0.2222473199540E+00
 0.1324030785555E+00
 0.5288904244078E-01
 0.6407300097507E-01
 0.1380057820516E+00
 0.2082798230674E+00
 0.2656432840780E+00
 0.3029637348916E+00
 0.3146911532739E+00
 0.3022378128441E+00
 0.1895986859019E+01
 0.2003481025940E+01
 0.2099751497444E+01
 0.2159446695717E+01
 0.2178023880017E+01
 0.2163925995293E+01
 0.2128004708227E+01
 0.2078596747205E+01
 0.2020965669557E+01
 0.1958162836429E+01
 0.1891878949093E+01
 0.1822995219600E+01
 0.1751907077045E+01
 0.1678733782034E+01
 0.1603499318979E+01
 0.1526318281679E+01
 0.1447666571042E+01
 0.1368445724045E+01
 0.1289438640490E+01
 0.1210850912012E+01
 0.1132408222310E+01
 0.1053611189186E+01
 0.9739592844985E+00
 0.8930766502223E+00
 0.8107431836609E+00
 0.7268710416501E+00
 0.6414616008805E+00
 0.5545462508994E+00
 0.4661666610767E+00
 0.3764537110246E+00
 0.2857588893188E+00
 0.1949175432772E+00
 0.1064869921830E+00
 0.4222920619578E-01
 0.9186384069267E-01
 0.1699351508875E+00
 0.2420882291943E+00
 0.3011969292301E+00
 0.3408737174571E+00
 0.3560823775659E+00
 0.3463977623251E+00
 0.1777291743486E+01
 0.1871356647760E+01
 0.1958979323547E+01
 0.2017977520202E+01
 0.2041739514207E+01
 0.2035129136539E+01
 0.2006631413400E+01
 0.1963693961387E+01
 0.1911502847675E+01
 0.1853307696230E+01
 0.1791035720240E+01
 0.1725774467598E+01
 0.1658091340860E+01
 0.1588255512947E+01
 0.1516422638130E+01
 0.1442803373314E+01
 0.1367902964933E+01
 0.1292583037759E+01
 0.1217571731458E+01
 0.1143055583497E+01
 0.1068771021302E+01
 0.9942234465038E+00
 0.9188822056662E+00
 0.8422996084631E+00
 0.7641516329209E+00
 0.6842298882128E+00
 0.6024144762056E+00
 0.5186293506053E+00
 0.4328338930402E+00
 0.3451150764791E+00
 0.2558580995923E+00
 0.1661872460393E+00
 0.8079517608040E-01
 0.5058633777716E-01
 0.1223540021891E+00
 0.2031730878037E+00
 0.2770430665887E+00
 0.3379086559149E+00
 0.3798828296010E+00
 0.3980733634226E+00
 0.3905435805792E+00
 0.1663061497315E+01
 0.1745439473226E+01
 0.1824748927365E+01
 0.1881733151493E+01
 0.1908774832480E+01
 0.1908093442661E+01
 0.1886069297445E+01
 0.1849130749844E+01
 0.1802191911831E+01
 0.1748564952482E+01
 0.1690339460869E+01
 0.1628773290355E+01
 0.1564588514950E+01
 0.1498192152721E+01
 0.1429857132942E+01
 0.1359874467498E+01
 0.1288769153625E+01
 0.1217362452839E+01
 0.1146328913617E+01
 0.1075831190013E+01
 0.1005608334563E+01
 0.9351669310444E+00
 0.8639507818657E+00
 0.7914511668326E+00
 0.7172535323962E+00
 0.6410425886945E+00
 0.5625902581038E+00
 0.4817259371926E+00
 0.3983415444453E+00
 0.3125030948849E+00
 0.2246851619729E+00
 0.1365675061746E+00
 0.5844195247695E-01
 0.7332111136497E-01
 0.1545709069918E+00
 0.2375046884731E+00
 0.3130123783706E+00
 0.3756604179545E+00
 0.4198712430029E+00
 0.4406840097502E+00
 0.4349924839501E+00
 0.1552614811352E+01
 0.1624776605925E+01
 0.1696252123746E+01
 0.1750388347307E+01
 0.1779237117312E+01
 0.1783120634361E+01
 0.1766629931758E+01
 0.1735153224158E+01
 0.1693204201344E+01
 0.1644044341464E+01
 0.1589853806748E+01
 0.1532020736473E+01
 0.1471399390015E+01
 0.1408518579341E+01
 0.1343753002667E+01
 0.1277459955303E+01
 0.1210176636362E+01
 0.1142684266323E+01
 0.1075605620520E+01
 0.1009076410654E+01
 0.9428318088644E+00
 0.8763756422159E+00
 0.8091285594947E+00
 0.7405289897403E+00
 0.6700832462222E+00
 0.5973815492676E+00
 0.5220999144884E+00
 0.4439854513600E+00
 0.3628773512086E+00
 0.2788469950066E+00
 0.1925429700546E+00
 0.1067812753589E+00
 0.4751734595485E-01
 0.1021281674650E+00
 0.1880171522421E+00
 0.2727380267028E+00
 0.3498542204747E+00
 0.4143238270714E+00
 0.4607396740410E+00
 0.4839501742143E+00
 0.4799806757060E+00
 0.1445416563171E+01
 0.1508606361234E+01
 0.1572786491554E+01
 0.1623575723470E+01
 0.1653111097748E+01
 0.1660395598060E+01
 0.1648548620775E+01
 0.1621967417843E+01
 0.1584692847714E+01
 0.1539848316879E+01
 0.1489639770190E+01
 0.1435544804350E+01
 0.1378524343180E+01
 0.1319210452914E+01
 0.1258063606677E+01
 0.1195494580933E+01
 0.1132046501849E+01
 0.1068461075658E+01
 0.1005311260663E+01
 0.9427039272171E+00
 0.8803652460971E+00
 0.8177925033785E+00
 0.7543842284146E+00
 0.6895321402043E+00
 0.6226729381985E+00
 0.5533133181395E+00
 0.4810445717037E+00
 0.4055430493163E+00
 0.3266103242773E+00
 0.2443566555434E+00
 0.1597519084796E+00
 0.7823641007059E-01
 0.5702301058492E-01
 0.1336625281710E+00
 0.2223699714452E+00
 0.3086976784390E+00
 0.3874247341407E+00
 0.4537696287743E+00
 0.5024057040024E+00
 0.5279152472529E+00
 0.5256767517069E+00
 0.1341037855330E+01
 0.1396311828787E+01
 0.1453745488231E+01
 0.1500918869957E+01
 0.1530300427802E+01
 0.1540011101614E+01
 0.1531991704780E+01
 0.1509737936908E+01
 0.1476789177708E+01
 0.1436068764401E+01
 0.1389753452315E+01
 0.1339371243368E+01
 0.1285963062268E+01
 0.1230244448662E+01
 0.1172745636155E+01
 0.1113919082389E+01
 0.1054308340028E+01
 0.9946160177274E+00
 0.9353670696313E+00
 0.8766383634995E+00
 0.8181430770216E+00
 0.7593685472922E+00
 0.6996914001782E+00
 0.6384612061433E+00
 0.5750528544464E+00
 0.5088989551632E+00
 0.4395160000816E+00
 0.3665203102791E+00
 0.2896921095056E+00
 0.2092283541802E+00
 0.1267134962247E+00
 0.5474077105417E-01
 0.8086600162241E-01
 0.1666715937242E+00
 0.2573876298411E+00
 0.3452226600815E+00
 0.4255841059290E+00
 0.4938714728132E+00
 0.5447954155042E+00
 0.5726256824822E+00
 0.5721923821390E+00
 0.1239128599860E+01
 0.1287386882706E+01
 0.1338606139192E+01
 0.1382050994017E+01
 0.1410657506848E+01
 0.1421989448802E+01
 0.1417065777343E+01
 0.1398589234273E+01
 0.1369600915551E+01
 0.1332784732532E+01
 0.1290244277310E+01
 0.1243522543504E+01
 0.1193714202578E+01
 0.1141598265099E+01
 0.1087759063294E+01
 0.1032679770343E+01
 0.9768993337031E+00
 0.9210814147530E+00
 0.8657044904158E+00
 0.8108147129002E+00
 0.7561091635253E+00
 0.7010622653603E+00
 0.6450284700116E+00
 0.5873185242777E+00
 0.5272517627251E+00
 0.4641946021238E+00
 0.3975972815132E+00
 0.3270260180656E+00
 0.2522584423862E+00
 0.1736550748928E+00
 0.9409988263560E-01
 0.4654507111040E-01
 0.1105229675826E+00
 0.2005631303582E+00
 0.2928741775977E+00
 0.3821659124974E+00
 0.4642008829012E+00
 0.5345086966518E+00
 0.5878319056212E+00
 0.6181255364032E+00
 0.6195867988142E+00
 0.1139398272142E+01
 0.1181411089532E+01
 0.1226916801760E+01
 0.1266624691054E+01
 0.1294004423472E+01
 0.1306300466055E+01
 0.1303827315627E+01
 0.1288608580520E+01
 0.1263211850579E+01
 0.1230061102429E+01
 0.1191153747945E+01
 0.1148017147170E+01
 0.1101775051736E+01
 0.1053250525906E+01
 0.1003066997161E+01
 0.9517281363125E+00
 0.8997635536150E+00
 0.8477977901741E+00
 0.7962640280414E+00
 0.7451772427476E+00
 0.6942159934004E+00
 0.6428392476326E+00
 0.5903787148453E+00
 0.5361086477667E+00
 0.4792976752880E+00
 0.4192523586370E+00
 0.3553637300803E+00
 0.2871570159267E+00
 0.2144308203404E+00
 0.1378499211364E+00
 0.6358339960080E-01
 0.6100312500657E-01
 0.1425872809348E+00
 0.2349894618845E+00
 0.3286639680294E+00
 0.4193938066472E+00
 0.5031555737317E+00
 0.5755692643843E+00
 0.6314301042144E+00
 0.6644403611620E+00
 0.6678483685690E+00
 0.1041602117068E+01
 0.1078031004242E+01
 0.1118286047088E+01
 0.1154316372565E+01
 0.1180147363779E+01
 0.1192875926146E+01
 0.1192291841676E+01
 0.1179849986994E+01
 0.1157682614369E+01
 0.1127948079218E+01
 0.1092514705555E+01
 0.1052868916525E+01
 0.1010141277468E+01
 0.9651806832851E+00
 0.9186355611776E+00
 0.8710205822608E+00
 0.8228515113486E+00
 0.7747132779084E+00
 0.7269945989981E+00
 0.6796789322843E+00
 0.6324243877663E+00
 0.5846722947835E+00
 0.5357308475710E+00
 0.4848392943036E+00
 0.4312190958691E+00
 0.3741216977116E+00
 0.3128842574127E+00
 0.2469991813747E+00
 0.1763187755121E+00
 0.1021149244383E+00
 0.4128734044391E-01
 0.8781356647172E-01
 0.1757853570962E+00
 0.2697127127979E+00
 0.3646140083702E+00
 0.4567854528427E+00
 0.5423411815080E+00
 0.6169607933900E+00
 0.6754805603793E+00
 0.7116329266949E+00
 0.7166801282072E+00
 0.9455310760942E+00
 0.9769460853071E+00
 0.1012372996981E+01
 0.1044827553085E+01
 0.1068886316246E+01
 0.1081620830677E+01
 0.1082442167152E+01
 0.1072338541400E+01
 0.1053052245173E+01
 0.1026481376124E+01
 0.9943510729912E+00
 0.9580868950124E+00
 0.9188068410191E+00
 0.8773690367961E+00
 0.8344339182064E+00
 0.7905183919507E+00
 0.7461200792796E+00
 0.7017835311111E+00
 0.6578534991356E+00
 0.6142816143332E+00
 0.5707039605071E+00
 0.5265423160915E+00
 0.4810804069041E+00
 0.4335232078010E+00
 0.3830472705548E+00
 0.3288519331377E+00
 0.2702236529841E+00
 0.2066286846704E+00
 0.1380240286161E+00
 0.6712023534477E-01
 0.4344261822854E-01
 0.1189550859934E+00
 0.2095337664748E+00
 0.3045535578834E+00
 0.4005989196083E+00
 0.4942336079881E+00
 0.5816590936640E+00
 0.6586155647288E+00
 0.7199037889222E+00
 0.7595506566222E+00
 0.7670942538888E+00
 0.8510043054632E+00
 0.8778979782021E+00
 0.9088791239232E+00
 0.9378843575295E+00
 0.9600214502516E+00
 0.9724220762802E+00
 0.9742355577293E+00
 0.9660748025355E+00
 0.9493402844096E+00
 0.9256829802531E+00
 0.8966780726493E+00
 0.8636754231221E+00
 0.8277641867527E+00
 0.7897970167621E+00
 0.7504346184976E+00
 0.7101881382425E+00
 0.6695329934899E+00
 0.6289723803347E+00
 0.5888072942413E+00
 0.5489572055817E+00
 0.5090348200062E+00
 0.4684406241444E+00
 0.4264327212307E+00
 0.3821818082422E+00
 0.3348204686726E+00
 0.2834969193052E+00
 0.2274469859472E+00
 0.1661140531510E+00
 0.9965178608913E-01
 0.3575255684845E-01
 0.6786714020887E-01
 0.1517318444819E+00
 0.2435071596357E+00
 0.3393683271994E+00
 0.4365087312452E+00
 0.5316404500260E+00
 0.6210306527590E+00
 0.7004445615505E+00
 0.7647820418676E+00
 0.8076821636541E+00
 0.8214598505002E+00
 0.7578635323466E+00
 0.7806622783234E+00
 0.8075413837089E+00
 0.8332360833554E+00
 0.8533571812433E+00
 0.8651550294961E+00
 0.8676098340747E+00
 0.8610390635461E+00
 0.8465492421219E+00
 0.8255624419217E+00
 0.7995029603998E+00
 0.7696347281660E+00
 0.7370048945719E+00
 0.7024479793424E+00
 0.6666145756363E+00
 0.6300028946761E+00
 0.5930623864839E+00
 0.5562537898192E+00
 0.5198343138984E+00
 0.4836908737888E+00
 0.4474115675027E+00
 0.4103739248886E+00
 0.3718090333697E+00
 0.3308525702388E+00
 0.2865926921559E+00
 0.2381249690854E+00
 0.1846295960129E+00
 0.1255209527214E+00
 0.6136071573764E-01
 0.2761250134061E-01
 0.9924221783939E-01
 0.1851651067223E+00
 0.2774951352353E+00
 0.3740378722318E+00
 0.4722456001257E+00
 0.5689207745237E+00
 0.6603761071723E+00
 0.7424208201034E+00
 0.8099649476640E+00
 0.8568018174089E+00
 0.8766170485636E+00
 0.6659687366345E+00
 0.6850421362962E+00
 0.7081265035174E+00
 0.7306533239584E+00
 0.7487046618361E+00
 0.7596884966953E+00
 0.7624885475082E+00
 0.7571954430805E+00
 0.7446673916904E+00
 0.7261187359790E+00
 0.7028264314388E+00
 0.6759622503486E+00
 0.6465211645680E+00
 0.6153089976204E+00
 0.5829572863019E+00
 0.5499450272982E+00
 0.5166923279890E+00
 0.4836163457174E+00
 0.4509303002269E+00
 0.4184880837707E+00
 0.3858520097565E+00
 0.3523750046862E+00
 0.3172595294214E+00
 0.2796048791957E+00
 0.2384530447537E+00
 0.1928425438523E+00
 0.1418844728931E+00
 0.8492893101484E-01
 0.2388577523396E-01
 0.5432207764951E-01
 0.1325985845735E+00
 0.2188099508026E+00
 0.3113471216365E+00
 0.4084609328967E+00
 0.5077230359170E+00
 0.6059960003076E+00
 0.6996332810173E+00
 0.7844805259031E+00
 0.8555012162805E+00
 0.9067852021333E+00
 0.9325351519422E+00
 0.5751948036883E+00
 0.5908632453842E+00
 0.6104262454845E+00
 0.6299259604718E+00
 0.6458832496147E+00
 0.6558885467274E+00
 0.6587854842507E+00
 0.6544959459723E+00
 0.6436720588317E+00
 0.6273429736933E+00
 0.6066451336747E+00
 0.5826553238197E+00
 0.5563089656413E+00
 0.5283747370151E+00
 0.4994577013817E+00
 0.4700123807352E+00
 0.4404267085146E+00
 0.4110732700446E+00
 0.3821210253982E+00
 0.3533903473577E+00
 0.3244166659423E+00
 0.2945267972427E+00
 0.2628931303446E+00
 0.2285774682606E+00
 0.1905743243730E+00
 0.1478608093671E+00
 0.9945877925861E-01
 0.4453651787695E-01
 0.1858046651539E-01
 0.8842186569504E-01
 0.1665946176905E+00
 0.2524222290643E+00
 0.3449479591320E+00
 0.4425503873283E+00
 0.5428634682927E+00
 0.6427964039526E+00
 0.7387403796153E+00
 0.8265812578241E+00
 0.9013766550883E+00
 0.9574710131184E+00
 0.9892615626962E+00
 0.4854288986974E+00
 0.4979698759368E+00
 0.5142534831860E+00
 0.5308612197065E+00
 0.5447214059107E+00
 0.5536216876252E+00
 0.5564089587598E+00
 0.5528849717337E+00
 0.5435340167093E+00
 0.5292228162183E+00
 0.5109564647103E+00
 0.4897167997486E+00
 0.4663749539544E+00
 0.4416561858435E+00
 0.4161333826030E+00
 0.3902326203147E+00
 0.3643076946664E+00
 0.3386860703374E+00
 0.3134923607078E+00
 0.2885131407971E+00
 0.2632563413129E+00
 0.2370222080281E+00
 0.2089538759062E+00
 0.1780796001189E+00
 0.1433571756270E+00
 0.1037312466021E+00
 0.5824332164819E-01
 0.8536230881242E-02
 0.5544594445658E-01
 0.1237964277976E+00
 0.2007399854660E+00
 0.2858484141172E+00
 0.3782058642836E+00
 0.4762304407477E+00
 0.5775974150578E+00
 0.6792578525862E+00
 0.7776407743173E+00
 0.8686800001470E+00
 0.9475381666315E+00
 0.1008751976183E+01
 0.1046799392059E+01
 0.3965683855571E+00
 0.4062217116036E+00
 0.4194389546807E+00
 0.4332819687737E+00
 0.4450575329040E+00
 0.4527581714747E+00
 0.4552669197610E+00
 0.4523056292401E+00
 0.4442248329305E+00
 0.4317511068258E+00
 0.4157690561547E+00
 0.3971681745955E+00
 0.3767532512252E+00
 0.3552023597257E+00
 0.3330527722529E+00
 0.3107001747975E+00
 0.2884639967273E+00
 0.2666273272942E+00
 0.2452713571356E+00
 0.2241499325846E+00
 0.2027454832779E+00
 0.1803369520729E+00
 0.1560522047039E+00
 0.1289224657853E+00
 0.9797416890291E-01
 0.6253452243726E-01
 0.2544783771498E-01
 0.3844718504802E-01
 0.9344813432500E-01
 0.1594428010521E+00
 0.2348047941606E+00
 0.3189827489748E+00
 0.4110458147758E+00
 0.5094347604795E+00
 0.6118621047918E+00
 0.7153211200441E+00
 0.8162810063909E+00
 0.9107281314712E+00
 0.9939248854858E+00
 0.1060550146062E+01
 0.1105132174007E+01
 0.3085191663512E+00
 0.3154913102111E+00
 0.3258285941376E+00
 0.3370255484697E+00
 0.3467417457535E+00
 0.3531773192614E+00
 0.3552758511803E+00
 0.3527122053635E+00
 0.3457332744412E+00
 0.3349471268425E+00
 0.3211303955562E+00
 0.3050857645434E+00
 0.2875531849919E+00
 0.2691636984424E+00
 0.2504197479617E+00
 0.2316892637325E+00
 0.2132618588408E+00
 0.1953814649998E+00
 0.1780913248452E+00
 0.1611205532251E+00
 0.1439420558911E+00
 0.1258505602632E+00
 0.1060511713897E+00
 0.8383593354967E-01
 0.5920827195465E-01
 0.3666044714594E-01
 0.4087185529593E-01
 0.7868483672825E-01
 0.1314852827796E+00
 0.1950643642104E+00
 0.2686615999850E+00
 0.3517481939359E+00
 0.4434056366321E+00
 0.5421050066563E+00
 0.6456004649405E+00
 0.7509310155082E+00
 0.8546090435589E+00
 0.9526742989429E+00
 0.1040477377129E+01
 0.1112804615314E+01
 0.1164232667474E+01
 0.2211943704820E+00
 0.2256620792158E+00
 0.2332814358951E+00
 0.2419442184304E+00
 0.2496420358967E+00
 0.2547818821441E+00
 0.2563851267043E+00
 0.2541063381418E+00
 0.2481159272231E+00
 0.2389257381230E+00
 0.2272206438996E+00
 0.2137282114872E+00
 0.1991334383947E+00
 0.1840312128772E+00
 0.1689033824673E+00
 0.1541094260944E+00
 0.1399331743137E+00
 0.1266048390360E+00
 0.1141578582554E+00
 0.1023417271238E+00
 0.9071493414652E-01
 0.7881205957348E-01
 0.6647653608735E-01
 0.5475209359466E-01
 0.4817126082683E-01
 0.5561069319974E-01
 0.8045606810779E-01
 0.1191710665847E+00
 0.1694295410440E+00
 0.2305382730196E+00
 0.3022322447863E+00
 0.3840869934902E+00
 0.4752335122011E+00
 0.5741896928543E+00
 0.6787602820870E+00
 0.7860355068944E+00
 0.8925738712568E+00
 0.9944667623854E+00
 0.1087140111960E+01
 0.1165464032054E+01
 0.1224067252981E+01
 0.1345134729138E+00
 0.1366268329967E+00
 0.1416685834991E+00
 0.1479135856769E+00
 0.1536747094936E+00
 0.1575619271068E+00
 0.1586847263782E+00
 0.1567006191207E+00
 0.1517339099722E+00
 0.1442336179998E+00
 0.1348291643375E+00
 0.1242157155350E+00
 0.1130782385067E+00
 0.1020490345592E+00
 0.9168618478297E-01
 0.8245947358072E-01
 0.7476598645405E-01
 0.6888888672630E-01
 0.6483967004376E-01
 0.6235601963030E-01
 0.6113178278104E-01
 0.6112532583896E-01
 0.6289163603715E-01
 0.6783710189285E-01
 0.7810082075967E-01
 0.9587958436421E-01
 0.1227601497353E+00
 0.1596858963033E+00
 0.2072450564832E+00
 0.2658045337000E+00
 0.3354666039004E+00
 0.4159555804766E+00
 0.5064863091276E+00
 0.6056432926003E+00
 0.7112934745984E+00
 0.8205850822516E+00
 0.9301254855154E+00
 0.1036054618217E+01
 0.1133861425048E+01
 0.1218482347019E+01
 0.1284598710505E+01
 0.4840407428501E-01
 0.4828952437992E-01
 0.5088190731419E-01
 0.5494121082843E-01
 0.5913166307643E-01
 0.6224429763649E-01
 0.6348432818203E-01
 0.6258209578210E-01
 0.5975688164059E-01
 0.5562346000138E-01
 0.5109774963139E-01
 0.4729317385265E-01
 0.4531439048891E-01
 0.4587039981321E-01
 0.4894517267701E-01
 0.5393020308958E-01
 0.6004700661342E-01
 0.6661201123961E-01
 0.7316541147021E-01
 0.7953274755254E-01
 0.8580430933057E-01
 0.9233133442096E-01
 0.9977755112921E-01
 0.1092022191895E+00
 0.1221018837117E+00
 0.1403161574551E+00
 0.1657725694070E+00
 0.2001955463737E+00
 0.2449223800223E+00
 0.3008332288465E+00
 0.3683329205796E+00
 0.4473216290934E+00
 0.5371284225112E+00
 0.6364255311211E+00
 0.7431554887949E+00
 0.8545322851580E+00
 0.9672148862501E+00
 0.1077388187160E+01
 0.1180592721645E+01
 0.1271816501374E+01
 0.1345788195868E+01
 0.3723342795073E-01
 0.3947469537400E-01
 0.3929890413051E-01
 0.3833636963298E-01
 0.3811890727588E-01
 0.3956714406444E-01
 0.4286962389238E-01
 0.4779433467948E-01
 0.5402928042966E-01
 0.6129040801323E-01
 0.6929591789205E-01
 0.7774383292155E-01
 0.8632634394625E-01
 0.9476163440878E-01
 0.1028233163858E+00
 0.1103588828769E+00
 0.1172604941938E+00
 0.1234399721172E+00
 0.1289178132627E+00
 0.1338926710366E+00
 0.1387183283662E+00
 0.1438970875984E+00
 0.1501165860278E+00
 0.1583203146088E+00
 0.1697783285020E+00
 0.1860987279626E+00
 0.2091211468190E+00
 0.2407015862414E+00
 0.2824655616695E+00
 0.3356124323737E+00
 0.4008129628264E+00
 0.4781622675806E+00
 0.5671309616898E+00
 0.6665008298562E+00
 0.7743048078338E+00
 0.8878313394108E+00
 0.1003793954284E+01
 0.1118418917611E+01
 0.1227287588320E+01
 0.1325425245527E+01
 0.1407596671719E+01
 0.1224166100917E+00
 0.1266989238854E+00
 0.1287895838137E+00
 0.1297667794248E+00
 0.1306720914762E+00
 0.1322947565897E+00
 0.1350815009189E+00
 0.1391524090170E+00
 0.1443775511411E+00
 0.1504698662087E+00
 0.1570679760987E+00
 0.1638001224068E+00
 0.1703292554300E+00
 0.1763822496050E+00
 0.1817671555032E+00
 0.1863812802078E+00
 0.1901774814955E+00
 0.1931383821197E+00
 0.1953606236701E+00
 0.1971182109289E+00
 0.1988345354544E+00
 0.2010646830876E+00
 0.2045133112448E+00
 0.2100845546786E+00
 0.2189465671345E+00
 0.2325728288633E+00
 0.2527065891974E+00
 0.2812202604605E+00
 0.3198883586006E+00
 0.3701430315627E+00
 0.4328994245734E+00
 0.5084629697876E+00
 0.5964711865690E+00
 0.6958378826546E+00
 0.8047025537025E+00
 0.9204378114617E+00
 0.1039815212878E+01
 0.1159099048807E+01
 0.1273901024051E+01
 0.1379268571003E+01
 0.1469985983331E+01
 0.2072424180091E+00
 0.2135014299824E+00
 0.2178135555475E+00
 0.2209593667576E+00
 0.2237094830340E+00
 0.2266667085746E+00
 0.2301879465915E+00
 0.2343793860331E+00
 0.2391414334016E+00
 0.2442363680290E+00
 0.2493576003209E+00
 0.2541883583475E+00
 0.2584451808388E+00
 0.2619066490581E+00
 0.2644305147269E+00
 0.2659621467202E+00
 0.2665055960368E+00
 0.2661016477001E+00
 0.2649038999640E+00
 0.2632358878387E+00
 0.2615656291687E+00
 0.2604864434290E+00
 0.2607262813808E+00
 0.2631845108013E+00
 0.2689869814434E+00
 0.2795355113026E+00
 0.2965089969164E+00
 0.3217774271250E+00
 0.3572128465035E+00
 0.4044362762048E+00
 0.4645944785704E+00
 0.5382168777985E+00
 0.6251321382776E+00
 0.7244093486879E+00
 0.8343121657428E+00
 0.9523082891339E+00
 0.1075231507949E+01
 0.1199381175609E+01
 0.1320388823418E+01
 0.1433307462374E+01
 0.1532919666821E+01
 0.2917675949196E+00
 0.2999563129665E+00
 0.3064469231865E+00
 0.3117650392853E+00
 0.3164424399195E+00
 0.3208978934624E+00
 0.3253731900174E+00
 0.3299235772482E+00
 0.3344481157767E+00
 0.3387407702656E+00
 0.3425455144004E+00
 0.3456046436460E+00
 0.3476954616111E+00
 0.3486550478236E+00
 0.3483954471653E+00
 0.3469116931718E+00
 0.3442579167702E+00
 0.3405296541909E+00
 0.3359306156126E+00
 0.3308230927246E+00
 0.3257071368346E+00
 0.3212038549106E+00
 0.3180617173167E+00
 0.3171857975808E+00
 0.3196851642629E+00
 0.3269236415188E+00
 0.3405412183404E+00
 0.3624069190645E+00
 0.3944688608949E+00
 0.4385125588262E+00
 0.4959089768876E+00
 0.5674244217411E+00
 0.6531024315787E+00
 0.7521916522388E+00
 0.8630991459597E+00
 0.9834000726943E+00
 0.1109995642007E+01
 0.1239217785836E+01
 0.1366707085460E+01
 0.1487503801555E+01
 0.1596363560345E+01
 0.3760514646275E+00
 0.3861394450968E+00
 0.3947799213818E+00
 0.4022638438775E+00
 0.4088990976214E+00
 0.4149234013003E+00
 0.4204556528700E+00
 0.4254869449921E+00
 0.4299019015969E+00
 0.4335165886199E+00
 0.4361203281703E+00
 0.4375128604236E+00
 0.4375328393023E+00
 0.4360772925177E+00
 0.4331138153707E+00
 0.4286874163775E+00
 0.4229013785693E+00
 0.4159037463429E+00
 0.4079441755811E+00
 0.3994172083165E+00
 0.3908468110377E+00
 0.3828739617196E+00
 0.3762628949729E+00
 0.3719263692919E+00
 0.3709677023644E+00
 0.3747308155476E+00
 0.3848337851315E+00
 0.4031499441908E+00
 0.4316937936861E+00
 0.4724008199759E+00
 0.5268620499257E+00
 0.5960931619371E+00
 0.6803761902612E+00
 0.7791648844142E+00
 0.8910308678557E+00
 0.1013670882553E+01
 0.1144059987786E+01
 0.1278560799888E+01
 0.1412811808178E+01
 0.1541820333548E+01
 0.1660286270784E+01
 0.4601519218822E+00
 0.4721244924682E+00
 0.4829009999906E+00
 0.4925502962844E+00
 0.5011656262787E+00
 0.5088061790793E+00
 0.5154643459667E+00
 0.5210600210226E+00
 0.5254558301607E+00
 0.5284838312708E+00
 0.5299748065993E+00
 0.5297841348776E+00
 0.5278114842321E+00
 0.5240142213199E+00
 0.5184159288215E+00
 0.5111115294606E+00
 0.5022526252657E+00
 0.4920380498903E+00
 0.4807604055053E+00
 0.4688418794062E+00
 0.4568244454122E+00
 0.4453626955881E+00
 0.4352317408785E+00
 0.4273508237058E+00
 0.4228219610006E+00
 0.4229790002007E+00
 0.4294290716084E+00
 0.4440548830525E+00
 0.4689325743933E+00
 0.5061383081749E+00
 0.5574809738011E+00
 0.6242378108073E+00
 0.7069531158303E+00
 0.8053128063701E+00
 0.9180764505717E+00
 0.1043078590798E+01
 0.1177376097921E+01
 0.1317361120434E+01
 0.1458658532518E+01
 0.1596220644181E+01
 0.1724659541301E+01
 0.5441254904956E+00
 0.5579831295469E+00
 0.5708963605081E+00
 0.5827201223639E+00
 0.5933390288217E+00
 0.6026355730403E+00
 0.6104736479042E+00
 0.6166977346264E+00
 0.6211437873292E+00
 0.6236559709501E+00
 0.6241039763376E+00
 0.6223975738589E+00
 0.6184971407864E+00
 0.6124205356551E+00
 0.6042474727047E+00
 0.5941225390722E+00
 0.5822448172708E+00
 0.5688624263326E+00
 0.5543084523250E+00
 0.5390290358980E+00
 0.5235793821545E+00
 0.5086224039013E+00
 0.4949393625446E+00
 0.4834533996353E+00
 0.4752663402847E+00
 0.4717070964577E+00
 0.4743787450406E+00
 0.4851772703289E+00
 0.5062377658753E+00
 0.5397705640884E+00
 0.5878012350846E+00
 0.6518804104889E+00
 0.7328386862702E+00
 0.8306229577435E+00
 0.9442067039050E+00
 0.1071580984508E+01
 0.1209894319800E+01
 0.1355568189455E+01
 0.1504202006627E+01
 0.1650669126243E+01
 0.1789458543321E+01
 0.6280275979911E+00
 0.6437854727507E+00
 0.6588503600684E+00
 0.6728682491318E+00
 0.6855186841459E+00
 0.6965085128789E+00
 0.7055719469506E+00
 0.7124756305536E+00
 0.7170262348275E+00
 0.7190779570942E+00
 0.7185381469775E+00
 0.7153704785913E+00
 0.7095960475529E+00
 0.7012933772877E+00
 0.6905983356686E+00
 0.6777047882388E+00
 0.6628583949841E+00
 0.6463551142892E+00
 0.6285662891950E+00
 0.6099587629388E+00
 0.5910967737301E+00
 0.5726467813387E+00
 0.5553915857622E+00
 0.5402549019373E+00
 0.5283375499474E+00
 0.5209657456767E+00
 0.5197425710870E+00
 0.5265798772258E+00
 0.5436697422773E+00
 0.5733515617941E+00
 0.6178667528780E+00
 0.6790506533428E+00
 0.7580444865740E+00
 0.8550868777421E+00
 0.9693941528493E+00
 0.1099135568926E+01
 0.1241563420151E+01
 0.1393129545504E+01
 0.1549395848792E+01
 0.1705130920548E+01
 0.1854662119846E+01
 0.7119128757227E+00
 0.7296005330679E+00
 0.7468460414317E+00
 0.7630886679318E+00
 0.7778043214455E+00
 0.7905244166640E+00
 0.8008527715722E+00
 0.8084771429954E+00
 0.8131740469086E+00
 0.8148072898622E+00
 0.8133219237240E+00
 0.8087358830452E+00
 0.8011314253362E+00
 0.7906480426881E+00
 0.7774777311954E+00
 0.7618631360386E+00
 0.7440954978216E+00
 0.7245171458971E+00
 0.7035355359869E+00
 0.6816351628270E+00
 0.6593853795325E+00
 0.6374516691082E+00
 0.6166137730251E+00
 0.5977921509249E+00
 0.5820845454517E+00
 0.5708147540597E+00
 0.5655878410379E+00
 0.5683328575604E+00
 0.5812969324732E+00
 0.6069439705974E+00
 0.6477302352529E+00
 0.7057863396447E+00
 0.7825886767071E+00
 0.8787004499264E+00
 0.9936131531873E+00
 0.1125699419129E+01
 0.1272330221504E+01
 0.1429990372791E+01
 0.1594192192450E+01
 0.1759571826141E+01
 0.1920252999471E+01
 0.7958354616600E+00
 0.8154966666264E+00
 0.8349656873331E+00
 0.8534747715661E+00
 0.8702956322293E+00
 0.8847835914442E+00
 0.8964116804384E+00
 0.9047889163367E+00
 0.9096623981320E+00
 0.9109067149693E+00
 0.9085059665023E+00
 0.9025335955555E+00
 0.8931339580019E+00
 0.8805080012793E+00
 0.8649038115242E+00
 0.8466122127142E+00
 0.8259689202043E+00
 0.8033611017425E+00
 0.7792301840579E+00
 0.7540753334502E+00
 0.7284672142578E+00
 0.7030658964019E+00
 0.6786433945939E+00
 0.6561126685243E+00
 0.6365653775068E+00
 0.6213217254498E+00
 0.6119891086356E+00
 0.6105139381274E+00
 0.6191961191404E+00
 0.6406195164068E+00
 0.6774536568022E+00
 0.7321339714709E+00
 0.8064966060721E+00
 0.9014643853173E+00
 0.1016840112799E+01
 0.1151229090021E+01
 0.1302139252012E+01
 0.1466093033766E+01
 0.1638541300463E+01
 0.1813958176842E+01
 0.1986217997420E+01
 0.8798493058526E+00
 0.9015420264367E+00
 0.9232913851648E+00
 0.9441198498487E+00
 0.9630924206249E+00
 0.9793867772365E+00
 0.9923450382884E+00
 0.1001498777057E+01
 0.1006567998183E+01
 0.1007440844304E+01
 0.1004143129779E+01
 0.9968059709715E+00
 0.9856372761850E+00
 0.9709001362498E+00
 0.9528986866535E+00
 0.9319712278755E+00
 0.9084967251022E+00
 0.8829055654185E+00
 0.8556709658606E+00
 0.8273037869936E+00
 0.7983722228091E+00
 0.7695264839461E+00
 0.7415260568441E+00
 0.7152717699704E+00
 0.6918454261848E+00
 0.6725612918953E+00
 0.6590280895419E+00
 0.6532086411956E+00
 0.6574527865774E+00
 0.6744594298679E+00
 0.7071088497581E+00
 0.7581494850140E+00
 0.8298015865813E+00
 0.9233848622742E+00
 0.1039053837040E+01
 0.1175680596625E+01
 0.1330932410492E+01
 0.1501376577488E+01
 0.1682391138083E+01
 0.1868256682661E+01
 0.2052548217864E+01
 0.9640084833941E+00
 0.9878050236503E+00
 0.1011905606562E+01
 0.1035117656919E+01
 0.1056294968639E+01
 0.1074435133838E+01
 0.1088749516529E+01
 0.1098694726330E+01
 0.1103967624911E+01
 0.1104474316251E+01
 0.1100286343938E+01
 0.1091595591863E+01
 0.1078675491984E+01
 0.1061852160882E+01
 0.1041485730986E+01
 0.1017961166288E+01
 0.9916993282823E+00
 0.9631721058325E+00
 0.9328822667611E+00
 0.9013493573117E+00
 0.8691352924832E+00
 0.8368759118176E+00
 0.8053131985240E+00
 0.7753308409539E+00
 0.7479963332329E+00
 0.7246146526725E+00
 0.7067936472383E+00
 0.6965105297600E+00
 0.6961615114493E+00
 0.7085549727909E+00
 0.7367782044946E+00
 0.7838991258040E+00
 0.8525458392467E+00
 0.9444743457740E+00
 0.1060236021059E+01
 0.1199009479834E+01
 0.1358648649942E+01
 0.1535776216807E+01
 0.1725686895260E+01
 0.1922434234936E+01
 0.2119239270681E+01
 0.1048367521210E+01
 0.1074354808343E+01
 0.1100891811895E+01
 0.1126563026800E+01
 0.1150004505516E+01
 0.1170030421376E+01
 0.1185721901285E+01
 0.1196464363908E+01
 0.1201937210317E+01
 0.1202070620828E+01
 0.1196987260715E+01
 0.1186943801100E+01
 0.1172281662852E+01
 0.1153391035053E+01
 0.1130687955959E+01
 0.1104603110174E+01
 0.1075597762037E+01
 0.1044183479845E+01
 0.1010890277684E+01
 0.9762433354122E+00
 0.9407944316928E+00
 0.9051604298047E+00
 0.8700606397557E+00
 0.8363562279870E+00
 0.8050952983787E+00
 0.7775692729131E+00
 0.7553818212918E+00
 0.7405214668168E+00
 0.7354263906328E+00
 0.7430080365469E+00
 0.7665554771338E+00
 0.8094604728275E+00
 0.8747816318379E+00
 0.9647526134104E+00
 0.1080371917545E+01
 0.1221170977144E+01
 0.1385223684830E+01
 0.1569222767990E+01
 0.1768370449327E+01
 0.1976457673952E+01
 0.2186291514854E+01
 0.1132981745856E+01
 0.1161261780943E+01
 0.1190335092060E+01
 0.1218552534836E+01
 0.1244323739992E+01
 0.1266275272973E+01
 0.1283359035187E+01
 0.1294894496965E+01
 0.1300551168019E+01
 0.1300291223815E+01
 0.1294295252944E+01
 0.1282889640218E+01
 0.1266486708513E+01
 0.1245541878136E+01
 0.1220526919094E+01
 0.1191917134521E+01
 0.1160212544111E+01
 0.1125962465725E+01
 0.1089721793469E+01
 0.1052018248043E+01
 0.1013389563159E+01
 0.9744289197520E+00
 0.9358275839117E+00
 0.8984184535359E+00
 0.8632245645580E+00
 0.8315186585339E+00
 0.8048958689898E+00
 0.7853518793712E+00
 0.7753614995669E+00
 0.7779318068933E+00
 0.7965467028875E+00
 0.8349236184725E+00
 0.8965726276288E+00
 0.9842480207303E+00
 0.1099451215348E+01
 0.1242120323694E+01
 0.1410589730294E+01
 0.1601642046796E+01
 0.1810379758895E+01
 0.2030293517635E+01
 0.2253710340130E+01
 0.1217907660401E+01
 0.1248598146692E+01
 0.1280322861782E+01
 0.1311185211137E+01
 0.1339357440158E+01
 0.1363273512320E+01
 0.1381757809402E+01
 0.1394070815744E+01
 0.1399881814473E+01
 0.1399194818424E+01
 0.1392256578291E+01
 0.1379468987449E+01
 0.1361318560512E+01
 0.1338327144127E+01
 0.1311021921432E+01
 0.1279921513633E+01
 0.1245562877218E+01
 0.1208531042222E+01
 0.1169403365473E+01
 0.1128706989151E+01
 0.1086961653746E+01
 0.1044732058860E+01
 0.1002675863411E+01
 0.9615916007721E+00
 0.9224709935240E+00
 0.8865621562569E+00
 0.8554462982531E+00
 0.8311210165234E+00
 0.8160913731153E+00
 0.8134514894826E+00
 0.8268712139306E+00
 0.8603925116145E+00
 0.9179954674928E+00
 0.1002999044497E+01
 0.1117469173074E+01
 0.1261813216601E+01
 0.1434675284966E+01
 0.1632954214965E+01
 0.1851648178979E+01
 0.2083907649858E+01
 0.2321506499103E+01
 0.1303203359609E+01
 0.1336438527215E+01
 0.1370945620600E+01
 0.1404563316319E+01
 0.1435213056195E+01
 0.1461130490439E+01
 0.1481015158448E+01
 0.1494077569980E+01
 0.1499998803998E+01
 0.1498836614812E+01
 0.1490913610087E+01
 0.1476713792453E+01
 0.1456801435391E+01
 0.1431765943296E+01
 0.1402189370274E+01
 0.1368632107982E+01
 0.1331666040413E+01
 0.1291909767542E+01
 0.1249960657788E+01
 0.1206342152319E+01
 0.1161552033485E+01
 0.1116121648388E+01
 0.1070669313955E+01
 0.1025952779170E+01
 0.9829256719694E+00
 0.9428047436394E+00
 0.9071508724614E+00
 0.8779571889786E+00
 0.8577514989139E+00
 0.8497050892657E+00
 0.8576627600971E+00
 0.8859864710026E+00
 0.9391416095073E+00
 0.1021056149139E+01
 0.1134428062558E+01
 0.1280206485566E+01
 0.1457404973857E+01
 0.1663073070299E+01
 0.1892103685723E+01
 0.2137264967417E+01
 0.2389696502393E+01
 0.1388928994118E+01
 0.1424860645548E+01
 0.1462297800139E+01
 0.1498793192543E+01
 0.1532001385439E+01
 0.1559953424026E+01
 0.1581228024656E+01
 0.1594997202016E+01
 0.1600968527569E+01
 0.1599267614821E+01
 0.1590304081602E+01
 0.1574651353066E+01
 0.1552955174906E+01
 0.1525873450885E+01
 0.1494042243876E+01
 0.1458061863450E+01
 0.1418536899552E+01
 0.1376117280863E+01
 0.1331417926051E+01
 0.1284955481391E+01
 0.1237201822130E+01
 0.1188650031164E+01
 0.1139873210039E+01
 0.1091581616873E+01
 0.1044683508592E+01
 0.1000356782131E+01
 0.9601345682282E+00
 0.9259979747161E+00
 0.9004888104650E+00
 0.8868442351421E+00
 0.8890707295372E+00
 0.9118418753290E+00
 0.9601194515856E+00
 0.1038484028921E+01
 0.1150338990397E+01
 0.1297259026094E+01
 0.1478699473859E+01
 0.1691905271555E+01
 0.1931667996194E+01
 0.2190328986241E+01
 0.2458303091179E+01
 0.1475147296361E+01
 0.1513946104000E+01
 0.1554478719354E+01
 0.1593986204931E+01
 0.1629837280569E+01
 0.1659851719668E+01
 0.1682493263642E+01
 0.1696909901303E+01
 0.1702853438825E+01
 0.1700533837292E+01
 0.1690460311732E+01
 0.1673303603797E+01
 0.1649794623449E+01
 0.1620660372038E+01
 0.1586589625224E+01
 0.1548220387277E+01
 0.1506187498003E+01
 0.1461169884451E+01
 0.1413797574222E+01
 0.1364577392938E+01
 0.1313951416650E+01
 0.1262369553018E+01
 0.1210353720771E+01
 0.1158559744678E+01
 0.1107842793475E+01
 0.1059333710012E+01
 0.1014529466177E+01
 0.9753903723657E+00
 0.9444621637427E+00
 0.9250350384204E+00
 0.9212614645666E+00
 0.9381140348888E+00
 0.9810567632004E+00
 0.1055364286063E+01
 0.1165224182302E+01
 0.1312933069571E+01
 0.1498475553066E+01
 0.1719349485441E+01
 0.1970255562685E+01
 0.2243061411231E+01
 0.2527355801928E+01
 0.1561924183555E+01
 0.1603781278185E+01
 0.1647593673411E+01
 0.1690259790523E+01
 0.1728840401147E+01
 0.1760937266474E+01
 0.1784907461491E+01
 0.1799893047193E+01
 0.1805711276689E+01
 0.1802675468608E+01
 0.1791408391821E+01
 0.1772686399288E+01
 0.1747329027431E+01
 0.1716132447700E+01
 0.1679836288483E+01
 0.1639113582523E+01
 0.1594626707259E+01
 0.1547081183783E+01
 0.1497119764773E+01
 0.1445236544423E+01
 0.1391840012657E+01
 0.1337332041147E+01
 0.1282177359951E+01
 0.1226970247232E+01
 0.1172504697126E+01
 0.1119855653569E+01
 0.1070474552899E+01
 0.1026290880035E+01
 0.9898427766913E+00
 0.9644589697897E+00
 0.9544196651348E+00
 0.9649792474256E+00
 0.1002103451654E+01
 0.1071798612697E+01
 0.1179119835098E+01
 0.1327195888929E+01
 0.1516646267726E+01
 0.1745295435961E+01
 0.2007772410031E+01
 0.2295421677760E+01
 0.2596891649464E+01
 0.1649329456601E+01
 0.1694458355784E+01
 0.1741755186783E+01
 0.1787738633847E+01
 0.1829136006704E+01
 0.1863324675163E+01
 0.1888566630347E+01
 0.1904020505731E+01
 0.1909594156299E+01
 0.1905725918397E+01
 0.1893167320671E+01
 0.1872808784320E+01
 0.1845561450254E+01
 0.1812289995381E+01
 0.1773782331269E+01
 0.1730743332799E+01
 0.1683859927593E+01
 0.1633861774204E+01
 0.1581402069269E+01
 0.1526959433801E+01
 0.1470905144388E+01
 0.1413588283071E+01
 0.1355410413235E+01
 0.1296897063386E+01
 0.1238772689845E+01
 0.1182046935065E+01
 0.1128115409780E+01
 0.1078865472919E+01
 0.1036814605582E+01
 0.1005313734311E+01
 0.9887498683623E+00
 0.9926370374336E+00
 0.1023434686168E+01
 0.1087912551415E+01
 0.1192079665346E+01
 0.1340022072279E+01
 0.1533121380833E+01
 0.1769622825309E+01
 0.2044114761496E+01
 0.2347366481568E+01
 0.2666955954314E+01
 0.1737437618274E+01
 0.1786076555386E+01
 0.1837084467522E+01
 0.1886555990119E+01
 0.1930855785785E+01
 0.1967131434563E+01
 0.1993565742455E+01
 0.2009361742756E+01
 0.2014547500489E+01
 0.2009710763983E+01
 0.1995748080092E+01
 0.1973672247781E+01
 0.1944488202360E+01
 0.1909127484459E+01
 0.1868422851584E+01
 0.1823107234978E+01
 0.1773888835204E+01
 0.1721518969331E+01
 0.1666659153470E+01
 0.1609770023572E+01
 0.1551182235091E+01
 0.1491187496595E+01
 0.1430118330869E+01
 0.1368424321637E+01
 0.1306751863909E+01
 0.1246035455531E+01
 0.1187603761526E+01
 0.1133289448022E+01
 0.1085574625650E+01
 0.1047814117143E+01
 0.1024477987082E+01
 0.1021312573628E+01
 0.1045254398876E+01
 0.1103859914095E+01
 0.1204179311299E+01
 0.1351396543116E+01
 0.1547808100089E+01
 0.1792200080501E+01
 0.2079167354405E+01
 0.2398849318491E+01
 0.2737603360806E+01
 0.1826328840099E+01
 0.1878743569714E+01
 0.1933713107491E+01
 0.1986855178717E+01
 0.2034138709378E+01
 0.2072477946329E+01
 0.2099998053591E+01
 0.2115980710803E+01
 0.2120608784040E+01
 0.2114646570451E+01
 0.2099152648074E+01
 0.2075269962922E+01
 0.2044098290234E+01
 0.2006633149566E+01
 0.1963747672031E+01
 0.1916198381343E+01
 0.1864711176215E+01
 0.1810056570649E+01
 0.1752902495615E+01
 0.1693689387181E+01
 0.1632704154602E+01
 0.1570176785770E+01
 0.1506365078356E+01
 0.1441635599275E+01
 0.1376548142182E+01
 0.1311951929557E+01
 0.1249096854055E+01
 0.1189747098729E+01
 0.1136332975635E+01
 0.1092192763941E+01
 0.1061852882754E+01
 0.1051259253121E+01
 0.1067799175218E+01
 0.1119827940175E+01
 0.1215521774658E+01
 0.1361318567668E+01
 0.1560612291601E+01
 0.1812882866537E+01
 0.2112801260092E+01
 0.2449820048530E+01
 0.2808899121929E+01
 0.1916090115343E+01
 0.1972577289235E+01
 0.2031785083298E+01
 0.2088791270612E+01
 0.2139131888071E+01
 0.2179487384844E+01
 0.2207954155094E+01
 0.2223934461608E+01
 0.2227806063105E+01
 0.2220539576991E+01
 0.2203372951645E+01
 0.2177586020727E+01
 0.2144372891862E+01
 0.2104788648482E+01
 0.2059741116235E+01
 0.2010005194905E+01
 0.1956320610420E+01
 0.1899474680630E+01
 0.1840140139812E+01
 0.1778735379155E+01
 0.1715500784463E+01
 0.1650600581293E+01
 0.1584212440313E+01
 0.1516613095903E+01
 0.1448267357538E+01
 0.1379928948313E+01
 0.1312756628309E+01
 0.1248431175981E+01
 0.1189312916757E+01
 0.1138700848818E+01
 0.1101147937813E+01
 0.1082761432538E+01
 0.1091342536835E+01
 0.1136043272136E+01
 0.1226244117233E+01
 0.1369807068153E+01
 0.1571440426889E+01
 0.1831512315124E+01
 0.2144870863650E+01
 0.2500224438717E+01
 0.2880920785997E+01
 0.2006816646187E+01
 0.2067707877736E+01
 0.2131459125035E+01
 0.2192532993187E+01
 0.2245991398792E+01
 0.2288285310697E+01
 0.2317520679250E+01
 0.2333271429877E+01
 0.2336156263425E+01
 0.2327384245287E+01
 0.2308389767202E+01
 0.2280594667914E+01
 0.2245284869312E+01
 0.2203568772947E+01
 0.2156381843993E+01
 0.2104511323172E+01
 0.2048706609363E+01
 0.1989769563694E+01
 0.1928376488852E+01
 0.1864922333177E+01
 0.1799598593928E+01
 0.1732500066606E+01
 0.1663719275211E+01
 0.1593436713716E+01
 0.1522014188178E+01
 0.1450099846271E+01
 0.1378748653427E+01
 0.1309542086484E+01
 0.1244750546315E+01
 0.1187608568940E+01
 0.1142662578642E+01
 0.1116137275043E+01
 0.1116199607302E+01
 0.1152778816382E+01
 0.1236525651331E+01
 0.1376907647350E+01
 0.1580202684978E+01
 0.1847913008419E+01
 0.2175209385104E+01
 0.2550003431193E+01
 0.2953760487209E+01
 0.2098613527623E+01
 0.2164280292116E+01
 0.2232911535284E+01
 0.2298264873382E+01
 0.2354883027284E+01
 0.2398998941516E+01
 0.2428778565357E+01
 0.2444029328149E+01
 0.2445663204080E+01
 0.2435161672719E+01
 0.2414171583055E+01
 0.2384259566031E+01
 0.2346798331928E+01
 0.2302941222263E+01
 0.2253642752405E+01
 0.2199695596337E+01
 0.2141854414409E+01
 0.2080933560961E+01
 0.2017612142920E+01
 0.1952260794756E+01
 0.1885020232819E+01
 0.1815912593508E+01
 0.1744940720931E+01
 0.1672183038655E+01
 0.1597890934856E+01
 0.1522597346666E+01
 0.1447240780114E+01
 0.1373286772076E+01
 0.1302894194617E+01
 0.1239205388150E+01
 0.1186723681730E+01
 0.1151741667096E+01
 0.1142732134012E+01
 0.1170361539718E+01
 0.1246597882725E+01
 0.1382701804344E+01
 0.1586817853678E+01
 0.1861891077669E+01
 0.2203621946776E+01
 0.2599091205682E+01
 0.3027528249101E+01
 0.2191597810232E+01
 0.2262457366387E+01
 0.2336339559852E+01
 0.2406189633569E+01
 0.2465982843773E+01
 0.2511755951494E+01
 0.2541800773373E+01
 0.2556232588034E+01
 0.2556315339736E+01
 0.2543837882944E+01
 0.2520673447312E+01
 0.2488533093406E+01
 0.2448868266093E+01
 0.2402866450187E+01
 0.2351490950340E+01
 0.2295532056125E+01
 0.2235745061193E+01
 0.2172955066039E+01
 0.2107843792539E+01
 0.2040757297583E+01
 0.1971784149799E+01
 0.1900871093561E+01
 0.1827927353167E+01
 0.1752924218230E+01
 0.1675996127154E+01
 0.1597551960828E+01
 0.1518401473011E+01
 0.1439877208422E+01
 0.1364003421684E+01
 0.1293799932130E+01
 0.1233686771341E+01
 0.1189969136851E+01
 0.1171353820793E+01
 0.1189181215278E+01
 0.1256756491500E+01
 0.1387318880773E+01
 0.1591220817075E+01
 0.1873233614100E+01
 0.2229875041159E+01
 0.2647409170573E+01
 0.3102356697222E+01
 0.2285901051080E+01
 0.2362423617407E+01
 0.2441965434847E+01
 0.2516530841276E+01
 0.2579477487905E+01
 0.2626682628835E+01
 0.2656649309112E+01
 0.2669889281413E+01
 0.2668083214961E+01
 0.2653362019598E+01
 0.2627835834432E+01
 0.2593355717310E+01
 0.2551440249413E+01
 0.2503297595549E+01
 0.2449887812850E+01
 0.2391990061086E+01
 0.2330355477165E+01
 0.2265818570327E+01
 0.2199064176232E+01
 0.2130414195270E+01
 0.2059904247373E+01
 0.1987403494058E+01
 0.1912724300885E+01
 0.1835726733701E+01
 0.1756422947520E+01
 0.1675090117414E+01
 0.1592397779862E+01
 0.1509528456084E+01
 0.1428347517668E+01
 0.1351719414639E+01
 0.1283936885999E+01
 0.1231256675620E+01
 0.1202535899279E+01
 0.1209700097153E+01
 0.1267375582275E+01
 0.1390951562951E+01
 0.1593372969168E+01
 0.1881712041869E+01
 0.2253683298860E+01
 0.2694847398244E+01
 0.3178407778528E+01
 0.2381672499644E+01
 0.2464389980995E+01
 0.2550041262504E+01
 0.2629535789445E+01
 0.2695563979468E+01
 0.2743901166028E+01
 0.2773371400390E+01
 0.2784987458685E+01
 0.2780916641218E+01
 0.2763664486375E+01
 0.2735583575586E+01
 0.2698655469289E+01
 0.2654450268258E+01
 0.2604180505766E+01
 0.2548789120491E+01
 0.2489034473166E+01
 0.2425658659084E+01
 0.2359504787643E+01
 0.2291262115632E+01
 0.2221229563080E+01
 0.2149389587834E+01
 0.2075532149864E+01
 0.1999370325138E+01
 0.1920650066237E+01
 0.1839257463794E+01
 0.1755331999340E+01
 0.1669392895689E+01
 0.1582456193384E+01
 0.1496203398799E+01
 0.1413308449561E+01
 0.1337888950170E+01
 0.1276086327108E+01
 0.1236812816816E+01
 0.1232463491110E+01
 0.1278924303627E+01
 0.1393875962546E+01
 0.1593276645610E+01
 0.1887087787547E+01
 0.2274711122758E+01
 0.2741207747333E+01
 0.3255872003093E+01
 0.2479083118938E+01
 0.2568599757364E+01
 0.2660854900419E+01
 0.2745478541182E+01
 0.2814448786320E+01
 0.2863525789197E+01
 0.2891994639736E+01
 0.2901490853250E+01
 0.2894741632515E+01
 0.2874655099069E+01
 0.2843824911504E+01
 0.2804347561887E+01
 0.2757824657470E+01
 0.2705453859834E+01
 0.2648145285651E+01
 0.2586625928597E+01
 0.2521623937138E+01
 0.2453990869452E+01
 0.2384422643662E+01
 0.2313197187773E+01
 0.2240244167720E+01
 0.2165273305031E+01
 0.2087896869519E+01
 0.2007745258655E+01
 0.1924576663481E+01
 0.1838389069188E+01
 0.1749543282359E+01
 0.1658873659008E+01
 0.1567852780615E+01
 0.1478927075462E+01
 0.1395987444579E+01
 0.1324987334361E+01
 0.1274787930102E+01
 0.1258110918651E+01
 0.1291986528511E+01
 0.1396475374496E+01
 0.1591000169289E+01
 0.1889109193801E+01
 0.2292602648123E+01
 0.2786186865846E+01
 0.3334711867043E+01
 0.2578330718128E+01
 0.2675336142244E+01
 0.2774737084428E+01
 0.2864663000631E+01
 0.2936345759820E+01
 0.2985657347642E+01
 0.3012520890465E+01
 0.3019333926858E+01
 0.3009457171976E+01
 0.2986221342717E+01
 0.2952450740882E+01
 0.2910334189153E+01
 0.2861480179094E+01
 0.2807049392818E+01
 0.2747901663511E+01
 0.2684721193355E+01
 0.2618217331857E+01
 0.2549250723666E+01
 0.2478527244788E+01
 0.2406306667755E+01
 0.2332466781830E+01
 0.2256636600360E+01
 0.2178327091971E+01
 0.2097053375977E+01
 0.2012446285749E+01
 0.1924361267897E+01
 0.1832995308177E+01
 0.1738987933793E+01
 0.1643578502028E+01
 0.1548947795122E+01
 0.1458705103674E+01
 0.1378537591766E+01
 0.1317138884571E+01
 0.1287388032330E+01
 0.1307282117247E+01
 0.1399274283010E+01
 0.1586695696250E+01
 0.1887563713369E+01
 0.2306861944877E+01
 0.2829729108723E+01
 0.3414810749998E+01
 0.2679646583624E+01
 0.2784931856481E+01
 0.2892070040624E+01
 0.2987425751927E+01
 0.3061472377424E+01
 0.3110375883473E+01
 0.3134918747202E+01
 0.3138416276714E+01
 0.3124931932094E+01
 0.3098226860320E+01
 0.3061334152911E+01
 0.3016504556802E+01
 0.2965324253865E+01
 0.2908892218176E+01
 0.2847998940026E+01
 0.2783273600655E+01
 0.2715402010426E+01
 0.2645255453621E+01
 0.2573554232299E+01
 0.2500543652327E+01
 0.2426051003317E+01
 0.2349624646658E+01
 0.2270674890088E+01
 0.2188603870943E+01
 0.2102918452034E+01
 0.2013333878850E+01
 0.1919881380895E+01
 0.1822995498075E+01
 0.1723659873518E+01
 0.1623751406827E+01
 0.1526540323645E+01
 0.1437363988836E+01
 0.1364622501607E+01
 0.1321158339653E+01
 0.1325692230325E+01
 0.1402972577906E+01
 0.1580656534912E+01
 0.1882220771695E+01
 0.2317155118351E+01
 0.2870959880231E+01
 0.3500203236651E+01
 0.2783304158993E+01
 0.2897781578907E+01
 0.3013297867609E+01
 0.3114138211161E+01
 0.3190043492201E+01
 0.3237730585291E+01
 0.3259114359947E+01
 0.3258596498551E+01
 0.3241001135664E+01
 0.3210510334919E+01
 0.3170330344604E+01
 0.3122735186712E+01
 0.3069255351076E+01
 0.3010901233298E+01
 0.2948373579153E+01
 0.2882233561082E+01
 0.2813138846516E+01
 0.2741973935518E+01
 0.2669479292115E+01
 0.2595890253757E+01
 0.2520985309084E+01
 0.2444232682957E+01
 0.2364943929754E+01
 0.2282412859152E+01
 0.2196029097606E+01
 0.2105374054643E+01
 0.2010315555566E+01
 0.1911077009398E+01
 0.1808366923083E+01
 0.1703721389572E+01
 0.1600012880314E+01
 0.1502141184774E+01
 0.1418078495572E+01
 0.1360415149481E+01
 0.1348284512506E+01
 0.1408497240062E+01
 0.1573346733140E+01
 0.1872964970863E+01
 0.2322821575953E+01
 0.2910417736121E+01
 0.3588083804888E+01
 0.2889630569714E+01
 0.3014358160542E+01
 0.3138938968312E+01
 0.3245207317596E+01
 0.3322261458946E+01
 0.3367726412466E+01
 0.3384980495053E+01
 0.3379685714123E+01
 0.3357463826515E+01
 0.3322884965037E+01
 0.3279277034510E+01
 0.3228890538186E+01
 0.3173163533635E+01
 0.3112989582014E+01
 0.3048958300890E+01
 0.2981549129852E+01
 0.2911387087887E+01
 0.2839373558860E+01
 0.2766276232913E+01
 0.2692325676255E+01
 0.2617253386343E+01
 0.2540448340962E+01
 0.2461126686689E+01
 0.2378481309705E+01
 0.2291795212082E+01
 0.2200527014992E+01
 0.2104388614655E+01
 0.2003391263174E+01
 0.1897953428948E+01
 0.1789236593985E+01
 0.1679657523124E+01
 0.1573588112147E+01
 0.1478431525704E+01
 0.1406292197956E+01
 0.1376341596822E+01
 0.1417052921368E+01
 0.1565493941423E+01
 0.1859735037385E+01
 0.2323355379974E+01
 0.2947556630558E+01
 0.3678934229705E+01
 0.2999022165086E+01
 0.3135233989082E+01
 0.3269600742953E+01
 0.3381073475763E+01
 0.3458301059227E+01
 0.3500306580876E+01
 0.3512323845828E+01
 0.3501441135973E+01
 0.3474080914582E+01
 0.3435138767818E+01
 0.3387995489407E+01
 0.3334823982375E+01
 0.3276931143100E+01
 0.3215065132079E+01
 0.3149682546928E+01
 0.3081166606909E+01
 0.3010105136044E+01
 0.2937421163147E+01
 0.2863917996406E+01
 0.2789827119236E+01
 0.2714834663387E+01
 0.2638251537167E+01
 0.2559203507576E+01
 0.2476793156820E+01
 0.2390211902865E+01
 0.2298811937682E+01
 0.2202162637978E+01
 0.2100068323978E+01
 0.1992648650929E+01
 0.1880662006191E+01
 0.1766014949222E+01
 0.1652461445574E+01
 0.1546690377732E+01
 0.1460072910574E+01
 0.1411387951719E+01
 0.1430189041379E+01
 0.1558168750515E+01
 0.1842658074421E+01
 0.2318103057964E+01
 0.2981628674392E+01
 0.3773368030539E+01
 0.3111965838300E+01
 0.3261109434045E+01
 0.3405996544607E+01
 0.3522203633385E+01
 0.3598287059147E+01
 0.3635330076346E+01
 0.3640870862062E+01
 0.3623560264445E+01
 0.3590574458748E+01
 0.3547035965264E+01
 0.3496292275295E+01
 0.3440379154327E+01
 0.3380433592254E+01
 0.3317030903066E+01
 0.3250472867883E+01
 0.3181031130181E+01
 0.3109251439213E+01
 0.3036084213548E+01
 0.2962377998200E+01
 0.2888371026472E+01
 0.2813705111716E+01
 0.2737614507813E+01
 0.2659141687220E+01
 0.2577313331559E+01
 0.2491249297918E+01
 0.2400217576991E+01
 0.2303665101557E+01
 0.2201201843430E+01
 0.2092647705875E+01
 0.1978337372961E+01
 0.1859619666707E+01
 0.1739545042289E+01
 0.1623943035059E+01
 0.1523196225702E+01
 0.1455216587376E+01
 0.1449868600945E+01
 0.1552916225372E+01
 0.1822134467877E+01
 0.2306277881337E+01
 0.3011764789566E+01
 0.3872099329248E+01
 0.3229068827772E+01
 0.3392851111300E+01
 0.3548964397607E+01
 0.3669076061425E+01
 0.3742261500572E+01
 0.3772543505438E+01
 0.3770252802509E+01
 0.3745676594622E+01
 0.3706628739271E+01
 0.3658319710784E+01
 0.3603961830419E+01
 0.3545391694774E+01
 0.3483540216018E+01
 0.3418785354501E+01
 0.3351253137907E+01
 0.3281087203659E+01
 0.3208785499413E+01
 0.3135332276531E+01
 0.3061631897790E+01
 0.2987934775669E+01
 0.2913838373685E+01
 0.2838501994203E+01
 0.2760894546070E+01
 0.2679985707050E+01
 0.2594849310941E+01
 0.2504697663606E+01
 0.2408882575307E+01
 0.2306840621070E+01
 0.2198100579729E+01
 0.2082563532402E+01
 0.1960984269638E+01
 0.1835634329364E+01
 0.1711345698588E+01
 0.1597257245115E+01
 0.1509911740615E+01
 0.1478543100647E+01
 0.1551916868688E+01
 0.1798993057287E+01
 0.2287041433981E+01
 0.3036878927981E+01
 0.3975984146388E+01
 0.3351101248269E+01
 0.3531543863213E+01
 0.3699485891562E+01
 0.3822151312568E+01
 0.3890136997548E+01
 0.3911547071939E+01
 0.3899991393315E+01
 0.3867358031017E+01
 0.3821893718052E+01
 0.3768716382422E+01
 0.3710789932911E+01
 0.3649691380230E+01
 0.3586115113847E+01
 0.3520222411486E+01
 0.3451944461937E+01
 0.3381279072820E+01
 0.3308668992090E+01
 0.3235138882578E+01
 0.3161659935776E+01
 0.3088498931978E+01
 0.3015207273589E+01
 0.2940871569145E+01
 0.2864400471253E+01
 0.2784730939475E+01
 0.2700922297617E+01
 0.2612166162345E+01
 0.2517754125304E+01
 0.2416979511361E+01
 0.2309099827897E+01
 0.2193586365233E+01
 0.2070579739440E+01
 0.1941514563520E+01
 0.1810103575740E+01
 0.1683999196797E+01
 0.1577865088510E+01
 0.1519226743439E+01
 0.1558183500512E+01
 0.1774753536240E+01
 0.2259599955731E+01
 0.3055562472141E+01
 0.4086069419384E+01
 0.3479058205344E+01
 0.3678561982445E+01
 0.3858701409534E+01
 0.3981820561145E+01
 0.4041631570944E+01
 0.4051755565999E+01
 0.4029487456217E+01
 0.3988109504387E+01
 0.3935991449093E+01
 0.3877941599003E+01
 0.3816558101971E+01
 0.3753104630409E+01
 0.3688017903383E+01
 0.3621231066260E+01
 0.3552464583629E+01
 0.3481550815693E+01
 0.3408866993556E+01
 0.3335483904125E+01
 0.3262450035503E+01
 0.3190050227675E+01
 0.3117785769575E+01
 0.3044674067222E+01
 0.2969581853288E+01
 0.2891444171595E+01
 0.2809343638646E+01
 0.2722492491970E+01
 0.2630164570266E+01
 0.2531549835670E+01
 0.2425667083740E+01
 0.2311578378511E+01
 0.2188811520147E+01
 0.2057932046298E+01
 0.1921440944247E+01
 0.1785292045107E+01
 0.1661780163272E+01
 0.1575562641464E+01
 0.1575794602320E+01
 0.1752018924543E+01
 0.2223384538835E+01
 0.3065955117041E+01
 0.4203655744343E+01
 0.3614252871474E+01
 0.3835667419927E+01
 0.4027913273882E+01
 0.4148317503758E+01
 0.4196180401477E+01
 0.4192357415755E+01
 0.4158016141382E+01
 0.4107381429267E+01
 0.4048525838620E+01
 0.3985708006725E+01
 0.3921048932719E+01
 0.3855457381666E+01
 0.3789104302840E+01
 0.3721694349559E+01
 0.3652726519283E+01
 0.3581845948380E+01
 0.3509349306108E+01
 0.3436356642201E+01
 0.3364001955403E+01
 0.3292585480591E+01
 0.3221551393126E+01
 0.3149854036127E+01
 0.3076343806859E+01
 0.2999992544897E+01
 0.2919950294095E+01
 0.2835496846703E+01
 0.2745937795585E+01
 0.2650409522286E+01
 0.2547738570759E+01
 0.2436618042034E+01
 0.2315991312268E+01
 0.2185557677305E+01
 0.2046558139502E+01
 0.1903091718590E+01
 0.1764655624045E+01
 0.1651872411023E+01
 0.1610147420897E+01
 0.1735045466941E+01
 0.2178408006085E+01
 0.3065590633713E+01
 0.4330384324316E+01
 0.3758460028904E+01
 0.4005145444657E+01
 0.4208559181903E+01
 0.4321572578862E+01
 0.4352821474919E+01
 0.4332278690072E+01
 0.4284733751353E+01
 0.4224585418496E+01
 0.4159095843230E+01
 0.4091734751047E+01
 0.4024052323394E+01
 0.3956578331435E+01
 0.3889226480582E+01
 0.3821487418413E+01
 0.3752636020809E+01
 0.3682106230763E+01
 0.3610091861323E+01
 0.3537759921763E+01
 0.3466332914066E+01
 0.3396116726478E+01
 0.3326488192331E+01
 0.3256350055786E+01
 0.3184572505353E+01
 0.3110212440292E+01
 0.3032537384754E+01
 0.2950945804190E+01
 0.2864830395036E+01
 0.2773333271022E+01
 0.2675149891086E+01
 0.2568667110846E+01
 0.2452304764300E+01
 0.2324942715119E+01
 0.2186573807705E+01
 0.2039373237417E+01
 0.1889732771708E+01
 0.1753173060968E+01
 0.1668202711442E+01
 0.1730533989896E+01
 0.2125962965136E+01
 0.3051237271857E+01
 0.4468361785472E+01
 0.3914144740552E+01
 0.4189990718282E+01
 0.4402119754876E+01
 0.4500978144613E+01
 0.4510057952874E+01
 0.4470165064563E+01
 0.4408701919053E+01
 0.4339117820373E+01
 0.4267311788060E+01
 0.4195758413349E+01
 0.4125372504709E+01
 0.4056302600939E+01
 0.3988233175596E+01
 0.3920474466661E+01
 0.3852087286936E+01
 0.3782269168198E+01
 0.3711078165530E+01
 0.3639715674688E+01
 0.3569485319138E+01
 0.3500677911546E+01
 0.3432590126154E+01
 0.3364094667152E+01
 0.3294132885340E+01
 0.3221906335700E+01
 0.3146854869341E+01
 0.3068548463622E+01
 0.2986525996252E+01
 0.2900003122564E+01
 0.2807620434719E+01
 0.2707546267692E+01
 0.2597775490178E+01
 0.2476467248172E+01
 0.2342452089249E+01
 0.2196032195178E+01
 0.2040386829100E+01
 0.1885129415175E+01
 0.1758681244131E+01
 0.1748648574271E+01
 0.2069955477334E+01
 0.3018815965306E+01
 0.4620349786126E+01
 0.4084840329356E+01
 0.4394155977323E+01
 0.4609886495518E+01
 0.4685022047665E+01
 0.4665715327865E+01
 0.4604403027488E+01
 0.4528933646997E+01
 0.4450390068123E+01
 0.4372814161750E+01
 0.4297545048457E+01
 0.4224835714079E+01
 0.4154475942563E+01
 0.4085969735233E+01
 0.4018504156415E+01
 0.3950956061398E+01
 0.3882263374706E+01
 0.3812300722359E+01
 0.3742272800247E+01
 0.3673537556194E+01
 0.3606333554511E+01
 0.3539864717163E+01
 0.3473013504930E+01
 0.3404865394366E+01
 0.3334839131177E+01
 0.3262604397970E+01
 0.3187953436427E+01
 0.3110630742547E+01
 0.3029999907281E+01
 0.2944737809606E+01
 0.2852909488161E+01
 0.2752226067917E+01
 0.2640282581456E+01
 0.2514916263358E+01
 0.2374752880754E+01
 0.2219939819895E+01
 0.2053881571801E+01
 0.1892149961387E+01
 0.1804179683975E+01
 0.2019370261027E+01
 0.2963654906903E+01
 0.4790081649959E+01
 0.4275800346313E+01
 0.4622860988168E+01
 0.4832440094383E+01
 0.4870743350796E+01
 0.4816845294363E+01
 0.4733208772523E+01
 0.4644460064159E+01
 0.4557863169069E+01
 0.4475294208994E+01
 0.4396902727377E+01
 0.4322298278146E+01
 0.4250959731478E+01
 0.4182278488752E+01
 0.4115403356807E+01
 0.4049088825272E+01
 0.3982000366664E+01
 0.3913762316861E+01
 0.3845518654237E+01
 0.3778619300663E+01
 0.3713189795410E+01
 0.3648336504724E+01
 0.3583023037253E+01
 0.3516581380084E+01
 0.3448733745036E+01
 0.3379436420540E+01
 0.3308747120466E+01
 0.3236670574526E+01
 0.3162796152873E+01
 0.3085942710907E+01
 0.3004217558104E+01
 0.2915236818750E+01
 0.2816249440948E+01
 0.2704352477286E+01
 0.2576847694302E+01
 0.2431382695170E+01
 0.2265652533143E+01
 0.2080858384900E+01
 0.1917652656397E+01
 0.1992569107315E+01
 0.2881814049014E+01
 0.4982873557346E+01
 0.4495181100473E+01
 0.4882895742619E+01
 0.5068533870610E+01
 0.5052999427807E+01
 0.4959793680580E+01
 0.4854807111071E+01
 0.4754405264241E+01
 0.4661084078975E+01
 0.4574515587063E+01
 0.4493693608999E+01
 0.4417654826109E+01
 0.4345637064020E+01
 0.4277000359870E+01
 0.4210969312956E+01
 0.4146286130315E+01
 0.4081360230819E+01
 0.4015476961942E+01
 0.3949596577182E+01
 0.3884933598897E+01
 0.3821408080199E+01
 0.3758049365553E+01
 0.3694026103892E+01
 0.3629056686673E+01
 0.3563265716395E+01
 0.3496947582571E+01
 0.3430453844168E+01
 0.3364091231272E+01
 0.3297751140749E+01
 0.3230514571766E+01
 0.3160711180008E+01
 0.3086103179437E+01
 0.3003874344301E+01
 0.2910709488103E+01
 0.2803079102096E+01
 0.2677021334400E+01
 0.2526038863869E+01
 0.2337979426172E+01
 0.2116078989281E+01
 0.2023993412427E+01
 0.2774491718529E+01
 0.5207029348334E+01
 0.4756321934056E+01
 0.5182614874372E+01
 0.5312771118574E+01
 0.5223710536517E+01
 0.5090646035834E+01
 0.4967672379472E+01
 0.4858047394726E+01
 0.4759726531485E+01
 0.4670334588063E+01
 0.4587844594158E+01
 0.4510846276876E+01
 0.4438420186920E+01
 0.4369979418579E+01
 0.4304961309128E+01
 0.4242277151170E+01
 0.4180166370689E+01
 0.4117470182995E+01
 0.4054733975239E+01
 0.3992789122714E+01
 0.3931221096508E+01
 0.3869065984139E+01
 0.3805904289502E+01
 0.3742023098521E+01
 0.3678056438358E+01
 0.3614678271828E+01
 0.3552538701104E+01
 0.3492262386759E+01
 0.3434108903172E+01
 0.3377558033310E+01
 0.3321384123408E+01
 0.3263792587149E+01
 0.3202245806327E+01
 0.3133403454861E+01
 0.3053480141434E+01
 0.2958093784226E+01
 0.2838996226929E+01
 0.2675592812533E+01
 0.2432639904645E+01
 0.2172750403500E+01
 0.2660895593323E+01
 0.5477711782016E+01
 0.5082498656275E+01
 0.5530437134697E+01
 0.5550944251225E+01
 0.5371869903602E+01
 0.5206279332205E+01
 0.5070669434138E+01
 0.4954874943342E+01
 0.4853638286704E+01
 0.4762713036848E+01
 0.4679357287045E+01
 0.4601866512219E+01
 0.4529259160181E+01
 0.4461073040834E+01
 0.4397095326132E+01
 0.4336681297659E+01
 0.4278139765114E+01
 0.4219778195041E+01
 0.4161289901501E+01
 0.4102647473992E+01
 0.4042948828312E+01
 0.3981461652088E+01
 0.3918506222233E+01
 0.3855157541077E+01
 0.3792664478007E+01
 0.3732109685120E+01
 0.3674414256657E+01
 0.3620488349739E+01
 0.3570999935925E+01
 0.3525989549709E+01
 0.3484956723973E+01
 0.3446902971036E+01
 0.3409969123840E+01
 0.3371237708508E+01
 0.3327204099741E+01
 0.3274396881834E+01
 0.3205804565124E+01
 0.3100788104767E+01
 0.2902541543921E+01
 0.2531171516066E+01
 0.2612774317241E+01
 0.5829177839523E+01
 0.5517926963666E+01
 0.5927088983244E+01
 0.5751685549460E+01
 0.5486881854834E+01
 0.5305569595480E+01
 0.5162868899701E+01
 0.5044751196789E+01
 0.4942850560949E+01
 0.4851731769654E+01
 0.4768315070339E+01
 0.4690767131967E+01
 0.4618150391867E+01
 0.4550170648920E+01
 0.4487051187861E+01
 0.4428952079194E+01
 0.4374812046866E+01
 0.4322445757173E+01
 0.4269841130676E+01
 0.4215191169108E+01
 0.4157008477586E+01
 0.4095308626047E+01
 0.4031631265070E+01
 0.3968069529370E+01
 0.3906574345774E+01
 0.3848658414282E+01
 0.3795452833800E+01
 0.3748030126470E+01
 0.3707446860539E+01
 0.3674521692295E+01
 0.3649850408277E+01
 0.3633625735955E+01
 0.3625101270845E+01
 0.3622320978203E+01
 0.3622499026304E+01
 0.3623887461793E+01
 0.3624426943982E+01
 0.3611007149441E+01
 0.3547653855249E+01
 0.3230089169366E+01
 0.2833090812987E+01
 0.6361447403127E+01
 0.6157322380931E+01
 0.6330068869512E+01
 0.5859450090062E+01
 0.5570192091076E+01
 0.5387320435290E+01
 0.5244030971133E+01
 0.5127971927598E+01
 0.5027565511861E+01
 0.4937609690365E+01
 0.4854881900991E+01
 0.4777662382527E+01
 0.4705141281809E+01
 0.4637220024633E+01
 0.4574515287970E+01
 0.4518303772739E+01
 0.4469347138863E+01
 0.4425525160076E+01
 0.4381350526878E+01
 0.4331412113394E+01
 0.4273904431426E+01
 0.4210648197224E+01
 0.4145008267463E+01
 0.4080288403664E+01
 0.4019182895090E+01
 0.3963662736032E+01
 0.3915006529897E+01
 0.3874150044265E+01
 0.3842371747612E+01
 0.3821637958746E+01
 0.3814168162942E+01
 0.3821713268952E+01
 0.3845097403901E+01
 0.3883945228417E+01
 0.3936818656887E+01
 0.4002771100470E+01
 0.4087902700822E+01
 0.4195172144254E+01
 0.4341645451759E+01
 0.4413260143106E+01
 0.3775359676098E+01
 0.7445805764242E+01
 0.7244617543975E+01
 0.6472700746334E+01
 0.5866112244496E+01
 0.5630187992545E+01
 0.5448857148269E+01
 0.5315802526323E+01
 0.5204866618761E+01
 0.5108285817249E+01
 0.5020668057702E+01
 0.4939310856303E+01
 0.4862728479727E+01
 0.4790334454586E+01
 0.4722238355532E+01
 0.4659304651069E+01
 0.4603664878145E+01
 0.4560126012831E+01
 0.4529096850631E+01
 0.4497529343213E+01
 0.4452677644731E+01
 0.4394184914964E+01
 0.4327448732850E+01
 0.4258269775517E+01
 0.4191251510196E+01
 0.4129789773475E+01
 0.4076344203830E+01
 0.4032434156736E+01
 0.3998212391393E+01
 0.3974588408566E+01
 0.3965544656417E+01
 0.3975691623279E+01
 0.4008466776556E+01
 0.4066723172359E+01
 0.4152566983270E+01
 0.4266470058022E+01
 0.4407752369780E+01
 0.4580364236113E+01
 0.4836625092995E+01
 0.5210287544662E+01
 0.6001195999602E+01
 0.6318403118009E+01
 0.1090207487954E+02
 0.1320447629078E+00
 0.2466998236297E+00
 0.3451534415570E+00
 0.4307471632773E+00
 0.5070865927218E+00
 0.5770479055651E+00
 0.6427971140219E+00
 0.7058281425814E+00
 0.7670019399535E+00
 0.8266089686033E+00
 0.8844668029350E+00
 0.9400255676027E+00
 0.9925782451243E+00
 0.1041394526980E+01
 0.1085522368311E+01
 0.1123514080450E+01
 0.1153323971876E+01
 0.1172459850022E+01
 0.1178287860628E+01
 0.1169672463646E+01
 0.1360020784899E+00
 0.2523845463288E+00
 0.3527564957276E+00
 0.4402245752018E+00
 0.5181492787715E+00
 0.5893083119373E+00
 0.6558045957033E+00
 0.7190950472328E+00
 0.7800322734023E+00
 0.8389331635376E+00
 0.8956637191094E+00
 0.9497372202941E+00
 0.1000539028213E+01
 0.1047336013480E+01
 0.1089116802222E+01
 0.1124401651601E+01
 0.1151169609404E+01
 0.1167091562198E+01
 0.1170167983230E+01
 0.1158776697589E+01
 0.1395493454431E+00
 0.2574433768086E+00
 0.3594771955914E+00
 0.4485816203363E+00
 0.5279289021396E+00
 0.6001658319134E+00
 0.6673205516417E+00
 0.7308074076201E+00
 0.7914675612563E+00
 0.8496338281817E+00
 0.9052109198510E+00
 0.9577794059757E+00
 0.1006765624991E+01
 0.1051432446083E+01
 0.1090736246006E+01
 0.1123188838875E+01
 0.1146848383514E+01
 0.1159639540606E+01
 0.1159810834990E+01
 0.1145995926499E+01
 0.1427852038334E+00
 0.2618592571582E+00
 0.3653219316564E+00
 0.4558528336054E+00
 0.5364568456614E+00
 0.6096510896848E+00
 0.6773765619496E+00
 0.7409979874239E+00
 0.8013381002764E+00
 0.8587382333806E+00
 0.9131363917320E+00
 0.9641623888607E+00
 0.1011268955766E+01
 0.1053713310549E+01
 0.1090438104693E+01
 0.1119977797676E+01
 0.1140508946944E+01
 0.1150150805335E+01
 0.1147348674643E+01
 0.1131252420397E+01
 0.1457398233774E+00
 0.2656766261660E+00
 0.3703123924747E+00
 0.4620684933071E+00
 0.5437690442152E+00
 0.6178001735724E+00
 0.6860092771871E+00
 0.7497032920207E+00
 0.8096792966429E+00
 0.8662805518187E+00
 0.9194694841114E+00
 0.9689122857854E+00
 0.1014079648733E+01
 0.1054226704591E+01
 0.1088298947040E+01
 0.1114878584596E+01
 0.1132263719025E+01
 0.1138747545788E+01
 0.1133018571585E+01
 0.1114644798258E+01
 0.1484333027559E+00
 0.2689285159179E+00
 0.3744832875208E+00
 0.4672631129974E+00
 0.5499040711277E+00
 0.6246538314569E+00
 0.6932600463957E+00
 0.7569646859935E+00
 0.8165320282586E+00
 0.8723002028876E+00
 0.9242478776606E+00
 0.9720678193579E+00
 0.1015244645292E+01
 0.1053036903942E+01
 0.1084407360658E+01
 0.1107999577410E+01
 0.1122234274023E+01
 0.1125584048579E+01
 0.1116973440125E+01
 0.1096275186374E+01
 0.1508804224802E+00
 0.2716442413031E+00
 0.3778703690584E+00
 0.4714759959062E+00
 0.5549041439230E+00
 0.6302568077223E+00
 0.6991748798708E+00
 0.7628285882660E+00
 0.8219426021193E+00
 0.8768431666016E+00
 0.9275180341152E+00
 0.9736794153734E+00
 0.1014824277707E+01
 0.1050220600958E+01
 0.1078859171410E+01
 0.1099453619837E+01
 0.1110551104458E+01
 0.1110801761264E+01
 0.1099342354710E+01
 0.1076257134993E+01
 0.1530935449665E+00
 0.2738503920078E+00
 0.3805097631536E+00
 0.4747490682689E+00
 0.5588151834140E+00
 0.6346578571278E+00
 0.7038043361637E+00
 0.7673465018893E+00
 0.8259630828986E+00
 0.8799623266963E+00
 0.9293350891505E+00
 0.9738078795176E+00
 0.1012889812722E+01
 0.1045863722518E+01
 0.1071756485730E+01
 0.1089358322883E+01
 0.1097343973871E+01
 0.1094532884894E+01
 0.1080245273770E+01
 0.1054709391526E+01
 0.1550838165683E+00
 0.2755721621949E+00
 0.3824377541161E+00
 0.4771262731794E+00
 0.5616863246981E+00
 0.6379096765828E+00
 0.7072034673598E+00
 0.7705750280479E+00
 0.8286513748579E+00
 0.8817174277666E+00
 0.9297622696565E+00
 0.9725230010722E+00
 0.1009521300862E+01
 0.1040059435279E+01
 0.1063206530210E+01
 0.1077833460781E+01
 0.1082740422208E+01
 0.1076903986125E+01
 0.1059800700857E+01
 0.1031756154884E+01
 0.1568618504156E+00
 0.2768341493623E+00
 0.3836910162392E+00
 0.4786533074433E+00
 0.5635696281124E+00
 0.6400687167340E+00
 0.7094317238168E+00
 0.7725757812319E+00
 0.8300710887376E+00
 0.8821747201048E+00
 0.9288700783407E+00
 0.9699021583421E+00
 0.1004805836702E+01
 0.1032906536950E+01
 0.1053320053960E+01
 0.1064999613235E+01
 0.1066866028416E+01
 0.1058039169728E+01
 0.1038128566539E+01
 0.1007527728002E+01
 0.1584381149301E+00
 0.2776609020997E+00
 0.3843068739488E+00
 0.4793775762386E+00
 0.5645198955448E+00
 0.6411950047340E+00
 0.7105527959977E+00
 0.7734152060798E+00
 0.8302912447398E+00
 0.8814064204579E+00
 0.9267353774073E+00
 0.9660290241259E+00
 0.9988360799734E+00
 0.1024507990561E+01
 0.1042210053347E+01
 0.1050977516335E+01
 0.1049845192224E+01
 0.1038062151781E+01
 0.1015351281194E+01
 0.9821554667944E+00
 0.1598231758112E+00
 0.2780772898149E+00
 0.3843235393649E+00
 0.4793482232718E+00
 0.5645945600707E+00
 0.6413519717312E+00
 0.7106344049233E+00
 0.7731642964854E+00
 0.8293858503013E+00
 0.8794900599209E+00
 0.9234404454296E+00
 0.9609923729206E+00
 0.9917089490561E+00
 0.1014969684357E+01
 0.1029990836173E+01
 0.1035887804128E+01
 0.1031801800559E+01
 0.1017097508828E+01
 0.9915940222399E+00
 0.9557704297553E+00
 0.1610278463193E+00
 0.2781087539956E+00
 0.3837803036008E+00
 0.4786161845058E+00
 0.5638536108101E+00
 0.6406062854844E+00
 0.7097480552979E+00
 0.7718982455694E+00
 0.8274333975859E+00
 0.8765077772057E+00
 0.9190720472137E+00
 0.9548849799816E+00
 0.9835244687206E+00
 0.1004399395915E+01
 0.1016777318808E+01
 0.1019850844252E+01
 0.1012859607102E+01
 0.9952711191283E+00
 0.9669855472692E+00
 0.9285077802786E+00
 0.1620632827617E+00
 0.2777814779854E+00
 0.3827176822610E+00
 0.4772342380271E+00
 0.5623595281814E+00
 0.6390276781714E+00
 0.7079687575251E+00
 0.7696960448248E+00
 0.8245163105544E+00
 0.8725455901080E+00
 0.9137205358559E+00
 0.9478026140775E+00
 0.9743847637607E+00
 0.9929059336113E+00
 0.1002684470103E+01
 0.1002986570541E+01
 0.9931423350258E+00
 0.9727103230467E+00
 0.9416585940179E+00
 0.9005087762001E+00
 0.1629410455191E+00
 0.2771225004136E+00
 0.3811775223591E+00
 0.4752570418890E+00
 0.5601772195451E+00
 0.6366887688494E+00
 0.7053747301428E+00
 0.7666400545092E+00
 0.8207203695805E+00
 0.8676926707826E+00
 0.9074790009549E+00
 0.9398431217664E+00
 0.9643931780286E+00
 0.9805984062503E+00
 0.9878268268661E+00
 0.9854142518346E+00
 0.9727735859432E+00
 0.9495438166892E+00
 0.9157495224806E+00
 0.8719207185118E+00
 0.1636731381591E+00
 0.2761597901598E+00
 0.3792030794625E+00
 0.4727411588742E+00
 0.5573739515841E+00
 0.6336648815094E+00
 0.7020470914122E+00
 0.7628155606623E+00
 0.8161341314023E+00
 0.8620406386739E+00
 0.9004424664372E+00
 0.9311055920459E+00
 0.9536534895168E+00
 0.9675855727541E+00
 0.9723180264681E+00
 0.9672521795997E+00
 0.9518765698795E+00
 0.9259012268340E+00
 0.8893975608064E+00
 0.8428963716745E+00
 0.1642720310690E+00
 0.2749222949786E+00
 0.3768390729190E+00
 0.4697450703560E+00
 0.5540192794677E+00
 0.6300338612667E+00
 0.6980695475219E+00
 0.7583103304989E+00
 0.8108483572847E+00
 0.8556828805699E+00
 0.8927071395733E+00
 0.9216895920727E+00
 0.9422692007381E+00
 0.9539752445094E+00
 0.9562703388920E+00
 0.9486172825370E+00
 0.9305736787507E+00
 0.9019124649082E+00
 0.8627438758576E+00
 0.8135930507590E+00
 0.1647506768819E+00
 0.2734399742870E+00
 0.3741317286265E+00
 0.4663291853920E+00
 0.5501849772197E+00
 0.6258758941291E+00
 0.6935280855448E+00
 0.7532141765893E+00
 0.8049554597575E+00
 0.8487139046866E+00
 0.8843697112688E+00
 0.9116944654091E+00
 0.9303428884363E+00
 0.9398737236461E+00
 0.9397941919859E+00
 0.9296246793156E+00
 0.9089859463511E+00
 0.8777069535667E+00
 0.8359305124007E+00
 0.7841715328076E+00
 0.1651225213427E+00
 0.2717438241558E+00
 0.3711288175466E+00
 0.4625558515704E+00
 0.5459449744226E+00
 0.6212733355508E+00
 0.6885106773950E+00
 0.7476185366843E+00
 0.7985489735242E+00
 0.8412287303915E+00
 0.8755267026496E+00
 0.9012186802078E+00
 0.9179755943525E+00
 0.9253852588787E+00
 0.9229976792543E+00
 0.9103871746428E+00
 0.8872324228879E+00
 0.8534127621410E+00
 0.8090992365543E+00
 0.7547948102447E+00
 0.1654015131211E+00
 0.2698659018143E+00
 0.3678796983249E+00
 0.4584893749904E+00
 0.5413753053300E+00
 0.6163105532336E+00
 0.6831070002959E+00
 0.7416160745753E+00
 0.7917230546552E+00
 0.8333223146366E+00
 0.8662738544583E+00
 0.8903592192657E+00
 0.9052662467350E+00
 0.9106115112456E+00
 0.9059860517099E+00
 0.8910147182960E+00
 0.8654294978130E+00
 0.8291556839142E+00
 0.7823903267263E+00
 0.7256266909784E+00
 0.1656021156199E+00
 0.2678393563699E+00
 0.3644353723526E+00
 0.4541960571621E+00
 0.5365540767759E+00
 0.6110737894021E+00
 0.6774081782991E+00
 0.7353003058583E+00
 0.7845720105797E+00
 0.8250890151212E+00
 0.8567055558357E+00
 0.8792110052526E+00
 0.8923111045817E+00
 0.8956510242304E+00
 0.8888611961253E+00
 0.8716138407313E+00
 0.8436902050949E+00
 0.8050582697691E+00
 0.7559412642994E+00
 0.6968299632417E+00
 0.1657393236808E+00
 0.2656984723778E+00
 0.3608485597905E+00
 0.4497442568745E+00
 0.5315614612583E+00
 0.6056510472366E+00
 0.6715065483098E+00
 0.7287652511317E+00
 0.7771898622836E+00
 0.8166220898538E+00
 0.8469143098378E+00
 0.8678663562651E+00
 0.8792032188825E+00
 0.8805986944902E+00
 0.8717211013891E+00
 0.8522870755912E+00
 0.8221235256202E+00
 0.7812388700074E+00
 0.7298850592942E+00
 0.6685622741313E+00
 0.1658286880375E+00
 0.2634787331084E+00
 0.3571738054551E+00
 0.4452044853096E+00
 0.5264797213697E+00
 0.6001320054109E+00
 0.6654954529526E+00
 0.7221051180034E+00
 0.7696699394335E+00
 0.8080132330352E+00
 0.8369902344488E+00
 0.8564144691233E+00
 0.8660319074418E+00
 0.8655452405118E+00
 0.8546593136378E+00
 0.8331323749704E+00
 0.8008336936200E+00
 0.7578106576272E+00
 0.7043483540560E+00
 0.6409722826222E+00
 0.1658863506500E+00
 0.2612169110026E+00
 0.3534676242352E+00
 0.4406495430864E+00
 0.5213932715444E+00
 0.5946079638974E+00
 0.6594690615003E+00
 0.7154140122949E+00
 0.7621045088119E+00
 0.7993521479744E+00
 0.8270205998993E+00
 0.8449409306972E+00
 0.8528822424845E+00
 0.8505766675941E+00
 0.8377643793215E+00
 0.8142425193495E+00
 0.7799195124483E+00
 0.7348806315430E+00
 0.6794498217636E+00
 0.6141981595784E+00
 0.1659290945185E+00
 0.2589511938442E+00
 0.3497886967760E+00
 0.4361547083596E+00
 0.5163887826532E+00
 0.5891718230208E+00
 0.6535222185307E+00
 0.7087856773798E+00
 0.7545844356796E+00
 0.7907261581605E+00
 0.8170894048433E+00
 0.8335272600241E+00
 0.8398345521438E+00
 0.8357737273058E+00
 0.8211192718163E+00
 0.7957045190547E+00
 0.7594736880993E+00
 0.7125487342106E+00
 0.6552989528460E+00
 0.5883658801288E+00
 0.1659744121851E+00
 0.2567213567120E+00
 0.3461981276460E+00
 0.4317979856451E+00
 0.5115553343911E+00
 0.5839180962887E+00
 0.6477503181130E+00
 0.7023132588482E+00
 0.7471988766664E+00
 0.7822198580122E+00
 0.8072769961225E+00
 0.8222504873869E+00
 0.8269639399442E+00
 0.8212113702834E+00
 0.8048007948300E+00
 0.7775990003758E+00
 0.7395822036748E+00
 0.6909071561943E+00
 0.6319950381029E+00
 0.5635871053374E+00
 0.1660405982042E+00
 0.2545689920965E+00
 0.3427597803252E+00
 0.4276604258485E+00
 0.5069846197300E+00
 0.5789429558535E+00
 0.6422491992213E+00
 0.6960890896306E+00
 0.7400350013647E+00
 0.7739148049333E+00
 0.7976597393830E+00
 0.8111827812224E+00
 0.8143398311771E+00
 0.8069581935239E+00
 0.7888789547333E+00
 0.7599995674581E+00
 0.7203237406565E+00
 0.6700397992712E+00
 0.6096263331798E+00
 0.5399571660840E+00
 0.1661468723829E+00
 0.2525378137862E+00
 0.3395407061988E+00
 0.4238265289301E+00
 0.5027712047941E+00
 0.5743443074735E+00
 0.6371150557395E+00
 0.6902044883834E+00
 0.7331777378209E+00
 0.7658892537608E+00
 0.7883097505195E+00
 0.8003911404718E+00
 0.8020255632523E+00
 0.7930758883302E+00
 0.7734162943595E+00
 0.7429721259218E+00
 0.7017691220985E+00
 0.6500218767001E+00
 0.5882694745172E+00
 0.5175533324558E+00
 0.1663135432254E+00
 0.2506740547958E+00
 0.3366116882583E+00
 0.4203847409850E+00
 0.4990128451113E+00
 0.5702218880428E+00
 0.6324443501697E+00
 0.6847495591598E+00
 0.7267095313683E+00
 0.7582179286802E+00
 0.7792946945364E+00
 0.7899371721396E+00
 0.7900780426439E+00
 0.7796186945129E+00
 0.7584671680334E+00
 0.7265741329160E+00
 0.6839807329277E+00
 0.6309196072670E+00
 0.5679891996120E+00
 0.4964333431152E+00
 0.1665622231321E+00
 0.2490269859697E+00
 0.3340479246234E+00
 0.4174280580204E+00
 0.4958108568258E+00
 0.5666773758922E+00
 0.6283337183553E+00
 0.6798129794908E+00
 0.7207101048355E+00
 0.7509718256039E+00
 0.7706776599730E+00
 0.7798769867001E+00
 0.7785475172454E+00
 0.7666328923446E+00
 0.7440769404278E+00
 0.7108537344539E+00
 0.6670119028757E+00
 0.6127899747506E+00
 0.5488383049749E+00
 0.4766343003928E+00
 0.1669161142826E+00
 0.2476495925490E+00
 0.3319298842871E+00
 0.4150547493135E+00
 0.4932705377721E+00
 0.5638144998494E+00
 0.6248798500373E+00
 0.6754817627390E+00
 0.7152562049336E+00
 0.7442180294085E+00
 0.7625171064137E+00
 0.7702612452653E+00
 0.7674775383706E+00
 0.7541563993880E+00
 0.7302810920535E+00
 0.6958486890386E+00
 0.6509062482021E+00
 0.5956806241502E+00
 0.5308576182576E+00
 0.4581716571967E+00
 0.1674003910009E+00
 0.2465994592057E+00
 0.3303443728471E+00
 0.4133692079282E+00
 0.4915016224392E+00
 0.5617391225383E+00
 0.6221793228563E+00
 0.6718409764268E+00
 0.7104213141120E+00
 0.7380195150044E+00
 0.7548668536277E+00
 0.7611353693085E+00
 0.7569052040797E+00
 0.7422185959534E+00
 0.7171042390119E+00
 0.6815848694259E+00
 0.6356967679629E+00
 0.5796302785531E+00
 0.5140760308041E+00
 0.4410378863430E+00
 0.1680427184997E+00
 0.2459399366690E+00
 0.3293858540621E+00
 0.4124829283141E+00
 0.4906187417822E+00
 0.5605592641770E+00
 0.6203283642716E+00
 0.6689734009291E+00
 0.7062753142371E+00
 0.7324348995490E+00
 0.7477760511612E+00
 0.7525398763451E+00
 0.7468617864171E+00
 0.7308406239503E+00
 0.7045592005171E+00
 0.6680740862011E+00
 0.6214041195409E+00
 0.5646697834367E+00
 0.4985129939127E+00
 0.4252025280234E+00
 0.1688739718510E+00
 0.2457416971531E+00
 0.3291580799045E+00
 0.4125155920754E+00
 0.4907418384012E+00
 0.5603850222957E+00
 0.6194225151091E+00
 0.6669591183249E+00
 0.7028841047177E+00
 0.7275181411865E+00
 0.7412890552528E+00
 0.7445107215438E+00
 0.7373737883337E+00
 0.7200365900324E+00
 0.6926465895195E+00
 0.6553110214919E+00
 0.6080331738547E+00
 0.5508228253016E+00
 0.4841862997657E+00
 0.4106214463561E+00
 0.1699292691025E+00
 0.2460848465230E+00
 0.3297760748111E+00
 0.4135962022810E+00
 0.4919964491106E+00
 0.5613283312142E+00
 0.6195561612046E+00
 0.6658750123351E+00
 0.7003091700651E+00
 0.7233181957305E+00
 0.7354451732832E+00
 0.7370793473839E+00
 0.7284641696929E+00
 0.7098161093016E+00
 0.6813560530186E+00
 0.6432693646159E+00
 0.5955660280203E+00
 0.5381048898639E+00
 0.4711229742310E+00
 0.3972577488510E+00
 0.1712495268801E+00
 0.2470618317370E+00
 0.3313684901039E+00
 0.4158640846320E+00
 0.4945137289832E+00
 0.5635024944540E+00
 0.6208219095512E+00
 0.6657941509708E+00
 0.6986070930078E+00
 0.7198786744752E+00
 0.7302783726868E+00
 0.7302723291260E+00
 0.7201527405429E+00
 0.7001883020115E+00
 0.6706713932914E+00
 0.6318990923768E+00
 0.5839483865111E+00
 0.5265159517937E+00
 0.4593739147800E+00
 0.3850967448039E+00
 0.1728839496251E+00
 0.2487816778402E+00
 0.3340800468161E+00
 0.4194694825786E+00
 0.4984299915778E+00
 0.5670215341075E+00
 0.6233097842315E+00
 0.6667850073999E+00
 0.6978289849217E+00
 0.7172375344091E+00
 0.7258170752849E+00
 0.7241109205153E+00
 0.7124550479788E+00
 0.6911635307347E+00
 0.6605840112402E+00
 0.6211309890142E+00
 0.5730667755304E+00
 0.5160130819072E+00
 0.4490319823898E+00
 0.3741814198838E+00
 0.1748947989275E+00
 0.2513754350282E+00
 0.3380739166597E+00
 0.4245723420535E+00
 0.5038860997944E+00
 0.5719993674024E+00
 0.6271061592289E+00
 0.6689104728551E+00
 0.6980197552141E+00
 0.7154267855582E+00
 0.7220842196238E+00
 0.7186107896615E+00
 0.7053810933852E+00
 0.6827492238667E+00
 0.6511019001276E+00
 0.6109225907432E+00
 0.5627118766383E+00
 0.5064334774872E+00
 0.4402395694255E+00
 0.3647263487791E+00
 0.1773657841969E+00
 0.2550092575903E+00
 0.3435251133824E+00
 0.4313413856526E+00
 0.5110268099917E+00
 0.5785487080294E+00
 0.6322926108187E+00
 0.6722263180893E+00
 0.6992172930483E+00
 0.7144721283143E+00
 0.7190974779664E+00
 0.7137826978667E+00
 0.6989339521838E+00
 0.6749466042083E+00
 0.6422321956787E+00
 0.6013082405764E+00
 0.5527268610088E+00
 0.4971509149707E+00
 0.4331689292412E+00
 0.3574483458326E+00
 0.1804574744615E+00
 0.2598419790887E+00
 0.3506172581378E+00
 0.4399544545207E+00
 0.5199983027925E+00
 0.5867807774066E+00
 0.6389446712200E+00
 0.6767790489577E+00
 0.7014501296117E+00
 0.7143943063154E+00
 0.7168685329030E+00
 0.7096330875321E+00
 0.6931128186689E+00
 0.6677427095532E+00
 0.6339776847855E+00
 0.5923148489598E+00
 0.5432971473774E+00
 0.4874609912977E+00
 0.4259668457285E+00
 0.3555018558491E+00
 0.1271543349503E+00
 0.1848129266193E+00
 0.1367855133764E+00
 0.7691945395481E-01
 0.1706610934769E-01
 0.3801729445170E-01
 0.8611325436186E-01
 0.1258352526693E+00
 0.1560444189902E+00
 0.1756661287077E+00
 0.1829601612518E+00
 0.1748466560857E+00
 0.1570877409936E+00
 0.1395900273961E+00
 0.1346549834034E+00
 0.1783502154714E+00
 0.2185084419175E+00
 0.1900930941502E+00
 0.1472313783490E+00
 0.1249050262749E+00
 0.8460517047245E-01
 0.1314711824413E+00
 0.9518101619091E-01
 0.4191930012210E-01
 0.1363940260681E-01
 0.6680920388670E-01
 0.1151316397928E+00
 0.1570683462817E+00
 0.1914938634022E+00
 0.2173894649466E+00
 0.2334774160662E+00
 0.2388238983754E+00
 0.2400084286912E+00
 0.2479587173254E+00
 0.2792540617584E+00
 0.3574397459735E+00
 0.4210877357175E+00
 0.3945016616520E+00
 0.3218444075056E+00
 0.2620190160896E+00
 0.5108193564569E-01
 0.7866016238526E-01
 0.5076596273295E-01
 0.4400169360809E-02
 0.4724804776411E-01
 0.9855919577582E-01
 0.1470113104526E+00
 0.1910263810319E+00
 0.2295218292031E+00
 0.2616884375905E+00
 0.2869454618007E+00
 0.3055122927529E+00
 0.3239025569627E+00
 0.3536848682760E+00
 0.4089693264980E+00
 0.5021387335679E+00
 0.5755668307643E+00
 0.5585298725222E+00
 0.4820447709144E+00
 0.4030889921836E+00
 0.2403816325347E-01
 0.3223321341473E-01
 0.6230771068581E-02
 0.3506467391449E-01
 0.8304850465702E-01
 0.1326583465141E+00
 0.1811998638208E+00
 0.2271325579492E+00
 0.2694740142390E+00
 0.3076793843957E+00
 0.3416878530246E+00
 0.3723653492749E+00
 0.4056161756435E+00
 0.4519958473879E+00
 0.5223548579993E+00
 0.6214434364718E+00
 0.6985824632983E+00
 0.6914819558474E+00
 0.6196011390872E+00
 0.5322255938565E+00
 0.3441792478010E-02
 0.8442442927900E-02
 0.3629799527243E-01
 0.7502377455612E-01
 0.1202957931983E+00
 0.1684669788928E+00
 0.2171160363086E+00
 0.2648042492893E+00
 0.3106904601376E+00
 0.3544574616825E+00
 0.3963762393743E+00
 0.4375692145666E+00
 0.4828928735580E+00
 0.5413316730287E+00
 0.6207572414133E+00
 0.7210044070830E+00
 0.7986813699937E+00
 0.8001780156687E+00
 0.7361051531368E+00
 0.6468489201110E+00
 0.1775040930529E-01
 0.4328825408830E-01
 0.7570575107649E-01
 0.1142554068303E+00
 0.1581007780908E+00
 0.2053159578045E+00
 0.2541609543729E+00
 0.3034530780983E+00
 0.3525180295466E+00
 0.4012103555978E+00
 0.4499629097576E+00
 0.4998606351431E+00
 0.5545779868360E+00
 0.6214360853535E+00
 0.7058577132563E+00
 0.8046124830176E+00
 0.8810095660698E+00
 0.8894809971538E+00
 0.8341839914730E+00
 0.7470863202904E+00
 0.3365687631006E-01
 0.7367667974915E-01
 0.1118163853793E+00
 0.1519227811541E+00
 0.1956027962261E+00
 0.2425026692572E+00
 0.2917252782966E+00
 0.3424926971738E+00
 0.3943368132635E+00
 0.4472336575443E+00
 0.5016453696850E+00
 0.5584457073858E+00
 0.6201734205740E+00
 0.6926002700470E+00
 0.7792072531590E+00
 0.8749505142995E+00
 0.9490018256588E+00
 0.9629183507266E+00
 0.9163397721811E+00
 0.8338230176638E+00
 0.4741119646182E-01
 0.1001076991732E+00
 0.1446161405108E+00
 0.1875067028472E+00
 0.2321021346293E+00
 0.2793520830507E+00
 0.3292022699425E+00
 0.3813514642492E+00
 0.4355724987807E+00
 0.4919306000096E+00
 0.5508323374448E+00
 0.6128609698126E+00
 0.6795572508046E+00
 0.7553293482293E+00
 0.8421505518564E+00
 0.9340108096097E+00
 0.1005093563663E+01
 0.1023129032699E+01
 0.9847276369695E+00
 0.9081707110087E+00
 0.5936807065113E-01
 0.1231271777615E+00
 0.1742183233551E+00
 0.2207048270454E+00
 0.2670660091970E+00
 0.3152702668712E+00
 0.3660174792042E+00
 0.4194866234465E+00
 0.4757036582942E+00
 0.5348049981407E+00
 0.5970992337985E+00
 0.6628645157322E+00
 0.7328151332854E+00
 0.8101976386071E+00
 0.8958364573733E+00
 0.9833281827182E+00
 0.1051092956633E+01
 0.1072139708841E+01
 0.1041164382863E+01
 0.9712685132024E+00
 0.6983655049043E-01
 0.1431959006928E+00
 0.2007911829040E+00
 0.2513575371286E+00
 0.3001060332194E+00
 0.3497628299716E+00
 0.4016555456109E+00
 0.4564008421560E+00
 0.5142670413273E+00
 0.5754500864484E+00
 0.6401482088833E+00
 0.7083588095216E+00
 0.7801438997131E+00
 0.8577832248333E+00
 0.9412463115979E+00
 0.1024121389083E+01
 0.1088392696761E+01
 0.1111546719536E+01
 0.1087181549414E+01
 0.1024210089509E+01
 0.7906113318087E-01
 0.1606981002501E+00
 0.2245227353702E+00
 0.2793990112962E+00
 0.3309499717578E+00
 0.3824351363475E+00
 0.4356747001207E+00
 0.4916558186322E+00
 0.5508616330802E+00
 0.6135375620636E+00
 0.6797766031320E+00
 0.7493393896273E+00
 0.8217965080663E+00
 0.8986393402258E+00
 0.9792230241753E+00
 0.1057383229303E+01
 0.1118099695930E+01
 0.1142637516040E+01
 0.1124080946830E+01
 0.1068017590356E+01
 0.8723446329427E-01
 0.1759537718621E+00
 0.2456031371376E+00
 0.3048251758941E+00
 0.3594165889189E+00
 0.4129839412707E+00
 0.4677113528721E+00
 0.5248799701581E+00
 0.5851507890798E+00
 0.6488083830141E+00
 0.7158539930969E+00
 0.7858618867086E+00
 0.8580512407550E+00
 0.9332837356626E+00
 0.1010496794498E+01
 0.1083940542540E+01
 0.1141117750738E+01
 0.1166472957361E+01
 0.1152981275664E+01
 0.1103635455309E+01
 0.9450917729903E-01
 0.1892299532470E+00
 0.2642159904730E+00
 0.3276727364352E+00
 0.3853952846901E+00
 0.4411860900058E+00
 0.4974781921793E+00
 0.5557706341600E+00
 0.6168619549257E+00
 0.6810651968725E+00
 0.7483060965436E+00
 0.8180213946568E+00
 0.8891952877731E+00
 0.9621974045333E+00
 0.1035707327752E+01
 0.1104495697231E+01
 0.1158201462251E+01
 0.1183942908517E+01
 0.1174854236736E+01
 0.1131932288324E+01
 0.1010070401838E+00
 0.2007502902426E+00
 0.2805343812967E+00
 0.3480053698994E+00
 0.4088302360790E+00
 0.4668869385594E+00
 0.5247586903201E+00
 0.5840922354891E+00
 0.6457842257024E+00
 0.7101657824703E+00
 0.7771034022195E+00
 0.8459396478663E+00
 0.9155167647693E+00
 0.9858284665160E+00
 0.1055423720536E+01
 0.1119656996810E+01
 0.1169991889486E+01
 0.1195802612378E+01
 0.1190550465902E+01
 0.1153705697255E+01
 0.1068258183435E+00
 0.2107029391873E+00
 0.2947194640375E+00
 0.3659045874094E+00
 0.4297082248979E+00
 0.4899896477843E+00
 0.5493999579426E+00
 0.6096719540767E+00
 0.6717643627962E+00
 0.7360170638055E+00
 0.8022526846453E+00
 0.8697565208720E+00
 0.9373009808089E+00
 0.1004598739497E+01
 0.1070163735952E+01
 0.1129964104323E+01
 0.1177041291891E+01
 0.1202694249085E+01
 0.1200814897422E+01
 0.1169687210774E+01
 0.1120444187815E+00
 0.2192469971681E+00
 0.3069204444760E+00
 0.3814637035222E+00
 0.4480493506457E+00
 0.5104457328512E+00
 0.5713051225141E+00
 0.6323941171721E+00
 0.6947019955252E+00
 0.7585695910559E+00
 0.8237902054474E+00
 0.8896233490441E+00
 0.9548272669055E+00
 0.1018910051462E+01
 0.1080413950869E+01
 0.1135915118642E+01
 0.1179835504518E+01
 0.1205156746986E+01
 0.1206288794476E+01
 0.1180543600912E+01
 0.1167266360902E+00
 0.2265176930797E+00
 0.3172753440755E+00
 0.3947840239146E+00
 0.4638999534711E+00
 0.5282468930658E+00
 0.5904258228164E+00
 0.6521941751053E+00
 0.7145446822969E+00
 0.7778127156881E+00
 0.8417761657300E+00
 0.9056967633709E+00
 0.9683635365973E+00
 0.1029144415908E+01
 0.1086647530476E+01
 0.1138004380225E+01
 0.1178828340292E+01
 0.1203632891110E+01
 0.1207489577902E+01
 0.1186866502029E+01
 0.1209237539899E+00
 0.2326302449990E+00
 0.3259126279045E+00
 0.4059726091010E+00
 0.4773274128485E+00
 0.5434178411881E+00
 0.6067550212726E+00
 0.6690527151576E+00
 0.7312834696186E+00
 0.7937708636957E+00
 0.8562907212623E+00
 0.9181331614470E+00
 0.9781579193541E+00
 0.1035653326801E+01
 0.1089320304758E+01
 0.1136765226714E+01
 0.1174531094781E+01
 0.1198497029088E+01
 0.1204763429100E+01
 0.1189124955012E+01
 0.1246752044399E+00
 0.2376843752774E+00
 0.3329523412407E+00
 0.4151429244155E+00
 0.4884157898444E+00
 0.5560098630249E+00
 0.6203201172514E+00
 0.6829894370872E+00
 0.7449492844913E+00
 0.8065021607418E+00
 0.8674316864139E+00
 0.9270852347019E+00
 0.9844303298804E+00
 0.1038738380907E+01
 0.1088835114441E+01
 0.1132732294216E+01
 0.1167652054217E+01
 0.1190321154721E+01
 0.1198166001291E+01
 0.1187491431772E+01
 0.1280145171743E+00
 0.2417529164194E+00
 0.3385189031548E+00
 0.4224150914066E+00
 0.4972615502738E+00
 0.5660950273117E+00
 0.6311761541201E+00
 0.6940568916933E+00
 0.7556089287947E+00
 0.8161008926126E+00
 0.8753192832452E+00
 0.9326952907097E+00
 0.9873694803969E+00
 0.1038640065573E+01
 0.1085492372267E+01
 0.1126321388300E+01
 0.1158875414618E+01
 0.1180402226196E+01
 0.1188316655947E+01
 0.1181488977303E+01
 0.1855292802872E+00
 0.2681666903115E+00
 0.3628963730614E+00
 0.4548871242873E+00
 0.5357499666732E+00
 0.6015564803928E+00
 0.6512880924316E+00
 0.6856624003292E+00
 0.7062502003352E+00
 0.7148149860541E+00
 0.7128633671366E+00
 0.7014240737023E+00
 0.6810325462891E+00
 0.6522418462161E+00
 0.6156623598060E+00
 0.5717674366927E+00
 0.5211215753176E+00
 0.4644505621934E+00
 0.4041364190405E+00
 0.3497212427177E+00
 0.1916094820942E+00
 0.2800661590103E+00
 0.3805464327493E+00
 0.4764017177648E+00
 0.5584871903814E+00
 0.6229949399456E+00
 0.6693905291778E+00
 0.6989775170273E+00
 0.7138657680561E+00
 0.7162481557208E+00
 0.7079646070424E+00
 0.6903287796711E+00
 0.6640601538182E+00
 0.6299235307284E+00
 0.5887758729999E+00
 0.5412641170619E+00
 0.4883010873382E+00
 0.4312652326578E+00
 0.3743791355335E+00
 0.3174669685254E+00
 0.1985621221972E+00
 0.2943833496758E+00
 0.4015405695860E+00
 0.5014093189251E+00
 0.5842970418623E+00
 0.6467216652903E+00
 0.6888485004981E+00
 0.7127378525617E+00
 0.7211580258539E+00
 0.7168038788266E+00
 0.7018734265389E+00
 0.6779351210246E+00
 0.6458678298632E+00
 0.6066380667991E+00
 0.5613396847435E+00
 0.5108663693284E+00
 0.4564797434743E+00
 0.4000322665880E+00
 0.3433312917810E+00
 0.2815073263090E+00
 0.2067253115150E+00
 0.3115168555733E+00
 0.4263164419864E+00
 0.5302437922066E+00
 0.6132950717261E+00
 0.6726298461187E+00
 0.7093808180074E+00
 0.7265626182665E+00
 0.7277208488431E+00
 0.7161031822930E+00
 0.6942651541198E+00
 0.6639978725024E+00
 0.6263072228886E+00
 0.5823478869568E+00
 0.5334289923842E+00
 0.4806128654562E+00
 0.4252722966182E+00
 0.3686126193621E+00
 0.3105579693997E+00
 0.2466392967668E+00
 0.2164005605261E+00
 0.3320442109271E+00
 0.4553927872151E+00
 0.5632281779488E+00
 0.6455317339208E+00
 0.7005079208637E+00
 0.7305871855717E+00
 0.7399566763815E+00
 0.7330491603654E+00
 0.7136909808179E+00
 0.6847697227976E+00
 0.6482482554057E+00
 0.6052146929313E+00
 0.5569777027046E+00
 0.5049788677012E+00
 0.4502892927872E+00
 0.3940509122839E+00
 0.3368014152197E+00
 0.2777715394301E+00
 0.2137748461825E+00
 0.2279417719425E+00
 0.3566394055998E+00
 0.4893665595647E+00
 0.6006682620588E+00
 0.6809633937143E+00
 0.7300083904777E+00
 0.7519226070510E+00
 0.7522974223066E+00
 0.7365418503148E+00
 0.7090521657967E+00
 0.6729884842067E+00
 0.6304084552723E+00
 0.5824184688038E+00
 0.5304201912686E+00
 0.4758765896253E+00
 0.4197106589209E+00
 0.3627602416701E+00
 0.3051377722378E+00
 0.2459127929364E+00
 0.1831858811863E+00
 0.2417797305701E+00
 0.3861042171139E+00
 0.5288953606479E+00
 0.6428284907766E+00
 0.7194153012996E+00
 0.7606096271349E+00
 0.7726713907401E+00
 0.7628268419024E+00
 0.7375111899298E+00
 0.7016315912951E+00
 0.6585172376126E+00
 0.6102125203715E+00
 0.5577606494617E+00
 0.5025833609134E+00
 0.4460596914302E+00
 0.3888857048593E+00
 0.3316213995279E+00
 0.2741231734334E+00
 0.2155372252588E+00
 0.1549641031394E+00
 0.2584503129437E+00
 0.4213979107995E+00
 0.5746908920767E+00
 0.6898919229189E+00
 0.7605299695533E+00
 0.7915701627416E+00
 0.7919218444587E+00
 0.7706509259844E+00
 0.7352016823104E+00
 0.6908626943446E+00
 0.6409757601341E+00
 0.5874334740106E+00
 0.5311269430500E+00
 0.4734286392296E+00
 0.4155549532746E+00
 0.3579415469766E+00
 0.3009056745167E+00
 0.2441490459178E+00
 0.1869693330626E+00
 0.1291604994046E+00
 0.2786294123629E+00
 0.4636751217355E+00
 0.6275056540641E+00
 0.7419040024210E+00
 0.8036967799085E+00
 0.8218744916103E+00
 0.8085448923245E+00
 0.7747511470244E+00
 0.7288226551064E+00
 0.6762066019802E+00
 0.6200431413259E+00
 0.5619119591795E+00
 0.5024697096933E+00
 0.4429854522546E+00
 0.3844579712104E+00
 0.3270500890521E+00
 0.2708631602046E+00
 0.2154961406115E+00
 0.1604005002768E+00
 0.1058111789384E+00
 0.3031802406989E+00
 0.5143327468286E+00
 0.6881064914792E+00
 0.7986889308887E+00
 0.8479577336289E+00
 0.8501714147706E+00
 0.8211830888876E+00
 0.7740154169322E+00
 0.7175989702657E+00
 0.6572019003883E+00
 0.5954955066328E+00
 0.5335800367204E+00
 0.4718190414072E+00
 0.4113455994963E+00
 0.3529054494370E+00
 0.2963886547854E+00
 0.2416983346729E+00
 0.1883544278472E+00
 0.1359365692340E+00
 0.8493717928322E-01
 0.3332198310728E+00
 0.5750684942006E+00
 0.7572231520984E+00
 0.8597229075494E+00
 0.8918816310919E+00
 0.8747099590084E+00
 0.8282619577331E+00
 0.7672987418917E+00
 0.7008432645948E+00
 0.6335221628753E+00
 0.5672402268990E+00
 0.5024750869952E+00
 0.4392813835817E+00
 0.3786493506285E+00
 0.3210528239657E+00
 0.2661190661536E+00
 0.2135650272458E+00
 0.1628406567701E+00
 0.1136223050048E+00
 0.6653793564569E-01
 0.3702156198944E+00
 0.6479532371804E+00
 0.8354505925533E+00
 0.9239387684339E+00
 0.9333988676560E+00
 0.8932861074902E+00
 0.8280440987385E+00
 0.7535258347131E+00
 0.6780493383736E+00
 0.6050333557923E+00
 0.5353385723310E+00
 0.4687398729856E+00
 0.4050277268492E+00
 0.3450681856029E+00
 0.2890567260199E+00
 0.2363767179715E+00
 0.1865680160002E+00
 0.1390124301539E+00
 0.9345479080097E-01
 0.5058587645415E-01
 0.4161304223673E+00
 0.7355172213565E+00
 0.9230636156293E+00
 0.9894207919139E+00
 0.9695935232762E+00
 0.9032313112945E+00
 0.8187583279809E+00
 0.7318460687178E+00
 0.6489968876915E+00
 0.5718363884162E+00
 0.5000076763198E+00
 0.4326070351639E+00
 0.3692737824771E+00
 0.3107862061237E+00
 0.2570609923595E+00
 0.2072648133449E+00
 0.1607673931543E+00
 0.1168800127425E+00
 0.7539271971457E-01
 0.3702434456533E-01
 0.4736483102063E+00
 0.8408418120417E+00
 0.1019659939725E+01
 0.1052922696529E+01
 0.9964695177785E+00
 0.9015085037148E+00
 0.7988489922499E+00
 0.7018365730643E+00
 0.6138403516305E+00
 0.5342737648484E+00
 0.4615960459146E+00
 0.3943704373768E+00
 0.3322556901288E+00
 0.2759817884753E+00
 0.2251851657597E+00
 0.1788515357059E+00
 0.1361845317862E+00
 0.9641769059773E-01
 0.5936530400444E-01
 0.2576988911098E-01
 0.5465430221052E+00
 0.9676231253785E+00
 0.1123448372491E+01
 0.1109110483662E+01
 0.1008766930804E+01
 0.8850503144460E+00
 0.7673834346750E+00
 0.6637097386481E+00
 0.5731293344948E+00
 0.4928846132073E+00
 0.4205374665989E+00
 0.3543504786286E+00
 0.2942054318849E+00
 0.2408103124898E+00
 0.1935144635768E+00
 0.1511688959808E+00
 0.1128096272560E+00
 0.7757630044258E-01
 0.4528300953578E-01
 0.1672023151676E-01
 0.6403133020352E+00
 0.1120068479474E+01
 0.1229782814668E+01
 0.1149390661934E+01
 0.1000114433500E+01
 0.8515469747384E+00
 0.7245965743962E+00
 0.6183811648207E+00
 0.5277137902238E+00
 0.4483207575080E+00
 0.3772990884206E+00
 0.3128625266839E+00
 0.2553284359972E+00
 0.2053872091119E+00
 0.1620895357682E+00
 0.1242125520474E+00
 0.9061125042220E-01
 0.6029865354340E-01
 0.3305140481778E-01
 0.9773791616537E-02
 0.7633855599553E+00
 0.1302228852493E+01
 0.1327803611438E+01
 0.1160506310168E+01
 0.9641613638552E+00
 0.8010423519895E+00
 0.6721386751894E+00
 0.5672419784926E+00
 0.4785750967154E+00
 0.4012593702776E+00
 0.3323435309047E+00
 0.2701940432081E+00
 0.2157825434382E+00
 0.1697674866328E+00
 0.1308939348527E+00
 0.9794245906354E-01
 0.6954961854206E-01
 0.4453841105427E-01
 0.2259044794519E-01
 0.4886346426261E-02
 0.9295232826651E+00
 0.1514063770027E+01
 0.1393448390039E+01
 0.1123200162598E+01
 0.8997225202126E+00
 0.7369218893503E+00
 0.6124329639486E+00
 0.5118023730487E+00
 0.4266641582972E+00
 0.3523519324007E+00
 0.2861141694455E+00
 0.2265941501724E+00
 0.1756500515423E+00
 0.1339134853894E+00
 0.9983692972212E-01
 0.7228997368753E-01
 0.4959325786015E-01
 0.3028432666652E-01
 0.1385606601217E-01
 0.2287272026127E-02
 0.1164825024163E+01
 0.1740150006485E+01
 0.1363050678343E+01
 0.1029971085960E+01
 0.8151578895224E+00
 0.6637084095813E+00
 0.5479129136325E+00
 0.4533932368102E+00
 0.3728302347857E+00
 0.3022012357332E+00
 0.2390600622274E+00
 0.1822738317185E+00
 0.1348919464984E+00
 0.9761696883585E-01
 0.6873552461302E-01
 0.4720315122877E-01
 0.3074455101620E-01
 0.1754268035372E-01
 0.6909352084367E-02
 0.1864611159182E-02
 0.1517489751301E+01
 0.1751875905776E+01
 0.1196115422675E+01
 0.9066133163561E+00
 0.7193819888058E+00
 0.5855265196291E+00
 0.4804193733234E+00
 0.3931629585390E+00
 0.3178071121346E+00
 0.2512962939327E+00
 0.1917131651760E+00
 0.1375816700654E+00
 0.9305332221612E-01
 0.6030751598885E-01
 0.3746120552103E-01
 0.2274138096535E-01
 0.1303922792278E-01
 0.6322604914930E-02
 0.1775283279455E-02
 0.8973451845103E-03
 0.1168640534818E+01
 0.1170436838157E+01
 0.1168358184248E+01
 0.1163436507745E+01
 0.1154458680580E+01
 0.1140839638802E+01
 0.1121993993446E+01
 0.1097313126632E+01
 0.1066132470429E+01
 0.1027728732120E+01
 0.9813215301874E+00
 0.9260820626869E+00
 0.8611535578843E+00
 0.7856948262907E+00
 0.6989678362908E+00
 0.6005078377732E+00
 0.4904522905894E+00
 0.3701889350801E+00
 0.2439943777148E+00
 0.1285062921364E+00
 0.1152954248361E+01
 0.1159172798961E+01
 0.1157441376382E+01
 0.1151783435911E+01
 0.1142347832048E+01
 0.1128475461362E+01
 0.1109467221925E+01
 0.1084608116567E+01
 0.1053164357452E+01
 0.1014374318773E+01
 0.9674525675028E+00
 0.9116073729011E+00
 0.8460763704418E+00
 0.7701888944305E+00
 0.6834692288187E+00
 0.5858036690461E+00
 0.4777083650354E+00
 0.3608342711586E+00
 0.2393775540704E+00
 0.1323888839159E+00
 0.1136200818712E+01
 0.1141689624644E+01
 0.1141758943317E+01
 0.1136611033280E+01
 0.1127108771673E+01
 0.1113050947238E+01
 0.1093865568963E+01
 0.1068861118893E+01
 0.1037299153137E+01
 0.9984217983947E+00
 0.9514711846423E+00
 0.8957171324747E+00
 0.8305001985746E+00
 0.7552963996729E+00
 0.6698112792465E+00
 0.5741132374548E+00
 0.4688416901886E+00
 0.3556171962261E+00
 0.2388998149693E+00
 0.1373911720551E+00
 0.1118875783303E+01
 0.1122645113600E+01
 0.1122618140626E+01
 0.1117903994521E+01
 0.1108545639160E+01
 0.1094458177822E+01
 0.1075213065635E+01
 0.1050203127027E+01
 0.1018739701604E+01
 0.9801058100757E+00
 0.9335929579673E+00
 0.8785378832813E+00
 0.8143680945882E+00
 0.7406612529987E+00
 0.6572223448981E+00
 0.5641883705292E+00
 0.4621941765990E+00
 0.3528202008736E+00
 0.2403589491991E+00
 0.1425790429094E+00
 0.1100264539472E+01
 0.1102179459359E+01
 0.1101260589358E+01
 0.1096296315692E+01
 0.1086895718521E+01
 0.1072781194970E+01
 0.1053555770864E+01
 0.1028679316850E+01
 0.9975265268185E+00
 0.9594379459810E+00
 0.9137624187988E+00
 0.8598974734713E+00
 0.7973334360366E+00
 0.7257048920463E+00
 0.6448533400456E+00
 0.5549114924002E+00
 0.4564603168730E+00
 0.3509573162658E+00
 0.2424563697182E+00
 0.1476053429416E+00
 0.1080160230667E+01
 0.1080224374628E+01
 0.1077988385614E+01
 0.1072281293951E+01
 0.1062491174390E+01
 0.1048197794450E+01
 0.1028965492050E+01
 0.1004285749815E+01
 0.9735858310131E+00
 0.9362624260671E+00
 0.8917184285503E+00
 0.8394003986403E+00
 0.7788379805019E+00
 0.7096873506661E+00
 0.6317826798720E+00
 0.5452102951461E+00
 0.4504571440127E+00
 0.3488383763980E+00
 0.2441836801653E+00
 0.1520187915035E+00
 0.1058487251872E+01
 0.1056693234516E+01
 0.1052897192083E+01
 0.1046079960950E+01
 0.1035567533613E+01
 0.1020859670167E+01
 0.1001490298838E+01
 0.9769647399110E+00
 0.9467501397405E+00
 0.9102912433022E+00
 0.8670369978405E+00
 0.8164710522110E+00
 0.7581446187525E+00
 0.6917124904101E+00
 0.6169768088897E+00
 0.5339544475739E+00
 0.4430228209919E+00
 0.3453487911783E+00
 0.2445452754305E+00
 0.1552032880563E+00
 0.1035255167346E+01
 0.1031546660151E+01
 0.1026008277758E+01
 0.1017792653985E+01
 0.1006247038182E+01
 0.9908515282430E+00
 0.9711324796918E+00
 0.9466120748520E+00
 0.9167918854091E+00
 0.8811582331961E+00
 0.8391990595848E+00
 0.7904267136321E+00
 0.7344042629098E+00
 0.6707758258482E+00
 0.5993058406208E+00
 0.5199441522815E+00
 0.4329720879962E+00
 0.3394307343436E+00
 0.2427299638528E+00
 0.1566461267203E+00
 0.1010522463444E+01
 0.1004800235822E+01
 0.9973565719333E+00
 0.9874996146476E+00
 0.9746396097062E+00
 0.9582785423672E+00
 0.9379606439875E+00
 0.9132352955611E+00
 0.8836403204205E+00
 0.8487011636330E+00
 0.8079404364881E+00
 0.7608939810378E+00
 0.7071319251214E+00
 0.6462858011819E+00
 0.5780874923381E+00
 0.5024376767789E+00
 0.4195585953299E+00
 0.3304248133999E+00
 0.2383235403232E+00
 0.1562776323702E+00
 0.9843972771697E+00
 0.9765506553549E+00
 0.9670639582728E+00
 0.9553809312192E+00
 0.9409946677033E+00
 0.9234575946900E+00
 0.9023544711162E+00
 0.8772759519025E+00
 0.8478029409819E+00
 0.8135016459610E+00
 0.7739268638423E+00
 0.7286316050046E+00
 0.6771827118578E+00
 0.6191845472900E+00
 0.5543174499987E+00
 0.4824093711737E+00
 0.4035955144217E+00
 0.3187575550259E+00
 0.2310813596790E+00
 0.1533357547361E+00
 0.9569950262943E+00
 0.9469010371375E+00
 0.9352381042465E+00
 0.9215695544881E+00
 0.9054804889881E+00
 0.8865930252553E+00
 0.8645515242164E+00
 0.8390029773434E+00
 0.8095819425371E+00
 0.7759018546857E+00
 0.7375522410556E+00
 0.6941014751048E+00
 0.6451059704965E+00
 0.5901290267750E+00
 0.5287771565020E+00
 0.4607734246362E+00
 0.3861238832905E+00
 0.3055728051973E+00
 0.2222011397971E+00
 0.1488292329831E+00
 0.9284407200318E+00
 0.9159722856911E+00
 0.9019974661294E+00
 0.8861880118509E+00
 0.8682245895468E+00
 0.8478114347526E+00
 0.8246675020291E+00
 0.7985105265570E+00
 0.7690415476139E+00
 0.7359323222993E+00
 0.6988162610273E+00
 0.6572836193669E+00
 0.6108829346711E+00
 0.5591331273518E+00
 0.5015555195622E+00
 0.4377469619309E+00
 0.3675524800104E+00
 0.2915373966992E+00
 0.2126318059392E+00
 0.1435616299321E+00
 0.8988708873229E+00
 0.8839047720922E+00
 0.8674821455108E+00
 0.8493746329152E+00
 0.8293585535608E+00
 0.8072274668556E+00
 0.7827859315775E+00
 0.7558352385459E+00
 0.7261568198581E+00
 0.6934956509447E+00
 0.6575447209869E+00
 0.6179319110113E+00
 0.5742120336251E+00
 0.5258695321548E+00
 0.4723426391256E+00
 0.4130922388675E+00
 0.3477759335902E+00
 0.2767284405004E+00
 0.2026094434672E+00
 0.1377077758963E+00
 0.8684342535396E+00
 0.8508558527124E+00
 0.8318535196004E+00
 0.8112901404250E+00
 0.7890348153641E+00
 0.7649732514636E+00
 0.7390026899343E+00
 0.7110184298259E+00
 0.6808960340226E+00
 0.6484710350954E+00
 0.6135171239263E+00
 0.5757242070459E+00
 0.5346792992661E+00
 0.4898563470283E+00
 0.4406270654484E+00
 0.3863180526498E+00
 0.3263764251831E+00
 0.2608410963315E+00
 0.1919469487649E+00
 0.1312024771344E+00
 0.8372924712346E+00
 0.8170007840403E+00
 0.7952966218348E+00
 0.7721241843225E+00
 0.7474394993481E+00
 0.7212191216117E+00
 0.6934558799857E+00
 0.6641462086825E+00
 0.6332717662368E+00
 0.6007764321656E+00
 0.5665391255334E+00
 0.5303432643772E+00
 0.4918452470800E+00
 0.4505476897523E+00
 0.4057898381429E+00
 0.3567818663633E+00
 0.3027468624047E+00
 0.2433621614604E+00
 0.1802857135687E+00
 0.1239237654390E+00
 0.8056206625630E+00
 0.7825348658675E+00
 0.7580242664331E+00
 0.7321028583234E+00
 0.7048047725072E+00
 0.6761919952327E+00
 0.6463512101256E+00
 0.6153825901863E+00
 0.5833820928246E+00
 0.5504175201845E+00
 0.5164979250907E+00
 0.4815360349417E+00
 0.4453045382169E+00
 0.4073901469226E+00
 0.3671562496031E+00
 0.3237404664833E+00
 0.2761519948867E+00
 0.2236570663229E+00
 0.1671942968027E+00
 0.1157357944130E+00
 0.7736060872713E+00
 0.7476729104309E+00
 0.7202779011561E+00
 0.6914919046653E+00
 0.6614155994600E+00
 0.6301869408594E+00
 0.5979796668835E+00
 0.5649945571827E+00
 0.5314441231043E+00
 0.4975302225629E+00
 0.4634131976972E+00
 0.4291706846297E+00
 0.3947445555747E+00
 0.3598763993654E+00
 0.3240377534751E+00
 0.2863766931509E+00
 0.2457432197058E+00
 0.2009793971964E+00
 0.1521732682043E+00
 0.1064879173032E+00
 0.7414471594419E+00
 0.7126489268765E+00
 0.6823283637165E+00
 0.6505993891245E+00
 0.6176154812216E+00
 0.5835774205016E+00
 0.5487340424233E+00
 0.5133769996498E+00
 0.4778296879237E+00
 0.4424293163752E+00
 0.4074999070337E+00
 0.3733128688132E+00
 0.3400308636405E+00
 0.3076306019964E+00
 0.2758029835182E+00
 0.2438405351364E+00
 0.2105608142244E+00
 0.1744403877480E+00
 0.1346156117523E+00
 0.9599762145908E-01
 0.7093514868030E+00
 0.6777141666317E+00
 0.6444745014284E+00
 0.6097757295776E+00
 0.5738090404138E+00
 0.5368220602208E+00
 0.4991222064812E+00
 0.4610756569375E+00
 0.4231020366904E+00
 0.3856637245038E+00
 0.3492472184815E+00
 0.3143322013088E+00
 0.2813416776815E+00
 0.2505639560441E+00
 0.2220354330480E+00
 0.1953764702509E+00
 0.1695969343060E+00
 0.1429985801866E+00
 0.1137591597738E+00
 0.8402612791871E-01
 0.6775334688127E+00
 0.6431340352103E+00
 0.6070400412503E+00
 0.5694111548415E+00
 0.5304609931798E+00
 0.4904667391490E+00
 0.4497749513290E+00
 0.4088048203514E+00
 0.3680494550616E+00
 0.3280745950493E+00
 0.2895125884855E+00
 0.2530471737437E+00
 0.2193809356392E+00
 0.1891716561490E+00
 0.1629164575244E+00
 0.1407573244740E+00
 0.1221890107980E+00
 0.1057056994198E+00
 0.8876042991779E-01
 0.7027218421361E-01
 0.6462085154266E+00
 0.6091798853608E+00
 0.5703633637464E+00
 0.5299233535071E+00
 0.4880820578020E+00
 0.4451299689739E+00
 0.4014333814347E+00
 0.3574413880461E+00
 0.3136939987187E+00
 0.2708322329573E+00
 0.2296101059796E+00
 0.1909065782608E+00
 0.1557304829299E+00
 0.1251969801176E+00
 0.1004182483973E+00
 0.8219942178050E-01
 0.7049552770251E-01
 0.6395410238954E-01
 0.5986237319374E-01
 0.5455672870111E-01
 0.6155813240648E+00
 0.5761114977839E+00
 0.5347720892586E+00
 0.4917229403713E+00
 0.4471847255538E+00
 0.4014491941834E+00
 0.3548874059660E+00
 0.3079598604828E+00
 0.2612323750085E+00
 0.2154031415568E+00
 0.1713518610463E+00
 0.1302378680605E+00
 0.9371963477827E-01
 0.6445661709694E-01
 0.4662186450271E-01
 0.4226278254595E-01
 0.4419917767078E-01
 0.4396407186229E-01
 0.4010851262429E-01
 0.3814265786519E-01
 0.5858460384369E+00
 0.5441754619903E+00
 0.5005775527156E+00
 0.4552027563593E+00
 0.4082658370971E+00
 0.3600550319413E+00
 0.3109404950916E+00
 0.2613882385419E+00
 0.2119891601863E+00
 0.1635266773497E+00
 0.1171649251710E+00
 0.7514113598823E-01
 0.4417592327478E-01
 0.4210501860943E-01
 0.6243918113959E-01
 0.8250889465164E-01
 0.9384314269195E-01
 0.9165226646526E-01
 0.7162421048819E-01
 0.3437015537956E-01
 0.5571838791827E+00
 0.5136029856861E+00
 0.4680723030468E+00
 0.4207332922886E+00
 0.3717970063427E+00
 0.3215524456304E+00
 0.2703759638268E+00
 0.2187530078165E+00
 0.1673382043341E+00
 0.1171523886999E+00
 0.7048921732262E-01
 0.3755529813207E-01
 0.4902371231704E-01
 0.8320118137873E-01
 0.1162122325845E+00
 0.1421426689243E+00
 0.1568379103991E+00
 0.1549311754893E+00
 0.1279832791274E+00
 0.6077082186849E-01
 0.5297586137818E+00
 0.4846030563806E+00
 0.4375198986908E+00
 0.3886463323019E+00
 0.3381977290459E+00
 0.2864765156424E+00
 0.2338848731896E+00
 0.1809633464059E+00
 0.1285261705957E+00
 0.7829270108569E-01
 0.3807695242598E-01
 0.4533911427174E-01
 0.8468889948202E-01
 0.1249154531133E+00
 0.1601583948382E+00
 0.1871298318885E+00
 0.2018718761104E+00
 0.1983974352928E+00
 0.1664535162825E+00
 0.8499884957013E-01
 0.5037121638663E+00
 0.4573550384971E+00
 0.4091431609383E+00
 0.3592160646685E+00
 0.3078046353439E+00
 0.2552420063800E+00
 0.2019824873596E+00
 0.1486709363520E+00
 0.9644307943543E-01
 0.4899436585476E-01
 0.3369901622405E-01
 0.7009779480285E-01
 0.1129160974092E+00
 0.1522991673607E+00
 0.1850842300235E+00
 0.2081836858184E+00
 0.2174781868619E+00
 0.2068877158166E+00
 0.1668153400816E+00
 0.8178860777979E-01
 0.4791607049935E+00
 0.4320026331322E+00
 0.3831149401642E+00
 0.3326446467204E+00
 0.2808487486648E+00
 0.2281073638077E+00
 0.1749503391389E+00
 0.1221727716307E+00
 0.7145452278447E-01
 0.3171602648195E-01
 0.4668108168106E-01
 0.8841579386255E-01
 0.1292123471547E+00
 0.1646872450642E+00
 0.1921240271604E+00
 0.2084481833667E+00
 0.2096856652012E+00
 0.1905544762645E+00
 0.1442691383095E+00
 0.6421488395707E-01
 0.4561915427586E+00
 0.4086498321942E+00
 0.3595524478741E+00
 0.3090542508005E+00
 0.2574453019879E+00
 0.2051636393838E+00
 0.1528273851011E+00
 0.1014069292907E+00
 0.5336898155171E-01
 0.2723598106633E-01
 0.5769747267648E-01
 0.9803248976366E-01
 0.1348856632785E+00
 0.1652166815734E+00
 0.1865636338481E+00
 0.1961588563782E+00
 0.1907370287546E+00
 0.1666128455363E+00
 0.1203769212487E+00
 0.5086218664265E-01
 0.4348604356750E+00
 0.3873582157081E+00
 0.3385140275600E+00
 0.2884835730419E+00
 0.2375925475882E+00
 0.1863414401747E+00
 0.1354357810361E+00
 0.8601144028197E-01
 0.4144331511260E-01
 0.2892319914687E-01
 0.6301515929623E-01
 0.1000284154846E+00
 0.1323153086342E+00
 0.1574207780775E+00
 0.1732317432200E+00
 0.1775279545809E+00
 0.1680053536443E+00
 0.1425864630103E+00
 0.1001395233647E+00
 0.4154458543152E-01
 0.4151903318330E+00
 0.3681465360734E+00
 0.3199973415813E+00
 0.2708850082801E+00
 0.2211717581981E+00
 0.1714208873016E+00
 0.1224124452099E+00
 0.7539705612056E-01
 0.3443210672219E-01
 0.3005234585458E-01
 0.6298100432333E-01
 0.9610722435721E-01
 0.1239128081360E+00
 0.1443600857897E+00
 0.1557583333479E+00
 0.1565051702392E+00
 0.1451943792251E+00
 0.1209168087326E+00
 0.8370170537546E-01
 0.3494765921228E-01
 0.3971722572663E+00
 0.3509906952443E+00
 0.3039324903622E+00
 0.2561123935928E+00
 0.2079351644303E+00
 0.1600274394115E+00
 0.1132243497179E+00
 0.6881171286791E-01
 0.3092767525792E-01
 0.2875951630411E-01
 0.5875962718764E-01
 0.8800596803984E-01
 0.1117798745572E+00
 0.1283924509842E+00
 0.1365732925237E+00
 0.1352739688760E+00
 0.1237695896416E+00
 0.1018625124657E+00
 0.7010438922637E-01
 0.2988090275882E-01
 0.3807726748710E+00
 0.3358218320499E+00
 0.2901641993172E+00
 0.2438936195653E+00
 0.1974761050181E+00
 0.1516071360246E+00
 0.1071581619523E+00
 0.6537168087731E-01
 0.2984633709685E-01
 0.2544321004843E-01
 0.5171747405796E-01
 0.7734376860162E-01
 0.9766180119507E-01
 0.1112568160597E+00
 0.1172188314898E+00
 0.1149281563662E+00
 0.1041121093805E+00
 0.8495783280577E-01
 0.5820929999447E-01
 0.2518519936577E-01
 0.3659525488744E+00
 0.3225324378853E+00
 0.2784615236967E+00
 0.2338540899348E+00
 0.1892749432481E+00
 0.1455015337803E+00
 0.1034270223564E+00
 0.6419621421216E-01
 0.3057539233499E-01
 0.2123983296709E-01
 0.4309596497168E-01
 0.6541597172861E-01
 0.8282544545033E-01
 0.9408238739203E-01
 0.9855447747821E-01
 0.9592544723599E-01
 0.8619823477738E-01
 0.6974045693363E-01
 0.4731756141398E-01
 0.2013291046171E-01
 0.3526963030164E+00
 0.3110417301314E+00
 0.2686432401515E+00
 0.2257118032927E+00
 0.1829705285666E+00
 0.1412939406423E+00
 0.1015787081607E+00
 0.6483437365033E-01
 0.3299562174288E-01
 0.1758745022138E-01
 0.3355387476135E-01
 0.5277866857510E-01
 0.6774709259362E-01
 0.7722589842515E-01
 0.8077530969563E-01
 0.7828557968190E-01
 0.6992444201586E-01
 0.5613467581956E-01
 0.3762780520996E-01
 0.1536776641948E-01
 0.3410152289488E+00
 0.3013165200465E+00
 0.2605864597063E+00
 0.2192765265838E+00
 0.1783452595669E+00
 0.1387657569996E+00
 0.1014018358828E+00
 0.6709517795564E-01
 0.3710503845265E-01
 0.1682959717401E-01
 0.2377052450386E-01
 0.3982818786008E-01
 0.5275878107937E-01
 0.6095324736844E-01
 0.6405441840236E-01
 0.6207188025091E-01
 0.5525668128501E-01
 0.4406069404257E-01
 0.2909188534552E-01
 0.1103445058440E-01
 0.3309257769341E+00
 0.2932645219200E+00
 0.2540658640842E+00
 0.2142671198232E+00
 0.1751354278833E+00
 0.1376970208484E+00
 0.1027131774934E+00
 0.7082233094445E-01
 0.4279577682167E-01
 0.2069215192996E-01
 0.1540993464607E-01
 0.2702354181249E-01
 0.3812850812427E-01
 0.4542985619526E-01
 0.4845296028674E-01
 0.4723569817187E-01
 0.4205153259570E-01
 0.3332917722330E-01
 0.2157790531319E-01
 0.7286424014710E-02
 0.3224409415308E+00
 0.2866412166515E+00
 0.2486585131883E+00
 0.2102716616037E+00
 0.1730393995431E+00
 0.1378948357048E+00
 0.1053768730060E+00
 0.7589898698279E-01
 0.4990454318563E-01
 0.2816246396892E-01
 0.1370847485854E-01
 0.1548603687971E-01
 0.2416494351411E-01
 0.3074959835907E-01
 0.3393521113953E-01
 0.3363789550586E-01
 0.3008757853665E-01
 0.2368562897214E-01
 0.1490695917117E-01
 0.4165029799323E-02
 0.3155100615415E+00
 0.2808700374269E+00
 0.2436605996451E+00
 0.2068224837621E+00
 0.1718873255675E+00
 0.1393297450265E+00
 0.1093931136154E+00
 0.8230272016304E-01
 0.5831250866517E-01
 0.3774676795521E-01
 0.2122552720535E-01
 0.1109211804971E-01
 0.1209778390879E-01
 0.1717875708220E-01
 0.2050204891558E-01
 0.2115790171480E-01
 0.1918324222276E-01
 0.1487745651018E-01
 0.8786976801432E-02
 0.1482527854224E-02
 0.3097474610351E+00
 0.2745208251385E+00
 0.2380774638640E+00
 0.2038522041683E+00
 0.1719418576494E+00
 0.1422780626397E+00
 0.1149483271106E+00
 0.9011941913002E-01
 0.6798117962338E-01
 0.4871776915055E-01
 0.3251215484122E-01
 0.1961926742628E-01
 0.1070987523491E-01
 0.7552496666668E-02
 0.8860956856128E-02
 0.9977116828163E-02
 0.9367189074236E-02
 0.6927413248803E-02
 0.2945863152786E-02
 0.1448189301702E-02
 0.3027718129967E+00
 0.2644611819391E+00
 0.2323359799066E+00
 0.2025051648991E+00
 0.1741075842236E+00
 0.1472945563400E+00
 0.1223313200677E+00
 0.9946998896255E-01
 0.7890891448681E-01
 0.6078982269019E-01
 0.4520044470226E-01
 0.3217962052025E-01
 0.2172473937461E-01
 0.1380151599184E-01
 0.8341139973858E-02
 0.5126722622002E-02
 0.3440000455290E-02
 0.2382147068856E-02
 0.2985287199653E-02
 0.6150678142059E-02
</DataArray>
<DataArray type="Float64" Name="OI" NumberOfComponents="1" ComponentName0="OI" format="ascii">
 0.4765882634867E+01
 0.4298081968425E+01
 0.3906775312433E+01
 0.3742568442609E+01
 0.3604526696227E+01
 0.3491472793831E+01
 0.3387759823034E+01
 0.3289149689736E+01
 0.3192577612566E+01
 0.3096495422074E+01
 0.2999967782062E+01
 0.2902488298628E+01
 0.2803845005172E+01
 0.2704126809870E+01
 0.2603950610010E+01
 0.2505114401700E+01
 0.2406718284598E+01
 0.2301022601761E+01
 0.2181518395565E+01
 0.2048763962504E+01
 0.1906141240916E+01
 0.1756911970737E+01
 0.1603513848634E+01
 0.1447713823108E+01
 0.1290892385939E+01
 0.1134244382957E+01
 0.9789094266672E+00
 0.8266875319200E+00
 0.6803351843260E+00
 0.5426888343618E+00
 0.4163741920095E+00
 0.3041064318212E+00
 0.2087648833682E+00
 0.1333228960077E+00
 0.8067550229532E-01
 0.5300520624122E-01
 0.5232098438526E-01
 0.7675148861958E-01
 0.1429681590861E+00
 0.1967383183541E+00
 0.5666029285048E+00
 0.4024873481093E+01
 0.4151455831460E+01
 0.3843883189834E+01
 0.3645537613235E+01
 0.3508050391563E+01
 0.3390141394905E+01
 0.3284962544231E+01
 0.3185712730553E+01
 0.3089438813962E+01
 0.2994259947100E+01
 0.2899105754183E+01
 0.2803349830368E+01
 0.2706681216113E+01
 0.2609081275758E+01
 0.2510754528331E+01
 0.2411483034142E+01
 0.2309549069319E+01
 0.2201799666664E+01
 0.2085504456579E+01
 0.1960006764497E+01
 0.1826561747971E+01
 0.1687149428193E+01
 0.1543655150242E+01
 0.1397671195346E+01
 0.1250554199592E+01
 0.1103565793676E+01
 0.9580745740232E+00
 0.8157637337499E+00
 0.6786795138188E+00
 0.5490775589484E+00
 0.4292578794242E+00
 0.3215230000040E+00
 0.2281715910203E+00
 0.1514282448560E+00
 0.9326154276594E-01
 0.5541844270618E-01
 0.3871549836569E-01
 0.4367711814691E-01
 0.6350933907722E-01
 0.6387396304880E-01
 0.3255147116639E+00
 0.3570243675701E+01
 0.3840693217192E+01
 0.3720252951530E+01
 0.3536563063106E+01
 0.3400858684382E+01
 0.3284653399160E+01
 0.3179709819725E+01
 0.3081168474885E+01
 0.2985872374723E+01
 0.2892021428768E+01
 0.2798480469012E+01
 0.2704565652659E+01
 0.2609883245670E+01
 0.2514242958367E+01
 0.2417331863475E+01
 0.2318146255507E+01
 0.2215258305822E+01
 0.2107636558170E+01
 0.1994455024988E+01
 0.1875023209817E+01
 0.1749483844761E+01
 0.1618830059608E+01
 0.1484388240960E+01
 0.1347494108725E+01
 0.1209411008707E+01
 0.1071400570961E+01
 0.9348397380993E+00
 0.8012358893751E+00
 0.6722159587213E+00
 0.5495738938500E+00
 0.4352230719289E+00
 0.3310739590411E+00
 0.2389542029484E+00
 0.1605316007214E+00
 0.9727647369458E-01
 0.5055608544511E-01
 0.2271609700000E-01
 0.1847099130637E-01
 0.2955853237146E-01
 0.2370523218012E-01
 0.1944708000553E+00
 0.3246739380595E+01
 0.3536144896816E+01
 0.3539703845457E+01
 0.3409981629042E+01
 0.3284586002618E+01
 0.3173915580119E+01
 0.3071789220828E+01
 0.2975197390060E+01
 0.2881674985520E+01
 0.2789614643049E+01
 0.2697967181438E+01
 0.2606044969032E+01
 0.2513395724163E+01
 0.2419647059616E+01
 0.2324152486440E+01
 0.2225738101114E+01
 0.2123440206971E+01
 0.2017278489832E+01
 0.1907390844459E+01
 0.1793316859926E+01
 0.1674715229610E+01
 0.1551908299189E+01
 0.1425727519797E+01
 0.1297221886344E+01
 0.1167509983725E+01
 0.1037777417796E+01
 0.9093066614680E+00
 0.7834158820570E+00
 0.6614313339161E+00
 0.5447838806411E+00
 0.4350224127105E+00
 0.3337008920589E+00
 0.2422748734751E+00
 0.1620504787023E+00
 0.9423936060774E-01
 0.4057638690224E-01
 0.1681499599904E-01
 0.4075585306621E-01
 0.6523811948005E-01
 0.5091117771079E-01
 0.1053360819365E+00
 0.2994068882859E+01
 0.3264799463662E+01
 0.3337244403351E+01
 0.3264435235249E+01
 0.3159878583200E+01
 0.3058022105505E+01
 0.2960986132685E+01
 0.2867657644598E+01
 0.2776695654272E+01
 0.2686919798426E+01
 0.2597469020051E+01
 0.2507719349381E+01
 0.2417190862374E+01
 0.2325383507560E+01
 0.2231509919716E+01
 0.2134491623284E+01
 0.2033777152251E+01
 0.1929919619520E+01
 0.1823537519902E+01
 0.1714407385023E+01
 0.1602023966816E+01
 0.1486297604609E+01
 0.1367660961883E+01
 0.1246880701456E+01
 0.1124896653127E+01
 0.1002763870952E+01
 0.8816201046127E+00
 0.7625933558396E+00
 0.6467673989014E+00
 0.5352806243486E+00
 0.4293673337347E+00
 0.3302773031554E+00
 0.2391898746506E+00
 0.1572051655885E+00
 0.8555239553519E-01
 0.2815503968264E-01
 0.3461993625799E-01
 0.7316131886981E-01
 0.1006219409770E+00
 0.8459495584352E-01
 0.5269257062981E-01
 0.2784031476227E+01
 0.3026028584244E+01
 0.3132694457951E+01
 0.3106384010272E+01
 0.3027292254081E+01
 0.2937493356949E+01
 0.2847345597226E+01
 0.2758502749258E+01
 0.2670859974009E+01
 0.2583857776478E+01
 0.2496918469825E+01
 0.2409541518451E+01
 0.2321263924473E+01
 0.2231534249545E+01
 0.2139562249757E+01
 0.2044461723367E+01
 0.1946000379876E+01
 0.1844997844786E+01
 0.1742298762930E+01
 0.1637862027191E+01
 0.1531165030797E+01
 0.1421885557034E+01
 0.1310156123122E+01
 0.1196485629388E+01
 0.1081619092253E+01
 0.9664487022598E+00
 0.8519437086876E+00
 0.7390459128401E+00
 0.6286309085434E+00
 0.5215967545413E+00
 0.4189179411550E+00
 0.3216010167237E+00
 0.2306380643725E+00
 0.1470666890497E+00
 0.7251527902281E-01
 0.2103694968286E-01
 0.5933333632959E-01
 0.1045881557743E+00
 0.1328904226042E+00
 0.1196485621291E+00
 0.6942023490647E-01
 0.2601733619283E+01
 0.2814295994127E+01
 0.2934995970691E+01
 0.2942652027116E+01
 0.2888664839141E+01
 0.2812966636216E+01
 0.2731140512922E+01
 0.2647791582660E+01
 0.2564159116038E+01
 0.2480391967148E+01
 0.2396275404147E+01
 0.2311484011908E+01
 0.2225620823536E+01
 0.2138155123158E+01
 0.2048378683119E+01
 0.1955618461347E+01
 0.1859876533559E+01
 0.1762096096445E+01
 0.1663211837837E+01
 0.1563306613138E+01
 0.1461898738280E+01
 0.1358546433813E+01
 0.1253166375624E+01
 0.1146043612903E+01
 0.1037727085518E+01
 0.9289312606564E+00
 0.8204480970128E+00
 0.7130401056093E+00
 0.6073989618648E+00
 0.5042231755940E+00
 0.4042793555713E+00
 0.3083926365077E+00
 0.2174523917911E+00
 0.1325892197955E+00
 0.5661602924790E-01
 0.3170129857633E-01
 0.8624878497554E-01
 0.1353814178973E+00
 0.1645984005838E+00
 0.1563724909847E+00
 0.1165719766449E+00
 0.2438602977118E+01
 0.2624115472518E+01
 0.2747489348217E+01
 0.2778254493926E+01
 0.2746360338377E+01
 0.2685323075647E+01
 0.2612769100320E+01
 0.2535684798781E+01
 0.2456642550105E+01
 0.2376524918490E+01
 0.2295525320823E+01
 0.2213535663861E+01
 0.2130270025487E+01
 0.2045275671588E+01
 0.1957972958151E+01
 0.1867891305023E+01
 0.1775200885906E+01
 0.1680890421888E+01
 0.1585911552549E+01
 0.1490423599094E+01
 0.1394001779195E+01
 0.1296150903944E+01
 0.1196636685099E+01
 0.1095555937680E+01
 0.9932705513383E+00
 0.8903148691302E+00
 0.7873040063409E+00
 0.6848303345229E+00
 0.5834214994190E+00
 0.4836101190548E+00
 0.3860018002021E+00
 0.2912995072307E+00
 0.2003755440631E+00
 0.1146684569191E+00
 0.4057062100680E-01
 0.5330131654953E-01
 0.1146810778638E+00
 0.1664139676491E+00
 0.1971202695358E+00
 0.1945417410249E+00
 0.1651635636333E+00
 0.2289369993614E+01
 0.2451011961773E+01
 0.2570871763642E+01
 0.2616363580088E+01
 0.2602596953768E+01
 0.2555604159535E+01
 0.2492721998416E+01
 0.2422416625646E+01
 0.2348411287952E+01
 0.2272293189917E+01
 0.2194676420947E+01
 0.2115698009327E+01
 0.2035218879746E+01
 0.1952904492003E+01
 0.1868325412438E+01
 0.1781191702700E+01
 0.1691792900834E+01
 0.1601120531842E+01
 0.1510104414174E+01
 0.1418945263915E+01
 0.1327272340241E+01
 0.1234572914684E+01
 0.1140508386475E+01
 0.1045020219020E+01
 0.9482982723885E+00
 0.8507026589336E+00
 0.7526780139689E+00
 0.6546574832296E+00
 0.5570225721294E+00
 0.4601689534768E+00
 0.3645830888338E+00
 0.2709026262725E+00
 0.1800808840308E+00
 0.9426461843652E-01
 0.3199080110748E-01
 0.7919503486780E-01
 0.1445158310296E+00
 0.1982939478560E+00
 0.2309828539911E+00
 0.2338099364394E+00
 0.2121387168976E+00
 0.2150618680207E+01
 0.2291526161080E+01
 0.2404675645321E+01
 0.2458774936992E+01
 0.2459157706009E+01
 0.2424860800296E+01
 0.2371546008430E+01
 0.2308270590778E+01
 0.2239606390135E+01
 0.2167761789108E+01
 0.2093755842545E+01
 0.2017982253431E+01
 0.1940472628416E+01
 0.1861035322446E+01
 0.1779397234254E+01
 0.1695425083612E+01
 0.1609492891911E+01
 0.1522571982580E+01
 0.1435550544707E+01
 0.1348645982772E+01
 0.1261531454654E+01
 0.1173694056900E+01
 0.1084722807142E+01
 0.9944319834387E+00
 0.9028570823889E+00
 0.8101949407816E+00
 0.7167298143127E+00
 0.6227478220413E+00
 0.5285011864125E+00
 0.4342743205724E+00
 0.3404724874422E+00
 0.2477257501316E+00
 0.1572044389255E+00
 0.7272836096534E-01
 0.4159157567384E-01
 0.1076414751074E+00
 0.1757292481800E+00
 0.2313353620789E+00
 0.2662891890432E+00
 0.2739112307497E+00
 0.2576528559807E+00
 0.2020034104183E+01
 0.2143020556543E+01
 0.2247981417154E+01
 0.2306367423049E+01
 0.2317342124470E+01
 0.2294039678360E+01
 0.2249798252432E+01
 0.2193557900503E+01
 0.2130396455952E+01
 0.2063017667717E+01
 0.1992805676879E+01
 0.1920406801262E+01
 0.1846034651094E+01
 0.1769652266036E+01
 0.1691139576443E+01
 0.1610497339808E+01
 0.1528159326503E+01
 0.1445064779971E+01
 0.1362050983298E+01
 0.1279335109184E+01
 0.1196622256924E+01
 0.1113405945219E+01
 0.1029223790412E+01
 0.9437858937203E+00
 0.8569914274485E+00
 0.7688875800211E+00
 0.6796105096151E+00
 0.5893123050986E+00
 0.4981320922285E+00
 0.4062664654263E+00
 0.3140754136372E+00
 0.2222473199540E+00
 0.1324030785555E+00
 0.5288904244078E-01
 0.6407300097507E-01
 0.1380057820516E+00
 0.2082798230674E+00
 0.2656432840780E+00
 0.3029637348916E+00
 0.3146911532739E+00
 0.3022378128441E+00
 0.1895986859019E+01
 0.2003481025940E+01
 0.2099751497444E+01
 0.2159446695717E+01
 0.2178023880017E+01
 0.2163925995293E+01
 0.2128004708227E+01
 0.2078596747205E+01
 0.2020965669557E+01
 0.1958162836429E+01
 0.1891878949093E+01
 0.1822995219600E+01
 0.1751907077045E+01
 0.1678733782034E+01
 0.1603499318979E+01
 0.1526318281679E+01
 0.1447666571042E+01
 0.1368445724045E+01
 0.1289438640490E+01
 0.1210850912012E+01
 0.1132408222310E+01
 0.1053611189186E+01
 0.9739592844985E+00
 0.8930766502223E+00
 0.8107431836609E+00
 0.7268710416501E+00
 0.6414616008805E+00
 0.5545462508994E+00
 0.4661666610767E+00
 0.3764537110246E+00
 0.2857588893188E+00
 0.1949175432772E+00
 0.1064869921830E+00
 0.4222920619578E-01
 0.9186384069267E-01
 0.1699351508875E+00
 0.2420882291943E+00
 0.3011969292301E+00
 0.3408737174571E+00
 0.3560823775659E+00
 0.3463977623251E+00
 0.1777291743486E+01
 0.1871356647760E+01
 0.1958979323547E+01
 0.2017977520202E+01
 0.2041739514207E+01
 0.2035129136539E+01
 0.2006631413400E+01
 0.1963693961387E+01
 0.1911502847675E+01
 0.1853307696230E+01
 0.1791035720240E+01
 0.1725774467598E+01
 0.1658091340860E+01
 0.1588255512947E+01
 0.1516422638130E+01
 0.1442803373314E+01
 0.1367902964933E+01
 0.1292583037759E+01
 0.1217571731458E+01
 0.1143055583497E+01
 0.1068771021302E+01
 0.9942234465038E+00
 0.9188822056662E+00
 0.8422996084631E+00
 0.7641516329209E+00
 0.6842298882128E+00
 0.6024144762056E+00
 0.5186293506053E+00
 0.4328338930402E+00
 0.3451150764791E+00
 0.2558580995923E+00
 0.1661872460393E+00
 0.8079517608040E-01
 0.5058633777716E-01
 0.1223540021891E+00
 0.2031730878037E+00
 0.2770430665887E+00
 0.3379086559149E+00
 0.3798828296010E+00
 0.3980733634226E+00
 0.3905435805792E+00
 0.1663061497315E+01
 0.1745439473226E+01
 0.1824748927365E+01
 0.1881733151493E+01
 0.1908774832480E+01
 0.1908093442661E+01
 0.1886069297445E+01
 0.1849130749844E+01
 0.1802191911831E+01
 0.1748564952482E+01
 0.1690339460869E+01
 0.1628773290355E+01
 0.1564588514950E+01
 0.1498192152721E+01
 0.1429857132942E+01
 0.1359874467498E+01
 0.1288769153625E+01
 0.1217362452839E+01
 0.1146328913617E+01
 0.1075831190013E+01
 0.1005608334563E+01
 0.9351669310444E+00
 0.8639507818657E+00
 0.7914511668326E+00
 0.7172535323962E+00
 0.6410425886945E+00
 0.5625902581038E+00
 0.4817259371926E+00
 0.3983415444453E+00
 0.3125030948849E+00
 0.2246851619729E+00
 0.1365675061746E+00
 0.5844195247695E-01
 0.7332111136497E-01
 0.1545709069918E+00
 0.2375046884731E+00
 0.3130123783706E+00
 0.3756604179545E+00
 0.4198712430029E+00
 0.4406840097502E+00
 0.4349924839501E+00
 0.1552614811352E+01
 0.1624776605925E+01
 0.1696252123746E+01
 0.1750388347307E+01
 0.1779237117312E+01
 0.1783120634361E+01
 0.1766629931758E+01
 0.1735153224158E+01
 0.1693204201344E+01
 0.1644044341464E+01
 0.1589853806748E+01
 0.1532020736473E+01
 0.1471399390015E+01
 0.1408518579341E+01
 0.1343753002667E+01
 0.1277459955303E+01
 0.1210176636362E+01
 0.1142684266323E+01
 0.1075605620520E+01
 0.1009076410654E+01
 0.9428318088644E+00
 0.8763756422159E+00
 0.8091285594947E+00
 0.7405289897403E+00
 0.6700832462222E+00
 0.5973815492676E+00
 0.5220999144884E+00
 0.4439854513600E+00
 0.3628773512086E+00
 0.2788469950066E+00
 0.1925429700546E+00
 0.1067812753589E+00
 0.4751734595485E-01
 0.1021281674650E+00
 0.1880171522421E+00
 0.2727380267028E+00
 0.3498542204747E+00
 0.4143238270714E+00
 0.4607396740410E+00
 0.4839501742143E+00
 0.4799806757060E+00
 0.1445416563171E+01
 0.1508606361234E+01
 0.1572786491554E+01
 0.1623575723470E+01
 0.1653111097748E+01
 0.1660395598060E+01
 0.1648548620775E+01
 0.1621967417843E+01
 0.1584692847714E+01
 0.1539848316879E+01
 0.1489639770190E+01
 0.1435544804350E+01
 0.1378524343180E+01
 0.1319210452914E+01
 0.1258063606677E+01
 0.1195494580933E+01
 0.1132046501849E+01
 0.1068461075658E+01
 0.1005311260663E+01
 0.9427039272171E+00
 0.8803652460971E+00
 0.8177925033785E+00
 0.7543842284146E+00
 0.6895321402043E+00
 0.6226729381985E+00
 0.5533133181395E+00
 0.4810445717037E+00
 0.4055430493163E+00
 0.3266103242773E+00
 0.2443566555434E+00
 0.1597519084796E+00
 0.7823641007059E-01
 0.5702301058492E-01
 0.1336625281710E+00
 0.2223699714452E+00
 0.3086976784390E+00
 0.3874247341407E+00
 0.4537696287743E+00
 0.5024057040024E+00
 0.5279152472529E+00
 0.5256767517069E+00
 0.1341037855330E+01
 0.1396311828787E+01
 0.1453745488231E+01
 0.1500918869957E+01
 0.1530300427802E+01
 0.1540011101614E+01
 0.1531991704780E+01
 0.1509737936908E+01
 0.1476789177708E+01
 0.1436068764401E+01
 0.1389753452315E+01
 0.1339371243368E+01
 0.1285963062268E+01
 0.1230244448662E+01
 0.1172745636155E+01
 0.1113919082389E+01
 0.1054308340028E+01
 0.9946160177274E+00
 0.9353670696313E+00
 0.8766383634995E+00
 0.8181430770216E+00
 0.7593685472922E+00
 0.6996914001782E+00
 0.6384612061433E+00
 0.5750528544464E+00
 0.5088989551632E+00
 0.4395160000816E+00
 0.3665203102791E+00
 0.2896921095056E+00
 0.2092283541802E+00
 0.1267134962247E+00
 0.5474077105417E-01
 0.8086600162241E-01
 0.1666715937242E+00
 0.2573876298411E+00
 0.3452226600815E+00
 0.4255841059290E+00
 0.4938714728132E+00
 0.5447954155042E+00
 0.5726256824822E+00
 0.5721923821390E+00
 0.1239128599860E+01
 0.1287386882706E+01
 0.1338606139192E+01
 0.1382050994017E+01
 0.1410657506848E+01
 0.1421989448802E+01
 0.1417065777343E+01
 0.1398589234273E+01
 0.1369600915551E+01
 0.1332784732532E+01
 0.1290244277310E+01
 0.1243522543504E+01
 0.1193714202578E+01
 0.1141598265099E+01
 0.1087759063294E+01
 0.1032679770343E+01
 0.9768993337031E+00
 0.9210814147530E+00
 0.8657044904158E+00
 0.8108147129002E+00
 0.7561091635253E+00
 0.7010622653603E+00
 0.6450284700116E+00
 0.5873185242777E+00
 0.5272517627251E+00
 0.4641946021238E+00
 0.3975972815132E+00
 0.3270260180656E+00
 0.2522584423862E+00
 0.1736550748928E+00
 0.9409988263560E-01
 0.4654507111040E-01
 0.1105229675826E+00
 0.2005631303582E+00
 0.2928741775977E+00
 0.3821659124974E+00
 0.4642008829012E+00
 0.5345086966518E+00
 0.5878319056212E+00
 0.6181255364032E+00
 0.6195867988142E+00
 0.1139398272142E+01
 0.1181411089532E+01
 0.1226916801760E+01
 0.1266624691054E+01
 0.1294004423472E+01
 0.1306300466055E+01
 0.1303827315627E+01
 0.1288608580520E+01
 0.1263211850579E+01
 0.1230061102429E+01
 0.1191153747945E+01
 0.1148017147170E+01
 0.1101775051736E+01
 0.1053250525906E+01
 0.1003066997161E+01
 0.9517281363125E+00
 0.8997635536150E+00
 0.8477977901741E+00
 0.7962640280414E+00
 0.7451772427476E+00
 0.6942159934004E+00
 0.6428392476326E+00
 0.5903787148453E+00
 0.5361086477667E+00
 0.4792976752880E+00
 0.4192523586370E+00
 0.3553637300803E+00
 0.2871570159267E+00
 0.2144308203404E+00
 0.1378499211364E+00
 0.6358339960080E-01
 0.6100312500657E-01
 0.1425872809348E+00
 0.2349894618845E+00
 0.3286639680294E+00
 0.4193938066472E+00
 0.5031555737317E+00
 0.5755692643843E+00
 0.6314301042144E+00
 0.6644403611620E+00
 0.6678483685690E+00
 0.1041602117068E+01
 0.1078031004242E+01
 0.1118286047088E+01
 0.1154316372565E+01
 0.1180147363779E+01
 0.1192875926146E+01
 0.1192291841676E+01
 0.1179849986994E+01
 0.1157682614369E+01
 0.1127948079218E+01
 0.1092514705555E+01
 0.1052868916525E+01
 0.1010141277468E+01
 0.9651806832851E+00
 0.9186355611776E+00
 0.8710205822608E+00
 0.8228515113486E+00
 0.7747132779084E+00
 0.7269945989981E+00
 0.6796789322843E+00
 0.6324243877663E+00
 0.5846722947835E+00
 0.5357308475710E+00
 0.4848392943036E+00
 0.4312190958691E+00
 0.3741216977116E+00
 0.3128842574127E+00
 0.2469991813747E+00
 0.1763187755121E+00
 0.1021149244383E+00
 0.4128734044391E-01
 0.8781356647172E-01
 0.1757853570962E+00
 0.2697127127979E+00
 0.3646140083702E+00
 0.4567854528427E+00
 0.5423411815080E+00
 0.6169607933900E+00
 0.6754805603793E+00
 0.7116329266949E+00
 0.7166801282072E+00
 0.9455310760942E+00
 0.9769460853071E+00
 0.1012372996981E+01
 0.1044827553085E+01
 0.1068886316246E+01
 0.1081620830677E+01
 0.1082442167152E+01
 0.1072338541400E+01
 0.1053052245173E+01
 0.1026481376124E+01
 0.9943510729912E+00
 0.9580868950124E+00
 0.9188068410191E+00
 0.8773690367961E+00
 0.8344339182064E+00
 0.7905183919507E+00
 0.7461200792796E+00
 0.7017835311111E+00
 0.6578534991356E+00
 0.6142816143332E+00
 0.5707039605071E+00
 0.5265423160915E+00
 0.4810804069041E+00
 0.4335232078010E+00
 0.3830472705548E+00
 0.3288519331377E+00
 0.2702236529841E+00
 0.2066286846704E+00
 0.1380240286161E+00
 0.6712023534477E-01
 0.4344261822854E-01
 0.1189550859934E+00
 0.2095337664748E+00
 0.3045535578834E+00
 0.4005989196083E+00
 0.4942336079881E+00
 0.5816590936640E+00
 0.6586155647288E+00
 0.7199037889222E+00
 0.7595506566222E+00
 0.7670942538888E+00
 0.8510043054632E+00
 0.8778979782021E+00
 0.9088791239232E+00
 0.9378843575295E+00
 0.9600214502516E+00
 0.9724220762802E+00
 0.9742355577293E+00
 0.9660748025355E+00
 0.9493402844096E+00
 0.9256829802531E+00
 0.8966780726493E+00
 0.8636754231221E+00
 0.8277641867527E+00
 0.7897970167621E+00
 0.7504346184976E+00
 0.7101881382425E+00
 0.6695329934899E+00
 0.6289723803347E+00
 0.5888072942413E+00
 0.5489572055817E+00
 0.5090348200062E+00
 0.4684406241444E+00
 0.4264327212307E+00
 0.3821818082422E+00
 0.3348204686726E+00
 0.2834969193052E+00
 0.2274469859472E+00
 0.1661140531510E+00
 0.9965178608913E-01
 0.3575255684845E-01
 0.6786714020887E-01
 0.1517318444819E+00
 0.2435071596357E+00
 0.3393683271994E+00
 0.4365087312452E+00
 0.5316404500260E+00
 0.6210306527590E+00
 0.7004445615505E+00
 0.7647820418676E+00
 0.8076821636541E+00
 0.8214598505002E+00
 0.7578635323466E+00
 0.7806622783234E+00
 0.8075413837089E+00
 0.8332360833554E+00
 0.8533571812433E+00
 0.8651550294961E+00
 0.8676098340747E+00
 0.8610390635461E+00
 0.8465492421219E+00
 0.8255624419217E+00
 0.7995029603998E+00
 0.7696347281660E+00
 0.7370048945719E+00
 0.7024479793424E+00
 0.6666145756363E+00
 0.6300028946761E+00
 0.5930623864839E+00
 0.5562537898192E+00
 0.5198343138984E+00
 0.4836908737888E+00
 0.4474115675027E+00
 0.4103739248886E+00
 0.3718090333697E+00
 0.3308525702388E+00
 0.2865926921559E+00
 0.2381249690854E+00
 0.1846295960129E+00
 0.1255209527214E+00
 0.6136071573764E-01
 0.2761250134061E-01
 0.9924221783939E-01
 0.1851651067223E+00
 0.2774951352353E+00
 0.3740378722318E+00
 0.4722456001257E+00
 0.5689207745237E+00
 0.6603761071723E+00
 0.7424208201034E+00
 0.8099649476640E+00
 0.8568018174089E+00
 0.8766170485636E+00
 0.6659687366345E+00
 0.6850421362962E+00
 0.7081265035174E+00
 0.7306533239584E+00
 0.7487046618361E+00
 0.7596884966953E+00
 0.7624885475082E+00
 0.7571954430805E+00
 0.7446673916904E+00
 0.7261187359790E+00
 0.7028264314388E+00
 0.6759622503486E+00
 0.6465211645680E+00
 0.6153089976204E+00
 0.5829572863019E+00
 0.5499450272982E+00
 0.5166923279890E+00
 0.4836163457174E+00
 0.4509303002269E+00
 0.4184880837707E+00
 0.3858520097565E+00
 0.3523750046862E+00
 0.3172595294214E+00
 0.2796048791957E+00
 0.2384530447537E+00
 0.1928425438523E+00
 0.1418844728931E+00
 0.8492893101484E-01
 0.2388577523396E-01
 0.5432207764951E-01
 0.1325985845735E+00
 0.2188099508026E+00
 0.3113471216365E+00
 0.4084609328967E+00
 0.5077230359170E+00
 0.6059960003076E+00
 0.6996332810173E+00
 0.7844805259031E+00
 0.8555012162805E+00
 0.9067852021333E+00
 0.9325351519422E+00
 0.5751948036883E+00
 0.5908632453842E+00
 0.6104262454845E+00
 0.6299259604718E+00
 0.6458832496147E+00
 0.6558885467274E+00
 0.6587854842507E+00
 0.6544959459723E+00
 0.6436720588317E+00
 0.6273429736933E+00
 0.6066451336747E+00
 0.5826553238197E+00
 0.5563089656413E+00
 0.5283747370151E+00
 0.4994577013817E+00
 0.4700123807352E+00
 0.4404267085146E+00
 0.4110732700446E+00
 0.3821210253982E+00
 0.3533903473577E+00
 0.3244166659423E+00
 0.2945267972427E+00
 0.2628931303446E+00
 0.2285774682606E+00
 0.1905743243730E+00
 0.1478608093671E+00
 0.9945877925861E-01
 0.4453651787695E-01
 0.1858046651539E-01
 0.8842186569504E-01
 0.1665946176905E+00
 0.2524222290643E+00
 0.3449479591320E+00
 0.4425503873283E+00
 0.5428634682927E+00
 0.6427964039526E+00
 0.7387403796153E+00
 0.8265812578241E+00
 0.9013766550883E+00
 0.9574710131184E+00
 0.9892615626962E+00
 0.4854288986974E+00
 0.4979698759368E+00
 0.5142534831860E+00
 0.5308612197065E+00
 0.5447214059107E+00
 0.5536216876252E+00
 0.5564089587598E+00
 0.5528849717337E+00
 0.5435340167093E+00
 0.5292228162183E+00
 0.5109564647103E+00
 0.4897167997486E+00
 0.4663749539544E+00
 0.4416561858435E+00
 0.4161333826030E+00
 0.3902326203147E+00
 0.3643076946664E+00
 0.3386860703374E+00
 0.3134923607078E+00
 0.2885131407971E+00
 0.2632563413129E+00
 0.2370222080281E+00
 0.2089538759062E+00
 0.1780796001189E+00
 0.1433571756270E+00
 0.1037312466021E+00
 0.5824332164819E-01
 0.8536230881242E-02
 0.5544594445658E-01
 0.1237964277976E+00
 0.2007399854660E+00
 0.2858484141172E+00
 0.3782058642836E+00
 0.4762304407477E+00
 0.5775974150578E+00
 0.6792578525862E+00
 0.7776407743173E+00
 0.8686800001470E+00
 0.9475381666315E+00
 0.1008751976183E+01
 0.1046799392059E+01
 0.3965683855571E+00
 0.4062217116036E+00
 0.4194389546807E+00
 0.4332819687737E+00
 0.4450575329040E+00
 0.4527581714747E+00
 0.4552669197610E+00
 0.4523056292401E+00
 0.4442248329305E+00
 0.4317511068258E+00
 0.4157690561547E+00
 0.3971681745955E+00
 0.3767532512252E+00
 0.3552023597257E+00
 0.3330527722529E+00
 0.3107001747975E+00
 0.2884639967273E+00
 0.2666273272942E+00
 0.2452713571356E+00
 0.2241499325846E+00
 0.2027454832779E+00
 0.1803369520729E+00
 0.1560522047039E+00
 0.1289224657853E+00
 0.9797416890291E-01
 0.6253452243726E-01
 0.2544783771498E-01
 0.3844718504802E-01
 0.9344813432500E-01
 0.1594428010521E+00
 0.2348047941606E+00
 0.3189827489748E+00
 0.4110458147758E+00
 0.5094347604795E+00
 0.6118621047918E+00
 0.7153211200441E+00
 0.8162810063909E+00
 0.9107281314712E+00
 0.9939248854858E+00
 0.1060550146062E+01
 0.1105132174007E+01
 0.3085191663512E+00
 0.3154913102111E+00
 0.3258285941376E+00
 0.3370255484697E+00
 0.3467417457535E+00
 0.3531773192614E+00
 0.3552758511803E+00
 0.3527122053635E+00
 0.3457332744412E+00
 0.3349471268425E+00
 0.3211303955562E+00
 0.3050857645434E+00
 0.2875531849919E+00
 0.2691636984424E+00
 0.2504197479617E+00
 0.2316892637325E+00
 0.2132618588408E+00
 0.1953814649998E+00
 0.1780913248452E+00
 0.1611205532251E+00
 0.1439420558911E+00
 0.1258505602632E+00
 0.1060511713897E+00
 0.8383593354967E-01
 0.5920827195465E-01
 0.3666044714594E-01
 0.4087185529593E-01
 0.7868483672825E-01
 0.1314852827796E+00
 0.1950643642104E+00
 0.2686615999850E+00
 0.3517481939359E+00
 0.4434056366321E+00
 0.5421050066563E+00
 0.6456004649405E+00
 0.7509310155082E+00
 0.8546090435589E+00
 0.9526742989429E+00
 0.1040477377129E+01
 0.1112804615314E+01
 0.1164232667474E+01
 0.2211943704820E+00
 0.2256620792158E+00
 0.2332814358951E+00
 0.2419442184304E+00
 0.2496420358967E+00
 0.2547818821441E+00
 0.2563851267043E+00
 0.2541063381418E+00
 0.2481159272231E+00
 0.2389257381230E+00
 0.2272206438996E+00
 0.2137282114872E+00
 0.1991334383947E+00
 0.1840312128772E+00
 0.1689033824673E+00
 0.1541094260944E+00
 0.1399331743137E+00
 0.1266048390360E+00
 0.1141578582554E+00
 0.1023417271238E+00
 0.9071493414652E-01
 0.7881205957348E-01
 0.6647653608735E-01
 0.5475209359466E-01
 0.4817126082683E-01
 0.5561069319974E-01
 0.8045606810779E-01
 0.1191710665847E+00
 0.1694295410440E+00
 0.2305382730196E+00
 0.3022322447863E+00
 0.3840869934902E+00
 0.4752335122011E+00
 0.5741896928543E+00
 0.6787602820870E+00
 0.7860355068944E+00
 0.8925738712568E+00
 0.9944667623854E+00
 0.1087140111960E+01
 0.1165464032054E+01
 0.1224067252981E+01
 0.1345134729138E+00
 0.1366268329967E+00
 0.1416685834991E+00
 0.1479135856769E+00
 0.1536747094936E+00
 0.1575619271068E+00
 0.1586847263782E+00
 0.1567006191207E+00
 0.1517339099722E+00
 0.1442336179998E+00
 0.1348291643375E+00
 0.1242157155350E+00
 0.1130782385067E+00
 0.1020490345592E+00
 0.9168618478297E-01
 0.8245947358072E-01
 0.7476598645405E-01
 0.6888888672630E-01
 0.6483967004376E-01
 0.6235601963030E-01
 0.6113178278104E-01
 0.6112532583896E-01
 0.6289163603715E-01
 0.6783710189285E-01
 0.7810082075967E-01
 0.9587958436421E-01
 0.1227601497353E+00
 0.1596858963033E+00
 0.2072450564832E+00
 0.2658045337000E+00
 0.3354666039004E+00
 0.4159555804766E+00
 0.5064863091276E+00
 0.6056432926003E+00
 0.7112934745984E+00
 0.8205850822516E+00
 0.9301254855154E+00
 0.1036054618217E+01
 0.1133861425048E+01
 0.1218482347019E+01
 0.1284598710505E+01
 0.4840407428501E-01
 0.4828952437992E-01
 0.5088190731419E-01
 0.5494121082843E-01
 0.5913166307643E-01
 0.6224429763649E-01
 0.6348432818203E-01
 0.6258209578210E-01
 0.5975688164059E-01
 0.5562346000138E-01
 0.5109774963139E-01
 0.4729317385265E-01
 0.4531439048891E-01
 0.4587039981321E-01
 0.4894517267701E-01
 0.5393020308958E-01
 0.6004700661342E-01
 0.6661201123961E-01
 0.7316541147021E-01
 0.7953274755254E-01
 0.8580430933057E-01
 0.9233133442096E-01
 0.9977755112921E-01
 0.1092022191895E+00
 0.1221018837117E+00
 0.1403161574551E+00
 0.1657725694070E+00
 0.2001955463737E+00
 0.2449223800223E+00
 0.3008332288465E+00
 0.3683329205796E+00
 0.4473216290934E+00
 0.5371284225112E+00
 0.6364255311211E+00
 0.7431554887949E+00
 0.8545322851580E+00
 0.9672148862501E+00
 0.1077388187160E+01
 0.1180592721645E+01
 0.1271816501374E+01
 0.1345788195868E+01
 0.3723342795073E-01
 0.3947469537400E-01
 0.3929890413051E-01
 0.3833636963298E-01
 0.3811890727588E-01
 0.3956714406444E-01
 0.4286962389238E-01
 0.4779433467948E-01
 0.5402928042966E-01
 0.6129040801323E-01
 0.6929591789205E-01
 0.7774383292155E-01
 0.8632634394625E-01
 0.9476163440878E-01
 0.1028233163858E+00
 0.1103588828769E+00
 0.1172604941938E+00
 0.1234399721172E+00
 0.1289178132627E+00
 0.1338926710366E+00
 0.1387183283662E+00
 0.1438970875984E+00
 0.1501165860278E+00
 0.1583203146088E+00
 0.1697783285020E+00
 0.1860987279626E+00
 0.2091211468190E+00
 0.2407015862414E+00
 0.2824655616695E+00
 0.3356124323737E+00
 0.4008129628264E+00
 0.4781622675806E+00
 0.5671309616898E+00
 0.6665008298562E+00
 0.7743048078338E+00
 0.8878313394108E+00
 0.1003793954284E+01
 0.1118418917611E+01
 0.1227287588320E+01
 0.1325425245527E+01
 0.1407596671719E+01
 0.1224166100917E+00
 0.1266989238854E+00
 0.1287895838137E+00
 0.1297667794248E+00
 0.1306720914762E+00
 0.1322947565897E+00
 0.1350815009189E+00
 0.1391524090170E+00
 0.1443775511411E+00
 0.1504698662087E+00
 0.1570679760987E+00
 0.1638001224068E+00
 0.1703292554300E+00
 0.1763822496050E+00
 0.1817671555032E+00
 0.1863812802078E+00
 0.1901774814955E+00
 0.1931383821197E+00
 0.1953606236701E+00
 0.1971182109289E+00
 0.1988345354544E+00
 0.2010646830876E+00
 0.2045133112448E+00
 0.2100845546786E+00
 0.2189465671345E+00
 0.2325728288633E+00
 0.2527065891974E+00
 0.2812202604605E+00
 0.3198883586006E+00
 0.3701430315627E+00
 0.4328994245734E+00
 0.5084629697876E+00
 0.5964711865690E+00
 0.6958378826546E+00
 0.8047025537025E+00
 0.9204378114617E+00
 0.1039815212878E+01
 0.1159099048807E+01
 0.1273901024051E+01
 0.1379268571003E+01
 0.1469985983331E+01
 0.2072424180091E+00
 0.2135014299824E+00
 0.2178135555475E+00
 0.2209593667576E+00
 0.2237094830340E+00
 0.2266667085746E+00
 0.2301879465915E+00
 0.2343793860331E+00
 0.2391414334016E+00
 0.2442363680290E+00
 0.2493576003209E+00
 0.2541883583475E+00
 0.2584451808388E+00
 0.2619066490581E+00
 0.2644305147269E+00
 0.2659621467202E+00
 0.2665055960368E+00
 0.2661016477001E+00
 0.2649038999640E+00
 0.2632358878387E+00
 0.2615656291687E+00
 0.2604864434290E+00
 0.2607262813808E+00
 0.2631845108013E+00
 0.2689869814434E+00
 0.2795355113026E+00
 0.2965089969164E+00
 0.3217774271250E+00
 0.3572128465035E+00
 0.4044362762048E+00
 0.4645944785704E+00
 0.5382168777985E+00
 0.6251321382776E+00
 0.7244093486879E+00
 0.8343121657428E+00
 0.9523082891339E+00
 0.1075231507949E+01
 0.1199381175609E+01
 0.1320388823418E+01
 0.1433307462374E+01
 0.1532919666821E+01
 0.2917675949196E+00
 0.2999563129665E+00
 0.3064469231865E+00
 0.3117650392853E+00
 0.3164424399195E+00
 0.3208978934624E+00
 0.3253731900174E+00
 0.3299235772482E+00
 0.3344481157767E+00
 0.3387407702656E+00
 0.3425455144004E+00
 0.3456046436460E+00
 0.3476954616111E+00
 0.3486550478236E+00
 0.3483954471653E+00
 0.3469116931718E+00
 0.3442579167702E+00
 0.3405296541909E+00
 0.3359306156126E+00
 0.3308230927246E+00
 0.3257071368346E+00
 0.3212038549106E+00
 0.3180617173167E+00
 0.3171857975808E+00
 0.3196851642629E+00
 0.3269236415188E+00
 0.3405412183404E+00
 0.3624069190645E+00
 0.3944688608949E+00
 0.4385125588262E+00
 0.4959089768876E+00
 0.5674244217411E+00
 0.6531024315787E+00
 0.7521916522388E+00
 0.8630991459597E+00
 0.9834000726943E+00
 0.1109995642007E+01
 0.1239217785836E+01
 0.1366707085460E+01
 0.1487503801555E+01
 0.1596363560345E+01
 0.3760514646275E+00
 0.3861394450968E+00
 0.3947799213818E+00
 0.4022638438775E+00
 0.4088990976214E+00
 0.4149234013003E+00
 0.4204556528700E+00
 0.4254869449921E+00
 0.4299019015969E+00
 0.4335165886199E+00
 0.4361203281703E+00
 0.4375128604236E+00
 0.4375328393023E+00
 0.4360772925177E+00
 0.4331138153707E+00
 0.4286874163775E+00
 0.4229013785693E+00
 0.4159037463429E+00
 0.4079441755811E+00
 0.3994172083165E+00
 0.3908468110377E+00
 0.3828739617196E+00
 0.3762628949729E+00
 0.3719263692919E+00
 0.3709677023644E+00
 0.3747308155476E+00
 0.3848337851315E+00
 0.4031499441908E+00
 0.4316937936861E+00
 0.4724008199759E+00
 0.5268620499257E+00
 0.5960931619371E+00
 0.6803761902612E+00
 0.7791648844142E+00
 0.8910308678557E+00
 0.1013670882553E+01
 0.1144059987786E+01
 0.1278560799888E+01
 0.1412811808178E+01
 0.1541820333548E+01
 0.1660286270784E+01
 0.4601519218822E+00
 0.4721244924682E+00
 0.4829009999906E+00
 0.4925502962844E+00
 0.5011656262787E+00
 0.5088061790793E+00
 0.5154643459667E+00
 0.5210600210226E+00
 0.5254558301607E+00
 0.5284838312708E+00
 0.5299748065993E+00
 0.5297841348776E+00
 0.5278114842321E+00
 0.5240142213199E+00
 0.5184159288215E+00
 0.5111115294606E+00
 0.5022526252657E+00
 0.4920380498903E+00
 0.4807604055053E+00
 0.4688418794062E+00
 0.4568244454122E+00
 0.4453626955881E+00
 0.4352317408785E+00
 0.4273508237058E+00
 0.4228219610006E+00
 0.4229790002007E+00
 0.4294290716084E+00
 0.4440548830525E+00
 0.4689325743933E+00
 0.5061383081749E+00
 0.5574809738011E+00
 0.6242378108073E+00
 0.7069531158303E+00
 0.8053128063701E+00
 0.9180764505717E+00
 0.1043078590798E+01
 0.1177376097921E+01
 0.1317361120434E+01
 0.1458658532518E+01
 0.1596220644181E+01
 0.1724659541301E+01
 0.5441254904956E+00
 0.5579831295469E+00
 0.5708963605081E+00
 0.5827201223639E+00
 0.5933390288217E+00
 0.6026355730403E+00
 0.6104736479042E+00
 0.6166977346264E+00
 0.6211437873292E+00
 0.6236559709501E+00
 0.6241039763376E+00
 0.6223975738589E+00
 0.6184971407864E+00
 0.6124205356551E+00
 0.6042474727047E+00
 0.5941225390722E+00
 0.5822448172708E+00
 0.5688624263326E+00
 0.5543084523250E+00
 0.5390290358980E+00
 0.5235793821545E+00
 0.5086224039013E+00
 0.4949393625446E+00
 0.4834533996353E+00
 0.4752663402847E+00
 0.4717070964577E+00
 0.4743787450406E+00
 0.4851772703289E+00
 0.5062377658753E+00
 0.5397705640884E+00
 0.5878012350846E+00
 0.6518804104889E+00
 0.7328386862702E+00
 0.8306229577435E+00
 0.9442067039050E+00
 0.1071580984508E+01
 0.1209894319800E+01
 0.1355568189455E+01
 0.1504202006627E+01
 0.1650669126243E+01
 0.1789458543321E+01
 0.6280275979911E+00
 0.6437854727507E+00
 0.6588503600684E+00
 0.6728682491318E+00
 0.6855186841459E+00
 0.6965085128789E+00
 0.7055719469506E+00
 0.7124756305536E+00
 0.7170262348275E+00
 0.7190779570942E+00
 0.7185381469775E+00
 0.7153704785913E+00
 0.7095960475529E+00
 0.7012933772877E+00
 0.6905983356686E+00
 0.6777047882388E+00
 0.6628583949841E+00
 0.6463551142892E+00
 0.6285662891950E+00
 0.6099587629388E+00
 0.5910967737301E+00
 0.5726467813387E+00
 0.5553915857622E+00
 0.5402549019373E+00
 0.5283375499474E+00
 0.5209657456767E+00
 0.5197425710870E+00
 0.5265798772258E+00
 0.5436697422773E+00
 0.5733515617941E+00
 0.6178667528780E+00
 0.6790506533428E+00
 0.7580444865740E+00
 0.8550868777421E+00
 0.9693941528493E+00
 0.1099135568926E+01
 0.1241563420151E+01
 0.1393129545504E+01
 0.1549395848792E+01
 0.1705130920548E+01
 0.1854662119846E+01
 0.7119128757227E+00
 0.7296005330679E+00
 0.7468460414317E+00
 0.7630886679318E+00
 0.7778043214455E+00
 0.7905244166640E+00
 0.8008527715722E+00
 0.8084771429954E+00
 0.8131740469086E+00
 0.8148072898622E+00
 0.8133219237240E+00
 0.8087358830452E+00
 0.8011314253362E+00
 0.7906480426881E+00
 0.7774777311954E+00
 0.7618631360386E+00
 0.7440954978216E+00
 0.7245171458971E+00
 0.7035355359869E+00
 0.6816351628270E+00
 0.6593853795325E+00
 0.6374516691082E+00
 0.6166137730251E+00
 0.5977921509249E+00
 0.5820845454517E+00
 0.5708147540597E+00
 0.5655878410379E+00
 0.5683328575604E+00
 0.5812969324732E+00
 0.6069439705974E+00
 0.6477302352529E+00
 0.7057863396447E+00
 0.7825886767071E+00
 0.8787004499264E+00
 0.9936131531873E+00
 0.1125699419129E+01
 0.1272330221504E+01
 0.1429990372791E+01
 0.1594192192450E+01
 0.1759571826141E+01
 0.1920252999471E+01
 0.7958354616600E+00
 0.8154966666264E+00
 0.8349656873331E+00
 0.8534747715661E+00
 0.8702956322293E+00
 0.8847835914442E+00
 0.8964116804384E+00
 0.9047889163367E+00
 0.9096623981320E+00
 0.9109067149693E+00
 0.9085059665023E+00
 0.9025335955555E+00
 0.8931339580019E+00
 0.8805080012793E+00
 0.8649038115242E+00
 0.8466122127142E+00
 0.8259689202043E+00
 0.8033611017425E+00
 0.7792301840579E+00
 0.7540753334502E+00
 0.7284672142578E+00
 0.7030658964019E+00
 0.6786433945939E+00
 0.6561126685243E+00
 0.6365653775068E+00
 0.6213217254498E+00
 0.6119891086356E+00
 0.6105139381274E+00
 0.6191961191404E+00
 0.6406195164068E+00
 0.6774536568022E+00
 0.7321339714709E+00
 0.8064966060721E+00
 0.9014643853173E+00
 0.1016840112799E+01
 0.1151229090021E+01
 0.1302139252012E+01
 0.1466093033766E+01
 0.1638541300463E+01
 0.1813958176842E+01
 0.1986217997420E+01
 0.8798493058526E+00
 0.9015420264367E+00
 0.9232913851648E+00
 0.9441198498487E+00
 0.9630924206249E+00
 0.9793867772365E+00
 0.9923450382884E+00
 0.1001498777057E+01
 0.1006567998183E+01
 0.1007440844304E+01
 0.1004143129779E+01
 0.9968059709715E+00
 0.9856372761850E+00
 0.9709001362498E+00
 0.9528986866535E+00
 0.9319712278755E+00
 0.9084967251022E+00
 0.8829055654185E+00
 0.8556709658606E+00
 0.8273037869936E+00
 0.7983722228091E+00
 0.7695264839461E+00
 0.7415260568441E+00
 0.7152717699704E+00
 0.6918454261848E+00
 0.6725612918953E+00
 0.6590280895419E+00
 0.6532086411956E+00
 0.6574527865774E+00
 0.6744594298679E+00
 0.7071088497581E+00
 0.7581494850140E+00
 0.8298015865813E+00
 0.9233848622742E+00
 0.1039053837040E+01
 0.1175680596625E+01
 0.1330932410492E+01
 0.1501376577488E+01
 0.1682391138083E+01
 0.1868256682661E+01
 0.2052548217864E+01
 0.9640084833941E+00
 0.9878050236503E+00
 0.1011905606562E+01
 0.1035117656919E+01
 0.1056294968639E+01
 0.1074435133838E+01
 0.1088749516529E+01
 0.1098694726330E+01
 0.1103967624911E+01
 0.1104474316251E+01
 0.1100286343938E+01
 0.1091595591863E+01
 0.1078675491984E+01
 0.1061852160882E+01
 0.1041485730986E+01
 0.1017961166288E+01
 0.9916993282823E+00
 0.9631721058325E+00
 0.9328822667611E+00
 0.9013493573117E+00
 0.8691352924832E+00
 0.8368759118176E+00
 0.8053131985240E+00
 0.7753308409539E+00
 0.7479963332329E+00
 0.7246146526725E+00
 0.7067936472383E+00
 0.6965105297600E+00
 0.6961615114493E+00
 0.7085549727909E+00
 0.7367782044946E+00
 0.7838991258040E+00
 0.8525458392467E+00
 0.9444743457740E+00
 0.1060236021059E+01
 0.1199009479834E+01
 0.1358648649942E+01
 0.1535776216807E+01
 0.1725686895260E+01
 0.1922434234936E+01
 0.2119239270681E+01
 0.1048367521210E+01
 0.1074354808343E+01
 0.1100891811895E+01
 0.1126563026800E+01
 0.1150004505516E+01
 0.1170030421376E+01
 0.1185721901285E+01
 0.1196464363908E+01
 0.1201937210317E+01
 0.1202070620828E+01
 0.1196987260715E+01
 0.1186943801100E+01
 0.1172281662852E+01
 0.1153391035053E+01
 0.1130687955959E+01
 0.1104603110174E+01
 0.1075597762037E+01
 0.1044183479845E+01
 0.1010890277684E+01
 0.9762433354122E+00
 0.9407944316928E+00
 0.9051604298047E+00
 0.8700606397557E+00
 0.8363562279870E+00
 0.8050952983787E+00
 0.7775692729131E+00
 0.7553818212918E+00
 0.7405214668168E+00
 0.7354263906328E+00
 0.7430080365469E+00
 0.7665554771338E+00
 0.8094604728275E+00
 0.8747816318379E+00
 0.9647526134104E+00
 0.1080371917545E+01
 0.1221170977144E+01
 0.1385223684830E+01
 0.1569222767990E+01
 0.1768370449327E+01
 0.1976457673952E+01
 0.2186291514854E+01
 0.1132981745856E+01
 0.1161261780943E+01
 0.1190335092060E+01
 0.1218552534836E+01
 0.1244323739992E+01
 0.1266275272973E+01
 0.1283359035187E+01
 0.1294894496965E+01
 0.1300551168019E+01
 0.1300291223815E+01
 0.1294295252944E+01
 0.1282889640218E+01
 0.1266486708513E+01
 0.1245541878136E+01
 0.1220526919094E+01
 0.1191917134521E+01
 0.1160212544111E+01
 0.1125962465725E+01
 0.1089721793469E+01
 0.1052018248043E+01
 0.1013389563159E+01
 0.9744289197520E+00
 0.9358275839117E+00
 0.8984184535359E+00
 0.8632245645580E+00
 0.8315186585339E+00
 0.8048958689898E+00
 0.7853518793712E+00
 0.7753614995669E+00
 0.7779318068933E+00
 0.7965467028875E+00
 0.8349236184725E+00
 0.8965726276288E+00
 0.9842480207303E+00
 0.1099451215348E+01
 0.1242120323694E+01
 0.1410589730294E+01
 0.1601642046796E+01
 0.1810379758895E+01
 0.2030293517635E+01
 0.2253710340130E+01
 0.1217907660401E+01
 0.1248598146692E+01
 0.1280322861782E+01
 0.1311185211137E+01
 0.1339357440158E+01
 0.1363273512320E+01
 0.1381757809402E+01
 0.1394070815744E+01
 0.1399881814473E+01
 0.1399194818424E+01
 0.1392256578291E+01
 0.1379468987449E+01
 0.1361318560512E+01
 0.1338327144127E+01
 0.1311021921432E+01
 0.1279921513633E+01
 0.1245562877218E+01
 0.1208531042222E+01
 0.1169403365473E+01
 0.1128706989151E+01
 0.1086961653746E+01
 0.1044732058860E+01
 0.1002675863411E+01
 0.9615916007721E+00
 0.9224709935240E+00
 0.8865621562569E+00
 0.8554462982531E+00
 0.8311210165234E+00
 0.8160913731153E+00
 0.8134514894826E+00
 0.8268712139306E+00
 0.8603925116145E+00
 0.9179954674928E+00
 0.1002999044497E+01
 0.1117469173074E+01
 0.1261813216601E+01
 0.1434675284966E+01
 0.1632954214965E+01
 0.1851648178979E+01
 0.2083907649858E+01
 0.2321506499103E+01
 0.1303203359609E+01
 0.1336438527215E+01
 0.1370945620600E+01
 0.1404563316319E+01
 0.1435213056195E+01
 0.1461130490439E+01
 0.1481015158448E+01
 0.1494077569980E+01
 0.1499998803998E+01
 0.1498836614812E+01
 0.1490913610087E+01
 0.1476713792453E+01
 0.1456801435391E+01
 0.1431765943296E+01
 0.1402189370274E+01
 0.1368632107982E+01
 0.1331666040413E+01
 0.1291909767542E+01
 0.1249960657788E+01
 0.1206342152319E+01
 0.1161552033485E+01
 0.1116121648388E+01
 0.1070669313955E+01
 0.1025952779170E+01
 0.9829256719694E+00
 0.9428047436394E+00
 0.9071508724614E+00
 0.8779571889786E+00
 0.8577514989139E+00
 0.8497050892657E+00
 0.8576627600971E+00
 0.8859864710026E+00
 0.9391416095073E+00
 0.1021056149139E+01
 0.1134428062558E+01
 0.1280206485566E+01
 0.1457404973857E+01
 0.1663073070299E+01
 0.1892103685723E+01
 0.2137264967417E+01
 0.2389696502393E+01
 0.1388928994118E+01
 0.1424860645548E+01
 0.1462297800139E+01
 0.1498793192543E+01
 0.1532001385439E+01
 0.1559953424026E+01
 0.1581228024656E+01
 0.1594997202016E+01
 0.1600968527569E+01
 0.1599267614821E+01
 0.1590304081602E+01
 0.1574651353066E+01
 0.1552955174906E+01
 0.1525873450885E+01
 0.1494042243876E+01
 0.1458061863450E+01
 0.1418536899552E+01
 0.1376117280863E+01
 0.1331417926051E+01
 0.1284955481391E+01
 0.1237201822130E+01
 0.1188650031164E+01
 0.1139873210039E+01
 0.1091581616873E+01
 0.1044683508592E+01
 0.1000356782131E+01
 0.9601345682282E+00
 0.9259979747161E+00
 0.9004888104650E+00
 0.8868442351421E+00
 0.8890707295372E+00
 0.9118418753290E+00
 0.9601194515856E+00
 0.1038484028921E+01
 0.1150338990397E+01
 0.1297259026094E+01
 0.1478699473859E+01
 0.1691905271555E+01
 0.1931667996194E+01
 0.2190328986241E+01
 0.2458303091179E+01
 0.1475147296361E+01
 0.1513946104000E+01
 0.1554478719354E+01
 0.1593986204931E+01
 0.1629837280569E+01
 0.1659851719668E+01
 0.1682493263642E+01
 0.1696909901303E+01
 0.1702853438825E+01
 0.1700533837292E+01
 0.1690460311732E+01
 0.1673303603797E+01
 0.1649794623449E+01
 0.1620660372038E+01
 0.1586589625224E+01
 0.1548220387277E+01
 0.1506187498003E+01
 0.1461169884451E+01
 0.1413797574222E+01
 0.1364577392938E+01
 0.1313951416650E+01
 0.1262369553018E+01
 0.1210353720771E+01
 0.1158559744678E+01
 0.1107842793475E+01
 0.1059333710012E+01
 0.1014529466177E+01
 0.9753903723657E+00
 0.9444621637427E+00
 0.9250350384204E+00
 0.9212614645666E+00
 0.9381140348888E+00
 0.9810567632004E+00
 0.1055364286063E+01
 0.1165224182302E+01
 0.1312933069571E+01
 0.1498475553066E+01
 0.1719349485441E+01
 0.1970255562685E+01
 0.2243061411231E+01
 0.2527355801928E+01
 0.1561924183555E+01
 0.1603781278185E+01
 0.1647593673411E+01
 0.1690259790523E+01
 0.1728840401147E+01
 0.1760937266474E+01
 0.1784907461491E+01
 0.1799893047193E+01
 0.1805711276689E+01
 0.1802675468608E+01
 0.1791408391821E+01
 0.1772686399288E+01
 0.1747329027431E+01
 0.1716132447700E+01
 0.1679836288483E+01
 0.1639113582523E+01
 0.1594626707259E+01
 0.1547081183783E+01
 0.1497119764773E+01
 0.1445236544423E+01
 0.1391840012657E+01
 0.1337332041147E+01
 0.1282177359951E+01
 0.1226970247232E+01
 0.1172504697126E+01
 0.1119855653569E+01
 0.1070474552899E+01
 0.1026290880035E+01
 0.9898427766913E+00
 0.9644589697897E+00
 0.9544196651348E+00
 0.9649792474256E+00
 0.1002103451654E+01
 0.1071798612697E+01
 0.1179119835098E+01
 0.1327195888929E+01
 0.1516646267726E+01
 0.1745295435961E+01
 0.2007772410031E+01
 0.2295421677760E+01
 0.2596891649464E+01
 0.1649329456601E+01
 0.1694458355784E+01
 0.1741755186783E+01
 0.1787738633847E+01
 0.1829136006704E+01
 0.1863324675163E+01
 0.1888566630347E+01
 0.1904020505731E+01
 0.1909594156299E+01
 0.1905725918397E+01
 0.1893167320671E+01
 0.1872808784320E+01
 0.1845561450254E+01
 0.1812289995381E+01
 0.1773782331269E+01
 0.1730743332799E+01
 0.1683859927593E+01
 0.1633861774204E+01
 0.1581402069269E+01
 0.1526959433801E+01
 0.1470905144388E+01
 0.1413588283071E+01
 0.1355410413235E+01
 0.1296897063386E+01
 0.1238772689845E+01
 0.1182046935065E+01
 0.1128115409780E+01
 0.1078865472919E+01
 0.1036814605582E+01
 0.1005313734311E+01
 0.9887498683623E+00
 0.9926370374336E+00
 0.1023434686168E+01
 0.1087912551415E+01
 0.1192079665346E+01
 0.1340022072279E+01
 0.1533121380833E+01
 0.1769622825309E+01
 0.2044114761496E+01
 0.2347366481568E+01
 0.2666955954314E+01
 0.1737437618274E+01
 0.1786076555386E+01
 0.1837084467522E+01
 0.1886555990119E+01
 0.1930855785785E+01
 0.1967131434563E+01
 0.1993565742455E+01
 0.2009361742756E+01
 0.2014547500489E+01
 0.2009710763983E+01
 0.1995748080092E+01
 0.1973672247781E+01
 0.1944488202360E+01
 0.1909127484459E+01
 0.1868422851584E+01
 0.1823107234978E+01
 0.1773888835204E+01
 0.1721518969331E+01
 0.1666659153470E+01
 0.1609770023572E+01
 0.1551182235091E+01
 0.1491187496595E+01
 0.1430118330869E+01
 0.1368424321637E+01
 0.1306751863909E+01
 0.1246035455531E+01
 0.1187603761526E+01
 0.1133289448022E+01
 0.1085574625650E+01
 0.1047814117143E+01
 0.1024477987082E+01
 0.1021312573628E+01
 0.1045254398876E+01
 0.1103859914095E+01
 0.1204179311299E+01
 0.1351396543116E+01
 0.1547808100089E+01
 0.1792200080501E+01
 0.2079167354405E+01
 0.2398849318491E+01
 0.2737603360806E+01
 0.1826328840099E+01
 0.1878743569714E+01
 0.1933713107491E+01
 0.1986855178717E+01
 0.2034138709378E+01
 0.2072477946329E+01
 0.2099998053591E+01
 0.2115980710803E+01
 0.2120608784040E+01
 0.2114646570451E+01
 0.2099152648074E+01
 0.2075269962922E+01
 0.2044098290234E+01
 0.2006633149566E+01
 0.1963747672031E+01
 0.1916198381343E+01
 0.1864711176215E+01
 0.1810056570649E+01
 0.1752902495615E+01
 0.1693689387181E+01
 0.1632704154602E+01
 0.1570176785770E+01
 0.1506365078356E+01
 0.1441635599275E+01
 0.1376548142182E+01
 0.1311951929557E+01
 0.1249096854055E+01
 0.1189747098729E+01
 0.1136332975635E+01
 0.1092192763941E+01
 0.1061852882754E+01
 0.1051259253121E+01
 0.1067799175218E+01
 0.1119827940175E+01
 0.1215521774658E+01
 0.1361318567668E+01
 0.1560612291601E+01
 0.1812882866537E+01
 0.2112801260092E+01
 0.2449820048530E+01
 0.2808899121929E+01
 0.1916090115343E+01
 0.1972577289235E+01
 0.2031785083298E+01
 0.2088791270612E+01
 0.2139131888071E+01
 0.2179487384844E+01
 0.2207954155094E+01
 0.2223934461608E+01
 0.2227806063105E+01
 0.2220539576991E+01
 0.2203372951645E+01
 0.2177586020727E+01
 0.2144372891862E+01
 0.2104788648482E+01
 0.2059741116235E+01
 0.2010005194905E+01
 0.1956320610420E+01
 0.1899474680630E+01
 0.1840140139812E+01
 0.1778735379155E+01
 0.1715500784463E+01
 0.1650600581293E+01
 0.1584212440313E+01
 0.1516613095903E+01
 0.1448267357538E+01
 0.1379928948313E+01
 0.1312756628309E+01
 0.1248431175981E+01
 0.1189312916757E+01
 0.1138700848818E+01
 0.1101147937813E+01
 0.1082761432538E+01
 0.1091342536835E+01
 0.1136043272136E+01
 0.1226244117233E+01
 0.1369807068153E+01
 0.1571440426889E+01
 0.1831512315124E+01
 0.2144870863650E+01
 0.2500224438717E+01
 0.2880920785997E+01
 0.2006816646187E+01
 0.2067707877736E+01
 0.2131459125035E+01
 0.2192532993187E+01
 0.2245991398792E+01
 0.2288285310697E+01
 0.2317520679250E+01
 0.2333271429877E+01
 0.2336156263425E+01
 0.2327384245287E+01
 0.2308389767202E+01
 0.2280594667914E+01
 0.2245284869312E+01
 0.2203568772947E+01
 0.2156381843993E+01
 0.2104511323172E+01
 0.2048706609363E+01
 0.1989769563694E+01
 0.1928376488852E+01
 0.1864922333177E+01
 0.1799598593928E+01
 0.1732500066606E+01
 0.1663719275211E+01
 0.1593436713716E+01
 0.1522014188178E+01
 0.1450099846271E+01
 0.1378748653427E+01
 0.1309542086484E+01
 0.1244750546315E+01
 0.1187608568940E+01
 0.1142662578642E+01
 0.1116137275043E+01
 0.1116199607302E+01
 0.1152778816382E+01
 0.1236525651331E+01
 0.1376907647350E+01
 0.1580202684978E+01
 0.1847913008419E+01
 0.2175209385104E+01
 0.2550003431193E+01
 0.2953760487209E+01
 0.2098613527623E+01
 0.2164280292116E+01
 0.2232911535284E+01
 0.2298264873382E+01
 0.2354883027284E+01
 0.2398998941516E+01
 0.2428778565357E+01
 0.2444029328149E+01
 0.2445663204080E+01
 0.2435161672719E+01
 0.2414171583055E+01
 0.2384259566031E+01
 0.2346798331928E+01
 0.2302941222263E+01
 0.2253642752405E+01
 0.2199695596337E+01
 0.2141854414409E+01
 0.2080933560961E+01
 0.2017612142920E+01
 0.1952260794756E+01
 0.1885020232819E+01
 0.1815912593508E+01
 0.1744940720931E+01
 0.1672183038655E+01
 0.1597890934856E+01
 0.1522597346666E+01
 0.1447240780114E+01
 0.1373286772076E+01
 0.1302894194617E+01
 0.1239205388150E+01
 0.1186723681730E+01
 0.1151741667096E+01
 0.1142732134012E+01
 0.1170361539718E+01
 0.1246597882725E+01
 0.1382701804344E+01
 0.1586817853678E+01
 0.1861891077669E+01
 0.2203621946776E+01
 0.2599091205682E+01
 0.3027528249101E+01
 0.2191597810232E+01
 0.2262457366387E+01
 0.2336339559852E+01
 0.2406189633569E+01
 0.2465982843773E+01
 0.2511755951494E+01
 0.2541800773373E+01
 0.2556232588034E+01
 0.2556315339736E+01
 0.2543837882944E+01
 0.2520673447312E+01
 0.2488533093406E+01
 0.2448868266093E+01
 0.2402866450187E+01
 0.2351490950340E+01
 0.2295532056125E+01
 0.2235745061193E+01
 0.2172955066039E+01
 0.2107843792539E+01
 0.2040757297583E+01
 0.1971784149799E+01
 0.1900871093561E+01
 0.1827927353167E+01
 0.1752924218230E+01
 0.1675996127154E+01
 0.1597551960828E+01
 0.1518401473011E+01
 0.1439877208422E+01
 0.1364003421684E+01
 0.1293799932130E+01
 0.1233686771341E+01
 0.1189969136851E+01
 0.1171353820793E+01
 0.1189181215278E+01
 0.1256756491500E+01
 0.1387318880773E+01
 0.1591220817075E+01
 0.1873233614100E+01
 0.2229875041159E+01
 0.2647409170573E+01
 0.3102356697222E+01
 0.2285901051080E+01
 0.2362423617407E+01
 0.2441965434847E+01
 0.2516530841276E+01
 0.2579477487905E+01
 0.2626682628835E+01
 0.2656649309112E+01
 0.2669889281413E+01
 0.2668083214961E+01
 0.2653362019598E+01
 0.2627835834432E+01
 0.2593355717310E+01
 0.2551440249413E+01
 0.2503297595549E+01
 0.2449887812850E+01
 0.2391990061086E+01
 0.2330355477165E+01
 0.2265818570327E+01
 0.2199064176232E+01
 0.2130414195270E+01
 0.2059904247373E+01
 0.1987403494058E+01
 0.1912724300885E+01
 0.1835726733701E+01
 0.1756422947520E+01
 0.1675090117414E+01
 0.1592397779862E+01
 0.1509528456084E+01
 0.1428347517668E+01
 0.1351719414639E+01
 0.1283936885999E+01
 0.1231256675620E+01
 0.1202535899279E+01
 0.1209700097153E+01
 0.1267375582275E+01
 0.1390951562951E+01
 0.1593372969168E+01
 0.1881712041869E+01
 0.2253683298860E+01
 0.2694847398244E+01
 0.3178407778528E+01
 0.2381672499644E+01
 0.2464389980995E+01
 0.2550041262504E+01
 0.2629535789445E+01
 0.2695563979468E+01
 0.2743901166028E+01
 0.2773371400390E+01
 0.2784987458685E+01
 0.2780916641218E+01
 0.2763664486375E+01
 0.2735583575586E+01
 0.2698655469289E+01
 0.2654450268258E+01
 0.2604180505766E+01
 0.2548789120491E+01
 0.2489034473166E+01
 0.2425658659084E+01
 0.2359504787643E+01
 0.2291262115632E+01
 0.2221229563080E+01
 0.2149389587834E+01
 0.2075532149864E+01
 0.1999370325138E+01
 0.1920650066237E+01
 0.1839257463794E+01
 0.1755331999340E+01
 0.1669392895689E+01
 0.1582456193384E+01
 0.1496203398799E+01
 0.1413308449561E+01
 0.1337888950170E+01
 0.1276086327108E+01
 0.1236812816816E+01
 0.1232463491110E+01
 0.1278924303627E+01
 0.1393875962546E+01
 0.1593276645610E+01
 0.1887087787547E+01
 0.2274711122758E+01
 0.2741207747333E+01
 0.3255872003093E+01
 0.2479083118938E+01
 0.2568599757364E+01
 0.2660854900419E+01
 0.2745478541182E+01
 0.2814448786320E+01
 0.2863525789197E+01
 0.2891994639736E+01
 0.2901490853250E+01
 0.2894741632515E+01
 0.2874655099069E+01
 0.2843824911504E+01
 0.2804347561887E+01
 0.2757824657470E+01
 0.2705453859834E+01
 0.2648145285651E+01
 0.2586625928597E+01
 0.2521623937138E+01
 0.2453990869452E+01
 0.2384422643662E+01
 0.2313197187773E+01
 0.2240244167720E+01
 0.2165273305031E+01
 0.2087896869519E+01
 0.2007745258655E+01
 0.1924576663481E+01
 0.1838389069188E+01
 0.1749543282359E+01
 0.1658873659008E+01
 0.1567852780615E+01
 0.1478927075462E+01
 0.1395987444579E+01
 0.1324987334361E+01
 0.1274787930102E+01
 0.1258110918651E+01
 0.1291986528511E+01
 0.1396475374496E+01
 0.1591000169289E+01
 0.1889109193801E+01
 0.2292602648123E+01
 0.2786186865846E+01
 0.3334711867043E+01
 0.2578330718128E+01
 0.2675336142244E+01
 0.2774737084428E+01
 0.2864663000631E+01
 0.2936345759820E+01
 0.2985657347642E+01
 0.3012520890465E+01
 0.3019333926858E+01
 0.3009457171976E+01
 0.2986221342717E+01
 0.2952450740882E+01
 0.2910334189153E+01
 0.2861480179094E+01
 0.2807049392818E+01
 0.2747901663511E+01
 0.2684721193355E+01
 0.2618217331857E+01
 0.2549250723666E+01
 0.2478527244788E+01
 0.2406306667755E+01
 0.2332466781830E+01
 0.2256636600360E+01
 0.2178327091971E+01
 0.2097053375977E+01
 0.2012446285749E+01
 0.1924361267897E+01
 0.1832995308177E+01
 0.1738987933793E+01
 0.1643578502028E+01
 0.1548947795122E+01
 0.1458705103674E+01
 0.1378537591766E+01
 0.1317138884571E+01
 0.1287388032330E+01
 0.1307282117247E+01
 0.1399274283010E+01
 0.1586695696250E+01
 0.1887563713369E+01
 0.2306861944877E+01
 0.2829729108723E+01
 0.3414810749998E+01
 0.2679646583624E+01
 0.2784931856481E+01
 0.2892070040624E+01
 0.2987425751927E+01
 0.3061472377424E+01
 0.3110375883473E+01
 0.3134918747202E+01
 0.3138416276714E+01
 0.3124931932094E+01
 0.3098226860320E+01
 0.3061334152911E+01
 0.3016504556802E+01
 0.2965324253865E+01
 0.2908892218176E+01
 0.2847998940026E+01
 0.2783273600655E+01
 0.2715402010426E+01
 0.2645255453621E+01
 0.2573554232299E+01
 0.2500543652327E+01
 0.2426051003317E+01
 0.2349624646658E+01
 0.2270674890088E+01
 0.2188603870943E+01
 0.2102918452034E+01
 0.2013333878850E+01
 0.1919881380895E+01
 0.1822995498075E+01
 0.1723659873518E+01
 0.1623751406827E+01
 0.1526540323645E+01
 0.1437363988836E+01
 0.1364622501607E+01
 0.1321158339653E+01
 0.1325692230325E+01
 0.1402972577906E+01
 0.1580656534912E+01
 0.1882220771695E+01
 0.2317155118351E+01
 0.2870959880231E+01
 0.3500203236651E+01
 0.2783304158993E+01
 0.2897781578907E+01
 0.3013297867609E+01
 0.3114138211161E+01
 0.3190043492201E+01
 0.3237730585291E+01
 0.3259114359947E+01
 0.3258596498551E+01
 0.3241001135664E+01
 0.3210510334919E+01
 0.3170330344604E+01
 0.3122735186712E+01
 0.3069255351076E+01
 0.3010901233298E+01
 0.2948373579153E+01
 0.2882233561082E+01
 0.2813138846516E+01
 0.2741973935518E+01
 0.2669479292115E+01
 0.2595890253757E+01
 0.2520985309084E+01
 0.2444232682957E+01
 0.2364943929754E+01
 0.2282412859152E+01
 0.2196029097606E+01
 0.2105374054643E+01
 0.2010315555566E+01
 0.1911077009398E+01
 0.1808366923083E+01
 0.1703721389572E+01
 0.1600012880314E+01
 0.1502141184774E+01
 0.1418078495572E+01
 0.1360415149481E+01
 0.1348284512506E+01
 0.1408497240062E+01
 0.1573346733140E+01
 0.1872964970863E+01
 0.2322821575953E+01
 0.2910417736121E+01
 0.3588083804888E+01
 0.2889630569714E+01
 0.3014358160542E+01
 0.3138938968312E+01
 0.3245207317596E+01
 0.3322261458946E+01
 0.3367726412466E+01
 0.3384980495053E+01
 0.3379685714123E+01
 0.3357463826515E+01
 0.3322884965037E+01
 0.3279277034510E+01
 0.3228890538186E+01
 0.3173163533635E+01
 0.3112989582014E+01
 0.3048958300890E+01
 0.2981549129852E+01
 0.2911387087887E+01
 0.2839373558860E+01
 0.2766276232913E+01
 0.2692325676255E+01
 0.2617253386343E+01
 0.2540448340962E+01
 0.2461126686689E+01
 0.2378481309705E+01
 0.2291795212082E+01
 0.2200527014992E+01
 0.2104388614655E+01
 0.2003391263174E+01
 0.1897953428948E+01
 0.1789236593985E+01
 0.1679657523124E+01
 0.1573588112147E+01
 0.1478431525704E+01
 0.1406292197956E+01
 0.1376341596822E+01
 0.1417052921368E+01
 0.1565493941423E+01
 0.1859735037385E+01
 0.2323355379974E+01
 0.2947556630558E+01
 0.3678934229705E+01
 0.2999022165086E+01
 0.3135233989082E+01
 0.3269600742953E+01
 0.3381073475763E+01
 0.3458301059227E+01
 0.3500306580876E+01
 0.3512323845828E+01
 0.3501441135973E+01
 0.3474080914582E+01
 0.3435138767818E+01
 0.3387995489407E+01
 0.3334823982375E+01
 0.3276931143100E+01
 0.3215065132079E+01
 0.3149682546928E+01
 0.3081166606909E+01
 0.3010105136044E+01
 0.2937421163147E+01
 0.2863917996406E+01
 0.2789827119236E+01
 0.2714834663387E+01
 0.2638251537167E+01
 0.2559203507576E+01
 0.2476793156820E+01
 0.2390211902865E+01
 0.2298811937682E+01
 0.2202162637978E+01
 0.2100068323978E+01
 0.1992648650929E+01
 0.1880662006191E+01
 0.1766014949222E+01
 0.1652461445574E+01
 0.1546690377732E+01
 0.1460072910574E+01
 0.1411387951719E+01
 0.1430189041379E+01
 0.1558168750515E+01
 0.1842658074421E+01
 0.2318103057964E+01
 0.2981628674392E+01
 0.3773368030539E+01
 0.3111965838300E+01
 0.3261109434045E+01
 0.3405996544607E+01
 0.3522203633385E+01
 0.3598287059147E+01
 0.3635330076346E+01
 0.3640870862062E+01
 0.3623560264445E+01
 0.3590574458748E+01
 0.3547035965264E+01
 0.3496292275295E+01
 0.3440379154327E+01
 0.3380433592254E+01
 0.3317030903066E+01
 0.3250472867883E+01
 0.3181031130181E+01
 0.3109251439213E+01
 0.3036084213548E+01
 0.2962377998200E+01
 0.2888371026472E+01
 0.2813705111716E+01
 0.2737614507813E+01
 0.2659141687220E+01
 0.2577313331559E+01
 0.2491249297918E+01
 0.2400217576991E+01
 0.2303665101557E+01
 0.2201201843430E+01
 0.2092647705875E+01
 0.1978337372961E+01
 0.1859619666707E+01
 0.1739545042289E+01
 0.1623943035059E+01
 0.1523196225702E+01
 0.1455216587376E+01
 0.1449868600945E+01
 0.1552916225372E+01
 0.1822134467877E+01
 0.2306277881337E+01
 0.3011764789566E+01
 0.3872099329248E+01
 0.3229068827772E+01
 0.3392851111300E+01
 0.3548964397607E+01
 0.3669076061425E+01
 0.3742261500572E+01
 0.3772543505438E+01
 0.3770252802509E+01
 0.3745676594622E+01
 0.3706628739271E+01
 0.3658319710784E+01
 0.3603961830419E+01
 0.3545391694774E+01
 0.3483540216018E+01
 0.3418785354501E+01
 0.3351253137907E+01
 0.3281087203659E+01
 0.3208785499413E+01
 0.3135332276531E+01
 0.3061631897790E+01
 0.2987934775669E+01
 0.2913838373685E+01
 0.2838501994203E+01
 0.2760894546070E+01
 0.2679985707050E+01
 0.2594849310941E+01
 0.2504697663606E+01
 0.2408882575307E+01
 0.2306840621070E+01
 0.2198100579729E+01
 0.2082563532402E+01
 0.1960984269638E+01
 0.1835634329364E+01
 0.1711345698588E+01
 0.1597257245115E+01
 0.1509911740615E+01
 0.1478543100647E+01
 0.1551916868688E+01
 0.1798993057287E+01
 0.2287041433981E+01
 0.3036878927981E+01
 0.3975984146388E+01
 0.3351101248269E+01
 0.3531543863213E+01
 0.3699485891562E+01
 0.3822151312568E+01
 0.3890136997548E+01
 0.3911547071939E+01
 0.3899991393315E+01
 0.3867358031017E+01
 0.3821893718052E+01
 0.3768716382422E+01
 0.3710789932911E+01
 0.3649691380230E+01
 0.3586115113847E+01
 0.3520222411486E+01
 0.3451944461937E+01
 0.3381279072820E+01
 0.3308668992090E+01
 0.3235138882578E+01
 0.3161659935776E+01
 0.3088498931978E+01
 0.3015207273589E+01
 0.2940871569145E+01
 0.2864400471253E+01
 0.2784730939475E+01
 0.2700922297617E+01
 0.2612166162345E+01
 0.2517754125304E+01
 0.2416979511361E+01
 0.2309099827897E+01
 0.2193586365233E+01
 0.2070579739440E+01
 0.1941514563520E+01
 0.1810103575740E+01
 0.1683999196797E+01
 0.1577865088510E+01
 0.1519226743439E+01
 0.1558183500512E+01
 0.1774753536240E+01
 0.2259599955731E+01
 0.3055562472141E+01
 0.4086069419384E+01
 0.3479058205344E+01
 0.3678561982445E+01
 0.3858701409534E+01
 0.3981820561145E+01
 0.4041631570944E+01
 0.4051755565999E+01
 0.4029487456217E+01
 0.3988109504387E+01
 0.3935991449093E+01
 0.3877941599003E+01
 0.3816558101971E+01
 0.3753104630409E+01
 0.3688017903383E+01
 0.3621231066260E+01
 0.3552464583629E+01
 0.3481550815693E+01
 0.3408866993556E+01
 0.3335483904125E+01
 0.3262450035503E+01
 0.3190050227675E+01
 0.3117785769575E+01
 0.3044674067222E+01
 0.2969581853288E+01
 0.2891444171595E+01
 0.2809343638646E+01
 0.2722492491970E+01
 0.2630164570266E+01
 0.2531549835670E+01
 0.2425667083740E+01
 0.2311578378511E+01
 0.2188811520147E+01
 0.2057932046298E+01
 0.1921440944247E+01
 0.1785292045107E+01
 0.1661780163272E+01
 0.1575562641464E+01
 0.1575794602320E+01
 0.1752018924543E+01
 0.2223384538835E+01
 0.3065955117041E+01
 0.4203655744343E+01
 0.3614252871474E+01
 0.3835667419927E+01
 0.4027913273882E+01
 0.4148317503758E+01
 0.4196180401477E+01
 0.4192357415755E+01
 0.4158016141382E+01
 0.4107381429267E+01
 0.4048525838620E+01
 0.3985708006725E+01
 0.3921048932719E+01
 0.3855457381666E+01
 0.3789104302840E+01
 0.3721694349559E+01
 0.3652726519283E+01
 0.3581845948380E+01
 0.3509349306108E+01
 0.3436356642201E+01
 0.3364001955403E+01
 0.3292585480591E+01
 0.3221551393126E+01
 0.3149854036127E+01
 0.3076343806859E+01
 0.2999992544897E+01
 0.2919950294095E+01
 0.2835496846703E+01
 0.2745937795585E+01
 0.2650409522286E+01
 0.2547738570759E+01
 0.2436618042034E+01
 0.2315991312268E+01
 0.2185557677305E+01
 0.2046558139502E+01
 0.1903091718590E+01
 0.1764655624045E+01
 0.1651872411023E+01
 0.1610147420897E+01
 0.1735045466941E+01
 0.2178408006085E+01
 0.3065590633713E+01
 0.4330384324316E+01
 0.3758460028904E+01
 0.4005145444657E+01
 0.4208559181903E+01
 0.4321572578862E+01
 0.4352821474919E+01
 0.4332278690072E+01
 0.4284733751353E+01
 0.4224585418496E+01
 0.4159095843230E+01
 0.4091734751047E+01
 0.4024052323394E+01
 0.3956578331435E+01
 0.3889226480582E+01
 0.3821487418413E+01
 0.3752636020809E+01
 0.3682106230763E+01
 0.3610091861323E+01
 0.3537759921763E+01
 0.3466332914066E+01
 0.3396116726478E+01
 0.3326488192331E+01
 0.3256350055786E+01
 0.3184572505353E+01
 0.3110212440292E+01
 0.3032537384754E+01
 0.2950945804190E+01
 0.2864830395036E+01
 0.2773333271022E+01
 0.2675149891086E+01
 0.2568667110846E+01
 0.2452304764300E+01
 0.2324942715119E+01
 0.2186573807705E+01
 0.2039373237417E+01
 0.1889732771708E+01
 0.1753173060968E+01
 0.1668202711442E+01
 0.1730533989896E+01
 0.2125962965136E+01
 0.3051237271857E+01
 0.4468361785472E+01
 0.3914144740552E+01
 0.4189990718282E+01
 0.4402119754876E+01
 0.4500978144613E+01
 0.4510057952874E+01
 0.4470165064563E+01
 0.4408701919053E+01
 0.4339117820373E+01
 0.4267311788060E+01
 0.4195758413349E+01
 0.4125372504709E+01
 0.4056302600939E+01
 0.3988233175596E+01
 0.3920474466661E+01
 0.3852087286936E+01
 0.3782269168198E+01
 0.3711078165530E+01
 0.3639715674688E+01
 0.3569485319138E+01
 0.3500677911546E+01
 0.3432590126154E+01
 0.3364094667152E+01
 0.3294132885340E+01
 0.3221906335700E+01
 0.3146854869341E+01
 0.3068548463622E+01
 0.2986525996252E+01
 0.2900003122564E+01
 0.2807620434719E+01
 0.2707546267692E+01
 0.2597775490178E+01
 0.2476467248172E+01
 0.2342452089249E+01
 0.2196032195178E+01
 0.2040386829100E+01
 0.1885129415175E+01
 0.1758681244131E+01
 0.1748648574271E+01
 0.2069955477334E+01
 0.3018815965306E+01
 0.4620349786126E+01
 0.4084840329356E+01
 0.4394155977323E+01
 0.4609886495518E+01
 0.4685022047665E+01
 0.4665715327865E+01
 0.4604403027488E+01
 0.4528933646997E+01
 0.4450390068123E+01
 0.4372814161750E+01
 0.4297545048457E+01
 0.4224835714079E+01
 0.4154475942563E+01
 0.4085969735233E+01
 0.4018504156415E+01
 0.3950956061398E+01
 0.3882263374706E+01
 0.3812300722359E+01
 0.3742272800247E+01
 0.3673537556194E+01
 0.3606333554511E+01
 0.3539864717163E+01
 0.3473013504930E+01
 0.3404865394366E+01
 0.3334839131177E+01
 0.3262604397970E+01
 0.3187953436427E+01
 0.3110630742547E+01
 0.3029999907281E+01
 0.2944737809606E+01
 0.2852909488161E+01
 0.2752226067917E+01
 0.2640282581456E+01
 0.2514916263358E+01
 0.2374752880754E+01
 0.2219939819895E+01
 0.2053881571801E+01
 0.1892149961387E+01
 0.1804179683975E+01
 0.2019370261027E+01
 0.2963654906903E+01
 0.4790081649959E+01
 0.4275800346313E+01
 0.4622860988168E+01
 0.4832440094383E+01
 0.4870743350796E+01
 0.4816845294363E+01
 0.4733208772523E+01
 0.4644460064159E+01
 0.4557863169069E+01
 0.4475294208994E+01
 0.4396902727377E+01
 0.4322298278146E+01
 0.4250959731478E+01
 0.4182278488752E+01
 0.4115403356807E+01
 0.4049088825272E+01
 0.3982000366664E+01
 0.3913762316861E+01
 0.3845518654237E+01
 0.3778619300663E+01
 0.3713189795410E+01
 0.3648336504724E+01
 0.3583023037253E+01
 0.3516581380084E+01
 0.3448733745036E+01
 0.3379436420540E+01
 0.3308747120466E+01
 0.3236670574526E+01
 0.3162796152873E+01
 0.3085942710907E+01
 0.3004217558104E+01
 0.2915236818750E+01
 0.2816249440948E+01
 0.2704352477286E+01
 0.2576847694302E+01
 0.2431382695170E+01
 0.2265652533143E+01
 0.2080858384900E+01
 0.1917652656397E+01
 0.1992569107315E+01
 0.2881814049014E+01
 0.4982873557346E+01
 0.4495181100473E+01
 0.4882895742619E+01
 0.5068533870610E+01
 0.5052999427807E+01
 0.4959793680580E+01
 0.4854807111071E+01
 0.4754405264241E+01
 0.4661084078975E+01
 0.4574515587063E+01
 0.4493693608999E+01
 0.4417654826109E+01
 0.4345637064020E+01
 0.4277000359870E+01
 0.4210969312956E+01
 0.4146286130315E+01
 0.4081360230819E+01
 0.4015476961942E+01
 0.3949596577182E+01
 0.3884933598897E+01
 0.3821408080199E+01
 0.3758049365553E+01
 0.3694026103892E+01
 0.3629056686673E+01
 0.3563265716395E+01
 0.3496947582571E+01
 0.3430453844168E+01
 0.3364091231272E+01
 0.3297751140749E+01
 0.3230514571766E+01
 0.3160711180008E+01
 0.3086103179437E+01
 0.3003874344301E+01
 0.2910709488103E+01
 0.2803079102096E+01
 0.2677021334400E+01
 0.2526038863869E+01
 0.2337979426172E+01
 0.2116078989281E+01
 0.2023993412427E+01
 0.2774491718529E+01
 0.5207029348334E+01
 0.4756321934056E+01
 0.5182614874372E+01
 0.5312771118574E+01
 0.5223710536517E+01
 0.5090646035834E+01
 0.4967672379472E+01
 0.4858047394726E+01
 0.4759726531485E+01
 0.4670334588063E+01
 0.4587844594158E+01
 0.4510846276876E+01
 0.4438420186920E+01
 0.4369979418579E+01
 0.4304961309128E+01
 0.4242277151170E+01
 0.4180166370689E+01
 0.4117470182995E+01
 0.4054733975239E+01
 0.3992789122714E+01
 0.3931221096508E+01
 0.3869065984139E+01
 0.3805904289502E+01
 0.3742023098521E+01
 0.3678056438358E+01
 0.3614678271828E+01
 0.3552538701104E+01
 0.3492262386759E+01
 0.3434108903172E+01
 0.3377558033310E+01
 0.3321384123408E+01
 0.3263792587149E+01
 0.3202245806327E+01
 0.3133403454861E+01
 0.3053480141434E+01
 0.2958093784226E+01
 0.2838996226929E+01
 0.2675592812533E+01
 0.2432639904645E+01
 0.2172750403500E+01
 0.2660895593323E+01
 0.5477711782016E+01
 0.5082498656275E+01
 0.5530437134697E+01
 0.5550944251225E+01
 0.5371869903602E+01
 0.5206279332205E+01
 0.5070669434138E+01
 0.4954874943342E+01
 0.4853638286704E+01
 0.4762713036848E+01
 0.4679357287045E+01
 0.4601866512219E+01
 0.4529259160181E+01
 0.4461073040834E+01
 0.4397095326132E+01
 0.4336681297659E+01
 0.4278139765114E+01
 0.4219778195041E+01
 0.4161289901501E+01
 0.4102647473992E+01
 0.4042948828312E+01
 0.3981461652088E+01
 0.3918506222233E+01
 0.3855157541077E+01
 0.3792664478007E+01
 0.3732109685120E+01
 0.3674414256657E+01
 0.3620488349739E+01
 0.3570999935925E+01
 0.3525989549709E+01
 0.3484956723973E+01
 0.3446902971036E+01
 0.3409969123840E+01
 0.3371237708508E+01
 0.3327204099741E+01
 0.3274396881834E+01
 0.3205804565124E+01
 0.3100788104767E+01
 0.2902541543921E+01
 0.2531171516066E+01
 0.2612774317241E+01
 0.5829177839523E+01
 0.5517926963666E+01
 0.5927088983244E+01
 0.5751685549460E+01
 0.5486881854834E+01
 0.5305569595480E+01
 0.5162868899701E+01
 0.5044751196789E+01
 0.4942850560949E+01
 0.4851731769654E+01
 0.4768315070339E+01
 0.4690767131967E+01
 0.4618150391867E+01
 0.4550170648920E+01
 0.4487051187861E+01
 0.4428952079194E+01
 0.4374812046866E+01
 0.4322445757173E+01
 0.4269841130676E+01
 0.4215191169108E+01
 0.4157008477586E+01
 0.4095308626047E+01
 0.4031631265070E+01
 0.3968069529370E+01
 0.3906574345774E+01
 0.3848658414282E+01
 0.3795452833800E+01
 0.3748030126470E+01
 0.3707446860539E+01
 0.3674521692295E+01
 0.3649850408277E+01
 0.3633625735955E+01
 0.3625101270845E+01
 0.3622320978203E+01
 0.3622499026304E+01
 0.3623887461793E+01
 0.3624426943982E+01
 0.3611007149441E+01
 0.3547653855249E+01
 0.3230089169366E+01
 0.2833090812987E+01
 0.6361447403127E+01
 0.6157322380931E+01
 0.6330068869512E+01
 0.5859450090062E+01
 0.5570192091076E+01
 0.5387320435290E+01
 0.5244030971133E+01
 0.5127971927598E+01
 0.5027565511861E+01
 0.4937609690365E+01
 0.4854881900991E+01
 0.4777662382527E+01
 0.4705141281809E+01
 0.4637220024633E+01
 0.4574515287970E+01
 0.4518303772739E+01
 0.4469347138863E+01
 0.4425525160076E+01
 0.4381350526878E+01
 0.4331412113394E+01
 0.4273904431426E+01
 0.4210648197224E+01
 0.4145008267463E+01
 0.4080288403664E+01
 0.4019182895090E+01
 0.3963662736032E+01
 0.3915006529897E+01
 0.3874150044265E+01
 0.3842371747612E+01
 0.3821637958746E+01
 0.3814168162942E+01
 0.3821713268952E+01
 0.3845097403901E+01
 0.3883945228417E+01
 0.3936818656887E+01
 0.4002771100470E+01
 0.4087902700822E+01
 0.4195172144254E+01
 0.4341645451759E+01
 0.4413260143106E+01
 0.3775359676098E+01
 0.7445805764242E+01
 0.7244617543975E+01
 0.6472700746334E+01
 0.5866112244496E+01
 0.5630187992545E+01
 0.5448857148269E+01
 0.5315802526323E+01
 0.5204866618761E+01
 0.5108285817249E+01
 0.5020668057702E+01
 0.4939310856303E+01
 0.4862728479727E+01
 0.4790334454586E+01
 0.4722238355532E+01
 0.4659304651069E+01
 0.4603664878145E+01
 0.4560126012831E+01
 0.4529096850631E+01
 0.4497529343213E+01
 0.4452677644731E+01
 0.4394184914964E+01
 0.4327448732850E+01
 0.4258269775517E+01
 0.4191251510196E+01
 0.4129789773475E+01
 0.4076344203830E+01
 0.4032434156736E+01
 0.3998212391393E+01
 0.3974588408566E+01
 0.3965544656417E+01
 0.3975691623279E+01
 0.4008466776556E+01
 0.4066723172359E+01
 0.4152566983270E+01
 0.4266470058022E+01
 0.4407752369780E+01
 0.4580364236113E+01
 0.4836625092995E+01
 0.5210287544662E+01
 0.6001195999602E+01
 0.6318403118009E+01
 0.1090207487954E+02
 0.1320447629078E+00
 0.2466998236297E+00
 0.3451534415570E+00
 0.4307471632773E+00
 0.5070865927218E+00
 0.5770479055651E+00
 0.6427971140219E+00
 0.7058281425814E+00
 0.7670019399535E+00
 0.8266089686033E+00
 0.8844668029350E+00
 0.9400255676027E+00
 0.9925782451243E+00
 0.1041394526980E+01
 0.1085522368311E+01
 0.1123514080450E+01
 0.1153323971876E+01
 0.1172459850022E+01
 0.1178287860628E+01
 0.1169672463646E+01
 0.1360020784899E+00
 0.2523845463288E+00
 0.3527564957276E+00
 0.4402245752018E+00
 0.5181492787715E+00
 0.5893083119373E+00
 0.6558045957033E+00
 0.7190950472328E+00
 0.7800322734023E+00
 0.8389331635376E+00
 0.8956637191094E+00
 0.9497372202941E+00
 0.1000539028213E+01
 0.1047336013480E+01
 0.1089116802222E+01
 0.1124401651601E+01
 0.1151169609404E+01
 0.1167091562198E+01
 0.1170167983230E+01
 0.1158776697589E+01
 0.1395493454431E+00
 0.2574433768086E+00
 0.3594771955914E+00
 0.4485816203363E+00
 0.5279289021396E+00
 0.6001658319134E+00
 0.6673205516417E+00
 0.7308074076201E+00
 0.7914675612563E+00
 0.8496338281817E+00
 0.9052109198510E+00
 0.9577794059757E+00
 0.1006765624991E+01
 0.1051432446083E+01
 0.1090736246006E+01
 0.1123188838875E+01
 0.1146848383514E+01
 0.1159639540606E+01
 0.1159810834990E+01
 0.1145995926499E+01
 0.1427852038334E+00
 0.2618592571582E+00
 0.3653219316564E+00
 0.4558528336054E+00
 0.5364568456614E+00
 0.6096510896848E+00
 0.6773765619496E+00
 0.7409979874239E+00
 0.8013381002764E+00
 0.8587382333806E+00
 0.9131363917320E+00
 0.9641623888607E+00
 0.1011268955766E+01
 0.1053713310549E+01
 0.1090438104693E+01
 0.1119977797676E+01
 0.1140508946944E+01
 0.1150150805335E+01
 0.1147348674643E+01
 0.1131252420397E+01
 0.1457398233774E+00
 0.2656766261660E+00
 0.3703123924747E+00
 0.4620684933071E+00
 0.5437690442152E+00
 0.6178001735724E+00
 0.6860092771871E+00
 0.7497032920207E+00
 0.8096792966429E+00
 0.8662805518187E+00
 0.9194694841114E+00
 0.9689122857854E+00
 0.1014079648733E+01
 0.1054226704591E+01
 0.1088298947040E+01
 0.1114878584596E+01
 0.1132263719025E+01
 0.1138747545788E+01
 0.1133018571585E+01
 0.1114644798258E+01
 0.1484333027559E+00
 0.2689285159179E+00
 0.3744832875208E+00
 0.4672631129974E+00
 0.5499040711277E+00
 0.6246538314569E+00
 0.6932600463957E+00
 0.7569646859935E+00
 0.8165320282586E+00
 0.8723002028876E+00
 0.9242478776606E+00
 0.9720678193579E+00
 0.1015244645292E+01
 0.1053036903942E+01
 0.1084407360658E+01
 0.1107999577410E+01
 0.1122234274023E+01
 0.1125584048579E+01
 0.1116973440125E+01
 0.1096275186374E+01
 0.1508804224802E+00
 0.2716442413031E+00
 0.3778703690584E+00
 0.4714759959062E+00
 0.5549041439230E+00
 0.6302568077223E+00
 0.6991748798708E+00
 0.7628285882660E+00
 0.8219426021193E+00
 0.8768431666016E+00
 0.9275180341152E+00
 0.9736794153734E+00
 0.1014824277707E+01
 0.1050220600958E+01
 0.1078859171410E+01
 0.1099453619837E+01
 0.1110551104458E+01
 0.1110801761264E+01
 0.1099342354710E+01
 0.1076257134993E+01
 0.1530935449665E+00
 0.2738503920078E+00
 0.3805097631536E+00
 0.4747490682689E+00
 0.5588151834140E+00
 0.6346578571278E+00
 0.7038043361637E+00
 0.7673465018893E+00
 0.8259630828986E+00
 0.8799623266963E+00
 0.9293350891505E+00
 0.9738078795176E+00
 0.1012889812722E+01
 0.1045863722518E+01
 0.1071756485730E+01
 0.1089358322883E+01
 0.1097343973871E+01
 0.1094532884894E+01
 0.1080245273770E+01
 0.1054709391526E+01
 0.1550838165683E+00
 0.2755721621949E+00
 0.3824377541161E+00
 0.4771262731794E+00
 0.5616863246981E+00
 0.6379096765828E+00
 0.7072034673598E+00
 0.7705750280479E+00
 0.8286513748579E+00
 0.8817174277666E+00
 0.9297622696565E+00
 0.9725230010722E+00
 0.1009521300862E+01
 0.1040059435279E+01
 0.1063206530210E+01
 0.1077833460781E+01
 0.1082740422208E+01
 0.1076903986125E+01
 0.1059800700857E+01
 0.1031756154884E+01
 0.1568618504156E+00
 0.2768341493623E+00
 0.3836910162392E+00
 0.4786533074433E+00
 0.5635696281124E+00
 0.6400687167340E+00
 0.7094317238168E+00
 0.7725757812319E+00
 0.8300710887376E+00
 0.8821747201048E+00
 0.9288700783407E+00
 0.9699021583421E+00
 0.1004805836702E+01
 0.1032906536950E+01
 0.1053320053960E+01
 0.1064999613235E+01
 0.1066866028416E+01
 0.1058039169728E+01
 0.1038128566539E+01
 0.1007527728002E+01
 0.1584381149301E+00
 0.2776609020997E+00
 0.3843068739488E+00
 0.4793775762386E+00
 0.5645198955448E+00
 0.6411950047340E+00
 0.7105527959977E+00
 0.7734152060798E+00
 0.8302912447398E+00
 0.8814064204579E+00
 0.9267353774073E+00
 0.9660290241259E+00
 0.9988360799734E+00
 0.1024507990561E+01
 0.1042210053347E+01
 0.1050977516335E+01
 0.1049845192224E+01
 0.1038062151781E+01
 0.1015351281194E+01
 0.9821554667944E+00
 0.1598231758112E+00
 0.2780772898149E+00
 0.3843235393649E+00
 0.4793482232718E+00
 0.5645945600707E+00
 0.6413519717312E+00
 0.7106344049233E+00
 0.7731642964854E+00
 0.8293858503013E+00
 0.8794900599209E+00
 0.9234404454296E+00
 0.9609923729206E+00
 0.9917089490561E+00
 0.1014969684357E+01
 0.1029990836173E+01
 0.1035887804128E+01
 0.1031801800559E+01
 0.1017097508828E+01
 0.9915940222399E+00
 0.9557704297553E+00
 0.1610278463193E+00
 0.2781087539956E+00
 0.3837803036008E+00
 0.4786161845058E+00
 0.5638536108101E+00
 0.6406062854844E+00
 0.7097480552979E+00
 0.7718982455694E+00
 0.8274333975859E+00
 0.8765077772057E+00
 0.9190720472137E+00
 0.9548849799816E+00
 0.9835244687206E+00
 0.1004399395915E+01
 0.1016777318808E+01
 0.1019850844252E+01
 0.1012859607102E+01
 0.9952711191283E+00
 0.9669855472692E+00
 0.9285077802786E+00
 0.1620632827617E+00
 0.2777814779854E+00
 0.3827176822610E+00
 0.4772342380271E+00
 0.5623595281814E+00
 0.6390276781714E+00
 0.7079687575251E+00
 0.7696960448248E+00
 0.8245163105544E+00
 0.8725455901080E+00
 0.9137205358559E+00
 0.9478026140775E+00
 0.9743847637607E+00
 0.9929059336113E+00
 0.1002684470103E+01
 0.1002986570541E+01
 0.9931423350258E+00
 0.9727103230467E+00
 0.9416585940179E+00
 0.9005087762001E+00
 0.1629410455191E+00
 0.2771225004136E+00
 0.3811775223591E+00
 0.4752570418890E+00
 0.5601772195451E+00
 0.6366887688494E+00
 0.7053747301428E+00
 0.7666400545092E+00
 0.8207203695805E+00
 0.8676926707826E+00
 0.9074790009549E+00
 0.9398431217664E+00
 0.9643931780286E+00
 0.9805984062503E+00
 0.9878268268661E+00
 0.9854142518346E+00
 0.9727735859432E+00
 0.9495438166892E+00
 0.9157495224806E+00
 0.8719207185118E+00
 0.1636731381591E+00
 0.2761597901598E+00
 0.3792030794625E+00
 0.4727411588742E+00
 0.5573739515841E+00
 0.6336648815094E+00
 0.7020470914122E+00
 0.7628155606623E+00
 0.8161341314023E+00
 0.8620406386739E+00
 0.9004424664372E+00
 0.9311055920459E+00
 0.9536534895168E+00
 0.9675855727541E+00
 0.9723180264681E+00
 0.9672521795997E+00
 0.9518765698795E+00
 0.9259012268340E+00
 0.8893975608064E+00
 0.8428963716745E+00
 0.1642720310690E+00
 0.2749222949786E+00
 0.3768390729190E+00
 0.4697450703560E+00
 0.5540192794677E+00
 0.6300338612667E+00
 0.6980695475219E+00
 0.7583103304989E+00
 0.8108483572847E+00
 0.8556828805699E+00
 0.8927071395733E+00
 0.9216895920727E+00
 0.9422692007381E+00
 0.9539752445094E+00
 0.9562703388920E+00
 0.9486172825370E+00
 0.9305736787507E+00
 0.9019124649082E+00
 0.8627438758576E+00
 0.8135930507590E+00
 0.1647506768819E+00
 0.2734399742870E+00
 0.3741317286265E+00
 0.4663291853920E+00
 0.5501849772197E+00
 0.6258758941291E+00
 0.6935280855448E+00
 0.7532141765893E+00
 0.8049554597575E+00
 0.8487139046866E+00
 0.8843697112688E+00
 0.9116944654091E+00
 0.9303428884363E+00
 0.9398737236461E+00
 0.9397941919859E+00
 0.9296246793156E+00
 0.9089859463511E+00
 0.8777069535667E+00
 0.8359305124007E+00
 0.7841715328076E+00
 0.1651225213427E+00
 0.2717438241558E+00
 0.3711288175466E+00
 0.4625558515704E+00
 0.5459449744226E+00
 0.6212733355508E+00
 0.6885106773950E+00
 0.7476185366843E+00
 0.7985489735242E+00
 0.8412287303915E+00
 0.8755267026496E+00
 0.9012186802078E+00
 0.9179755943525E+00
 0.9253852588787E+00
 0.9229976792543E+00
 0.9103871746428E+00
 0.8872324228879E+00
 0.8534127621410E+00
 0.8090992365543E+00
 0.7547948102447E+00
 0.1654015131211E+00
 0.2698659018143E+00
 0.3678796983249E+00
 0.4584893749904E+00
 0.5413753053300E+00
 0.6163105532336E+00
 0.6831070002959E+00
 0.7416160745753E+00
 0.7917230546552E+00
 0.8333223146366E+00
 0.8662738544583E+00
 0.8903592192657E+00
 0.9052662467350E+00
 0.9106115112456E+00
 0.9059860517099E+00
 0.8910147182960E+00
 0.8654294978130E+00
 0.8291556839142E+00
 0.7823903267263E+00
 0.7256266909784E+00
 0.1656021156199E+00
 0.2678393563699E+00
 0.3644353723526E+00
 0.4541960571621E+00
 0.5365540767759E+00
 0.6110737894021E+00
 0.6774081782991E+00
 0.7353003058583E+00
 0.7845720105797E+00
 0.8250890151212E+00
 0.8567055558357E+00
 0.8792110052526E+00
 0.8923111045817E+00
 0.8956510242304E+00
 0.8888611961253E+00
 0.8716138407313E+00
 0.8436902050949E+00
 0.8050582697691E+00
 0.7559412642994E+00
 0.6968299632417E+00
 0.1657393236808E+00
 0.2656984723778E+00
 0.3608485597905E+00
 0.4497442568745E+00
 0.5315614612583E+00
 0.6056510472366E+00
 0.6715065483098E+00
 0.7287652511317E+00
 0.7771898622836E+00
 0.8166220898538E+00
 0.8469143098378E+00
 0.8678663562651E+00
 0.8792032188825E+00
 0.8805986944902E+00
 0.8717211013891E+00
 0.8522870755912E+00
 0.8221235256202E+00
 0.7812388700074E+00
 0.7298850592942E+00
 0.6685622741313E+00
 0.1658286880375E+00
 0.2634787331084E+00
 0.3571738054551E+00
 0.4452044853096E+00
 0.5264797213697E+00
 0.6001320054109E+00
 0.6654954529526E+00
 0.7221051180034E+00
 0.7696699394335E+00
 0.8080132330352E+00
 0.8369902344488E+00
 0.8564144691233E+00
 0.8660319074418E+00
 0.8655452405118E+00
 0.8546593136378E+00
 0.8331323749704E+00
 0.8008336936200E+00
 0.7578106576272E+00
 0.7043483540560E+00
 0.6409722826222E+00
 0.1658863506500E+00
 0.2612169110026E+00
 0.3534676242352E+00
 0.4406495430864E+00
 0.5213932715444E+00
 0.5946079638974E+00
 0.6594690615003E+00
 0.7154140122949E+00
 0.7621045088119E+00
 0.7993521479744E+00
 0.8270205998993E+00
 0.8449409306972E+00
 0.8528822424845E+00
 0.8505766675941E+00
 0.8377643793215E+00
 0.8142425193495E+00
 0.7799195124483E+00
 0.7348806315430E+00
 0.6794498217636E+00
 0.6141981595784E+00
 0.1659290945185E+00
 0.2589511938442E+00
 0.3497886967760E+00
 0.4361547083596E+00
 0.5163887826532E+00
 0.5891718230208E+00
 0.6535222185307E+00
 0.7087856773798E+00
 0.7545844356796E+00
 0.7907261581605E+00
 0.8170894048433E+00
 0.8335272600241E+00
 0.8398345521438E+00
 0.8357737273058E+00
 0.8211192718163E+00
 0.7957045190547E+00
 0.7594736880993E+00
 0.7125487342106E+00
 0.6552989528460E+00
 0.5883658801288E+00
 0.1659744121851E+00
 0.2567213567120E+00
 0.3461981276460E+00
 0.4317979856451E+00
 0.5115553343911E+00
 0.5839180962887E+00
 0.6477503181130E+00
 0.7023132588482E+00
 0.7471988766664E+00
 0.7822198580122E+00
 0.8072769961225E+00
 0.8222504873869E+00
 0.8269639399442E+00
 0.8212113702834E+00
 0.8048007948300E+00
 0.7775990003758E+00
 0.7395822036748E+00
 0.6909071561943E+00
 0.6319950381029E+00
 0.5635871053374E+00
 0.1660405982042E+00
 0.2545689920965E+00
 0.3427597803252E+00
 0.4276604258485E+00
 0.5069846197300E+00
 0.5789429558535E+00
 0.6422491992213E+00
 0.6960890896306E+00
 0.7400350013647E+00
 0.7739148049333E+00
 0.7976597393830E+00
 0.8111827812224E+00
 0.8143398311771E+00
 0.8069581935239E+00
 0.7888789547333E+00
 0.7599995674581E+00
 0.7203237406565E+00
 0.6700397992712E+00
 0.6096263331798E+00
 0.5399571660840E+00
 0.1661468723829E+00
 0.2525378137862E+00
 0.3395407061988E+00
 0.4238265289301E+00
 0.5027712047941E+00
 0.5743443074735E+00
 0.6371150557395E+00
 0.6902044883834E+00
 0.7331777378209E+00
 0.7658892537608E+00
 0.7883097505195E+00
 0.8003911404718E+00
 0.8020255632523E+00
 0.7930758883302E+00
 0.7734162943595E+00
 0.7429721259218E+00
 0.7017691220985E+00
 0.6500218767001E+00
 0.5882694745172E+00
 0.5175533324558E+00
 0.1663135432254E+00
 0.2506740547958E+00
 0.3366116882583E+00
 0.4203847409850E+00
 0.4990128451113E+00
 0.5702218880428E+00
 0.6324443501697E+00
 0.6847495591598E+00
 0.7267095313683E+00
 0.7582179286802E+00
 0.7792946945364E+00
 0.7899371721396E+00
 0.7900780426439E+00
 0.7796186945129E+00
 0.7584671680334E+00
 0.7265741329160E+00
 0.6839807329277E+00
 0.6309196072670E+00
 0.5679891996120E+00
 0.4964333431152E+00
 0.1665622231321E+00
 0.2490269859697E+00
 0.3340479246234E+00
 0.4174280580204E+00
 0.4958108568258E+00
 0.5666773758922E+00
 0.6283337183553E+00
 0.6798129794908E+00
 0.7207101048355E+00
 0.7509718256039E+00
 0.7706776599730E+00
 0.7798769867001E+00
 0.7785475172454E+00
 0.7666328923446E+00
 0.7440769404278E+00
 0.7108537344539E+00
 0.6670119028757E+00
 0.6127899747506E+00
 0.5488383049749E+00
 0.4766343003928E+00
 0.1669161142826E+00
 0.2476495925490E+00
 0.3319298842871E+00
 0.4150547493135E+00
 0.4932705377721E+00
 0.5638144998494E+00
 0.6248798500373E+00
 0.6754817627390E+00
 0.7152562049336E+00
 0.7442180294085E+00
 0.7625171064137E+00
 0.7702612452653E+00
 0.7674775383706E+00
 0.7541563993880E+00
 0.7302810920535E+00
 0.6958486890386E+00
 0.6509062482021E+00
 0.5956806241502E+00
 0.5308576182576E+00
 0.4581716571967E+00
 0.1674003910009E+00
 0.2465994592057E+00
 0.3303443728471E+00
 0.4133692079282E+00
 0.4915016224392E+00
 0.5617391225383E+00
 0.6221793228563E+00
 0.6718409764268E+00
 0.7104213141120E+00
 0.7380195150044E+00
 0.7548668536277E+00
 0.7611353693085E+00
 0.7569052040797E+00
 0.7422185959534E+00
 0.7171042390119E+00
 0.6815848694259E+00
 0.6356967679629E+00
 0.5796302785531E+00
 0.5140760308041E+00
 0.4410378863430E+00
 0.1680427184997E+00
 0.2459399366690E+00
 0.3293858540621E+00
 0.4124829283141E+00
 0.4906187417822E+00
 0.5605592641770E+00
 0.6203283642716E+00
 0.6689734009291E+00
 0.7062753142371E+00
 0.7324348995490E+00
 0.7477760511612E+00
 0.7525398763451E+00
 0.7468617864171E+00
 0.7308406239503E+00
 0.7045592005171E+00
 0.6680740862011E+00
 0.6214041195409E+00
 0.5646697834367E+00
 0.4985129939127E+00
 0.4252025280234E+00
 0.1688739718510E+00
 0.2457416971531E+00
 0.3291580799045E+00
 0.4125155920754E+00
 0.4907418384012E+00
 0.5603850222957E+00
 0.6194225151091E+00
 0.6669591183249E+00
 0.7028841047177E+00
 0.7275181411865E+00
 0.7412890552528E+00
 0.7445107215438E+00
 0.7373737883337E+00
 0.7200365900324E+00
 0.6926465895195E+00
 0.6553110214919E+00
 0.6080331738547E+00
 0.5508228253016E+00
 0.4841862997657E+00
 0.4106214463561E+00
 0.1699292691025E+00
 0.2460848465230E+00
 0.3297760748111E+00
 0.4135962022810E+00
 0.4919964491106E+00
 0.5613283312142E+00
 0.6195561612046E+00
 0.6658750123351E+00
 0.7003091700651E+00
 0.7233181957305E+00
 0.7354451732832E+00
 0.7370793473839E+00
 0.7284641696929E+00
 0.7098161093016E+00
 0.6813560530186E+00
 0.6432693646159E+00
 0.5955660280203E+00
 0.5381048898639E+00
 0.4711229742310E+00
 0.3972577488510E+00
 0.1712495268801E+00
 0.2470618317370E+00
 0.3313684901039E+00
 0.4158640846320E+00
 0.4945137289832E+00
 0.5635024944540E+00
 0.6208219095512E+00
 0.6657941509708E+00
 0.6986070930078E+00
 0.7198786744752E+00
 0.7302783726868E+00
 0.7302723291260E+00
 0.7201527405429E+00
 0.7001883020115E+00
 0.6706713932914E+00
 0.6318990923768E+00
 0.5839483865111E+00
 0.5265159517937E+00
 0.4593739147800E+00
 0.3850967448039E+00
 0.1728839496251E+00
 0.2487816778402E+00
 0.3340800468161E+00
 0.4194694825786E+00
 0.4984299915778E+00
 0.5670215341075E+00
 0.6233097842315E+00
 0.6667850073999E+00
 0.6978289849217E+00
 0.7172375344091E+00
 0.7258170752849E+00
 0.7241109205153E+00
 0.7124550479788E+00
 0.6911635307347E+00
 0.6605840112402E+00
 0.6211309890142E+00
 0.5730667755304E+00
 0.5160130819072E+00
 0.4490319823898E+00
 0.3741814198838E+00
 0.1748947989275E+00
 0.2513754350282E+00
 0.3380739166597E+00
 0.4245723420535E+00
 0.5038860997944E+00
 0.5719993674024E+00
 0.6271061592289E+00
 0.6689104728551E+00
 0.6980197552141E+00
 0.7154267855582E+00
 0.7220842196238E+00
 0.7186107896615E+00
 0.7053810933852E+00
 0.6827492238667E+00
 0.6511019001276E+00
 0.6109225907432E+00
 0.5627118766383E+00
 0.5064334774872E+00
 0.4402395694255E+00
 0.3647263487791E+00
 0.1773657841969E+00
 0.2550092575903E+00
 0.3435251133824E+00
 0.4313413856526E+00
 0.5110268099917E+00
 0.5785487080294E+00
 0.6322926108187E+00
 0.6722263180893E+00
 0.6992172930483E+00
 0.7144721283143E+00
 0.7190974779664E+00
 0.7137826978667E+00
 0.6989339521838E+00
 0.6749466042083E+00
 0.6422321956787E+00
 0.6013082405764E+00
 0.5527268610088E+00
 0.4971509149707E+00
 0.4331689292412E+00
 0.3574483458326E+00
 0.1804574744615E+00
 0.2598419790887E+00
 0.3506172581378E+00
 0.4399544545207E+00
 0.5199983027925E+00
 0.5867807774066E+00
 0.6389446712200E+00
 0.6767790489577E+00
 0.7014501296117E+00
 0.7143943063154E+00
 0.7168685329030E+00
 0.7096330875321E+00
 0.6931128186689E+00
 0.6677427095532E+00
 0.6339776847855E+00
 0.5923148489598E+00
 0.5432971473774E+00
 0.4874609912977E+00
 0.4259668457285E+00
 0.3555018558491E+00
 0.1271543349503E+00
 0.1848129266193E+00
 0.1367855133764E+00
 0.7691945395481E-01
 0.1706610934769E-01
 0.3801729445170E-01
 0.8611325436186E-01
 0.1258352526693E+00
 0.1560444189902E+00
 0.1756661287077E+00
 0.1829601612518E+00
 0.1748466560857E+00
 0.1570877409936E+00
 0.1395900273961E+00
 0.1346549834034E+00
 0.1783502154714E+00
 0.2185084419175E+00
 0.1900930941502E+00
 0.1472313783490E+00
 0.1249050262749E+00
 0.8460517047245E-01
 0.1314711824413E+00
 0.9518101619091E-01
 0.4191930012210E-01
 0.1363940260681E-01
 0.6680920388670E-01
 0.1151316397928E+00
 0.1570683462817E+00
 0.1914938634022E+00
 0.2173894649466E+00
 0.2334774160662E+00
 0.2388238983754E+00
 0.2400084286912E+00
 0.2479587173254E+00
 0.2792540617584E+00
 0.3574397459735E+00
 0.4210877357175E+00
 0.3945016616520E+00
 0.3218444075056E+00
 0.2620190160896E+00
 0.5108193564569E-01
 0.7866016238526E-01
 0.5076596273295E-01
 0.4400169360809E-02
 0.4724804776411E-01
 0.9855919577582E-01
 0.1470113104526E+00
 0.1910263810319E+00
 0.2295218292031E+00
 0.2616884375905E+00
 0.2869454618007E+00
 0.3055122927529E+00
 0.3239025569627E+00
 0.3536848682760E+00
 0.4089693264980E+00
 0.5021387335679E+00
 0.5755668307643E+00
 0.5585298725222E+00
 0.4820447709144E+00
 0.4030889921836E+00
 0.2403816325347E-01
 0.3223321341473E-01
 0.6230771068581E-02
 0.3506467391449E-01
 0.8304850465702E-01
 0.1326583465141E+00
 0.1811998638208E+00
 0.2271325579492E+00
 0.2694740142390E+00
 0.3076793843957E+00
 0.3416878530246E+00
 0.3723653492749E+00
 0.4056161756435E+00
 0.4519958473879E+00
 0.5223548579993E+00
 0.6214434364718E+00
 0.6985824632983E+00
 0.6914819558474E+00
 0.6196011390872E+00
 0.5322255938565E+00
 0.3441792478010E-02
 0.8442442927900E-02
 0.3629799527243E-01
 0.7502377455612E-01
 0.1202957931983E+00
 0.1684669788928E+00
 0.2171160363086E+00
 0.2648042492893E+00
 0.3106904601376E+00
 0.3544574616825E+00
 0.3963762393743E+00
 0.4375692145666E+00
 0.4828928735580E+00
 0.5413316730287E+00
 0.6207572414133E+00
 0.7210044070830E+00
 0.7986813699937E+00
 0.8001780156687E+00
 0.7361051531368E+00
 0.6468489201110E+00
 0.1775040930529E-01
 0.4328825408830E-01
 0.7570575107649E-01
 0.1142554068303E+00
 0.1581007780908E+00
 0.2053159578045E+00
 0.2541609543729E+00
 0.3034530780983E+00
 0.3525180295466E+00
 0.4012103555978E+00
 0.4499629097576E+00
 0.4998606351431E+00
 0.5545779868360E+00
 0.6214360853535E+00
 0.7058577132563E+00
 0.8046124830176E+00
 0.8810095660698E+00
 0.8894809971538E+00
 0.8341839914730E+00
 0.7470863202904E+00
 0.3365687631006E-01
 0.7367667974915E-01
 0.1118163853793E+00
 0.1519227811541E+00
 0.1956027962261E+00
 0.2425026692572E+00
 0.2917252782966E+00
 0.3424926971738E+00
 0.3943368132635E+00
 0.4472336575443E+00
 0.5016453696850E+00
 0.5584457073858E+00
 0.6201734205740E+00
 0.6926002700470E+00
 0.7792072531590E+00
 0.8749505142995E+00
 0.9490018256588E+00
 0.9629183507266E+00
 0.9163397721811E+00
 0.8338230176638E+00
 0.4741119646182E-01
 0.1001076991732E+00
 0.1446161405108E+00
 0.1875067028472E+00
 0.2321021346293E+00
 0.2793520830507E+00
 0.3292022699425E+00
 0.3813514642492E+00
 0.4355724987807E+00
 0.4919306000096E+00
 0.5508323374448E+00
 0.6128609698126E+00
 0.6795572508046E+00
 0.7553293482293E+00
 0.8421505518564E+00
 0.9340108096097E+00
 0.1005093563663E+01
 0.1023129032699E+01
 0.9847276369695E+00
 0.9081707110087E+00
 0.5936807065113E-01
 0.1231271777615E+00
 0.1742183233551E+00
 0.2207048270454E+00
 0.2670660091970E+00
 0.3152702668712E+00
 0.3660174792042E+00
 0.4194866234465E+00
 0.4757036582942E+00
 0.5348049981407E+00
 0.5970992337985E+00
 0.6628645157322E+00
 0.7328151332854E+00
 0.8101976386071E+00
 0.8958364573733E+00
 0.9833281827182E+00
 0.1051092956633E+01
 0.1072139708841E+01
 0.1041164382863E+01
 0.9712685132024E+00
 0.6983655049043E-01
 0.1431959006928E+00
 0.2007911829040E+00
 0.2513575371286E+00
 0.3001060332194E+00
 0.3497628299716E+00
 0.4016555456109E+00
 0.4564008421560E+00
 0.5142670413273E+00
 0.5754500864484E+00
 0.6401482088833E+00
 0.7083588095216E+00
 0.7801438997131E+00
 0.8577832248333E+00
 0.9412463115979E+00
 0.1024121389083E+01
 0.1088392696761E+01
 0.1111546719536E+01
 0.1087181549414E+01
 0.1024210089509E+01
 0.7906113318087E-01
 0.1606981002501E+00
 0.2245227353702E+00
 0.2793990112962E+00
 0.3309499717578E+00
 0.3824351363475E+00
 0.4356747001207E+00
 0.4916558186322E+00
 0.5508616330802E+00
 0.6135375620636E+00
 0.6797766031320E+00
 0.7493393896273E+00
 0.8217965080663E+00
 0.8986393402258E+00
 0.9792230241753E+00
 0.1057383229303E+01
 0.1118099695930E+01
 0.1142637516040E+01
 0.1124080946830E+01
 0.1068017590356E+01
 0.8723446329427E-01
 0.1759537718621E+00
 0.2456031371376E+00
 0.3048251758941E+00
 0.3594165889189E+00
 0.4129839412707E+00
 0.4677113528721E+00
 0.5248799701581E+00
 0.5851507890798E+00
 0.6488083830141E+00
 0.7158539930969E+00
 0.7858618867086E+00
 0.8580512407550E+00
 0.9332837356626E+00
 0.1010496794498E+01
 0.1083940542540E+01
 0.1141117750738E+01
 0.1166472957361E+01
 0.1152981275664E+01
 0.1103635455309E+01
 0.9450917729903E-01
 0.1892299532470E+00
 0.2642159904730E+00
 0.3276727364352E+00
 0.3853952846901E+00
 0.4411860900058E+00
 0.4974781921793E+00
 0.5557706341600E+00
 0.6168619549257E+00
 0.6810651968725E+00
 0.7483060965436E+00
 0.8180213946568E+00
 0.8891952877731E+00
 0.9621974045333E+00
 0.1035707327752E+01
 0.1104495697231E+01
 0.1158201462251E+01
 0.1183942908517E+01
 0.1174854236736E+01
 0.1131932288324E+01
 0.1010070401838E+00
 0.2007502902426E+00
 0.2805343812967E+00
 0.3480053698994E+00
 0.4088302360790E+00
 0.4668869385594E+00
 0.5247586903201E+00
 0.5840922354891E+00
 0.6457842257024E+00
 0.7101657824703E+00
 0.7771034022195E+00
 0.8459396478663E+00
 0.9155167647693E+00
 0.9858284665160E+00
 0.1055423720536E+01
 0.1119656996810E+01
 0.1169991889486E+01
 0.1195802612378E+01
 0.1190550465902E+01
 0.1153705697255E+01
 0.1068258183435E+00
 0.2107029391873E+00
 0.2947194640375E+00
 0.3659045874094E+00
 0.4297082248979E+00
 0.4899896477843E+00
 0.5493999579426E+00
 0.6096719540767E+00
 0.6717643627962E+00
 0.7360170638055E+00
 0.8022526846453E+00
 0.8697565208720E+00
 0.9373009808089E+00
 0.1004598739497E+01
 0.1070163735952E+01
 0.1129964104323E+01
 0.1177041291891E+01
 0.1202694249085E+01
 0.1200814897422E+01
 0.1169687210774E+01
 0.1120444187815E+00
 0.2192469971681E+00
 0.3069204444760E+00
 0.3814637035222E+00
 0.4480493506457E+00
 0.5104457328512E+00
 0.5713051225141E+00
 0.6323941171721E+00
 0.6947019955252E+00
 0.7585695910559E+00
 0.8237902054474E+00
 0.8896233490441E+00
 0.9548272669055E+00
 0.1018910051462E+01
 0.1080413950869E+01
 0.1135915118642E+01
 0.1179835504518E+01
 0.1205156746986E+01
 0.1206288794476E+01
 0.1180543600912E+01
 0.1167266360902E+00
 0.2265176930797E+00
 0.3172753440755E+00
 0.3947840239146E+00
 0.4638999534711E+00
 0.5282468930658E+00
 0.5904258228164E+00
 0.6521941751053E+00
 0.7145446822969E+00
 0.7778127156881E+00
 0.8417761657300E+00
 0.9056967633709E+00
 0.9683635365973E+00
 0.1029144415908E+01
 0.1086647530476E+01
 0.1138004380225E+01
 0.1178828340292E+01
 0.1203632891110E+01
 0.1207489577902E+01
 0.1186866502029E+01
 0.1209237539899E+00
 0.2326302449990E+00
 0.3259126279045E+00
 0.4059726091010E+00
 0.4773274128485E+00
 0.5434178411881E+00
 0.6067550212726E+00
 0.6690527151576E+00
 0.7312834696186E+00
 0.7937708636957E+00
 0.8562907212623E+00
 0.9181331614470E+00
 0.9781579193541E+00
 0.1035653326801E+01
 0.1089320304758E+01
 0.1136765226714E+01
 0.1174531094781E+01
 0.1198497029088E+01
 0.1204763429100E+01
 0.1189124955012E+01
 0.1246752044399E+00
 0.2376843752774E+00
 0.3329523412407E+00
 0.4151429244155E+00
 0.4884157898444E+00
 0.5560098630249E+00
 0.6203201172514E+00
 0.6829894370872E+00
 0.7449492844913E+00
 0.8065021607418E+00
 0.8674316864139E+00
 0.9270852347019E+00
 0.9844303298804E+00
 0.1038738380907E+01
 0.1088835114441E+01
 0.1132732294216E+01
 0.1167652054217E+01
 0.1190321154721E+01
 0.1198166001291E+01
 0.1187491431772E+01
 0.1280145171743E+00
 0.2417529164194E+00
 0.3385189031548E+00
 0.4224150914066E+00
 0.4972615502738E+00
 0.5660950273117E+00
 0.6311761541201E+00
 0.6940568916933E+00
 0.7556089287947E+00
 0.8161008926126E+00
 0.8753192832452E+00
 0.9326952907097E+00
 0.9873694803969E+00
 0.1038640065573E+01
 0.1085492372267E+01
 0.1126321388300E+01
 0.1158875414618E+01
 0.1180402226196E+01
 0.1188316655947E+01
 0.1181488977303E+01
 0.1855292802872E+00
 0.2681666903115E+00
 0.3628963730614E+00
 0.4548871242873E+00
 0.5357499666732E+00
 0.6015564803928E+00
 0.6512880924316E+00
 0.6856624003292E+00
 0.7062502003352E+00
 0.7148149860541E+00
 0.7128633671366E+00
 0.7014240737023E+00
 0.6810325462891E+00
 0.6522418462161E+00
 0.6156623598060E+00
 0.5717674366927E+00
 0.5211215753176E+00
 0.4644505621934E+00
 0.4041364190405E+00
 0.3497212427177E+00
 0.1916094820942E+00
 0.2800661590103E+00
 0.3805464327493E+00
 0.4764017177648E+00
 0.5584871903814E+00
 0.6229949399456E+00
 0.6693905291778E+00
 0.6989775170273E+00
 0.7138657680561E+00
 0.7162481557208E+00
 0.7079646070424E+00
 0.6903287796711E+00
 0.6640601538182E+00
 0.6299235307284E+00
 0.5887758729999E+00
 0.5412641170619E+00
 0.4883010873382E+00
 0.4312652326578E+00
 0.3743791355335E+00
 0.3174669685254E+00
 0.1985621221972E+00
 0.2943833496758E+00
 0.4015405695860E+00
 0.5014093189251E+00
 0.5842970418623E+00
 0.6467216652903E+00
 0.6888485004981E+00
 0.7127378525617E+00
 0.7211580258539E+00
 0.7168038788266E+00
 0.7018734265389E+00
 0.6779351210246E+00
 0.6458678298632E+00
 0.6066380667991E+00
 0.5613396847435E+00
 0.5108663693284E+00
 0.4564797434743E+00
 0.4000322665880E+00
 0.3433312917810E+00
 0.2815073263090E+00
 0.2067253115150E+00
 0.3115168555733E+00
 0.4263164419864E+00
 0.5302437922066E+00
 0.6132950717261E+00
 0.6726298461187E+00
 0.7093808180074E+00
 0.7265626182665E+00
 0.7277208488431E+00
 0.7161031822930E+00
 0.6942651541198E+00
 0.6639978725024E+00
 0.6263072228886E+00
 0.5823478869568E+00
 0.5334289923842E+00
 0.4806128654562E+00
 0.4252722966182E+00
 0.3686126193621E+00
 0.3105579693997E+00
 0.2466392967668E+00
 0.2164005605261E+00
 0.3320442109271E+00
 0.4553927872151E+00
 0.5632281779488E+00
 0.6455317339208E+00
 0.7005079208637E+00
 0.7305871855717E+00
 0.7399566763815E+00
 0.7330491603654E+00
 0.7136909808179E+00
 0.6847697227976E+00
 0.6482482554057E+00
 0.6052146929313E+00
 0.5569777027046E+00
 0.5049788677012E+00
 0.4502892927872E+00
 0.3940509122839E+00
 0.3368014152197E+00
 0.2777715394301E+00
 0.2137748461825E+00
 0.2279417719425E+00
 0.3566394055998E+00
 0.4893665595647E+00
 0.6006682620588E+00
 0.6809633937143E+00
 0.7300083904777E+00
 0.7519226070510E+00
 0.7522974223066E+00
 0.7365418503148E+00
 0.7090521657967E+00
 0.6729884842067E+00
 0.6304084552723E+00
 0.5824184688038E+00
 0.5304201912686E+00
 0.4758765896253E+00
 0.4197106589209E+00
 0.3627602416701E+00
 0.3051377722378E+00
 0.2459127929364E+00
 0.1831858811863E+00
 0.2417797305701E+00
 0.3861042171139E+00
 0.5288953606479E+00
 0.6428284907766E+00
 0.7194153012996E+00
 0.7606096271349E+00
 0.7726713907401E+00
 0.7628268419024E+00
 0.7375111899298E+00
 0.7016315912951E+00
 0.6585172376126E+00
 0.6102125203715E+00
 0.5577606494617E+00
 0.5025833609134E+00
 0.4460596914302E+00
 0.3888857048593E+00
 0.3316213995279E+00
 0.2741231734334E+00
 0.2155372252588E+00
 0.1549641031394E+00
 0.2584503129437E+00
 0.4213979107995E+00
 0.5746908920767E+00
 0.6898919229189E+00
 0.7605299695533E+00
 0.7915701627416E+00
 0.7919218444587E+00
 0.7706509259844E+00
 0.7352016823104E+00
 0.6908626943446E+00
 0.6409757601341E+00
 0.5874334740106E+00
 0.5311269430500E+00
 0.4734286392296E+00
 0.4155549532746E+00
 0.3579415469766E+00
 0.3009056745167E+00
 0.2441490459178E+00
 0.1869693330626E+00
 0.1291604994046E+00
 0.2786294123629E+00
 0.4636751217355E+00
 0.6275056540641E+00
 0.7419040024210E+00
 0.8036967799085E+00
 0.8218744916103E+00
 0.8085448923245E+00
 0.7747511470244E+00
 0.7288226551064E+00
 0.6762066019802E+00
 0.6200431413259E+00
 0.5619119591795E+00
 0.5024697096933E+00
 0.4429854522546E+00
 0.3844579712104E+00
 0.3270500890521E+00
 0.2708631602046E+00
 0.2154961406115E+00
 0.1604005002768E+00
 0.1058111789384E+00
 0.3031802406989E+00
 0.5143327468286E+00
 0.6881064914792E+00
 0.7986889308887E+00
 0.8479577336289E+00
 0.8501714147706E+00
 0.8211830888876E+00
 0.7740154169322E+00
 0.7175989702657E+00
 0.6572019003883E+00
 0.5954955066328E+00
 0.5335800367204E+00
 0.4718190414072E+00
 0.4113455994963E+00
 0.3529054494370E+00
 0.2963886547854E+00
 0.2416983346729E+00
 0.1883544278472E+00
 0.1359365692340E+00
 0.8493717928322E-01
 0.3332198310728E+00
 0.5750684942006E+00
 0.7572231520984E+00
 0.8597229075494E+00
 0.8918816310919E+00
 0.8747099590084E+00
 0.8282619577331E+00
 0.7672987418917E+00
 0.7008432645948E+00
 0.6335221628753E+00
 0.5672402268990E+00
 0.5024750869952E+00
 0.4392813835817E+00
 0.3786493506285E+00
 0.3210528239657E+00
 0.2661190661536E+00
 0.2135650272458E+00
 0.1628406567701E+00
 0.1136223050048E+00
 0.6653793564569E-01
 0.3702156198944E+00
 0.6479532371804E+00
 0.8354505925533E+00
 0.9239387684339E+00
 0.9333988676560E+00
 0.8932861074902E+00
 0.8280440987385E+00
 0.7535258347131E+00
 0.6780493383736E+00
 0.6050333557923E+00
 0.5353385723310E+00
 0.4687398729856E+00
 0.4050277268492E+00
 0.3450681856029E+00
 0.2890567260199E+00
 0.2363767179715E+00
 0.1865680160002E+00
 0.1390124301539E+00
 0.9345479080097E-01
 0.5058587645415E-01
 0.4161304223673E+00
 0.7355172213565E+00
 0.9230636156293E+00
 0.9894207919139E+00
 0.9695935232762E+00
 0.9032313112945E+00
 0.8187583279809E+00
 0.7318460687178E+00
 0.6489968876915E+00
 0.5718363884162E+00
 0.5000076763198E+00
 0.4326070351639E+00
 0.3692737824771E+00
 0.3107862061237E+00
 0.2570609923595E+00
 0.2072648133449E+00
 0.1607673931543E+00
 0.1168800127425E+00
 0.7539271971457E-01
 0.3702434456533E-01
 0.4736483102063E+00
 0.8408418120417E+00
 0.1019659939725E+01
 0.1052922696529E+01
 0.9964695177785E+00
 0.9015085037148E+00
 0.7988489922499E+00
 0.7018365730643E+00
 0.6138403516305E+00
 0.5342737648484E+00
 0.4615960459146E+00
 0.3943704373768E+00
 0.3322556901288E+00
 0.2759817884753E+00
 0.2251851657597E+00
 0.1788515357059E+00
 0.1361845317862E+00
 0.9641769059773E-01
 0.5936530400444E-01
 0.2576988911098E-01
 0.5465430221052E+00
 0.9676231253785E+00
 0.1123448372491E+01
 0.1109110483662E+01
 0.1008766930804E+01
 0.8850503144460E+00
 0.7673834346750E+00
 0.6637097386481E+00
 0.5731293344948E+00
 0.4928846132073E+00
 0.4205374665989E+00
 0.3543504786286E+00
 0.2942054318849E+00
 0.2408103124898E+00
 0.1935144635768E+00
 0.1511688959808E+00
 0.1128096272560E+00
 0.7757630044258E-01
 0.4528300953578E-01
 0.1672023151676E-01
 0.6403133020352E+00
 0.1120068479474E+01
 0.1229782814668E+01
 0.1149390661934E+01
 0.1000114433500E+01
 0.8515469747384E+00
 0.7245965743962E+00
 0.6183811648207E+00
 0.5277137902238E+00
 0.4483207575080E+00
 0.3772990884206E+00
 0.3128625266839E+00
 0.2553284359972E+00
 0.2053872091119E+00
 0.1620895357682E+00
 0.1242125520474E+00
 0.9061125042220E-01
 0.6029865354340E-01
 0.3305140481778E-01
 0.9773791616537E-02
 0.7633855599553E+00
 0.1302228852493E+01
 0.1327803611438E+01
 0.1160506310168E+01
 0.9641613638552E+00
 0.8010423519895E+00
 0.6721386751894E+00
 0.5672419784926E+00
 0.4785750967154E+00
 0.4012593702776E+00
 0.3323435309047E+00
 0.2701940432081E+00
 0.2157825434382E+00
 0.1697674866328E+00
 0.1308939348527E+00
 0.9794245906354E-01
 0.6954961854206E-01
 0.4453841105427E-01
 0.2259044794519E-01
 0.4886346426261E-02
 0.9295232826651E+00
 0.1514063770027E+01
 0.1393448390039E+01
 0.1123200162598E+01
 0.8997225202126E+00
 0.7369218893503E+00
 0.6124329639486E+00
 0.5118023730487E+00
 0.4266641582972E+00
 0.3523519324007E+00
 0.2861141694455E+00
 0.2265941501724E+00
 0.1756500515423E+00
 0.1339134853894E+00
 0.9983692972212E-01
 0.7228997368753E-01
 0.4959325786015E-01
 0.3028432666652E-01
 0.1385606601217E-01
 0.2287272026127E-02
 0.1164825024163E+01
 0.1740150006485E+01
 0.1363050678343E+01
 0.1029971085960E+01
 0.8151578895224E+00
 0.6637084095813E+00
 0.5479129136325E+00
 0.4533932368102E+00
 0.3728302347857E+00
 0.3022012357332E+00
 0.2390600622274E+00
 0.1822738317185E+00
 0.1348919464984E+00
 0.9761696883585E-01
 0.6873552461302E-01
 0.4720315122877E-01
 0.3074455101620E-01
 0.1754268035372E-01
 0.6909352084367E-02
 0.1864611159182E-02
 0.1517489751301E+01
 0.1751875905776E+01
 0.1196115422675E+01
 0.9066133163561E+00
 0.7193819888058E+00
 0.5855265196291E+00
 0.4804193733234E+00
 0.3931629585390E+00
 0.3178071121346E+00
 0.2512962939327E+00
 0.1917131651760E+00
 0.1375816700654E+00
 0.9305332221612E-01
 0.6030751598885E-01
 0.3746120552103E-01
 0.2274138096535E-01
 0.1303922792278E-01
 0.6322604914930E-02
 0.1775283279455E-02
 0.8973451845103E-03
 0.1168640534818E+01
 0.1170436838157E+01
 0.1168358184248E+01
 0.1163436507745E+01
 0.1154458680580E+01
 0.1140839638802E+01
 0.1121993993446E+01
 0.1097313126632E+01
 0.1066132470429E+01
 0.1027728732120E+01
 0.9813215301874E+00
 0.9260820626869E+00
 0.8611535578843E+00
 0.7856948262907E+00
 0.6989678362908E+00
 0.6005078377732E+00
 0.4904522905894E+00
 0.3701889350801E+00
 0.2439943777148E+00
 0.1285062921364E+00
 0.1152954248361E+01
 0.1159172798961E+01
 0.1157441376382E+01
 0.1151783435911E+01
 0.1142347832048E+01
 0.1128475461362E+01
 0.1109467221925E+01
 0.1084608116567E+01
 0.1053164357452E+01
 0.1014374318773E+01
 0.9674525675028E+00
 0.9116073729011E+00
 0.8460763704418E+00
 0.7701888944305E+00
 0.6834692288187E+00
 0.5858036690461E+00
 0.4777083650354E+00
 0.3608342711586E+00
 0.2393775540704E+00
 0.1323888839159E+00
 0.1136200818712E+01
 0.1141689624644E+01
 0.1141758943317E+01
 0.1136611033280E+01
 0.1127108771673E+01
 0.1113050947238E+01
 0.1093865568963E+01
 0.1068861118893E+01
 0.1037299153137E+01
 0.9984217983947E+00
 0.9514711846423E+00
 0.8957171324747E+00
 0.8305001985746E+00
 0.7552963996729E+00
 0.6698112792465E+00
 0.5741132374548E+00
 0.4688416901886E+00
 0.3556171962261E+00
 0.2388998149693E+00
 0.1373911720551E+00
 0.1118875783303E+01
 0.1122645113600E+01
 0.1122618140626E+01
 0.1117903994521E+01
 0.1108545639160E+01
 0.1094458177822E+01
 0.1075213065635E+01
 0.1050203127027E+01
 0.1018739701604E+01
 0.9801058100757E+00
 0.9335929579673E+00
 0.8785378832813E+00
 0.8143680945882E+00
 0.7406612529987E+00
 0.6572223448981E+00
 0.5641883705292E+00
 0.4621941765990E+00
 0.3528202008736E+00
 0.2403589491991E+00
 0.1425790429094E+00
 0.1100264539472E+01
 0.1102179459359E+01
 0.1101260589358E+01
 0.1096296315692E+01
 0.1086895718521E+01
 0.1072781194970E+01
 0.1053555770864E+01
 0.1028679316850E+01
 0.9975265268185E+00
 0.9594379459810E+00
 0.9137624187988E+00
 0.8598974734713E+00
 0.7973334360366E+00
 0.7257048920463E+00
 0.6448533400456E+00
 0.5549114924002E+00
 0.4564603168730E+00
 0.3509573162658E+00
 0.2424563697182E+00
 0.1476053429416E+00
 0.1080160230667E+01
 0.1080224374628E+01
 0.1077988385614E+01
 0.1072281293951E+01
 0.1062491174390E+01
 0.1048197794450E+01
 0.1028965492050E+01
 0.1004285749815E+01
 0.9735858310131E+00
 0.9362624260671E+00
 0.8917184285503E+00
 0.8394003986403E+00
 0.7788379805019E+00
 0.7096873506661E+00
 0.6317826798720E+00
 0.5452102951461E+00
 0.4504571440127E+00
 0.3488383763980E+00
 0.2441836801653E+00
 0.1520187915035E+00
 0.1058487251872E+01
 0.1056693234516E+01
 0.1052897192083E+01
 0.1046079960950E+01
 0.1035567533613E+01
 0.1020859670167E+01
 0.1001490298838E+01
 0.9769647399110E+00
 0.9467501397405E+00
 0.9102912433022E+00
 0.8670369978405E+00
 0.8164710522110E+00
 0.7581446187525E+00
 0.6917124904101E+00
 0.6169768088897E+00
 0.5339544475739E+00
 0.4430228209919E+00
 0.3453487911783E+00
 0.2445452754305E+00
 0.1552032880563E+00
 0.1035255167346E+01
 0.1031546660151E+01
 0.1026008277758E+01
 0.1017792653985E+01
 0.1006247038182E+01
 0.9908515282430E+00
 0.9711324796918E+00
 0.9466120748520E+00
 0.9167918854091E+00
 0.8811582331961E+00
 0.8391990595848E+00
 0.7904267136321E+00
 0.7344042629098E+00
 0.6707758258482E+00
 0.5993058406208E+00
 0.5199441522815E+00
 0.4329720879962E+00
 0.3394307343436E+00
 0.2427299638528E+00
 0.1566461267203E+00
 0.1010522463444E+01
 0.1004800235822E+01
 0.9973565719333E+00
 0.9874996146476E+00
 0.9746396097062E+00
 0.9582785423672E+00
 0.9379606439875E+00
 0.9132352955611E+00
 0.8836403204205E+00
 0.8487011636330E+00
 0.8079404364881E+00
 0.7608939810378E+00
 0.7071319251214E+00
 0.6462858011819E+00
 0.5780874923381E+00
 0.5024376767789E+00
 0.4195585953299E+00
 0.3304248133999E+00
 0.2383235403232E+00
 0.1562776323702E+00
 0.9843972771697E+00
 0.9765506553549E+00
 0.9670639582728E+00
 0.9553809312192E+00
 0.9409946677033E+00
 0.9234575946900E+00
 0.9023544711162E+00
 0.8772759519025E+00
 0.8478029409819E+00
 0.8135016459610E+00
 0.7739268638423E+00
 0.7286316050046E+00
 0.6771827118578E+00
 0.6191845472900E+00
 0.5543174499987E+00
 0.4824093711737E+00
 0.4035955144217E+00
 0.3187575550259E+00
 0.2310813596790E+00
 0.1533357547361E+00
 0.9569950262943E+00
 0.9469010371375E+00
 0.9352381042465E+00
 0.9215695544881E+00
 0.9054804889881E+00
 0.8865930252553E+00
 0.8645515242164E+00
 0.8390029773434E+00
 0.8095819425371E+00
 0.7759018546857E+00
 0.7375522410556E+00
 0.6941014751048E+00
 0.6451059704965E+00
 0.5901290267750E+00
 0.5287771565020E+00
 0.4607734246362E+00
 0.3861238832905E+00
 0.3055728051973E+00
 0.2222011397971E+00
 0.1488292329831E+00
 0.9284407200318E+00
 0.9159722856911E+00
 0.9019974661294E+00
 0.8861880118509E+00
 0.8682245895468E+00
 0.8478114347526E+00
 0.8246675020291E+00
 0.7985105265570E+00
 0.7690415476139E+00
 0.7359323222993E+00
 0.6988162610273E+00
 0.6572836193669E+00
 0.6108829346711E+00
 0.5591331273518E+00
 0.5015555195622E+00
 0.4377469619309E+00
 0.3675524800104E+00
 0.2915373966992E+00
 0.2126318059392E+00
 0.1435616299321E+00
 0.8988708873229E+00
 0.8839047720922E+00
 0.8674821455108E+00
 0.8493746329152E+00
 0.8293585535608E+00
 0.8072274668556E+00
 0.7827859315775E+00
 0.7558352385459E+00
 0.7261568198581E+00
 0.6934956509447E+00
 0.6575447209869E+00
 0.6179319110113E+00
 0.5742120336251E+00
 0.5258695321548E+00
 0.4723426391256E+00
 0.4130922388675E+00
 0.3477759335902E+00
 0.2767284405004E+00
 0.2026094434672E+00
 0.1377077758963E+00
 0.8684342535396E+00
 0.8508558527124E+00
 0.8318535196004E+00
 0.8112901404250E+00
 0.7890348153641E+00
 0.7649732514636E+00
 0.7390026899343E+00
 0.7110184298259E+00
 0.6808960340226E+00
 0.6484710350954E+00
 0.6135171239263E+00
 0.5757242070459E+00
 0.5346792992661E+00
 0.4898563470283E+00
 0.4406270654484E+00
 0.3863180526498E+00
 0.3263764251831E+00
 0.2608410963315E+00
 0.1919469487649E+00
 0.1312024771344E+00
 0.8372924712346E+00
 0.8170007840403E+00
 0.7952966218348E+00
 0.7721241843225E+00
 0.7474394993481E+00
 0.7212191216117E+00
 0.6934558799857E+00
 0.6641462086825E+00
 0.6332717662368E+00
 0.6007764321656E+00
 0.5665391255334E+00
 0.5303432643772E+00
 0.4918452470800E+00
 0.4505476897523E+00
 0.4057898381429E+00
 0.3567818663633E+00
 0.3027468624047E+00
 0.2433621614604E+00
 0.1802857135687E+00
 0.1239237654390E+00
 0.8056206625630E+00
 0.7825348658675E+00
 0.7580242664331E+00
 0.7321028583234E+00
 0.7048047725072E+00
 0.6761919952327E+00
 0.6463512101256E+00
 0.6153825901863E+00
 0.5833820928246E+00
 0.5504175201845E+00
 0.5164979250907E+00
 0.4815360349417E+00
 0.4453045382169E+00
 0.4073901469226E+00
 0.3671562496031E+00
 0.3237404664833E+00
 0.2761519948867E+00
 0.2236570663229E+00
 0.1671942968027E+00
 0.1157357944130E+00
 0.7736060872713E+00
 0.7476729104309E+00
 0.7202779011561E+00
 0.6914919046653E+00
 0.6614155994600E+00
 0.6301869408594E+00
 0.5979796668835E+00
 0.5649945571827E+00
 0.5314441231043E+00
 0.4975302225629E+00
 0.4634131976972E+00
 0.4291706846297E+00
 0.3947445555747E+00
 0.3598763993654E+00
 0.3240377534751E+00
 0.2863766931509E+00
 0.2457432197058E+00
 0.2009793971964E+00
 0.1521732682043E+00
 0.1064879173032E+00
 0.7414471594419E+00
 0.7126489268765E+00
 0.6823283637165E+00
 0.6505993891245E+00
 0.6176154812216E+00
 0.5835774205016E+00
 0.5487340424233E+00
 0.5133769996498E+00
 0.4778296879237E+00
 0.4424293163752E+00
 0.4074999070337E+00
 0.3733128688132E+00
 0.3400308636405E+00
 0.3076306019964E+00
 0.2758029835182E+00
 0.2438405351364E+00
 0.2105608142244E+00
 0.1744403877480E+00
 0.1346156117523E+00
 0.9599762145908E-01
 0.7093514868030E+00
 0.6777141666317E+00
 0.6444745014284E+00
 0.6097757295776E+00
 0.5738090404138E+00
 0.5368220602208E+00
 0.4991222064812E+00
 0.4610756569375E+00
 0.4231020366904E+00
 0.3856637245038E+00
 0.3492472184815E+00
 0.3143322013088E+00
 0.2813416776815E+00
 0.2505639560441E+00
 0.2220354330480E+00
 0.1953764702509E+00
 0.1695969343060E+00
 0.1429985801866E+00
 0.1137591597738E+00
 0.8402612791871E-01
 0.6775334688127E+00
 0.6431340352103E+00
 0.6070400412503E+00
 0.5694111548415E+00
 0.5304609931798E+00
 0.4904667391490E+00
 0.4497749513290E+00
 0.4088048203514E+00
 0.3680494550616E+00
 0.3280745950493E+00
 0.2895125884855E+00
 0.2530471737437E+00
 0.2193809356392E+00
 0.1891716561490E+00
 0.1629164575244E+00
 0.1407573244740E+00
 0.1221890107980E+00
 0.1057056994198E+00
 0.8876042991779E-01
 0.7027218421361E-01
 0.6462085154266E+00
 0.6091798853608E+00
 0.5703633637464E+00
 0.5299233535071E+00
 0.4880820578020E+00
 0.4451299689739E+00
 0.4014333814347E+00
 0.3574413880461E+00
 0.3136939987187E+00
 0.2708322329573E+00
 0.2296101059796E+00
 0.1909065782608E+00
 0.1557304829299E+00
 0.1251969801176E+00
 0.1004182483973E+00
 0.8219942178050E-01
 0.7049552770251E-01
 0.6395410238954E-01
 0.5986237319374E-01
 0.5455672870111E-01
 0.6155813240648E+00
 0.5761114977839E+00
 0.5347720892586E+00
 0.4917229403713E+00
 0.4471847255538E+00
 0.4014491941834E+00
 0.3548874059660E+00
 0.3079598604828E+00
 0.2612323750085E+00
 0.2154031415568E+00
 0.1713518610463E+00
 0.1302378680605E+00
 0.9371963477827E-01
 0.6445661709694E-01
 0.4662186450271E-01
 0.4226278254595E-01
 0.4419917767078E-01
 0.4396407186229E-01
 0.4010851262429E-01
 0.3814265786519E-01
 0.5858460384369E+00
 0.5441754619903E+00
 0.5005775527156E+00
 0.4552027563593E+00
 0.4082658370971E+00
 0.3600550319413E+00
 0.3109404950916E+00
 0.2613882385419E+00
 0.2119891601863E+00
 0.1635266773497E+00
 0.1171649251710E+00
 0.7514113598823E-01
 0.4417592327478E-01
 0.4210501860943E-01
 0.6243918113959E-01
 0.8250889465164E-01
 0.9384314269195E-01
 0.9165226646526E-01
 0.7162421048819E-01
 0.3437015537956E-01
 0.5571838791827E+00
 0.5136029856861E+00
 0.4680723030468E+00
 0.4207332922886E+00
 0.3717970063427E+00
 0.3215524456304E+00
 0.2703759638268E+00
 0.2187530078165E+00
 0.1673382043341E+00
 0.1171523886999E+00
 0.7048921732262E-01
 0.3755529813207E-01
 0.4902371231704E-01
 0.8320118137873E-01
 0.1162122325845E+00
 0.1421426689243E+00
 0.1568379103991E+00
 0.1549311754893E+00
 0.1279832791274E+00
 0.6077082186849E-01
 0.5297586137818E+00
 0.4846030563806E+00
 0.4375198986908E+00
 0.3886463323019E+00
 0.3381977290459E+00
 0.2864765156424E+00
 0.2338848731896E+00
 0.1809633464059E+00
 0.1285261705957E+00
 0.7829270108569E-01
 0.3807695242598E-01
 0.4533911427174E-01
 0.8468889948202E-01
 0.1249154531133E+00
 0.1601583948382E+00
 0.1871298318885E+00
 0.2018718761104E+00
 0.1983974352928E+00
 0.1664535162825E+00
 0.8499884957013E-01
 0.5037121638663E+00
 0.4573550384971E+00
 0.4091431609383E+00
 0.3592160646685E+00
 0.3078046353439E+00
 0.2552420063800E+00
 0.2019824873596E+00
 0.1486709363520E+00
 0.9644307943543E-01
 0.4899436585476E-01
 0.3369901622405E-01
 0.7009779480285E-01
 0.1129160974092E+00
 0.1522991673607E+00
 0.1850842300235E+00
 0.2081836858184E+00
 0.2174781868619E+00
 0.2068877158166E+00
 0.1668153400816E+00
 0.8178860777979E-01
 0.4791607049935E+00
 0.4320026331322E+00
 0.3831149401642E+00
 0.3326446467204E+00
 0.2808487486648E+00
 0.2281073638077E+00
 0.1749503391389E+00
 0.1221727716307E+00
 0.7145452278447E-01
 0.3171602648195E-01
 0.4668108168106E-01
 0.8841579386255E-01
 0.1292123471547E+00
 0.1646872450642E+00
 0.1921240271604E+00
 0.2084481833667E+00
 0.2096856652012E+00
 0.1905544762645E+00
 0.1442691383095E+00
 0.6421488395707E-01
 0.4561915427586E+00
 0.4086498321942E+00
 0.3595524478741E+00
 0.3090542508005E+00
 0.2574453019879E+00
 0.2051636393838E+00
 0.1528273851011E+00
 0.1014069292907E+00
 0.5336898155171E-01
 0.2723598106633E-01
 0.5769747267648E-01
 0.9803248976366E-01
 0.1348856632785E+00
 0.1652166815734E+00
 0.1865636338481E+00
 0.1961588563782E+00
 0.1907370287546E+00
 0.1666128455363E+00
 0.1203769212487E+00
 0.5086218664265E-01
 0.4348604356750E+00
 0.3873582157081E+00
 0.3385140275600E+00
 0.2884835730419E+00
 0.2375925475882E+00
 0.1863414401747E+00
 0.1354357810361E+00
 0.8601144028197E-01
 0.4144331511260E-01
 0.2892319914687E-01
 0.6301515929623E-01
 0.1000284154846E+00
 0.1323153086342E+00
 0.1574207780775E+00
 0.1732317432200E+00
 0.1775279545809E+00
 0.1680053536443E+00
 0.1425864630103E+00
 0.1001395233647E+00
 0.4154458543152E-01
 0.4151903318330E+00
 0.3681465360734E+00
 0.3199973415813E+00
 0.2708850082801E+00
 0.2211717581981E+00
 0.1714208873016E+00
 0.1224124452099E+00
 0.7539705612056E-01
 0.3443210672219E-01
 0.3005234585458E-01
 0.6298100432333E-01
 0.9610722435721E-01
 0.1239128081360E+00
 0.1443600857897E+00
 0.1557583333479E+00
 0.1565051702392E+00
 0.1451943792251E+00
 0.1209168087326E+00
 0.8370170537546E-01
 0.3494765921228E-01
 0.3971722572663E+00
 0.3509906952443E+00
 0.3039324903622E+00
 0.2561123935928E+00
 0.2079351644303E+00
 0.1600274394115E+00
 0.1132243497179E+00
 0.6881171286791E-01
 0.3092767525792E-01
 0.2875951630411E-01
 0.5875962718764E-01
 0.8800596803984E-01
 0.1117798745572E+00
 0.1283924509842E+00
 0.1365732925237E+00
 0.1352739688760E+00
 0.1237695896416E+00
 0.1018625124657E+00
 0.7010438922637E-01
 0.2988090275882E-01
 0.3807726748710E+00
 0.3358218320499E+00
 0.2901641993172E+00
 0.2438936195653E+00
 0.1974761050181E+00
 0.1516071360246E+00
 0.1071581619523E+00
 0.6537168087731E-01
 0.2984633709685E-01
 0.2544321004843E-01
 0.5171747405796E-01
 0.7734376860162E-01
 0.9766180119507E-01
 0.1112568160597E+00
 0.1172188314898E+00
 0.1149281563662E+00
 0.1041121093805E+00
 0.8495783280577E-01
 0.5820929999447E-01
 0.2518519936577E-01
 0.3659525488744E+00
 0.3225324378853E+00
 0.2784615236967E+00
 0.2338540899348E+00
 0.1892749432481E+00
 0.1455015337803E+00
 0.1034270223564E+00
 0.6419621421216E-01
 0.3057539233499E-01
 0.2123983296709E-01
 0.4309596497168E-01
 0.6541597172861E-01
 0.8282544545033E-01
 0.9408238739203E-01
 0.9855447747821E-01
 0.9592544723599E-01
 0.8619823477738E-01
 0.6974045693363E-01
 0.4731756141398E-01
 0.2013291046171E-01
 0.3526963030164E+00
 0.3110417301314E+00
 0.2686432401515E+00
 0.2257118032927E+00
 0.1829705285666E+00
 0.1412939406423E+00
 0.1015787081607E+00
 0.6483437365033E-01
 0.3299562174288E-01
 0.1758745022138E-01
 0.3355387476135E-01
 0.5277866857510E-01
 0.6774709259362E-01
 0.7722589842515E-01
 0.8077530969563E-01
 0.7828557968190E-01
 0.6992444201586E-01
 0.5613467581956E-01
 0.3762780520996E-01
 0.1536776641948E-01
 0.3410152289488E+00
 0.3013165200465E+00
 0.2605864597063E+00
 0.2192765265838E+00
 0.1783452595669E+00
 0.1387657569996E+00
 0.1014018358828E+00
 0.6709517795564E-01
 0.3710503845265E-01
 0.1682959717401E-01
 0.2377052450386E-01
 0.3982818786008E-01
 0.5275878107937E-01
 0.6095324736844E-01
 0.6405441840236E-01
 0.6207188025091E-01
 0.5525668128501E-01
 0.4406069404257E-01
 0.2909188534552E-01
 0.1103445058440E-01
 0.3309257769341E+00
 0.2932645219200E+00
 0.2540658640842E+00
 0.2142671198232E+00
 0.1751354278833E+00
 0.1376970208484E+00
 0.1027131774934E+00
 0.7082233094445E-01
 0.4279577682167E-01
 0.2069215192996E-01
 0.1540993464607E-01
 0.2702354181249E-01
 0.3812850812427E-01
 0.4542985619526E-01
 0.4845296028674E-01
 0.4723569817187E-01
 0.4205153259570E-01
 0.3332917722330E-01
 0.2157790531319E-01
 0.7286424014710E-02
 0.3224409415308E+00
 0.2866412166515E+00
 0.2486585131883E+00
 0.2102716616037E+00
 0.1730393995431E+00
 0.1378948357048E+00
 0.1053768730060E+00
 0.7589898698279E-01
 0.4990454318563E-01
 0.2816246396892E-01
 0.1370847485854E-01
 0.1548603687971E-01
 0.2416494351411E-01
 0.3074959835907E-01
 0.3393521113953E-01
 0.3363789550586E-01
 0.3008757853665E-01
 0.2368562897214E-01
 0.1490695917117E-01
 0.4165029799323E-02
 0.3155100615415E+00
 0.2808700374269E+00
 0.2436605996451E+00
 0.2068224837621E+00
 0.1718873255675E+00
 0.1393297450265E+00
 0.1093931136154E+00
 0.8230272016304E-01
 0.5831250866517E-01
 0.3774676795521E-01
 0.2122552720535E-01
 0.1109211804971E-01
 0.1209778390879E-01
 0.1717875708220E-01
 0.2050204891558E-01
 0.2115790171480E-01
 0.1918324222276E-01
 0.1487745651018E-01
 0.8786976801432E-02
 0.1482527854224E-02
 0.3097474610351E+00
 0.2745208251385E+00
 0.2380774638640E+00
 0.2038522041683E+00
 0.1719418576494E+00
 0.1422780626397E+00
 0.1149483271106E+00
 0.9011941913002E-01
 0.6798117962338E-01
 0.4871776915055E-01
 0.3251215484122E-01
 0.1961926742628E-01
 0.1070987523491E-01
 0.7552496666668E-02
 0.8860956856128E-02
 0.9977116828163E-02
 0.9367189074236E-02
 0.6927413248803E-02
 0.2945863152786E-02
 0.1448189301702E-02
 0.3027718129967E+00
 0.2644611819391E+00
 0.2323359799066E+00
 0.2025051648991E+00
 0.1741075842236E+00
 0.1472945563400E+00
 0.1223313200677E+00
 0.9946998896255E-01
 0.7890891448681E-01
 0.6078982269019E-01
 0.4520044470226E-01
 0.3217962052025E-01
 0.2172473937461E-01
 0.1380151599184E-01
 0.8341139973858E-02
 0.5126722622002E-02
 0.3440000455290E-02
 0.2382147068856E-02
 0.2985287199653E-02
 0.6150678142059E-02
</DataArray>
<DataArray type="Float64" Name="CK" NumberOfComponents="1" ComponentName0="CK" format="ascii">
 0.0000000000000E+00
 0.0000000000000E+00
 0.0000000000000E+00
 0.0000000000000E+00
 0.0000000000000E+00
 0.0000000000000E+00
 0.0000000000000E+00
 0.0000000000000E+00
 0.0000000000000E+00
 0.0000000000000E+00
 0.0000000000000E+00
 0.0000000000000E+00
 0.0000000000000E+00
 0.0000000000000E+00
 0.0000000000000E+00
 0.0000000000000E+00
 0.0000000000000E+00
 0.0000000000000E+00
 0.0000000000000E+00
 0.0000000000000E+00
 0.0000000000000E+00
 0.0000000000000E+00
 0.0000000000000E+00
 0.0000000000000E+00
 0.0000000000000E+00
 0.0000000000000E+00
 0.0000000000000E+00
 0.0000000000000E+00
 0.0000000000000E+00
 0.0000000000000E+00
 0.0000000000000E+00
 0.0000000000000E+00
 0.0000000000000E+00
 0.0000000000000E+00
 0.0000000000000E+00
 0.0000000000000E+00
 0.0000000000000E+00
 0.0000000000000E+00
 0.0000000000000E+00
 0.0000000000000E+00
 0.0000000000000E+00
 0.0000000000000E+00
 0.0000000000000E+00
 0.0000000000000E+00
 0.0000000000000E+00
 0.0000000000000E+00
 0.0000000000000E+00
 0.0000000000000E+00
 0.0000000000000E+00
 0.0000000000000E+00
 0.0000000000000E+00
 0.0000000000000E+00
 0.0000000000000E+00
 0.0000000000000E+00
 0.0000000000000E+00
 0.0000000000000E+00
 0.0000000000000E+00
 0.0000000000000E+00
 0.0000000000000E+00
 0.0000000000000E+00
 0.0000000000000E+00
 0.0000000000000E+00
 0.0000000000000E+00
 0.0000000000000E+00
 0.0000000000000E+00
 0.0000000000000E+00
 0.0000000000000E+00
 0.0000000000000E+00
 0.0000000000000E+00
 0.0000000000000E+00
 0.0000000000000E+00
 0.0000000000000E+00
 0.0000000000000E+00
 0.0000000000000E+00
 0.0000000000000E+00
 0.0000000000000E+00
 0.0000000000000E+00
 0.0000000000000E+00
 0.0000000000000E+00
 0.0000000000000E+00
 0.0000000000000E+00
 0.0000000000000E+00
 0.0000000000000E+00
 0.0000000000000E+00
 0.0000000000000E+00
 0.0000000000000E+00
 0.0000000000000E+00
 0.0000000000000E+00
 0.0000000000000E+00
 0.0000000000000E+00
 0.0000000000000E+00
 0.0000000000000E+00
 0.0000000000000E+00
 0.0000000000000E+00
 0.0000000000000E+00
 0.0000000000000E+00
 0.0000000000000E+00
 0.0000000000000E+00
 0.0000000000000E+00
 0.0000000000000E+00
 0.0000000000000E+00
 0.0000000000000E+00
 0.0000000000000E+00
 0.0000000000000E+00
 0.0000000000000E+00
 0.0000000000000E+00
 0.0000000000000E+00
 0.0000000000000E+00
 0.0000000000000E+00
 0.0000000000000E+00
 0.0000000000000E+00
 0.0000000000000E+00
 0.0000000000000E+00
 0.0000000000000E+00
 0.0000000000000E+00
 0.0000000000000E+00
 0.0000000000000E+00
 0.0000000000000E+00
 0.0000000000000E+00
 0.0000000000000E+00
 0.0000000000000E+00
 0.0000000000000E+00
 0.0000000000000E+00
 0.0000000000000E+00
 0.0000000000000E+00
 0.0000000000000E+00
 0.0000000000000E+00
 0.0000000000000E+00
 0.0000000000000E+00
 0.0000000000000E+00
 0.0000000000000E+00
 0.0000000000000E+00
 0.0000000000000E+00
 0.0000000000000E+00
 0.0000000000000E+00
 0.0000000000000E+00
 0.0000000000000E+00
 0.0000000000000E+00
 0.0000000000000E+00
 0.0000000000000E+00
 0.0000000000000E+00
 0.0000000000000E+00
 0.0000000000000E+00
 0.0000000000000E+00
 0.0000000000000E+00
 0.0000000000000E+00
 0.0000000000000E+00
 0.0000000000000E+00
 0.0000000000000E+00
 0.0000000000000E+00
 0.0000000000000E+00
 0.0000000000000E+00
 0.0000000000000E+00
 0.0000000000000E+00
 0.0000000000000E+00
 0.0000000000000E+00
 0.0000000000000E+00
 0.0000000000000E+00
 0.0000000000000E+00
 0.0000000000000E+00
 0.0000000000000E+00
 0.0000000000000E+00
 0.0000000000000E+00
 0.0000000000000E+00
 0.0000000000000E+00
 0.0000000000000E+00
 0.0000000000000E+00
 0.0000000000000E+00
 0.0000000000000E+00
 0.0000000000000E+00
 0.0000000000000E+00
 0.0000000000000E+00
 0.0000000000000E+00
 0.0000000000000E+00
 0.0000000000000E+00
 0.0000000000000E+00
 0.0000000000000E+00
 0.0000000000000E+00
 0.0000000000000E+00
 0.0000000000000E+00
 0.0000000000000E+00
 0.0000000000000E+00
 0.0000000000000E+00
 0.0000000000000E+00
 0.0000000000000E+00
 0.0000000000000E+00
 0.0000000000000E+00
 0.0000000000000E+00
 0.0000000000000E+00
 0.0000000000000E+00
 0.0000000000000E+00
 0.0000000000000E+00
 0.0000000000000E+00
 0.0000000000000E+00
 0.0000000000000E+00
 0.0000000000000E+00
 0.0000000000000E+00
 0.0000000000000E+00
 0.0000000000000E+00
 0.0000000000000E+00
 0.0000000000000E+00
 0.0000000000000E+00
 0.0000000000000E+00
 0.0000000000000E+00
 0.0000000000000E+00
 0.0000000000000E+00
 0.0000000000000E+00
 0.0000000000000E+00
 0.0000000000000E+00
 0.0000000000000E+00
 0.0000000000000E+00
 0.0000000000000E+00
 0.0000000000000E+00
 0.0000000000000E+00
 0.0000000000000E+00
 0.0000000000000E+00
 0.0000000000000E+00
 0.0000000000000E+00
 0.0000000000000E+00
 0.0000000000000E+00
 0.0000000000000E+00
 0.0000000000000E+00
 0.0000000000000E+00
 0.0000000000000E+00
 0.0000000000000E+00
 0.0000000000000E+00
 0.0000000000000E+00
 0.0000000000000E+00
 0.0000000000000E+00
 0.0000000000000E+00
 0.0000000000000E+00
 0.0000000000000E+00
 0.0000000000000E+00
 0.0000000000000E+00
 0.0000000000000E+00
 0.0000000000000E+00
 0.0000000000000E+00
 0.0000000000000E+00
 0.0000000000000E+00
 0.0000000000000E+00
 0.0000000000000E+00
 0.0000000000000E+00
 0.0000000000000E+00
 0.0000000000000E+00
 0.0000000000000E+00
 0.0000000000000E+00
 0.0000000000000E+00
 0.0000000000000E+00
 0.0000000000000E+00
 0.0000000000000E+00
 0.0000000000000E+00
 0.0000000000000E+00
 0.0000000000000E+00
 0.0000000000000E+00
 0.0000000000000E+00
 0.0000000000000E+00
 0.0000000000000E+00
 0.0000000000000E+00
 0.0000000000000E+00
 0.0000000000000E+00
 0.0000000000000E+00
 0.0000000000000E+00
 0.0000000000000E+00
 0.0000000000000E+00
 0.0000000000000E+00
 0.0000000000000E+00
 0.0000000000000E+00
 0.0000000000000E+00
 0.0000000000000E+00
 0.0000000000000E+00
 0.0000000000000E+00
 0.0000000000000E+00
 0.0000000000000E+00
 0.0000000000000E+00
 0.0000000000000E+00
 0.0000000000000E+00
 0.0000000000000E+00
 0.0000000000000E+00
 0.0000000000000E+00
 0.0000000000000E+00
 0.0000000000000E+00
 0.0000000000000E+00
 0.0000000000000E+00
 0.0000000000000E+00
 0.0000000000000E+00
 0.0000000000000E+00
 0.0000000000000E+00
 0.0000000000000E+00
 0.0000000000000E+00
 0.0000000000000E+00
 0.0000000000000E+00
 0.0000000000000E+00
 0.0000000000000E+00
 0.0000000000000E+00
 0.0000000000000E+00
 0.0000000000000E+00
 0.0000000000000E+00
 0.0000000000000E+00
 0.0000000000000E+00
 0.0000000000000E+00
 0.0000000000000E+00
 0.0000000000000E+00
 0.0000000000000E+00
 0.0000000000000E+00
 0.0000000000000E+00
 0.0000000000000E+00
 0.0000000000000E+00
 0.0000000000000E+00
 0.0000000000000E+00
 0.0000000000000E+00
 0.0000000000000E+00
 0.0000000000000E+00
 0.0000000000000E+00
 0.0000000000000E+00
 0.0000000000000E+00
 0.0000000000000E+00
 0.0000000000000E+00
 0.0000000000000E+00
 0.0000000000000E+00
 0.0000000000000E+00
 0.0000000000000E+00
 0.0000000000000E+00
 0.0000000000000E+00
 0.0000000000000E+00
 0.0000000000000E+00
 0.0000000000000E+00
 0.0000000000000E+00
 0.0000000000000E+00
 0.0000000000000E+00
 0.0000000000000E+00
 0.0000000000000E+00
 0.0000000000000E+00
 0.0000000000000E+00
 0.0000000000000E+00
 0.0000000000000E+00
 0.0000000000000E+00
 0.0000000000000E+00
 0.0000000000000E+00
 0.0000000000000E+00
 0.0000000000000E+00
 0.0000000000000E+00
 0.0000000000000E+00
 0.0000000000000E+00
 0.0000000000000E+00
 0.0000000000000E+00
 0.0000000000000E+00
 0.0000000000000E+00
 0.0000000000000E+00
 0.0000000000000E+00
 0.0000000000000E+00
 0.0000000000000E+00
 0.0000000000000E+00
 0.0000000000000E+00
 0.0000000000000E+00
 0.0000000000000E+00
 0.0000000000000E+00
 0.0000000000000E+00
 0.0000000000000E+00
 0.0000000000000E+00
 0.0000000000000E+00
 0.0000000000000E+00
 0.0000000000000E+00
 0.0000000000000E+00
 0.0000000000000E+00
 0.0000000000000E+00
 0.0000000000000E+00
 0.0000000000000E+00
 0.0000000000000E+00
 0.0000000000000E+00
 0.0000000000000E+00
 0.0000000000000E+00
 0.0000000000000E+00
 0.0000000000000E+00
 0.0000000000000E+00
 0.0000000000000E+00
 0.0000000000000E+00
 0.0000000000000E+00
 0.0000000000000E+00
 0.0000000000000E+00
 0.0000000000000E+00
 0.0000000000000E+00
 0.0000000000000E+00
 0.0000000000000E+00
 0.0000000000000E+00
 0.0000000000000E+00
 0.0000000000000E+00
 0.0000000000000E+00
 0.0000000000000E+00
 0.0000000000000E+00
 0.0000000000000E+00
 0.0000000000000E+00
 0.0000000000000E+00
 0.0000000000000E+00
 0.0000000000000E+00
 0.0000000000000E+00
 0.0000000000000E+00
 0.0000000000000E+00
 0.0000000000000E+00
 0.0000000000000E+00
 0.0000000000000E+00
 0.0000000000000E+00
 0.0000000000000E+00
 0.0000000000000E+00
 0.0000000000000E+00
 0.0000000000000E+00
 0.0000000000000E+00
 0.0000000000000E+00
 0.0000000000000E+00
 0.0000000000000E+00
 0.0000000000000E+00
 0.0000000000000E+00
 0.0000000000000E+00
 0.0000000000000E+00
 0.0000000000000E+00
 0.0000000000000E+00
 0.0000000000000E+00
 0.0000000000000E+00
 0.0000000000000E+00
 0.0000000000000E+00
 0.0000000000000E+00
 0.0000000000000E+00
 0.0000000000000E+00
 0.0000000000000E+00
 0.0000000000000E+00
 0.0000000000000E+00
 0.0000000000000E+00
 0.0000000000000E+00
 0.0000000000000E+00
 0.0000000000000E+00
 0.0000000000000E+00
 0.0000000000000E+00
 0.0000000000000E+00
 0.0000000000000E+00
 0.0000000000000E+00
 0.0000000000000E+00
 0.0000000000000E+00
 0.0000000000000E+00
 0.0000000000000E+00
 0.0000000000000E+00
 0.0000000000000E+00
 0.0000000000000E+00
 0.0000000000000E+00
 0.0000000000000E+00
 0.0000000000000E+00
 0.0000000000000E+00
 0.0000000000000E+00
 0.0000000000000E+00
 0.0000000000000E+00
 0.0000000000000E+00
 0.0000000000000E+00
 0.0000000000000E+00
 0.0000000000000E+00
 0.0000000000000E+00
 0.0000000000000E+00
 0.0000000000000E+00
 0.0000000000000E+00
 0.0000000000000E+00
 0.0000000000000E+00
 0.0000000000000E+00
 0.0000000000000E+00
 0.0000000000000E+00
 0.0000000000000E+00
 0.0000000000000E+00
 0.0000000000000E+00
 0.0000000000000E+00
 0.0000000000000E+00
 0.0000000000000E+00
 0.0000000000000E+00
 0.0000000000000E+00
 0.0000000000000E+00
 0.0000000000000E+00
 0.0000000000000E+00
 0.0000000000000E+00
 0.0000000000000E+00
 0.0000000000000E+00
 0.0000000000000E+00
 0.0000000000000E+00
 0.0000000000000E+00
 0.0000000000000E+00
 0.0000000000000E+00
 0.0000000000000E+00
 0.0000000000000E+00
 0.0000000000000E+00
 0.0000000000000E+00
 0.0000000000000E+00
 0.0000000000000E+00
 0.0000000000000E+00
 0.0000000000000E+00
 0.0000000000000E+00
 0.0000000000000E+00
 0.0000000000000E+00
 0.0000000000000E+00
 0.0000000000000E+00
 0.0000000000000E+00
 0.0000000000000E+00
 0.0000000000000E+00
 0.0000000000000E+00
 0.0000000000000E+00
 0.0000000000000E+00
 0.0000000000000E+00
 0.0000000000000E+00
 0.0000000000000E+00
 0.0000000000000E+00
 0.0000000000000E+00
 0.0000000000000E+00
 0.0000000000000E+00
 0.0000000000000E+00
 0.0000000000000E+00
 0.0000000000000E+00
 0.0000000000000E+00
 0.0000000000000E+00
 0.0000000000000E+00
 0.0000000000000E+00
 0.0000000000000E+00
 0.0000000000000E+00
 0.0000000000000E+00
 0.0000000000000E+00
 0.0000000000000E+00
 0.0000000000000E+00
 0.0000000000000E+00
 0.0000000000000E+00
 0.0000000000000E+00
 0.0000000000000E+00
 0.0000000000000E+00
 0.0000000000000E+00
 0.0000000000000E+00
 0.0000000000000E+00
 0.0000000000000E+00
 0.0000000000000E+00
 0.0000000000000E+00
 0.0000000000000E+00
 0.0000000000000E+00
 0.0000000000000E+00
 0.0000000000000E+00
 0.0000000000000E+00
 0.0000000000000E+00
 0.0000000000000E+00
 0.0000000000000E+00
 0.0000000000000E+00
 0.0000000000000E+00
 0.0000000000000E+00
 0.0000000000000E+00
 0.0000000000000E+00
 0.0000000000000E+00
 0.0000000000000E+00
 0.0000000000000E+00
 0.0000000000000E+00
 0.0000000000000E+00
 0.0000000000000E+00
 0.0000000000000E+00
 0.0000000000000E+00
 0.0000000000000E+00
 0.0000000000000E+00
 0.0000000000000E+00
 0.0000000000000E+00
 0.0000000000000E+00
 0.0000000000000E+00
 0.0000000000000E+00
 0.0000000000000E+00
 0.0000000000000E+00
 0.0000000000000E+00
 0.0000000000000E+00
 0.0000000000000E+00
 0.0000000000000E+00
 0.0000000000000E+00
 0.0000000000000E+00
 0.0000000000000E+00
 0.0000000000000E+00
 0.0000000000000E+00
 0.0000000000000E+00
 0.0000000000000E+00
 0.0000000000000E+00
 0.0000000000000E+00
 0.0000000000000E+00
 0.0000000000000E+00
 0.0000000000000E+00
 0.0000000000000E+00
 0.0000000000000E+00
 0.0000000000000E+00
 0.0000000000000E+00
 0.0000000000000E+00
 0.0000000000000E+00
 0.0000000000000E+00
 0.0000000000000E+00
 0.0000000000000E+00
 0.0000000000000E+00
 0.0000000000000E+00
 0.0000000000000E+00
 0.0000000000000E+00
 0.0000000000000E+00
 0.0000000000000E+00
 0.0000000000000E+00
 0.0000000000000E+00
 0.0000000000000E+00
 0.0000000000000E+00
 0.0000000000000E+00
 0.0000000000000E+00
 0.0000000000000E+00
 0.0000000000000E+00
 0.0000000000000E+00
 0.0000000000000E+00
 0.0000000000000E+00
 0.0000000000000E+00
 0.0000000000000E+00
 0.0000000000000E+00
 0.0000000000000E+00
 0.0000000000000E+00
 0.0000000000000E+00
 0.0000000000000E+00
 0.0000000000000E+00
 0.0000000000000E+00
 0.0000000000000E+00
 0.0000000000000E+00
 0.0000000000000E+00
 0.0000000000000E+00
 0.0000000000000E+00
 0.0000000000000E+00
 0.0000000000000E+00
 0.0000000000000E+00
 0.0000000000000E+00
 0.0000000000000E+00
 0.0000000000000E+00
 0.0000000000000E+00
 0.0000000000000E+00
 0.0000000000000E+00
 0.0000000000000E+00
 0.0000000000000E+00
 0.0000000000000E+00
 0.0000000000000E+00
 0.0000000000000E+00
 0.0000000000000E+00
 0.0000000000000E+00
 0.0000000000000E+00
 0.0000000000000E+00
 0.0000000000000E+00
 0.0000000000000E+00
 0.0000000000000E+00
 0.0000000000000E+00
 0.0000000000000E+00
 0.0000000000000E+00
 0.0000000000000E+00
 0.0000000000000E+00
 0.0000000000000E+00
 0.0000000000000E+00
 0.0000000000000E+00
 0.0000000000000E+00
 0.0000000000000E+00
 0.0000000000000E+00
 0.0000000000000E+00
 0.0000000000000E+00
 0.0000000000000E+00
 0.0000000000000E+00
 0.0000000000000E+00
 0.0000000000000E+00
 0.0000000000000E+00
 0.0000000000000E+00
 0.0000000000000E+00
 0.0000000000000E+00
 0.0000000000000E+00
 0.0000000000000E+00
 0.0000000000000E+00
 0.0000000000000E+00
 0.0000000000000E+00
 0.0000000000000E+00
 0.0000000000000E+00
 0.0000000000000E+00
 0.0000000000000E+00
 0.0000000000000E+00
 0.0000000000000E+00
 0.0000000000000E+00
 0.0000000000000E+00
 0.0000000000000E+00
 0.0000000000000E+00
 0.0000000000000E+00
 0.0000000000000E+00
 0.0000000000000E+00
 0.0000000000000E+00
 0.0000000000000E+00
 0.0000000000000E+00
 0.0000000000000E+00
 0.0000000000000E+00
 0.0000000000000E+00
 0.0000000000000E+00
 0.0000000000000E+00
 0.0000000000000E+00
 0.0000000000000E+00
 0.0000000000000E+00
 0.0000000000000E+00
 0.0000000000000E+00
 0.0000000000000E+00
 0.0000000000000E+00
 0.0000000000000E+00
 0.0000000000000E+00
 0.0000000000000E+00
 0.0000000000000E+00
 0.0000000000000E+00
 0.0000000000000E+00
 0.0000000000000E+00
 0.0000000000000E+00
 0.0000000000000E+00
 0.0000000000000E+00
 0.0000000000000E+00
 0.0000000000000E+00
 0.0000000000000E+00
 0.0000000000000E+00
 0.0000000000000E+00
 0.0000000000000E+00
 0.0000000000000E+00
 0.0000000000000E+00
 0.0000000000000E+00
 0.0000000000000E+00
 0.0000000000000E+00
 0.0000000000000E+00
 0.0000000000000E+00
 0.0000000000000E+00
 0.0000000000000E+00
 0.0000000000000E+00
 0.0000000000000E+00
 0.0000000000000E+00
 0.0000000000000E+00
 0.0000000000000E+00
 0.0000000000000E+00
 0.0000000000000E+00
 0.0000000000000E+00
 0.0000000000000E+00
 0.0000000000000E+00
 0.0000000000000E+00
 0.0000000000000E+00
 0.0000000000000E+00
 0.0000000000000E+00
 0.0000000000000E+00
 0.0000000000000E+00
 0.0000000000000E+00
 0.0000000000000E+00
 0.0000000000000E+00
 0.0000000000000E+00
 0.0000000000000E+00
 0.0000000000000E+00
 0.0000000000000E+00
 0.0000000000000E+00
 0.0000000000000E+00
 0.0000000000000E+00
 0.0000000000000E+00
 0.0000000000000E+00
 0.0000000000000E+00
 0.0000000000000E+00
 0.0000000000000E+00
 0.0000000000000E+00
 0.0000000000000E+00
 0.0000000000000E+00
 0.0000000000000E+00
 0.0000000000000E+00
 0.0000000000000E+00
 0.0000000000000E+00
 0.0000000000000E+00
 0.0000000000000E+00
 0.0000000000000E+00
 0.0000000000000E+00
 0.0000000000000E+00
 0.0000000000000E+00
 0.0000000000000E+00
 0.0000000000000E+00
 0.0000000000000E+00
 0.0000000000000E+00
 0.0000000000000E+00
 0.0000000000000E+00
 0.0000000000000E+00
 0.0000000000000E+00
 0.0000000000000E+00
 0.0000000000000E+00
 0.0000000000000E+00
 0.0000000000000E+00
 0.0000000000000E+00
 0.0000000000000E+00
 0.0000000000000E+00
 0.0000000000000E+00
 0.0000000000000E+00
 0.0000000000000E+00
 0.0000000000000E+00
 0.0000000000000E+00
 0.0000000000000E+00
 0.0000000000000E+00
 0.0000000000000E+00
 0.0000000000000E+00
 0.0000000000000E+00
 0.0000000000000E+00
 0.0000000000000E+00
 0.0000000000000E+00
 0.0000000000000E+00
 0.0000000000000E+00
 0.0000000000000E+00
 0.0000000000000E+00
 0.0000000000000E+00
 0.0000000000000E+00
 0.0000000000000E+00
 0.0000000000000E+00
 0.0000000000000E+00
 0.0000000000000E+00
 0.0000000000000E+00
 0.0000000000000E+00
 0.0000000000000E+00
 0.0000000000000E+00
 0.0000000000000E+00
 0.0000000000000E+00
 0.0000000000000E+00
 0.0000000000000E+00
 0.0000000000000E+00
 0.0000000000000E+00
 0.0000000000000E+00
 0.0000000000000E+00
 0.0000000000000E+00
 0.0000000000000E+00
 0.0000000000000E+00
 0.0000000000000E+00
 0.0000000000000E+00
 0.0000000000000E+00
 0.0000000000000E+00
 0.0000000000000E+00
 0.0000000000000E+00
 0.0000000000000E+00
 0.0000000000000E+00
 0.0000000000000E+00
 0.0000000000000E+00
 0.0000000000000E+00
 0.0000000000000E+00
 0.0000000000000E+00
 0.0000000000000E+00
 0.0000000000000E+00
 0.0000000000000E+00
 0.0000000000000E+00
 0.0000000000000E+00
 0.0000000000000E+00
 0.0000000000000E+00
 0.0000000000000E+00
 0.0000000000000E+00
 0.0000000000000E+00
 0.0000000000000E+00
 0.0000000000000E+00
 0.0000000000000E+00
 0.0000000000000E+00
 0.0000000000000E+00
 0.0000000000000E+00
 0.0000000000000E+00
 0.0000000000000E+00
 0.0000000000000E+00
 0.0000000000000E+00
 0.0000000000000E+00
 0.0000000000000E+00
 0.0000000000000E+00
 0.0000000000000E+00
 0.0000000000000E+00
 0.0000000000000E+00
 0.0000000000000E+00
 0.0000000000000E+00
 0.0000000000000E+00
 0.0000000000000E+00
 0.0000000000000E+00
 0.0000000000000E+00
 0.0000000000000E+00
 0.0000000000000E+00
 0.0000000000000E+00
 0.0000000000000E+00
 0.0000000000000E+00
 0.0000000000000E+00
 0.0000000000000E+00
 0.0000000000000E+00
 0.0000000000000E+00
 0.0000000000000E+00
 0.0000000000000E+00
 0.0000000000000E+00
 0.0000000000000E+00
 0.0000000000000E+00
 0.0000000000000E+00
 0.0000000000000E+00
 0.0000000000000E+00
 0.0000000000000E+00
 0.0000000000000E+00
 0.0000000000000E+00
 0.0000000000000E+00
 0.0000000000000E+00
 0.0000000000000E+00
 0.0000000000000E+00
 0.0000000000000E+00
 0.0000000000000E+00
 0.0000000000000E+00
 0.0000000000000E+00
 0.0000000000000E+00
 0.0000000000000E+00
 0.0000000000000E+00
 0.0000000000000E+00
 0.0000000000000E+00
 0.0000000000000E+00
 0.0000000000000E+00
 0.0000000000000E+00
 0.0000000000000E+00
 0.0000000000000E+00
 0.0000000000000E+00
 0.0000000000000E+00
 0.0000000000000E+00
 0.0000000000000E+00
 0.0000000000000E+00
 0.0000000000000E+00
 0.0000000000000E+00
 0.0000000000000E+00
 0.0000000000000E+00
 0.0000000000000E+00
 0.0000000000000E+00
 0.0000000000000E+00
 0.0000000000000E+00
 0.0000000000000E+00
 0.0000000000000E+00
 0.0000000000000E+00
 0.0000000000000E+00
 0.0000000000000E+00
 0.0000000000000E+00
 0.0000000000000E+00
 0.0000000000000E+00
 0.0000000000000E+00
 0.0000000000000E+00
 0.0000000000000E+00
 0.0000000000000E+00
 0.0000000000000E+00
 0.0000000000000E+00
 0.0000000000000E+00
 0.0000000000000E+00
 0.0000000000000E+00
 0.0000000000000E+00
 0.0000000000000E+00
 0.0000000000000E+00
 0.0000000000000E+00
 0.0000000000000E+00
 0.0000000000000E+00
 0.0000000000000E+00
 0.0000000000000E+00
 0.0000000000000E+00
 0.0000000000000E+00
 0.0000000000000E+00
 0.0000000000000E+00
 0.0000000000000E+00
 0.0000000000000E+00
 0.0000000000000E+00
 0.0000000000000E+00
 0.0000000000000E+00
 0.0000000000000E+00
 0.0000000000000E+00
 0.0000000000000E+00
 0.0000000000000E+00
 0.0000000000000E+00
 0.0000000000000E+00
 0.0000000000000E+00
 0.0000000000000E+00
 0.0000000000000E+00
 0.0000000000000E+00
 0.0000000000000E+00
 0.0000000000000E+00
 0.0000000000000E+00
 0.0000000000000E+00
 0.0000000000000E+00
 0.0000000000000E+00
 0.0000000000000E+00
 0.0000000000000E+00
 0.0000000000000E+00
 0.0000000000000E+00
 0.0000000000000E+00
 0.0000000000000E+00
 0.0000000000000E+00
 0.0000000000000E+00
 0.0000000000000E+00
 0.0000000000000E+00
 0.0000000000000E+00
 0.0000000000000E+00
 0.0000000000000E+00
 0.0000000000000E+00
 0.0000000000000E+00
 0.0000000000000E+00
 0.0000000000000E+00
 0.0000000000000E+00
 0.0000000000000E+00
 0.0000000000000E+00
 0.0000000000000E+00
 0.0000000000000E+00
 0.0000000000000E+00
 0.0000000000000E+00
 0.0000000000000E+00
 0.0000000000000E+00
 0.0000000000000E+00
 0.0000000000000E+00
 0.0000000000000E+00
 0.0000000000000E+00
 0.0000000000000E+00
 0.0000000000000E+00
 0.0000000000000E+00
 0.0000000000000E+00
 0.0000000000000E+00
 0.0000000000000E+00
 0.0000000000000E+00
 0.0000000000000E+00
 0.0000000000000E+00
 0.0000000000000E+00
 0.0000000000000E+00
 0.0000000000000E+00
 0.0000000000000E+00
 0.0000000000000E+00
 0.0000000000000E+00
 0.0000000000000E+00
 0.0000000000000E+00
 0.0000000000000E+00
 0.0000000000000E+00
 0.0000000000000E+00
 0.0000000000000E+00
 0.0000000000000E+00
 0.0000000000000E+00
 0.0000000000000E+00
 0.0000000000000E+00
 0.0000000000000E+00
 0.0000000000000E+00
 0.0000000000000E+00
 0.0000000000000E+00
 0.0000000000000E+00
 0.0000000000000E+00
 0.0000000000000E+00
 0.0000000000000E+00
 0.0000000000000E+00
 0.0000000000000E+00
 0.0000000000000E+00
 0.0000000000000E+00
 0.0000000000000E+00
 0.0000000000000E+00
 0.0000000000000E+00
 0.0000000000000E+00
 0.0000000000000E+00
 0.0000000000000E+00
 0.0000000000000E+00
 0.0000000000000E+00
 0.0000000000000E+00
 0.0000000000000E+00
 0.0000000000000E+00
 0.0000000000000E+00
 0.0000000000000E+00
 0.0000000000000E+00
 0.0000000000000E+00
 0.0000000000000E+00
 0.0000000000000E+00
 0.0000000000000E+00
 0.0000000000000E+00
 0.0000000000000E+00
 0.0000000000000E+00
 0.0000000000000E+00
 0.0000000000000E+00
 0.0000000000000E+00
 0.0000000000000E+00
 0.0000000000000E+00
 0.0000000000000E+00
 0.0000000000000E+00
 0.0000000000000E+00
 0.0000000000000E+00
 0.0000000000000E+00
 0.0000000000000E+00
 0.0000000000000E+00
 0.0000000000000E+00
 0.0000000000000E+00
 0.0000000000000E+00
 0.0000000000000E+00
 0.0000000000000E+00
 0.0000000000000E+00
 0.0000000000000E+00
 0.0000000000000E+00
 0.0000000000000E+00
 0.0000000000000E+00
 0.0000000000000E+00
 0.0000000000000E+00
 0.0000000000000E+00
 0.0000000000000E+00
 0.0000000000000E+00
 0.0000000000000E+00
 0.0000000000000E+00
 0.0000000000000E+00
 0.0000000000000E+00
 0.0000000000000E+00
 0.0000000000000E+00
 0.0000000000000E+00
 0.0000000000000E+00
 0.0000000000000E+00
 0.0000000000000E+00
 0.0000000000000E+00
 0.0000000000000E+00
 0.0000000000000E+00
 0.0000000000000E+00
 0.0000000000000E+00
 0.0000000000000E+00
 0.0000000000000E+00
 0.0000000000000E+00
 0.0000000000000E+00
 0.0000000000000E+00
 0.0000000000000E+00
 0.0000000000000E+00
 0.0000000000000E+00
 0.0000000000000E+00
 0.0000000000000E+00
 0.0000000000000E+00
 0.0000000000000E+00
 0.0000000000000E+00
 0.0000000000000E+00
 0.0000000000000E+00
 0.0000000000000E+00
 0.0000000000000E+00
 0.0000000000000E+00
 0.0000000000000E+00
 0.0000000000000E+00
 0.0000000000000E+00
 0.0000000000000E+00
 0.0000000000000E+00
 0.0000000000000E+00
 0.0000000000000E+00
 0.0000000000000E+00
 0.0000000000000E+00
 0.0000000000000E+00
 0.0000000000000E+00
 0.0000000000000E+00
 0.0000000000000E+00
 0.0000000000000E+00
 0.0000000000000E+00
 0.0000000000000E+00
 0.0000000000000E+00
 0.0000000000000E+00
 0.0000000000000E+00
 0.0000000000000E+00
 0.0000000000000E+00
 0.0000000000000E+00
 0.0000000000000E+00
 0.0000000000000E+00
 0.0000000000000E+00
 0.0000000000000E+00
 0.0000000000000E+00
 0.0000000000000E+00
 0.0000000000000E+00
 0.0000000000000E+00
 0.0000000000000E+00
 0.0000000000000E+00
 0.0000000000000E+00
 0.0000000000000E+00
 0.0000000000000E+00
 0.0000000000000E+00
 0.0000000000000E+00
 0.0000000000000E+00
 0.0000000000000E+00
 0.0000000000000E+00
 0.0000000000000E+00
 0.0000000000000E+00
 0.0000000000000E+00
 0.0000000000000E+00
 0.0000000000000E+00
 0.0000000000000E+00
 0.0000000000000E+00
 0.0000000000000E+00
 0.0000000000000E+00
 0.0000000000000E+00
 0.0000000000000E+00
 0.0000000000000E+00
 0.0000000000000E+00
 0.0000000000000E+00
 0.0000000000000E+00
 0.0000000000000E+00
 0.0000000000000E+00
 0.0000000000000E+00
 0.0000000000000E+00
 0.0000000000000E+00
 0.0000000000000E+00
 0.0000000000000E+00
 0.0000000000000E+00
 0.0000000000000E+00
 0.0000000000000E+00
 0.0000000000000E+00
 0.0000000000000E+00
 0.0000000000000E+00
 0.0000000000000E+00
 0.0000000000000E+00
 0.0000000000000E+00
 0.0000000000000E+00
 0.0000000000000E+00
 0.0000000000000E+00
 0.0000000000000E+00
 0.0000000000000E+00
 0.0000000000000E+00
 0.0000000000000E+00
 0.0000000000000E+00
 0.0000000000000E+00
 0.0000000000000E+00
 0.0000000000000E+00
 0.0000000000000E+00
 0.0000000000000E+00
 0.0000000000000E+00
 0.0000000000000E+00
 0.0000000000000E+00
 0.0000000000000E+00
 0.0000000000000E+00
 0.0000000000000E+00
 0.0000000000000E+00
 0.0000000000000E+00
 0.0000000000000E+00
 0.0000000000000E+00
 0.0000000000000E+00
 0.0000000000000E+00
 0.0000000000000E+00
 0.0000000000000E+00
 0.0000000000000E+00
 0.0000000000000E+00
 0.0000000000000E+00
 0.0000000000000E+00
 0.0000000000000E+00
 0.0000000000000E+00
 0.0000000000000E+00
 0.0000000000000E+00
 0.0000000000000E+00
 0.0000000000000E+00
 0.0000000000000E+00
 0.0000000000000E+00
 0.0000000000000E+00
 0.0000000000000E+00
 0.0000000000000E+00
 0.0000000000000E+00
 0.0000000000000E+00
 0.0000000000000E+00
 0.0000000000000E+00
 0.0000000000000E+00
 0.0000000000000E+00
 0.0000000000000E+00
 0.0000000000000E+00
 0.0000000000000E+00
 0.0000000000000E+00
 0.0000000000000E+00
 0.0000000000000E+00
 0.0000000000000E+00
 0.0000000000000E+00
 0.0000000000000E+00
 0.0000000000000E+00
 0.0000000000000E+00
 0.0000000000000E+00
 0.0000000000000E+00
 0.0000000000000E+00
 0.0000000000000E+00
 0.0000000000000E+00
 0.0000000000000E+00
 0.0000000000000E+00
 0.0000000000000E+00
 0.0000000000000E+00
 0.0000000000000E+00
 0.0000000000000E+00
 0.0000000000000E+00
 0.0000000000000E+00
 0.0000000000000E+00
 0.0000000000000E+00
 0.0000000000000E+00
 0.0000000000000E+00
 0.0000000000000E+00
 0.0000000000000E+00
 0.0000000000000E+00
 0.0000000000000E+00
 0.0000000000000E+00
 0.0000000000000E+00
 0.0000000000000E+00
 0.0000000000000E+00
 0.0000000000000E+00
 0.0000000000000E+00
 0.0000000000000E+00
 0.0000000000000E+00
 0.0000000000000E+00
 0.0000000000000E+00
 0.0000000000000E+00
 0.0000000000000E+00
 0.0000000000000E+00
 0.0000000000000E+00
 0.0000000000000E+00
 0.0000000000000E+00
 0.0000000000000E+00
 0.0000000000000E+00
 0.0000000000000E+00
 0.0000000000000E+00
 0.0000000000000E+00
 0.0000000000000E+00
 0.0000000000000E+00
 0.0000000000000E+00
 0.0000000000000E+00
 0.0000000000000E+00
 0.0000000000000E+00
 0.0000000000000E+00
 0.0000000000000E+00
 0.0000000000000E+00
 0.0000000000000E+00
 0.0000000000000E+00
 0.0000000000000E+00
 0.0000000000000E+00
 0.0000000000000E+00
 0.0000000000000E+00
 0.0000000000000E+00
 0.0000000000000E+00
 0.0000000000000E+00
 0.0000000000000E+00
 0.0000000000000E+00
 0.0000000000000E+00
 0.0000000000000E+00
 0.0000000000000E+00
 0.0000000000000E+00
 0.0000000000000E+00
 0.0000000000000E+00
 0.0000000000000E+00
 0.0000000000000E+00
 0.0000000000000E+00
 0.0000000000000E+00
 0.0000000000000E+00
 0.0000000000000E+00
 0.0000000000000E+00
 0.0000000000000E+00
 0.0000000000000E+00
 0.0000000000000E+00
 0.0000000000000E+00
 0.0000000000000E+00
 0.0000000000000E+00
 0.0000000000000E+00
 0.0000000000000E+00
 0.0000000000000E+00
 0.0000000000000E+00
 0.0000000000000E+00
 0.0000000000000E+00
 0.0000000000000E+00
 0.0000000000000E+00
 0.0000000000000E+00
 0.0000000000000E+00
 0.0000000000000E+00
 0.0000000000000E+00
 0.0000000000000E+00
 0.0000000000000E+00
 0.0000000000000E+00
 0.0000000000000E+00
 0.0000000000000E+00
 0.0000000000000E+00
 0.0000000000000E+00
 0.0000000000000E+00
 0.0000000000000E+00
 0.0000000000000E+00
 0.0000000000000E+00
 0.0000000000000E+00
 0.0000000000000E+00
 0.0000000000000E+00
 0.0000000000000E+00
 0.0000000000000E+00
 0.0000000000000E+00
 0.0000000000000E+00
 0.0000000000000E+00
 0.0000000000000E+00
 0.0000000000000E+00
 0.0000000000000E+00
 0.0000000000000E+00
 0.0000000000000E+00
 0.0000000000000E+00
 0.0000000000000E+00
 0.0000000000000E+00
 0.0000000000000E+00
 0.0000000000000E+00
 0.0000000000000E+00
 0.0000000000000E+00
 0.0000000000000E+00
 0.0000000000000E+00
 0.0000000000000E+00
 0.0000000000000E+00
 0.0000000000000E+00
 0.0000000000000E+00
 0.0000000000000E+00
 0.0000000000000E+00
 0.0000000000000E+00
 0.0000000000000E+00
 0.0000000000000E+00
 0.0000000000000E+00
 0.0000000000000E+00
 0.0000000000000E+00
 0.0000000000000E+00
 0.0000000000000E+00
 0.0000000000000E+00
 0.0000000000000E+00
 0.0000000000000E+00
 0.0000000000000E+00
 0.0000000000000E+00
 0.0000000000000E+00
 0.0000000000000E+00
 0.0000000000000E+00
 0.0000000000000E+00
 0.0000000000000E+00
 0.0000000000000E+00
 0.0000000000000E+00
 0.0000000000000E+00
 0.0000000000000E+00
 0.0000000000000E+00
 0.0000000000000E+00
 0.0000000000000E+00
 0.0000000000000E+00
 0.0000000000000E+00
 0.0000000000000E+00
 0.0000000000000E+00
 0.0000000000000E+00
 0.0000000000000E+00
 0.0000000000000E+00
 0.0000000000000E+00
 0.0000000000000E+00
 0.0000000000000E+00
 0.0000000000000E+00
 0.0000000000000E+00
 0.0000000000000E+00
 0.0000000000000E+00
 0.0000000000000E+00
 0.0000000000000E+00
 0.0000000000000E+00
 0.0000000000000E+00
 0.0000000000000E+00
 0.0000000000000E+00
 0.0000000000000E+00
 0.0000000000000E+00
 0.0000000000000E+00
 0.0000000000000E+00
 0.0000000000000E+00
 0.0000000000000E+00
 0.0000000000000E+00
 0.0000000000000E+00
 0.0000000000000E+00
 0.0000000000000E+00
 0.0000000000000E+00
 0.0000000000000E+00
 0.0000000000000E+00
 0.0000000000000E+00
 0.0000000000000E+00
 0.0000000000000E+00
 0.0000000000000E+00
 0.0000000000000E+00
 0.0000000000000E+00
 0.0000000000000E+00
 0.0000000000000E+00
 0.0000000000000E+00
 0.0000000000000E+00
 0.0000000000000E+00
 0.0000000000000E+00
 0.0000000000000E+00
 0.0000000000000E+00
 0.0000000000000E+00
 0.0000000000000E+00
 0.0000000000000E+00
 0.0000000000000E+00
 0.0000000000000E+00
 0.0000000000000E+00
 0.0000000000000E+00
 0.0000000000000E+00
 0.0000000000000E+00
 0.0000000000000E+00
 0.0000000000000E+00
 0.0000000000000E+00
 0.0000000000000E+00
 0.0000000000000E+00
 0.0000000000000E+00
 0.0000000000000E+00
 0.0000000000000E+00
 0.0000000000000E+00
 0.0000000000000E+00
 0.0000000000000E+00
 0.0000000000000E+00
 0.0000000000000E+00
 0.0000000000000E+00
 0.0000000000000E+00
 0.0000000000000E+00
 0.0000000000000E+00
 0.0000000000000E+00
 0.0000000000000E+00
 0.0000000000000E+00
 0.0000000000000E+00
 0.0000000000000E+00
 0.0000000000000E+00
 0.0000000000000E+00
 0.0000000000000E+00
 0.0000000000000E+00
 0.0000000000000E+00
 0.0000000000000E+00
 0.0000000000000E+00
 0.0000000000000E+00
 0.0000000000000E+00
 0.0000000000000E+00
 0.0000000000000E+00
 0.0000000000000E+00
 0.0000000000000E+00
 0.0000000000000E+00
 0.0000000000000E+00
 0.0000000000000E+00
 0.0000000000000E+00
 0.0000000000000E+00
 0.0000000000000E+00
 0.0000000000000E+00
 0.0000000000000E+00
 0.0000000000000E+00
 0.0000000000000E+00
 0.0000000000000E+00
 0.0000000000000E+00
 0.0000000000000E+00
 0.0000000000000E+00
 0.0000000000000E+00
 0.0000000000000E+00
 0.0000000000000E+00
 0.0000000000000E+00
 0.0000000000000E+00
 0.0000000000000E+00
 0.0000000000000E+00
 0.0000000000000E+00
 0.0000000000000E+00
 0.0000000000000E+00
 0.0000000000000E+00
 0.0000000000000E+00
 0.0000000000000E+00
 0.0000000000000E+00
 0.0000000000000E+00
 0.0000000000000E+00
 0.0000000000000E+00
 0.0000000000000E+00
 0.0000000000000E+00
 0.0000000000000E+00
 0.0000000000000E+00
 0.0000000000000E+00
 0.0000000000000E+00
 0.0000000000000E+00
 0.0000000000000E+00
 0.0000000000000E+00
 0.0000000000000E+00
 0.0000000000000E+00
 0.0000000000000E+00
 0.0000000000000E+00
 0.0000000000000E+00
 0.0000000000000E+00
 0.0000000000000E+00
 0.0000000000000E+00
 0.0000000000000E+00
 0.0000000000000E+00
 0.0000000000000E+00
 0.0000000000000E+00
 0.0000000000000E+00
 0.0000000000000E+00
 0.0000000000000E+00
 0.0000000000000E+00
 0.0000000000000E+00
 0.0000000000000E+00
 0.0000000000000E+00
 0.0000000000000E+00
 0.0000000000000E+00
 0.0000000000000E+00
 0.0000000000000E+00
 0.0000000000000E+00
 0.0000000000000E+00
 0.0000000000000E+00
 0.0000000000000E+00
 0.0000000000000E+00
 0.0000000000000E+00
 0.0000000000000E+00
 0.0000000000000E+00
 0.0000000000000E+00
 0.0000000000000E+00
 0.0000000000000E+00
 0.0000000000000E+00
 0.0000000000000E+00
 0.0000000000000E+00
 0.0000000000000E+00
 0.0000000000000E+00
 0.0000000000000E+00
 0.0000000000000E+00
 0.0000000000000E+00
 0.0000000000000E+00
 0.0000000000000E+00
 0.0000000000000E+00
 0.0000000000000E+00
 0.0000000000000E+00
 0.0000000000000E+00
 0.0000000000000E+00
 0.0000000000000E+00
 0.0000000000000E+00
 0.0000000000000E+00
 0.0000000000000E+00
 0.0000000000000E+00
 0.0000000000000E+00
 0.0000000000000E+00
 0.0000000000000E+00
 0.0000000000000E+00
 0.0000000000000E+00
 0.0000000000000E+00
 0.0000000000000E+00
 0.0000000000000E+00
 0.0000000000000E+00
 0.0000000000000E+00
 0.0000000000000E+00
 0.0000000000000E+00
 0.0000000000000E+00
 0.0000000000000E+00
 0.0000000000000E+00
 0.0000000000000E+00
 0.0000000000000E+00
 0.0000000000000E+00
 0.0000000000000E+00
 0.0000000000000E+00
 0.0000000000000E+00
 0.0000000000000E+00
 0.0000000000000E+00
 0.0000000000000E+00
 0.0000000000000E+00
 0.0000000000000E+00
 0.0000000000000E+00
 0.0000000000000E+00
 0.0000000000000E+00
 0.0000000000000E+00
 0.0000000000000E+00
 0.0000000000000E+00
 0.0000000000000E+00
 0.0000000000000E+00
 0.0000000000000E+00
 0.0000000000000E+00
 0.0000000000000E+00
 0.0000000000000E+00
 0.0000000000000E+00
 0.0000000000000E+00
 0.0000000000000E+00
 0.0000000000000E+00
 0.0000000000000E+00
 0.0000000000000E+00
 0.0000000000000E+00
 0.0000000000000E+00
 0.0000000000000E+00
 0.0000000000000E+00
 0.0000000000000E+00
 0.0000000000000E+00
 0.0000000000000E+00
 0.0000000000000E+00
 0.0000000000000E+00
 0.0000000000000E+00
 0.0000000000000E+00
 0.0000000000000E+00
 0.0000000000000E+00
 0.0000000000000E+00
 0.0000000000000E+00
 0.0000000000000E+00
 0.0000000000000E+00
 0.0000000000000E+00
 0.0000000000000E+00
 0.0000000000000E+00
 0.0000000000000E+00
 0.0000000000000E+00
 0.0000000000000E+00
 0.0000000000000E+00
 0.0000000000000E+00
 0.0000000000000E+00
 0.0000000000000E+00
 0.0000000000000E+00
 0.0000000000000E+00
 0.0000000000000E+00
 0.0000000000000E+00
 0.0000000000000E+00
 0.0000000000000E+00
 0.0000000000000E+00
 0.0000000000000E+00
 0.0000000000000E+00
 0.0000000000000E+00
 0.0000000000000E+00
 0.0000000000000E+00
 0.0000000000000E+00
 0.0000000000000E+00
 0.0000000000000E+00
 0.0000000000000E+00
 0.0000000000000E+00
 0.0000000000000E+00
 0.0000000000000E+00
 0.0000000000000E+00
 0.0000000000000E+00
 0.0000000000000E+00
 0.0000000000000E+00
 0.0000000000000E+00
 0.0000000000000E+00
 0.0000000000000E+00
 0.0000000000000E+00
 0.0000000000000E+00
 0.0000000000000E+00
 0.0000000000000E+00
 0.0000000000000E+00
 0.0000000000000E+00
 0.0000000000000E+00
 0.0000000000000E+00
 0.0000000000000E+00
 0.0000000000000E+00
 0.0000000000000E+00
 0.0000000000000E+00
 0.0000000000000E+00
 0.0000000000000E+00
 0.0000000000000E+00
 0.0000000000000E+00
 0.0000000000000E+00
 0.0000000000000E+00
 0.0000000000000E+00
 0.0000000000000E+00
 0.0000000000000E+00
 0.0000000000000E+00
 0.0000000000000E+00
 0.0000000000000E+00
 0.0000000000000E+00
 0.0000000000000E+00
 0.0000000000000E+00
 0.0000000000000E+00
 0.0000000000000E+00
 0.0000000000000E+00
 0.0000000000000E+00
 0.0000000000000E+00
 0.0000000000000E+00
 0.0000000000000E+00
 0.0000000000000E+00
 0.0000000000000E+00
 0.0000000000000E+00
 0.0000000000000E+00
 0.0000000000000E+00
 0.0000000000000E+00
 0.0000000000000E+00
 0.0000000000000E+00
 0.0000000000000E+00
 0.0000000000000E+00
 0.0000000000000E+00
 0.0000000000000E+00
 0.0000000000000E+00
 0.0000000000000E+00
 0.0000000000000E+00
 0.0000000000000E+00
 0.0000000000000E+00
 0.0000000000000E+00
 0.0000000000000E+00
 0.0000000000000E+00
 0.0000000000000E+00
 0.0000000000000E+00
 0.0000000000000E+00
 0.0000000000000E+00
 0.0000000000000E+00
 0.0000000000000E+00
 0.0000000000000E+00
 0.0000000000000E+00
 0.0000000000000E+00
 0.0000000000000E+00
 0.0000000000000E+00
 0.0000000000000E+00
 0.0000000000000E+00
 0.0000000000000E+00
 0.0000000000000E+00
 0.0000000000000E+00
 0.0000000000000E+00
 0.0000000000000E+00
 0.0000000000000E+00
 0.0000000000000E+00
 0.0000000000000E+00
 0.0000000000000E+00
 0.0000000000000E+00
 0.0000000000000E+00
 0.0000000000000E+00
 0.0000000000000E+00
 0.0000000000000E+00
 0.0000000000000E+00
 0.0000000000000E+00
 0.0000000000000E+00
 0.0000000000000E+00
 0.0000000000000E+00
 0.0000000000000E+00
 0.0000000000000E+00
 0.0000000000000E+00
 0.0000000000000E+00
 0.0000000000000E+00
 0.0000000000000E+00
 0.0000000000000E+00
 0.0000000000000E+00
 0.0000000000000E+00
 0.0000000000000E+00
 0.0000000000000E+00
 0.0000000000000E+00
 0.0000000000000E+00
 0.0000000000000E+00
 0.0000000000000E+00
 0.0000000000000E+00
 0.0000000000000E+00
 0.0000000000000E+00
 0.0000000000000E+00
 0.0000000000000E+00
 0.0000000000000E+00
 0.0000000000000E+00
 0.0000000000000E+00
 0.0000000000000E+00
 0.0000000000000E+00
 0.0000000000000E+00
 0.0000000000000E+00
 0.0000000000000E+00
 0.0000000000000E+00
 0.0000000000000E+00
 0.0000000000000E+00
 0.0000000000000E+00
 0.0000000000000E+00
 0.0000000000000E+00
 0.0000000000000E+00
 0.0000000000000E+00
 0.0000000000000E+00
 0.0000000000000E+00
 0.0000000000000E+00
 0.0000000000000E+00
 0.0000000000000E+00
 0.0000000000000E+00
 0.0000000000000E+00
 0.0000000000000E+00
 0.0000000000000E+00
 0.0000000000000E+00
 0.0000000000000E+00
 0.0000000000000E+00
 0.0000000000000E+00
 0.0000000000000E+00
 0.0000000000000E+00
 0.0000000000000E+00
 0.0000000000000E+00
 0.0000000000000E+00
 0.0000000000000E+00
 0.0000000000000E+00
 0.0000000000000E+00
 0.0000000000000E+00
 0.0000000000000E+00
 0.0000000000000E+00
 0.0000000000000E+00
 0.0000000000000E+00
 0.0000000000000E+00
 0.0000000000000E+00
 0.0000000000000E+00
 0.0000000000000E+00
 0.0000000000000E+00
 0.0000000000000E+00
 0.0000000000000E+00
 0.0000000000000E+00
 0.0000000000000E+00
 0.0000000000000E+00
 0.0000000000000E+00
 0.0000000000000E+00
 0.0000000000000E+00
 0.0000000000000E+00
 0.0000000000000E+00
 0.0000000000000E+00
 0.0000000000000E+00
 0.0000000000000E+00
 0.0000000000000E+00
 0.0000000000000E+00
 0.0000000000000E+00
 0.0000000000000E+00
 0.0000000000000E+00
 0.0000000000000E+00
 0.0000000000000E+00
 0.0000000000000E+00
 0.0000000000000E+00
 0.0000000000000E+00
 0.0000000000000E+00
 0.0000000000000E+00
 0.0000000000000E+00
 0.0000000000000E+00
 0.0000000000000E+00
 0.0000000000000E+00
 0.0000000000000E+00
 0.0000000000000E+00
 0.0000000000000E+00
 0.0000000000000E+00
 0.0000000000000E+00
 0.0000000000000E+00
 0.0000000000000E+00
 0.0000000000000E+00
 0.0000000000000E+00
 0.0000000000000E+00
 0.0000000000000E+00
 0.0000000000000E+00
 0.0000000000000E+00
 0.0000000000000E+00
 0.0000000000000E+00
 0.0000000000000E+00
 0.0000000000000E+00
 0.0000000000000E+00
 0.0000000000000E+00
 0.0000000000000E+00
 0.0000000000000E+00
 0.0000000000000E+00
 0.0000000000000E+00
 0.0000000000000E+00
 0.0000000000000E+00
 0.0000000000000E+00
 0.0000000000000E+00
 0.0000000000000E+00
 0.0000000000000E+00
 0.0000000000000E+00
 0.0000000000000E+00
 0.0000000000000E+00
 0.0000000000000E+00
 0.0000000000000E+00
 0.0000000000000E+00
 0.0000000000000E+00
 0.0000000000000E+00
 0.0000000000000E+00
 0.0000000000000E+00
 0.0000000000000E+00
 0.0000000000000E+00
 0.0000000000000E+00
 0.0000000000000E+00
 0.0000000000000E+00
 0.0000000000000E+00
 0.0000000000000E+00
 0.0000000000000E+00
 0.0000000000000E+00
 0.0000000000000E+00
 0.0000000000000E+00
 0.0000000000000E+00
 0.0000000000000E+00
 0.0000000000000E+00
 0.0000000000000E+00
 0.0000000000000E+00
 0.0000000000000E+00
 0.0000000000000E+00
 0.0000000000000E+00
 0.0000000000000E+00
 0.0000000000000E+00
 0.0000000000000E+00
 0.0000000000000E+00
 0.0000000000000E+00
 0.0000000000000E+00
 0.0000000000000E+00
 0.0000000000000E+00
 0.0000000000000E+00
 0.0000000000000E+00
 0.0000000000000E+00
 0.0000000000000E+00
 0.0000000000000E+00
 0.0000000000000E+00
 0.0000000000000E+00
 0.0000000000000E+00
 0.0000000000000E+00
 0.0000000000000E+00
 0.0000000000000E+00
 0.0000000000000E+00
 0.0000000000000E+00
 0.0000000000000E+00
 0.0000000000000E+00
 0.0000000000000E+00
 0.0000000000000E+00
 0.0000000000000E+00
 0.0000000000000E+00
 0.0000000000000E+00
 0.0000000000000E+00
 0.0000000000000E+00
 0.0000000000000E+00
 0.0000000000000E+00
 0.0000000000000E+00
 0.0000000000000E+00
 0.0000000000000E+00
 0.0000000000000E+00
 0.0000000000000E+00
 0.0000000000000E+00
 0.0000000000000E+00
 0.0000000000000E+00
 0.0000000000000E+00
 0.0000000000000E+00
 0.0000000000000E+00
 0.0000000000000E+00
 0.0000000000000E+00
 0.0000000000000E+00
 0.0000000000000E+00
 0.0000000000000E+00
 0.0000000000000E+00
 0.0000000000000E+00
 0.0000000000000E+00
 0.0000000000000E+00
 0.0000000000000E+00
 0.0000000000000E+00
 0.0000000000000E+00
 0.0000000000000E+00
 0.0000000000000E+00
 0.0000000000000E+00
 0.0000000000000E+00
 0.0000000000000E+00
 0.0000000000000E+00
 0.0000000000000E+00
 0.0000000000000E+00
 0.0000000000000E+00
 0.0000000000000E+00
 0.0000000000000E+00
 0.0000000000000E+00
 0.0000000000000E+00
 0.0000000000000E+00
 0.0000000000000E+00
 0.0000000000000E+00
 0.0000000000000E+00
 0.0000000000000E+00
 0.0000000000000E+00
 0.0000000000000E+00
 0.0000000000000E+00
 0.0000000000000E+00
 0.0000000000000E+00
 0.0000000000000E+00
 0.0000000000000E+00
 0.0000000000000E+00
 0.0000000000000E+00
 0.0000000000000E+00
 0.0000000000000E+00
 0.0000000000000E+00
 0.0000000000000E+00
 0.0000000000000E+00
 0.0000000000000E+00
 0.0000000000000E+00
 0.0000000000000E+00
 0.0000000000000E+00
 0.0000000000000E+00
 0.0000000000000E+00
 0.0000000000000E+00
 0.0000000000000E+00
 0.0000000000000E+00
 0.0000000000000E+00
 0.0000000000000E+00
 0.0000000000000E+00
 0.0000000000000E+00
 0.0000000000000E+00
 0.0000000000000E+00
 0.0000000000000E+00
 0.0000000000000E+00
 0.0000000000000E+00
 0.0000000000000E+00
 0.0000000000000E+00
 0.0000000000000E+00
 0.0000000000000E+00
 0.0000000000000E+00
 0.0000000000000E+00
 0.0000000000000E+00
 0.0000000000000E+00
 0.0000000000000E+00
 0.0000000000000E+00
 0.0000000000000E+00
 0.0000000000000E+00
 0.0000000000000E+00
 0.0000000000000E+00
 0.0000000000000E+00
 0.0000000000000E+00
 0.0000000000000E+00
 0.0000000000000E+00
 0.0000000000000E+00
 0.0000000000000E+00
 0.0000000000000E+00
 0.0000000000000E+00
 0.0000000000000E+00
 0.0000000000000E+00
 0.0000000000000E+00
 0.0000000000000E+00
 0.0000000000000E+00
 0.0000000000000E+00
 0.0000000000000E+00
 0.0000000000000E+00
 0.0000000000000E+00
 0.0000000000000E+00
 0.0000000000000E+00
 0.0000000000000E+00
 0.0000000000000E+00
 0.0000000000000E+00
 0.0000000000000E+00
 0.0000000000000E+00
 0.0000000000000E+00
 0.0000000000000E+00
 0.0000000000000E+00
 0.0000000000000E+00
 0.0000000000000E+00
 0.0000000000000E+00
 0.0000000000000E+00
 0.0000000000000E+00
 0.0000000000000E+00
 0.0000000000000E+00
 0.0000000000000E+00
 0.0000000000000E+00
 0.0000000000000E+00
 0.0000000000000E+00
 0.0000000000000E+00
 0.0000000000000E+00
 0.0000000000000E+00
 0.0000000000000E+00
 0.0000000000000E+00
 0.0000000000000E+00
 0.0000000000000E+00
 0.0000000000000E+00
 0.0000000000000E+00
 0.0000000000000E+00
 0.0000000000000E+00
 0.0000000000000E+00
 0.0000000000000E+00
 0.0000000000000E+00
 0.0000000000000E+00
 0.0000000000000E+00
 0.0000000000000E+00
 0.0000000000000E+00
 0.0000000000000E+00
 0.0000000000000E+00
 0.0000000000000E+00
 0.0000000000000E+00
 0.0000000000000E+00
 0.0000000000000E+00
 0.0000000000000E+00
 0.0000000000000E+00
 0.0000000000000E+00
 0.0000000000000E+00
 0.0000000000000E+00
 0.0000000000000E+00
 0.0000000000000E+00
 0.0000000000000E+00
 0.0000000000000E+00
 0.0000000000000E+00
 0.0000000000000E+00
 0.0000000000000E+00
 0.0000000000000E+00
 0.0000000000000E+00
 0.0000000000000E+00
 0.0000000000000E+00
 0.0000000000000E+00
 0.0000000000000E+00
 0.0000000000000E+00
 0.0000000000000E+00
 0.0000000000000E+00
 0.0000000000000E+00
 0.0000000000000E+00
 0.0000000000000E+00
 0.0000000000000E+00
 0.0000000000000E+00
 0.0000000000000E+00
 0.0000000000000E+00
 0.0000000000000E+00
 0.0000000000000E+00
 0.0000000000000E+00
 0.0000000000000E+00
 0.0000000000000E+00
 0.0000000000000E+00
 0.0000000000000E+00
 0.0000000000000E+00
 0.0000000000000E+00
 0.0000000000000E+00
 0.0000000000000E+00
 0.0000000000000E+00
 0.0000000000000E+00
 0.0000000000000E+00
 0.0000000000000E+00
 0.0000000000000E+00
 0.0000000000000E+00
 0.0000000000000E+00
 0.0000000000000E+00
 0.0000000000000E+00
 0.0000000000000E+00
 0.0000000000000E+00
 0.0000000000000E+00
 0.0000000000000E+00
 0.0000000000000E+00
 0.0000000000000E+00
 0.0000000000000E+00
 0.0000000000000E+00
 0.0000000000000E+00
 0.0000000000000E+00
 0.0000000000000E+00
 0.0000000000000E+00
 0.0000000000000E+00
 0.0000000000000E+00
 0.0000000000000E+00
 0.0000000000000E+00
 0.0000000000000E+00
 0.0000000000000E+00
 0.0000000000000E+00
 0.0000000000000E+00
 0.0000000000000E+00
 0.0000000000000E+00
 0.0000000000000E+00
 0.0000000000000E+00
 0.0000000000000E+00
 0.0000000000000E+00
 0.0000000000000E+00
 0.0000000000000E+00
 0.0000000000000E+00
 0.0000000000000E+00
 0.0000000000000E+00
 0.0000000000000E+00
 0.0000000000000E+00
 0.0000000000000E+00
 0.0000000000000E+00
 0.0000000000000E+00
 0.0000000000000E+00
 0.0000000000000E+00
 0.0000000000000E+00
 0.0000000000000E+00
 0.0000000000000E+00
 0.0000000000000E+00
 0.0000000000000E+00
 0.0000000000000E+00
 0.0000000000000E+00
 0.0000000000000E+00
 0.0000000000000E+00
 0.0000000000000E+00
 0.0000000000000E+00
 0.0000000000000E+00
 0.0000000000000E+00
 0.0000000000000E+00
 0.0000000000000E+00
 0.0000000000000E+00
 0.0000000000000E+00
 0.0000000000000E+00
 0.0000000000000E+00
 0.0000000000000E+00
 0.0000000000000E+00
 0.0000000000000E+00
 0.0000000000000E+00
 0.0000000000000E+00
 0.0000000000000E+00
 0.0000000000000E+00
 0.0000000000000E+00
 0.0000000000000E+00
 0.0000000000000E+00
 0.0000000000000E+00
 0.0000000000000E+00
 0.0000000000000E+00
 0.0000000000000E+00
 0.0000000000000E+00
 0.0000000000000E+00
 0.0000000000000E+00
 0.0000000000000E+00
 0.0000000000000E+00
 0.0000000000000E+00
 0.0000000000000E+00
 0.0000000000000E+00
 0.0000000000000E+00
 0.0000000000000E+00
 0.0000000000000E+00
 0.0000000000000E+00
 0.0000000000000E+00
 0.0000000000000E+00
 0.0000000000000E+00
 0.0000000000000E+00
 0.0000000000000E+00
 0.0000000000000E+00
 0.0000000000000E+00
 0.0000000000000E+00
 0.0000000000000E+00
 0.0000000000000E+00
 0.0000000000000E+00
 0.0000000000000E+00
 0.0000000000000E+00
 0.0000000000000E+00
 0.0000000000000E+00
 0.0000000000000E+00
 0.0000000000000E+00
 0.0000000000000E+00
 0.0000000000000E+00
 0.0000000000000E+00
 0.0000000000000E+00
 0.0000000000000E+00
 0.0000000000000E+00
 0.0000000000000E+00
 0.0000000000000E+00
 0.0000000000000E+00
 0.0000000000000E+00
 0.0000000000000E+00
 0.0000000000000E+00
 0.0000000000000E+00
 0.0000000000000E+00
 0.0000000000000E+00
 0.0000000000000E+00
 0.0000000000000E+00
 0.0000000000000E+00
 0.0000000000000E+00
 0.0000000000000E+00
 0.0000000000000E+00
 0.0000000000000E+00
 0.0000000000000E+00
 0.0000000000000E+00
 0.0000000000000E+00
 0.0000000000000E+00
 0.0000000000000E+00
 0.0000000000000E+00
 0.0000000000000E+00
 0.0000000000000E+00
 0.0000000000000E+00
 0.0000000000000E+00
 0.0000000000000E+00
 0.0000000000000E+00
 0.0000000000000E+00
 0.0000000000000E+00
 0.0000000000000E+00
 0.0000000000000E+00
 0.0000000000000E+00
 0.0000000000000E+00
 0.0000000000000E+00
 0.0000000000000E+00
 0.0000000000000E+00
 0.0000000000000E+00
 0.0000000000000E+00
 0.0000000000000E+00
 0.0000000000000E+00
 0.0000000000000E+00
 0.0000000000000E+00
 0.0000000000000E+00
 0.0000000000000E+00
 0.0000000000000E+00
 0.0000000000000E+00
 0.0000000000000E+00
 0.0000000000000E+00
 0.0000000000000E+00
 0.0000000000000E+00
 0.0000000000000E+00
 0.0000000000000E+00
 0.0000000000000E+00
 0.0000000000000E+00
 0.0000000000000E+00
 0.0000000000000E+00
 0.0000000000000E+00
 0.0000000000000E+00
 0.0000000000000E+00
 0.0000000000000E+00
 0.0000000000000E+00
 0.0000000000000E+00
 0.0000000000000E+00
 0.0000000000000E+00
 0.0000000000000E+00
 0.0000000000000E+00
 0.0000000000000E+00
 0.0000000000000E+00
 0.0000000000000E+00
 0.0000000000000E+00
 0.0000000000000E+00
 0.0000000000000E+00
 0.0000000000000E+00
 0.0000000000000E+00
 0.0000000000000E+00
 0.0000000000000E+00
 0.0000000000000E+00
 0.0000000000000E+00
 0.0000000000000E+00
 0.0000000000000E+00
 0.0000000000000E+00
 0.0000000000000E+00
 0.0000000000000E+00
 0.0000000000000E+00
 0.0000000000000E+00
 0.0000000000000E+00
 0.0000000000000E+00
 0.0000000000000E+00
 0.0000000000000E+00
 0.0000000000000E+00
 0.0000000000000E+00
 0.0000000000000E+00
 0.0000000000000E+00
 0.0000000000000E+00
 0.0000000000000E+00
 0.0000000000000E+00
 0.0000000000000E+00
 0.0000000000000E+00
 0.0000000000000E+00
 0.0000000000000E+00
 0.0000000000000E+00
 0.0000000000000E+00
 0.0000000000000E+00
 0.0000000000000E+00
 0.0000000000000E+00
 0.0000000000000E+00
 0.0000000000000E+00
 0.0000000000000E+00
 0.0000000000000E+00
 0.0000000000000E+00
 0.0000000000000E+00
 0.0000000000000E+00
 0.0000000000000E+00
 0.0000000000000E+00
 0.0000000000000E+00
 0.0000000000000E+00
 0.0000000000000E+00
 0.0000000000000E+00
 0.0000000000000E+00
 0.0000000000000E+00
 0.0000000000000E+00
 0.0000000000000E+00
 0.0000000000000E+00
 0.0000000000000E+00
 0.0000000000000E+00
 0.0000000000000E+00
 0.0000000000000E+00
 0.0000000000000E+00
 0.0000000000000E+00
 0.0000000000000E+00
 0.0000000000000E+00
 0.0000000000000E+00
 0.0000000000000E+00
 0.0000000000000E+00
 0.0000000000000E+00
 0.0000000000000E+00
 0.0000000000000E+00
 0.0000000000000E+00
 0.0000000000000E+00
 0.0000000000000E+00
 0.0000000000000E+00
 0.0000000000000E+00
 0.0000000000000E+00
 0.0000000000000E+00
 0.0000000000000E+00
 0.0000000000000E+00
 0.0000000000000E+00
 0.0000000000000E+00
 0.0000000000000E+00
 0.0000000000000E+00
 0.0000000000000E+00
 0.0000000000000E+00
 0.0000000000000E+00
 0.0000000000000E+00
 0.0000000000000E+00
 0.0000000000000E+00
 0.0000000000000E+00
 0.0000000000000E+00
 0.0000000000000E+00
 0.0000000000000E+00
 0.0000000000000E+00
 0.0000000000000E+00
 0.0000000000000E+00
 0.0000000000000E+00
 0.0000000000000E+00
 0.0000000000000E+00
 0.0000000000000E+00
 0.0000000000000E+00
 0.0000000000000E+00
 0.0000000000000E+00
 0.0000000000000E+00
 0.0000000000000E+00
 0.0000000000000E+00
 0.0000000000000E+00
 0.0000000000000E+00
 0.0000000000000E+00
 0.0000000000000E+00
 0.0000000000000E+00
 0.0000000000000E+00
 0.0000000000000E+00
 0.0000000000000E+00
 0.0000000000000E+00
 0.0000000000000E+00
 0.0000000000000E+00
 0.0000000000000E+00
 0.0000000000000E+00
 0.0000000000000E+00
 0.0000000000000E+00
 0.0000000000000E+00
 0.0000000000000E+00
 0.0000000000000E+00
 0.0000000000000E+00
 0.0000000000000E+00
 0.0000000000000E+00
 0.0000000000000E+00
 0.0000000000000E+00
 0.0000000000000E+00
 0.0000000000000E+00
 0.0000000000000E+00
 0.0000000000000E+00
 0.0000000000000E+00
 0.0000000000000E+00
 0.0000000000000E+00
 0.0000000000000E+00
 0.0000000000000E+00
 0.0000000000000E+00
 0.0000000000000E+00
 0.0000000000000E+00
 0.0000000000000E+00
 0.0000000000000E+00
 0.0000000000000E+00
 0.0000000000000E+00
 0.0000000000000E+00
 0.0000000000000E+00
 0.0000000000000E+00
 0.0000000000000E+00
 0.0000000000000E+00
 0.0000000000000E+00
 0.0000000000000E+00
 0.0000000000000E+00
 0.0000000000000E+00
 0.0000000000000E+00
 0.0000000000000E+00
 0.0000000000000E+00
 0.0000000000000E+00
 0.0000000000000E+00
 0.0000000000000E+00
 0.0000000000000E+00
 0.0000000000000E+00
 0.0000000000000E+00
 0.0000000000000E+00
 0.0000000000000E+00
 0.0000000000000E+00
 0.0000000000000E+00
 0.0000000000000E+00
 0.0000000000000E+00
 0.0000000000000E+00
 0.0000000000000E+00
 0.0000000000000E+00
 0.0000000000000E+00
 0.0000000000000E+00
 0.0000000000000E+00
 0.0000000000000E+00
 0.0000000000000E+00
 0.0000000000000E+00
 0.0000000000000E+00
 0.0000000000000E+00
 0.0000000000000E+00
 0.0000000000000E+00
 0.0000000000000E+00
 0.0000000000000E+00
 0.0000000000000E+00
 0.0000000000000E+00
 0.0000000000000E+00
 0.0000000000000E+00
 0.0000000000000E+00
 0.0000000000000E+00
 0.0000000000000E+00
 0.0000000000000E+00
 0.0000000000000E+00
 0.0000000000000E+00
 0.0000000000000E+00
 0.0000000000000E+00
 0.0000000000000E+00
 0.0000000000000E+00
 0.0000000000000E+00
 0.0000000000000E+00
 0.0000000000000E+00
 0.0000000000000E+00
 0.0000000000000E+00
 0.0000000000000E+00
 0.0000000000000E+00
 0.0000000000000E+00
 0.0000000000000E+00
 0.0000000000000E+00
 0.0000000000000E+00
 0.0000000000000E+00
 0.0000000000000E+00
 0.0000000000000E+00
 0.0000000000000E+00
 0.0000000000000E+00
 0.0000000000000E+00
 0.0000000000000E+00
 0.0000000000000E+00
 0.0000000000000E+00
 0.0000000000000E+00
 0.0000000000000E+00
 0.0000000000000E+00
 0.0000000000000E+00
 0.0000000000000E+00
 0.0000000000000E+00
 0.0000000000000E+00
 0.0000000000000E+00
 0.0000000000000E+00
 0.0000000000000E+00
 0.0000000000000E+00
 0.0000000000000E+00
 0.0000000000000E+00
 0.0000000000000E+00
 0.0000000000000E+00
 0.0000000000000E+00
 0.0000000000000E+00
 0.0000000000000E+00
 0.0000000000000E+00
 0.0000000000000E+00
 0.0000000000000E+00
 0.0000000000000E+00
 0.0000000000000E+00
 0.0000000000000E+00
 0.0000000000000E+00
 0.0000000000000E+00
 0.0000000000000E+00
 0.0000000000000E+00
 0.0000000000000E+00
 0.0000000000000E+00
 0.0000000000000E+00
 0.0000000000000E+00
 0.0000000000000E+00
 0.0000000000000E+00
 0.0000000000000E+00
 0.0000000000000E+00
 0.0000000000000E+00
 0.0000000000000E+00
 0.0000000000000E+00
 0.0000000000000E+00
 0.0000000000000E+00
 0.0000000000000E+00
 0.0000000000000E+00
 0.0000000000000E+00
 0.0000000000000E+00
 0.0000000000000E+00
 0.0000000000000E+00
 0.0000000000000E+00
 0.0000000000000E+00
 0.0000000000000E+00
 0.0000000000000E+00
 0.0000000000000E+00
 0.0000000000000E+00
 0.0000000000000E+00
 0.0000000000000E+00
 0.0000000000000E+00
 0.0000000000000E+00
 0.0000000000000E+00
 0.0000000000000E+00
 0.0000000000000E+00
 0.0000000000000E+00
 0.0000000000000E+00
 0.0000000000000E+00
 0.0000000000000E+00
 0.0000000000000E+00
 0.0000000000000E+00
 0.0000000000000E+00
 0.0000000000000E+00
 0.0000000000000E+00
 0.0000000000000E+00
 0.0000000000000E+00
 0.0000000000000E+00
 0.0000000000000E+00
 0.0000000000000E+00
 0.0000000000000E+00
 0.0000000000000E+00
 0.0000000000000E+00
 0.0000000000000E+00
 0.0000000000000E+00
 0.0000000000000E+00
 0.0000000000000E+00
 0.0000000000000E+00
 0.0000000000000E+00
 0.0000000000000E+00
 0.0000000000000E+00
 0.0000000000000E+00
 0.0000000000000E+00
 0.0000000000000E+00
 0.0000000000000E+00
 0.0000000000000E+00
 0.0000000000000E+00
 0.0000000000000E+00
 0.0000000000000E+00
 0.0000000000000E+00
 0.0000000000000E+00
 0.0000000000000E+00
 0.0000000000000E+00
 0.0000000000000E+00
 0.0000000000000E+00
 0.0000000000000E+00
 0.0000000000000E+00
 0.0000000000000E+00
 0.0000000000000E+00
 0.0000000000000E+00
 0.0000000000000E+00
 0.0000000000000E+00
 0.0000000000000E+00
 0.0000000000000E+00
 0.0000000000000E+00
 0.0000000000000E+00
 0.0000000000000E+00
 0.0000000000000E+00
 0.0000000000000E+00
 0.0000000000000E+00
 0.0000000000000E+00
 0.0000000000000E+00
 0.0000000000000E+00
 0.0000000000000E+00
 0.0000000000000E+00
 0.0000000000000E+00
 0.0000000000000E+00
 0.0000000000000E+00
 0.0000000000000E+00
 0.0000000000000E+00
 0.0000000000000E+00
 0.0000000000000E+00
 0.0000000000000E+00
 0.0000000000000E+00
 0.0000000000000E+00
 0.0000000000000E+00
 0.0000000000000E+00
 0.0000000000000E+00
 0.0000000000000E+00
 0.0000000000000E+00
 0.0000000000000E+00
 0.0000000000000E+00
 0.0000000000000E+00
 0.0000000000000E+00
 0.0000000000000E+00
 0.0000000000000E+00
 0.0000000000000E+00
 0.0000000000000E+00
 0.0000000000000E+00
 0.0000000000000E+00
 0.0000000000000E+00
 0.0000000000000E+00
 0.0000000000000E+00
 0.0000000000000E+00
 0.0000000000000E+00
 0.0000000000000E+00
 0.0000000000000E+00
 0.0000000000000E+00
 0.0000000000000E+00
 0.0000000000000E+00
 0.0000000000000E+00
 0.0000000000000E+00
 0.0000000000000E+00
 0.0000000000000E+00
 0.0000000000000E+00
 0.0000000000000E+00
 0.0000000000000E+00
 0.0000000000000E+00
 0.0000000000000E+00
 0.0000000000000E+00
 0.0000000000000E+00
 0.0000000000000E+00
 0.0000000000000E+00
 0.0000000000000E+00
 0.0000000000000E+00
 0.0000000000000E+00
 0.0000000000000E+00
 0.0000000000000E+00
 0.0000000000000E+00
 0.0000000000000E+00
 0.0000000000000E+00
 0.0000000000000E+00
 0.0000000000000E+00
 0.0000000000000E+00
 0.0000000000000E+00
 0.0000000000000E+00
 0.0000000000000E+00
 0.0000000000000E+00
 0.0000000000000E+00
 0.0000000000000E+00
 0.0000000000000E+00
 0.0000000000000E+00
 0.0000000000000E+00
 0.0000000000000E+00
 0.0000000000000E+00
 0.0000000000000E+00
 0.0000000000000E+00
 0.0000000000000E+00
 0.0000000000000E+00
 0.0000000000000E+00
 0.0000000000000E+00
 0.0000000000000E+00
 0.0000000000000E+00
 0.0000000000000E+00
 0.0000000000000E+00
 0.0000000000000E+00
 0.0000000000000E+00
 0.0000000000000E+00
 0.0000000000000E+00
 0.0000000000000E+00
 0.0000000000000E+00
 0.0000000000000E+00
 0.0000000000000E+00
 0.0000000000000E+00
 0.0000000000000E+00
 0.0000000000000E+00
 0.0000000000000E+00
 0.0000000000000E+00
 0.0000000000000E+00
 0.0000000000000E+00
 0.0000000000000E+00
 0.0000000000000E+00
 0.0000000000000E+00
 0.0000000000000E+00
 0.0000000000000E+00
 0.0000000000000E+00
 0.0000000000000E+00
 0.0000000000000E+00
 0.0000000000000E+00
 0.0000000000000E+00
 0.0000000000000E+00
 0.0000000000000E+00
 0.0000000000000E+00
 0.0000000000000E+00
 0.0000000000000E+00
 0.0000000000000E+00
 0.0000000000000E+00
 0.0000000000000E+00
 0.0000000000000E+00
 0.0000000000000E+00
 0.0000000000000E+00
 0.0000000000000E+00
 0.0000000000000E+00
 0.0000000000000E+00
 0.0000000000000E+00
 0.0000000000000E+00
 0.0000000000000E+00
 0.0000000000000E+00
 0.0000000000000E+00
 0.0000000000000E+00
 0.0000000000000E+00
 0.0000000000000E+00
 0.0000000000000E+00
 0.0000000000000E+00
 0.0000000000000E+00
 0.0000000000000E+00
 0.0000000000000E+00
 0.0000000000000E+00
 0.0000000000000E+00
 0.0000000000000E+00
 0.0000000000000E+00
 0.0000000000000E+00
 0.0000000000000E+00
 0.0000000000000E+00
 0.0000000000000E+00
 0.0000000000000E+00
 0.0000000000000E+00
 0.0000000000000E+00
 0.0000000000000E+00
 0.0000000000000E+00
 0.0000000000000E+00
 0.0000000000000E+00
 0.0000000000000E+00
 0.0000000000000E+00
 0.0000000000000E+00
 0.0000000000000E+00
 0.0000000000000E+00
 0.0000000000000E+00
 0.0000000000000E+00
 0.0000000000000E+00
 0.0000000000000E+00
 0.0000000000000E+00
 0.0000000000000E+00
 0.0000000000000E+00
 0.0000000000000E+00
 0.0000000000000E+00
 0.0000000000000E+00
 0.0000000000000E+00
 0.0000000000000E+00
 0.0000000000000E+00
 0.0000000000000E+00
 0.0000000000000E+00
 0.0000000000000E+00
 0.0000000000000E+00
 0.0000000000000E+00
 0.0000000000000E+00
 0.0000000000000E+00
 0.0000000000000E+00
 0.0000000000000E+00
 0.0000000000000E+00
 0.0000000000000E+00
 0.0000000000000E+00
 0.0000000000000E+00
 0.0000000000000E+00
 0.0000000000000E+00
 0.0000000000000E+00
 0.0000000000000E+00
 0.0000000000000E+00
 0.0000000000000E+00
 0.0000000000000E+00
 0.0000000000000E+00
 0.0000000000000E+00
 0.0000000000000E+00
 0.0000000000000E+00
 0.0000000000000E+00
 0.0000000000000E+00
 0.0000000000000E+00
 0.0000000000000E+00
 0.0000000000000E+00
 0.0000000000000E+00
 0.0000000000000E+00
 0.0000000000000E+00
 0.0000000000000E+00
 0.0000000000000E+00
 0.0000000000000E+00
 0.0000000000000E+00
 0.0000000000000E+00
 0.0000000000000E+00
 0.0000000000000E+00
 0.0000000000000E+00
 0.0000000000000E+00
 0.0000000000000E+00
 0.0000000000000E+00
 0.0000000000000E+00
 0.0000000000000E+00
 0.0000000000000E+00
 0.0000000000000E+00
 0.0000000000000E+00
 0.0000000000000E+00
 0.0000000000000E+00
 0.0000000000000E+00
 0.0000000000000E+00
 0.0000000000000E+00
 0.0000000000000E+00
 0.0000000000000E+00
 0.0000000000000E+00
 0.0000000000000E+00
 0.0000000000000E+00
 0.0000000000000E+00
 0.0000000000000E+00
 0.0000000000000E+00
 0.0000000000000E+00
 0.0000000000000E+00
 0.0000000000000E+00
 0.0000000000000E+00
 0.0000000000000E+00
 0.0000000000000E+00
 0.0000000000000E+00
 0.0000000000000E+00
 0.0000000000000E+00
 0.0000000000000E+00
 0.0000000000000E+00
 0.0000000000000E+00
 0.0000000000000E+00
 0.0000000000000E+00
 0.0000000000000E+00
 0.0000000000000E+00
 0.0000000000000E+00
 0.0000000000000E+00
 0.0000000000000E+00
 0.0000000000000E+00
 0.0000000000000E+00
 0.0000000000000E+00
 0.0000000000000E+00
 0.0000000000000E+00
 0.0000000000000E+00
 0.0000000000000E+00
 0.0000000000000E+00
 0.0000000000000E+00
 0.0000000000000E+00
 0.0000000000000E+00
 0.0000000000000E+00
 0.0000000000000E+00
 0.0000000000000E+00
 0.0000000000000E+00
 0.0000000000000E+00
 0.0000000000000E+00
 0.0000000000000E+00
 0.0000000000000E+00
 0.0000000000000E+00
 0.0000000000000E+00
 0.0000000000000E+00
 0.0000000000000E+00
 0.0000000000000E+00
 0.0000000000000E+00
 0.0000000000000E+00
 0.0000000000000E+00
 0.0000000000000E+00
 0.0000000000000E+00
 0.0000000000000E+00
 0.0000000000000E+00
 0.0000000000000E+00
 0.0000000000000E+00
 0.0000000000000E+00
 0.0000000000000E+00
 0.0000000000000E+00
 0.0000000000000E+00
 0.0000000000000E+00
 0.0000000000000E+00
 0.0000000000000E+00
 0.0000000000000E+00
 0.0000000000000E+00
 0.0000000000000E+00
 0.0000000000000E+00
 0.0000000000000E+00
 0.0000000000000E+00
 0.0000000000000E+00
 0.0000000000000E+00
 0.0000000000000E+00
 0.0000000000000E+00
 0.0000000000000E+00
 0.0000000000000E+00
 0.0000000000000E+00
 0.0000000000000E+00
 0.0000000000000E+00
 0.0000000000000E+00
 0.0000000000000E+00
 0.0000000000000E+00
 0.0000000000000E+00
 0.0000000000000E+00
 0.0000000000000E+00
 0.0000000000000E+00
 0.0000000000000E+00
 0.0000000000000E+00
 0.0000000000000E+00
 0.0000000000000E+00
 0.0000000000000E+00
 0.0000000000000E+00
 0.0000000000000E+00
 0.0000000000000E+00
 0.0000000000000E+00
 0.0000000000000E+00
 0.0000000000000E+00
 0.0000000000000E+00
 0.0000000000000E+00
 0.0000000000000E+00
 0.0000000000000E+00
 0.0000000000000E+00
 0.0000000000000E+00
 0.0000000000000E+00
 0.0000000000000E+00
 0.0000000000000E+00
 0.0000000000000E+00
 0.0000000000000E+00
 0.0000000000000E+00
 0.0000000000000E+00
 0.0000000000000E+00
 0.0000000000000E+00
 0.0000000000000E+00
 0.0000000000000E+00
 0.0000000000000E+00
 0.0000000000000E+00
 0.0000000000000E+00
 0.0000000000000E+00
 0.0000000000000E+00
 0.0000000000000E+00
 0.0000000000000E+00
 0.0000000000000E+00
 0.0000000000000E+00
 0.0000000000000E+00
 0.0000000000000E+00
 0.0000000000000E+00
 0.0000000000000E+00
 0.0000000000000E+00
 0.0000000000000E+00
 0.0000000000000E+00
 0.0000000000000E+00
 0.0000000000000E+00
 0.0000000000000E+00
 0.0000000000000E+00
 0.0000000000000E+00
 0.0000000000000E+00
 0.0000000000000E+00
 0.0000000000000E+00
 0.0000000000000E+00
 0.0000000000000E+00
 0.0000000000000E+00
 0.0000000000000E+00
 0.0000000000000E+00
 0.0000000000000E+00
 0.0000000000000E+00
 0.0000000000000E+00
 0.0000000000000E+00
 0.0000000000000E+00
 0.0000000000000E+00
 0.0000000000000E+00
 0.0000000000000E+00
 0.0000000000000E+00
 0.0000000000000E+00
 0.0000000000000E+00
 0.0000000000000E+00
 0.0000000000000E+00
 0.0000000000000E+00
 0.0000000000000E+00
 0.0000000000000E+00
 0.0000000000000E+00
 0.0000000000000E+00
 0.0000000000000E+00
 0.0000000000000E+00
 0.0000000000000E+00
 0.0000000000000E+00
 0.0000000000000E+00
 0.0000000000000E+00
 0.0000000000000E+00
 0.0000000000000E+00
 0.0000000000000E+00
 0.0000000000000E+00
 0.0000000000000E+00
 0.0000000000000E+00
 0.0000000000000E+00
 0.0000000000000E+00
 0.0000000000000E+00
 0.0000000000000E+00
 0.0000000000000E+00
 0.0000000000000E+00
 0.0000000000000E+00
 0.0000000000000E+00
 0.0000000000000E+00
 0.0000000000000E+00
 0.0000000000000E+00
 0.0000000000000E+00
 0.0000000000000E+00
 0.0000000000000E+00
 0.0000000000000E+00
 0.0000000000000E+00
 0.0000000000000E+00
 0.0000000000000E+00
 0.0000000000000E+00
 0.0000000000000E+00
 0.0000000000000E+00
 0.0000000000000E+00
 0.0000000000000E+00
 0.0000000000000E+00
 0.0000000000000E+00
 0.0000000000000E+00
 0.0000000000000E+00
 0.0000000000000E+00
 0.0000000000000E+00
 0.0000000000000E+00
 0.0000000000000E+00
 0.0000000000000E+00
 0.0000000000000E+00
 0.0000000000000E+00
 0.0000000000000E+00
 0.0000000000000E+00
 0.0000000000000E+00
 0.0000000000000E+00
 0.0000000000000E+00
 0.0000000000000E+00
 0.0000000000000E+00
 0.0000000000000E+00
 0.0000000000000E+00
 0.0000000000000E+00
 0.0000000000000E+00
 0.0000000000000E+00
 0.0000000000000E+00
 0.0000000000000E+00
 0.0000000000000E+00
 0.0000000000000E+00
 0.0000000000000E+00
 0.0000000000000E+00
 0.0000000000000E+00
 0.0000000000000E+00
 0.0000000000000E+00
 0.0000000000000E+00
 0.0000000000000E+00
 0.0000000000000E+00
 0.0000000000000E+00
 0.0000000000000E+00
 0.0000000000000E+00
 0.0000000000000E+00
 0.0000000000000E+00
 0.0000000000000E+00
 0.0000000000000E+00
 0.0000000000000E+00
 0.0000000000000E+00
 0.0000000000000E+00
 0.0000000000000E+00
 0.0000000000000E+00
 0.0000000000000E+00
 0.0000000000000E+00
 0.0000000000000E+00
 0.0000000000000E+00
 0.0000000000000E+00
 0.0000000000000E+00
 0.0000000000000E+00
 0.0000000000000E+00
 0.0000000000000E+00
 0.0000000000000E+00
 0.0000000000000E+00
 0.0000000000000E+00
 0.0000000000000E+00
 0.0000000000000E+00
 0.0000000000000E+00
 0.0000000000000E+00
 0.0000000000000E+00
 0.0000000000000E+00
 0.0000000000000E+00
 0.0000000000000E+00
 0.0000000000000E+00
 0.0000000000000E+00
 0.0000000000000E+00
 0.0000000000000E+00
 0.0000000000000E+00
 0.0000000000000E+00
 0.0000000000000E+00
 0.0000000000000E+00
 0.0000000000000E+00
 0.0000000000000E+00
 0.0000000000000E+00
 0.0000000000000E+00
 0.0000000000000E+00
 0.0000000000000E+00
 0.0000000000000E+00
 0.0000000000000E+00
 0.0000000000000E+00
 0.0000000000000E+00
 0.0000000000000E+00
 0.0000000000000E+00
 0.0000000000000E+00
 0.0000000000000E+00
 0.0000000000000E+00
 0.0000000000000E+00
 0.0000000000000E+00
 0.0000000000000E+00
 0.0000000000000E+00
 0.0000000000000E+00
 0.0000000000000E+00
 0.0000000000000E+00
 0.0000000000000E+00
 0.0000000000000E+00
 0.0000000000000E+00
 0.0000000000000E+00
 0.0000000000000E+00
 0.0000000000000E+00
 0.0000000000000E+00
 0.0000000000000E+00
 0.0000000000000E+00
 0.0000000000000E+00
 0.0000000000000E+00
 0.0000000000000E+00
 0.0000000000000E+00
 0.0000000000000E+00
 0.0000000000000E+00
 0.0000000000000E+00
 0.0000000000000E+00
 0.0000000000000E+00
 0.0000000000000E+00
 0.0000000000000E+00
 0.0000000000000E+00
 0.0000000000000E+00
 0.0000000000000E+00
 0.0000000000000E+00
 0.0000000000000E+00
 0.0000000000000E+00
 0.0000000000000E+00
 0.0000000000000E+00
 0.0000000000000E+00
 0.0000000000000E+00
 0.0000000000000E+00
 0.0000000000000E+00
 0.0000000000000E+00
 0.0000000000000E+00
 0.0000000000000E+00
 0.0000000000000E+00
 0.0000000000000E+00
 0.0000000000000E+00
 0.0000000000000E+00
 0.0000000000000E+00
 0.0000000000000E+00
 0.0000000000000E+00
 0.0000000000000E+00
 0.0000000000000E+00
 0.0000000000000E+00
 0.0000000000000E+00
 0.0000000000000E+00
 0.0000000000000E+00
 0.0000000000000E+00
 0.0000000000000E+00
 0.0000000000000E+00
 0.0000000000000E+00
 0.0000000000000E+00
 0.0000000000000E+00
 0.0000000000000E+00
 0.0000000000000E+00
 0.0000000000000E+00
 0.0000000000000E+00
 0.0000000000000E+00
 0.0000000000000E+00
 0.0000000000000E+00
 0.0000000000000E+00
 0.0000000000000E+00
 0.0000000000000E+00
 0.0000000000000E+00
 0.0000000000000E+00
 0.0000000000000E+00
 0.0000000000000E+00
 0.0000000000000E+00
 0.0000000000000E+00
 0.0000000000000E+00
 0.0000000000000E+00
 0.0000000000000E+00
 0.0000000000000E+00
 0.0000000000000E+00
 0.0000000000000E+00
 0.0000000000000E+00
 0.0000000000000E+00
 0.0000000000000E+00
 0.0000000000000E+00
 0.0000000000000E+00
 0.0000000000000E+00
 0.0000000000000E+00
 0.0000000000000E+00
 0.0000000000000E+00
 0.0000000000000E+00
 0.0000000000000E+00
 0.0000000000000E+00
 0.0000000000000E+00
 0.0000000000000E+00
 0.0000000000000E+00
 0.0000000000000E+00
 0.0000000000000E+00
 0.0000000000000E+00
 0.0000000000000E+00
 0.0000000000000E+00
 0.0000000000000E+00
 0.0000000000000E+00
 0.0000000000000E+00
 0.0000000000000E+00
 0.0000000000000E+00
 0.0000000000000E+00
 0.0000000000000E+00
 0.0000000000000E+00
 0.0000000000000E+00
 0.0000000000000E+00
 0.0000000000000E+00
 0.0000000000000E+00
 0.0000000000000E+00
 0.0000000000000E+00
 0.0000000000000E+00
 0.0000000000000E+00
 0.0000000000000E+00
 0.0000000000000E+00
 0.0000000000000E+00
 0.0000000000000E+00
 0.0000000000000E+00
 0.0000000000000E+00
 0.0000000000000E+00
 0.0000000000000E+00
 0.0000000000000E+00
 0.0000000000000E+00
 0.0000000000000E+00
 0.0000000000000E+00
 0.0000000000000E+00
 0.0000000000000E+00
 0.0000000000000E+00
 0.0000000000000E+00
 0.0000000000000E+00
 0.0000000000000E+00
 0.0000000000000E+00
 0.0000000000000E+00
 0.0000000000000E+00
 0.0000000000000E+00
 0.0000000000000E+00
 0.0000000000000E+00
 0.0000000000000E+00
 0.0000000000000E+00
 0.0000000000000E+00
 0.0000000000000E+00
 0.0000000000000E+00
 0.0000000000000E+00
 0.0000000000000E+00
 0.0000000000000E+00
 0.0000000000000E+00
 0.0000000000000E+00
 0.0000000000000E+00
 0.0000000000000E+00
 0.0000000000000E+00
 0.0000000000000E+00
 0.0000000000000E+00
 0.0000000000000E+00
 0.0000000000000E+00
 0.0000000000000E+00
 0.0000000000000E+00
 0.0000000000000E+00
 0.0000000000000E+00
 0.0000000000000E+00
 0.0000000000000E+00
 0.0000000000000E+00
 0.0000000000000E+00
 0.0000000000000E+00
 0.0000000000000E+00
 0.0000000000000E+00
 0.0000000000000E+00
 0.0000000000000E+00
 0.0000000000000E+00
 0.0000000000000E+00
 0.0000000000000E+00
 0.0000000000000E+00
 0.0000000000000E+00
 0.0000000000000E+00
 0.0000000000000E+00
 0.0000000000000E+00
 0.0000000000000E+00
 0.0000000000000E+00
 0.0000000000000E+00
 0.0000000000000E+00
 0.0000000000000E+00
 0.0000000000000E+00
 0.0000000000000E+00
 0.0000000000000E+00
 0.0000000000000E+00
 0.0000000000000E+00
 0.0000000000000E+00
 0.0000000000000E+00
 0.0000000000000E+00
 0.0000000000000E+00
 0.0000000000000E+00
 0.0000000000000E+00
 0.0000000000000E+00
 0.0000000000000E+00
 0.0000000000000E+00
 0.0000000000000E+00
 0.0000000000000E+00
 0.0000000000000E+00
 0.0000000000000E+00
 0.0000000000000E+00
 0.0000000000000E+00
 0.0000000000000E+00
 0.0000000000000E+00
 0.0000000000000E+00
 0.0000000000000E+00
 0.0000000000000E+00
 0.0000000000000E+00
 0.0000000000000E+00
 0.0000000000000E+00
 0.0000000000000E+00
 0.0000000000000E+00
 0.0000000000000E+00
 0.0000000000000E+00
 0.0000000000000E+00
 0.0000000000000E+00
 0.0000000000000E+00
 0.0000000000000E+00
 0.0000000000000E+00
 0.0000000000000E+00
 0.0000000000000E+00
 0.0000000000000E+00
 0.0000000000000E+00
 0.0000000000000E+00
 0.0000000000000E+00
 0.0000000000000E+00
 0.0000000000000E+00
 0.0000000000000E+00
 0.0000000000000E+00
 0.0000000000000E+00
 0.0000000000000E+00
 0.0000000000000E+00
 0.0000000000000E+00
 0.0000000000000E+00
 0.0000000000000E+00
 0.0000000000000E+00
 0.0000000000000E+00
 0.0000000000000E+00
 0.0000000000000E+00
 0.0000000000000E+00
 0.0000000000000E+00
 0.0000000000000E+00
 0.0000000000000E+00
 0.0000000000000E+00
 0.0000000000000E+00
 0.0000000000000E+00
 0.0000000000000E+00
 0.0000000000000E+00
 0.0000000000000E+00
 0.0000000000000E+00
 0.0000000000000E+00
 0.0000000000000E+00
 0.0000000000000E+00
 0.0000000000000E+00
 0.0000000000000E+00
 0.0000000000000E+00
 0.0000000000000E+00
 0.0000000000000E+00
 0.0000000000000E+00
 0.0000000000000E+00
 0.0000000000000E+00
 0.0000000000000E+00
 0.0000000000000E+00
 0.0000000000000E+00
 0.0000000000000E+00
 0.0000000000000E+00
 0.0000000000000E+00
 0.0000000000000E+00
 0.0000000000000E+00
 0.0000000000000E+00
 0.0000000000000E+00
 0.0000000000000E+00
 0.0000000000000E+00
 0.0000000000000E+00
 0.0000000000000E+00
 0.0000000000000E+00
 0.0000000000000E+00
 0.0000000000000E+00
 0.0000000000000E+00
 0.0000000000000E+00
 0.0000000000000E+00
 0.0000000000000E+00
 0.0000000000000E+00
 0.0000000000000E+00
 0.0000000000000E+00
 0.0000000000000E+00
 0.0000000000000E+00
 0.0000000000000E+00
 0.0000000000000E+00
 0.0000000000000E+00
 0.0000000000000E+00
 0.0000000000000E+00
 0.0000000000000E+00
 0.0000000000000E+00
 0.0000000000000E+00
 0.0000000000000E+00
 0.0000000000000E+00
 0.0000000000000E+00
 0.0000000000000E+00
 0.0000000000000E+00
 0.0000000000000E+00
 0.0000000000000E+00
 0.0000000000000E+00
 0.0000000000000E+00
 0.0000000000000E+00
 0.0000000000000E+00
 0.0000000000000E+00
 0.0000000000000E+00
 0.0000000000000E+00
 0.0000000000000E+00
 0.0000000000000E+00
 0.0000000000000E+00
 0.0000000000000E+00
 0.0000000000000E+00
 0.0000000000000E+00
 0.0000000000000E+00
 0.0000000000000E+00
 0.0000000000000E+00
 0.0000000000000E+00
 0.0000000000000E+00
 0.0000000000000E+00
 0.0000000000000E+00
 0.0000000000000E+00
 0.0000000000000E+00
 0.0000000000000E+00
 0.0000000000000E+00
 0.0000000000000E+00
 0.0000000000000E+00
 0.0000000000000E+00
 0.0000000000000E+00
 0.0000000000000E+00
 0.0000000000000E+00
 0.0000000000000E+00
 0.0000000000000E+00
 0.0000000000000E+00
 0.0000000000000E+00
 0.0000000000000E+00
 0.0000000000000E+00
 0.0000000000000E+00
 0.0000000000000E+00
 0.0000000000000E+00
 0.0000000000000E+00
 0.0000000000000E+00
 0.0000000000000E+00
 0.0000000000000E+00
 0.0000000000000E+00
 0.0000000000000E+00
 0.0000000000000E+00
 0.0000000000000E+00
 0.0000000000000E+00
 0.0000000000000E+00
 0.0000000000000E+00
 0.0000000000000E+00
 0.0000000000000E+00
 0.0000000000000E+00
 0.0000000000000E+00
 0.0000000000000E+00
 0.0000000000000E+00
 0.0000000000000E+00
 0.0000000000000E+00
 0.0000000000000E+00
 0.0000000000000E+00
 0.0000000000000E+00
 0.0000000000000E+00
 0.0000000000000E+00
 0.0000000000000E+00
 0.0000000000000E+00
 0.0000000000000E+00
 0.0000000000000E+00
 0.0000000000000E+00
 0.0000000000000E+00
 0.0000000000000E+00
 0.0000000000000E+00
 0.0000000000000E+00
 0.0000000000000E+00
 0.0000000000000E+00
 0.0000000000000E+00
 0.0000000000000E+00
 0.0000000000000E+00
 0.0000000000000E+00
 0.0000000000000E+00
 0.0000000000000E+00
 0.0000000000000E+00
 0.0000000000000E+00
 0.0000000000000E+00
 0.0000000000000E+00
 0.0000000000000E+00
 0.0000000000000E+00
 0.0000000000000E+00
 0.0000000000000E+00
 0.0000000000000E+00
 0.0000000000000E+00
 0.0000000000000E+00
 0.0000000000000E+00
 0.0000000000000E+00
 0.0000000000000E+00
 0.0000000000000E+00
 0.0000000000000E+00
 0.0000000000000E+00
 0.0000000000000E+00
 0.0000000000000E+00
 0.0000000000000E+00
 0.0000000000000E+00
 0.0000000000000E+00
 0.0000000000000E+00
 0.0000000000000E+00
 0.0000000000000E+00
 0.0000000000000E+00
 0.0000000000000E+00
 0.0000000000000E+00
 0.0000000000000E+00
 0.0000000000000E+00
 0.0000000000000E+00
 0.0000000000000E+00
 0.0000000000000E+00
 0.0000000000000E+00
 0.0000000000000E+00
 0.0000000000000E+00
 0.0000000000000E+00
 0.0000000000000E+00
 0.0000000000000E+00
 0.0000000000000E+00
 0.0000000000000E+00
 0.0000000000000E+00
 0.0000000000000E+00
 0.0000000000000E+00
 0.0000000000000E+00
 0.0000000000000E+00
 0.0000000000000E+00
 0.0000000000000E+00
 0.0000000000000E+00
 0.0000000000000E+00
 0.0000000000000E+00
 0.0000000000000E+00
 0.0000000000000E+00
 0.0000000000000E+00
 0.0000000000000E+00
 0.0000000000000E+00
 0.0000000000000E+00
 0.0000000000000E+00
 0.0000000000000E+00
 0.0000000000000E+00
 0.0000000000000E+00
 0.0000000000000E+00
 0.0000000000000E+00
 0.0000000000000E+00
 0.0000000000000E+00
 0.0000000000000E+00
 0.0000000000000E+00
 0.0000000000000E+00
 0.0000000000000E+00
 0.0000000000000E+00
 0.0000000000000E+00
 0.0000000000000E+00
 0.0000000000000E+00
 0.0000000000000E+00
 0.0000000000000E+00
 0.0000000000000E+00
 0.0000000000000E+00
 0.0000000000000E+00
 0.0000000000000E+00
 0.0000000000000E+00
 0.0000000000000E+00
 0.0000000000000E+00
 0.0000000000000E+00
 0.0000000000000E+00
 0.0000000000000E+00
 0.0000000000000E+00
 0.0000000000000E+00
 0.0000000000000E+00
 0.0000000000000E+00
 0.0000000000000E+00
 0.0000000000000E+00
 0.0000000000000E+00
 0.0000000000000E+00
 0.0000000000000E+00
 0.0000000000000E+00
 0.0000000000000E+00
 0.0000000000000E+00
 0.0000000000000E+00
 0.0000000000000E+00
 0.0000000000000E+00
 0.0000000000000E+00
 0.0000000000000E+00
 0.0000000000000E+00
 0.0000000000000E+00
 0.0000000000000E+00
 0.0000000000000E+00
 0.0000000000000E+00
 0.0000000000000E+00
 0.0000000000000E+00
 0.0000000000000E+00
 0.0000000000000E+00
 0.0000000000000E+00
 0.0000000000000E+00
 0.0000000000000E+00
 0.0000000000000E+00
 0.0000000000000E+00
 0.0000000000000E+00
 0.0000000000000E+00
 0.0000000000000E+00
 0.0000000000000E+00
 0.0000000000000E+00
 0.0000000000000E+00
 0.0000000000000E+00
 0.0000000000000E+00
 0.0000000000000E+00
 0.0000000000000E+00
 0.0000000000000E+00
 0.0000000000000E+00
 0.0000000000000E+00
 0.0000000000000E+00
 0.0000000000000E+00
 0.0000000000000E+00
 0.0000000000000E+00
 0.0000000000000E+00
 0.0000000000000E+00
 0.0000000000000E+00
 0.0000000000000E+00
 0.0000000000000E+00
 0.0000000000000E+00
 0.0000000000000E+00
 0.0000000000000E+00
 0.0000000000000E+00
 0.0000000000000E+00
 0.0000000000000E+00
 0.0000000000000E+00
 0.0000000000000E+00
 0.0000000000000E+00
 0.0000000000000E+00
 0.0000000000000E+00
 0.0000000000000E+00
 0.0000000000000E+00
 0.0000000000000E+00
 0.0000000000000E+00
 0.0000000000000E+00
 0.0000000000000E+00
 0.0000000000000E+00
 0.0000000000000E+00
 0.0000000000000E+00
 0.0000000000000E+00
 0.0000000000000E+00
 0.0000000000000E+00
 0.0000000000000E+00
 0.0000000000000E+00
 0.0000000000000E+00
 0.0000000000000E+00
 0.0000000000000E+00
 0.0000000000000E+00
 0.0000000000000E+00
 0.0000000000000E+00
 0.0000000000000E+00
 0.0000000000000E+00
 0.0000000000000E+00
 0.0000000000000E+00
 0.0000000000000E+00
 0.0000000000000E+00
 0.0000000000000E+00
 0.0000000000000E+00
 0.0000000000000E+00
 0.0000000000000E+00
 0.0000000000000E+00
 0.0000000000000E+00
 0.0000000000000E+00
 0.0000000000000E+00
 0.0000000000000E+00
 0.0000000000000E+00
 0.0000000000000E+00
 0.0000000000000E+00
 0.0000000000000E+00
 0.0000000000000E+00
 0.0000000000000E+00
 0.0000000000000E+00
 0.0000000000000E+00
 0.0000000000000E+00
 0.0000000000000E+00
 0.0000000000000E+00
 0.0000000000000E+00
 0.0000000000000E+00
 0.0000000000000E+00
 0.0000000000000E+00
 0.0000000000000E+00
 0.0000000000000E+00
 0.0000000000000E+00
 0.0000000000000E+00
 0.0000000000000E+00
 0.0000000000000E+00
 0.0000000000000E+00
 0.0000000000000E+00
 0.0000000000000E+00
 0.0000000000000E+00
 0.0000000000000E+00
 0.0000000000000E+00
 0.0000000000000E+00
 0.0000000000000E+00
 0.0000000000000E+00
 0.0000000000000E+00
 0.0000000000000E+00
 0.0000000000000E+00
 0.0000000000000E+00
 0.0000000000000E+00
 0.0000000000000E+00
 0.0000000000000E+00
 0.0000000000000E+00
 0.0000000000000E+00
 0.0000000000000E+00
 0.0000000000000E+00
 0.0000000000000E+00
 0.0000000000000E+00
 0.0000000000000E+00
 0.0000000000000E+00
 0.0000000000000E+00
 0.0000000000000E+00
 0.0000000000000E+00
 0.0000000000000E+00
 0.0000000000000E+00
 0.0000000000000E+00
 0.0000000000000E+00
 0.0000000000000E+00
 0.0000000000000E+00
 0.0000000000000E+00
 0.0000000000000E+00
 0.0000000000000E+00
 0.0000000000000E+00
 0.0000000000000E+00
 0.0000000000000E+00
 0.0000000000000E+00
 0.0000000000000E+00
 0.0000000000000E+00
 0.0000000000000E+00
 0.0000000000000E+00
 0.0000000000000E+00
 0.0000000000000E+00
 0.0000000000000E+00
 0.0000000000000E+00
 0.0000000000000E+00
 0.0000000000000E+00
 0.0000000000000E+00
 0.0000000000000E+00
 0.0000000000000E+00
 0.0000000000000E+00
 0.0000000000000E+00
 0.0000000000000E+00
 0.0000000000000E+00
 0.0000000000000E+00
 0.0000000000000E+00
 0.0000000000000E+00
 0.0000000000000E+00
 0.0000000000000E+00
 0.0000000000000E+00
 0.0000000000000E+00
 0.0000000000000E+00
 0.0000000000000E+00
 0.0000000000000E+00
 0.0000000000000E+00
 0.0000000000000E+00
 0.0000000000000E+00
 0.0000000000000E+00
 0.0000000000000E+00
 0.0000000000000E+00
 0.0000000000000E+00
 0.0000000000000E+00
 0.0000000000000E+00
 0.0000000000000E+00
 0.0000000000000E+00
 0.0000000000000E+00
 0.0000000000000E+00
 0.0000000000000E+00
 0.0000000000000E+00
 0.0000000000000E+00
 0.0000000000000E+00
 0.0000000000000E+00
 0.0000000000000E+00
 0.0000000000000E+00
 0.0000000000000E+00
 0.0000000000000E+00
 0.0000000000000E+00
 0.0000000000000E+00
 0.0000000000000E+00
 0.0000000000000E+00
 0.0000000000000E+00
 0.0000000000000E+00
 0.0000000000000E+00
 0.0000000000000E+00
 0.0000000000000E+00
 0.0000000000000E+00
 0.0000000000000E+00
 0.0000000000000E+00
 0.0000000000000E+00
 0.0000000000000E+00
 0.0000000000000E+00
 0.0000000000000E+00
 0.0000000000000E+00
 0.0000000000000E+00
 0.0000000000000E+00
 0.0000000000000E+00
 0.0000000000000E+00
 0.0000000000000E+00
 0.0000000000000E+00
 0.0000000000000E+00
 0.0000000000000E+00
 0.0000000000000E+00
 0.0000000000000E+00
 0.0000000000000E+00
 0.0000000000000E+00
 0.0000000000000E+00
 0.0000000000000E+00
 0.0000000000000E+00
 0.0000000000000E+00
 0.0000000000000E+00
 0.0000000000000E+00
 0.0000000000000E+00
 0.0000000000000E+00
 0.0000000000000E+00
 0.0000000000000E+00
 0.0000000000000E+00
 0.0000000000000E+00
 0.0000000000000E+00
 0.0000000000000E+00
 0.0000000000000E+00
 0.0000000000000E+00
 0.0000000000000E+00
 0.0000000000000E+00
 0.0000000000000E+00
 0.0000000000000E+00
 0.0000000000000E+00
 0.0000000000000E+00
 0.0000000000000E+00
 0.0000000000000E+00
 0.0000000000000E+00
 0.0000000000000E+00
 0.0000000000000E+00
 0.0000000000000E+00
 0.0000000000000E+00
 0.0000000000000E+00
 0.0000000000000E+00
 0.0000000000000E+00
 0.0000000000000E+00
 0.0000000000000E+00
 0.0000000000000E+00
 0.0000000000000E+00
 0.0000000000000E+00
 0.0000000000000E+00
 0.0000000000000E+00
 0.0000000000000E+00
 0.0000000000000E+00
 0.0000000000000E+00
 0.0000000000000E+00
 0.0000000000000E+00
 0.0000000000000E+00
 0.0000000000000E+00
 0.0000000000000E+00
 0.0000000000000E+00
 0.0000000000000E+00
 0.0000000000000E+00
 0.0000000000000E+00
 0.0000000000000E+00
 0.0000000000000E+00
 0.0000000000000E+00
 0.0000000000000E+00
 0.0000000000000E+00
 0.0000000000000E+00
 0.0000000000000E+00
 0.0000000000000E+00
 0.0000000000000E+00
 0.0000000000000E+00
 0.0000000000000E+00
 0.0000000000000E+00
 0.0000000000000E+00
 0.0000000000000E+00
 0.0000000000000E+00
 0.0000000000000E+00
 0.0000000000000E+00
 0.0000000000000E+00
 0.0000000000000E+00
 0.0000000000000E+00
 0.0000000000000E+00
 0.0000000000000E+00
 0.0000000000000E+00
 0.0000000000000E+00
 0.0000000000000E+00
 0.0000000000000E+00
 0.0000000000000E+00
 0.0000000000000E+00
 0.0000000000000E+00
 0.0000000000000E+00
 0.0000000000000E+00
 0.0000000000000E+00
 0.0000000000000E+00
 0.0000000000000E+00
 0.0000000000000E+00
 0.0000000000000E+00
 0.0000000000000E+00
 0.0000000000000E+00
 0.0000000000000E+00
 0.0000000000000E+00
 0.0000000000000E+00
 0.0000000000000E+00
 0.0000000000000E+00
 0.0000000000000E+00
 0.0000000000000E+00
 0.0000000000000E+00
 0.0000000000000E+00
 0.0000000000000E+00
 0.0000000000000E+00
 0.0000000000000E+00
 0.0000000000000E+00
 0.0000000000000E+00
 0.0000000000000E+00
 0.0000000000000E+00
 0.0000000000000E+00
 0.0000000000000E+00
 0.0000000000000E+00
 0.0000000000000E+00
 0.0000000000000E+00
 0.0000000000000E+00
 0.0000000000000E+00
 0.0000000000000E+00
 0.0000000000000E+00
 0.0000000000000E+00
 0.0000000000000E+00
 0.0000000000000E+00
 0.0000000000000E+00
 0.0000000000000E+00
 0.0000000000000E+00
 0.0000000000000E+00
 0.0000000000000E+00
 0.0000000000000E+00
 0.0000000000000E+00
 0.0000000000000E+00
 0.0000000000000E+00
 0.0000000000000E+00
 0.0000000000000E+00
 0.0000000000000E+00
 0.0000000000000E+00
 0.0000000000000E+00
 0.0000000000000E+00
 0.0000000000000E+00
 0.0000000000000E+00
 0.0000000000000E+00
 0.0000000000000E+00
 0.0000000000000E+00
 0.0000000000000E+00
 0.0000000000000E+00
 0.0000000000000E+00
 0.0000000000000E+00
 0.0000000000000E+00
 0.0000000000000E+00
 0.0000000000000E+00
 0.0000000000000E+00
 0.0000000000000E+00
 0.0000000000000E+00
 0.0000000000000E+00
 0.0000000000000E+00
 0.0000000000000E+00
 0.0000000000000E+00
 0.0000000000000E+00
 0.0000000000000E+00
 0.0000000000000E+00
 0.0000000000000E+00
 0.0000000000000E+00
 0.0000000000000E+00
 0.0000000000000E+00
 0.0000000000000E+00
 0.0000000000000E+00
 0.0000000000000E+00
 0.0000000000000E+00
 0.0000000000000E+00
 0.0000000000000E+00
 0.0000000000000E+00
 0.0000000000000E+00
 0.0000000000000E+00
 0.0000000000000E+00
 0.0000000000000E+00
 0.0000000000000E+00
 0.0000000000000E+00
 0.0000000000000E+00
 0.0000000000000E+00
 0.0000000000000E+00
 0.0000000000000E+00
 0.0000000000000E+00
 0.0000000000000E+00
 0.0000000000000E+00
 0.0000000000000E+00
 0.0000000000000E+00
 0.0000000000000E+00
 0.0000000000000E+00
 0.0000000000000E+00
 0.0000000000000E+00
 0.0000000000000E+00
 0.0000000000000E+00
 0.0000000000000E+00
 0.0000000000000E+00
 0.0000000000000E+00
 0.0000000000000E+00
 0.0000000000000E+00
 0.0000000000000E+00
 0.0000000000000E+00
 0.0000000000000E+00
 0.0000000000000E+00
 0.0000000000000E+00
 0.0000000000000E+00
 0.0000000000000E+00
 0.0000000000000E+00
 0.0000000000000E+00
 0.0000000000000E+00
 0.0000000000000E+00
 0.0000000000000E+00
 0.0000000000000E+00
 0.0000000000000E+00
 0.0000000000000E+00
 0.0000000000000E+00
 0.0000000000000E+00
 0.0000000000000E+00
 0.0000000000000E+00
 0.0000000000000E+00
 0.0000000000000E+00
 0.0000000000000E+00
 0.0000000000000E+00
 0.0000000000000E+00
 0.0000000000000E+00
 0.0000000000000E+00
 0.0000000000000E+00
 0.0000000000000E+00
 0.0000000000000E+00
 0.0000000000000E+00
 0.0000000000000E+00
 0.0000000000000E+00
 0.0000000000000E+00
 0.0000000000000E+00
 0.0000000000000E+00
 0.0000000000000E+00
 0.0000000000000E+00
 0.0000000000000E+00
 0.0000000000000E+00
 0.0000000000000E+00
 0.0000000000000E+00
 0.0000000000000E+00
 0.0000000000000E+00
 0.0000000000000E+00
 0.0000000000000E+00
 0.0000000000000E+00
 0.0000000000000E+00
 0.0000000000000E+00
 0.0000000000000E+00
 0.0000000000000E+00
 0.0000000000000E+00
 0.0000000000000E+00
 0.0000000000000E+00
 0.0000000000000E+00
 0.0000000000000E+00
 0.0000000000000E+00
 0.0000000000000E+00
 0.0000000000000E+00
 0.0000000000000E+00
 0.0000000000000E+00
 0.0000000000000E+00
 0.0000000000000E+00
 0.0000000000000E+00
 0.0000000000000E+00
 0.0000000000000E+00
 0.0000000000000E+00
 0.0000000000000E+00
 0.0000000000000E+00
 0.0000000000000E+00
 0.0000000000000E+00
 0.0000000000000E+00
 0.0000000000000E+00
 0.0000000000000E+00
 0.0000000000000E+00
 0.0000000000000E+00
 0.0000000000000E+00
 0.0000000000000E+00
 0.0000000000000E+00
 0.0000000000000E+00
 0.0000000000000E+00
 0.0000000000000E+00
 0.0000000000000E+00
 0.0000000000000E+00
 0.0000000000000E+00
 0.0000000000000E+00
 0.0000000000000E+00
 0.0000000000000E+00
 0.0000000000000E+00
 0.0000000000000E+00
 0.0000000000000E+00
 0.0000000000000E+00
 0.0000000000000E+00
 0.0000000000000E+00
 0.0000000000000E+00
 0.0000000000000E+00
 0.0000000000000E+00
 0.0000000000000E+00
 0.0000000000000E+00
 0.0000000000000E+00
 0.0000000000000E+00
 0.0000000000000E+00
 0.0000000000000E+00
 0.0000000000000E+00
 0.0000000000000E+00
 0.0000000000000E+00
 0.0000000000000E+00
 0.0000000000000E+00
 0.0000000000000E+00
 0.0000000000000E+00
 0.0000000000000E+00
 0.0000000000000E+00
 0.0000000000000E+00
 0.0000000000000E+00
 0.0000000000000E+00
 0.0000000000000E+00
 0.0000000000000E+00
 0.0000000000000E+00
 0.0000000000000E+00
 0.0000000000000E+00
 0.0000000000000E+00
 0.0000000000000E+00
 0.0000000000000E+00
 0.0000000000000E+00
 0.0000000000000E+00
 0.0000000000000E+00
 0.0000000000000E+00
 0.0000000000000E+00
 0.0000000000000E+00
 0.0000000000000E+00
 0.0000000000000E+00
 0.0000000000000E+00
 0.0000000000000E+00
 0.0000000000000E+00
 0.0000000000000E+00
 0.0000000000000E+00
 0.0000000000000E+00
 0.0000000000000E+00
 0.0000000000000E+00
 0.0000000000000E+00
 0.0000000000000E+00
 0.0000000000000E+00
 0.0000000000000E+00
 0.0000000000000E+00
 0.0000000000000E+00
 0.0000000000000E+00
 0.0000000000000E+00
 0.0000000000000E+00
 0.0000000000000E+00
 0.0000000000000E+00
 0.0000000000000E+00
 0.0000000000000E+00
 0.0000000000000E+00
 0.0000000000000E+00
 0.0000000000000E+00
 0.0000000000000E+00
 0.0000000000000E+00
 0.0000000000000E+00
 0.0000000000000E+00
 0.0000000000000E+00
 0.0000000000000E+00
 0.0000000000000E+00
 0.0000000000000E+00
 0.0000000000000E+00
 0.0000000000000E+00
 0.0000000000000E+00
 0.0000000000000E+00
 0.0000000000000E+00
 0.0000000000000E+00
 0.0000000000000E+00
 0.0000000000000E+00
 0.0000000000000E+00
 0.0000000000000E+00
 0.0000000000000E+00
 0.0000000000000E+00
 0.0000000000000E+00
 0.0000000000000E+00
 0.0000000000000E+00
 0.0000000000000E+00
 0.0000000000000E+00
 0.0000000000000E+00
 0.0000000000000E+00
 0.0000000000000E+00
 0.0000000000000E+00
 0.0000000000000E+00
 0.0000000000000E+00
 0.0000000000000E+00
 0.0000000000000E+00
 0.0000000000000E+00
 0.0000000000000E+00
 0.0000000000000E+00
 0.0000000000000E+00
 0.0000000000000E+00
 0.0000000000000E+00
 0.0000000000000E+00
 0.0000000000000E+00
 0.0000000000000E+00
 0.0000000000000E+00
 0.0000000000000E+00
 0.0000000000000E+00
 0.0000000000000E+00
 0.0000000000000E+00
 0.0000000000000E+00
 0.0000000000000E+00
 0.0000000000000E+00
 0.0000000000000E+00
 0.0000000000000E+00
 0.0000000000000E+00
 0.0000000000000E+00
 0.0000000000000E+00
 0.0000000000000E+00
 0.0000000000000E+00
 0.0000000000000E+00
 0.0000000000000E+00
 0.0000000000000E+00
 0.0000000000000E+00
 0.0000000000000E+00
 0.0000000000000E+00
 0.0000000000000E+00
 0.0000000000000E+00
 0.0000000000000E+00
 0.0000000000000E+00
 0.0000000000000E+00
 0.0000000000000E+00
 0.0000000000000E+00
 0.0000000000000E+00
 0.0000000000000E+00
 0.0000000000000E+00
 0.0000000000000E+00
 0.0000000000000E+00
 0.0000000000000E+00
 0.0000000000000E+00
 0.0000000000000E+00
 0.0000000000000E+00
 0.0000000000000E+00
 0.0000000000000E+00
 0.0000000000000E+00
 0.0000000000000E+00
 0.0000000000000E+00
 0.0000000000000E+00
 0.0000000000000E+00
 0.0000000000000E+00
 0.0000000000000E+00
 0.0000000000000E+00
 0.0000000000000E+00
 0.0000000000000E+00
 0.0000000000000E+00
 0.0000000000000E+00
 0.0000000000000E+00
 0.0000000000000E+00
 0.0000000000000E+00
 0.0000000000000E+00
 0.0000000000000E+00
 0.0000000000000E+00
 0.0000000000000E+00
 0.0000000000000E+00
 0.0000000000000E+00
 0.0000000000000E+00
 0.0000000000000E+00
 0.0000000000000E+00
 0.0000000000000E+00
 0.0000000000000E+00
 0.0000000000000E+00
 0.0000000000000E+00
 0.0000000000000E+00
 0.0000000000000E+00
 0.0000000000000E+00
 0.0000000000000E+00
 0.0000000000000E+00
 0.0000000000000E+00
 0.0000000000000E+00
 0.0000000000000E+00
 0.0000000000000E+00
 0.0000000000000E+00
 0.0000000000000E+00
 0.0000000000000E+00
 0.0000000000000E+00
 0.0000000000000E+00
 0.0000000000000E+00
 0.0000000000000E+00
 0.0000000000000E+00
 0.0000000000000E+00
 0.0000000000000E+00
 0.0000000000000E+00
 0.0000000000000E+00
 0.0000000000000E+00
 0.0000000000000E+00
 0.0000000000000E+00
 0.0000000000000E+00
 0.0000000000000E+00
 0.0000000000000E+00
 0.0000000000000E+00
 0.0000000000000E+00
 0.0000000000000E+00
 0.0000000000000E+00
 0.0000000000000E+00
 0.0000000000000E+00
 0.0000000000000E+00
 0.0000000000000E+00
 0.0000000000000E+00
 0.0000000000000E+00
 0.0000000000000E+00
 0.0000000000000E+00
 0.0000000000000E+00
 0.0000000000000E+00
 0.0000000000000E+00
 0.0000000000000E+00
 0.0000000000000E+00
 0.0000000000000E+00
 0.0000000000000E+00
 0.0000000000000E+00
 0.0000000000000E+00
 0.0000000000000E+00
 0.0000000000000E+00
 0.0000000000000E+00
 0.0000000000000E+00
 0.0000000000000E+00
 0.0000000000000E+00
 0.0000000000000E+00
 0.0000000000000E+00
 0.0000000000000E+00
 0.0000000000000E+00
 0.0000000000000E+00
 0.0000000000000E+00
 0.0000000000000E+00
 0.0000000000000E+00
 0.0000000000000E+00
 0.0000000000000E+00
 0.0000000000000E+00
 0.0000000000000E+00
 0.0000000000000E+00
 0.0000000000000E+00
 0.0000000000000E+00
 0.0000000000000E+00
 0.0000000000000E+00
 0.0000000000000E+00
 0.0000000000000E+00
 0.0000000000000E+00
 0.0000000000000E+00
 0.0000000000000E+00
 0.0000000000000E+00
 0.0000000000000E+00
 0.0000000000000E+00
 0.0000000000000E+00
 0.0000000000000E+00
 0.0000000000000E+00
 0.0000000000000E+00
 0.0000000000000E+00
 0.0000000000000E+00
 0.0000000000000E+00
 0.0000000000000E+00
 0.0000000000000E+00
 0.0000000000000E+00
 0.0000000000000E+00
 0.0000000000000E+00
 0.0000000000000E+00
 0.0000000000000E+00
 0.0000000000000E+00
 0.0000000000000E+00
 0.0000000000000E+00
 0.0000000000000E+00
 0.0000000000000E+00
 0.0000000000000E+00
 0.0000000000000E+00
 0.0000000000000E+00
 0.0000000000000E+00
 0.0000000000000E+00
 0.0000000000000E+00
 0.0000000000000E+00
 0.0000000000000E+00
 0.0000000000000E+00
 0.0000000000000E+00
 0.0000000000000E+00
 0.0000000000000E+00
 0.0000000000000E+00
 0.0000000000000E+00
 0.0000000000000E+00
 0.0000000000000E+00
 0.0000000000000E+00
 0.0000000000000E+00
 0.0000000000000E+00
 0.0000000000000E+00
 0.0000000000000E+00
 0.0000000000000E+00
 0.0000000000000E+00
 0.0000000000000E+00
 0.0000000000000E+00
 0.0000000000000E+00
 0.0000000000000E+00
 0.0000000000000E+00
 0.0000000000000E+00
 0.0000000000000E+00
 0.0000000000000E+00
 0.0000000000000E+00
 0.0000000000000E+00
 0.0000000000000E+00
 0.0000000000000E+00
 0.0000000000000E+00
 0.0000000000000E+00
 0.0000000000000E+00
 0.0000000000000E+00
 0.0000000000000E+00
 0.0000000000000E+00
 0.0000000000000E+00
 0.0000000000000E+00
 0.0000000000000E+00
 0.0000000000000E+00
 0.0000000000000E+00
 0.0000000000000E+00
 0.0000000000000E+00
 0.0000000000000E+00
 0.0000000000000E+00
 0.0000000000000E+00
 0.0000000000000E+00
 0.0000000000000E+00
 0.0000000000000E+00
 0.0000000000000E+00
 0.0000000000000E+00
 0.0000000000000E+00
 0.0000000000000E+00
 0.0000000000000E+00
 0.0000000000000E+00
 0.0000000000000E+00
 0.0000000000000E+00
 0.0000000000000E+00
 0.0000000000000E+00
 0.0000000000000E+00
 0.0000000000000E+00
 0.0000000000000E+00
 0.0000000000000E+00
 0.0000000000000E+00
 0.0000000000000E+00
 0.0000000000000E+00
 0.0000000000000E+00
 0.0000000000000E+00
 0.0000000000000E+00
 0.0000000000000E+00
 0.0000000000000E+00
 0.0000000000000E+00
 0.0000000000000E+00
 0.0000000000000E+00
 0.0000000000000E+00
 0.0000000000000E+00
 0.0000000000000E+00
 0.0000000000000E+00
 0.0000000000000E+00
 0.0000000000000E+00
 0.0000000000000E+00
 0.0000000000000E+00
 0.0000000000000E+00
 0.0000000000000E+00
 0.0000000000000E+00
 0.0000000000000E+00
 0.0000000000000E+00
 0.0000000000000E+00
 0.0000000000000E+00
 0.0000000000000E+00
 0.0000000000000E+00
 0.0000000000000E+00
 0.0000000000000E+00
 0.0000000000000E+00
 0.0000000000000E+00
 0.0000000000000E+00
 0.0000000000000E+00
 0.0000000000000E+00
 0.0000000000000E+00
 0.0000000000000E+00
 0.0000000000000E+00
 0.0000000000000E+00
 0.0000000000000E+00
 0.0000000000000E+00
 0.0000000000000E+00
 0.0000000000000E+00
 0.0000000000000E+00
 0.0000000000000E+00
 0.0000000000000E+00
 0.0000000000000E+00
 0.0000000000000E+00
 0.0000000000000E+00
 0.0000000000000E+00
 0.0000000000000E+00
 0.0000000000000E+00
 0.0000000000000E+00
 0.0000000000000E+00
 0.0000000000000E+00
 0.0000000000000E+00
 0.0000000000000E+00
 0.0000000000000E+00
 0.0000000000000E+00
 0.0000000000000E+00
 0.0000000000000E+00
 0.0000000000000E+00
 0.0000000000000E+00
 0.0000000000000E+00
 0.0000000000000E+00
 0.0000000000000E+00
 0.0000000000000E+00
 0.0000000000000E+00
 0.0000000000000E+00
 0.0000000000000E+00
 0.0000000000000E+00
 0.0000000000000E+00
 0.0000000000000E+00
 0.0000000000000E+00
 0.0000000000000E+00
 0.0000000000000E+00
 0.0000000000000E+00
 0.0000000000000E+00
 0.0000000000000E+00
 0.0000000000000E+00
 0.0000000000000E+00
 0.0000000000000E+00
 0.0000000000000E+00
 0.0000000000000E+00
 0.0000000000000E+00
 0.0000000000000E+00
 0.0000000000000E+00
 0.0000000000000E+00
 0.0000000000000E+00
 0.0000000000000E+00
 0.0000000000000E+00
 0.0000000000000E+00
 0.0000000000000E+00
 0.0000000000000E+00
 0.0000000000000E+00
 0.0000000000000E+00
 0.0000000000000E+00
 0.0000000000000E+00
 0.0000000000000E+00
 0.0000000000000E+00
 0.0000000000000E+00
 0.0000000000000E+00
 0.0000000000000E+00
 0.0000000000000E+00
 0.0000000000000E+00
 0.0000000000000E+00
 0.0000000000000E+00
 0.0000000000000E+00
 0.0000000000000E+00
 0.0000000000000E+00
 0.0000000000000E+00
 0.0000000000000E+00
 0.0000000000000E+00
 0.0000000000000E+00
 0.0000000000000E+00
 0.0000000000000E+00
 0.0000000000000E+00
 0.0000000000000E+00
 0.0000000000000E+00
 0.0000000000000E+00
 0.0000000000000E+00
 0.0000000000000E+00
 0.0000000000000E+00
 0.0000000000000E+00
 0.0000000000000E+00
 0.0000000000000E+00
 0.0000000000000E+00
 0.0000000000000E+00
 0.0000000000000E+00
 0.0000000000000E+00
 0.0000000000000E+00
 0.0000000000000E+00
 0.0000000000000E+00
 0.0000000000000E+00
 0.0000000000000E+00
 0.0000000000000E+00
 0.0000000000000E+00
 0.0000000000000E+00
 0.0000000000000E+00
 0.0000000000000E+00
 0.0000000000000E+00
 0.0000000000000E+00
 0.0000000000000E+00
 0.0000000000000E+00
 0.0000000000000E+00
 0.0000000000000E+00
 0.0000000000000E+00
 0.0000000000000E+00
 0.0000000000000E+00
 0.0000000000000E+00
 0.0000000000000E+00
 0.0000000000000E+00
 0.0000000000000E+00
 0.0000000000000E+00
 0.0000000000000E+00
 0.0000000000000E+00
 0.0000000000000E+00
 0.0000000000000E+00
 0.0000000000000E+00
 0.0000000000000E+00
 0.0000000000000E+00
 0.0000000000000E+00
 0.0000000000000E+00
 0.0000000000000E+00
 0.0000000000000E+00
 0.0000000000000E+00
 0.0000000000000E+00
 0.0000000000000E+00
 0.0000000000000E+00
 0.0000000000000E+00
 0.0000000000000E+00
 0.0000000000000E+00
 0.0000000000000E+00
 0.0000000000000E+00
 0.0000000000000E+00
 0.0000000000000E+00
 0.0000000000000E+00
 0.0000000000000E+00
 0.0000000000000E+00
 0.0000000000000E+00
 0.0000000000000E+00
 0.0000000000000E+00
 0.0000000000000E+00
 0.0000000000000E+00
 0.0000000000000E+00
 0.0000000000000E+00
 0.0000000000000E+00
 0.0000000000000E+00
 0.0000000000000E+00
 0.0000000000000E+00
 0.0000000000000E+00
 0.0000000000000E+00
 0.0000000000000E+00
 0.0000000000000E+00
 0.0000000000000E+00
 0.0000000000000E+00
 0.0000000000000E+00
 0.0000000000000E+00
 0.0000000000000E+00
 0.0000000000000E+00
 0.0000000000000E+00
 0.0000000000000E+00
 0.0000000000000E+00
 0.0000000000000E+00
 0.0000000000000E+00
 0.0000000000000E+00
 0.0000000000000E+00
 0.0000000000000E+00
 0.0000000000000E+00
 0.0000000000000E+00
 0.0000000000000E+00
 0.0000000000000E+00
 0.0000000000000E+00
 0.0000000000000E+00
 0.0000000000000E+00
 0.0000000000000E+00
 0.0000000000000E+00
 0.0000000000000E+00
 0.0000000000000E+00
 0.0000000000000E+00
 0.0000000000000E+00
 0.0000000000000E+00
 0.0000000000000E+00
 0.0000000000000E+00
 0.0000000000000E+00
 0.0000000000000E+00
 0.0000000000000E+00
 0.0000000000000E+00
 0.0000000000000E+00
 0.0000000000000E+00
 0.0000000000000E+00
 0.0000000000000E+00
 0.0000000000000E+00
 0.0000000000000E+00
 0.0000000000000E+00
 0.0000000000000E+00
 0.0000000000000E+00
 0.0000000000000E+00
 0.0000000000000E+00
 0.0000000000000E+00
 0.0000000000000E+00
 0.0000000000000E+00
 0.0000000000000E+00
 0.0000000000000E+00
 0.0000000000000E+00
 0.0000000000000E+00
 0.0000000000000E+00
 0.0000000000000E+00
 0.0000000000000E+00
 0.0000000000000E+00
 0.0000000000000E+00
 0.0000000000000E+00
 0.0000000000000E+00
 0.0000000000000E+00
 0.0000000000000E+00
 0.0000000000000E+00
 0.0000000000000E+00
 0.0000000000000E+00
 0.0000000000000E+00
 0.0000000000000E+00
 0.0000000000000E+00
 0.0000000000000E+00
 0.0000000000000E+00
 0.0000000000000E+00
 0.0000000000000E+00
 0.0000000000000E+00
 0.0000000000000E+00
 0.0000000000000E+00
 0.0000000000000E+00
 0.0000000000000E+00
 0.0000000000000E+00
 0.0000000000000E+00
 0.0000000000000E+00
 0.0000000000000E+00
 0.0000000000000E+00
 0.0000000000000E+00
 0.0000000000000E+00
 0.0000000000000E+00
 0.0000000000000E+00
 0.0000000000000E+00
 0.0000000000000E+00
 0.0000000000000E+00
 0.0000000000000E+00
 0.0000000000000E+00
 0.0000000000000E+00
 0.0000000000000E+00
 0.0000000000000E+00
 0.0000000000000E+00
 0.0000000000000E+00
 0.0000000000000E+00
 0.0000000000000E+00
 0.0000000000000E+00
 0.0000000000000E+00
 0.0000000000000E+00
 0.0000000000000E+00
 0.0000000000000E+00
 0.0000000000000E+00
 0.0000000000000E+00
 0.0000000000000E+00
 0.0000000000000E+00
 0.0000000000000E+00
 0.0000000000000E+00
 0.0000000000000E+00
 0.0000000000000E+00
 0.0000000000000E+00
 0.0000000000000E+00
 0.0000000000000E+00
 0.0000000000000E+00
 0.0000000000000E+00
 0.0000000000000E+00
 0.0000000000000E+00
 0.0000000000000E+00
 0.0000000000000E+00
 0.0000000000000E+00
 0.0000000000000E+00
 0.0000000000000E+00
 0.0000000000000E+00
 0.0000000000000E+00
 0.0000000000000E+00
 0.0000000000000E+00
 0.0000000000000E+00
 0.0000000000000E+00
 0.0000000000000E+00
 0.0000000000000E+00
 0.0000000000000E+00
 0.0000000000000E+00
 0.0000000000000E+00
 0.0000000000000E+00
 0.0000000000000E+00
 0.0000000000000E+00
 0.0000000000000E+00
 0.0000000000000E+00
 0.0000000000000E+00
 0.0000000000000E+00
 0.0000000000000E+00
 0.0000000000000E+00
 0.0000000000000E+00
 0.0000000000000E+00
 0.0000000000000E+00
 0.0000000000000E+00
 0.0000000000000E+00
 0.0000000000000E+00
 0.0000000000000E+00
 0.0000000000000E+00
 0.0000000000000E+00
 0.0000000000000E+00
 0.0000000000000E+00
 0.0000000000000E+00
 0.0000000000000E+00
 0.0000000000000E+00
 0.0000000000000E+00
 0.0000000000000E+00
 0.0000000000000E+00
 0.0000000000000E+00
 0.0000000000000E+00
 0.0000000000000E+00
 0.0000000000000E+00
 0.0000000000000E+00
 0.0000000000000E+00
 0.0000000000000E+00
 0.0000000000000E+00
 0.0000000000000E+00
 0.0000000000000E+00
 0.0000000000000E+00
 0.0000000000000E+00
 0.0000000000000E+00
 0.0000000000000E+00
 0.0000000000000E+00
 0.0000000000000E+00
 0.0000000000000E+00
 0.0000000000000E+00
 0.0000000000000E+00
 0.0000000000000E+00
 0.0000000000000E+00
 0.0000000000000E+00
 0.0000000000000E+00
 0.0000000000000E+00
 0.0000000000000E+00
 0.0000000000000E+00
 0.0000000000000E+00
 0.0000000000000E+00
 0.0000000000000E+00
 0.0000000000000E+00
 0.0000000000000E+00
 0.0000000000000E+00
 0.0000000000000E+00
 0.0000000000000E+00
 0.0000000000000E+00
 0.0000000000000E+00
 0.0000000000000E+00
 0.0000000000000E+00
 0.0000000000000E+00
 0.0000000000000E+00
 0.0000000000000E+00
 0.0000000000000E+00
 0.0000000000000E+00
 0.0000000000000E+00
 0.0000000000000E+00
 0.0000000000000E+00
 0.0000000000000E+00
 0.0000000000000E+00
 0.0000000000000E+00
 0.0000000000000E+00
 0.0000000000000E+00
 0.0000000000000E+00
 0.0000000000000E+00
 0.0000000000000E+00
 0.0000000000000E+00
 0.0000000000000E+00
 0.0000000000000E+00
 0.0000000000000E+00
 0.0000000000000E+00
 0.0000000000000E+00
 0.0000000000000E+00
 0.0000000000000E+00
 0.0000000000000E+00
 0.0000000000000E+00
 0.0000000000000E+00
 0.0000000000000E+00
 0.0000000000000E+00
 0.0000000000000E+00
 0.0000000000000E+00
 0.0000000000000E+00
 0.0000000000000E+00
 0.0000000000000E+00
 0.0000000000000E+00
 0.0000000000000E+00
 0.0000000000000E+00
 0.0000000000000E+00
 0.0000000000000E+00
 0.0000000000000E+00
 0.0000000000000E+00
 0.0000000000000E+00
 0.0000000000000E+00
 0.0000000000000E+00
 0.0000000000000E+00
 0.0000000000000E+00
 0.0000000000000E+00
 0.0000000000000E+00
 0.0000000000000E+00
 0.0000000000000E+00
 0.0000000000000E+00
 0.0000000000000E+00
 0.0000000000000E+00
 0.0000000000000E+00
 0.0000000000000E+00
 0.0000000000000E+00
 0.0000000000000E+00
 0.0000000000000E+00
 0.0000000000000E+00
 0.0000000000000E+00
 0.0000000000000E+00
 0.0000000000000E+00
 0.0000000000000E+00
 0.0000000000000E+00
 0.0000000000000E+00
 0.0000000000000E+00
 0.0000000000000E+00
 0.0000000000000E+00
 0.0000000000000E+00
 0.0000000000000E+00
 0.0000000000000E+00
 0.0000000000000E+00
 0.0000000000000E+00
 0.0000000000000E+00
 0.0000000000000E+00
 0.0000000000000E+00
 0.0000000000000E+00
 0.0000000000000E+00
 0.0000000000000E+00
 0.0000000000000E+00
 0.0000000000000E+00
 0.0000000000000E+00
 0.0000000000000E+00
 0.0000000000000E+00
 0.0000000000000E+00
 0.0000000000000E+00
 0.0000000000000E+00
 0.0000000000000E+00
 0.0000000000000E+00
 0.0000000000000E+00
 0.0000000000000E+00
 0.0000000000000E+00
 0.0000000000000E+00
 0.0000000000000E+00
 0.0000000000000E+00
 0.0000000000000E+00
 0.0000000000000E+00
 0.0000000000000E+00
 0.0000000000000E+00
 0.0000000000000E+00
 0.0000000000000E+00
 0.0000000000000E+00
 0.0000000000000E+00
 0.0000000000000E+00
 0.0000000000000E+00
 0.0000000000000E+00
 0.0000000000000E+00
 0.0000000000000E+00
 0.0000000000000E+00
 0.0000000000000E+00
 0.0000000000000E+00
 0.0000000000000E+00
 0.0000000000000E+00
 0.0000000000000E+00
 0.0000000000000E+00
 0.0000000000000E+00
 0.0000000000000E+00
 0.0000000000000E+00
 0.0000000000000E+00
 0.0000000000000E+00
 0.0000000000000E+00
 0.0000000000000E+00
 0.0000000000000E+00
 0.0000000000000E+00
 0.0000000000000E+00
 0.0000000000000E+00
 0.0000000000000E+00
 0.0000000000000E+00
 0.0000000000000E+00
 0.0000000000000E+00
 0.0000000000000E+00
 0.0000000000000E+00
 0.0000000000000E+00
 0.0000000000000E+00
 0.0000000000000E+00
 0.0000000000000E+00
 0.0000000000000E+00
 0.0000000000000E+00
 0.0000000000000E+00
 0.0000000000000E+00
 0.0000000000000E+00
 0.0000000000000E+00
 0.0000000000000E+00
 0.0000000000000E+00
 0.0000000000000E+00
 0.0000000000000E+00
 0.0000000000000E+00
 0.0000000000000E+00
 0.0000000000000E+00
 0.0000000000000E+00
 0.0000000000000E+00
 0.0000000000000E+00
 0.0000000000000E+00
 0.0000000000000E+00
 0.0000000000000E+00
 0.0000000000000E+00
 0.0000000000000E+00
 0.0000000000000E+00
 0.0000000000000E+00
 0.0000000000000E+00
 0.0000000000000E+00
 0.0000000000000E+00
 0.0000000000000E+00
 0.0000000000000E+00
 0.0000000000000E+00
 0.0000000000000E+00
 0.0000000000000E+00
 0.0000000000000E+00
 0.0000000000000E+00
 0.0000000000000E+00
 0.0000000000000E+00
 0.0000000000000E+00
 0.0000000000000E+00
 0.0000000000000E+00
 0.0000000000000E+00
 0.0000000000000E+00
 0.0000000000000E+00
 0.0000000000000E+00
 0.0000000000000E+00
 0.0000000000000E+00
 0.0000000000000E+00
 0.0000000000000E+00
 0.0000000000000E+00
 0.0000000000000E+00
 0.0000000000000E+00
 0.0000000000000E+00
 0.0000000000000E+00
 0.0000000000000E+00
 0.0000000000000E+00
 0.0000000000000E+00
 0.0000000000000E+00
 0.0000000000000E+00
 0.0000000000000E+00
 0.0000000000000E+00
 0.0000000000000E+00
 0.0000000000000E+00
 0.0000000000000E+00
 0.0000000000000E+00
 0.0000000000000E+00
 0.0000000000000E+00
 0.0000000000000E+00
 0.0000000000000E+00
 0.0000000000000E+00
 0.0000000000000E+00
 0.0000000000000E+00
 0.0000000000000E+00
 0.0000000000000E+00
 0.0000000000000E+00
 0.0000000000000E+00
 0.0000000000000E+00
 0.0000000000000E+00
 0.0000000000000E+00
 0.0000000000000E+00
 0.0000000000000E+00
 0.0000000000000E+00
 0.0000000000000E+00
 0.0000000000000E+00
 0.0000000000000E+00
 0.0000000000000E+00
 0.0000000000000E+00
 0.0000000000000E+00
 0.0000000000000E+00
 0.0000000000000E+00
 0.0000000000000E+00
 0.0000000000000E+00
 0.0000000000000E+00
 0.0000000000000E+00
 0.0000000000000E+00
 0.0000000000000E+00
 0.0000000000000E+00
 0.0000000000000E+00
 0.0000000000000E+00
 0.0000000000000E+00
 0.0000000000000E+00
 0.0000000000000E+00
 0.0000000000000E+00
 0.0000000000000E+00
 0.0000000000000E+00
 0.0000000000000E+00
 0.0000000000000E+00
 0.0000000000000E+00
 0.0000000000000E+00
 0.0000000000000E+00
 0.0000000000000E+00
 0.0000000000000E+00
 0.0000000000000E+00
 0.0000000000000E+00
 0.0000000000000E+00
 0.0000000000000E+00
 0.0000000000000E+00
 0.0000000000000E+00
 0.0000000000000E+00
 0.0000000000000E+00
 0.0000000000000E+00
 0.0000000000000E+00
 0.0000000000000E+00
 0.0000000000000E+00
 0.0000000000000E+00
 0.0000000000000E+00
 0.0000000000000E+00
 0.0000000000000E+00
 0.0000000000000E+00
 0.0000000000000E+00
 0.0000000000000E+00
 0.0000000000000E+00
 0.0000000000000E+00
 0.0000000000000E+00
 0.0000000000000E+00
 0.0000000000000E+00
 0.0000000000000E+00
 0.0000000000000E+00
 0.0000000000000E+00
 0.0000000000000E+00
 0.0000000000000E+00
 0.0000000000000E+00
 0.0000000000000E+00
 0.0000000000000E+00
 0.0000000000000E+00
 0.0000000000000E+00
 0.0000000000000E+00
 0.0000000000000E+00
 0.0000000000000E+00
 0.0000000000000E+00
 0.0000000000000E+00
 0.0000000000000E+00
 0.0000000000000E+00
 0.0000000000000E+00
 0.0000000000000E+00
 0.0000000000000E+00
 0.0000000000000E+00
 0.0000000000000E+00
 0.0000000000000E+00
 0.0000000000000E+00
 0.0000000000000E+00
 0.0000000000000E+00
 0.0000000000000E+00
 0.0000000000000E+00
 0.0000000000000E+00
 0.0000000000000E+00
 0.0000000000000E+00
 0.0000000000000E+00
 0.0000000000000E+00
 0.0000000000000E+00
 0.0000000000000E+00
 0.0000000000000E+00
 0.0000000000000E+00
 0.0000000000000E+00
 0.0000000000000E+00
 0.0000000000000E+00
 0.0000000000000E+00
 0.0000000000000E+00
 0.0000000000000E+00
 0.0000000000000E+00
 0.0000000000000E+00
 0.0000000000000E+00
 0.0000000000000E+00
 0.0000000000000E+00
 0.0000000000000E+00
 0.0000000000000E+00
 0.0000000000000E+00
 0.0000000000000E+00
 0.0000000000000E+00
 0.0000000000000E+00
 0.0000000000000E+00
 0.0000000000000E+00
 0.0000000000000E+00
 0.0000000000000E+00
 0.0000000000000E+00
 0.0000000000000E+00
 0.0000000000000E+00
 0.0000000000000E+00
 0.0000000000000E+00
 0.0000000000000E+00
 0.0000000000000E+00
 0.0000000000000E+00
 0.0000000000000E+00
 0.0000000000000E+00
 0.0000000000000E+00
 0.0000000000000E+00
 0.0000000000000E+00
 0.0000000000000E+00
 0.0000000000000E+00
 0.0000000000000E+00
 0.0000000000000E+00
 0.0000000000000E+00
 0.0000000000000E+00
 0.0000000000000E+00
 0.0000000000000E+00
 0.0000000000000E+00
 0.0000000000000E+00
 0.0000000000000E+00
 0.0000000000000E+00
 0.0000000000000E+00
 0.0000000000000E+00
 0.0000000000000E+00
 0.0000000000000E+00
 0.0000000000000E+00
 0.0000000000000E+00
 0.0000000000000E+00
 0.0000000000000E+00
 0.0000000000000E+00
 0.0000000000000E+00
 0.0000000000000E+00
 0.0000000000000E+00
 0.0000000000000E+00
 0.0000000000000E+00
 0.0000000000000E+00
 0.0000000000000E+00
 0.0000000000000E+00
 0.0000000000000E+00
 0.0000000000000E+00
 0.0000000000000E+00
 0.0000000000000E+00
 0.0000000000000E+00
 0.0000000000000E+00
 0.0000000000000E+00
 0.0000000000000E+00
 0.0000000000000E+00
 0.0000000000000E+00
 0.0000000000000E+00
 0.0000000000000E+00
 0.0000000000000E+00
 0.0000000000000E+00
 0.0000000000000E+00
 0.0000000000000E+00
 0.0000000000000E+00
 0.0000000000000E+00
 0.0000000000000E+00
 0.0000000000000E+00
 0.0000000000000E+00
 0.0000000000000E+00
 0.0000000000000E+00
 0.0000000000000E+00
 0.0000000000000E+00
 0.0000000000000E+00
 0.0000000000000E+00
 0.0000000000000E+00
 0.0000000000000E+00
 0.0000000000000E+00
 0.0000000000000E+00
 0.0000000000000E+00
 0.0000000000000E+00
 0.0000000000000E+00
 0.0000000000000E+00
 0.0000000000000E+00
 0.0000000000000E+00
 0.0000000000000E+00
 0.0000000000000E+00
 0.0000000000000E+00
 0.0000000000000E+00
 0.0000000000000E+00
 0.0000000000000E+00
 0.0000000000000E+00
 0.0000000000000E+00
 0.0000000000000E+00
 0.0000000000000E+00
 0.0000000000000E+00
 0.0000000000000E+00
 0.0000000000000E+00
 0.0000000000000E+00
 0.0000000000000E+00
 0.0000000000000E+00
 0.0000000000000E+00
 0.0000000000000E+00
 0.0000000000000E+00
 0.0000000000000E+00
 0.0000000000000E+00
 0.0000000000000E+00
 0.0000000000000E+00
 0.0000000000000E+00
 0.0000000000000E+00
 0.0000000000000E+00
 0.0000000000000E+00
 0.0000000000000E+00
 0.0000000000000E+00
 0.0000000000000E+00
 0.0000000000000E+00
 0.0000000000000E+00
 0.0000000000000E+00
 0.0000000000000E+00
 0.0000000000000E+00
 0.0000000000000E+00
 0.0000000000000E+00
 0.0000000000000E+00
 0.0000000000000E+00
 0.0000000000000E+00
 0.0000000000000E+00
 0.0000000000000E+00
 0.0000000000000E+00
 0.0000000000000E+00
 0.0000000000000E+00
 0.0000000000000E+00
 0.0000000000000E+00
 0.0000000000000E+00
 0.0000000000000E+00
 0.0000000000000E+00
 0.0000000000000E+00
 0.0000000000000E+00
 0.0000000000000E+00
 0.0000000000000E+00
 0.0000000000000E+00
 0.0000000000000E+00
 0.0000000000000E+00
 0.0000000000000E+00
 0.0000000000000E+00
 0.0000000000000E+00
 0.0000000000000E+00
 0.0000000000000E+00
 0.0000000000000E+00
 0.0000000000000E+00
 0.0000000000000E+00
 0.0000000000000E+00
 0.0000000000000E+00
 0.0000000000000E+00
 0.0000000000000E+00
 0.0000000000000E+00
 0.0000000000000E+00
 0.0000000000000E+00
 0.0000000000000E+00
 0.0000000000000E+00
 0.0000000000000E+00
 0.0000000000000E+00
 0.0000000000000E+00
 0.0000000000000E+00
 0.0000000000000E+00
 0.0000000000000E+00
 0.0000000000000E+00
 0.0000000000000E+00
 0.0000000000000E+00
 0.0000000000000E+00
 0.0000000000000E+00
 0.0000000000000E+00
 0.0000000000000E+00
 0.0000000000000E+00
 0.0000000000000E+00
 0.0000000000000E+00
 0.0000000000000E+00
 0.0000000000000E+00
 0.0000000000000E+00
 0.0000000000000E+00
 0.0000000000000E+00
 0.0000000000000E+00
 0.0000000000000E+00
 0.0000000000000E+00
 0.0000000000000E+00
 0.0000000000000E+00
 0.0000000000000E+00
 0.0000000000000E+00
 0.0000000000000E+00
 0.0000000000000E+00
 0.0000000000000E+00
 0.0000000000000E+00
 0.0000000000000E+00
 0.0000000000000E+00
 0.0000000000000E+00
 0.0000000000000E+00
 0.0000000000000E+00
 0.0000000000000E+00
 0.0000000000000E+00
 0.0000000000000E+00
 0.0000000000000E+00
 0.0000000000000E+00
 0.0000000000000E+00
 0.0000000000000E+00
 0.0000000000000E+00
 0.0000000000000E+00
 0.0000000000000E+00
 0.0000000000000E+00
 0.0000000000000E+00
 0.0000000000000E+00
 0.0000000000000E+00
 0.0000000000000E+00
 0.0000000000000E+00
 0.0000000000000E+00
 0.0000000000000E+00
 0.0000000000000E+00
 0.0000000000000E+00
 0.0000000000000E+00
 0.0000000000000E+00
 0.0000000000000E+00
 0.0000000000000E+00
 0.0000000000000E+00
 0.0000000000000E+00
 0.0000000000000E+00
 0.0000000000000E+00
 0.0000000000000E+00
 0.0000000000000E+00
 0.0000000000000E+00
 0.0000000000000E+00
 0.0000000000000E+00
 0.0000000000000E+00
 0.0000000000000E+00
 0.0000000000000E+00
 0.0000000000000E+00
 0.0000000000000E+00
 0.0000000000000E+00
 0.0000000000000E+00
 0.0000000000000E+00
 0.0000000000000E+00
 0.0000000000000E+00
 0.0000000000000E+00
 0.0000000000000E+00
 0.0000000000000E+00
 0.0000000000000E+00
 0.0000000000000E+00
 0.0000000000000E+00
 0.0000000000000E+00
 0.0000000000000E+00
 0.0000000000000E+00
 0.0000000000000E+00
 0.0000000000000E+00
 0.0000000000000E+00
 0.0000000000000E+00
 0.0000000000000E+00
 0.0000000000000E+00
 0.0000000000000E+00
 0.0000000000000E+00
 0.0000000000000E+00
 0.0000000000000E+00
 0.0000000000000E+00
 0.0000000000000E+00
 0.0000000000000E+00
 0.0000000000000E+00
 0.0000000000000E+00
 0.0000000000000E+00
 0.0000000000000E+00
 0.0000000000000E+00
 0.0000000000000E+00
 0.0000000000000E+00
 0.0000000000000E+00
 0.0000000000000E+00
 0.0000000000000E+00
 0.0000000000000E+00
 0.0000000000000E+00
 0.0000000000000E+00
 0.0000000000000E+00
 0.0000000000000E+00
 0.0000000000000E+00
 0.0000000000000E+00
 0.0000000000000E+00
 0.0000000000000E+00
 0.0000000000000E+00
 0.0000000000000E+00
 0.0000000000000E+00
 0.0000000000000E+00
 0.0000000000000E+00
 0.0000000000000E+00
 0.0000000000000E+00
 0.0000000000000E+00
 0.0000000000000E+00
 0.0000000000000E+00
 0.0000000000000E+00
 0.0000000000000E+00
 0.0000000000000E+00
 0.0000000000000E+00
 0.0000000000000E+00
 0.0000000000000E+00
 0.0000000000000E+00
 0.0000000000000E+00
 0.0000000000000E+00
 0.0000000000000E+00
 0.0000000000000E+00
 0.0000000000000E+00
 0.0000000000000E+00
 0.0000000000000E+00
 0.0000000000000E+00
 0.0000000000000E+00
 0.0000000000000E+00
 0.0000000000000E+00
 0.0000000000000E+00
 0.0000000000000E+00
 0.0000000000000E+00
 0.0000000000000E+00
 0.0000000000000E+00
 0.0000000000000E+00
 0.0000000000000E+00
 0.0000000000000E+00
 0.0000000000000E+00
 0.0000000000000E+00
 0.0000000000000E+00
 0.0000000000000E+00
 0.0000000000000E+00
 0.0000000000000E+00
 0.0000000000000E+00
 0.0000000000000E+00
 0.0000000000000E+00
 0.0000000000000E+00
 0.0000000000000E+00
 0.0000000000000E+00
 0.0000000000000E+00
 0.0000000000000E+00
 0.0000000000000E+00
 0.0000000000000E+00
 0.0000000000000E+00
 0.0000000000000E+00
 0.0000000000000E+00
 0.0000000000000E+00
 0.0000000000000E+00
 0.0000000000000E+00
 0.0000000000000E+00
 0.0000000000000E+00
 0.0000000000000E+00
 0.0000000000000E+00
 0.0000000000000E+00
 0.0000000000000E+00
 0.0000000000000E+00
 0.0000000000000E+00
 0.0000000000000E+00
 0.0000000000000E+00
 0.0000000000000E+00
 0.0000000000000E+00
 0.0000000000000E+00
 0.0000000000000E+00
 0.0000000000000E+00
 0.0000000000000E+00
 0.0000000000000E+00
 0.0000000000000E+00
 0.0000000000000E+00
 0.0000000000000E+00
 0.0000000000000E+00
 0.0000000000000E+00
 0.0000000000000E+00
 0.0000000000000E+00
 0.0000000000000E+00
 0.0000000000000E+00
 0.0000000000000E+00
 0.0000000000000E+00
 0.0000000000000E+00
 0.0000000000000E+00
 0.0000000000000E+00
 0.0000000000000E+00
 0.0000000000000E+00
 0.0000000000000E+00
 0.0000000000000E+00
 0.0000000000000E+00
 0.0000000000000E+00
 0.0000000000000E+00
 0.0000000000000E+00
 0.0000000000000E+00
 0.0000000000000E+00
 0.0000000000000E+00
 0.0000000000000E+00
 0.0000000000000E+00
 0.0000000000000E+00
 0.0000000000000E+00
 0.0000000000000E+00
 0.0000000000000E+00
 0.0000000000000E+00
 0.0000000000000E+00
 0.0000000000000E+00
 0.0000000000000E+00
 0.0000000000000E+00
 0.0000000000000E+00
 0.0000000000000E+00
 0.0000000000000E+00
 0.0000000000000E+00
 0.0000000000000E+00
 0.0000000000000E+00
 0.0000000000000E+00
 0.0000000000000E+00
 0.0000000000000E+00
 0.0000000000000E+00
 0.0000000000000E+00
 0.0000000000000E+00
 0.0000000000000E+00
 0.0000000000000E+00
 0.0000000000000E+00
 0.0000000000000E+00
 0.0000000000000E+00
 0.0000000000000E+00
 0.0000000000000E+00
 0.0000000000000E+00
 0.0000000000000E+00
 0.0000000000000E+00
 0.0000000000000E+00
 0.0000000000000E+00
 0.0000000000000E+00
 0.0000000000000E+00
 0.0000000000000E+00
 0.0000000000000E+00
 0.0000000000000E+00
 0.0000000000000E+00
 0.0000000000000E+00
 0.0000000000000E+00
 0.0000000000000E+00
 0.0000000000000E+00
 0.0000000000000E+00
 0.0000000000000E+00
 0.0000000000000E+00
 0.0000000000000E+00
 0.0000000000000E+00
 0.0000000000000E+00
 0.0000000000000E+00
 0.0000000000000E+00
 0.0000000000000E+00
 0.0000000000000E+00
 0.0000000000000E+00
 0.0000000000000E+00
 0.0000000000000E+00
 0.0000000000000E+00
 0.0000000000000E+00
 0.0000000000000E+00
 0.0000000000000E+00
 0.0000000000000E+00
 0.0000000000000E+00
 0.0000000000000E+00
 0.0000000000000E+00
 0.0000000000000E+00
 0.0000000000000E+00
 0.0000000000000E+00
 0.0000000000000E+00
 0.0000000000000E+00
 0.0000000000000E+00
 0.0000000000000E+00
 0.0000000000000E+00
 0.0000000000000E+00
 0.0000000000000E+00
 0.0000000000000E+00
 0.0000000000000E+00
 0.0000000000000E+00
 0.0000000000000E+00
 0.0000000000000E+00
 0.0000000000000E+00
 0.0000000000000E+00
 0.0000000000000E+00
 0.0000000000000E+00
 0.0000000000000E+00
 0.0000000000000E+00
 0.0000000000000E+00
 0.0000000000000E+00
 0.0000000000000E+00
 0.0000000000000E+00
 0.0000000000000E+00
 0.0000000000000E+00
 0.0000000000000E+00
 0.0000000000000E+00
 0.0000000000000E+00
</DataArray>
<DataArray type="Int32" Name="Region" format="ascii">
           1
           1
           1
           1
           1
           1
           1
           1
           1
           1
           1
           1
           1
           1
           1
           1
           1
           1
           1
           1
           1
           1
           1
           1
           1
           1
           1
           1
           1
           1
           1
           1
           1
           1
           1
           1
           1
           1
           1
           1
           1
           1
           1
           1
           1
           1
           1
           1
           1
           1
           1
           1
           1
           1
           1
           1
           1
           1
           1
           1
           1
           1
           1
           1
           1
           1
           1
           1
           1
           1
           1
           1
           1
           1
           1
           1
           1
           1
           1
           1
           1
           1
           1
           1
           1
           1
           1
           1
           1
           1
           1
           1
           1
           1
           1
           1
           1
           1
           1
           1
           1
           1
           1
           1
           1
           1
           1
           1
           1
           1
           1
           1
           1
           1
           1
           1
           1
           1
           1
           1
           1
           1
           1
           1
           1
           1
           1
           1
           1
           1
           1
           1
           1
           1
           1
           1
           1
           1
           1
           1
           1
           1
           1
           1
           1
           1
           1
           1
           1
           1
           1
           1
           1
           1
           1
           1
           1
           1
           1
           1
           1
           1
           1
           1
           1
           1
           1
           1
           1
           1
           1
           1
           1
           1
           1
           1
           1
           1
           1
           1
           1
           1
           1
           1
           1
           1
           1
           1
           1
           1
           1
           1
           1
           1
           1
           1
           1
           1
           1
           1
           1
           1
           1
           1
           1
           1
           1
           1
           1
           1
           1
           1
           1
           1
           1
           1
           1
           1
           1
           1
           1
           1
           1
           1
           1
           1
           1
           1
           1
           1
           1
           1
           1
           1
           1
           1
           1
           1
           1
           1
           1
           1
           1
           1
           1
           1
           1
           1
           1
           1
           1
           1
           1
           1
           1
           1
           1
           1
           1
           1
           1
           1
           1
           1
           1
           1
           1
           1
           1
           1
           1
           1
           1
           1
           1
           1
           1
           1
           1
           1
           1
           1
           1
           1
           1
           1
           1
           1
           1
           1
           1
           1
           1
           1
           1
           1
           1
           1
           1
           1
           1
           1
           1
           1
           1
           1
           1
           1
           1
           1
           1
           1
           1
           1
           1
           1
           1
           1
           1
           1
           1
           1
           1
           1
           1
           1
           1
           1
           1
           1
           1
           1
           1
           1
           1
           1
           1
           1
           1
           1
           1
           1
           1
           1
           1
           1
           1
           1
           1
           1
           1
           1
           1
           1
           1
           1
           1
           1
           1
           1
           1
           1
           1
           1
           1
           1
           1
           1
           1
           1
           1
           1
           1
           1
           1
           1
           1
           1
           1
           1
           1
           1
           1
           1
           1
           1
           1
           1
           1
           1
           1
           1
           1
           1
           1
           1
           1
           1
           1
           1
           1
           1
           1
           1
           1
           1
           1
           1
           1
           1
           1
           1
           1
           1
           1
           1
           1
           1
           1
           1
           1
           1
           1
           1
           1
           1
           1
           1
           1
           1
           1
           1
           1
           1
           1
           1
           1
           1
           1
           1
           1
           1
           1
           1
           1
           1
           1
           1
           1
           1
           1
           1
           1
           1
           1
           1
           1
           1
           1
           1
           1
           1
           1
           1
           1
           1
           1
           1
           1
           1
           1
           1
           1
           1
           1
           1
           1
           1
           1
           1
           1
           1
           1
           1
           1
           1
           1
           1
           1
           1
           1
           1
           1
           1
           1
           1
           1
           1
           1
           1
           1
           1
           1
           1
           1
           1
           1
           1
           1
           1
           1
           1
           1
           1
           1
           1
           1
           1
           1
           1
           1
           1
           1
           1
           1
           1
           1
           1
           1
           1
           1
           1
           1
           1
           1
           1
           1
           1
           1
           1
           1
           1
           1
           1
           1
           1
           1
           1
           1
           1
           1
           1
           1
           1
           1
           1
           1
           1
           1
           1
           1
           1
           1
           1
           1
           1
           1
           1
           1
           1
           1
           1
           1
           1
           1
           1
           1
           1
           1
           1
           1
           1
           1
           1
           1
           1
           1
           1
           1
           1
           1
           1
           1
           1
           1
           1
           1
           1
           1
           1
           1
           1
           1
           1
           1
           1
           1
           1
           1
           1
           1
           1
           1
           1
           1
           1
           1
           1
           1
           1
           1
           1
           1
           1
           1
           1
           1
           1
           1
           1
           1
           1
           1
           1
           1
           1
           1
           1
           1
           1
           1
           1
           1
           1
           1
           1
           1
           1
           1
           1
           1
           1
           1
           1
           1
           1
           1
           1
           1
           1
           1
           1
           1
           1
           1
           1
           1
           1
           1
           1
           1
           1
           1
           1
           1
           1
           1
           1
           1
           1
           1
           1
           1
           1
           1
           1
           1
           1
           1
           1
           1
           1
           1
           1
           1
           1
           1
           1
           1
           1
           1
           1
           1
           1
           1
           1
           1
           1
           1
           1
           1
           1
           1
           1
           1
           1
           1
           1
           1
           1
           1
           1
           1
           1
           1
           1
           1
           1
           1
           1
           1
           1
           1
           1
           1
           1
           1
           1
           1
           1
           1
           1
           1
           1
           1
           1
           1
           1
           1
           1
           1
           1
           1
           1
           1
           1
           1
           1
           1
           1
           1
           1
           1
           1
           1
           1
           1
           1
           1
           1
           1
           1
           1
           1
           1
           1
           1
           1
           1
           1
           1
           1
           1
           1
           1
           1
           1
           1
           1
           1
           1
           1
           1
           1
           1
           1
           1
           1
           1
           1
           1
           1
           1
           1
           1
           1
           1
           1
           1
           1
           1
           1
           1
           1
           1
           1
           1
           1
           1
           1
           1
           1
           1
           1
           1
           1
           1
           1
           1
           1
           1
           1
           1
           1
           1
           1
           1
           1
           1
           1
           1
           1
           1
           1
           1
           1
           1
           1
           1
           1
           1
           1
           1
           1
           1
           1
           1
           1
           1
           1
           1
           1
           1
           1
           1
           1
           1
           1
           1
           1
           1
           1
           1
           1
           1
           1
           1
           1
           1
           1
           1
           1
           1
           1
           1
           1
           1
           1
           1
           1
           1
           1
           1
           1
           1
           1
           1
           1
           1
           1
           1
           1
           1
           1
           1
           1
           1
           1
           1
           1
           1
           1
           1
           1
           1
           1
           1
           1
           1
           1
           1
           1
           1
           1
           1
           1
           1
           1
           1
           1
           1
           1
           1
           1
           1
           1
           1
           1
           1
           1
           1
           1
           1
           1
           1
           1
           1
           1
           1
           1
           1
           1
           1
           1
           1
           1
           1
           1
           1
           1
           1
           1
           1
           1
           1
           1
           1
           1
           1
           1
           1
           1
           1
           1
           1
           1
           1
           1
           1
           1
           1
           1
           1
           1
           1
           1
           1
           1
           1
           1
           1
           1
           1
           1
           1
           1
           1
           1
           1
           1
           1
           1
           1
           1
           1
           1
           1
           1
           1
           1
           1
           1
           1
           1
           1
           1
           1
           1
           1
           1
           1
           1
           1
           1
           1
           1
           1
           1
           1
           1
           1
           1
           1
           1
           1
           1
           1
           1
           1
           1
           1
           1
           1
           1
           1
           1
           1
           1
           1
           1
           1
           1
           1
           1
           1
           1
           1
           1
           1
           1
           1
           1
           1
           1
           1
           1
           1
           1
           1
           1
           1
           1
           1
           1
           1
           1
           1
           1
           1
           1
           1
           1
           1
           1
           1
           1
           1
           1
           1
           1
           1
           1
           1
           1
           1
           1
           1
           1
           1
           1
           1
           1
           1
           1
           1
           1
           1
           1
           1
           1
           1
           1
           1
           1
           1
           1
           1
           1
           1
           1
           1
           1
           1
           1
           1
           1
           1
           1
           1
           1
           1
           1
           1
           1
           1
           1
           1
           1
           1
           1
           1
           1
           1
           1
           1
           1
           1
           1
           1
           1
           1
           1
           1
           1
           1
           1
           1
           1
           1
           1
           1
           1
           1
           1
           1
           1
           1
           1
           1
           1
           1
           1
           1
           1
           1
           1
           1
           1
           1
           1
           1
           1
           1
           1
           1
           1
           1
           1
           1
           1
           1
           1
           1
           1
           1
           1
           1
           1
           1
           1
           1
           1
           1
           1
           1
           1
           1
           1
           1
           1
           1
           1
           1
           1
           1
           1
           1
           1
           1
           1
           1
           1
           1
           1
           1
           1
           1
           1
           1
           1
           1
           1
           1
           1
           1
           1
           1
           1
           1
           1
           1
           1
           1
           1
           1
           1
           1
           1
           1
           1
           1
           1
           1
           1
           1
           1
           1
           1
           1
           1
           1
           1
           1
           1
           1
           1
           1
           1
           1
           1
           1
           1
           1
           1
           1
           1
           1
           1
           1
           1
           1
           1
           1
           1
           1
           1
           1
           1
           1
           1
           1
           1
           1
           1
           1
           1
           1
           1
           1
           1
           1
           1
           1
           1
           1
           1
           1
           1
           1
           1
           1
           1
           1
           1
           1
           1
           1
           1
           1
           1
           1
           1
           1
           1
           1
           1
           1
           1
           1
           1
           1
           1
           1
           1
           1
           1
           1
           1
           1
           1
           1
           1
           1
           1
           1
           1
           1
           1
           1
           1
           1
           1
           1
           1
           1
           1
           1
           1
           1
           1
           1
           1
           1
           1
           1
           1
           1
           1
           1
           1
           1
           1
           1
           1
           1
           1
           1
           1
           1
           1
           1
           1
           1
           1
           1
           1
           1
           1
           1
           1
           1
           1
           1
           1
           1
           1
           1
           1
           1
           1
           1
           1
           1
           1
           1
           1
           1
           1
           1
           1
           1
           1
           1
           1
           1
           1
           1
           1
           1
           1
           1
           1
           1
           1
           1
           1
           1
           1
           1
           1
           1
           1
           1
           1
           1
           1
           1
           1
           1
           1
           1
           1
           1
           1
           1
           1
           1
           1
           1
           1
           1
           1
           1
           1
           1
           1
           1
           1
           1
           1
           1
           1
           1
           1
           1
           1
           1
           1
           1
           1
           1
           1
           1
           1
           1
           1
           1
           1
           1
           1
           1
           1
           1
           1
           1
           1
           1
           1
           1
           1
           1
           1
           1
           1
           1
           1
           1
           1
           1
           1
           1
           1
           1
           1
           1
           1
           1
           1
           1
           1
           1
           1
           1
           1
           1
           1
           1
           1
           1
           1
           1
           1
           1
           1
           1
           1
           1
           1
           1
           1
           1
           1
           1
           1
           1
           1
           1
           1
           1
           1
           1
           1
           1
           1
           1
           1
           1
           1
           1
           1
           1
           1
           1
           1
           1
           1
           1
           1
           1
           1
           1
           1
           1
           1
           1
           1
           1
           1
           1
           1
           1
           1
           1
           1
           1
           1
           1
           1
           1
           1
           1
           1
           1
           1
           1
           1
           1
           1
           1
           1
           1
           1
           1
           1
           1
           1
           1
           1
           1
           1
           1
           1
           1
           1
           1
           1
           1
           1
           1
           1
           1
           1
           1
           1
           1
           1
           1
           1
           1
           1
           1
           1
           1
           1
           1
           1
           1
           1
           1
           1
           1
           1
           1
           1
           1
           1
           1
           1
           1
           1
           1
           1
           1
           1
           1
           1
           1
           1
           1
           1
           1
           1
           1
           1
           1
           1
           1
           1
           1
           1
           1
           1
           1
           1
           1
           1
           1
           1
           1
           1
           1
           1
           1
           1
           1
           1
           1
           1
           1
           1
           1
           1
           1
           1
           1
           1
           1
           1
           1
           1
           1
           1
           1
           1
           1
           1
           1
           1
           1
           1
           1
           1
           1
           1
           1
           1
           1
           1
           1
           1
           1
           1
           1
           1
           1
           1
           1
           1
           1
           1
           1
           1
           1
           1
           1
           1
           1
           1
           1
           1
           1
           1
           1
           1
           1
           1
           1
           1
           1
           1
           1
           1
           1
           1
           1
           1
           1
           1
           1
           1
           1
           1
           1
           1
           1
           1
           1
           1
           1
           1
           1
           1
           1
           1
           1
           1
           1
           1
           1
           1
           1
           1
           1
           1
           1
           1
           1
           1
           1
           1
           1
           1
           1
           1
           1
           1
           1
           1
           1
           1
           1
           1
           1
           1
           1
           1
           1
           1
           1
           1
           1
           1
           1
           1
           1
           1
           1
           1
           1
           1
           1
           1
           1
           1
           1
           1
           1
           1
           1
           1
           1
           1
           1
           1
           1
           1
           1
           1
           1
           1
           1
           1
           1
           1
           1
           1
           1
           1
           1
           1
           1
           1
           1
           1
           1
           1
           1
           1
           1
           1
           1
           1
           1
           1
           1
           1
           1
           1
           1
           1
           1
           1
           1
           1
           1
           1
           1
           1
           1
           1
           1
           1
           1
           1
           1
           1
           1
           1
           1
           1
           1
           1
           1
           1
           1
           1
           1
           1
           1
           1
           1
           1
           1
           1
           1
           1
           1
           1
           1
           1
           1
           1
           1
           1
           1
           1
           1
           1
           1
           1
           1
           1
           1
           1
           1
           1
           1
           1
           1
           1
           1
           1
           1
           1
           1
           1
           1
           1
           1
           1
           1
           1
           1
           1
           1
           1
           1
           1
           1
           1
           1
           1
           1
           1
           1
           1
           1
           1
           1
           1
           1
           1
           1
           1
           1
           1
           1
           1
           1
           1
           1
           1
           1
           1
           1
           1
           1
           1
           1
           1
           1
           1
           1
           1
           1
           1
           1
           1
           1
           1
           1
           1
           1
           1
           1
           1
           1
           1
           1
           1
           1
           1
           1
           1
           1
           1
           1
           1
           1
           1
           1
           1
           1
           1
           1
           1
           1
           1
           1
           1
           1
           1
           1
           1
           1
           1
           1
           1
           1
           1
           1
           1
           1
           1
           1
           1
           1
           1
           1
           1
           1
           1
           1
           1
           1
           1
           1
           1
           1
           1
           1
           1
           1
           1
           1
           1
           1
           1
           1
           1
           1
           1
           1
           1
           1
           1
           1
           1
           1
           1
           1
           1
           1
           1
           1
           1
           1
           1
           1
           1
           1
           1
           1
           1
           1
           1
           1
           1
           1
           1
           1
           1
           1
           1
           1
           1
           1
           1
           1
           1
           1
           1
           1
           1
           1
           1
           1
           1
           1
           1
           1
           1
           1
           1
           1
           1
           1
           1
           1
           1
           1
           1
           1
           1
           1
           1
           1
           1
           1
           1
           1
           1
           1
           1
           1
           1
           1
           1
           1
           1
           1
           1
           1
           1
           1
           1
           1
           1
           1
           1
           1
           1
           1
           1
           1
           1
           1
           1
           1
           1
           1
           1
           1
           1
           1
           1
           1
           1
           1
           1
           1
           1
           1
           1
           1
           1
           1
           1
           1
           1
           1
           1
           1
           1
           1
           1
           1
           1
           1
           1
           1
           1
           1
           1
           1
           1
           1
           1
           1
           1
           1
           1
           1
           1
           1
           1
           1
           1
           1
           1
           1
           1
           1
           1
           1
           1
           1
           1
           1
           1
           1
           1
           1
           1
           1
           1
           1
           1
           1
           1
           1
           1
           1
           1
           1
           1
           1
           1
           1
           1
           1
           1
           1
           1
           1
           1
           1
           1
           1
           1
           1
           1
           1
           1
           1
           1
           1
           1
           1
           1
           1
           1
           1
           1
           1
           1
           1
           1
           1
           1
           1
           1
           1
           1
           1
           1
           1
           1
           1
           1
           1
           1
           1
           1
           1
           1
           1
           1
           1
           1
           1
           1
           1
           1
           1
           1
           1
           1
           1
           1
           1
           1
           1
           1
           1
           1
           1
           1
           1
           1
           1
           1
           1
           1
           1
           1
           1
           1
           1
           1
           1
           1
           1
           1
           1
           1
           1
           1
           1
           1
           1
           1
           1
           1
           1
           1
           1
           1
           1
           1
           1
           1
           1
           1
           1
           1
           1
           1
           1
           1
           1
           1
           1
           1
           1
           1
           1
           1
           1
           1
           1
           1
           1
           1
           1
           1
           1
           1
           1
           1
           1
           1
           1
           1
           1
           1
           1
           1
           1
           1
           1
           1
           1
           1
           1
           1
           1
           1
           1
           1
           1
           1
           1
           1
           1
           1
           1
           1
           1
           1
           1
           1
           1
           1
           1
           1
           1
           1
           1
           1
           1
           1
           1
           1
           1
           1
           1
           1
           1
           1
           1
           1
           1
           1
           1
           1
           1
           1
           1
           1
           1
           1
           1
           1
           1
           1
           1
           1
           1
           1
           1
           1
           1
           1
           1
           1
           1
           1
           1
           1
           1
           1
           1
           1
           1
           1
           1
           1
           1
           1
           1
           1
           1
           1
           1
           1
           1
           1
           1
           1
           1
           1
           1
           1
           1
           1
           1
           1
           1
           1
           1
           1
           1
           1
           1
           1
           1
           1
           1
           1
           1
           1
           1
           1
           1
           1
           1
           1
           1
           1
           1
           1
           1
           1
           1
           1
           1
           1
           1
           1
           1
           1
           1
           1
           1
           1
           1
           1
           1
           1
           1
           1
           1
           1
           1
           1
           1
           1
           1
           1
           1
           1
           1
           1
           1
           1
           1
           1
           1
           1
           1
           1
           1
           1
           1
           1
           1
           1
           1
           1
           1
           1
           1
           1
           1
           1
           1
           1
           1
           1
           1
           1
           1
           1
           1
           1
           1
           1
           1
           1
           1
           1
           1
           1
           1
           1
           1
           1
           1
           1
           1
           1
           1
           1
           1
           1
           1
           1
           1
           1
           1
           1
           1
           1
           1
           1
           1
           1
           1
           1
           1
           1
           1
           1
           1
           1
           1
           1
           1
           1
           1
           1
           1
           1
           1
           1
           1
           1
           1
           1
           1
           1
           1
           1
           1
           1
           1
           1
           1
           1
           1
           1
           1
           1
           1
           1
           1
           1
           1
           1
           1
           1
           1
           1
           1
           1
           1
           1
           1
           1
           1
           1
           1
           1
           1
           1
           1
           1
           1
           1
           1
           1
           1
           1
           1
           1
           1
           1
           1
           1
           1
           1
           1
           1
           1
           1
           1
           1
           1
           1
           1
           1
           1
           1
           1
           1
           1
           1
           1
           1
           1
           1
           1
           1
           1
           1
           1
           1
           1
           1
           1
           1
           1
           1
           1
           1
           1
           1
           1
           1
           1
           1
           1
           1
           1
           1
           1
           1
           1
           1
           1
           1
           1
           1
           1
           1
           1
           1
           1
           1
           1
           1
           1
           1
           1
           1
           1
           1
           1
           1
           1
           1
           1
           1
           1
           1
           1
           1
           1
           1
           1
           1
           1
           1
           1
           1
           1
           1
           1
           1
           1
           1
           1
           1
           1
           1
           1
           1
           1
           1
           1
           1
           1
           1
           1
           1
           1
           1
           1
           1
           1
           1
           1
           1
           1
           1
           1
           1
           1
           1
           1
           1
           1
           1
           1
           1
           1
           1
           1
           1
           1
           1
           1
           1
           1
           1
           1
           1
           1
           1
           1
           1
           1
           1
           1
           1
           1
           1
           1
           1
           1
           1
           1
           1
           1
           1
           1
           1
           1
           1
           1
           1
           1
           1
           1
           1
           1
           1
           1
           1
           1
           1
           1
           1
           1
           1
           1
           1
           1
           1
           1
           1
           1
           1
           1
           1
           1
           1
           1
           1
           1
           1
           1
           1
           1
           1
           1
           1
           1
           1
           1
           1
           1
           1
           1
           1
           1
           1
           1
           1
           1
           1
           1
           1
           1
           1
           1
           1
           1
           1
           1
           1
           1
           1
           1
           1
           1
           1
           1
           1
           1
           1
           1
           1
           1
           1
           1
           1
           1
           1
           1
           1
           1
           1
           1
           1
           1
           1
           1
           1
           1
           1
           1
           1
           1
           1
           1
           1
           1
           1
           1
           1
           1
           1
           1
           1
           1
           1
           1
           1
           1
           1
           1
           1
           1
           1
           1
           1
           1
           1
           1
           1
           1
           1
           1
           1
           1
           1
           1
           1
           1
           1
           1
           1
           1
           1
           1
           1
           1
           1
           1
           1
           1
           1
           1
           1
           1
           1
           1
           1
           1
           1
           1
           1
           1
           1
           1
           1
           1
           1
           1
           1
           1
           1
           1
           1
           1
           1
           1
           1
           1
           1
           1
           1
           1
           1
           1
           1
           1
           1
           1
           1
           1
           1
           1
           1
           1
           1
           1
           1
           1
           1
           1
           1
           1
           1
           1
           1
           1
           1
           1
           1
           1
           1
           1
           1
           1
           1
           1
           1
           1
           1
           1
           1
           1
           1
           1
           1
           1
           1
           1
           1
           1
           1
           1
           1
           1
           1
           1
           1
           1
           1
           1
           1
           1
           1
           1
           1
           1
           1
           1
           1
           1
           1
           1
           1
           1
           1
           1
           1
           1
           1
           1
           1
           1
           1
           1
           1
           1
           1
           1
           1
           1
           1
           1
           1
           1
           1
           1
           1
           1
           1
           1
           1
           1
           1
           1
           1
           1
           1
           1
           1
           1
           1
           1
           1
           1
           1
           1
           1
           1
           1
           1
           1
           1
           1
           1
           1
           1
           1
           1
           1
           1
           1
           1
           1
           1
           1
           1
           1
           1
           1
           1
           1
           1
           1
           1
           1
           1
           1
           1
           1
           1
           1
           1
           1
           1
           1
           1
           1
           1
           1
           1
           1
           1
           1
           1
           1
           1
           1
           1
           1
           1
           1
           1
           1
           1
           1
           1
           1
           1
           1
           1
           1
           1
           1
           1
           1
           1
           1
           1
           1
           1
           1
           1
           1
           1
           1
           1
           1
           1
           1
           1
           1
           1
           1
           1
           1
           1
           1
           1
           1
           1
           1
           1
           1
           1
           1
           1
           1
           1
           1
           1
           1
           1
           1
           1
           1
           1
           1
           1
           1
           1
           1
           1
           1
           1
           1
           1
           1
           1
           1
           1
           1
           1
           1
           1
           1
           1
           1
           1
           1
           1
           1
           1
           1
           1
           1
           1
           1
           1
           1
           1
           1
           1
           1
           1
           1
           1
           1
           1
           1
           1
           1
           1
           1
           1
           1
           1
           1
           1
           1
           1
           1
           1
           1
           1
           1
           1
           1
           2
           2
           2
           2
           2
           2
           2
           2
           2
           2
           2
           2
           2
           2
           2
           2
           2
           2
           2
           2
           2
           2
           2
           2
           2
           2
           2
           2
           2
           2
           2
           2
           2
           2
           2
           2
           2
           2
           2
           2
           2
           2
           2
           2
           2
           2
           2
           2
           2
           2
           2
           2
           2
           2
           2
           2
           2
           2
           2
           2
           2
           2
           2
           2
           2
           2
           2
           2
           2
           2
           2
           2
           2
           2
           2
           2
           2
           2
           2
           2
           2
           2
           2
           2
           2
           2
           2
           2
           2
           2
           2
           2
           2
           2
           2
           2
           2
           2
           2
           2
           2
           2
           2
           2
           2
           2
           2
           2
           2
           2
           2
           2
           2
           2
           2
           2
           2
           2
           2
           2
           2
           2
           2
           2
           2
           2
           2
           2
           2
           2
           2
           2
           2
           2
           2
           2
           2
           2
           2
           2
           2
           2
           2
           2
           2
           2
           2
           2
           2
           2
           2
           2
           2
           2
           2
           2
           2
           2
           2
           2
           2
           2
           2
           2
           2
           2
           2
           2
           2
           2
           2
           2
           2
           2
           2
           2
           2
           2
           2
           2
           2
           2
           2
           2
           2
           2
           2
           2
           2
           2
           2
           2
           2
           2
           2
           2
           2
           2
           2
           2
           2
           2
           2
           2
           2
           2
           2
           2
           2
           2
           2
           2
           2
           2
           2
           2
           2
           2
           2
           2
           2
           2
           2
           2
           2
           2
           2
           2
           2
           2
           2
           2
           2
           2
           2
           2
           2
           2
           2
           2
           2
           2
           2
           2
           2
           2
           2
           2
           2
           2
           2
           2
           2
           2
           2
           2
           2
           2
           2
           2
           2
           2
           2
           2
           2
           2
           2
           2
           2
           2
           2
           2
           2
           2
           2
           2
           2
           2
           2
           2
           2
           2
           2
           2
           2
           2
           2
           2
           2
           2
           2
           2
           2
           2
           2
           2
           2
           2
           2
           2
           2
           2
           2
           2
           2
           2
           2
           2
           2
           2
           2
           2
           2
           2
           2
           2
           2
           2
           2
           2
           2
           2
           2
           2
           2
           2
           2
           2
           2
           2
           2
           2
           2
           2
           2
           2
           2
           2
           2
           2
           2
           2
           2
           2
           2
           2
           2
           2
           2
           2
           2
           2
           2
           2
           2
           2
           2
           2
           2
           2
           2
           2
           2
           2
           2
           2
           2
           2
           2
           2
           2
           2
           2
           2
           2
           2
           2
           2
           2
           2
           2
           2
           2
           2
           2
           2
           2
           2
           2
           2
           2
           2
           2
           2
           2
           2
           2
           2
           2
           2
           2
           2
           2
           2
           2
           2
           2
           2
           2
           2
           2
           2
           2
           2
           2
           2
           2
           2
           2
           2
           2
           2
           2
           2
           2
           2
           2
           2
           2
           2
           2
           2
           2
           2
           2
           2
           2
           2
           2
           2
           2
           2
           2
           2
           2
           2
           2
           2
           2
           2
           2
           2
           2
           2
           2
           2
           2
           2
           2
           2
           2
           2
           2
           2
           2
           2
           2
           2
           2
           2
           2
           2
           2
           2
           2
           2
           2
           2
           2
           2
           2
           2
           2
           2
           2
           2
           2
           2
           2
           2
           2
           2
           2
           2
           2
           2
           2
           2
           2
           2
           2
           2
           2
           2
           2
           2
           2
           2
           2
           2
           2
           2
           2
           2
           2
           2
           2
           2
           2
           2
           2
           2
           2
           2
           2
           2
           2
           2
           2
           2
           2
           2
           2
           2
           2
           2
           2
           2
           2
           2
           2
           2
           2
           2
           2
           2
           2
           2
           2
           2
           2
           2
           2
           2
           2
           2
           2
           2
           2
           2
           2
           2
           2
           2
           2
           2
           2
           2
           2
           2
           2
           2
           2
           2
           2
           2
           2
           2
           2
           2
           2
           2
           2
           2
           2
           2
           2
           2
           2
           2
           2
           2
           2
           2
           2
           2
           2
           2
           2
           2
           2
           2
           2
           2
           2
           2
           2
           2
           2
           2
           2
           2
           2
           2
           2
           2
           2
           2
           2
           2
           2
           2
           2
           2
           2
           2
           2
           2
           2
           2
           2
           2
           2
           2
           2
           2
           2
           2
           2
           2
           2
           2
           2
           2
           2
           2
           2
           2
           2
           2
           2
           2
           2
           2
           2
           2
           2
           2
           2
           2
           2
           2
           2
           2
           2
           2
           2
           2
           2
           2
           2
           2
           2
           2
           2
           2
           2
           2
           2
           2
           2
           2
           2
           2
           2
           2
           2
           2
           2
           2
           2
           2
           2
           2
           2
           2
           2
           2
           2
           2
           2
           2
           2
           2
           2
           2
           2
           2
           2
           2
           2
           2
           2
           2
           2
           2
           2
           2
           2
           2
           2
           2
           2
           2
           2
           2
           2
           2
           2
           2
           2
           2
           2
           2
           2
           2
           2
           2
           2
           2
           2
           2
           2
           2
           2
           2
           2
           2
           2
           2
           2
           2
           2
           2
           2
           2
           2
           2
           2
           2
           2
           2
           2
           2
           2
           2
           2
           2
           2
           2
           2
           2
           2
           2
           2
           2
           2
           2
           2
           2
           2
           2
           2
           2
           2
           2
           2
           2
           2
           2
           2
           2
           2
           2
           2
           2
           2
           2
           2
           2
           2
           2
           2
           2
           2
           2
           2
           2
           2
           2
           2
           2
           2
           2
           2
           2
           2
           2
           2
           2
           2
           2
           2
           2
           2
           2
           2
           2
           2
           2
           2
           2
           2
           2
           2
           2
           2
           2
           2
           2
           2
           2
           2
           2
           2
           2
           2
           2
           2
           2
           2
           2
           2
           2
           2
           2
           2
           2
           2
           2
           2
           2
           2
           2
           2
           2
           2
           2
           2
           2
           2
           2
           2
           2
           2
           2
           2
           2
           2
           2
           2
           2
           2
           2
           2
           2
           2
           2
           2
           2
           2
           2
           2
           2
           2
           2
           2
           2
           2
           2
           2
           2
           2
           2
           2
           2
           2
           2
           2
           2
           2
           2
           2
           2
           2
           2
           2
           2
           2
           2
           2
           2
           2
           2
           2
           2
           2
           2
           2
           2
           2
           2
           2
           2
           2
           2
           2
           2
           2
           2
           2
           2
           2
           2
           2
           2
           2
           2
           2
           2
           2
           2
           2
           2
           2
           2
           2
           2
           2
           2
           2
           2
           2
           2
           2
           2
           2
           2
           2
           2
           2
           2
           2
           2
           2
           2
           2
           2
           2
           2
           2
           2
           2
           2
           2
           2
           2
           2
           2
           2
           2
           2
           2
           2
           2
           2
           2
           2
           2
           2
           2
           2
           2
           2
           2
           2
           2
           2
           2
           2
           2
           2
           2
           2
           2
           2
           2
           2
           2
           2
           2
           2
           2
           2
           2
           2
           2
           2
           2
           2
           2
           2
           2
           2
           2
           2
           2
           2
           2
           2
           2
           2
           2
           2
           2
           2
           2
           2
           2
           2
           2
           2
           2
           2
           2
           2
           2
           2
           2
           2
           2
           2
           2
           2
           2
           2
           2
           2
           2
           2
           2
           2
           2
           2
           2
           2
           2
           2
           2
           2
           2
           2
           2
           2
           2
           2
           2
           2
           2
           2
           2
           2
           2
           2
           2
           2
           2
           2
           2
           2
           2
           2
           2
           2
           2
           2
           2
           2
           2
           2
           2
           2
           2
           2
           2
           2
           2
           2
           2
           2
           2
           2
           2
           2
           2
           2
           2
           2
           2
           2
           2
           2
           2
           2
           2
           2
           2
           2
           2
           2
           2
           2
           2
           2
           2
           2
           2
           2
           2
           2
           2
           2
           2
           2
           2
           2
           2
           2
           2
           2
           2
           2
           2
           2
           2
           2
           2
           2
           2
           2
           2
           2
           2
           2
           2
           2
           2
           2
           2
           2
           2
           2
           2
           2
           2
           2
           2
           2
           2
           2
           2
           2
           2
           2
           2
           2
           2
           2
           2
           2
           2
           2
           2
           2
           2
           2
           2
           2
           2
           2
           2
           2
           2
           2
           2
           2
           2
           2
           2
           2
           2
           2
           2
           2
           2
           2
           2
           2
           2
           2
           2
           2
           2
           2
           2
           2
           2
           2
           2
           2
           2
           2
           2
           2
           2
           2
           2
           2
           2
           2
           2
           2
           2
           2
           2
           2
           2
           2
           2
           2
           2
           2
           2
           2
           2
           2
           2
           2
           2
           2
           2
           2
           2
           2
           2
           2
           2
           2
           2
           2
           2
           2
           2
           2
           2
           2
           2
           2
           2
           2
           2
           2
           2
           2
           2
           2
           2
           2
           2
           2
           2
           2
           2
           2
           2
           2
           2
           2
           2
           2
           2
           2
           2
           2
           2
           2
           2
           2
           2
           2
           2
           2
           2
           2
           2
           2
           2
           2
           2
           2
           2
           2
           2
           2
           2
           2
           2
           2
           2
           2
           2
           2
           2
           2
           2
           2
           2
           2
           2
           2
           2
           2
           2
           2
           2
           2
           2
           2
           2
           2
           2
           2
           2
           2
           2
           2
           2
           2
           2
           2
           2
           2
           2
           2
           2
           2
           2
           2
           2
           2
           2
           2
           2
           2
           2
           2
           2
           2
           2
           2
           2
           2
           2
           2
           2
           2
           2
           2
           2
           2
           2
           2
           2
           2
           2
           2
           2
           2
           2
           2
           2
           2
           2
           2
           2
           2
           2
           2
           2
           2
           2
           2
           2
           2
           2
           2
           2
           2
           2
           2
           2
           2
           2
           2
           2
           2
           2
           2
           2
           2
           2
           2
           2
           2
           2
           2
           2
           2
           2
           2
           2
           2
           2
           2
           2
           2
           2
           2
           2
           2
           2
           2
           2
           2
           2
           2
           2
           2
           2
           2
           2
           2
           2
           2
           2
           2
           2
           2
           2
           2
           2
           2
           2
           2
           2
           2
           2
           2
           2
           2
           2
           2
           2
           2
           2
           2
           2
           2
           2
           2
           2
           2
           2
           2
           2
           2
           2
           2
           2
           2
           2
           2
           2
           2
           2
           2
           2
           2
           2
           2
           2
           2
           2
           2
           2
           2
           2
           2
           2
           2
           2
           2
           2
           2
           2
           2
           2
           2
           2
           2
           2
           2
           2
           2
           2
           2
           2
           2
           2
           2
           2
           2
           2
           2
           2
           2
           2
           2
           2
           2
           2
           2
           2
           2
           2
           2
           2
           2
           2
           2
           2
           2
           2
           2
           2
           2
           2
           2
           2
           2
           2
           2
           2
           2
           2
           2
           2
           2
           2
           2
           2
           2
           2
           2
           2
           2
           2
           2
           2
           2
           2
           2
           2
           2
           2
           2
           2
           2
           2
           2
           2
           2
           2
           2
           2
           2
           2
           2
           2
           2
           2
           2
           2
           2
           2
           2
           2
           2
           2
           2
           2
           2
           2
           2
           2
           2
           2
           2
           2
           2
           2
           2
           2
           2
           2
           2
           2
           2
           2
           2
           2
           2
           2
           2
           2
           2
           2
           2
           2
           2
           2
           2
           2
           2
           2
           2
           2
           2
           2
           2
           2
           2
           2
           2
           2
           2
           2
           2
           2
           2
           2
           2
           2
           2
           2
           2
           2
           2
           2
           2
           2
           2
           2
           2
           2
           2
           2
           2
           2
           2
           2
           2
           2
           2
           2
           2
           2
           2
           2
           2
           2
           2
           2
           2
           2
           2
           2
           2
           2
           2
           2
           2
           2
           2
           2
           2
           2
           2
           2
           2
           2
           2
           2
           2
           2
           2
           2
           2
           2
           2
           2
           2
           2
           2
           2
           2
           2
           2
           2
           2
           2
           2
           2
           2
           2
           2
           2
           2
           2
           2
           2
           2
           2
           2
           2
           2
           2
           2
           2
           2
           2
           2
           2
           2
           2
           2
           2
           2
           2
           2
           2
           2
           2
           2
           2
           2
           2
           2
           2
           2
           2
           2
           2
           2
           2
           2
           2
           2
           2
           2
           2
           2
           2
           2
           2
           2
           2
           2
           2
           2
           2
           2
           2
           2
           2
           2
           2
           2
           2
           2
           2
           2
           2
           2
           2
           2
           2
           2
           2
           2
           2
           2
           2
           2
           2
           2
           2
           2
           2
           2
           2
           2
           2
           2
           2
           2
           2
           2
           2
           2
           2
           2
           2
           2
           2
           2
           2
           2
           2
           2
           2
           2
           2
           2
           2
           2
           2
           2
           2
           2
           2
           2
           2
           2
           2
           2
           2
           2
           2
           2
           2
           2
           2
           2
           2
           2
           2
           2
           2
           2
           2
           2
           2
           2
           2
           2
           2
           2
           2
           2
           2
           2
           2
           2
           2
           2
           2
           2
           2
           2
           2
           2
           2
           2
           2
           2
           2
           2
           2
           2
           2
           2
           2
           2
           2
           2
           2
           2
           2
           2
           2
           2
           2
           2
           2
           2
           2
           2
           2
           2
           2
           2
           2
           2
           2
           2
           2
           2
           2
           2
           2
           2
           2
           2
           2
           2
           2
           2
           2
           2
           2
           2
           2
           2
           2
           2
           2
           2
           2
           2
           2
           2
           2
           2
           2
           2
           2
           2
           2
           2
           2
           2
           2
           2
           2
           2
           2
           2
           2
           2
           2
           2
           2
           2
           2
           2
           2
           2
           2
           2
           2
           2
           2
           2
           2
           2
           2
           2
           2
           2
           2
           2
           2
           2
           2
           2
           2
           2
           2
           2
           2
           2
           2
           2
           2
           2
           2
           2
           2
           2
           2
           2
           2
           2
           2
           2
           2
           2
           2
           2
           2
           2
           2
           2
           2
           2
           2
           2
           2
           2
           2
           2
           2
           2
           2
           2
           2
           2
           2
           2
           2
           2
           2
           2
           2
           2
           2
           2
           2
           2
           2
           2
           2
           2
           2
           2
           2
           2
           2
           2
           2
           2
           2
           2
           2
           2
           2
           2
           2
           2
           2
           2
           2
           2
           2
           2
           2
           2
           2
           2
           2
           2
           2
           2
           2
           2
           2
           2
           2
           2
           2
           2
           2
           2
           2
           2
           2
           2
           2
           2
           2
           2
           2
           2
           2
           2
           2
           2
           2
           2
           2
           2
           2
           2
           2
           2
           2
           2
           2
           2
           2
           2
           2
           2
           2
           2
           2
           2
           2
           2
           2
           2
           2
           2
           2
           2
           2
           2
           2
           2
           2
           2
           2
           2
           2
           2
           2
           2
           2
           2
           2
           2
           2
           2
           2
           2
           2
           2
           2
           2
           2
           2
           2
           2
           2
           2
           2
           2
           2
           2
           2
           2
           2
           2
           2
           2
           2
           2
           2
           2
           2
           2
           2
           2
           2
           2
           2
           2
           2
           2
           2
           2
           2
           2
           2
           2
           2
           2
           2
           2
           2
           2
           2
           2
           2
           2
           2
           2
           2
           2
           2
           2
           2
           2
           2
           2
           2
           2
           2
           2
           2
           2
           2
           2
           2
           2
           2
           2
           2
           2
           2
           2
           2
           2
           2
           2
           2
           2
           2
           2
           2
           2
           2
           2
           2
           2
           2
           2
           2
           2
           2
           2
           2
           2
           2
           2
           2
           2
           2
           2
           2
           2
           2
           2
           2
           2
           2
           2
           2
           2
           2
           2
           2
           2
           2
           2
           2
           2
           2
           2
           2
           2
           2
           2
           2
           2
           2
           2
           2
           2
           2
           2
           2
           2
           2
           2
           2
           2
           2
           2
           2
           2
           2
           2
           2
           2
           2
           2
           2
           2
           2
           2
           2
           2
           2
           2
           2
           2
           2
           2
           2
           2
           2
           2
           2
           2
           2
           2
           2
           2
           2
           2
           2
           2
           2
           2
           2
           2
           2
           2
           2
           2
           2
           2
           2
           2
           2
           2
           2
           2
           2
           2
           2
           2
           2
           2
           2
           2
           2
           2
           2
           2
           2
           2
           2
           2
           2
           2
           2
           2
           2
           2
           2
           2
           2
           2
           2
           2
           2
           2
</DataArray>
</CellData>
</Piece>
</UnstructuredGrid>
</VTKFile>
