<VTKFile type="UnstructuredGrid" version="1,0" byte_order="LittleEndian">
<UnstructuredGrid>
<Piece NumberOfPoints="5802" NumberOfCells="5680">
<Points>
<DataArray type="Float64" NumberOfComponents="3" format="ascii">
-0.1100000000000E+01 -0.4260376958938E+01  0.0000000000000E+00
 0.0000000000000E+00 -0.4260376958938E+01  0.0000000000000E+00
 0.1100000000000E+01 -0.4260376958938E+01  0.0000000000000E+00
-0.1294830748007E+01 -0.1260376958938E+01  0.0000000000000E+00
-0.6474153677980E+00 -0.1260376958938E+01  0.0000000000000E+00
 0.6474153802085E+00 -0.1260376958938E+01  0.0000000000000E+00
 0.1294830748007E+01 -0.1260376958938E+01  0.0000000000000E+00
-0.1038349899718E+01  0.8622996231128E+00  0.0000000000000E+00
 0.1038349908233E+01  0.8622996153791E+00  0.0000000000000E+00
-0.5250000000000E+00  0.3489497150362E+00  0.0000000000000E+00
 0.5250000000000E+00  0.3489497150362E+00  0.0000000000000E+00
-0.1072500000000E+01 -0.4260376958938E+01  0.0000000000000E+00
-0.1045000000000E+01 -0.4260376958938E+01  0.0000000000000E+00
-0.1017500000000E+01 -0.4260376958938E+01  0.0000000000000E+00
-0.9900000000000E+00 -0.4260376958938E+01  0.0000000000000E+00
-0.9625000000000E+00 -0.4260376958938E+01  0.0000000000000E+00
-0.9350000000000E+00 -0.4260376958938E+01  0.0000000000000E+00
-0.9075000000000E+00 -0.4260376958938E+01  0.0000000000000E+00
-0.8800000000000E+00 -0.4260376958938E+01  0.0000000000000E+00
-0.8525000000000E+00 -0.4260376958938E+01  0.0000000000000E+00
-0.8250000000000E+00 -0.4260376958938E+01  0.0000000000000E+00
-0.7975000000000E+00 -0.4260376958938E+01  0.0000000000000E+00
-0.7700000000000E+00 -0.4260376958938E+01  0.0000000000000E+00
-0.7425000000000E+00 -0.4260376958938E+01  0.0000000000000E+00
-0.7150000000000E+00 -0.4260376958938E+01  0.0000000000000E+00
-0.6875000000000E+00 -0.4260376958938E+01  0.0000000000000E+00
-0.6600000000000E+00 -0.4260376958938E+01  0.0000000000000E+00
-0.6325000000000E+00 -0.4260376958938E+01  0.0000000000000E+00
-0.6050000000000E+00 -0.4260376958938E+01  0.0000000000000E+00
-0.5775000000000E+00 -0.4260376958938E+01  0.0000000000000E+00
-0.5500000000000E+00 -0.4260376958938E+01  0.0000000000000E+00
-0.5225000000000E+00 -0.4260376958938E+01  0.0000000000000E+00
-0.4950000000000E+00 -0.4260376958938E+01  0.0000000000000E+00
-0.4675000000000E+00 -0.4260376958938E+01  0.0000000000000E+00
-0.4400000000000E+00 -0.4260376958938E+01  0.0000000000000E+00
-0.4125000000000E+00 -0.4260376958938E+01  0.0000000000000E+00
-0.3850000000000E+00 -0.4260376958938E+01  0.0000000000000E+00
-0.3575000000000E+00 -0.4260376958938E+01  0.0000000000000E+00
-0.3300000000000E+00 -0.4260376958938E+01  0.0000000000000E+00
-0.3025000000000E+00 -0.4260376958938E+01  0.0000000000000E+00
-0.2750000000000E+00 -0.4260376958938E+01  0.0000000000000E+00
-0.2475000000000E+00 -0.4260376958938E+01  0.0000000000000E+00
-0.2200000000000E+00 -0.4260376958938E+01  0.0000000000000E+00
-0.1925000000000E+00 -0.4260376958938E+01  0.0000000000000E+00
-0.1650000000000E+00 -0.4260376958938E+01  0.0000000000000E+00
-0.1375000000000E+00 -0.4260376958938E+01  0.0000000000000E+00
-0.1100000000000E+00 -0.4260376958938E+01  0.0000000000000E+00
-0.8250000000000E-01 -0.4260376958938E+01  0.0000000000000E+00
-0.5500000000000E-01 -0.4260376958938E+01  0.0000000000000E+00
-0.2750000000000E-01 -0.4260376958938E+01  0.0000000000000E+00
 0.2750000000000E-01 -0.4260376958938E+01  0.0000000000000E+00
 0.5500000000000E-01 -0.4260376958938E+01  0.0000000000000E+00
 0.8250000000000E-01 -0.4260376958938E+01  0.0000000000000E+00
 0.1100000000000E+00 -0.4260376958938E+01  0.0000000000000E+00
 0.1375000000000E+00 -0.4260376958938E+01  0.0000000000000E+00
 0.1650000000000E+00 -0.4260376958938E+01  0.0000000000000E+00
 0.1925000000000E+00 -0.4260376958938E+01  0.0000000000000E+00
 0.2200000000000E+00 -0.4260376958938E+01  0.0000000000000E+00
 0.2475000000000E+00 -0.4260376958938E+01  0.0000000000000E+00
 0.2750000000000E+00 -0.4260376958938E+01  0.0000000000000E+00
 0.3025000000000E+00 -0.4260376958938E+01  0.0000000000000E+00
 0.3300000000000E+00 -0.4260376958938E+01  0.0000000000000E+00
 0.3575000000000E+00 -0.4260376958938E+01  0.0000000000000E+00
 0.3850000000000E+00 -0.4260376958938E+01  0.0000000000000E+00
 0.4125000000000E+00 -0.4260376958938E+01  0.0000000000000E+00
 0.4400000000000E+00 -0.4260376958938E+01  0.0000000000000E+00
 0.4675000000000E+00 -0.4260376958938E+01  0.0000000000000E+00
 0.4950000000000E+00 -0.4260376958938E+01  0.0000000000000E+00
 0.5225000000000E+00 -0.4260376958938E+01  0.0000000000000E+00
 0.5500000000000E+00 -0.4260376958938E+01  0.0000000000000E+00
 0.5775000000000E+00 -0.4260376958938E+01  0.0000000000000E+00
 0.6050000000000E+00 -0.4260376958938E+01  0.0000000000000E+00
 0.6325000000000E+00 -0.4260376958938E+01  0.0000000000000E+00
 0.6600000000000E+00 -0.4260376958938E+01  0.0000000000000E+00
 0.6875000000000E+00 -0.4260376958938E+01  0.0000000000000E+00
 0.7150000000000E+00 -0.4260376958938E+01  0.0000000000000E+00
 0.7425000000000E+00 -0.4260376958938E+01  0.0000000000000E+00
 0.7700000000000E+00 -0.4260376958938E+01  0.0000000000000E+00
 0.7975000000000E+00 -0.4260376958938E+01  0.0000000000000E+00
 0.8250000000000E+00 -0.4260376958938E+01  0.0000000000000E+00
 0.8525000000000E+00 -0.4260376958938E+01  0.0000000000000E+00
 0.8800000000000E+00 -0.4260376958938E+01  0.0000000000000E+00
 0.9075000000000E+00 -0.4260376958938E+01  0.0000000000000E+00
 0.9350000000000E+00 -0.4260376958938E+01  0.0000000000000E+00
 0.9625000000000E+00 -0.4260376958938E+01  0.0000000000000E+00
 0.9900000000000E+00 -0.4260376958938E+01  0.0000000000000E+00
 0.1017500000000E+01 -0.4260376958938E+01  0.0000000000000E+00
 0.1045000000000E+01 -0.4260376958938E+01  0.0000000000000E+00
 0.1072500000000E+01 -0.4260376958938E+01  0.0000000000000E+00
-0.1262459978996E+01 -0.1260376958938E+01  0.0000000000000E+00
-0.1230089209986E+01 -0.1260376958938E+01  0.0000000000000E+00
-0.1197718440975E+01 -0.1260376958938E+01  0.0000000000000E+00
-0.1165347671965E+01 -0.1260376958938E+01  0.0000000000000E+00
-0.1132976902954E+01 -0.1260376958938E+01  0.0000000000000E+00
-0.1100606133944E+01 -0.1260376958938E+01  0.0000000000000E+00
-0.1068235364934E+01 -0.1260376958938E+01  0.0000000000000E+00
-0.1035864595923E+01 -0.1260376958938E+01  0.0000000000000E+00
-0.1003493826913E+01 -0.1260376958938E+01  0.0000000000000E+00
-0.9711230579023E+00 -0.1260376958938E+01  0.0000000000000E+00
-0.9387522888919E+00 -0.1260376958938E+01  0.0000000000000E+00
-0.9063815198814E+00 -0.1260376958938E+01  0.0000000000000E+00
-0.8740107508710E+00 -0.1260376958938E+01  0.0000000000000E+00
-0.8416399818606E+00 -0.1260376958938E+01  0.0000000000000E+00
-0.8092692128501E+00 -0.1260376958938E+01  0.0000000000000E+00
-0.7768984438397E+00 -0.1260376958938E+01  0.0000000000000E+00
-0.7445276748293E+00 -0.1260376958938E+01  0.0000000000000E+00
-0.7121569058189E+00 -0.1260376958938E+01  0.0000000000000E+00
-0.6797861368084E+00 -0.1260376958938E+01  0.0000000000000E+00
-0.6150445990978E+00 -0.1260376958938E+01  0.0000000000000E+00
-0.5826738303977E+00 -0.1260376958938E+01  0.0000000000000E+00
-0.5503030616975E+00 -0.1260376958938E+01  0.0000000000000E+00
-0.5179322929974E+00 -0.1260376958938E+01  0.0000000000000E+00
-0.4855615242972E+00 -0.1260376958938E+01  0.0000000000000E+00
-0.4531907555970E+00 -0.1260376958938E+01  0.0000000000000E+00
-0.4208199868969E+00 -0.1260376958938E+01  0.0000000000000E+00
-0.3884492181967E+00 -0.1260376958938E+01  0.0000000000000E+00
-0.3560784494965E+00 -0.1260376958938E+01  0.0000000000000E+00
-0.3237076807964E+00 -0.1260376958938E+01  0.0000000000000E+00
-0.2913369120962E+00 -0.1260376958938E+01  0.0000000000000E+00
-0.2589661433960E+00 -0.1260376958938E+01  0.0000000000000E+00
-0.2265953746959E+00 -0.1260376958938E+01  0.0000000000000E+00
-0.1942246059957E+00 -0.1260376958938E+01  0.0000000000000E+00
-0.1618538372956E+00 -0.1260376958938E+01  0.0000000000000E+00
-0.1294830685954E+00 -0.1260376958938E+01  0.0000000000000E+00
-0.9711229989523E-01 -0.1260376958938E+01  0.0000000000000E+00
-0.6474153119507E-01 -0.1260376958938E+01  0.0000000000000E+00
-0.3237076249490E-01 -0.1260376958938E+01  0.0000000000000E+00
 0.6205262220726E-08 -0.1260376958938E+01  0.0000000000000E+00
 0.3237077490543E-01 -0.1260376958938E+01  0.0000000000000E+00
 0.6474154360559E-01 -0.1260376958938E+01  0.0000000000000E+00
 0.9711231230575E-01 -0.1260376958938E+01  0.0000000000000E+00
 0.1294830810059E+00 -0.1260376958938E+01  0.0000000000000E+00
 0.1618538497061E+00 -0.1260376958938E+01  0.0000000000000E+00
 0.1942246184062E+00 -0.1260376958938E+01  0.0000000000000E+00
 0.2265953871064E+00 -0.1260376958938E+01  0.0000000000000E+00
 0.2589661558066E+00 -0.1260376958938E+01  0.0000000000000E+00
 0.2913369245067E+00 -0.1260376958938E+01  0.0000000000000E+00
 0.3237076932069E+00 -0.1260376958938E+01  0.0000000000000E+00
 0.3560784619071E+00 -0.1260376958938E+01  0.0000000000000E+00
 0.3884492306072E+00 -0.1260376958938E+01  0.0000000000000E+00
 0.4208199993074E+00 -0.1260376958938E+01  0.0000000000000E+00
 0.4531907680076E+00 -0.1260376958938E+01  0.0000000000000E+00
 0.4855615367077E+00 -0.1260376958938E+01  0.0000000000000E+00
 0.5179323054079E+00 -0.1260376958938E+01  0.0000000000000E+00
 0.5503030741080E+00 -0.1260376958938E+01  0.0000000000000E+00
 0.5826738428082E+00 -0.1260376958938E+01  0.0000000000000E+00
 0.6150446115084E+00 -0.1260376958938E+01  0.0000000000000E+00
 0.6797861485984E+00 -0.1260376958938E+01  0.0000000000000E+00
 0.7121569169883E+00 -0.1260376958938E+01  0.0000000000000E+00
 0.7445276853782E+00 -0.1260376958938E+01  0.0000000000000E+00
 0.7768984537681E+00 -0.1260376958938E+01  0.0000000000000E+00
 0.8092692221580E+00 -0.1260376958938E+01  0.0000000000000E+00
 0.8416399905479E+00 -0.1260376958938E+01  0.0000000000000E+00
 0.8740107589378E+00 -0.1260376958938E+01  0.0000000000000E+00
 0.9063815273277E+00 -0.1260376958938E+01  0.0000000000000E+00
 0.9387522957176E+00 -0.1260376958938E+01  0.0000000000000E+00
 0.9711230641075E+00 -0.1260376958938E+01  0.0000000000000E+00
 0.1003493832497E+01 -0.1260376958938E+01  0.0000000000000E+00
 0.1035864600887E+01 -0.1260376958938E+01  0.0000000000000E+00
 0.1068235369277E+01 -0.1260376958938E+01  0.0000000000000E+00
 0.1100606137667E+01 -0.1260376958938E+01  0.0000000000000E+00
 0.1132976906057E+01 -0.1260376958938E+01  0.0000000000000E+00
 0.1165347674447E+01 -0.1260376958938E+01  0.0000000000000E+00
 0.1197718442837E+01 -0.1260376958938E+01  0.0000000000000E+00
 0.1230089211227E+01 -0.1260376958938E+01  0.0000000000000E+00
 0.1262459979617E+01 -0.1260376958938E+01  0.0000000000000E+00
-0.1312155011510E+01 -0.1150203083613E+01  0.0000000000000E+00
-0.1327637341374E+01 -0.1039753931085E+01  0.0000000000000E+00
-0.1341665909610E+01 -0.9291104213802E+00  0.0000000000000E+00
-0.1354391361466E+01 -0.8183095298948E+00  0.0000000000000E+00
-0.1365833298202E+01 -0.7073687601696E+00  0.0000000000000E+00
-0.1375894555970E+01 -0.5962944619521E+00  0.0000000000000E+00
-0.1384355932365E+01 -0.4850870562275E+00  0.0000000000000E+00
-0.1391121394834E+01 -0.3737634319943E+00  0.0000000000000E+00
-0.1396094802383E+01 -0.2623461592890E+00  0.0000000000000E+00
-0.1399062707537E+01 -0.1508575645009E+00  0.0000000000000E+00
-0.1399985099640E+01 -0.3933280323447E-01  0.0000000000000E+00
-0.1399371687134E+01  0.7219242573532E-01  0.0000000000000E+00
-0.1392023041888E+01  0.1834402819205E+00  0.0000000000000E+00
-0.1373224643109E+01  0.2933160172014E+00  0.0000000000000E+00
-0.1342254580417E+01  0.4003982422534E+00  0.0000000000000E+00
-0.1299147096451E+01  0.5031944588907E+00  0.0000000000000E+00
-0.1245788737132E+01  0.6010884805479E+00  0.0000000000000E+00
-0.1184295328924E+01  0.6940973779637E+00  0.0000000000000E+00
-0.1115423112669E+01  0.7817798453380E+00  0.0000000000000E+00
-0.9953999080977E+00  0.8990612908450E+00  0.0000000000000E+00
-0.9504827232491E+00  0.9333936741942E+00  0.0000000000000E+00
-0.9038779344468E+00  0.9653991725778E+00  0.0000000000000E+00
-0.8558287935509E+00  0.9951944276872E+00  0.0000000000000E+00
-0.8065745425279E+00  0.1022954470846E+01  0.0000000000000E+00
-0.7563745841864E+00  0.1048968117851E+01  0.0000000000000E+00
-0.7055221739023E+00  0.1073685095719E+01  0.0000000000000E+00
-0.6543373939483E+00  0.1097708159783E+01  0.0000000000000E+00
-0.6030028739072E+00  0.1121408936098E+01  0.0000000000000E+00
-0.5511573080626E+00  0.1143965177158E+01  0.0000000000000E+00
-0.4985400003731E+00  0.1164653488733E+01  0.0000000000000E+00
-0.4451206320031E+00  0.1183171501571E+01  0.0000000000000E+00
-0.3909756266655E+00  0.1199445140769E+01  0.0000000000000E+00
-0.3362124051434E+00  0.1213497677274E+01  0.0000000000000E+00
-0.2809356549253E+00  0.1225380721385E+01  0.0000000000000E+00
-0.2252455004057E+00  0.1235139228470E+01  0.0000000000000E+00
-0.1692277473422E+00  0.1242797659442E+01  0.0000000000000E+00
-0.1129623151839E+00  0.1248349912846E+01  0.0000000000000E+00
-0.5652622173773E-01  0.1251752523713E+01  0.0000000000000E+00
 0.5721518201715E-08  0.1252915917342E+01  0.0000000000000E+00
 0.5652623317123E-01  0.1251752523209E+01  0.0000000000000E+00
 0.1129623265888E+00  0.1248349911861E+01  0.0000000000000E+00
 0.1692277587027E+00  0.1242797657991E+01  0.0000000000000E+00
 0.2252455117006E+00  0.1235139226564E+01  0.0000000000000E+00
 0.2809356661393E+00  0.1225380719029E+01  0.0000000000000E+00
 0.3362124162747E+00  0.1213497674468E+01  0.0000000000000E+00
 0.3909756376678E+00  0.1199445137522E+01  0.0000000000000E+00
 0.4451206428730E+00  0.1183171497887E+01  0.0000000000000E+00
 0.4985400111013E+00  0.1164653484628E+01  0.0000000000000E+00
 0.5511573186457E+00  0.1143965172676E+01  0.0000000000000E+00
 0.6030028843689E+00  0.1121408931341E+01  0.0000000000000E+00
 0.6543374043658E+00  0.1097708154925E+01  0.0000000000000E+00
 0.7055221842887E+00  0.1073685090798E+01  0.0000000000000E+00
 0.7563745944774E+00  0.1048968112736E+01  0.0000000000000E+00
 0.8065745526520E+00  0.1022954465413E+01  0.0000000000000E+00
 0.8558288034476E+00  0.9951944218405E+00  0.0000000000000E+00
 0.9038779440484E+00  0.9653991662662E+00  0.0000000000000E+00
 0.9504827325158E+00  0.9333936673912E+00  0.0000000000000E+00
 0.9953999169960E+00  0.8990612835587E+00  0.0000000000000E+00
 0.1115423119969E+01  0.7817798372309E+00  0.0000000000000E+00
 0.1184295335069E+01  0.6940973696789E+00  0.0000000000000E+00
 0.1245788742186E+01  0.6010884722267E+00  0.0000000000000E+00
 0.1299147100436E+01  0.5031944506385E+00  0.0000000000000E+00
 0.1342254583294E+01  0.4003982341591E+00  0.0000000000000E+00
 0.1373224644928E+01  0.2933160093813E+00  0.0000000000000E+00
 0.1392023042748E+01  0.1834402745273E+00  0.0000000000000E+00
 0.1399371687293E+01  0.7219241886835E-01  0.0000000000000E+00
 0.1399985099629E+01 -0.3933280952953E-01  0.0000000000000E+00
 0.1399062707437E+01 -0.1508575702208E+00  0.0000000000000E+00
 0.1396094802193E+01 -0.2623461644373E+00  0.0000000000000E+00
 0.1391121394584E+01 -0.3737634365663E+00  0.0000000000000E+00
 0.1384355932078E+01 -0.4850870602232E+00  0.0000000000000E+00
 0.1375894555663E+01 -0.5962944653722E+00  0.0000000000000E+00
 0.1365833297899E+01 -0.7073687630143E+00  0.0000000000000E+00
 0.1354391361186E+01 -0.8183095321661E+00  0.0000000000000E+00
 0.1341665909368E+01 -0.9291104230793E+00  0.0000000000000E+00
 0.1327637341185E+01 -0.1039753932216E+01  0.0000000000000E+00
 0.1312155011393E+01 -0.1150203084174E+01  0.0000000000000E+00
-0.1100000000000E+01 -0.4186859601281E+01  0.0000000000000E+00
-0.1100000000000E+01 -0.4113342086429E+01  0.0000000000000E+00
-0.1100000000000E+01 -0.4039824684257E+01  0.0000000000000E+00
-0.1100000000000E+01 -0.3966307217550E+01  0.0000000000000E+00
-0.1100000000000E+01 -0.3892789747717E+01  0.0000000000000E+00
-0.1100000000000E+01 -0.3819272288129E+01  0.0000000000000E+00
-0.1100000000000E+01 -0.3745754823288E+01  0.0000000000000E+00
-0.1100000000000E+01 -0.3672237366229E+01  0.0000000000000E+00
-0.1100000000000E+01 -0.3598719903615E+01  0.0000000000000E+00
-0.1100000000000E+01 -0.3525202280347E+01  0.0000000000000E+00
-0.1100000000000E+01 -0.3451684819510E+01  0.0000000000000E+00
-0.1100000000000E+01 -0.3378167379304E+01  0.0000000000000E+00
-0.1100000000000E+01 -0.3304649961005E+01  0.0000000000000E+00
-0.1100000000000E+01 -0.3231132803085E+01  0.0000000000000E+00
-0.1100000000000E+01 -0.3157615389387E+01  0.0000000000000E+00
-0.1100003367493E+01 -0.3084098002567E+01  0.0000000000000E+00
-0.1100163445176E+01 -0.3010580866809E+01  0.0000000000000E+00
-0.1100782072834E+01 -0.2937066271891E+01  0.0000000000000E+00
-0.1102023699626E+01 -0.2863559587695E+01  0.0000000000000E+00
-0.1103929635720E+01 -0.2790067100603E+01  0.0000000000000E+00
-0.1106486188836E+01 -0.2716594812946E+01  0.0000000000000E+00
-0.1109666467309E+01 -0.2643146234865E+01  0.0000000000000E+00
-0.1113448355568E+01 -0.2569726064901E+01  0.0000000000000E+00
-0.1117821735375E+01 -0.2496339061666E+01  0.0000000000000E+00
-0.1122792268339E+01 -0.2422989996067E+01  0.0000000000000E+00
-0.1128385326244E+01 -0.2349685803919E+01  0.0000000000000E+00
-0.1134650256572E+01 -0.2276436016166E+01  0.0000000000000E+00
-0.1141610183162E+01 -0.2203248992725E+01  0.0000000000000E+00
-0.1149256669967E+01 -0.2130130513310E+01  0.0000000000000E+00
-0.1157601152556E+01 -0.2057088440583E+01  0.0000000000000E+00
-0.1166677440836E+01 -0.1984133466366E+01  0.0000000000000E+00
-0.1176543877319E+01 -0.1911281600770E+01  0.0000000000000E+00
-0.1187286815106E+01 -0.1838554023786E+01  0.0000000000000E+00
-0.1199019040451E+01 -0.1765979519674E+01  0.0000000000000E+00
-0.1211849657205E+01 -0.1693591126070E+01  0.0000000000000E+00
-0.1225739090867E+01 -0.1621398208059E+01  0.0000000000000E+00
-0.1240134799336E+01 -0.1549304059582E+01  0.0000000000000E+00
-0.1254460274118E+01 -0.1477195909045E+01  0.0000000000000E+00
-0.1268516310659E+01 -0.1405034780455E+01  0.0000000000000E+00
-0.1282077126715E+01 -0.1332779095968E+01  0.0000000000000E+00
 0.1282077126706E+01 -0.1332779095966E+01  0.0000000000000E+00
 0.1268516310640E+01 -0.1405034780452E+01  0.0000000000000E+00
 0.1254460274092E+01 -0.1477195909041E+01  0.0000000000000E+00
 0.1240134799309E+01 -0.1549304059577E+01  0.0000000000000E+00
 0.1225739090841E+01 -0.1621398208054E+01  0.0000000000000E+00
 0.1211849657183E+01 -0.1693591126066E+01  0.0000000000000E+00
 0.1199019040432E+01 -0.1765979519671E+01  0.0000000000000E+00
 0.1187286815092E+01 -0.1838554023783E+01  0.0000000000000E+00
 0.1176543877308E+01 -0.1911281600768E+01  0.0000000000000E+00
 0.1166677440828E+01 -0.1984133466364E+01  0.0000000000000E+00
 0.1157601152551E+01 -0.2057088440582E+01  0.0000000000000E+00
 0.1149256669964E+01 -0.2130130513309E+01  0.0000000000000E+00
 0.1141610183160E+01 -0.2203248992724E+01  0.0000000000000E+00
 0.1134650256572E+01 -0.2276436016165E+01  0.0000000000000E+00
 0.1128385326245E+01 -0.2349685803918E+01  0.0000000000000E+00
 0.1122792268340E+01 -0.2422989996067E+01  0.0000000000000E+00
 0.1117821735377E+01 -0.2496339061666E+01  0.0000000000000E+00
 0.1113448355570E+01 -0.2569726064901E+01  0.0000000000000E+00
 0.1109666467311E+01 -0.2643146234864E+01  0.0000000000000E+00
 0.1106486188837E+01 -0.2716594812945E+01  0.0000000000000E+00
 0.1103929635722E+01 -0.2790067100603E+01  0.0000000000000E+00
 0.1102023699627E+01 -0.2863559587694E+01  0.0000000000000E+00
 0.1100782072834E+01 -0.2937066271891E+01  0.0000000000000E+00
 0.1100163445176E+01 -0.3010580866809E+01  0.0000000000000E+00
 0.1100003367493E+01 -0.3084098002567E+01  0.0000000000000E+00
 0.1100000000000E+01 -0.3157615389387E+01  0.0000000000000E+00
 0.1100000000000E+01 -0.3231132803084E+01  0.0000000000000E+00
 0.1100000000000E+01 -0.3304649961005E+01  0.0000000000000E+00
 0.1100000000000E+01 -0.3378167379303E+01  0.0000000000000E+00
 0.1100000000000E+01 -0.3451684819509E+01  0.0000000000000E+00
 0.1100000000000E+01 -0.3525202280347E+01  0.0000000000000E+00
 0.1100000000000E+01 -0.3598719903615E+01  0.0000000000000E+00
 0.1100000000000E+01 -0.3672237366228E+01  0.0000000000000E+00
 0.1100000000000E+01 -0.3745754823288E+01  0.0000000000000E+00
 0.1100000000000E+01 -0.3819272288128E+01  0.0000000000000E+00
 0.1100000000000E+01 -0.3892789747717E+01  0.0000000000000E+00
 0.1100000000000E+01 -0.3966307217550E+01  0.0000000000000E+00
 0.1100000000000E+01 -0.4039824684257E+01  0.0000000000000E+00
 0.1100000000000E+01 -0.4113342086429E+01  0.0000000000000E+00
 0.1100000000000E+01 -0.4186859601281E+01  0.0000000000000E+00
-0.4993026772283E+00  0.3556667767856E+00  0.0000000000000E+00
-0.4735245663412E+00  0.3620663345754E+00  0.0000000000000E+00
-0.4476687203903E+00  0.3681445021493E+00  0.0000000000000E+00
-0.4217386039092E+00  0.3738974563371E+00  0.0000000000000E+00
-0.3957377550662E+00  0.3793215337829E+00  0.0000000000000E+00
-0.3696697320059E+00  0.3844132472497E+00  0.0000000000000E+00
-0.3435383923604E+00  0.3891692391890E+00  0.0000000000000E+00
-0.3173476215928E+00  0.3935863469447E+00  0.0000000000000E+00
-0.2911015020050E+00  0.3976615807158E+00  0.0000000000000E+00
-0.2648041726206E+00  0.4013921568435E+00  0.0000000000000E+00
-0.2384599212245E+00  0.4047754915326E+00  0.0000000000000E+00
-0.2120731315299E+00  0.4078092176262E+00  0.0000000000000E+00
-0.1856482734578E+00  0.4104911929749E+00  0.0000000000000E+00
-0.1591899043058E+00  0.4128195070651E+00  0.0000000000000E+00
-0.1327026716844E+00  0.4147924875445E+00  0.0000000000000E+00
-0.1061912807138E+00  0.4164087088354E+00  0.0000000000000E+00
-0.7966049358352E-01  0.4176669966766E+00  0.0000000000000E+00
-0.5311511853688E-01  0.4185664328113E+00  0.0000000000000E+00
-0.2655999858263E-01  0.4191063586748E+00  0.0000000000000E+00
-0.2220446049250E-15  0.4192863780493E+00  0.0000000000000E+00
 0.2655999858263E-01  0.4191063586748E+00  0.0000000000000E+00
 0.5311511853688E-01  0.4185664328113E+00  0.0000000000000E+00
 0.7966049358352E-01  0.4176669966766E+00  0.0000000000000E+00
 0.1061912807138E+00  0.4164087088354E+00  0.0000000000000E+00
 0.1327026716844E+00  0.4147924875445E+00  0.0000000000000E+00
 0.1591899043058E+00  0.4128195070651E+00  0.0000000000000E+00
 0.1856482734578E+00  0.4104911929749E+00  0.0000000000000E+00
 0.2120731315299E+00  0.4078092176262E+00  0.0000000000000E+00
 0.2384599212245E+00  0.4047754915326E+00  0.0000000000000E+00
 0.2648041726206E+00  0.4013921568435E+00  0.0000000000000E+00
 0.2911015020050E+00  0.3976615807158E+00  0.0000000000000E+00
 0.3173476215928E+00  0.3935863469447E+00  0.0000000000000E+00
 0.3435383923604E+00  0.3891692391890E+00  0.0000000000000E+00
 0.3696697320059E+00  0.3844132472497E+00  0.0000000000000E+00
 0.3957377550662E+00  0.3793215337829E+00  0.0000000000000E+00
 0.4217386039092E+00  0.3738974563371E+00  0.0000000000000E+00
 0.4476687203903E+00  0.3681445021493E+00  0.0000000000000E+00
 0.4735245663412E+00  0.3620663345754E+00  0.0000000000000E+00
 0.4993026772283E+00  0.3556667767856E+00  0.0000000000000E+00
-0.5254305397178E+00  0.2681545389214E+00  0.0000000000000E+00
-0.5268050578882E+00  0.1873700269828E+00  0.0000000000000E+00
-0.5292624474844E+00  0.1066113625129E+00  0.0000000000000E+00
-0.5329591987273E+00  0.2590019213582E-01  0.0000000000000E+00
-0.5380609472327E+00 -0.5473409942444E-01  0.0000000000000E+00
-0.5447201698628E+00 -0.1352545080815E+00  0.0000000000000E+00
-0.5530298983064E+00 -0.2156212933524E+00  0.0000000000000E+00
-0.5629460114855E+00 -0.2958059507282E+00  0.0000000000000E+00
-0.5741921869928E+00 -0.3758154612773E+00  0.0000000000000E+00
-0.5862076862055E+00 -0.4557136218161E+00  0.0000000000000E+00
-0.5982231853407E+00 -0.5356117823665E+00  0.0000000000000E+00
-0.6094693606238E+00 -0.6156212929469E+00  0.0000000000000E+00
-0.6193854734541E+00 -0.6958059503657E+00  0.0000000000000E+00
-0.6276952014524E+00 -0.7761727356826E+00  0.0000000000000E+00
-0.6343544235680E+00 -0.8566931443820E+00  0.0000000000000E+00
-0.6394561715120E+00 -0.9373274359778E+00  0.0000000000000E+00
-0.6431529221637E+00 -0.1018038606382E+01  0.0000000000000E+00
-0.6456103111509E+00 -0.1098797270870E+01  0.0000000000000E+00
-0.6469848287027E+00 -0.1179581782819E+01  0.0000000000000E+00
 0.5254305397188E+00  0.2681545388746E+00  0.0000000000000E+00
 0.5268050578950E+00  0.1873700268891E+00  0.0000000000000E+00
 0.5292624475072E+00  0.1066113623728E+00  0.0000000000000E+00
 0.5329591987840E+00  0.2590019195037E-01  0.0000000000000E+00
 0.5380609473528E+00 -0.5473409965283E-01  0.0000000000000E+00
 0.5447201700916E+00 -0.1352545083477E+00  0.0000000000000E+00
 0.5530298987105E+00 -0.2156212936477E+00  0.0000000000000E+00
 0.5629460121574E+00 -0.2958059510374E+00  0.0000000000000E+00
 0.5741921880529E+00 -0.3758154615791E+00  0.0000000000000E+00
 0.5862076877978E+00 -0.4557136220852E+00  0.0000000000000E+00
 0.5982231876201E+00 -0.5356117825798E+00  0.0000000000000E+00
 0.6094693637399E+00 -0.6156212930901E+00  0.0000000000000E+00
 0.6193854775356E+00 -0.6958059504369E+00  0.0000000000000E+00
 0.6276952065998E+00 -0.7761727356909E+00  0.0000000000000E+00
 0.6343544298531E+00 -0.8566931443434E+00  0.0000000000000E+00
 0.6394561789831E+00 -0.9373274359111E+00  0.0000000000000E+00
 0.6431529308512E+00 -0.1018038606307E+01  0.0000000000000E+00
 0.6456103210724E+00 -0.1098797270804E+01  0.0000000000000E+00
 0.6469848398672E+00 -0.1179581782779E+01  0.0000000000000E+00
-0.5506674949859E+00  0.3746172104400E+00  0.0000000000000E+00
-0.5763349899718E+00  0.4002847058438E+00  0.0000000000000E+00
-0.6020024849577E+00  0.4259522012477E+00  0.0000000000000E+00
-0.6276699799436E+00  0.4516196966515E+00  0.0000000000000E+00
-0.6533374749295E+00  0.4772871920553E+00  0.0000000000000E+00
-0.6790049699154E+00  0.5029546874591E+00  0.0000000000000E+00
-0.7046724649013E+00  0.5286221828630E+00  0.0000000000000E+00
-0.7303399598872E+00  0.5542896782668E+00  0.0000000000000E+00
-0.7560074548731E+00  0.5799571736706E+00  0.0000000000000E+00
-0.7816749498590E+00  0.6056246690745E+00  0.0000000000000E+00
-0.8073424448449E+00  0.6312921644783E+00  0.0000000000000E+00
-0.8330099398308E+00  0.6569596598821E+00  0.0000000000000E+00
-0.8586774348167E+00  0.6826271552860E+00  0.0000000000000E+00
-0.8843449298026E+00  0.7082946506898E+00  0.0000000000000E+00
-0.9100124247885E+00  0.7339621460936E+00  0.0000000000000E+00
-0.9356799197744E+00  0.7596296414974E+00  0.0000000000000E+00
-0.9613474147603E+00  0.7852971369013E+00  0.0000000000000E+00
-0.9870149097462E+00  0.8109646323051E+00  0.0000000000000E+00
-0.1012682404732E+01  0.8366321277089E+00  0.0000000000000E+00
 0.5506674954117E+00  0.3746172100533E+00  0.0000000000000E+00
 0.5763349908233E+00  0.4002847050705E+00  0.0000000000000E+00
 0.6020024862350E+00  0.4259522000876E+00  0.0000000000000E+00
 0.6276699816466E+00  0.4516196951048E+00  0.0000000000000E+00
 0.6533374770583E+00  0.4772871901219E+00  0.0000000000000E+00
 0.6790049724699E+00  0.5029546851390E+00  0.0000000000000E+00
 0.7046724678816E+00  0.5286221801562E+00  0.0000000000000E+00
 0.7303399632932E+00  0.5542896751733E+00  0.0000000000000E+00
 0.7560074587049E+00  0.5799571701905E+00  0.0000000000000E+00
 0.7816749541165E+00  0.6056246652076E+00  0.0000000000000E+00
 0.8073424495282E+00  0.6312921602248E+00  0.0000000000000E+00
 0.8330099449398E+00  0.6569596552419E+00  0.0000000000000E+00
 0.8586774403515E+00  0.6826271502591E+00  0.0000000000000E+00
 0.8843449357631E+00  0.7082946452762E+00  0.0000000000000E+00
 0.9100124311748E+00  0.7339621402934E+00  0.0000000000000E+00
 0.9356799265864E+00  0.7596296353105E+00  0.0000000000000E+00
 0.9613474219981E+00  0.7852971303277E+00  0.0000000000000E+00
 0.9870149174097E+00  0.8109646253448E+00  0.0000000000000E+00
 0.1012682412821E+01  0.8366321203620E+00  0.0000000000000E+00
-0.1072499999993E+01 -0.4186859601281E+01  0.0000000000000E+00
-0.1072499999986E+01 -0.4113342086429E+01  0.0000000000000E+00
-0.1072499999979E+01 -0.4039824684257E+01  0.0000000000000E+00
-0.1072499999972E+01 -0.3966307217550E+01  0.0000000000000E+00
-0.1072499999965E+01 -0.3892789747717E+01  0.0000000000000E+00
-0.1072499999958E+01 -0.3819272288129E+01  0.0000000000000E+00
-0.1072499999951E+01 -0.3745754823288E+01  0.0000000000000E+00
-0.1072499999944E+01 -0.3672237366229E+01  0.0000000000000E+00
-0.1072499999937E+01 -0.3598719903615E+01  0.0000000000000E+00
-0.1072499999930E+01 -0.3525202280347E+01  0.0000000000000E+00
-0.1072499999924E+01 -0.3451684819510E+01  0.0000000000000E+00
-0.1072499999917E+01 -0.3378167379304E+01  0.0000000000000E+00
-0.1072499999910E+01 -0.3304649961005E+01  0.0000000000000E+00
-0.1072499999903E+01 -0.3231132803085E+01  0.0000000000000E+00
-0.1072499999896E+01 -0.3157615389387E+01  0.0000000000000E+00
-0.1072503283195E+01 -0.3084098002567E+01  0.0000000000000E+00
-0.1072659358928E+01 -0.3010580866809E+01  0.0000000000000E+00
-0.1073262520888E+01 -0.2937066271891E+01  0.0000000000000E+00
-0.1074473107003E+01 -0.2863559587695E+01  0.0000000000000E+00
-0.1076331394688E+01 -0.2790067100603E+01  0.0000000000000E+00
-0.1078824033968E+01 -0.2716594812946E+01  0.0000000000000E+00
-0.1081924805472E+01 -0.2643146234865E+01  0.0000000000000E+00
-0.1085612146517E+01 -0.2569726064901E+01  0.0000000000000E+00
-0.1089876191821E+01 -0.2496339061666E+01  0.0000000000000E+00
-0.1094722461453E+01 -0.2422989996067E+01  0.0000000000000E+00
-0.1100175692903E+01 -0.2349685803919E+01  0.0000000000000E+00
-0.1106283999966E+01 -0.2276436016166E+01  0.0000000000000E+00
-0.1113069928383E+01 -0.2203248992725E+01  0.0000000000000E+00
-0.1120525253010E+01 -0.2130130513310E+01  0.0000000000000E+00
-0.1128661123526E+01 -0.2057088440583E+01  0.0000000000000E+00
-0.1137510504591E+01 -0.1984133466366E+01  0.0000000000000E+00
-0.1147130280154E+01 -0.1911281600770E+01  0.0000000000000E+00
-0.1157604644488E+01 -0.1838554023786E+01  0.0000000000000E+00
-0.1169043564191E+01 -0.1765979519674E+01  0.0000000000000E+00
-0.1181553415518E+01 -0.1693591126070E+01  0.0000000000000E+00
-0.1195095613329E+01 -0.1621398208059E+01  0.0000000000000E+00
-0.1209131429078E+01 -0.1549304059582E+01  0.0000000000000E+00
-0.1223098766982E+01 -0.1477195909045E+01  0.0000000000000E+00
-0.1236803402600E+01 -0.1405034780455E+01  0.0000000000000E+00
-0.1250025198245E+01 -0.1332779095968E+01  0.0000000000000E+00
-0.1044999999986E+01 -0.4186859601281E+01  0.0000000000000E+00
-0.1044999999972E+01 -0.4113342086429E+01  0.0000000000000E+00
-0.1044999999958E+01 -0.4039824684257E+01  0.0000000000000E+00
-0.1044999999944E+01 -0.3966307217550E+01  0.0000000000000E+00
-0.1044999999930E+01 -0.3892789747717E+01  0.0000000000000E+00
-0.1044999999917E+01 -0.3819272288129E+01  0.0000000000000E+00
-0.1044999999903E+01 -0.3745754823288E+01  0.0000000000000E+00
-0.1044999999889E+01 -0.3672237366229E+01  0.0000000000000E+00
-0.1044999999875E+01 -0.3598719903615E+01  0.0000000000000E+00
-0.1044999999861E+01 -0.3525202280347E+01  0.0000000000000E+00
-0.1044999999847E+01 -0.3451684819510E+01  0.0000000000000E+00
-0.1044999999833E+01 -0.3378167379304E+01  0.0000000000000E+00
-0.1044999999819E+01 -0.3304649961005E+01  0.0000000000000E+00
-0.1044999999805E+01 -0.3231132803085E+01  0.0000000000000E+00
-0.1044999999791E+01 -0.3157615389387E+01  0.0000000000000E+00
-0.1045003198896E+01 -0.3084098002567E+01  0.0000000000000E+00
-0.1045155272681E+01 -0.3010580866809E+01  0.0000000000000E+00
-0.1045742968942E+01 -0.2937066271891E+01  0.0000000000000E+00
-0.1046922514380E+01 -0.2863559587695E+01  0.0000000000000E+00
-0.1048733153655E+01 -0.2790067100603E+01  0.0000000000000E+00
-0.1051161879100E+01 -0.2716594812946E+01  0.0000000000000E+00
-0.1054183143635E+01 -0.2643146234865E+01  0.0000000000000E+00
-0.1057775937466E+01 -0.2569726064901E+01  0.0000000000000E+00
-0.1061930648268E+01 -0.2496339061666E+01  0.0000000000000E+00
-0.1066652654568E+01 -0.2422989996067E+01  0.0000000000000E+00
-0.1071966059563E+01 -0.2349685803919E+01  0.0000000000000E+00
-0.1077917743359E+01 -0.2276436016166E+01  0.0000000000000E+00
-0.1084529673604E+01 -0.2203248992725E+01  0.0000000000000E+00
-0.1091793836053E+01 -0.2130130513310E+01  0.0000000000000E+00
-0.1099721094497E+01 -0.2057088440583E+01  0.0000000000000E+00
-0.1108343568346E+01 -0.1984133466366E+01  0.0000000000000E+00
-0.1117716682988E+01 -0.1911281600770E+01  0.0000000000000E+00
-0.1127922473870E+01 -0.1838554023786E+01  0.0000000000000E+00
-0.1139068087930E+01 -0.1765979519674E+01  0.0000000000000E+00
-0.1151257173830E+01 -0.1693591126070E+01  0.0000000000000E+00
-0.1164452135791E+01 -0.1621398208059E+01  0.0000000000000E+00
-0.1178128058819E+01 -0.1549304059582E+01  0.0000000000000E+00
-0.1191737259845E+01 -0.1477195909045E+01  0.0000000000000E+00
-0.1205090494541E+01 -0.1405034780455E+01  0.0000000000000E+00
-0.1217973269776E+01 -0.1332779095968E+01  0.0000000000000E+00
-0.1017499999979E+01 -0.4186859601281E+01  0.0000000000000E+00
-0.1017499999958E+01 -0.4113342086429E+01  0.0000000000000E+00
-0.1017499999937E+01 -0.4039824684257E+01  0.0000000000000E+00
-0.1017499999917E+01 -0.3966307217550E+01  0.0000000000000E+00
-0.1017499999896E+01 -0.3892789747717E+01  0.0000000000000E+00
-0.1017499999875E+01 -0.3819272288129E+01  0.0000000000000E+00
-0.1017499999854E+01 -0.3745754823288E+01  0.0000000000000E+00
-0.1017499999833E+01 -0.3672237366229E+01  0.0000000000000E+00
-0.1017499999812E+01 -0.3598719903615E+01  0.0000000000000E+00
-0.1017499999791E+01 -0.3525202280347E+01  0.0000000000000E+00
-0.1017499999771E+01 -0.3451684819510E+01  0.0000000000000E+00
-0.1017499999750E+01 -0.3378167379304E+01  0.0000000000000E+00
-0.1017499999729E+01 -0.3304649961005E+01  0.0000000000000E+00
-0.1017499999708E+01 -0.3231132803085E+01  0.0000000000000E+00
-0.1017499999687E+01 -0.3157615389387E+01  0.0000000000000E+00
-0.1017503114598E+01 -0.3084098002567E+01  0.0000000000000E+00
-0.1017651186433E+01 -0.3010580866809E+01  0.0000000000000E+00
-0.1018223416996E+01 -0.2937066271891E+01  0.0000000000000E+00
-0.1019371921757E+01 -0.2863559587695E+01  0.0000000000000E+00
-0.1021134912623E+01 -0.2790067100603E+01  0.0000000000000E+00
-0.1023499724232E+01 -0.2716594812946E+01  0.0000000000000E+00
-0.1026441481798E+01 -0.2643146234865E+01  0.0000000000000E+00
-0.1029939728415E+01 -0.2569726064901E+01  0.0000000000000E+00
-0.1033985104714E+01 -0.2496339061666E+01  0.0000000000000E+00
-0.1038582847683E+01 -0.2422989996067E+01  0.0000000000000E+00
-0.1043756426222E+01 -0.2349685803919E+01  0.0000000000000E+00
-0.1049551486753E+01 -0.2276436016166E+01  0.0000000000000E+00
-0.1055989418825E+01 -0.2203248992725E+01  0.0000000000000E+00
-0.1063062419096E+01 -0.2130130513310E+01  0.0000000000000E+00
-0.1070781065467E+01 -0.2057088440583E+01  0.0000000000000E+00
-0.1079176632101E+01 -0.1984133466366E+01  0.0000000000000E+00
-0.1088303085823E+01 -0.1911281600770E+01  0.0000000000000E+00
-0.1098240303252E+01 -0.1838554023786E+01  0.0000000000000E+00
-0.1109092611670E+01 -0.1765979519674E+01  0.0000000000000E+00
-0.1120960932142E+01 -0.1693591126070E+01  0.0000000000000E+00
-0.1133808658253E+01 -0.1621398208059E+01  0.0000000000000E+00
-0.1147124688561E+01 -0.1549304059582E+01  0.0000000000000E+00
-0.1160375752708E+01 -0.1477195909045E+01  0.0000000000000E+00
-0.1173377586482E+01 -0.1405034780455E+01  0.0000000000000E+00
-0.1185921341306E+01 -0.1332779095968E+01  0.0000000000000E+00
-0.9899999999722E+00 -0.4186859601281E+01  0.0000000000000E+00
-0.9899999999444E+00 -0.4113342086429E+01  0.0000000000000E+00
-0.9899999999166E+00 -0.4039824684257E+01  0.0000000000000E+00
-0.9899999998888E+00 -0.3966307217550E+01  0.0000000000000E+00
-0.9899999998610E+00 -0.3892789747717E+01  0.0000000000000E+00
-0.9899999998332E+00 -0.3819272288129E+01  0.0000000000000E+00
-0.9899999998054E+00 -0.3745754823288E+01  0.0000000000000E+00
-0.9899999997775E+00 -0.3672237366229E+01  0.0000000000000E+00
-0.9899999997497E+00 -0.3598719903615E+01  0.0000000000000E+00
-0.9899999997219E+00 -0.3525202280347E+01  0.0000000000000E+00
-0.9899999996941E+00 -0.3451684819510E+01  0.0000000000000E+00
-0.9899999996663E+00 -0.3378167379304E+01  0.0000000000000E+00
-0.9899999996385E+00 -0.3304649961005E+01  0.0000000000000E+00
-0.9899999996107E+00 -0.3231132803085E+01  0.0000000000000E+00
-0.9899999995829E+00 -0.3157615389387E+01  0.0000000000000E+00
-0.9900030302991E+00 -0.3084098002567E+01  0.0000000000000E+00
-0.9901471001853E+00 -0.3010580866809E+01  0.0000000000000E+00
-0.9907038650497E+00 -0.2937066271891E+01  0.0000000000000E+00
-0.9918213291341E+00 -0.2863559587695E+01  0.0000000000000E+00
-0.9935366715901E+00 -0.2790067100603E+01  0.0000000000000E+00
-0.9958375693647E+00 -0.2716594812946E+01  0.0000000000000E+00
-0.9986998199612E+00 -0.2643146234865E+01  0.0000000000000E+00
-0.1002103519364E+01 -0.2569726064901E+01  0.0000000000000E+00
-0.1006039561161E+01 -0.2496339061666E+01  0.0000000000000E+00
-0.1010513040798E+01 -0.2422989996067E+01  0.0000000000000E+00
-0.1015546792882E+01 -0.2349685803919E+01  0.0000000000000E+00
-0.1021185230146E+01 -0.2276436016166E+01  0.0000000000000E+00
-0.1027449164046E+01 -0.2203248992725E+01  0.0000000000000E+00
-0.1034331002139E+01 -0.2130130513310E+01  0.0000000000000E+00
-0.1041841036437E+01 -0.2057088440583E+01  0.0000000000000E+00
-0.1050009695856E+01 -0.1984133466366E+01  0.0000000000000E+00
-0.1058889488658E+01 -0.1911281600770E+01  0.0000000000000E+00
-0.1068558132634E+01 -0.1838554023786E+01  0.0000000000000E+00
-0.1079117135410E+01 -0.1765979519674E+01  0.0000000000000E+00
-0.1090664690455E+01 -0.1693591126070E+01  0.0000000000000E+00
-0.1103165180715E+01 -0.1621398208059E+01  0.0000000000000E+00
-0.1116121318302E+01 -0.1549304059582E+01  0.0000000000000E+00
-0.1129014245571E+01 -0.1477195909045E+01  0.0000000000000E+00
-0.1141664678423E+01 -0.1405034780455E+01  0.0000000000000E+00
-0.1153869412837E+01 -0.1332779095968E+01  0.0000000000000E+00
-0.9624999999652E+00 -0.4186859601281E+01  0.0000000000000E+00
-0.9624999999305E+00 -0.4113342086429E+01  0.0000000000000E+00
-0.9624999998957E+00 -0.4039824684257E+01  0.0000000000000E+00
-0.9624999998610E+00 -0.3966307217550E+01  0.0000000000000E+00
-0.9624999998262E+00 -0.3892789747717E+01  0.0000000000000E+00
-0.9624999997914E+00 -0.3819272288129E+01  0.0000000000000E+00
-0.9624999997567E+00 -0.3745754823288E+01  0.0000000000000E+00
-0.9624999997219E+00 -0.3672237366229E+01  0.0000000000000E+00
-0.9624999996872E+00 -0.3598719903615E+01  0.0000000000000E+00
-0.9624999996524E+00 -0.3525202280347E+01  0.0000000000000E+00
-0.9624999996177E+00 -0.3451684819510E+01  0.0000000000000E+00
-0.9624999995829E+00 -0.3378167379304E+01  0.0000000000000E+00
-0.9624999995481E+00 -0.3304649961005E+01  0.0000000000000E+00
-0.9624999995134E+00 -0.3231132803085E+01  0.0000000000000E+00
-0.9624999994786E+00 -0.3157615389387E+01  0.0000000000000E+00
-0.9625029460006E+00 -0.3084098002567E+01  0.0000000000000E+00
-0.9626430139377E+00 -0.3010580866809E+01  0.0000000000000E+00
-0.9631843131036E+00 -0.2937066271891E+01  0.0000000000000E+00
-0.9642707365111E+00 -0.2863559587695E+01  0.0000000000000E+00
-0.9659384305576E+00 -0.2790067100603E+01  0.0000000000000E+00
-0.9681754144969E+00 -0.2716594812946E+01  0.0000000000000E+00
-0.9709581581242E+00 -0.2643146234865E+01  0.0000000000000E+00
-0.9742673103133E+00 -0.2569726064901E+01  0.0000000000000E+00
-0.9780940176073E+00 -0.2496339061666E+01  0.0000000000000E+00
-0.9824432339124E+00 -0.2422989996067E+01  0.0000000000000E+00
-0.9873371595413E+00 -0.2349685803919E+01  0.0000000000000E+00
-0.9928189735396E+00 -0.2276436016166E+01  0.0000000000000E+00
-0.9989089092667E+00 -0.2203248992725E+01  0.0000000000000E+00
-0.1005599585181E+01 -0.2130130513310E+01  0.0000000000000E+00
-0.1012901007407E+01 -0.2057088440583E+01  0.0000000000000E+00
-0.1020842759611E+01 -0.1984133466366E+01  0.0000000000000E+00
-0.1029475891493E+01 -0.1911281600770E+01  0.0000000000000E+00
-0.1038875962015E+01 -0.1838554023786E+01  0.0000000000000E+00
-0.1049141659150E+01 -0.1765979519674E+01  0.0000000000000E+00
-0.1060368448767E+01 -0.1693591126070E+01  0.0000000000000E+00
-0.1072521703177E+01 -0.1621398208059E+01  0.0000000000000E+00
-0.1085117948044E+01 -0.1549304059582E+01  0.0000000000000E+00
-0.1097652738434E+01 -0.1477195909045E+01  0.0000000000000E+00
-0.1109951770363E+01 -0.1405034780455E+01  0.0000000000000E+00
-0.1121817484368E+01 -0.1332779095968E+01  0.0000000000000E+00
-0.9349999999583E+00 -0.4186859601281E+01  0.0000000000000E+00
-0.9349999999166E+00 -0.4113342086429E+01  0.0000000000000E+00
-0.9349999998749E+00 -0.4039824684257E+01  0.0000000000000E+00
-0.9349999998332E+00 -0.3966307217550E+01  0.0000000000000E+00
-0.9349999997914E+00 -0.3892789747717E+01  0.0000000000000E+00
-0.9349999997497E+00 -0.3819272288129E+01  0.0000000000000E+00
-0.9349999997080E+00 -0.3745754823288E+01  0.0000000000000E+00
-0.9349999996663E+00 -0.3672237366229E+01  0.0000000000000E+00
-0.9349999996246E+00 -0.3598719903615E+01  0.0000000000000E+00
-0.9349999995829E+00 -0.3525202280347E+01  0.0000000000000E+00
-0.9349999995412E+00 -0.3451684819510E+01  0.0000000000000E+00
-0.9349999994995E+00 -0.3378167379304E+01  0.0000000000000E+00
-0.9349999994578E+00 -0.3304649961005E+01  0.0000000000000E+00
-0.9349999994161E+00 -0.3231132803085E+01  0.0000000000000E+00
-0.9349999993743E+00 -0.3157615389387E+01  0.0000000000000E+00
-0.9350028617020E+00 -0.3084098002567E+01  0.0000000000000E+00
-0.9351389276901E+00 -0.3010580866809E+01  0.0000000000000E+00
-0.9356647611576E+00 -0.2937066271891E+01  0.0000000000000E+00
-0.9367201438881E+00 -0.2863559587695E+01  0.0000000000000E+00
-0.9383401895250E+00 -0.2790067100603E+01  0.0000000000000E+00
-0.9405132596292E+00 -0.2716594812946E+01  0.0000000000000E+00
-0.9432164962873E+00 -0.2643146234865E+01  0.0000000000000E+00
-0.9464311012625E+00 -0.2569726064901E+01  0.0000000000000E+00
-0.9501484740537E+00 -0.2496339061666E+01  0.0000000000000E+00
-0.9543734270272E+00 -0.2422989996067E+01  0.0000000000000E+00
-0.9591275262008E+00 -0.2349685803919E+01  0.0000000000000E+00
-0.9644527169331E+00 -0.2276436016166E+01  0.0000000000000E+00
-0.9703686544876E+00 -0.2203248992725E+01  0.0000000000000E+00
-0.9768681682243E+00 -0.2130130513310E+01  0.0000000000000E+00
-0.9839609783772E+00 -0.2057088440583E+01  0.0000000000000E+00
-0.9916758233662E+00 -0.1984133466366E+01  0.0000000000000E+00
-0.1000062294328E+01 -0.1911281600770E+01  0.0000000000000E+00
-0.1009193791397E+01 -0.1838554023786E+01  0.0000000000000E+00
-0.1019166182889E+01 -0.1765979519674E+01  0.0000000000000E+00
-0.1030072207079E+01 -0.1693591126070E+01  0.0000000000000E+00
-0.1041878225639E+01 -0.1621398208059E+01  0.0000000000000E+00
-0.1054114577786E+01 -0.1549304059582E+01  0.0000000000000E+00
-0.1066291231298E+01 -0.1477195909045E+01  0.0000000000000E+00
-0.1078238862304E+01 -0.1405034780455E+01  0.0000000000000E+00
-0.1089765555898E+01 -0.1332779095968E+01  0.0000000000000E+00
-0.9074999999513E+00 -0.4186859601281E+01  0.0000000000000E+00
-0.9074999999027E+00 -0.4113342086429E+01  0.0000000000000E+00
-0.9074999998540E+00 -0.4039824684257E+01  0.0000000000000E+00
-0.9074999998054E+00 -0.3966307217550E+01  0.0000000000000E+00
-0.9074999997567E+00 -0.3892789747717E+01  0.0000000000000E+00
-0.9074999997080E+00 -0.3819272288129E+01  0.0000000000000E+00
-0.9074999996594E+00 -0.3745754823288E+01  0.0000000000000E+00
-0.9074999996107E+00 -0.3672237366229E+01  0.0000000000000E+00
-0.9074999995620E+00 -0.3598719903615E+01  0.0000000000000E+00
-0.9074999995134E+00 -0.3525202280347E+01  0.0000000000000E+00
-0.9074999994647E+00 -0.3451684819510E+01  0.0000000000000E+00
-0.9074999994161E+00 -0.3378167379304E+01  0.0000000000000E+00
-0.9074999993674E+00 -0.3304649961005E+01  0.0000000000000E+00
-0.9074999993187E+00 -0.3231132803085E+01  0.0000000000000E+00
-0.9074999992701E+00 -0.3157615389387E+01  0.0000000000000E+00
-0.9075027774034E+00 -0.3084098002567E+01  0.0000000000000E+00
-0.9076348414425E+00 -0.3010580866809E+01  0.0000000000000E+00
-0.9081452092115E+00 -0.2937066271891E+01  0.0000000000000E+00
-0.9091695512650E+00 -0.2863559587695E+01  0.0000000000000E+00
-0.9107419484924E+00 -0.2790067100603E+01  0.0000000000000E+00
-0.9128511047615E+00 -0.2716594812946E+01  0.0000000000000E+00
-0.9154748344504E+00 -0.2643146234865E+01  0.0000000000000E+00
-0.9185948922116E+00 -0.2569726064901E+01  0.0000000000000E+00
-0.9222029305002E+00 -0.2496339061666E+01  0.0000000000000E+00
-0.9263036201420E+00 -0.2422989996067E+01  0.0000000000000E+00
-0.9309178928602E+00 -0.2349685803919E+01  0.0000000000000E+00
-0.9360864603266E+00 -0.2276436016166E+01  0.0000000000000E+00
-0.9418283997085E+00 -0.2203248992725E+01  0.0000000000000E+00
-0.9481367512672E+00 -0.2130130513310E+01  0.0000000000000E+00
-0.9550209493474E+00 -0.2057088440583E+01  0.0000000000000E+00
-0.9625088871213E+00 -0.1984133466366E+01  0.0000000000000E+00
-0.9706486971624E+00 -0.1911281600770E+01  0.0000000000000E+00
-0.9795116207790E+00 -0.1838554023786E+01  0.0000000000000E+00
-0.9891907066292E+00 -0.1765979519674E+01  0.0000000000000E+00
-0.9997759653916E+00 -0.1693591126070E+01  0.0000000000000E+00
-0.1011234748102E+01 -0.1621398208059E+01  0.0000000000000E+00
-0.1023111207527E+01 -0.1549304059582E+01  0.0000000000000E+00
-0.1034929724161E+01 -0.1477195909045E+01  0.0000000000000E+00
-0.1046525954245E+01 -0.1405034780455E+01  0.0000000000000E+00
-0.1057713627429E+01 -0.1332779095968E+01  0.0000000000000E+00
-0.8799999999444E+00 -0.4186859601281E+01  0.0000000000000E+00
-0.8799999998888E+00 -0.4113342086429E+01  0.0000000000000E+00
-0.8799999998332E+00 -0.4039824684257E+01  0.0000000000000E+00
-0.8799999997775E+00 -0.3966307217550E+01  0.0000000000000E+00
-0.8799999997219E+00 -0.3892789747717E+01  0.0000000000000E+00
-0.8799999996663E+00 -0.3819272288129E+01  0.0000000000000E+00
-0.8799999996107E+00 -0.3745754823288E+01  0.0000000000000E+00
-0.8799999995551E+00 -0.3672237366229E+01  0.0000000000000E+00
-0.8799999994995E+00 -0.3598719903615E+01  0.0000000000000E+00
-0.8799999994439E+00 -0.3525202280347E+01  0.0000000000000E+00
-0.8799999993882E+00 -0.3451684819510E+01  0.0000000000000E+00
-0.8799999993326E+00 -0.3378167379304E+01  0.0000000000000E+00
-0.8799999992770E+00 -0.3304649961005E+01  0.0000000000000E+00
-0.8799999992214E+00 -0.3231132803085E+01  0.0000000000000E+00
-0.8799999991658E+00 -0.3157615389387E+01  0.0000000000000E+00
-0.8800026931049E+00 -0.3084098002567E+01  0.0000000000000E+00
-0.8801307551949E+00 -0.3010580866809E+01  0.0000000000000E+00
-0.8806256572654E+00 -0.2937066271891E+01  0.0000000000000E+00
-0.8816189586420E+00 -0.2863559587695E+01  0.0000000000000E+00
-0.8831437074599E+00 -0.2790067100603E+01  0.0000000000000E+00
-0.8851889498937E+00 -0.2716594812946E+01  0.0000000000000E+00
-0.8877331726134E+00 -0.2643146234865E+01  0.0000000000000E+00
-0.8907586831608E+00 -0.2569726064901E+01  0.0000000000000E+00
-0.8942573869466E+00 -0.2496339061666E+01  0.0000000000000E+00
-0.8982338132567E+00 -0.2422989996067E+01  0.0000000000000E+00
-0.9027082595197E+00 -0.2349685803919E+01  0.0000000000000E+00
-0.9077202037202E+00 -0.2276436016166E+01  0.0000000000000E+00
-0.9132881449294E+00 -0.2203248992725E+01  0.0000000000000E+00
-0.9194053343101E+00 -0.2130130513310E+01  0.0000000000000E+00
-0.9260809203175E+00 -0.2057088440583E+01  0.0000000000000E+00
-0.9333419508763E+00 -0.1984133466366E+01  0.0000000000000E+00
-0.9412350999972E+00 -0.1911281600770E+01  0.0000000000000E+00
-0.9498294501608E+00 -0.1838554023786E+01  0.0000000000000E+00
-0.9592152303689E+00 -0.1765979519674E+01  0.0000000000000E+00
-0.9694797237040E+00 -0.1693591126070E+01  0.0000000000000E+00
-0.9805912705636E+00 -0.1621398208059E+01  0.0000000000000E+00
-0.9921078372688E+00 -0.1549304059582E+01  0.0000000000000E+00
-0.1003568217024E+01 -0.1477195909045E+01  0.0000000000000E+00
-0.1014813046186E+01 -0.1405034780455E+01  0.0000000000000E+00
-0.1025661698959E+01 -0.1332779095968E+01  0.0000000000000E+00
-0.8524999999374E+00 -0.4186859601281E+01  0.0000000000000E+00
-0.8524999998749E+00 -0.4113342086429E+01  0.0000000000000E+00
-0.8524999998123E+00 -0.4039824684257E+01  0.0000000000000E+00
-0.8524999997497E+00 -0.3966307217550E+01  0.0000000000000E+00
-0.8524999996872E+00 -0.3892789747717E+01  0.0000000000000E+00
-0.8524999996246E+00 -0.3819272288129E+01  0.0000000000000E+00
-0.8524999995620E+00 -0.3745754823288E+01  0.0000000000000E+00
-0.8524999994995E+00 -0.3672237366229E+01  0.0000000000000E+00
-0.8524999994369E+00 -0.3598719903615E+01  0.0000000000000E+00
-0.8524999993743E+00 -0.3525202280347E+01  0.0000000000000E+00
-0.8524999993118E+00 -0.3451684819510E+01  0.0000000000000E+00
-0.8524999992492E+00 -0.3378167379304E+01  0.0000000000000E+00
-0.8524999991866E+00 -0.3304649961005E+01  0.0000000000000E+00
-0.8524999991241E+00 -0.3231132803085E+01  0.0000000000000E+00
-0.8524999990615E+00 -0.3157615389387E+01  0.0000000000000E+00
-0.8525026088063E+00 -0.3084098002567E+01  0.0000000000000E+00
-0.8526266689474E+00 -0.3010580866809E+01  0.0000000000000E+00
-0.8531061053193E+00 -0.2937066271891E+01  0.0000000000000E+00
-0.8540683660190E+00 -0.2863559587695E+01  0.0000000000000E+00
-0.8555454664273E+00 -0.2790067100603E+01  0.0000000000000E+00
-0.8575267950260E+00 -0.2716594812946E+01  0.0000000000000E+00
-0.8599915107765E+00 -0.2643146234865E+01  0.0000000000000E+00
-0.8629224741099E+00 -0.2569726064901E+01  0.0000000000000E+00
-0.8663118433931E+00 -0.2496339061666E+01  0.0000000000000E+00
-0.8701640063715E+00 -0.2422989996067E+01  0.0000000000000E+00
-0.8744986261792E+00 -0.2349685803919E+01  0.0000000000000E+00
-0.8793539471137E+00 -0.2276436016166E+01  0.0000000000000E+00
-0.8847478901504E+00 -0.2203248992725E+01  0.0000000000000E+00
-0.8906739173530E+00 -0.2130130513310E+01  0.0000000000000E+00
-0.8971408912877E+00 -0.2057088440583E+01  0.0000000000000E+00
-0.9041750146314E+00 -0.1984133466366E+01  0.0000000000000E+00
-0.9118215028320E+00 -0.1911281600770E+01  0.0000000000000E+00
-0.9201472795426E+00 -0.1838554023785E+01  0.0000000000000E+00
-0.9292397541087E+00 -0.1765979519674E+01  0.0000000000000E+00
-0.9391834820163E+00 -0.1693591126070E+01  0.0000000000000E+00
-0.9499477930258E+00 -0.1621398208058E+01  0.0000000000000E+00
-0.9611044670103E+00 -0.1549304059582E+01  0.0000000000000E+00
-0.9722067098871E+00 -0.1477195909045E+01  0.0000000000000E+00
-0.9831001381267E+00 -0.1405034780455E+01  0.0000000000000E+00
-0.9936097704899E+00 -0.1332779095968E+01  0.0000000000000E+00
-0.8249999999305E+00 -0.4186859601281E+01  0.0000000000000E+00
-0.8249999998610E+00 -0.4113342086429E+01  0.0000000000000E+00
-0.8249999997914E+00 -0.4039824684257E+01  0.0000000000000E+00
-0.8249999997219E+00 -0.3966307217550E+01  0.0000000000000E+00
-0.8249999996524E+00 -0.3892789747717E+01  0.0000000000000E+00
-0.8249999995829E+00 -0.3819272288129E+01  0.0000000000000E+00
-0.8249999995134E+00 -0.3745754823288E+01  0.0000000000000E+00
-0.8249999994439E+00 -0.3672237366229E+01  0.0000000000000E+00
-0.8249999993743E+00 -0.3598719903615E+01  0.0000000000000E+00
-0.8249999993048E+00 -0.3525202280347E+01  0.0000000000000E+00
-0.8249999992353E+00 -0.3451684819510E+01  0.0000000000000E+00
-0.8249999991658E+00 -0.3378167379303E+01  0.0000000000000E+00
-0.8249999990963E+00 -0.3304649961005E+01  0.0000000000000E+00
-0.8249999990268E+00 -0.3231132803085E+01  0.0000000000000E+00
-0.8249999989572E+00 -0.3157615389387E+01  0.0000000000000E+00
-0.8250025245077E+00 -0.3084098002567E+01  0.0000000000000E+00
-0.8251225826998E+00 -0.3010580866809E+01  0.0000000000000E+00
-0.8255865533732E+00 -0.2937066271891E+01  0.0000000000000E+00
-0.8265177733960E+00 -0.2863559587695E+01  0.0000000000000E+00
-0.8279472253947E+00 -0.2790067100603E+01  0.0000000000000E+00
-0.8298646401582E+00 -0.2716594812946E+01  0.0000000000000E+00
-0.8322498489395E+00 -0.2643146234865E+01  0.0000000000000E+00
-0.8350862650591E+00 -0.2569726064901E+01  0.0000000000000E+00
-0.8383662998395E+00 -0.2496339061666E+01  0.0000000000000E+00
-0.8420941994863E+00 -0.2422989996067E+01  0.0000000000000E+00
-0.8462889928386E+00 -0.2349685803919E+01  0.0000000000000E+00
-0.8509876905072E+00 -0.2276436016166E+01  0.0000000000000E+00
-0.8562076353713E+00 -0.2203248992725E+01  0.0000000000000E+00
-0.8619425003959E+00 -0.2130130513310E+01  0.0000000000000E+00
-0.8682008622578E+00 -0.2057088440583E+01  0.0000000000000E+00
-0.8750080783865E+00 -0.1984133466366E+01  0.0000000000000E+00
-0.8824079056668E+00 -0.1911281600770E+01  0.0000000000000E+00
-0.8904651089244E+00 -0.1838554023785E+01  0.0000000000000E+00
-0.8992642778485E+00 -0.1765979519674E+01  0.0000000000000E+00
-0.9088872403287E+00 -0.1693591126070E+01  0.0000000000000E+00
-0.9193043154879E+00 -0.1621398208058E+01  0.0000000000000E+00
-0.9301010967519E+00 -0.1549304059582E+01  0.0000000000000E+00
-0.9408452027503E+00 -0.1477195909045E+01  0.0000000000000E+00
-0.9513872300675E+00 -0.1405034780455E+01  0.0000000000000E+00
-0.9615578420205E+00 -0.1332779095968E+01  0.0000000000000E+00
-0.7974999999235E+00 -0.4186859601281E+01  0.0000000000000E+00
-0.7974999998471E+00 -0.4113342086429E+01  0.0000000000000E+00
-0.7974999997706E+00 -0.4039824684257E+01  0.0000000000000E+00
-0.7974999996941E+00 -0.3966307217550E+01  0.0000000000000E+00
-0.7974999996177E+00 -0.3892789747717E+01  0.0000000000000E+00
-0.7974999995412E+00 -0.3819272288129E+01  0.0000000000000E+00
-0.7974999994647E+00 -0.3745754823288E+01  0.0000000000000E+00
-0.7974999993882E+00 -0.3672237366229E+01  0.0000000000000E+00
-0.7974999993118E+00 -0.3598719903615E+01  0.0000000000000E+00
-0.7974999992353E+00 -0.3525202280347E+01  0.0000000000000E+00
-0.7974999991588E+00 -0.3451684819510E+01  0.0000000000000E+00
-0.7974999990824E+00 -0.3378167379303E+01  0.0000000000000E+00
-0.7974999990059E+00 -0.3304649961005E+01  0.0000000000000E+00
-0.7974999989294E+00 -0.3231132803085E+01  0.0000000000000E+00
-0.7974999988530E+00 -0.3157615389387E+01  0.0000000000000E+00
-0.7975024402092E+00 -0.3084098002567E+01  0.0000000000000E+00
-0.7976184964522E+00 -0.3010580866809E+01  0.0000000000000E+00
-0.7980670014271E+00 -0.2937066271891E+01  0.0000000000000E+00
-0.7989671807730E+00 -0.2863559587695E+01  0.0000000000000E+00
-0.8003489843621E+00 -0.2790067100603E+01  0.0000000000000E+00
-0.8022024852905E+00 -0.2716594812946E+01  0.0000000000000E+00
-0.8045081871026E+00 -0.2643146234865E+01  0.0000000000000E+00
-0.8072500560082E+00 -0.2569726064901E+01  0.0000000000000E+00
-0.8104207562860E+00 -0.2496339061666E+01  0.0000000000000E+00
-0.8140243926010E+00 -0.2422989996067E+01  0.0000000000000E+00
-0.8180793594981E+00 -0.2349685803919E+01  0.0000000000000E+00
-0.8226214339007E+00 -0.2276436016166E+01  0.0000000000000E+00
-0.8276673805922E+00 -0.2203248992725E+01  0.0000000000000E+00
-0.8332110834388E+00 -0.2130130513310E+01  0.0000000000000E+00
-0.8392608332280E+00 -0.2057088440583E+01  0.0000000000000E+00
-0.8458411421415E+00 -0.1984133466366E+01  0.0000000000000E+00
-0.8529943085016E+00 -0.1911281600770E+01  0.0000000000000E+00
-0.8607829383062E+00 -0.1838554023785E+01  0.0000000000000E+00
-0.8692888015883E+00 -0.1765979519674E+01  0.0000000000000E+00
-0.8785909986410E+00 -0.1693591126070E+01  0.0000000000000E+00
-0.8886608379500E+00 -0.1621398208058E+01  0.0000000000000E+00
-0.8990977264935E+00 -0.1549304059581E+01  0.0000000000000E+00
-0.9094836956135E+00 -0.1477195909045E+01  0.0000000000000E+00
-0.9196743220083E+00 -0.1405034780455E+01  0.0000000000000E+00
-0.9295059135511E+00 -0.1332779095968E+01  0.0000000000000E+00
-0.7699999999166E+00 -0.4186859601281E+01  0.0000000000000E+00
-0.7699999998332E+00 -0.4113342086429E+01  0.0000000000000E+00
-0.7699999997497E+00 -0.4039824684257E+01  0.0000000000000E+00
-0.7699999996663E+00 -0.3966307217550E+01  0.0000000000000E+00
-0.7699999995829E+00 -0.3892789747717E+01  0.0000000000000E+00
-0.7699999994995E+00 -0.3819272288129E+01  0.0000000000000E+00
-0.7699999994161E+00 -0.3745754823288E+01  0.0000000000000E+00
-0.7699999993326E+00 -0.3672237366229E+01  0.0000000000000E+00
-0.7699999992492E+00 -0.3598719903615E+01  0.0000000000000E+00
-0.7699999991658E+00 -0.3525202280347E+01  0.0000000000000E+00
-0.7699999990824E+00 -0.3451684819510E+01  0.0000000000000E+00
-0.7699999989989E+00 -0.3378167379303E+01  0.0000000000000E+00
-0.7699999989155E+00 -0.3304649961005E+01  0.0000000000000E+00
-0.7699999988321E+00 -0.3231132803085E+01  0.0000000000000E+00
-0.7699999987487E+00 -0.3157615389387E+01  0.0000000000000E+00
-0.7700023559106E+00 -0.3084098002567E+01  0.0000000000000E+00
-0.7701144102046E+00 -0.3010580866809E+01  0.0000000000000E+00
-0.7705474494810E+00 -0.2937066271891E+01  0.0000000000000E+00
-0.7714165881500E+00 -0.2863559587695E+01  0.0000000000000E+00
-0.7727507433296E+00 -0.2790067100603E+01  0.0000000000000E+00
-0.7745403304228E+00 -0.2716594812946E+01  0.0000000000000E+00
-0.7767665252657E+00 -0.2643146234865E+01  0.0000000000000E+00
-0.7794138469574E+00 -0.2569726064901E+01  0.0000000000000E+00
-0.7824752127324E+00 -0.2496339061666E+01  0.0000000000000E+00
-0.7859545857158E+00 -0.2422989996067E+01  0.0000000000000E+00
-0.7898697261576E+00 -0.2349685803919E+01  0.0000000000000E+00
-0.7942551772942E+00 -0.2276436016166E+01  0.0000000000000E+00
-0.7991271258132E+00 -0.2203248992725E+01  0.0000000000000E+00
-0.8044796664817E+00 -0.2130130513310E+01  0.0000000000000E+00
-0.8103208041981E+00 -0.2057088440583E+01  0.0000000000000E+00
-0.8166742058966E+00 -0.1984133466366E+01  0.0000000000000E+00
-0.8235807113364E+00 -0.1911281600770E+01  0.0000000000000E+00
-0.8311007676880E+00 -0.1838554023785E+01  0.0000000000000E+00
-0.8393133253280E+00 -0.1765979519674E+01  0.0000000000000E+00
-0.8482947569534E+00 -0.1693591126070E+01  0.0000000000000E+00
-0.8580173604121E+00 -0.1621398208058E+01  0.0000000000000E+00
-0.8680943562351E+00 -0.1549304059581E+01  0.0000000000000E+00
-0.8781221884767E+00 -0.1477195909045E+01  0.0000000000000E+00
-0.8879614139491E+00 -0.1405034780455E+01  0.0000000000000E+00
-0.8974539850816E+00 -0.1332779095968E+01  0.0000000000000E+00
-0.7424999999096E+00 -0.4186859601281E+01  0.0000000000000E+00
-0.7424999998193E+00 -0.4113342086429E+01  0.0000000000000E+00
-0.7424999997289E+00 -0.4039824684257E+01  0.0000000000000E+00
-0.7424999996385E+00 -0.3966307217550E+01  0.0000000000000E+00
-0.7424999995481E+00 -0.3892789747717E+01  0.0000000000000E+00
-0.7424999994578E+00 -0.3819272288129E+01  0.0000000000000E+00
-0.7424999993674E+00 -0.3745754823288E+01  0.0000000000000E+00
-0.7424999992770E+00 -0.3672237366229E+01  0.0000000000000E+00
-0.7424999991866E+00 -0.3598719903615E+01  0.0000000000000E+00
-0.7424999990963E+00 -0.3525202280347E+01  0.0000000000000E+00
-0.7424999990059E+00 -0.3451684819510E+01  0.0000000000000E+00
-0.7424999989155E+00 -0.3378167379303E+01  0.0000000000000E+00
-0.7424999988252E+00 -0.3304649961005E+01  0.0000000000000E+00
-0.7424999987348E+00 -0.3231132803085E+01  0.0000000000000E+00
-0.7424999986444E+00 -0.3157615389387E+01  0.0000000000000E+00
-0.7425022716120E+00 -0.3084098002567E+01  0.0000000000000E+00
-0.7426103239570E+00 -0.3010580866809E+01  0.0000000000000E+00
-0.7430278975349E+00 -0.2937066271891E+01  0.0000000000000E+00
-0.7438659955270E+00 -0.2863559587695E+01  0.0000000000000E+00
-0.7451525022970E+00 -0.2790067100603E+01  0.0000000000000E+00
-0.7468781755550E+00 -0.2716594812946E+01  0.0000000000000E+00
-0.7490248634287E+00 -0.2643146234865E+01  0.0000000000000E+00
-0.7515776379065E+00 -0.2569726064901E+01  0.0000000000000E+00
-0.7545296691789E+00 -0.2496339061666E+01  0.0000000000000E+00
-0.7578847788306E+00 -0.2422989996067E+01  0.0000000000000E+00
-0.7616600928170E+00 -0.2349685803919E+01  0.0000000000000E+00
-0.7658889206877E+00 -0.2276436016166E+01  0.0000000000000E+00
-0.7705868710341E+00 -0.2203248992725E+01  0.0000000000000E+00
-0.7757482495245E+00 -0.2130130513310E+01  0.0000000000000E+00
-0.7813807751683E+00 -0.2057088440583E+01  0.0000000000000E+00
-0.7875072696517E+00 -0.1984133466366E+01  0.0000000000000E+00
-0.7941671141712E+00 -0.1911281600770E+01  0.0000000000000E+00
-0.8014185970699E+00 -0.1838554023785E+01  0.0000000000000E+00
-0.8093378490678E+00 -0.1765979519674E+01  0.0000000000000E+00
-0.8179985152657E+00 -0.1693591126069E+01  0.0000000000000E+00
-0.8273738828742E+00 -0.1621398208058E+01  0.0000000000000E+00
-0.8370909859766E+00 -0.1549304059581E+01  0.0000000000000E+00
-0.8467606813399E+00 -0.1477195909045E+01  0.0000000000000E+00
-0.8562485058899E+00 -0.1405034780455E+01  0.0000000000000E+00
-0.8654020566122E+00 -0.1332779095967E+01  0.0000000000000E+00
-0.7149999999027E+00 -0.4186859601281E+01  0.0000000000000E+00
-0.7149999998054E+00 -0.4113342086429E+01  0.0000000000000E+00
-0.7149999997080E+00 -0.4039824684257E+01  0.0000000000000E+00
-0.7149999996107E+00 -0.3966307217550E+01  0.0000000000000E+00
-0.7149999995134E+00 -0.3892789747717E+01  0.0000000000000E+00
-0.7149999994161E+00 -0.3819272288129E+01  0.0000000000000E+00
-0.7149999993187E+00 -0.3745754823288E+01  0.0000000000000E+00
-0.7149999992214E+00 -0.3672237366229E+01  0.0000000000000E+00
-0.7149999991241E+00 -0.3598719903615E+01  0.0000000000000E+00
-0.7149999990268E+00 -0.3525202280347E+01  0.0000000000000E+00
-0.7149999989294E+00 -0.3451684819510E+01  0.0000000000000E+00
-0.7149999988321E+00 -0.3378167379303E+01  0.0000000000000E+00
-0.7149999987348E+00 -0.3304649961005E+01  0.0000000000000E+00
-0.7149999986375E+00 -0.3231132803085E+01  0.0000000000000E+00
-0.7149999985401E+00 -0.3157615389387E+01  0.0000000000000E+00
-0.7150021873135E+00 -0.3084098002567E+01  0.0000000000000E+00
-0.7151062377094E+00 -0.3010580866809E+01  0.0000000000000E+00
-0.7155083455888E+00 -0.2937066271891E+01  0.0000000000000E+00
-0.7163154029040E+00 -0.2863559587695E+01  0.0000000000000E+00
-0.7175542612644E+00 -0.2790067100603E+01  0.0000000000000E+00
-0.7192160206873E+00 -0.2716594812946E+01  0.0000000000000E+00
-0.7212832015918E+00 -0.2643146234865E+01  0.0000000000000E+00
-0.7237414288557E+00 -0.2569726064901E+01  0.0000000000000E+00
-0.7265841256253E+00 -0.2496339061666E+01  0.0000000000000E+00
-0.7298149719453E+00 -0.2422989996067E+01  0.0000000000000E+00
-0.7334504594765E+00 -0.2349685803919E+01  0.0000000000000E+00
-0.7375226640812E+00 -0.2276436016166E+01  0.0000000000000E+00
-0.7420466162550E+00 -0.2203248992725E+01  0.0000000000000E+00
-0.7470168325674E+00 -0.2130130513310E+01  0.0000000000000E+00
-0.7524407461384E+00 -0.2057088440583E+01  0.0000000000000E+00
-0.7583403334067E+00 -0.1984133466366E+01  0.0000000000000E+00
-0.7647535170060E+00 -0.1911281600770E+01  0.0000000000000E+00
-0.7717364264517E+00 -0.1838554023785E+01  0.0000000000000E+00
-0.7793623728076E+00 -0.1765979519674E+01  0.0000000000000E+00
-0.7877022735781E+00 -0.1693591126069E+01  0.0000000000000E+00
-0.7967304053363E+00 -0.1621398208058E+01  0.0000000000000E+00
-0.8060876157182E+00 -0.1549304059581E+01  0.0000000000000E+00
-0.8153991742031E+00 -0.1477195909045E+01  0.0000000000000E+00
-0.8245355978307E+00 -0.1405034780454E+01  0.0000000000000E+00
-0.8333501281428E+00 -0.1332779095967E+01  0.0000000000000E+00
-0.6874999998957E+00 -0.4186859601281E+01  0.0000000000000E+00
-0.6874999997914E+00 -0.4113342086429E+01  0.0000000000000E+00
-0.6874999996872E+00 -0.4039824684257E+01  0.0000000000000E+00
-0.6874999995829E+00 -0.3966307217550E+01  0.0000000000000E+00
-0.6874999994786E+00 -0.3892789747717E+01  0.0000000000000E+00
-0.6874999993743E+00 -0.3819272288129E+01  0.0000000000000E+00
-0.6874999992701E+00 -0.3745754823288E+01  0.0000000000000E+00
-0.6874999991658E+00 -0.3672237366229E+01  0.0000000000000E+00
-0.6874999990615E+00 -0.3598719903615E+01  0.0000000000000E+00
-0.6874999989572E+00 -0.3525202280347E+01  0.0000000000000E+00
-0.6874999988530E+00 -0.3451684819510E+01  0.0000000000000E+00
-0.6874999987487E+00 -0.3378167379303E+01  0.0000000000000E+00
-0.6874999986444E+00 -0.3304649961005E+01  0.0000000000000E+00
-0.6874999985401E+00 -0.3231132803085E+01  0.0000000000000E+00
-0.6874999984359E+00 -0.3157615389387E+01  0.0000000000000E+00
-0.6875021030149E+00 -0.3084098002567E+01  0.0000000000000E+00
-0.6876021514618E+00 -0.3010580866809E+01  0.0000000000000E+00
-0.6879887936428E+00 -0.2937066271891E+01  0.0000000000000E+00
-0.6887648102810E+00 -0.2863559587695E+01  0.0000000000000E+00
-0.6899560202319E+00 -0.2790067100603E+01  0.0000000000000E+00
-0.6915538658196E+00 -0.2716594812946E+01  0.0000000000000E+00
-0.6935415397548E+00 -0.2643146234865E+01  0.0000000000000E+00
-0.6959052198048E+00 -0.2569726064901E+01  0.0000000000000E+00
-0.6986385820717E+00 -0.2496339061666E+01  0.0000000000000E+00
-0.7017451650601E+00 -0.2422989996067E+01  0.0000000000000E+00
-0.7052408261360E+00 -0.2349685803919E+01  0.0000000000000E+00
-0.7091564074748E+00 -0.2276436016166E+01  0.0000000000000E+00
-0.7135063614760E+00 -0.2203248992725E+01  0.0000000000000E+00
-0.7182854156103E+00 -0.2130130513310E+01  0.0000000000000E+00
-0.7235007171086E+00 -0.2057088440583E+01  0.0000000000000E+00
-0.7291733971618E+00 -0.1984133466366E+01  0.0000000000000E+00
-0.7353399198408E+00 -0.1911281600770E+01  0.0000000000000E+00
-0.7420542558335E+00 -0.1838554023785E+01  0.0000000000000E+00
-0.7493868965474E+00 -0.1765979519674E+01  0.0000000000000E+00
-0.7574060318904E+00 -0.1693591126069E+01  0.0000000000000E+00
-0.7660869277984E+00 -0.1621398208058E+01  0.0000000000000E+00
-0.7750842454598E+00 -0.1549304059581E+01  0.0000000000000E+00
-0.7840376670663E+00 -0.1477195909044E+01  0.0000000000000E+00
-0.7928226897716E+00 -0.1405034780454E+01  0.0000000000000E+00
-0.8012981996734E+00 -0.1332779095967E+01  0.0000000000000E+00
-0.6599999998888E+00 -0.4186859601281E+01  0.0000000000000E+00
-0.6599999997775E+00 -0.4113342086429E+01  0.0000000000000E+00
-0.6599999996663E+00 -0.4039824684257E+01  0.0000000000000E+00
-0.6599999995551E+00 -0.3966307217550E+01  0.0000000000000E+00
-0.6599999994439E+00 -0.3892789747717E+01  0.0000000000000E+00
-0.6599999993326E+00 -0.3819272288129E+01  0.0000000000000E+00
-0.6599999992214E+00 -0.3745754823288E+01  0.0000000000000E+00
-0.6599999991102E+00 -0.3672237366229E+01  0.0000000000000E+00
-0.6599999989989E+00 -0.3598719903615E+01  0.0000000000000E+00
-0.6599999988877E+00 -0.3525202280347E+01  0.0000000000000E+00
-0.6599999987765E+00 -0.3451684819510E+01  0.0000000000000E+00
-0.6599999986653E+00 -0.3378167379303E+01  0.0000000000000E+00
-0.6599999985540E+00 -0.3304649961005E+01  0.0000000000000E+00
-0.6599999984428E+00 -0.3231132803085E+01  0.0000000000000E+00
-0.6599999983316E+00 -0.3157615389387E+01  0.0000000000000E+00
-0.6600020187164E+00 -0.3084098002567E+01  0.0000000000000E+00
-0.6600980652142E+00 -0.3010580866809E+01  0.0000000000000E+00
-0.6604692416967E+00 -0.2937066271891E+01  0.0000000000000E+00
-0.6612142176580E+00 -0.2863559587695E+01  0.0000000000000E+00
-0.6623577791993E+00 -0.2790067100603E+01  0.0000000000000E+00
-0.6638917109518E+00 -0.2716594812946E+01  0.0000000000000E+00
-0.6657998779179E+00 -0.2643146234865E+01  0.0000000000000E+00
-0.6680690107540E+00 -0.2569726064901E+01  0.0000000000000E+00
-0.6706930385182E+00 -0.2496339061666E+01  0.0000000000000E+00
-0.6736753581749E+00 -0.2422989996067E+01  0.0000000000000E+00
-0.6770311927954E+00 -0.2349685803919E+01  0.0000000000000E+00
-0.6807901508683E+00 -0.2276436016166E+01  0.0000000000000E+00
-0.6849661066969E+00 -0.2203248992725E+01  0.0000000000000E+00
-0.6895539986532E+00 -0.2130130513310E+01  0.0000000000000E+00
-0.6945606880787E+00 -0.2057088440583E+01  0.0000000000000E+00
-0.7000064609169E+00 -0.1984133466366E+01  0.0000000000000E+00
-0.7059263226756E+00 -0.1911281600770E+01  0.0000000000000E+00
-0.7123720852153E+00 -0.1838554023785E+01  0.0000000000000E+00
-0.7194114202871E+00 -0.1765979519674E+01  0.0000000000000E+00
-0.7271097902028E+00 -0.1693591126069E+01  0.0000000000000E+00
-0.7354434502605E+00 -0.1621398208058E+01  0.0000000000000E+00
-0.7440808752013E+00 -0.1549304059581E+01  0.0000000000000E+00
-0.7526761599294E+00 -0.1477195909044E+01  0.0000000000000E+00
-0.7611097817124E+00 -0.1405034780454E+01  0.0000000000000E+00
-0.7692462712040E+00 -0.1332779095967E+01  0.0000000000000E+00
-0.6324999998818E+00 -0.4186859601281E+01  0.0000000000000E+00
-0.6324999997636E+00 -0.4113342086429E+01  0.0000000000000E+00
-0.6324999996455E+00 -0.4039824684257E+01  0.0000000000000E+00
-0.6324999995273E+00 -0.3966307217550E+01  0.0000000000000E+00
-0.6324999994091E+00 -0.3892789747717E+01  0.0000000000000E+00
-0.6324999992909E+00 -0.3819272288129E+01  0.0000000000000E+00
-0.6324999991727E+00 -0.3745754823288E+01  0.0000000000000E+00
-0.6324999990546E+00 -0.3672237366229E+01  0.0000000000000E+00
-0.6324999989364E+00 -0.3598719903615E+01  0.0000000000000E+00
-0.6324999988182E+00 -0.3525202280347E+01  0.0000000000000E+00
-0.6324999987000E+00 -0.3451684819510E+01  0.0000000000000E+00
-0.6324999985818E+00 -0.3378167379303E+01  0.0000000000000E+00
-0.6324999984637E+00 -0.3304649961005E+01  0.0000000000000E+00
-0.6324999983455E+00 -0.3231132803085E+01  0.0000000000000E+00
-0.6324999982273E+00 -0.3157615389387E+01  0.0000000000000E+00
-0.6325019344178E+00 -0.3084098002567E+01  0.0000000000000E+00
-0.6325939789666E+00 -0.3010580866809E+01  0.0000000000000E+00
-0.6329496897506E+00 -0.2937066271891E+01  0.0000000000000E+00
-0.6336636250350E+00 -0.2863559587695E+01  0.0000000000000E+00
-0.6347595381667E+00 -0.2790067100603E+01  0.0000000000000E+00
-0.6362295560841E+00 -0.2716594812946E+01  0.0000000000000E+00
-0.6380582160810E+00 -0.2643146234864E+01  0.0000000000000E+00
-0.6402328017031E+00 -0.2569726064901E+01  0.0000000000000E+00
-0.6427474949646E+00 -0.2496339061666E+01  0.0000000000000E+00
-0.6456055512896E+00 -0.2422989996067E+01  0.0000000000000E+00
-0.6488215594549E+00 -0.2349685803919E+01  0.0000000000000E+00
-0.6524238942618E+00 -0.2276436016166E+01  0.0000000000000E+00
-0.6564258519178E+00 -0.2203248992725E+01  0.0000000000000E+00
-0.6608225816961E+00 -0.2130130513310E+01  0.0000000000000E+00
-0.6656206590488E+00 -0.2057088440583E+01  0.0000000000000E+00
-0.6708395246719E+00 -0.1984133466366E+01  0.0000000000000E+00
-0.6765127255104E+00 -0.1911281600769E+01  0.0000000000000E+00
-0.6826899145971E+00 -0.1838554023785E+01  0.0000000000000E+00
-0.6894359440269E+00 -0.1765979519673E+01  0.0000000000000E+00
-0.6968135485151E+00 -0.1693591126069E+01  0.0000000000000E+00
-0.7047999727226E+00 -0.1621398208058E+01  0.0000000000000E+00
-0.7130775049429E+00 -0.1549304059581E+01  0.0000000000000E+00
-0.7213146527926E+00 -0.1477195909044E+01  0.0000000000000E+00
-0.7293968736532E+00 -0.1405034780454E+01  0.0000000000000E+00
-0.7371943427346E+00 -0.1332779095967E+01  0.0000000000000E+00
-0.6049999998749E+00 -0.4186859601281E+01  0.0000000000000E+00
-0.6049999997497E+00 -0.4113342086429E+01  0.0000000000000E+00
-0.6049999996246E+00 -0.4039824684257E+01  0.0000000000000E+00
-0.6049999994995E+00 -0.3966307217550E+01  0.0000000000000E+00
-0.6049999993743E+00 -0.3892789747717E+01  0.0000000000000E+00
-0.6049999992492E+00 -0.3819272288129E+01  0.0000000000000E+00
-0.6049999991241E+00 -0.3745754823288E+01  0.0000000000000E+00
-0.6049999989989E+00 -0.3672237366228E+01  0.0000000000000E+00
-0.6049999988738E+00 -0.3598719903615E+01  0.0000000000000E+00
-0.6049999987487E+00 -0.3525202280347E+01  0.0000000000000E+00
-0.6049999986236E+00 -0.3451684819510E+01  0.0000000000000E+00
-0.6049999984984E+00 -0.3378167379303E+01  0.0000000000000E+00
-0.6049999983733E+00 -0.3304649961005E+01  0.0000000000000E+00
-0.6049999982482E+00 -0.3231132803085E+01  0.0000000000000E+00
-0.6049999981230E+00 -0.3157615389387E+01  0.0000000000000E+00
-0.6050018501192E+00 -0.3084098002567E+01  0.0000000000000E+00
-0.6050898927190E+00 -0.3010580866809E+01  0.0000000000000E+00
-0.6054301378045E+00 -0.2937066271891E+01  0.0000000000000E+00
-0.6061130324120E+00 -0.2863559587695E+01  0.0000000000000E+00
-0.6071612971342E+00 -0.2790067100603E+01  0.0000000000000E+00
-0.6085674012163E+00 -0.2716594812946E+01  0.0000000000000E+00
-0.6103165542440E+00 -0.2643146234864E+01  0.0000000000000E+00
-0.6123965926523E+00 -0.2569726064901E+01  0.0000000000000E+00
-0.6148019514111E+00 -0.2496339061666E+01  0.0000000000000E+00
-0.6175357444044E+00 -0.2422989996067E+01  0.0000000000000E+00
-0.6206119261143E+00 -0.2349685803919E+01  0.0000000000000E+00
-0.6240576376553E+00 -0.2276436016166E+01  0.0000000000000E+00
-0.6278855971387E+00 -0.2203248992725E+01  0.0000000000000E+00
-0.6320911647390E+00 -0.2130130513310E+01  0.0000000000000E+00
-0.6366806300190E+00 -0.2057088440583E+01  0.0000000000000E+00
-0.6416725884270E+00 -0.1984133466365E+01  0.0000000000000E+00
-0.6470991283452E+00 -0.1911281600769E+01  0.0000000000000E+00
-0.6530077439789E+00 -0.1838554023785E+01  0.0000000000000E+00
-0.6594604677667E+00 -0.1765979519673E+01  0.0000000000000E+00
-0.6665173068275E+00 -0.1693591126069E+01  0.0000000000000E+00
-0.6741564951847E+00 -0.1621398208058E+01  0.0000000000000E+00
-0.6820741346845E+00 -0.1549304059581E+01  0.0000000000000E+00
-0.6899531456558E+00 -0.1477195909044E+01  0.0000000000000E+00
-0.6976839655940E+00 -0.1405034780454E+01  0.0000000000000E+00
-0.7051424142651E+00 -0.1332779095967E+01  0.0000000000000E+00
-0.5774999998679E+00 -0.4186859601281E+01  0.0000000000000E+00
-0.5774999997358E+00 -0.4113342086429E+01  0.0000000000000E+00
-0.5774999996037E+00 -0.4039824684257E+01  0.0000000000000E+00
-0.5774999994717E+00 -0.3966307217550E+01  0.0000000000000E+00
-0.5774999993396E+00 -0.3892789747717E+01  0.0000000000000E+00
-0.5774999992075E+00 -0.3819272288129E+01  0.0000000000000E+00
-0.5774999990754E+00 -0.3745754823288E+01  0.0000000000000E+00
-0.5774999989433E+00 -0.3672237366228E+01  0.0000000000000E+00
-0.5774999988112E+00 -0.3598719903615E+01  0.0000000000000E+00
-0.5774999986792E+00 -0.3525202280347E+01  0.0000000000000E+00
-0.5774999985471E+00 -0.3451684819510E+01  0.0000000000000E+00
-0.5774999984150E+00 -0.3378167379303E+01  0.0000000000000E+00
-0.5774999982829E+00 -0.3304649961005E+01  0.0000000000000E+00
-0.5774999981508E+00 -0.3231132803085E+01  0.0000000000000E+00
-0.5774999980187E+00 -0.3157615389387E+01  0.0000000000000E+00
-0.5775017658207E+00 -0.3084098002567E+01  0.0000000000000E+00
-0.5775858064714E+00 -0.3010580866809E+01  0.0000000000000E+00
-0.5779105858584E+00 -0.2937066271891E+01  0.0000000000000E+00
-0.5785624397890E+00 -0.2863559587695E+01  0.0000000000000E+00
-0.5795630561016E+00 -0.2790067100603E+01  0.0000000000000E+00
-0.5809052463486E+00 -0.2716594812946E+01  0.0000000000000E+00
-0.5825748924071E+00 -0.2643146234864E+01  0.0000000000000E+00
-0.5845603836014E+00 -0.2569726064901E+01  0.0000000000000E+00
-0.5868564078575E+00 -0.2496339061666E+01  0.0000000000000E+00
-0.5894659375192E+00 -0.2422989996067E+01  0.0000000000000E+00
-0.5924022927738E+00 -0.2349685803919E+01  0.0000000000000E+00
-0.5956913810488E+00 -0.2276436016166E+01  0.0000000000000E+00
-0.5993453423597E+00 -0.2203248992725E+01  0.0000000000000E+00
-0.6033597477819E+00 -0.2130130513310E+01  0.0000000000000E+00
-0.6077406009891E+00 -0.2057088440583E+01  0.0000000000000E+00
-0.6125056521821E+00 -0.1984133466365E+01  0.0000000000000E+00
-0.6176855311800E+00 -0.1911281600769E+01  0.0000000000000E+00
-0.6233255733607E+00 -0.1838554023785E+01  0.0000000000000E+00
-0.6294849915065E+00 -0.1765979519673E+01  0.0000000000000E+00
-0.6362210651398E+00 -0.1693591126069E+01  0.0000000000000E+00
-0.6435130176468E+00 -0.1621398208058E+01  0.0000000000000E+00
-0.6510707644261E+00 -0.1549304059581E+01  0.0000000000000E+00
-0.6585916385190E+00 -0.1477195909044E+01  0.0000000000000E+00
-0.6659710575348E+00 -0.1405034780454E+01  0.0000000000000E+00
-0.6730904857957E+00 -0.1332779095967E+01  0.0000000000000E+00
-0.5499999998610E+00 -0.4186859601281E+01  0.0000000000000E+00
-0.5499999997219E+00 -0.4113342086429E+01  0.0000000000000E+00
-0.5499999995829E+00 -0.4039824684257E+01  0.0000000000000E+00
-0.5499999994439E+00 -0.3966307217550E+01  0.0000000000000E+00
-0.5499999993048E+00 -0.3892789747717E+01  0.0000000000000E+00
-0.5499999991658E+00 -0.3819272288129E+01  0.0000000000000E+00
-0.5499999990268E+00 -0.3745754823288E+01  0.0000000000000E+00
-0.5499999988877E+00 -0.3672237366228E+01  0.0000000000000E+00
-0.5499999987487E+00 -0.3598719903615E+01  0.0000000000000E+00
-0.5499999986096E+00 -0.3525202280347E+01  0.0000000000000E+00
-0.5499999984706E+00 -0.3451684819510E+01  0.0000000000000E+00
-0.5499999983316E+00 -0.3378167379303E+01  0.0000000000000E+00
-0.5499999981925E+00 -0.3304649961005E+01  0.0000000000000E+00
-0.5499999980535E+00 -0.3231132803085E+01  0.0000000000000E+00
-0.5499999979145E+00 -0.3157615389387E+01  0.0000000000000E+00
-0.5500016815221E+00 -0.3084098002567E+01  0.0000000000000E+00
-0.5500817202238E+00 -0.3010580866809E+01  0.0000000000000E+00
-0.5503910339123E+00 -0.2937066271891E+01  0.0000000000000E+00
-0.5510118471659E+00 -0.2863559587695E+01  0.0000000000000E+00
-0.5519648150690E+00 -0.2790067100603E+01  0.0000000000000E+00
-0.5532430914809E+00 -0.2716594812946E+01  0.0000000000000E+00
-0.5548332305702E+00 -0.2643146234864E+01  0.0000000000000E+00
-0.5567241745506E+00 -0.2569726064901E+01  0.0000000000000E+00
-0.5589108643040E+00 -0.2496339061666E+01  0.0000000000000E+00
-0.5613961306339E+00 -0.2422989996067E+01  0.0000000000000E+00
-0.5641926594333E+00 -0.2349685803919E+01  0.0000000000000E+00
-0.5673251244423E+00 -0.2276436016166E+01  0.0000000000000E+00
-0.5708050875806E+00 -0.2203248992725E+01  0.0000000000000E+00
-0.5746283308247E+00 -0.2130130513310E+01  0.0000000000000E+00
-0.5788005719593E+00 -0.2057088440583E+01  0.0000000000000E+00
-0.5833387159371E+00 -0.1984133466365E+01  0.0000000000000E+00
-0.5882719340148E+00 -0.1911281600769E+01  0.0000000000000E+00
-0.5936434027425E+00 -0.1838554023785E+01  0.0000000000000E+00
-0.5995095152462E+00 -0.1765979519673E+01  0.0000000000000E+00
-0.6059248234522E+00 -0.1693591126069E+01  0.0000000000000E+00
-0.6128695401089E+00 -0.1621398208058E+01  0.0000000000000E+00
-0.6200673941676E+00 -0.1549304059581E+01  0.0000000000000E+00
-0.6272301313822E+00 -0.1477195909044E+01  0.0000000000000E+00
-0.6342581494756E+00 -0.1405034780454E+01  0.0000000000000E+00
-0.6410385573263E+00 -0.1332779095967E+01  0.0000000000000E+00
-0.5224999998610E+00 -0.4186859601281E+01  0.0000000000000E+00
-0.5224999997219E+00 -0.4113342086429E+01  0.0000000000000E+00
-0.5224999995829E+00 -0.4039824684257E+01  0.0000000000000E+00
-0.5224999994439E+00 -0.3966307217550E+01  0.0000000000000E+00
-0.5224999993048E+00 -0.3892789747717E+01  0.0000000000000E+00
-0.5224999991658E+00 -0.3819272288129E+01  0.0000000000000E+00
-0.5224999990268E+00 -0.3745754823288E+01  0.0000000000000E+00
-0.5224999988877E+00 -0.3672237366228E+01  0.0000000000000E+00
-0.5224999987487E+00 -0.3598719903615E+01  0.0000000000000E+00
-0.5224999986096E+00 -0.3525202280347E+01  0.0000000000000E+00
-0.5224999984706E+00 -0.3451684819510E+01  0.0000000000000E+00
-0.5224999983316E+00 -0.3378167379303E+01  0.0000000000000E+00
-0.5224999981925E+00 -0.3304649961005E+01  0.0000000000000E+00
-0.5224999980535E+00 -0.3231132803085E+01  0.0000000000000E+00
-0.5224999979145E+00 -0.3157615389387E+01  0.0000000000000E+00
-0.5225015973348E+00 -0.3084098002567E+01  0.0000000000000E+00
-0.5225776340944E+00 -0.3010580866809E+01  0.0000000000000E+00
-0.5228714820914E+00 -0.2937066271891E+01  0.0000000000000E+00
-0.5234612546753E+00 -0.2863559587695E+01  0.0000000000000E+00
-0.5243665741760E+00 -0.2790067100603E+01  0.0000000000000E+00
-0.5255809367599E+00 -0.2716594812946E+01  0.0000000000000E+00
-0.5270915688874E+00 -0.2643146234864E+01  0.0000000000000E+00
-0.5288879656614E+00 -0.2569726064901E+01  0.0000000000000E+00
-0.5309653209196E+00 -0.2496339061666E+01  0.0000000000000E+00
-0.5333263239254E+00 -0.2422989996067E+01  0.0000000000000E+00
-0.5359830262772E+00 -0.2349685803919E+01  0.0000000000000E+00
-0.5389588680280E+00 -0.2276436016166E+01  0.0000000000000E+00
-0.5422648330016E+00 -0.2203248992725E+01  0.0000000000000E+00
-0.5458969140756E+00 -0.2130130513310E+01  0.0000000000000E+00
-0.5498605431455E+00 -0.2057088440583E+01  0.0000000000000E+00
-0.5541717799163E+00 -0.1984133466365E+01  0.0000000000000E+00
-0.5588583370819E+00 -0.1911281600769E+01  0.0000000000000E+00
-0.5639612323650E+00 -0.1838554023785E+01  0.0000000000000E+00
-0.5695340392352E+00 -0.1765979519673E+01  0.0000000000000E+00
-0.5756285820223E+00 -0.1693591126069E+01  0.0000000000000E+00
-0.5822260628376E+00 -0.1621398208058E+01  0.0000000000000E+00
-0.5890640241846E+00 -0.1549304059581E+01  0.0000000000000E+00
-0.5958686245296E+00 -0.1477195909044E+01  0.0000000000000E+00
-0.6025452417094E+00 -0.1405034780454E+01  0.0000000000000E+00
-0.6089866291585E+00 -0.1332779095967E+01  0.0000000000000E+00
-0.4949999998610E+00 -0.4186859601281E+01  0.0000000000000E+00
-0.4949999997219E+00 -0.4113342086429E+01  0.0000000000000E+00
-0.4949999995829E+00 -0.4039824684257E+01  0.0000000000000E+00
-0.4949999994439E+00 -0.3966307217550E+01  0.0000000000000E+00
-0.4949999993048E+00 -0.3892789747717E+01  0.0000000000000E+00
-0.4949999991658E+00 -0.3819272288129E+01  0.0000000000000E+00
-0.4949999990268E+00 -0.3745754823288E+01  0.0000000000000E+00
-0.4949999988877E+00 -0.3672237366228E+01  0.0000000000000E+00
-0.4949999987487E+00 -0.3598719903615E+01  0.0000000000000E+00
-0.4949999986096E+00 -0.3525202280347E+01  0.0000000000000E+00
-0.4949999984706E+00 -0.3451684819510E+01  0.0000000000000E+00
-0.4949999983316E+00 -0.3378167379303E+01  0.0000000000000E+00
-0.4949999981925E+00 -0.3304649961005E+01  0.0000000000000E+00
-0.4949999980535E+00 -0.3231132803085E+01  0.0000000000000E+00
-0.4949999979145E+00 -0.3157615389387E+01  0.0000000000000E+00
-0.4950015131474E+00 -0.3084098002567E+01  0.0000000000000E+00
-0.4950735479650E+00 -0.3010580866809E+01  0.0000000000000E+00
-0.4953519302706E+00 -0.2937066271891E+01  0.0000000000000E+00
-0.4959106621846E+00 -0.2863559587695E+01  0.0000000000000E+00
-0.4967683332830E+00 -0.2790067100603E+01  0.0000000000000E+00
-0.4979187820390E+00 -0.2716594812946E+01  0.0000000000000E+00
-0.4993499072047E+00 -0.2643146234864E+01  0.0000000000000E+00
-0.5010517567722E+00 -0.2569726064901E+01  0.0000000000000E+00
-0.5030197775352E+00 -0.2496339061666E+01  0.0000000000000E+00
-0.5052565172169E+00 -0.2422989996067E+01  0.0000000000000E+00
-0.5077733931210E+00 -0.2349685803919E+01  0.0000000000000E+00
-0.5105926116137E+00 -0.2276436016166E+01  0.0000000000000E+00
-0.5137245784225E+00 -0.2203248992725E+01  0.0000000000000E+00
-0.5171654973265E+00 -0.2130130513310E+01  0.0000000000000E+00
-0.5209205143316E+00 -0.2057088440583E+01  0.0000000000000E+00
-0.5250048438955E+00 -0.1984133466365E+01  0.0000000000000E+00
-0.5294447401491E+00 -0.1911281600769E+01  0.0000000000000E+00
-0.5342790619876E+00 -0.1838554023785E+01  0.0000000000000E+00
-0.5395585632242E+00 -0.1765979519673E+01  0.0000000000000E+00
-0.5453323405925E+00 -0.1693591126069E+01  0.0000000000000E+00
-0.5515825855662E+00 -0.1621398208058E+01  0.0000000000000E+00
-0.5580606542015E+00 -0.1549304059581E+01  0.0000000000000E+00
-0.5645071176769E+00 -0.1477195909044E+01  0.0000000000000E+00
-0.5708323339431E+00 -0.1405034780454E+01  0.0000000000000E+00
-0.5769347009908E+00 -0.1332779095967E+01  0.0000000000000E+00
-0.4674999998610E+00 -0.4186859601281E+01  0.0000000000000E+00
-0.4674999997219E+00 -0.4113342086429E+01  0.0000000000000E+00
-0.4674999995829E+00 -0.4039824684257E+01  0.0000000000000E+00
-0.4674999994439E+00 -0.3966307217550E+01  0.0000000000000E+00
-0.4674999993048E+00 -0.3892789747717E+01  0.0000000000000E+00
-0.4674999991658E+00 -0.3819272288129E+01  0.0000000000000E+00
-0.4674999990268E+00 -0.3745754823288E+01  0.0000000000000E+00
-0.4674999988877E+00 -0.3672237366228E+01  0.0000000000000E+00
-0.4674999987487E+00 -0.3598719903615E+01  0.0000000000000E+00
-0.4674999986096E+00 -0.3525202280347E+01  0.0000000000000E+00
-0.4674999984706E+00 -0.3451684819510E+01  0.0000000000000E+00
-0.4674999983316E+00 -0.3378167379303E+01  0.0000000000000E+00
-0.4674999981925E+00 -0.3304649961005E+01  0.0000000000000E+00
-0.4674999980535E+00 -0.3231132803085E+01  0.0000000000000E+00
-0.4674999979145E+00 -0.3157615389387E+01  0.0000000000000E+00
-0.4675014289601E+00 -0.3084098002567E+01  0.0000000000000E+00
-0.4675694618356E+00 -0.3010580866809E+01  0.0000000000000E+00
-0.4678323784497E+00 -0.2937066271891E+01  0.0000000000000E+00
-0.4683600696940E+00 -0.2863559587695E+01  0.0000000000000E+00
-0.4691700923899E+00 -0.2790067100603E+01  0.0000000000000E+00
-0.4702566273181E+00 -0.2716594812946E+01  0.0000000000000E+00
-0.4716082455219E+00 -0.2643146234864E+01  0.0000000000000E+00
-0.4732155478829E+00 -0.2569726064901E+01  0.0000000000000E+00
-0.4750742341508E+00 -0.2496339061666E+01  0.0000000000000E+00
-0.4771867105085E+00 -0.2422989996067E+01  0.0000000000000E+00
-0.4795637599649E+00 -0.2349685803919E+01  0.0000000000000E+00
-0.4822263551994E+00 -0.2276436016165E+01  0.0000000000000E+00
-0.4851843238435E+00 -0.2203248992725E+01  0.0000000000000E+00
-0.4884340805773E+00 -0.2130130513310E+01  0.0000000000000E+00
-0.4919804855178E+00 -0.2057088440583E+01  0.0000000000000E+00
-0.4958379078748E+00 -0.1984133466365E+01  0.0000000000000E+00
-0.5000311432163E+00 -0.1911281600769E+01  0.0000000000000E+00
-0.5045968916101E+00 -0.1838554023785E+01  0.0000000000000E+00
-0.5095830872131E+00 -0.1765979519673E+01  0.0000000000000E+00
-0.5150360991627E+00 -0.1693591126069E+01  0.0000000000000E+00
-0.5209391082949E+00 -0.1621398208058E+01  0.0000000000000E+00
-0.5270572842184E+00 -0.1549304059581E+01  0.0000000000000E+00
-0.5331456108243E+00 -0.1477195909044E+01  0.0000000000000E+00
-0.5391194261769E+00 -0.1405034780454E+01  0.0000000000000E+00
-0.5448827728230E+00 -0.1332779095967E+01  0.0000000000000E+00
-0.4399999998610E+00 -0.4186859601281E+01  0.0000000000000E+00
-0.4399999997219E+00 -0.4113342086429E+01  0.0000000000000E+00
-0.4399999995829E+00 -0.4039824684257E+01  0.0000000000000E+00
-0.4399999994439E+00 -0.3966307217550E+01  0.0000000000000E+00
-0.4399999993048E+00 -0.3892789747717E+01  0.0000000000000E+00
-0.4399999991658E+00 -0.3819272288129E+01  0.0000000000000E+00
-0.4399999990268E+00 -0.3745754823288E+01  0.0000000000000E+00
-0.4399999988877E+00 -0.3672237366228E+01  0.0000000000000E+00
-0.4399999987487E+00 -0.3598719903615E+01  0.0000000000000E+00
-0.4399999986096E+00 -0.3525202280347E+01  0.0000000000000E+00
-0.4399999984706E+00 -0.3451684819510E+01  0.0000000000000E+00
-0.4399999983316E+00 -0.3378167379303E+01  0.0000000000000E+00
-0.4399999981925E+00 -0.3304649961005E+01  0.0000000000000E+00
-0.4399999980535E+00 -0.3231132803085E+01  0.0000000000000E+00
-0.4399999979145E+00 -0.3157615389387E+01  0.0000000000000E+00
-0.4400013447728E+00 -0.3084098002567E+01  0.0000000000000E+00
-0.4400653757062E+00 -0.3010580866809E+01  0.0000000000000E+00
-0.4403128266289E+00 -0.2937066271891E+01  0.0000000000000E+00
-0.4408094772033E+00 -0.2863559587695E+01  0.0000000000000E+00
-0.4415718514969E+00 -0.2790067100603E+01  0.0000000000000E+00
-0.4425944725972E+00 -0.2716594812946E+01  0.0000000000000E+00
-0.4438665838392E+00 -0.2643146234864E+01  0.0000000000000E+00
-0.4453793389937E+00 -0.2569726064901E+01  0.0000000000000E+00
-0.4471286907664E+00 -0.2496339061666E+01  0.0000000000000E+00
-0.4491169038000E+00 -0.2422989996067E+01  0.0000000000000E+00
-0.4513541268088E+00 -0.2349685803919E+01  0.0000000000000E+00
-0.4538600987851E+00 -0.2276436016165E+01  0.0000000000000E+00
-0.4566440692645E+00 -0.2203248992725E+01  0.0000000000000E+00
-0.4597026638282E+00 -0.2130130513310E+01  0.0000000000000E+00
-0.4630404567039E+00 -0.2057088440583E+01  0.0000000000000E+00
-0.4666709718540E+00 -0.1984133466365E+01  0.0000000000000E+00
-0.4706175462834E+00 -0.1911281600769E+01  0.0000000000000E+00
-0.4749147212326E+00 -0.1838554023785E+01  0.0000000000000E+00
-0.4796076112021E+00 -0.1765979519673E+01  0.0000000000000E+00
-0.4847398577328E+00 -0.1693591126069E+01  0.0000000000000E+00
-0.4902956310235E+00 -0.1621398208058E+01  0.0000000000000E+00
-0.4960539142354E+00 -0.1549304059581E+01  0.0000000000000E+00
-0.5017841039716E+00 -0.1477195909044E+01  0.0000000000000E+00
-0.5074065184107E+00 -0.1405034780454E+01  0.0000000000000E+00
-0.5128308446553E+00 -0.1332779095967E+01  0.0000000000000E+00
-0.4124999998610E+00 -0.4186859601281E+01  0.0000000000000E+00
-0.4124999997219E+00 -0.4113342086429E+01  0.0000000000000E+00
-0.4124999995829E+00 -0.4039824684257E+01  0.0000000000000E+00
-0.4124999994439E+00 -0.3966307217550E+01  0.0000000000000E+00
-0.4124999993048E+00 -0.3892789747717E+01  0.0000000000000E+00
-0.4124999991658E+00 -0.3819272288129E+01  0.0000000000000E+00
-0.4124999990268E+00 -0.3745754823288E+01  0.0000000000000E+00
-0.4124999988877E+00 -0.3672237366228E+01  0.0000000000000E+00
-0.4124999987487E+00 -0.3598719903615E+01  0.0000000000000E+00
-0.4124999986096E+00 -0.3525202280347E+01  0.0000000000000E+00
-0.4124999984706E+00 -0.3451684819510E+01  0.0000000000000E+00
-0.4124999983316E+00 -0.3378167379303E+01  0.0000000000000E+00
-0.4124999981925E+00 -0.3304649961005E+01  0.0000000000000E+00
-0.4124999980535E+00 -0.3231132803085E+01  0.0000000000000E+00
-0.4124999979145E+00 -0.3157615389387E+01  0.0000000000000E+00
-0.4125012605854E+00 -0.3084098002567E+01  0.0000000000000E+00
-0.4125612895768E+00 -0.3010580866809E+01  0.0000000000000E+00
-0.4127932748080E+00 -0.2937066271891E+01  0.0000000000000E+00
-0.4132588847126E+00 -0.2863559587695E+01  0.0000000000000E+00
-0.4139736106039E+00 -0.2790067100603E+01  0.0000000000000E+00
-0.4149323178763E+00 -0.2716594812946E+01  0.0000000000000E+00
-0.4161249221564E+00 -0.2643146234864E+01  0.0000000000000E+00
-0.4175431301045E+00 -0.2569726064901E+01  0.0000000000000E+00
-0.4191831473820E+00 -0.2496339061666E+01  0.0000000000000E+00
-0.4210470970915E+00 -0.2422989996067E+01  0.0000000000000E+00
-0.4231444936527E+00 -0.2349685803919E+01  0.0000000000000E+00
-0.4254938423708E+00 -0.2276436016165E+01  0.0000000000000E+00
-0.4281038146855E+00 -0.2203248992725E+01  0.0000000000000E+00
-0.4309712470791E+00 -0.2130130513310E+01  0.0000000000000E+00
-0.4341004278901E+00 -0.2057088440583E+01  0.0000000000000E+00
-0.4375040358332E+00 -0.1984133466365E+01  0.0000000000000E+00
-0.4412039493506E+00 -0.1911281600769E+01  0.0000000000000E+00
-0.4452325508551E+00 -0.1838554023785E+01  0.0000000000000E+00
-0.4496321351910E+00 -0.1765979519673E+01  0.0000000000000E+00
-0.4544436163030E+00 -0.1693591126069E+01  0.0000000000000E+00
-0.4596521537522E+00 -0.1621398208057E+01  0.0000000000000E+00
-0.4650505442523E+00 -0.1549304059581E+01  0.0000000000000E+00
-0.4704225971190E+00 -0.1477195909044E+01  0.0000000000000E+00
-0.4756936106444E+00 -0.1405034780454E+01  0.0000000000000E+00
-0.4807789164875E+00 -0.1332779095967E+01  0.0000000000000E+00
-0.3849999998610E+00 -0.4186859601281E+01  0.0000000000000E+00
-0.3849999997219E+00 -0.4113342086429E+01  0.0000000000000E+00
-0.3849999995829E+00 -0.4039824684257E+01  0.0000000000000E+00
-0.3849999994439E+00 -0.3966307217550E+01  0.0000000000000E+00
-0.3849999993048E+00 -0.3892789747717E+01  0.0000000000000E+00
-0.3849999991658E+00 -0.3819272288129E+01  0.0000000000000E+00
-0.3849999990268E+00 -0.3745754823288E+01  0.0000000000000E+00
-0.3849999988877E+00 -0.3672237366228E+01  0.0000000000000E+00
-0.3849999987487E+00 -0.3598719903615E+01  0.0000000000000E+00
-0.3849999986096E+00 -0.3525202280347E+01  0.0000000000000E+00
-0.3849999984706E+00 -0.3451684819510E+01  0.0000000000000E+00
-0.3849999983316E+00 -0.3378167379303E+01  0.0000000000000E+00
-0.3849999981925E+00 -0.3304649961005E+01  0.0000000000000E+00
-0.3849999980535E+00 -0.3231132803085E+01  0.0000000000000E+00
-0.3849999979145E+00 -0.3157615389387E+01  0.0000000000000E+00
-0.3850011763981E+00 -0.3084098002567E+01  0.0000000000000E+00
-0.3850572034474E+00 -0.3010580866809E+01  0.0000000000000E+00
-0.3852737229872E+00 -0.2937066271891E+01  0.0000000000000E+00
-0.3857082922220E+00 -0.2863559587695E+01  0.0000000000000E+00
-0.3863753697109E+00 -0.2790067100603E+01  0.0000000000000E+00
-0.3872701631554E+00 -0.2716594812946E+01  0.0000000000000E+00
-0.3883832604737E+00 -0.2643146234864E+01  0.0000000000000E+00
-0.3897069212153E+00 -0.2569726064901E+01  0.0000000000000E+00
-0.3912376039976E+00 -0.2496339061666E+01  0.0000000000000E+00
-0.3929772903830E+00 -0.2422989996067E+01  0.0000000000000E+00
-0.3949348604966E+00 -0.2349685803919E+01  0.0000000000000E+00
-0.3971275859565E+00 -0.2276436016165E+01  0.0000000000000E+00
-0.3995635601064E+00 -0.2203248992725E+01  0.0000000000000E+00
-0.4022398303299E+00 -0.2130130513310E+01  0.0000000000000E+00
-0.4051603990763E+00 -0.2057088440583E+01  0.0000000000000E+00
-0.4083370998124E+00 -0.1984133466365E+01  0.0000000000000E+00
-0.4117903524178E+00 -0.1911281600769E+01  0.0000000000000E+00
-0.4155503804777E+00 -0.1838554023785E+01  0.0000000000000E+00
-0.4196566591800E+00 -0.1765979519673E+01  0.0000000000000E+00
-0.4241473748731E+00 -0.1693591126069E+01  0.0000000000000E+00
-0.4290086764809E+00 -0.1621398208057E+01  0.0000000000000E+00
-0.4340471742693E+00 -0.1549304059581E+01  0.0000000000000E+00
-0.4390610902664E+00 -0.1477195909044E+01  0.0000000000000E+00
-0.4439807028782E+00 -0.1405034780454E+01  0.0000000000000E+00
-0.4487269883198E+00 -0.1332779095967E+01  0.0000000000000E+00
-0.3574999998610E+00 -0.4186859601281E+01  0.0000000000000E+00
-0.3574999997219E+00 -0.4113342086429E+01  0.0000000000000E+00
-0.3574999995829E+00 -0.4039824684257E+01  0.0000000000000E+00
-0.3574999994439E+00 -0.3966307217550E+01  0.0000000000000E+00
-0.3574999993048E+00 -0.3892789747717E+01  0.0000000000000E+00
-0.3574999991658E+00 -0.3819272288129E+01  0.0000000000000E+00
-0.3574999990268E+00 -0.3745754823288E+01  0.0000000000000E+00
-0.3574999988877E+00 -0.3672237366228E+01  0.0000000000000E+00
-0.3574999987487E+00 -0.3598719903615E+01  0.0000000000000E+00
-0.3574999986096E+00 -0.3525202280347E+01  0.0000000000000E+00
-0.3574999984706E+00 -0.3451684819510E+01  0.0000000000000E+00
-0.3574999983316E+00 -0.3378167379303E+01  0.0000000000000E+00
-0.3574999981925E+00 -0.3304649961005E+01  0.0000000000000E+00
-0.3574999980535E+00 -0.3231132803085E+01  0.0000000000000E+00
-0.3574999979145E+00 -0.3157615389387E+01  0.0000000000000E+00
-0.3575010922108E+00 -0.3084098002567E+01  0.0000000000000E+00
-0.3575531173181E+00 -0.3010580866809E+01  0.0000000000000E+00
-0.3577541711663E+00 -0.2937066271891E+01  0.0000000000000E+00
-0.3581576997313E+00 -0.2863559587695E+01  0.0000000000000E+00
-0.3587771288178E+00 -0.2790067100603E+01  0.0000000000000E+00
-0.3596080084345E+00 -0.2716594812946E+01  0.0000000000000E+00
-0.3606415987909E+00 -0.2643146234864E+01  0.0000000000000E+00
-0.3618707123261E+00 -0.2569726064901E+01  0.0000000000000E+00
-0.3632920606132E+00 -0.2496339061666E+01  0.0000000000000E+00
-0.3649074836745E+00 -0.2422989996067E+01  0.0000000000000E+00
-0.3667252273405E+00 -0.2349685803919E+01  0.0000000000000E+00
-0.3687613295422E+00 -0.2276436016165E+01  0.0000000000000E+00
-0.3710233055274E+00 -0.2203248992725E+01  0.0000000000000E+00
-0.3735084135808E+00 -0.2130130513310E+01  0.0000000000000E+00
-0.3762203702624E+00 -0.2057088440583E+01  0.0000000000000E+00
-0.3791701637916E+00 -0.1984133466365E+01  0.0000000000000E+00
-0.3823767554850E+00 -0.1911281600769E+01  0.0000000000000E+00
-0.3858682101002E+00 -0.1838554023785E+01  0.0000000000000E+00
-0.3896811831690E+00 -0.1765979519673E+01  0.0000000000000E+00
-0.3938511334433E+00 -0.1693591126069E+01  0.0000000000000E+00
-0.3983651992095E+00 -0.1621398208057E+01  0.0000000000000E+00
-0.4030438042862E+00 -0.1549304059580E+01  0.0000000000000E+00
-0.4076995834137E+00 -0.1477195909044E+01  0.0000000000000E+00
-0.4122677951119E+00 -0.1405034780454E+01  0.0000000000000E+00
-0.4166750601520E+00 -0.1332779095967E+01  0.0000000000000E+00
-0.3299999998610E+00 -0.4186859601281E+01  0.0000000000000E+00
-0.3299999997219E+00 -0.4113342086429E+01  0.0000000000000E+00
-0.3299999995829E+00 -0.4039824684257E+01  0.0000000000000E+00
-0.3299999994439E+00 -0.3966307217550E+01  0.0000000000000E+00
-0.3299999993048E+00 -0.3892789747717E+01  0.0000000000000E+00
-0.3299999991658E+00 -0.3819272288129E+01  0.0000000000000E+00
-0.3299999990268E+00 -0.3745754823288E+01  0.0000000000000E+00
-0.3299999988877E+00 -0.3672237366228E+01  0.0000000000000E+00
-0.3299999987487E+00 -0.3598719903615E+01  0.0000000000000E+00
-0.3299999986096E+00 -0.3525202280347E+01  0.0000000000000E+00
-0.3299999984706E+00 -0.3451684819510E+01  0.0000000000000E+00
-0.3299999983316E+00 -0.3378167379303E+01  0.0000000000000E+00
-0.3299999981925E+00 -0.3304649961005E+01  0.0000000000000E+00
-0.3299999980535E+00 -0.3231132803085E+01  0.0000000000000E+00
-0.3299999979145E+00 -0.3157615389387E+01  0.0000000000000E+00
-0.3300010080234E+00 -0.3084098002567E+01  0.0000000000000E+00
-0.3300490311887E+00 -0.3010580866809E+01  0.0000000000000E+00
-0.3302346193454E+00 -0.2937066271891E+01  0.0000000000000E+00
-0.3306071072407E+00 -0.2863559587695E+01  0.0000000000000E+00
-0.3311788879248E+00 -0.2790067100603E+01  0.0000000000000E+00
-0.3319458537136E+00 -0.2716594812946E+01  0.0000000000000E+00
-0.3328999371082E+00 -0.2643146234864E+01  0.0000000000000E+00
-0.3340345034369E+00 -0.2569726064901E+01  0.0000000000000E+00
-0.3353465172288E+00 -0.2496339061666E+01  0.0000000000000E+00
-0.3368376769660E+00 -0.2422989996067E+01  0.0000000000000E+00
-0.3385155941844E+00 -0.2349685803919E+01  0.0000000000000E+00
-0.3403950731279E+00 -0.2276436016165E+01  0.0000000000000E+00
-0.3424830509484E+00 -0.2203248992725E+01  0.0000000000000E+00
-0.3447769968317E+00 -0.2130130513310E+01  0.0000000000000E+00
-0.3472803414486E+00 -0.2057088440583E+01  0.0000000000000E+00
-0.3500032277708E+00 -0.1984133466365E+01  0.0000000000000E+00
-0.3529631585521E+00 -0.1911281600769E+01  0.0000000000000E+00
-0.3561860397227E+00 -0.1838554023785E+01  0.0000000000000E+00
-0.3597057071579E+00 -0.1765979519673E+01  0.0000000000000E+00
-0.3635548920134E+00 -0.1693591126069E+01  0.0000000000000E+00
-0.3677217219382E+00 -0.1621398208057E+01  0.0000000000000E+00
-0.3720404343031E+00 -0.1549304059580E+01  0.0000000000000E+00
-0.3763380765611E+00 -0.1477195909044E+01  0.0000000000000E+00
-0.3805548873457E+00 -0.1405034780454E+01  0.0000000000000E+00
-0.3846231319842E+00 -0.1332779095967E+01  0.0000000000000E+00
-0.3024999998610E+00 -0.4186859601281E+01  0.0000000000000E+00
-0.3024999997219E+00 -0.4113342086429E+01  0.0000000000000E+00
-0.3024999995829E+00 -0.4039824684257E+01  0.0000000000000E+00
-0.3024999994439E+00 -0.3966307217550E+01  0.0000000000000E+00
-0.3024999993048E+00 -0.3892789747717E+01  0.0000000000000E+00
-0.3024999991658E+00 -0.3819272288129E+01  0.0000000000000E+00
-0.3024999990268E+00 -0.3745754823288E+01  0.0000000000000E+00
-0.3024999988877E+00 -0.3672237366228E+01  0.0000000000000E+00
-0.3024999987487E+00 -0.3598719903615E+01  0.0000000000000E+00
-0.3024999986096E+00 -0.3525202280347E+01  0.0000000000000E+00
-0.3024999984706E+00 -0.3451684819510E+01  0.0000000000000E+00
-0.3024999983316E+00 -0.3378167379303E+01  0.0000000000000E+00
-0.3024999981925E+00 -0.3304649961005E+01  0.0000000000000E+00
-0.3024999980535E+00 -0.3231132803085E+01  0.0000000000000E+00
-0.3024999979145E+00 -0.3157615389387E+01  0.0000000000000E+00
-0.3025009238361E+00 -0.3084098002567E+01  0.0000000000000E+00
-0.3025449450593E+00 -0.3010580866809E+01  0.0000000000000E+00
-0.3027150675246E+00 -0.2937066271891E+01  0.0000000000000E+00
-0.3030565147500E+00 -0.2863559587695E+01  0.0000000000000E+00
-0.3035806470318E+00 -0.2790067100603E+01  0.0000000000000E+00
-0.3042836989927E+00 -0.2716594812946E+01  0.0000000000000E+00
-0.3051582754254E+00 -0.2643146234864E+01  0.0000000000000E+00
-0.3061982945476E+00 -0.2569726064901E+01  0.0000000000000E+00
-0.3074009738444E+00 -0.2496339061666E+01  0.0000000000000E+00
-0.3087678702575E+00 -0.2422989996067E+01  0.0000000000000E+00
-0.3103059610283E+00 -0.2349685803919E+01  0.0000000000000E+00
-0.3120288167136E+00 -0.2276436016165E+01  0.0000000000000E+00
-0.3139427963693E+00 -0.2203248992725E+01  0.0000000000000E+00
-0.3160455800825E+00 -0.2130130513310E+01  0.0000000000000E+00
-0.3183403126348E+00 -0.2057088440583E+01  0.0000000000000E+00
-0.3208362917500E+00 -0.1984133466365E+01  0.0000000000000E+00
-0.3235495616193E+00 -0.1911281600769E+01  0.0000000000000E+00
-0.3265038693452E+00 -0.1838554023785E+01  0.0000000000000E+00
-0.3297302311469E+00 -0.1765979519673E+01  0.0000000000000E+00
-0.3332586505836E+00 -0.1693591126069E+01  0.0000000000000E+00
-0.3370782446668E+00 -0.1621398208057E+01  0.0000000000000E+00
-0.3410370643201E+00 -0.1549304059580E+01  0.0000000000000E+00
-0.3449765697085E+00 -0.1477195909044E+01  0.0000000000000E+00
-0.3488419795795E+00 -0.1405034780454E+01  0.0000000000000E+00
-0.3525712038165E+00 -0.1332779095967E+01  0.0000000000000E+00
-0.2749999998610E+00 -0.4186859601281E+01  0.0000000000000E+00
-0.2749999997219E+00 -0.4113342086429E+01  0.0000000000000E+00
-0.2749999995829E+00 -0.4039824684257E+01  0.0000000000000E+00
-0.2749999994439E+00 -0.3966307217550E+01  0.0000000000000E+00
-0.2749999993048E+00 -0.3892789747717E+01  0.0000000000000E+00
-0.2749999991658E+00 -0.3819272288129E+01  0.0000000000000E+00
-0.2749999990268E+00 -0.3745754823288E+01  0.0000000000000E+00
-0.2749999988877E+00 -0.3672237366228E+01  0.0000000000000E+00
-0.2749999987487E+00 -0.3598719903615E+01  0.0000000000000E+00
-0.2749999986096E+00 -0.3525202280347E+01  0.0000000000000E+00
-0.2749999984706E+00 -0.3451684819510E+01  0.0000000000000E+00
-0.2749999983316E+00 -0.3378167379303E+01  0.0000000000000E+00
-0.2749999981925E+00 -0.3304649961005E+01  0.0000000000000E+00
-0.2749999980535E+00 -0.3231132803085E+01  0.0000000000000E+00
-0.2749999979145E+00 -0.3157615389387E+01  0.0000000000000E+00
-0.2750008396488E+00 -0.3084098002567E+01  0.0000000000000E+00
-0.2750408589299E+00 -0.3010580866809E+01  0.0000000000000E+00
-0.2751955157037E+00 -0.2937066271891E+01  0.0000000000000E+00
-0.2755059222593E+00 -0.2863559587695E+01  0.0000000000000E+00
-0.2759824061388E+00 -0.2790067100603E+01  0.0000000000000E+00
-0.2766215442717E+00 -0.2716594812946E+01  0.0000000000000E+00
-0.2774166137427E+00 -0.2643146234864E+01  0.0000000000000E+00
-0.2783620856584E+00 -0.2569726064901E+01  0.0000000000000E+00
-0.2794554304600E+00 -0.2496339061666E+01  0.0000000000000E+00
-0.2806980635491E+00 -0.2422989996067E+01  0.0000000000000E+00
-0.2820963278721E+00 -0.2349685803919E+01  0.0000000000000E+00
-0.2836625602993E+00 -0.2276436016165E+01  0.0000000000000E+00
-0.2854025417903E+00 -0.2203248992725E+01  0.0000000000000E+00
-0.2873141633334E+00 -0.2130130513310E+01  0.0000000000000E+00
-0.2894002838209E+00 -0.2057088440583E+01  0.0000000000000E+00
-0.2916693557292E+00 -0.1984133466365E+01  0.0000000000000E+00
-0.2941359646865E+00 -0.1911281600769E+01  0.0000000000000E+00
-0.2968216989678E+00 -0.1838554023785E+01  0.0000000000000E+00
-0.2997547551359E+00 -0.1765979519673E+01  0.0000000000000E+00
-0.3029624091537E+00 -0.1693591126069E+01  0.0000000000000E+00
-0.3064347673955E+00 -0.1621398208057E+01  0.0000000000000E+00
-0.3100336943370E+00 -0.1549304059580E+01  0.0000000000000E+00
-0.3136150628558E+00 -0.1477195909044E+01  0.0000000000000E+00
-0.3171290718132E+00 -0.1405034780454E+01  0.0000000000000E+00
-0.3205192756487E+00 -0.1332779095967E+01  0.0000000000000E+00
-0.2474999998610E+00 -0.4186859601281E+01  0.0000000000000E+00
-0.2474999997219E+00 -0.4113342086429E+01  0.0000000000000E+00
-0.2474999995829E+00 -0.4039824684257E+01  0.0000000000000E+00
-0.2474999994439E+00 -0.3966307217550E+01  0.0000000000000E+00
-0.2474999993048E+00 -0.3892789747717E+01  0.0000000000000E+00
-0.2474999991658E+00 -0.3819272288129E+01  0.0000000000000E+00
-0.2474999990268E+00 -0.3745754823288E+01  0.0000000000000E+00
-0.2474999988877E+00 -0.3672237366228E+01  0.0000000000000E+00
-0.2474999987487E+00 -0.3598719903615E+01  0.0000000000000E+00
-0.2474999986096E+00 -0.3525202280347E+01  0.0000000000000E+00
-0.2474999984706E+00 -0.3451684819510E+01  0.0000000000000E+00
-0.2474999983316E+00 -0.3378167379303E+01  0.0000000000000E+00
-0.2474999981925E+00 -0.3304649961005E+01  0.0000000000000E+00
-0.2474999980535E+00 -0.3231132803085E+01  0.0000000000000E+00
-0.2474999979145E+00 -0.3157615389387E+01  0.0000000000000E+00
-0.2475007554614E+00 -0.3084098002567E+01  0.0000000000000E+00
-0.2475367728005E+00 -0.3010580866809E+01  0.0000000000000E+00
-0.2476759638829E+00 -0.2937066271891E+01  0.0000000000000E+00
-0.2479553297687E+00 -0.2863559587695E+01  0.0000000000000E+00
-0.2483841652457E+00 -0.2790067100603E+01  0.0000000000000E+00
-0.2489593895508E+00 -0.2716594812946E+01  0.0000000000000E+00
-0.2496749520599E+00 -0.2643146234864E+01  0.0000000000000E+00
-0.2505258767692E+00 -0.2569726064901E+01  0.0000000000000E+00
-0.2515098870756E+00 -0.2496339061666E+01  0.0000000000000E+00
-0.2526282568406E+00 -0.2422989996067E+01  0.0000000000000E+00
-0.2538866947160E+00 -0.2349685803919E+01  0.0000000000000E+00
-0.2552963038850E+00 -0.2276436016165E+01  0.0000000000000E+00
-0.2568622872113E+00 -0.2203248992725E+01  0.0000000000000E+00
-0.2585827465843E+00 -0.2130130513310E+01  0.0000000000000E+00
-0.2604602550071E+00 -0.2057088440583E+01  0.0000000000000E+00
-0.2625024197084E+00 -0.1984133466365E+01  0.0000000000000E+00
-0.2647223677536E+00 -0.1911281600769E+01  0.0000000000000E+00
-0.2671395285903E+00 -0.1838554023785E+01  0.0000000000000E+00
-0.2697792791248E+00 -0.1765979519673E+01  0.0000000000000E+00
-0.2726661677239E+00 -0.1693591126069E+01  0.0000000000000E+00
-0.2757912901242E+00 -0.1621398208057E+01  0.0000000000000E+00
-0.2790303243540E+00 -0.1549304059580E+01  0.0000000000000E+00
-0.2822535560032E+00 -0.1477195909044E+01  0.0000000000000E+00
-0.2854161640470E+00 -0.1405034780454E+01  0.0000000000000E+00
-0.2884673474810E+00 -0.1332779095967E+01  0.0000000000000E+00
-0.2199999998610E+00 -0.4186859601281E+01  0.0000000000000E+00
-0.2199999997219E+00 -0.4113342086429E+01  0.0000000000000E+00
-0.2199999995829E+00 -0.4039824684257E+01  0.0000000000000E+00
-0.2199999994439E+00 -0.3966307217550E+01  0.0000000000000E+00
-0.2199999993048E+00 -0.3892789747717E+01  0.0000000000000E+00
-0.2199999991658E+00 -0.3819272288129E+01  0.0000000000000E+00
-0.2199999990268E+00 -0.3745754823288E+01  0.0000000000000E+00
-0.2199999988877E+00 -0.3672237366228E+01  0.0000000000000E+00
-0.2199999987487E+00 -0.3598719903615E+01  0.0000000000000E+00
-0.2199999986096E+00 -0.3525202280347E+01  0.0000000000000E+00
-0.2199999984706E+00 -0.3451684819510E+01  0.0000000000000E+00
-0.2199999983316E+00 -0.3378167379303E+01  0.0000000000000E+00
-0.2199999981925E+00 -0.3304649961005E+01  0.0000000000000E+00
-0.2199999980535E+00 -0.3231132803085E+01  0.0000000000000E+00
-0.2199999979145E+00 -0.3157615389387E+01  0.0000000000000E+00
-0.2200006712741E+00 -0.3084098002567E+01  0.0000000000000E+00
-0.2200326866711E+00 -0.3010580866809E+01  0.0000000000000E+00
-0.2201564120620E+00 -0.2937066271891E+01  0.0000000000000E+00
-0.2204047372780E+00 -0.2863559587695E+01  0.0000000000000E+00
-0.2207859243527E+00 -0.2790067100603E+01  0.0000000000000E+00
-0.2212972348299E+00 -0.2716594812946E+01  0.0000000000000E+00
-0.2219332903772E+00 -0.2643146234864E+01  0.0000000000000E+00
-0.2226896678800E+00 -0.2569726064901E+01  0.0000000000000E+00
-0.2235643436911E+00 -0.2496339061666E+01  0.0000000000000E+00
-0.2245584501321E+00 -0.2422989996067E+01  0.0000000000000E+00
-0.2256770615599E+00 -0.2349685803919E+01  0.0000000000000E+00
-0.2269300474707E+00 -0.2276436016165E+01  0.0000000000000E+00
-0.2283220326322E+00 -0.2203248992725E+01  0.0000000000000E+00
-0.2298513298351E+00 -0.2130130513310E+01  0.0000000000000E+00
-0.2315202261932E+00 -0.2057088440583E+01  0.0000000000000E+00
-0.2333354836876E+00 -0.1984133466365E+01  0.0000000000000E+00
-0.2353087708208E+00 -0.1911281600769E+01  0.0000000000000E+00
-0.2374573582128E+00 -0.1838554023785E+01  0.0000000000000E+00
-0.2398038031138E+00 -0.1765979519673E+01  0.0000000000000E+00
-0.2423699262940E+00 -0.1693591126069E+01  0.0000000000000E+00
-0.2451478128528E+00 -0.1621398208057E+01  0.0000000000000E+00
-0.2480269543709E+00 -0.1549304059580E+01  0.0000000000000E+00
-0.2508920491506E+00 -0.1477195909043E+01  0.0000000000000E+00
-0.2537032562807E+00 -0.1405034780454E+01  0.0000000000000E+00
-0.2564154193132E+00 -0.1332779095967E+01  0.0000000000000E+00
-0.1924999998610E+00 -0.4186859601281E+01  0.0000000000000E+00
-0.1924999997219E+00 -0.4113342086429E+01  0.0000000000000E+00
-0.1924999995829E+00 -0.4039824684257E+01  0.0000000000000E+00
-0.1924999994439E+00 -0.3966307217550E+01  0.0000000000000E+00
-0.1924999993048E+00 -0.3892789747717E+01  0.0000000000000E+00
-0.1924999991658E+00 -0.3819272288129E+01  0.0000000000000E+00
-0.1924999990268E+00 -0.3745754823288E+01  0.0000000000000E+00
-0.1924999988877E+00 -0.3672237366228E+01  0.0000000000000E+00
-0.1924999987487E+00 -0.3598719903615E+01  0.0000000000000E+00
-0.1924999986096E+00 -0.3525202280347E+01  0.0000000000000E+00
-0.1924999984706E+00 -0.3451684819510E+01  0.0000000000000E+00
-0.1924999983316E+00 -0.3378167379303E+01  0.0000000000000E+00
-0.1924999981925E+00 -0.3304649961005E+01  0.0000000000000E+00
-0.1924999980535E+00 -0.3231132803085E+01  0.0000000000000E+00
-0.1924999979145E+00 -0.3157615389387E+01  0.0000000000000E+00
-0.1925005870868E+00 -0.3084098002567E+01  0.0000000000000E+00
-0.1925286005417E+00 -0.3010580866809E+01  0.0000000000000E+00
-0.1926368602412E+00 -0.2937066271891E+01  0.0000000000000E+00
-0.1928541447873E+00 -0.2863559587695E+01  0.0000000000000E+00
-0.1931876834597E+00 -0.2790067100603E+01  0.0000000000000E+00
-0.1936350801090E+00 -0.2716594812946E+01  0.0000000000000E+00
-0.1941916286944E+00 -0.2643146234864E+01  0.0000000000000E+00
-0.1948534589908E+00 -0.2569726064901E+01  0.0000000000000E+00
-0.1956188003067E+00 -0.2496339061666E+01  0.0000000000000E+00
-0.1964886434236E+00 -0.2422989996067E+01  0.0000000000000E+00
-0.1974674284038E+00 -0.2349685803919E+01  0.0000000000000E+00
-0.1985637910564E+00 -0.2276436016165E+01  0.0000000000000E+00
-0.1997817780532E+00 -0.2203248992725E+01  0.0000000000000E+00
-0.2011199130860E+00 -0.2130130513310E+01  0.0000000000000E+00
-0.2025801973794E+00 -0.2057088440583E+01  0.0000000000000E+00
-0.2041685476668E+00 -0.1984133466365E+01  0.0000000000000E+00
-0.2058951738880E+00 -0.1911281600769E+01  0.0000000000000E+00
-0.2077751878353E+00 -0.1838554023785E+01  0.0000000000000E+00
-0.2098283271027E+00 -0.1765979519673E+01  0.0000000000000E+00
-0.2120736848642E+00 -0.1693591126068E+01  0.0000000000000E+00
-0.2145043355815E+00 -0.1621398208057E+01  0.0000000000000E+00
-0.2170235843879E+00 -0.1549304059580E+01  0.0000000000000E+00
-0.2195305422979E+00 -0.1477195909043E+01  0.0000000000000E+00
-0.2219903485145E+00 -0.1405034780454E+01  0.0000000000000E+00
-0.2243634911454E+00 -0.1332779095967E+01  0.0000000000000E+00
-0.1649999998610E+00 -0.4186859601281E+01  0.0000000000000E+00
-0.1649999997219E+00 -0.4113342086429E+01  0.0000000000000E+00
-0.1649999995829E+00 -0.4039824684257E+01  0.0000000000000E+00
-0.1649999994439E+00 -0.3966307217550E+01  0.0000000000000E+00
-0.1649999993048E+00 -0.3892789747717E+01  0.0000000000000E+00
-0.1649999991658E+00 -0.3819272288129E+01  0.0000000000000E+00
-0.1649999990268E+00 -0.3745754823288E+01  0.0000000000000E+00
-0.1649999988877E+00 -0.3672237366228E+01  0.0000000000000E+00
-0.1649999987487E+00 -0.3598719903615E+01  0.0000000000000E+00
-0.1649999986096E+00 -0.3525202280347E+01  0.0000000000000E+00
-0.1649999984706E+00 -0.3451684819510E+01  0.0000000000000E+00
-0.1649999983316E+00 -0.3378167379303E+01  0.0000000000000E+00
-0.1649999981925E+00 -0.3304649961005E+01  0.0000000000000E+00
-0.1649999980535E+00 -0.3231132803085E+01  0.0000000000000E+00
-0.1649999979145E+00 -0.3157615389387E+01  0.0000000000000E+00
-0.1650005028994E+00 -0.3084098002567E+01  0.0000000000000E+00
-0.1650245144123E+00 -0.3010580866809E+01  0.0000000000000E+00
-0.1651173084203E+00 -0.2937066271891E+01  0.0000000000000E+00
-0.1653035522967E+00 -0.2863559587695E+01  0.0000000000000E+00
-0.1655894425667E+00 -0.2790067100603E+01  0.0000000000000E+00
-0.1659729253881E+00 -0.2716594812946E+01  0.0000000000000E+00
-0.1664499670117E+00 -0.2643146234864E+01  0.0000000000000E+00
-0.1670172501016E+00 -0.2569726064901E+01  0.0000000000000E+00
-0.1676732569223E+00 -0.2496339061666E+01  0.0000000000000E+00
-0.1684188367151E+00 -0.2422989996067E+01  0.0000000000000E+00
-0.1692577952477E+00 -0.2349685803919E+01  0.0000000000000E+00
-0.1701975346421E+00 -0.2276436016165E+01  0.0000000000000E+00
-0.1712415234742E+00 -0.2203248992725E+01  0.0000000000000E+00
-0.1723884963369E+00 -0.2130130513310E+01  0.0000000000000E+00
-0.1736401685656E+00 -0.2057088440583E+01  0.0000000000000E+00
-0.1750016116460E+00 -0.1984133466365E+01  0.0000000000000E+00
-0.1764815769552E+00 -0.1911281600769E+01  0.0000000000000E+00
-0.1780930174579E+00 -0.1838554023785E+01  0.0000000000000E+00
-0.1798528510917E+00 -0.1765979519673E+01  0.0000000000000E+00
-0.1817774434343E+00 -0.1693591126068E+01  0.0000000000000E+00
-0.1838608583101E+00 -0.1621398208057E+01  0.0000000000000E+00
-0.1860202144048E+00 -0.1549304059580E+01  0.0000000000000E+00
-0.1881690354453E+00 -0.1477195909043E+01  0.0000000000000E+00
-0.1902774407483E+00 -0.1405034780454E+01  0.0000000000000E+00
-0.1923115629777E+00 -0.1332779095967E+01  0.0000000000000E+00
-0.1374999998610E+00 -0.4186859601281E+01  0.0000000000000E+00
-0.1374999997219E+00 -0.4113342086429E+01  0.0000000000000E+00
-0.1374999995829E+00 -0.4039824684257E+01  0.0000000000000E+00
-0.1374999994439E+00 -0.3966307217550E+01  0.0000000000000E+00
-0.1374999993048E+00 -0.3892789747717E+01  0.0000000000000E+00
-0.1374999991658E+00 -0.3819272288129E+01  0.0000000000000E+00
-0.1374999990268E+00 -0.3745754823288E+01  0.0000000000000E+00
-0.1374999988877E+00 -0.3672237366228E+01  0.0000000000000E+00
-0.1374999987487E+00 -0.3598719903615E+01  0.0000000000000E+00
-0.1374999986096E+00 -0.3525202280347E+01  0.0000000000000E+00
-0.1374999984706E+00 -0.3451684819510E+01  0.0000000000000E+00
-0.1374999983316E+00 -0.3378167379303E+01  0.0000000000000E+00
-0.1374999981925E+00 -0.3304649961005E+01  0.0000000000000E+00
-0.1374999980535E+00 -0.3231132803085E+01  0.0000000000000E+00
-0.1374999979145E+00 -0.3157615389387E+01  0.0000000000000E+00
-0.1375004187121E+00 -0.3084098002567E+01  0.0000000000000E+00
-0.1375204282829E+00 -0.3010580866809E+01  0.0000000000000E+00
-0.1375977565995E+00 -0.2937066271891E+01  0.0000000000000E+00
-0.1377529598060E+00 -0.2863559587695E+01  0.0000000000000E+00
-0.1379912016736E+00 -0.2790067100603E+01  0.0000000000000E+00
-0.1383107706672E+00 -0.2716594812946E+01  0.0000000000000E+00
-0.1387083053289E+00 -0.2643146234864E+01  0.0000000000000E+00
-0.1391810412123E+00 -0.2569726064901E+01  0.0000000000000E+00
-0.1397277135379E+00 -0.2496339061666E+01  0.0000000000000E+00
-0.1403490300066E+00 -0.2422989996067E+01  0.0000000000000E+00
-0.1410481620916E+00 -0.2349685803919E+01  0.0000000000000E+00
-0.1418312782278E+00 -0.2276436016165E+01  0.0000000000000E+00
-0.1427012688952E+00 -0.2203248992725E+01  0.0000000000000E+00
-0.1436570795877E+00 -0.2130130513310E+01  0.0000000000000E+00
-0.1447001397517E+00 -0.2057088440583E+01  0.0000000000000E+00
-0.1458346756252E+00 -0.1984133466365E+01  0.0000000000000E+00
-0.1470679800223E+00 -0.1911281600769E+01  0.0000000000000E+00
-0.1484108470804E+00 -0.1838554023785E+01  0.0000000000000E+00
-0.1498773750807E+00 -0.1765979519673E+01  0.0000000000000E+00
-0.1514812020045E+00 -0.1693591126068E+01  0.0000000000000E+00
-0.1532173810388E+00 -0.1621398208057E+01  0.0000000000000E+00
-0.1550168444217E+00 -0.1549304059580E+01  0.0000000000000E+00
-0.1568075285926E+00 -0.1477195909043E+01  0.0000000000000E+00
-0.1585645329820E+00 -0.1405034780454E+01  0.0000000000000E+00
-0.1602596348099E+00 -0.1332779095967E+01  0.0000000000000E+00
-0.1099999998610E+00 -0.4186859601281E+01  0.0000000000000E+00
-0.1099999997219E+00 -0.4113342086429E+01  0.0000000000000E+00
-0.1099999995829E+00 -0.4039824684257E+01  0.0000000000000E+00
-0.1099999994439E+00 -0.3966307217550E+01  0.0000000000000E+00
-0.1099999993048E+00 -0.3892789747717E+01  0.0000000000000E+00
-0.1099999991658E+00 -0.3819272288129E+01  0.0000000000000E+00
-0.1099999990268E+00 -0.3745754823288E+01  0.0000000000000E+00
-0.1099999988877E+00 -0.3672237366228E+01  0.0000000000000E+00
-0.1099999987487E+00 -0.3598719903615E+01  0.0000000000000E+00
-0.1099999986096E+00 -0.3525202280347E+01  0.0000000000000E+00
-0.1099999984706E+00 -0.3451684819510E+01  0.0000000000000E+00
-0.1099999983316E+00 -0.3378167379303E+01  0.0000000000000E+00
-0.1099999981925E+00 -0.3304649961005E+01  0.0000000000000E+00
-0.1099999980535E+00 -0.3231132803085E+01  0.0000000000000E+00
-0.1099999979145E+00 -0.3157615389387E+01  0.0000000000000E+00
-0.1100003345248E+00 -0.3084098002567E+01  0.0000000000000E+00
-0.1100163421535E+00 -0.3010580866809E+01  0.0000000000000E+00
-0.1100782047786E+00 -0.2937066271891E+01  0.0000000000000E+00
-0.1102023673154E+00 -0.2863559587695E+01  0.0000000000000E+00
-0.1103929607806E+00 -0.2790067100603E+01  0.0000000000000E+00
-0.1106486159463E+00 -0.2716594812946E+01  0.0000000000000E+00
-0.1109666436462E+00 -0.2643146234864E+01  0.0000000000000E+00
-0.1113448323231E+00 -0.2569726064901E+01  0.0000000000000E+00
-0.1117821701535E+00 -0.2496339061666E+01  0.0000000000000E+00
-0.1122792232981E+00 -0.2422989996067E+01  0.0000000000000E+00
-0.1128385289355E+00 -0.2349685803919E+01  0.0000000000000E+00
-0.1134650218135E+00 -0.2276436016165E+01  0.0000000000000E+00
-0.1141610143161E+00 -0.2203248992725E+01  0.0000000000000E+00
-0.1149256628386E+00 -0.2130130513310E+01  0.0000000000000E+00
-0.1157601109379E+00 -0.2057088440583E+01  0.0000000000000E+00
-0.1166677396045E+00 -0.1984133466365E+01  0.0000000000000E+00
-0.1176543830895E+00 -0.1911281600769E+01  0.0000000000000E+00
-0.1187286767029E+00 -0.1838554023785E+01  0.0000000000000E+00
-0.1199018990696E+00 -0.1765979519673E+01  0.0000000000000E+00
-0.1211849605746E+00 -0.1693591126068E+01  0.0000000000000E+00
-0.1225739037674E+00 -0.1621398208057E+01  0.0000000000000E+00
-0.1240134744387E+00 -0.1549304059580E+01  0.0000000000000E+00
-0.1254460217400E+00 -0.1477195909043E+01  0.0000000000000E+00
-0.1268516252158E+00 -0.1405034780454E+01  0.0000000000000E+00
-0.1282077066422E+00 -0.1332779095967E+01  0.0000000000000E+00
-0.8249999986096E-01 -0.4186859601281E+01  0.0000000000000E+00
-0.8249999972193E-01 -0.4113342086429E+01  0.0000000000000E+00
-0.8249999958289E-01 -0.4039824684257E+01  0.0000000000000E+00
-0.8249999944386E-01 -0.3966307217550E+01  0.0000000000000E+00
-0.8249999930482E-01 -0.3892789747717E+01  0.0000000000000E+00
-0.8249999916579E-01 -0.3819272288129E+01  0.0000000000000E+00
-0.8249999902675E-01 -0.3745754823288E+01  0.0000000000000E+00
-0.8249999888772E-01 -0.3672237366228E+01  0.0000000000000E+00
-0.8249999874868E-01 -0.3598719903615E+01  0.0000000000000E+00
-0.8249999860965E-01 -0.3525202280347E+01  0.0000000000000E+00
-0.8249999847061E-01 -0.3451684819510E+01  0.0000000000000E+00
-0.8249999833158E-01 -0.3378167379303E+01  0.0000000000000E+00
-0.8249999819254E-01 -0.3304649961005E+01  0.0000000000000E+00
-0.8249999805351E-01 -0.3231132803085E+01  0.0000000000000E+00
-0.8249999791447E-01 -0.3157615389387E+01  0.0000000000000E+00
-0.8250025033743E-01 -0.3084098002567E+01  0.0000000000000E+00
-0.8251225602412E-01 -0.3010580866809E+01  0.0000000000000E+00
-0.8255865295774E-01 -0.2937066271891E+01  0.0000000000000E+00
-0.8265177482469E-01 -0.2863559587695E+01  0.0000000000000E+00
-0.8279471988758E-01 -0.2790067100603E+01  0.0000000000000E+00
-0.8298646122536E-01 -0.2716594812946E+01  0.0000000000000E+00
-0.8322498196343E-01 -0.2643146234864E+01  0.0000000000000E+00
-0.8350862343391E-01 -0.2569726064901E+01  0.0000000000000E+00
-0.8383662676914E-01 -0.2496339061666E+01  0.0000000000000E+00
-0.8420941658965E-01 -0.2422989996067E+01  0.0000000000000E+00
-0.8462889577935E-01 -0.2349685803919E+01  0.0000000000000E+00
-0.8509876539922E-01 -0.2276436016165E+01  0.0000000000000E+00
-0.8562075973709E-01 -0.2203248992725E+01  0.0000000000000E+00
-0.8619424608948E-01 -0.2130130513310E+01  0.0000000000000E+00
-0.8682008212406E-01 -0.2057088440583E+01  0.0000000000000E+00
-0.8750080358367E-01 -0.1984133466365E+01  0.0000000000000E+00
-0.8824078615667E-01 -0.1911281600769E+01  0.0000000000000E+00
-0.8904650632544E-01 -0.1838554023785E+01  0.0000000000000E+00
-0.8992642305859E-01 -0.1765979519673E+01  0.0000000000000E+00
-0.9088871914477E-01 -0.1693591126068E+01  0.0000000000000E+00
-0.9193042649611E-01 -0.1621398208057E+01  0.0000000000000E+00
-0.9301010445562E-01 -0.1549304059580E+01  0.0000000000000E+00
-0.9408451488737E-01 -0.1477195909043E+01  0.0000000000000E+00
-0.9513871744955E-01 -0.1405034780453E+01  0.0000000000000E+00
-0.9615577847440E-01 -0.1332779095967E+01  0.0000000000000E+00
-0.5499999986096E-01 -0.4186859601281E+01  0.0000000000000E+00
-0.5499999972193E-01 -0.4113342086429E+01  0.0000000000000E+00
-0.5499999958289E-01 -0.4039824684257E+01  0.0000000000000E+00
-0.5499999944386E-01 -0.3966307217550E+01  0.0000000000000E+00
-0.5499999930482E-01 -0.3892789747717E+01  0.0000000000000E+00
-0.5499999916579E-01 -0.3819272288129E+01  0.0000000000000E+00
-0.5499999902675E-01 -0.3745754823288E+01  0.0000000000000E+00
-0.5499999888772E-01 -0.3672237366228E+01  0.0000000000000E+00
-0.5499999874868E-01 -0.3598719903615E+01  0.0000000000000E+00
-0.5499999860965E-01 -0.3525202280347E+01  0.0000000000000E+00
-0.5499999847061E-01 -0.3451684819509E+01  0.0000000000000E+00
-0.5499999833158E-01 -0.3378167379303E+01  0.0000000000000E+00
-0.5499999819254E-01 -0.3304649961005E+01  0.0000000000000E+00
-0.5499999805351E-01 -0.3231132803085E+01  0.0000000000000E+00
-0.5499999791447E-01 -0.3157615389387E+01  0.0000000000000E+00
-0.5500016615009E-01 -0.3084098002567E+01  0.0000000000000E+00
-0.5500816989472E-01 -0.3010580866809E+01  0.0000000000000E+00
-0.5503910113688E-01 -0.2937066271891E+01  0.0000000000000E+00
-0.5510118233403E-01 -0.2863559587695E+01  0.0000000000000E+00
-0.5519647899455E-01 -0.2790067100603E+01  0.0000000000000E+00
-0.5532430650444E-01 -0.2716594812945E+01  0.0000000000000E+00
-0.5548332028068E-01 -0.2643146234864E+01  0.0000000000000E+00
-0.5567241454470E-01 -0.2569726064901E+01  0.0000000000000E+00
-0.5589108338473E-01 -0.2496339061666E+01  0.0000000000000E+00
-0.5613960988116E-01 -0.2422989996067E+01  0.0000000000000E+00
-0.5641926262324E-01 -0.2349685803919E+01  0.0000000000000E+00
-0.5673250898492E-01 -0.2276436016165E+01  0.0000000000000E+00
-0.5708050515806E-01 -0.2203248992725E+01  0.0000000000000E+00
-0.5746282934035E-01 -0.2130130513310E+01  0.0000000000000E+00
-0.5788005331022E-01 -0.2057088440583E+01  0.0000000000000E+00
-0.5833386756287E-01 -0.1984133466365E+01  0.0000000000000E+00
-0.5882718922384E-01 -0.1911281600769E+01  0.0000000000000E+00
-0.5936433594797E-01 -0.1838554023785E+01  0.0000000000000E+00
-0.5995094704755E-01 -0.1765979519673E+01  0.0000000000000E+00
-0.6059247771492E-01 -0.1693591126068E+01  0.0000000000000E+00
-0.6128694922477E-01 -0.1621398208057E+01  0.0000000000000E+00
-0.6200673447256E-01 -0.1549304059580E+01  0.0000000000000E+00
-0.6272300803474E-01 -0.1477195909043E+01  0.0000000000000E+00
-0.6342580968331E-01 -0.1405034780453E+01  0.0000000000000E+00
-0.6410385030664E-01 -0.1332779095967E+01  0.0000000000000E+00
-0.2749999986096E-01 -0.4186859601281E+01  0.0000000000000E+00
-0.2749999972193E-01 -0.4113342086429E+01  0.0000000000000E+00
-0.2749999958289E-01 -0.4039824684257E+01  0.0000000000000E+00
-0.2749999944386E-01 -0.3966307217550E+01  0.0000000000000E+00
-0.2749999930482E-01 -0.3892789747717E+01  0.0000000000000E+00
-0.2749999916579E-01 -0.3819272288128E+01  0.0000000000000E+00
-0.2749999902675E-01 -0.3745754823288E+01  0.0000000000000E+00
-0.2749999888772E-01 -0.3672237366228E+01  0.0000000000000E+00
-0.2749999874868E-01 -0.3598719903615E+01  0.0000000000000E+00
-0.2749999860965E-01 -0.3525202280347E+01  0.0000000000000E+00
-0.2749999847061E-01 -0.3451684819509E+01  0.0000000000000E+00
-0.2749999833158E-01 -0.3378167379303E+01  0.0000000000000E+00
-0.2749999819254E-01 -0.3304649961005E+01  0.0000000000000E+00
-0.2749999805351E-01 -0.3231132803085E+01  0.0000000000000E+00
-0.2749999791447E-01 -0.3157615389387E+01  0.0000000000000E+00
-0.2750008196276E-01 -0.3084098002567E+01  0.0000000000000E+00
-0.2750408376533E-01 -0.3010580866809E+01  0.0000000000000E+00
-0.2751954931602E-01 -0.2937066271891E+01  0.0000000000000E+00
-0.2755058984337E-01 -0.2863559587695E+01  0.0000000000000E+00
-0.2759823810152E-01 -0.2790067100603E+01  0.0000000000000E+00
-0.2766215178353E-01 -0.2716594812945E+01  0.0000000000000E+00
-0.2774165859793E-01 -0.2643146234864E+01  0.0000000000000E+00
-0.2783620565548E-01 -0.2569726064901E+01  0.0000000000000E+00
-0.2794554000033E-01 -0.2496339061666E+01  0.0000000000000E+00
-0.2806980317267E-01 -0.2422989996067E+01  0.0000000000000E+00
-0.2820962946712E-01 -0.2349685803919E+01  0.0000000000000E+00
-0.2836625257062E-01 -0.2276436016165E+01  0.0000000000000E+00
-0.2854025057903E-01 -0.2203248992725E+01  0.0000000000000E+00
-0.2873141259122E-01 -0.2130130513310E+01  0.0000000000000E+00
-0.2894002449638E-01 -0.2057088440583E+01  0.0000000000000E+00
-0.2916693154208E-01 -0.1984133466365E+01  0.0000000000000E+00
-0.2941359229101E-01 -0.1911281600769E+01  0.0000000000000E+00
-0.2968216557049E-01 -0.1838554023784E+01  0.0000000000000E+00
-0.2997547103652E-01 -0.1765979519673E+01  0.0000000000000E+00
-0.3029623628508E-01 -0.1693591126068E+01  0.0000000000000E+00
-0.3064347195342E-01 -0.1621398208057E+01  0.0000000000000E+00
-0.3100336448950E-01 -0.1549304059580E+01  0.0000000000000E+00
-0.3136150118210E-01 -0.1477195909043E+01  0.0000000000000E+00
-0.3171290191707E-01 -0.1405034780453E+01  0.0000000000000E+00
-0.3205192213889E-01 -0.1332779095967E+01  0.0000000000000E+00
 0.1390354743131E-09 -0.4186859601281E+01  0.0000000000000E+00
 0.2780705505956E-09 -0.4113342086429E+01  0.0000000000000E+00
 0.4171060575715E-09 -0.4039824684257E+01  0.0000000000000E+00
 0.5561412602524E-09 -0.3966307217550E+01  0.0000000000000E+00
 0.6951766705972E-09 -0.3892789747717E+01  0.0000000000000E+00
 0.8342121431180E-09 -0.3819272288128E+01  0.0000000000000E+00
 0.9732474182843E-09 -0.3745754823288E+01  0.0000000000000E+00
 0.1112282802333E-08 -0.3672237366228E+01  0.0000000000000E+00
 0.1251318294960E-08 -0.3598719903615E+01  0.0000000000000E+00
 0.1390353813009E-08 -0.3525202280347E+01  0.0000000000000E+00
 0.1529389163202E-08 -0.3451684819509E+01  0.0000000000000E+00
 0.1668424554188E-08 -0.3378167379303E+01  0.0000000000000E+00
 0.1807459650274E-08 -0.3304649961005E+01  0.0000000000000E+00
 0.1946494376859E-08 -0.3231132803085E+01  0.0000000000000E+00
 0.2085529741028E-08 -0.3157615389387E+01  0.0000000000000E+00
 0.2224574625698E-08 -0.3084098002567E+01  0.0000000000000E+00
 0.2364064634836E-08 -0.3010580866809E+01  0.0000000000000E+00
 0.2504833556286E-08 -0.2937066271891E+01  0.0000000000000E+00
 0.2647292734782E-08 -0.2863559587695E+01  0.0000000000000E+00
 0.2791501958223E-08 -0.2790067100603E+01  0.0000000000000E+00
 0.2937379100042E-08 -0.2716594812945E+01  0.0000000000000E+00
 0.3084818653443E-08 -0.2643146234864E+01  0.0000000000000E+00
 0.3233734531287E-08 -0.2569726064901E+01  0.0000000000000E+00
 0.3384071636922E-08 -0.2496339061666E+01  0.0000000000000E+00
 0.3535814743461E-08 -0.2422989996067E+01  0.0000000000000E+00
 0.3688988805617E-08 -0.2349685803919E+01  0.0000000000000E+00
 0.3843683676532E-08 -0.2276436016165E+01  0.0000000000000E+00
 0.3999997810813E-08 -0.2203248992725E+01  0.0000000000000E+00
 0.4157914882495E-08 -0.2130130513310E+01  0.0000000000000E+00
 0.4317456570341E-08 -0.2057088440583E+01  0.0000000000000E+00
 0.4478710343982E-08 -0.1984133466365E+01  0.0000000000000E+00
 0.4641815539791E-08 -0.1911281600769E+01  0.0000000000000E+00
 0.4806982281144E-08 -0.1838554023784E+01  0.0000000000000E+00
 0.4974521798449E-08 -0.1765979519673E+01  0.0000000000000E+00
 0.5144772820396E-08 -0.1693591126068E+01  0.0000000000000E+00
 0.5317917718960E-08 -0.1621398208057E+01  0.0000000000000E+00
 0.5493560806702E-08 -0.1549304059580E+01  0.0000000000000E+00
 0.5670536855295E-08 -0.1477195909043E+01  0.0000000000000E+00
 0.5849166081565E-08 -0.1405034780453E+01  0.0000000000000E+00
 0.6028873484876E-08 -0.1332779095967E+01  0.0000000000000E+00
 0.2750000013904E-01 -0.4186859601281E+01  0.0000000000000E+00
 0.2750000027807E-01 -0.4113342086429E+01  0.0000000000000E+00
 0.2750000041711E-01 -0.4039824684257E+01  0.0000000000000E+00
 0.2750000055614E-01 -0.3966307217550E+01  0.0000000000000E+00
 0.2750000069518E-01 -0.3892789747717E+01  0.0000000000000E+00
 0.2750000083421E-01 -0.3819272288128E+01  0.0000000000000E+00
 0.2750000097325E-01 -0.3745754823288E+01  0.0000000000000E+00
 0.2750000111228E-01 -0.3672237366228E+01  0.0000000000000E+00
 0.2750000125132E-01 -0.3598719903615E+01  0.0000000000000E+00
 0.2750000139035E-01 -0.3525202280347E+01  0.0000000000000E+00
 0.2750000152939E-01 -0.3451684819509E+01  0.0000000000000E+00
 0.2750000166842E-01 -0.3378167379303E+01  0.0000000000000E+00
 0.2750000180746E-01 -0.3304649961005E+01  0.0000000000000E+00
 0.2750000194649E-01 -0.3231132803085E+01  0.0000000000000E+00
 0.2750000208553E-01 -0.3157615389387E+01  0.0000000000000E+00
 0.2750008641191E-01 -0.3084098002567E+01  0.0000000000000E+00
 0.2750408849346E-01 -0.3010580866809E+01  0.0000000000000E+00
 0.2751955432569E-01 -0.2937066271891E+01  0.0000000000000E+00
 0.2755059513795E-01 -0.2863559587695E+01  0.0000000000000E+00
 0.2759824368453E-01 -0.2790067100603E+01  0.0000000000000E+00
 0.2766215765829E-01 -0.2716594812945E+01  0.0000000000000E+00
 0.2774166476757E-01 -0.2643146234864E+01  0.0000000000000E+00
 0.2783621212295E-01 -0.2569726064901E+01  0.0000000000000E+00
 0.2794554676847E-01 -0.2496339061666E+01  0.0000000000000E+00
 0.2806981024430E-01 -0.2422989996067E+01  0.0000000000000E+00
 0.2820963684510E-01 -0.2349685803919E+01  0.0000000000000E+00
 0.2836626025798E-01 -0.2276436016165E+01  0.0000000000000E+00
 0.2854025857903E-01 -0.2203248992725E+01  0.0000000000000E+00
 0.2873142090705E-01 -0.2130130513310E+01  0.0000000000000E+00
 0.2894003313129E-01 -0.2057088440583E+01  0.0000000000000E+00
 0.2916694049950E-01 -0.1984133466365E+01  0.0000000000000E+00
 0.2941360157464E-01 -0.1911281600769E+01  0.0000000000000E+00
 0.2968217518446E-01 -0.1838554023784E+01  0.0000000000000E+00
 0.2997548098556E-01 -0.1765979519673E+01  0.0000000000000E+00
 0.3029624657462E-01 -0.1693591126068E+01  0.0000000000000E+00
 0.3064348258926E-01 -0.1621398208057E+01  0.0000000000000E+00
 0.3100337547662E-01 -0.1549304059580E+01  0.0000000000000E+00
 0.3136151252317E-01 -0.1477195909043E+01  0.0000000000000E+00
 0.3171291361540E-01 -0.1405034780453E+01  0.0000000000000E+00
 0.3205193419663E-01 -0.1332779095967E+01  0.0000000000000E+00
 0.5500000013904E-01 -0.4186859601281E+01  0.0000000000000E+00
 0.5500000027807E-01 -0.4113342086429E+01  0.0000000000000E+00
 0.5500000041711E-01 -0.4039824684257E+01  0.0000000000000E+00
 0.5500000055614E-01 -0.3966307217550E+01  0.0000000000000E+00
 0.5500000069518E-01 -0.3892789747717E+01  0.0000000000000E+00
 0.5500000083421E-01 -0.3819272288128E+01  0.0000000000000E+00
 0.5500000097325E-01 -0.3745754823288E+01  0.0000000000000E+00
 0.5500000111228E-01 -0.3672237366228E+01  0.0000000000000E+00
 0.5500000125132E-01 -0.3598719903615E+01  0.0000000000000E+00
 0.5500000139035E-01 -0.3525202280347E+01  0.0000000000000E+00
 0.5500000152939E-01 -0.3451684819509E+01  0.0000000000000E+00
 0.5500000166842E-01 -0.3378167379303E+01  0.0000000000000E+00
 0.5500000180746E-01 -0.3304649961005E+01  0.0000000000000E+00
 0.5500000194649E-01 -0.3231132803085E+01  0.0000000000000E+00
 0.5500000208553E-01 -0.3157615389387E+01  0.0000000000000E+00
 0.5500017059924E-01 -0.3084098002567E+01  0.0000000000000E+00
 0.5500817462285E-01 -0.3010580866809E+01  0.0000000000000E+00
 0.5503910614655E-01 -0.2937066271891E+01  0.0000000000000E+00
 0.5510118762862E-01 -0.2863559587695E+01  0.0000000000000E+00
 0.5519648457755E-01 -0.2790067100603E+01  0.0000000000000E+00
 0.5532431237920E-01 -0.2716594812945E+01  0.0000000000000E+00
 0.5548332645032E-01 -0.2643146234864E+01  0.0000000000000E+00
 0.5567242101217E-01 -0.2569726064901E+01  0.0000000000000E+00
 0.5589109015288E-01 -0.2496339061666E+01  0.0000000000000E+00
 0.5613961695279E-01 -0.2422989996067E+01  0.0000000000000E+00
 0.5641927000122E-01 -0.2349685803919E+01  0.0000000000000E+00
 0.5673251667228E-01 -0.2276436016165E+01  0.0000000000000E+00
 0.5708051315806E-01 -0.2203248992725E+01  0.0000000000000E+00
 0.5746283765618E-01 -0.2130130513310E+01  0.0000000000000E+00
 0.5788006194513E-01 -0.2057088440583E+01  0.0000000000000E+00
 0.5833387652029E-01 -0.1984133466365E+01  0.0000000000000E+00
 0.5882719850747E-01 -0.1911281600769E+01  0.0000000000000E+00
 0.5936434556193E-01 -0.1838554023784E+01  0.0000000000000E+00
 0.5995095699660E-01 -0.1765979519672E+01  0.0000000000000E+00
 0.6059248800447E-01 -0.1693591126068E+01  0.0000000000000E+00
 0.6128695986060E-01 -0.1621398208056E+01  0.0000000000000E+00
 0.6200674545968E-01 -0.1549304059580E+01  0.0000000000000E+00
 0.6272301937581E-01 -0.1477195909043E+01  0.0000000000000E+00
 0.6342582138164E-01 -0.1405034780453E+01  0.0000000000000E+00
 0.6410386236439E-01 -0.1332779095967E+01  0.0000000000000E+00
 0.8250000013904E-01 -0.4186859601281E+01  0.0000000000000E+00
 0.8250000027807E-01 -0.4113342086429E+01  0.0000000000000E+00
 0.8250000041711E-01 -0.4039824684257E+01  0.0000000000000E+00
 0.8250000055614E-01 -0.3966307217550E+01  0.0000000000000E+00
 0.8250000069518E-01 -0.3892789747717E+01  0.0000000000000E+00
 0.8250000083421E-01 -0.3819272288128E+01  0.0000000000000E+00
 0.8250000097325E-01 -0.3745754823288E+01  0.0000000000000E+00
 0.8250000111228E-01 -0.3672237366228E+01  0.0000000000000E+00
 0.8250000125132E-01 -0.3598719903615E+01  0.0000000000000E+00
 0.8250000139035E-01 -0.3525202280347E+01  0.0000000000000E+00
 0.8250000152939E-01 -0.3451684819509E+01  0.0000000000000E+00
 0.8250000166842E-01 -0.3378167379303E+01  0.0000000000000E+00
 0.8250000180746E-01 -0.3304649961005E+01  0.0000000000000E+00
 0.8250000194649E-01 -0.3231132803085E+01  0.0000000000000E+00
 0.8250000208553E-01 -0.3157615389387E+01  0.0000000000000E+00
 0.8250025478658E-01 -0.3084098002567E+01  0.0000000000000E+00
 0.8251226075225E-01 -0.3010580866809E+01  0.0000000000000E+00
 0.8255865796740E-01 -0.2937066271891E+01  0.0000000000000E+00
 0.8265178011928E-01 -0.2863559587695E+01  0.0000000000000E+00
 0.8279472547058E-01 -0.2790067100603E+01  0.0000000000000E+00
 0.8298646710011E-01 -0.2716594812945E+01  0.0000000000000E+00
 0.8322498813306E-01 -0.2643146234864E+01  0.0000000000000E+00
 0.8350862990138E-01 -0.2569726064901E+01  0.0000000000000E+00
 0.8383663353728E-01 -0.2496339061666E+01  0.0000000000000E+00
 0.8420942366128E-01 -0.2422989996067E+01  0.0000000000000E+00
 0.8462890315733E-01 -0.2349685803919E+01  0.0000000000000E+00
 0.8509877308658E-01 -0.2276436016165E+01  0.0000000000000E+00
 0.8562076773709E-01 -0.2203248992725E+01  0.0000000000000E+00
 0.8619425440531E-01 -0.2130130513310E+01  0.0000000000000E+00
 0.8682009075897E-01 -0.2057088440583E+01  0.0000000000000E+00
 0.8750081254109E-01 -0.1984133466365E+01  0.0000000000000E+00
 0.8824079544030E-01 -0.1911281600769E+01  0.0000000000000E+00
 0.8904651593941E-01 -0.1838554023784E+01  0.0000000000000E+00
 0.8992643300764E-01 -0.1765979519672E+01  0.0000000000000E+00
 0.9088872943432E-01 -0.1693591126068E+01  0.0000000000000E+00
 0.9193043713194E-01 -0.1621398208056E+01  0.0000000000000E+00
 0.9301011544274E-01 -0.1549304059579E+01  0.0000000000000E+00
 0.9408452622845E-01 -0.1477195909043E+01  0.0000000000000E+00
 0.9513872914788E-01 -0.1405034780453E+01  0.0000000000000E+00
 0.9615579053215E-01 -0.1332779095967E+01  0.0000000000000E+00
 0.1100000001390E+00 -0.4186859601281E+01  0.0000000000000E+00
 0.1100000002781E+00 -0.4113342086429E+01  0.0000000000000E+00
 0.1100000004171E+00 -0.4039824684257E+01  0.0000000000000E+00
 0.1100000005561E+00 -0.3966307217550E+01  0.0000000000000E+00
 0.1100000006952E+00 -0.3892789747717E+01  0.0000000000000E+00
 0.1100000008342E+00 -0.3819272288128E+01  0.0000000000000E+00
 0.1100000009732E+00 -0.3745754823288E+01  0.0000000000000E+00
 0.1100000011123E+00 -0.3672237366228E+01  0.0000000000000E+00
 0.1100000012513E+00 -0.3598719903615E+01  0.0000000000000E+00
 0.1100000013904E+00 -0.3525202280347E+01  0.0000000000000E+00
 0.1100000015294E+00 -0.3451684819509E+01  0.0000000000000E+00
 0.1100000016684E+00 -0.3378167379303E+01  0.0000000000000E+00
 0.1100000018075E+00 -0.3304649961005E+01  0.0000000000000E+00
 0.1100000019465E+00 -0.3231132803085E+01  0.0000000000000E+00
 0.1100000020855E+00 -0.3157615389387E+01  0.0000000000000E+00
 0.1100003389739E+00 -0.3084098002567E+01  0.0000000000000E+00
 0.1100163468816E+00 -0.3010580866809E+01  0.0000000000000E+00
 0.1100782097883E+00 -0.2937066271891E+01  0.0000000000000E+00
 0.1102023726099E+00 -0.2863559587695E+01  0.0000000000000E+00
 0.1103929663636E+00 -0.2790067100603E+01  0.0000000000000E+00
 0.1106486218210E+00 -0.2716594812945E+01  0.0000000000000E+00
 0.1109666498158E+00 -0.2643146234864E+01  0.0000000000000E+00
 0.1113448387906E+00 -0.2569726064901E+01  0.0000000000000E+00
 0.1117821769217E+00 -0.2496339061666E+01  0.0000000000000E+00
 0.1122792303698E+00 -0.2422989996067E+01  0.0000000000000E+00
 0.1128385363134E+00 -0.2349685803919E+01  0.0000000000000E+00
 0.1134650295009E+00 -0.2276436016165E+01  0.0000000000000E+00
 0.1141610223161E+00 -0.2203248992725E+01  0.0000000000000E+00
 0.1149256711544E+00 -0.2130130513310E+01  0.0000000000000E+00
 0.1157601195728E+00 -0.2057088440583E+01  0.0000000000000E+00
 0.1166677485619E+00 -0.1984133466365E+01  0.0000000000000E+00
 0.1176543923731E+00 -0.1911281600769E+01  0.0000000000000E+00
 0.1187286863169E+00 -0.1838554023784E+01  0.0000000000000E+00
 0.1199019090187E+00 -0.1765979519672E+01  0.0000000000000E+00
 0.1211849708642E+00 -0.1693591126068E+01  0.0000000000000E+00
 0.1225739144033E+00 -0.1621398208056E+01  0.0000000000000E+00
 0.1240134854258E+00 -0.1549304059579E+01  0.0000000000000E+00
 0.1254460330811E+00 -0.1477195909043E+01  0.0000000000000E+00
 0.1268516369141E+00 -0.1405034780453E+01  0.0000000000000E+00
 0.1282077186999E+00 -0.1332779095967E+01  0.0000000000000E+00
 0.1375000001390E+00 -0.4186859601281E+01  0.0000000000000E+00
 0.1375000002781E+00 -0.4113342086429E+01  0.0000000000000E+00
 0.1375000004171E+00 -0.4039824684257E+01  0.0000000000000E+00
 0.1375000005561E+00 -0.3966307217550E+01  0.0000000000000E+00
 0.1375000006952E+00 -0.3892789747717E+01  0.0000000000000E+00
 0.1375000008342E+00 -0.3819272288128E+01  0.0000000000000E+00
 0.1375000009732E+00 -0.3745754823288E+01  0.0000000000000E+00
 0.1375000011123E+00 -0.3672237366228E+01  0.0000000000000E+00
 0.1375000012513E+00 -0.3598719903615E+01  0.0000000000000E+00
 0.1375000013904E+00 -0.3525202280347E+01  0.0000000000000E+00
 0.1375000015294E+00 -0.3451684819509E+01  0.0000000000000E+00
 0.1375000016684E+00 -0.3378167379303E+01  0.0000000000000E+00
 0.1375000018075E+00 -0.3304649961005E+01  0.0000000000000E+00
 0.1375000019465E+00 -0.3231132803085E+01  0.0000000000000E+00
 0.1375000020855E+00 -0.3157615389387E+01  0.0000000000000E+00
 0.1375004231612E+00 -0.3084098002567E+01  0.0000000000000E+00
 0.1375204330110E+00 -0.3010580866809E+01  0.0000000000000E+00
 0.1375977616091E+00 -0.2937066271891E+01  0.0000000000000E+00
 0.1377529651006E+00 -0.2863559587695E+01  0.0000000000000E+00
 0.1379912072566E+00 -0.2790067100603E+01  0.0000000000000E+00
 0.1383107765419E+00 -0.2716594812945E+01  0.0000000000000E+00
 0.1387083114986E+00 -0.2643146234864E+01  0.0000000000000E+00
 0.1391810476798E+00 -0.2569726064901E+01  0.0000000000000E+00
 0.1397277203061E+00 -0.2496339061666E+01  0.0000000000000E+00
 0.1403490370782E+00 -0.2422989996067E+01  0.0000000000000E+00
 0.1410481694696E+00 -0.2349685803919E+01  0.0000000000000E+00
 0.1418312859152E+00 -0.2276436016165E+01  0.0000000000000E+00
 0.1427012768951E+00 -0.2203248992725E+01  0.0000000000000E+00
 0.1436570879036E+00 -0.2130130513310E+01  0.0000000000000E+00
 0.1447001483866E+00 -0.2057088440583E+01  0.0000000000000E+00
 0.1458346845827E+00 -0.1984133466365E+01  0.0000000000000E+00
 0.1470679893060E+00 -0.1911281600769E+01  0.0000000000000E+00
 0.1484108566944E+00 -0.1838554023784E+01  0.0000000000000E+00
 0.1498773850297E+00 -0.1765979519672E+01  0.0000000000000E+00
 0.1514812122940E+00 -0.1693591126068E+01  0.0000000000000E+00
 0.1532173916746E+00 -0.1621398208056E+01  0.0000000000000E+00
 0.1550168554089E+00 -0.1549304059579E+01  0.0000000000000E+00
 0.1568075399337E+00 -0.1477195909043E+01  0.0000000000000E+00
 0.1585645446804E+00 -0.1405034780453E+01  0.0000000000000E+00
 0.1602596468677E+00 -0.1332779095967E+01  0.0000000000000E+00
 0.1650000001390E+00 -0.4186859601281E+01  0.0000000000000E+00
 0.1650000002781E+00 -0.4113342086429E+01  0.0000000000000E+00
 0.1650000004171E+00 -0.4039824684257E+01  0.0000000000000E+00
 0.1650000005561E+00 -0.3966307217550E+01  0.0000000000000E+00
 0.1650000006952E+00 -0.3892789747717E+01  0.0000000000000E+00
 0.1650000008342E+00 -0.3819272288128E+01  0.0000000000000E+00
 0.1650000009732E+00 -0.3745754823288E+01  0.0000000000000E+00
 0.1650000011123E+00 -0.3672237366228E+01  0.0000000000000E+00
 0.1650000012513E+00 -0.3598719903615E+01  0.0000000000000E+00
 0.1650000013904E+00 -0.3525202280347E+01  0.0000000000000E+00
 0.1650000015294E+00 -0.3451684819509E+01  0.0000000000000E+00
 0.1650000016684E+00 -0.3378167379303E+01  0.0000000000000E+00
 0.1650000018075E+00 -0.3304649961005E+01  0.0000000000000E+00
 0.1650000019465E+00 -0.3231132803084E+01  0.0000000000000E+00
 0.1650000020855E+00 -0.3157615389387E+01  0.0000000000000E+00
 0.1650005073486E+00 -0.3084098002567E+01  0.0000000000000E+00
 0.1650245191404E+00 -0.3010580866809E+01  0.0000000000000E+00
 0.1651173134300E+00 -0.2937066271891E+01  0.0000000000000E+00
 0.1653035575913E+00 -0.2863559587695E+01  0.0000000000000E+00
 0.1655894481497E+00 -0.2790067100603E+01  0.0000000000000E+00
 0.1659729312628E+00 -0.2716594812945E+01  0.0000000000000E+00
 0.1664499731813E+00 -0.2643146234864E+01  0.0000000000000E+00
 0.1670172565690E+00 -0.2569726064901E+01  0.0000000000000E+00
 0.1676732636905E+00 -0.2496339061666E+01  0.0000000000000E+00
 0.1684188437867E+00 -0.2422989996067E+01  0.0000000000000E+00
 0.1692578026257E+00 -0.2349685803919E+01  0.0000000000000E+00
 0.1701975423295E+00 -0.2276436016165E+01  0.0000000000000E+00
 0.1712415314742E+00 -0.2203248992725E+01  0.0000000000000E+00
 0.1723885046527E+00 -0.2130130513310E+01  0.0000000000000E+00
 0.1736401772005E+00 -0.2057088440583E+01  0.0000000000000E+00
 0.1750016206035E+00 -0.1984133466365E+01  0.0000000000000E+00
 0.1764815862388E+00 -0.1911281600769E+01  0.0000000000000E+00
 0.1780930270718E+00 -0.1838554023784E+01  0.0000000000000E+00
 0.1798528610408E+00 -0.1765979519672E+01  0.0000000000000E+00
 0.1817774537239E+00 -0.1693591126068E+01  0.0000000000000E+00
 0.1838608689460E+00 -0.1621398208056E+01  0.0000000000000E+00
 0.1860202253919E+00 -0.1549304059579E+01  0.0000000000000E+00
 0.1881690467864E+00 -0.1477195909043E+01  0.0000000000000E+00
 0.1902774524466E+00 -0.1405034780453E+01  0.0000000000000E+00
 0.1923115750354E+00 -0.1332779095967E+01  0.0000000000000E+00
 0.1925000001390E+00 -0.4186859601281E+01  0.0000000000000E+00
 0.1925000002781E+00 -0.4113342086429E+01  0.0000000000000E+00
 0.1925000004171E+00 -0.4039824684257E+01  0.0000000000000E+00
 0.1925000005561E+00 -0.3966307217550E+01  0.0000000000000E+00
 0.1925000006952E+00 -0.3892789747717E+01  0.0000000000000E+00
 0.1925000008342E+00 -0.3819272288128E+01  0.0000000000000E+00
 0.1925000009732E+00 -0.3745754823288E+01  0.0000000000000E+00
 0.1925000011123E+00 -0.3672237366228E+01  0.0000000000000E+00
 0.1925000012513E+00 -0.3598719903615E+01  0.0000000000000E+00
 0.1925000013904E+00 -0.3525202280347E+01  0.0000000000000E+00
 0.1925000015294E+00 -0.3451684819509E+01  0.0000000000000E+00
 0.1925000016684E+00 -0.3378167379303E+01  0.0000000000000E+00
 0.1925000018075E+00 -0.3304649961005E+01  0.0000000000000E+00
 0.1925000019465E+00 -0.3231132803084E+01  0.0000000000000E+00
 0.1925000020855E+00 -0.3157615389387E+01  0.0000000000000E+00
 0.1925005915359E+00 -0.3084098002567E+01  0.0000000000000E+00
 0.1925286052698E+00 -0.3010580866809E+01  0.0000000000000E+00
 0.1926368652508E+00 -0.2937066271891E+01  0.0000000000000E+00
 0.1928541500819E+00 -0.2863559587695E+01  0.0000000000000E+00
 0.1931876890427E+00 -0.2790067100603E+01  0.0000000000000E+00
 0.1936350859838E+00 -0.2716594812945E+01  0.0000000000000E+00
 0.1941916348641E+00 -0.2643146234864E+01  0.0000000000000E+00
 0.1948534654582E+00 -0.2569726064901E+01  0.0000000000000E+00
 0.1956188070749E+00 -0.2496339061666E+01  0.0000000000000E+00
 0.1964886504952E+00 -0.2422989996067E+01  0.0000000000000E+00
 0.1974674357818E+00 -0.2349685803919E+01  0.0000000000000E+00
 0.1985637987438E+00 -0.2276436016165E+01  0.0000000000000E+00
 0.1997817860532E+00 -0.2203248992725E+01  0.0000000000000E+00
 0.2011199214018E+00 -0.2130130513310E+01  0.0000000000000E+00
 0.2025802060143E+00 -0.2057088440583E+01  0.0000000000000E+00
 0.2041685566243E+00 -0.1984133466365E+01  0.0000000000000E+00
 0.2058951831716E+00 -0.1911281600769E+01  0.0000000000000E+00
 0.2077751974493E+00 -0.1838554023784E+01  0.0000000000000E+00
 0.2098283370518E+00 -0.1765979519672E+01  0.0000000000000E+00
 0.2120736951537E+00 -0.1693591126068E+01  0.0000000000000E+00
 0.2145043462173E+00 -0.1621398208056E+01  0.0000000000000E+00
 0.2170235953750E+00 -0.1549304059579E+01  0.0000000000000E+00
 0.2195305536390E+00 -0.1477195909043E+01  0.0000000000000E+00
 0.2219903602128E+00 -0.1405034780453E+01  0.0000000000000E+00
 0.2243635032032E+00 -0.1332779095967E+01  0.0000000000000E+00
 0.2200000001390E+00 -0.4186859601281E+01  0.0000000000000E+00
 0.2200000002781E+00 -0.4113342086429E+01  0.0000000000000E+00
 0.2200000004171E+00 -0.4039824684257E+01  0.0000000000000E+00
 0.2200000005561E+00 -0.3966307217550E+01  0.0000000000000E+00
 0.2200000006952E+00 -0.3892789747717E+01  0.0000000000000E+00
 0.2200000008342E+00 -0.3819272288128E+01  0.0000000000000E+00
 0.2200000009732E+00 -0.3745754823288E+01  0.0000000000000E+00
 0.2200000011123E+00 -0.3672237366228E+01  0.0000000000000E+00
 0.2200000012513E+00 -0.3598719903615E+01  0.0000000000000E+00
 0.2200000013904E+00 -0.3525202280347E+01  0.0000000000000E+00
 0.2200000015294E+00 -0.3451684819509E+01  0.0000000000000E+00
 0.2200000016684E+00 -0.3378167379303E+01  0.0000000000000E+00
 0.2200000018075E+00 -0.3304649961005E+01  0.0000000000000E+00
 0.2200000019465E+00 -0.3231132803084E+01  0.0000000000000E+00
 0.2200000020855E+00 -0.3157615389387E+01  0.0000000000000E+00
 0.2200006757232E+00 -0.3084098002567E+01  0.0000000000000E+00
 0.2200326913992E+00 -0.3010580866809E+01  0.0000000000000E+00
 0.2201564170717E+00 -0.2937066271891E+01  0.0000000000000E+00
 0.2204047425726E+00 -0.2863559587695E+01  0.0000000000000E+00
 0.2207859299357E+00 -0.2790067100603E+01  0.0000000000000E+00
 0.2212972407047E+00 -0.2716594812945E+01  0.0000000000000E+00
 0.2219332965468E+00 -0.2643146234864E+01  0.0000000000000E+00
 0.2226896743475E+00 -0.2569726064901E+01  0.0000000000000E+00
 0.2235643504593E+00 -0.2496339061666E+01  0.0000000000000E+00
 0.2245584572037E+00 -0.2422989996067E+01  0.0000000000000E+00
 0.2256770689379E+00 -0.2349685803918E+01  0.0000000000000E+00
 0.2269300551581E+00 -0.2276436016165E+01  0.0000000000000E+00
 0.2283220406322E+00 -0.2203248992725E+01  0.0000000000000E+00
 0.2298513381510E+00 -0.2130130513310E+01  0.0000000000000E+00
 0.2315202348282E+00 -0.2057088440583E+01  0.0000000000000E+00
 0.2333354926450E+00 -0.1984133466365E+01  0.0000000000000E+00
 0.2353087801044E+00 -0.1911281600769E+01  0.0000000000000E+00
 0.2374573678268E+00 -0.1838554023784E+01  0.0000000000000E+00
 0.2398038130628E+00 -0.1765979519672E+01  0.0000000000000E+00
 0.2423699365836E+00 -0.1693591126068E+01  0.0000000000000E+00
 0.2451478234886E+00 -0.1621398208056E+01  0.0000000000000E+00
 0.2480269653580E+00 -0.1549304059579E+01  0.0000000000000E+00
 0.2508920604916E+00 -0.1477195909043E+01  0.0000000000000E+00
 0.2537032679791E+00 -0.1405034780453E+01  0.0000000000000E+00
 0.2564154313709E+00 -0.1332779095967E+01  0.0000000000000E+00
 0.2475000001390E+00 -0.4186859601281E+01  0.0000000000000E+00
 0.2475000002781E+00 -0.4113342086429E+01  0.0000000000000E+00
 0.2475000004171E+00 -0.4039824684257E+01  0.0000000000000E+00
 0.2475000005561E+00 -0.3966307217550E+01  0.0000000000000E+00
 0.2475000006952E+00 -0.3892789747717E+01  0.0000000000000E+00
 0.2475000008342E+00 -0.3819272288128E+01  0.0000000000000E+00
 0.2475000009732E+00 -0.3745754823288E+01  0.0000000000000E+00
 0.2475000011123E+00 -0.3672237366228E+01  0.0000000000000E+00
 0.2475000012513E+00 -0.3598719903615E+01  0.0000000000000E+00
 0.2475000013904E+00 -0.3525202280347E+01  0.0000000000000E+00
 0.2475000015294E+00 -0.3451684819509E+01  0.0000000000000E+00
 0.2475000016684E+00 -0.3378167379303E+01  0.0000000000000E+00
 0.2475000018075E+00 -0.3304649961005E+01  0.0000000000000E+00
 0.2475000019465E+00 -0.3231132803084E+01  0.0000000000000E+00
 0.2475000020855E+00 -0.3157615389387E+01  0.0000000000000E+00
 0.2475007599106E+00 -0.3084098002567E+01  0.0000000000000E+00
 0.2475367775286E+00 -0.3010580866809E+01  0.0000000000000E+00
 0.2476759688925E+00 -0.2937066271891E+01  0.0000000000000E+00
 0.2479553350633E+00 -0.2863559587695E+01  0.0000000000000E+00
 0.2483841708287E+00 -0.2790067100603E+01  0.0000000000000E+00
 0.2489593954256E+00 -0.2716594812945E+01  0.0000000000000E+00
 0.2496749582296E+00 -0.2643146234864E+01  0.0000000000000E+00
 0.2505258832367E+00 -0.2569726064901E+01  0.0000000000000E+00
 0.2515098938437E+00 -0.2496339061666E+01  0.0000000000000E+00
 0.2526282639122E+00 -0.2422989996067E+01  0.0000000000000E+00
 0.2538867020940E+00 -0.2349685803918E+01  0.0000000000000E+00
 0.2552963115724E+00 -0.2276436016165E+01  0.0000000000000E+00
 0.2568622952113E+00 -0.2203248992725E+01  0.0000000000000E+00
 0.2585827549001E+00 -0.2130130513310E+01  0.0000000000000E+00
 0.2604602636420E+00 -0.2057088440583E+01  0.0000000000000E+00
 0.2625024286658E+00 -0.1984133466365E+01  0.0000000000000E+00
 0.2647223770373E+00 -0.1911281600769E+01  0.0000000000000E+00
 0.2671395382043E+00 -0.1838554023784E+01  0.0000000000000E+00
 0.2697792890739E+00 -0.1765979519672E+01  0.0000000000000E+00
 0.2726661780134E+00 -0.1693591126068E+01  0.0000000000000E+00
 0.2757913007600E+00 -0.1621398208056E+01  0.0000000000000E+00
 0.2790303353411E+00 -0.1549304059579E+01  0.0000000000000E+00
 0.2822535673443E+00 -0.1477195909042E+01  0.0000000000000E+00
 0.2854161757453E+00 -0.1405034780453E+01  0.0000000000000E+00
 0.2884673595387E+00 -0.1332779095967E+01  0.0000000000000E+00
 0.2750000001390E+00 -0.4186859601281E+01  0.0000000000000E+00
 0.2750000002781E+00 -0.4113342086429E+01  0.0000000000000E+00
 0.2750000004171E+00 -0.4039824684257E+01  0.0000000000000E+00
 0.2750000005561E+00 -0.3966307217550E+01  0.0000000000000E+00
 0.2750000006952E+00 -0.3892789747717E+01  0.0000000000000E+00
 0.2750000008342E+00 -0.3819272288128E+01  0.0000000000000E+00
 0.2750000009732E+00 -0.3745754823288E+01  0.0000000000000E+00
 0.2750000011123E+00 -0.3672237366228E+01  0.0000000000000E+00
 0.2750000012513E+00 -0.3598719903615E+01  0.0000000000000E+00
 0.2750000013904E+00 -0.3525202280347E+01  0.0000000000000E+00
 0.2750000015294E+00 -0.3451684819509E+01  0.0000000000000E+00
 0.2750000016684E+00 -0.3378167379303E+01  0.0000000000000E+00
 0.2750000018075E+00 -0.3304649961005E+01  0.0000000000000E+00
 0.2750000019465E+00 -0.3231132803084E+01  0.0000000000000E+00
 0.2750000020855E+00 -0.3157615389387E+01  0.0000000000000E+00
 0.2750008440979E+00 -0.3084098002567E+01  0.0000000000000E+00
 0.2750408636580E+00 -0.3010580866809E+01  0.0000000000000E+00
 0.2751955207134E+00 -0.2937066271891E+01  0.0000000000000E+00
 0.2755059275539E+00 -0.2863559587695E+01  0.0000000000000E+00
 0.2759824117218E+00 -0.2790067100603E+01  0.0000000000000E+00
 0.2766215501465E+00 -0.2716594812945E+01  0.0000000000000E+00
 0.2774166199123E+00 -0.2643146234864E+01  0.0000000000000E+00
 0.2783620921259E+00 -0.2569726064901E+01  0.0000000000000E+00
 0.2794554372281E+00 -0.2496339061666E+01  0.0000000000000E+00
 0.2806980706207E+00 -0.2422989996067E+01  0.0000000000000E+00
 0.2820963352501E+00 -0.2349685803918E+01  0.0000000000000E+00
 0.2836625679867E+00 -0.2276436016165E+01  0.0000000000000E+00
 0.2854025497903E+00 -0.2203248992725E+01  0.0000000000000E+00
 0.2873141716492E+00 -0.2130130513309E+01  0.0000000000000E+00
 0.2894002924558E+00 -0.2057088440583E+01  0.0000000000000E+00
 0.2916693646866E+00 -0.1984133466365E+01  0.0000000000000E+00
 0.2941359739701E+00 -0.1911281600769E+01  0.0000000000000E+00
 0.2968217085817E+00 -0.1838554023784E+01  0.0000000000000E+00
 0.2997547650849E+00 -0.1765979519672E+01  0.0000000000000E+00
 0.3029624194433E+00 -0.1693591126068E+01  0.0000000000000E+00
 0.3064347780313E+00 -0.1621398208056E+01  0.0000000000000E+00
 0.3100337053242E+00 -0.1549304059579E+01  0.0000000000000E+00
 0.3136150741969E+00 -0.1477195909042E+01  0.0000000000000E+00
 0.3171290835116E+00 -0.1405034780453E+01  0.0000000000000E+00
 0.3205192877065E+00 -0.1332779095967E+01  0.0000000000000E+00
 0.3025000001390E+00 -0.4186859601281E+01  0.0000000000000E+00
 0.3025000002781E+00 -0.4113342086429E+01  0.0000000000000E+00
 0.3025000004171E+00 -0.4039824684257E+01  0.0000000000000E+00
 0.3025000005561E+00 -0.3966307217550E+01  0.0000000000000E+00
 0.3025000006952E+00 -0.3892789747717E+01  0.0000000000000E+00
 0.3025000008342E+00 -0.3819272288128E+01  0.0000000000000E+00
 0.3025000009732E+00 -0.3745754823288E+01  0.0000000000000E+00
 0.3025000011123E+00 -0.3672237366228E+01  0.0000000000000E+00
 0.3025000012513E+00 -0.3598719903615E+01  0.0000000000000E+00
 0.3025000013904E+00 -0.3525202280347E+01  0.0000000000000E+00
 0.3025000015294E+00 -0.3451684819509E+01  0.0000000000000E+00
 0.3025000016684E+00 -0.3378167379303E+01  0.0000000000000E+00
 0.3025000018075E+00 -0.3304649961005E+01  0.0000000000000E+00
 0.3025000019465E+00 -0.3231132803084E+01  0.0000000000000E+00
 0.3025000020855E+00 -0.3157615389387E+01  0.0000000000000E+00
 0.3025009282853E+00 -0.3084098002567E+01  0.0000000000000E+00
 0.3025449497874E+00 -0.3010580866809E+01  0.0000000000000E+00
 0.3027150725343E+00 -0.2937066271891E+01  0.0000000000000E+00
 0.3030565200446E+00 -0.2863559587695E+01  0.0000000000000E+00
 0.3035806526148E+00 -0.2790067100603E+01  0.0000000000000E+00
 0.3042837048674E+00 -0.2716594812945E+01  0.0000000000000E+00
 0.3051582815951E+00 -0.2643146234864E+01  0.0000000000000E+00
 0.3061983010151E+00 -0.2569726064901E+01  0.0000000000000E+00
 0.3074009806125E+00 -0.2496339061666E+01  0.0000000000000E+00
 0.3087678773292E+00 -0.2422989996067E+01  0.0000000000000E+00
 0.3103059684062E+00 -0.2349685803918E+01  0.0000000000000E+00
 0.3120288244010E+00 -0.2276436016165E+01  0.0000000000000E+00
 0.3139428043693E+00 -0.2203248992725E+01  0.0000000000000E+00
 0.3160455883984E+00 -0.2130130513309E+01  0.0000000000000E+00
 0.3183403212697E+00 -0.2057088440583E+01  0.0000000000000E+00
 0.3208363007074E+00 -0.1984133466365E+01  0.0000000000000E+00
 0.3235495709029E+00 -0.1911281600769E+01  0.0000000000000E+00
 0.3265038789592E+00 -0.1838554023784E+01  0.0000000000000E+00
 0.3297302410959E+00 -0.1765979519672E+01  0.0000000000000E+00
 0.3332586608731E+00 -0.1693591126068E+01  0.0000000000000E+00
 0.3370782553027E+00 -0.1621398208056E+01  0.0000000000000E+00
 0.3410370753072E+00 -0.1549304059579E+01  0.0000000000000E+00
 0.3449765810495E+00 -0.1477195909042E+01  0.0000000000000E+00
 0.3488419912778E+00 -0.1405034780453E+01  0.0000000000000E+00
 0.3525712158742E+00 -0.1332779095967E+01  0.0000000000000E+00
 0.3300000001390E+00 -0.4186859601281E+01  0.0000000000000E+00
 0.3300000002781E+00 -0.4113342086429E+01  0.0000000000000E+00
 0.3300000004171E+00 -0.4039824684257E+01  0.0000000000000E+00
 0.3300000005561E+00 -0.3966307217550E+01  0.0000000000000E+00
 0.3300000006952E+00 -0.3892789747717E+01  0.0000000000000E+00
 0.3300000008342E+00 -0.3819272288128E+01  0.0000000000000E+00
 0.3300000009732E+00 -0.3745754823288E+01  0.0000000000000E+00
 0.3300000011123E+00 -0.3672237366228E+01  0.0000000000000E+00
 0.3300000012513E+00 -0.3598719903615E+01  0.0000000000000E+00
 0.3300000013904E+00 -0.3525202280347E+01  0.0000000000000E+00
 0.3300000015294E+00 -0.3451684819509E+01  0.0000000000000E+00
 0.3300000016684E+00 -0.3378167379303E+01  0.0000000000000E+00
 0.3300000018075E+00 -0.3304649961005E+01  0.0000000000000E+00
 0.3300000019465E+00 -0.3231132803084E+01  0.0000000000000E+00
 0.3300000020855E+00 -0.3157615389387E+01  0.0000000000000E+00
 0.3300010124726E+00 -0.3084098002567E+01  0.0000000000000E+00
 0.3300490359168E+00 -0.3010580866809E+01  0.0000000000000E+00
 0.3302346243551E+00 -0.2937066271891E+01  0.0000000000000E+00
 0.3306071125352E+00 -0.2863559587695E+01  0.0000000000000E+00
 0.3311788935078E+00 -0.2790067100603E+01  0.0000000000000E+00
 0.3319458595883E+00 -0.2716594812945E+01  0.0000000000000E+00
 0.3328999432778E+00 -0.2643146234864E+01  0.0000000000000E+00
 0.3340345099043E+00 -0.2569726064901E+01  0.0000000000000E+00
 0.3353465239969E+00 -0.2496339061666E+01  0.0000000000000E+00
 0.3368376840377E+00 -0.2422989996067E+01  0.0000000000000E+00
 0.3385156015623E+00 -0.2349685803918E+01  0.0000000000000E+00
 0.3403950808153E+00 -0.2276436016165E+01  0.0000000000000E+00
 0.3424830589484E+00 -0.2203248992725E+01  0.0000000000000E+00
 0.3447770051475E+00 -0.2130130513309E+01  0.0000000000000E+00
 0.3472803500835E+00 -0.2057088440583E+01  0.0000000000000E+00
 0.3500032367282E+00 -0.1984133466365E+01  0.0000000000000E+00
 0.3529631678358E+00 -0.1911281600768E+01  0.0000000000000E+00
 0.3561860493367E+00 -0.1838554023784E+01  0.0000000000000E+00
 0.3597057171070E+00 -0.1765979519672E+01  0.0000000000000E+00
 0.3635549023030E+00 -0.1693591126068E+01  0.0000000000000E+00
 0.3677217325740E+00 -0.1621398208056E+01  0.0000000000000E+00
 0.3720404452903E+00 -0.1549304059579E+01  0.0000000000000E+00
 0.3763380879022E+00 -0.1477195909042E+01  0.0000000000000E+00
 0.3805548990440E+00 -0.1405034780453E+01  0.0000000000000E+00
 0.3846231440420E+00 -0.1332779095967E+01  0.0000000000000E+00
 0.3575000001390E+00 -0.4186859601281E+01  0.0000000000000E+00
 0.3575000002781E+00 -0.4113342086429E+01  0.0000000000000E+00
 0.3575000004171E+00 -0.4039824684257E+01  0.0000000000000E+00
 0.3575000005561E+00 -0.3966307217550E+01  0.0000000000000E+00
 0.3575000006952E+00 -0.3892789747717E+01  0.0000000000000E+00
 0.3575000008342E+00 -0.3819272288128E+01  0.0000000000000E+00
 0.3575000009732E+00 -0.3745754823288E+01  0.0000000000000E+00
 0.3575000011123E+00 -0.3672237366228E+01  0.0000000000000E+00
 0.3575000012513E+00 -0.3598719903615E+01  0.0000000000000E+00
 0.3575000013904E+00 -0.3525202280347E+01  0.0000000000000E+00
 0.3575000015294E+00 -0.3451684819509E+01  0.0000000000000E+00
 0.3575000016684E+00 -0.3378167379303E+01  0.0000000000000E+00
 0.3575000018075E+00 -0.3304649961005E+01  0.0000000000000E+00
 0.3575000019465E+00 -0.3231132803084E+01  0.0000000000000E+00
 0.3575000020855E+00 -0.3157615389387E+01  0.0000000000000E+00
 0.3575010966599E+00 -0.3084098002567E+01  0.0000000000000E+00
 0.3575531220462E+00 -0.3010580866809E+01  0.0000000000000E+00
 0.3577541761760E+00 -0.2937066271891E+01  0.0000000000000E+00
 0.3581577050259E+00 -0.2863559587695E+01  0.0000000000000E+00
 0.3587771344008E+00 -0.2790067100603E+01  0.0000000000000E+00
 0.3596080143092E+00 -0.2716594812945E+01  0.0000000000000E+00
 0.3606416049605E+00 -0.2643146234864E+01  0.0000000000000E+00
 0.3618707187935E+00 -0.2569726064901E+01  0.0000000000000E+00
 0.3632920673813E+00 -0.2496339061666E+01  0.0000000000000E+00
 0.3649074907461E+00 -0.2422989996067E+01  0.0000000000000E+00
 0.3667252347185E+00 -0.2349685803918E+01  0.0000000000000E+00
 0.3687613372296E+00 -0.2276436016165E+01  0.0000000000000E+00
 0.3710233135274E+00 -0.2203248992725E+01  0.0000000000000E+00
 0.3735084218966E+00 -0.2130130513309E+01  0.0000000000000E+00
 0.3762203788973E+00 -0.2057088440583E+01  0.0000000000000E+00
 0.3791701727490E+00 -0.1984133466365E+01  0.0000000000000E+00
 0.3823767647686E+00 -0.1911281600768E+01  0.0000000000000E+00
 0.3858682197142E+00 -0.1838554023784E+01  0.0000000000000E+00
 0.3896811931180E+00 -0.1765979519672E+01  0.0000000000000E+00
 0.3938511437328E+00 -0.1693591126067E+01  0.0000000000000E+00
 0.3983652098454E+00 -0.1621398208056E+01  0.0000000000000E+00
 0.4030438152733E+00 -0.1549304059579E+01  0.0000000000000E+00
 0.4076995947548E+00 -0.1477195909042E+01  0.0000000000000E+00
 0.4122678068103E+00 -0.1405034780453E+01  0.0000000000000E+00
 0.4166750722097E+00 -0.1332779095967E+01  0.0000000000000E+00
 0.3850000001390E+00 -0.4186859601281E+01  0.0000000000000E+00
 0.3850000002781E+00 -0.4113342086429E+01  0.0000000000000E+00
 0.3850000004171E+00 -0.4039824684257E+01  0.0000000000000E+00
 0.3850000005561E+00 -0.3966307217550E+01  0.0000000000000E+00
 0.3850000006952E+00 -0.3892789747717E+01  0.0000000000000E+00
 0.3850000008342E+00 -0.3819272288128E+01  0.0000000000000E+00
 0.3850000009732E+00 -0.3745754823288E+01  0.0000000000000E+00
 0.3850000011123E+00 -0.3672237366228E+01  0.0000000000000E+00
 0.3850000012513E+00 -0.3598719903615E+01  0.0000000000000E+00
 0.3850000013904E+00 -0.3525202280347E+01  0.0000000000000E+00
 0.3850000015294E+00 -0.3451684819509E+01  0.0000000000000E+00
 0.3850000016684E+00 -0.3378167379303E+01  0.0000000000000E+00
 0.3850000018075E+00 -0.3304649961005E+01  0.0000000000000E+00
 0.3850000019465E+00 -0.3231132803084E+01  0.0000000000000E+00
 0.3850000020855E+00 -0.3157615389387E+01  0.0000000000000E+00
 0.3850011808473E+00 -0.3084098002567E+01  0.0000000000000E+00
 0.3850572081756E+00 -0.3010580866809E+01  0.0000000000000E+00
 0.3852737279968E+00 -0.2937066271891E+01  0.0000000000000E+00
 0.3857082975166E+00 -0.2863559587695E+01  0.0000000000000E+00
 0.3863753752939E+00 -0.2790067100603E+01  0.0000000000000E+00
 0.3872701690301E+00 -0.2716594812945E+01  0.0000000000000E+00
 0.3883832666433E+00 -0.2643146234864E+01  0.0000000000000E+00
 0.3897069276828E+00 -0.2569726064901E+01  0.0000000000000E+00
 0.3912376107657E+00 -0.2496339061666E+01  0.0000000000000E+00
 0.3929772974546E+00 -0.2422989996067E+01  0.0000000000000E+00
 0.3949348678746E+00 -0.2349685803918E+01  0.0000000000000E+00
 0.3971275936439E+00 -0.2276436016165E+01  0.0000000000000E+00
 0.3995635681064E+00 -0.2203248992725E+01  0.0000000000000E+00
 0.4022398386458E+00 -0.2130130513309E+01  0.0000000000000E+00
 0.4051604077112E+00 -0.2057088440583E+01  0.0000000000000E+00
 0.4083371087698E+00 -0.1984133466365E+01  0.0000000000000E+00
 0.4117903617014E+00 -0.1911281600768E+01  0.0000000000000E+00
 0.4155503900916E+00 -0.1838554023784E+01  0.0000000000000E+00
 0.4196566691291E+00 -0.1765979519672E+01  0.0000000000000E+00
 0.4241473851627E+00 -0.1693591126067E+01  0.0000000000000E+00
 0.4290086871167E+00 -0.1621398208056E+01  0.0000000000000E+00
 0.4340471852564E+00 -0.1549304059579E+01  0.0000000000000E+00
 0.4390611016074E+00 -0.1477195909042E+01  0.0000000000000E+00
 0.4439807145765E+00 -0.1405034780453E+01  0.0000000000000E+00
 0.4487270003775E+00 -0.1332779095967E+01  0.0000000000000E+00
 0.4125000001390E+00 -0.4186859601281E+01  0.0000000000000E+00
 0.4125000002781E+00 -0.4113342086429E+01  0.0000000000000E+00
 0.4125000004171E+00 -0.4039824684257E+01  0.0000000000000E+00
 0.4125000005561E+00 -0.3966307217550E+01  0.0000000000000E+00
 0.4125000006952E+00 -0.3892789747717E+01  0.0000000000000E+00
 0.4125000008342E+00 -0.3819272288128E+01  0.0000000000000E+00
 0.4125000009732E+00 -0.3745754823288E+01  0.0000000000000E+00
 0.4125000011123E+00 -0.3672237366228E+01  0.0000000000000E+00
 0.4125000012513E+00 -0.3598719903615E+01  0.0000000000000E+00
 0.4125000013904E+00 -0.3525202280347E+01  0.0000000000000E+00
 0.4125000015294E+00 -0.3451684819509E+01  0.0000000000000E+00
 0.4125000016684E+00 -0.3378167379303E+01  0.0000000000000E+00
 0.4125000018075E+00 -0.3304649961005E+01  0.0000000000000E+00
 0.4125000019465E+00 -0.3231132803084E+01  0.0000000000000E+00
 0.4125000020855E+00 -0.3157615389387E+01  0.0000000000000E+00
 0.4125012650346E+00 -0.3084098002567E+01  0.0000000000000E+00
 0.4125612943050E+00 -0.3010580866809E+01  0.0000000000000E+00
 0.4127932798177E+00 -0.2937066271891E+01  0.0000000000000E+00
 0.4132588900072E+00 -0.2863559587694E+01  0.0000000000000E+00
 0.4139736161869E+00 -0.2790067100603E+01  0.0000000000000E+00
 0.4149323237511E+00 -0.2716594812945E+01  0.0000000000000E+00
 0.4161249283260E+00 -0.2643146234864E+01  0.0000000000000E+00
 0.4175431365720E+00 -0.2569726064901E+01  0.0000000000000E+00
 0.4191831541501E+00 -0.2496339061666E+01  0.0000000000000E+00
 0.4210471041631E+00 -0.2422989996067E+01  0.0000000000000E+00
 0.4231445010307E+00 -0.2349685803918E+01  0.0000000000000E+00
 0.4254938500582E+00 -0.2276436016165E+01  0.0000000000000E+00
 0.4281038226855E+00 -0.2203248992725E+01  0.0000000000000E+00
 0.4309712553949E+00 -0.2130130513309E+01  0.0000000000000E+00
 0.4341004365250E+00 -0.2057088440582E+01  0.0000000000000E+00
 0.4375040447906E+00 -0.1984133466365E+01  0.0000000000000E+00
 0.4412039586342E+00 -0.1911281600768E+01  0.0000000000000E+00
 0.4452325604691E+00 -0.1838554023784E+01  0.0000000000000E+00
 0.4496321451401E+00 -0.1765979519672E+01  0.0000000000000E+00
 0.4544436265925E+00 -0.1693591126067E+01  0.0000000000000E+00
 0.4596521643880E+00 -0.1621398208056E+01  0.0000000000000E+00
 0.4650505552394E+00 -0.1549304059579E+01  0.0000000000000E+00
 0.4704226084601E+00 -0.1477195909042E+01  0.0000000000000E+00
 0.4756936223427E+00 -0.1405034780453E+01  0.0000000000000E+00
 0.4807789285453E+00 -0.1332779095967E+01  0.0000000000000E+00
 0.4400000001390E+00 -0.4186859601281E+01  0.0000000000000E+00
 0.4400000002781E+00 -0.4113342086429E+01  0.0000000000000E+00
 0.4400000004171E+00 -0.4039824684257E+01  0.0000000000000E+00
 0.4400000005561E+00 -0.3966307217550E+01  0.0000000000000E+00
 0.4400000006952E+00 -0.3892789747717E+01  0.0000000000000E+00
 0.4400000008342E+00 -0.3819272288128E+01  0.0000000000000E+00
 0.4400000009732E+00 -0.3745754823288E+01  0.0000000000000E+00
 0.4400000011123E+00 -0.3672237366228E+01  0.0000000000000E+00
 0.4400000012513E+00 -0.3598719903615E+01  0.0000000000000E+00
 0.4400000013904E+00 -0.3525202280347E+01  0.0000000000000E+00
 0.4400000015294E+00 -0.3451684819509E+01  0.0000000000000E+00
 0.4400000016684E+00 -0.3378167379303E+01  0.0000000000000E+00
 0.4400000018075E+00 -0.3304649961005E+01  0.0000000000000E+00
 0.4400000019465E+00 -0.3231132803084E+01  0.0000000000000E+00
 0.4400000020855E+00 -0.3157615389387E+01  0.0000000000000E+00
 0.4400013492219E+00 -0.3084098002567E+01  0.0000000000000E+00
 0.4400653804344E+00 -0.3010580866809E+01  0.0000000000000E+00
 0.4403128316385E+00 -0.2937066271891E+01  0.0000000000000E+00
 0.4408094824979E+00 -0.2863559587694E+01  0.0000000000000E+00
 0.4415718570799E+00 -0.2790067100603E+01  0.0000000000000E+00
 0.4425944784720E+00 -0.2716594812945E+01  0.0000000000000E+00
 0.4438665900088E+00 -0.2643146234864E+01  0.0000000000000E+00
 0.4453793454612E+00 -0.2569726064901E+01  0.0000000000000E+00
 0.4471286975345E+00 -0.2496339061666E+01  0.0000000000000E+00
 0.4491169108716E+00 -0.2422989996067E+01  0.0000000000000E+00
 0.4513541341868E+00 -0.2349685803918E+01  0.0000000000000E+00
 0.4538601064725E+00 -0.2276436016165E+01  0.0000000000000E+00
 0.4566440772645E+00 -0.2203248992725E+01  0.0000000000000E+00
 0.4597026721440E+00 -0.2130130513309E+01  0.0000000000000E+00
 0.4630404653389E+00 -0.2057088440582E+01  0.0000000000000E+00
 0.4666709808114E+00 -0.1984133466365E+01  0.0000000000000E+00
 0.4706175555671E+00 -0.1911281600768E+01  0.0000000000000E+00
 0.4749147308466E+00 -0.1838554023784E+01  0.0000000000000E+00
 0.4796076211511E+00 -0.1765979519672E+01  0.0000000000000E+00
 0.4847398680223E+00 -0.1693591126067E+01  0.0000000000000E+00
 0.4902956416594E+00 -0.1621398208056E+01  0.0000000000000E+00
 0.4960539252225E+00 -0.1549304059579E+01  0.0000000000000E+00
 0.5017841153127E+00 -0.1477195909042E+01  0.0000000000000E+00
 0.5074065301090E+00 -0.1405034780453E+01  0.0000000000000E+00
 0.5128308567130E+00 -0.1332779095967E+01  0.0000000000000E+00
 0.4675000001390E+00 -0.4186859601281E+01  0.0000000000000E+00
 0.4675000002781E+00 -0.4113342086429E+01  0.0000000000000E+00
 0.4675000004171E+00 -0.4039824684257E+01  0.0000000000000E+00
 0.4675000005561E+00 -0.3966307217550E+01  0.0000000000000E+00
 0.4675000006952E+00 -0.3892789747717E+01  0.0000000000000E+00
 0.4675000008342E+00 -0.3819272288128E+01  0.0000000000000E+00
 0.4675000009732E+00 -0.3745754823288E+01  0.0000000000000E+00
 0.4675000011123E+00 -0.3672237366228E+01  0.0000000000000E+00
 0.4675000012513E+00 -0.3598719903615E+01  0.0000000000000E+00
 0.4675000013904E+00 -0.3525202280347E+01  0.0000000000000E+00
 0.4675000015294E+00 -0.3451684819509E+01  0.0000000000000E+00
 0.4675000016684E+00 -0.3378167379303E+01  0.0000000000000E+00
 0.4675000018075E+00 -0.3304649961005E+01  0.0000000000000E+00
 0.4675000019465E+00 -0.3231132803084E+01  0.0000000000000E+00
 0.4675000020855E+00 -0.3157615389387E+01  0.0000000000000E+00
 0.4675014334093E+00 -0.3084098002567E+01  0.0000000000000E+00
 0.4675694665638E+00 -0.3010580866809E+01  0.0000000000000E+00
 0.4678323834594E+00 -0.2937066271891E+01  0.0000000000000E+00
 0.4683600749885E+00 -0.2863559587694E+01  0.0000000000000E+00
 0.4691700979729E+00 -0.2790067100603E+01  0.0000000000000E+00
 0.4702566331929E+00 -0.2716594812945E+01  0.0000000000000E+00
 0.4716082516915E+00 -0.2643146234864E+01  0.0000000000000E+00
 0.4732155543504E+00 -0.2569726064901E+01  0.0000000000000E+00
 0.4750742409189E+00 -0.2496339061666E+01  0.0000000000000E+00
 0.4771867175801E+00 -0.2422989996067E+01  0.0000000000000E+00
 0.4795637673429E+00 -0.2349685803918E+01  0.0000000000000E+00
 0.4822263628868E+00 -0.2276436016165E+01  0.0000000000000E+00
 0.4851843318435E+00 -0.2203248992725E+01  0.0000000000000E+00
 0.4884340888932E+00 -0.2130130513309E+01  0.0000000000000E+00
 0.4919804941527E+00 -0.2057088440582E+01  0.0000000000000E+00
 0.4958379168322E+00 -0.1984133466365E+01  0.0000000000000E+00
 0.5000311524999E+00 -0.1911281600768E+01  0.0000000000000E+00
 0.5045969012241E+00 -0.1838554023784E+01  0.0000000000000E+00
 0.5095830971622E+00 -0.1765979519672E+01  0.0000000000000E+00
 0.5150361094522E+00 -0.1693591126067E+01  0.0000000000000E+00
 0.5209391189307E+00 -0.1621398208056E+01  0.0000000000000E+00
 0.5270572952056E+00 -0.1549304059579E+01  0.0000000000000E+00
 0.5331456221654E+00 -0.1477195909042E+01  0.0000000000000E+00
 0.5391194378752E+00 -0.1405034780453E+01  0.0000000000000E+00
 0.5448827848808E+00 -0.1332779095967E+01  0.0000000000000E+00
 0.4950000001390E+00 -0.4186859601281E+01  0.0000000000000E+00
 0.4950000002781E+00 -0.4113342086429E+01  0.0000000000000E+00
 0.4950000004171E+00 -0.4039824684257E+01  0.0000000000000E+00
 0.4950000005561E+00 -0.3966307217550E+01  0.0000000000000E+00
 0.4950000006952E+00 -0.3892789747717E+01  0.0000000000000E+00
 0.4950000008342E+00 -0.3819272288128E+01  0.0000000000000E+00
 0.4950000009732E+00 -0.3745754823288E+01  0.0000000000000E+00
 0.4950000011123E+00 -0.3672237366228E+01  0.0000000000000E+00
 0.4950000012513E+00 -0.3598719903615E+01  0.0000000000000E+00
 0.4950000013904E+00 -0.3525202280347E+01  0.0000000000000E+00
 0.4950000015294E+00 -0.3451684819509E+01  0.0000000000000E+00
 0.4950000016684E+00 -0.3378167379303E+01  0.0000000000000E+00
 0.4950000018075E+00 -0.3304649961005E+01  0.0000000000000E+00
 0.4950000019465E+00 -0.3231132803084E+01  0.0000000000000E+00
 0.4950000020855E+00 -0.3157615389387E+01  0.0000000000000E+00
 0.4950015175966E+00 -0.3084098002567E+01  0.0000000000000E+00
 0.4950735526932E+00 -0.3010580866809E+01  0.0000000000000E+00
 0.4953519352803E+00 -0.2937066271891E+01  0.0000000000000E+00
 0.4959106674792E+00 -0.2863559587694E+01  0.0000000000000E+00
 0.4967683388660E+00 -0.2790067100603E+01  0.0000000000000E+00
 0.4979187879138E+00 -0.2716594812945E+01  0.0000000000000E+00
 0.4993499133743E+00 -0.2643146234864E+01  0.0000000000000E+00
 0.5010517632396E+00 -0.2569726064901E+01  0.0000000000000E+00
 0.5030197843033E+00 -0.2496339061666E+01  0.0000000000000E+00
 0.5052565242886E+00 -0.2422989996067E+01  0.0000000000000E+00
 0.5077734004990E+00 -0.2349685803918E+01  0.0000000000000E+00
 0.5105926193011E+00 -0.2276436016165E+01  0.0000000000000E+00
 0.5137245864225E+00 -0.2203248992725E+01  0.0000000000000E+00
 0.5171655056423E+00 -0.2130130513309E+01  0.0000000000000E+00
 0.5209205229665E+00 -0.2057088440582E+01  0.0000000000000E+00
 0.5250048528530E+00 -0.1984133466365E+01  0.0000000000000E+00
 0.5294447494327E+00 -0.1911281600768E+01  0.0000000000000E+00
 0.5342790716015E+00 -0.1838554023784E+01  0.0000000000000E+00
 0.5395585731732E+00 -0.1765979519672E+01  0.0000000000000E+00
 0.5453323508820E+00 -0.1693591126067E+01  0.0000000000000E+00
 0.5515825962021E+00 -0.1621398208056E+01  0.0000000000000E+00
 0.5580606651886E+00 -0.1549304059579E+01  0.0000000000000E+00
 0.5645071290180E+00 -0.1477195909042E+01  0.0000000000000E+00
 0.5708323456415E+00 -0.1405034780453E+01  0.0000000000000E+00
 0.5769347130485E+00 -0.1332779095967E+01  0.0000000000000E+00
 0.5225000001390E+00 -0.4186859601281E+01  0.0000000000000E+00
 0.5225000002781E+00 -0.4113342086429E+01  0.0000000000000E+00
 0.5225000004171E+00 -0.4039824684257E+01  0.0000000000000E+00
 0.5225000005561E+00 -0.3966307217550E+01  0.0000000000000E+00
 0.5225000006952E+00 -0.3892789747717E+01  0.0000000000000E+00
 0.5225000008342E+00 -0.3819272288128E+01  0.0000000000000E+00
 0.5225000009732E+00 -0.3745754823288E+01  0.0000000000000E+00
 0.5225000011123E+00 -0.3672237366228E+01  0.0000000000000E+00
 0.5225000012513E+00 -0.3598719903615E+01  0.0000000000000E+00
 0.5225000013904E+00 -0.3525202280347E+01  0.0000000000000E+00
 0.5225000015294E+00 -0.3451684819509E+01  0.0000000000000E+00
 0.5225000016684E+00 -0.3378167379303E+01  0.0000000000000E+00
 0.5225000018075E+00 -0.3304649961005E+01  0.0000000000000E+00
 0.5225000019465E+00 -0.3231132803084E+01  0.0000000000000E+00
 0.5225000020855E+00 -0.3157615389387E+01  0.0000000000000E+00
 0.5225016017839E+00 -0.3084098002567E+01  0.0000000000000E+00
 0.5225776388225E+00 -0.3010580866809E+01  0.0000000000000E+00
 0.5228714871011E+00 -0.2937066271891E+01  0.0000000000000E+00
 0.5234612599699E+00 -0.2863559587694E+01  0.0000000000000E+00
 0.5243665797590E+00 -0.2790067100603E+01  0.0000000000000E+00
 0.5255809426347E+00 -0.2716594812945E+01  0.0000000000000E+00
 0.5270915750570E+00 -0.2643146234864E+01  0.0000000000000E+00
 0.5288879721288E+00 -0.2569726064901E+01  0.0000000000000E+00
 0.5309653276877E+00 -0.2496339061666E+01  0.0000000000000E+00
 0.5333263309971E+00 -0.2422989996067E+01  0.0000000000000E+00
 0.5359830336551E+00 -0.2349685803918E+01  0.0000000000000E+00
 0.5389588757154E+00 -0.2276436016165E+01  0.0000000000000E+00
 0.5422648410016E+00 -0.2203248992725E+01  0.0000000000000E+00
 0.5458969223914E+00 -0.2130130513309E+01  0.0000000000000E+00
 0.5498605517804E+00 -0.2057088440582E+01  0.0000000000000E+00
 0.5541717888738E+00 -0.1984133466365E+01  0.0000000000000E+00
 0.5588583463656E+00 -0.1911281600768E+01  0.0000000000000E+00
 0.5639612419790E+00 -0.1838554023784E+01  0.0000000000000E+00
 0.5695340491842E+00 -0.1765979519672E+01  0.0000000000000E+00
 0.5756285923119E+00 -0.1693591126067E+01  0.0000000000000E+00
 0.5822260734734E+00 -0.1621398208055E+01  0.0000000000000E+00
 0.5890640351717E+00 -0.1549304059579E+01  0.0000000000000E+00
 0.5958686358706E+00 -0.1477195909042E+01  0.0000000000000E+00
 0.6025452534077E+00 -0.1405034780453E+01  0.0000000000000E+00
 0.6089866412163E+00 -0.1332779095967E+01  0.0000000000000E+00
 0.5500000001390E+00 -0.4186859601281E+01  0.0000000000000E+00
 0.5500000002781E+00 -0.4113342086429E+01  0.0000000000000E+00
 0.5500000004171E+00 -0.4039824684257E+01  0.0000000000000E+00
 0.5500000005561E+00 -0.3966307217550E+01  0.0000000000000E+00
 0.5500000006952E+00 -0.3892789747717E+01  0.0000000000000E+00
 0.5500000008342E+00 -0.3819272288128E+01  0.0000000000000E+00
 0.5500000009732E+00 -0.3745754823288E+01  0.0000000000000E+00
 0.5500000011123E+00 -0.3672237366228E+01  0.0000000000000E+00
 0.5500000012513E+00 -0.3598719903615E+01  0.0000000000000E+00
 0.5500000013904E+00 -0.3525202280347E+01  0.0000000000000E+00
 0.5500000015294E+00 -0.3451684819509E+01  0.0000000000000E+00
 0.5500000016684E+00 -0.3378167379303E+01  0.0000000000000E+00
 0.5500000018075E+00 -0.3304649961005E+01  0.0000000000000E+00
 0.5500000019465E+00 -0.3231132803084E+01  0.0000000000000E+00
 0.5500000020855E+00 -0.3157615389387E+01  0.0000000000000E+00
 0.5500016859713E+00 -0.3084098002567E+01  0.0000000000000E+00
 0.5500817249519E+00 -0.3010580866809E+01  0.0000000000000E+00
 0.5503910389220E+00 -0.2937066271891E+01  0.0000000000000E+00
 0.5510118524605E+00 -0.2863559587694E+01  0.0000000000000E+00
 0.5519648206520E+00 -0.2790067100603E+01  0.0000000000000E+00
 0.5532430973556E+00 -0.2716594812945E+01  0.0000000000000E+00
 0.5548332367398E+00 -0.2643146234864E+01  0.0000000000000E+00
 0.5567241810181E+00 -0.2569726064901E+01  0.0000000000000E+00
 0.5589108710721E+00 -0.2496339061666E+01  0.0000000000000E+00
 0.5613961377056E+00 -0.2422989996067E+01  0.0000000000000E+00
 0.5641926668113E+00 -0.2349685803918E+01  0.0000000000000E+00
 0.5673251321297E+00 -0.2276436016165E+01  0.0000000000000E+00
 0.5708050955806E+00 -0.2203248992725E+01  0.0000000000000E+00
 0.5746283391406E+00 -0.2130130513309E+01  0.0000000000000E+00
 0.5788005805942E+00 -0.2057088440582E+01  0.0000000000000E+00
 0.5833387248945E+00 -0.1984133466365E+01  0.0000000000000E+00
 0.5882719432984E+00 -0.1911281600768E+01  0.0000000000000E+00
 0.5936434123565E+00 -0.1838554023784E+01  0.0000000000000E+00
 0.5995095251953E+00 -0.1765979519672E+01  0.0000000000000E+00
 0.6059248337417E+00 -0.1693591126067E+01  0.0000000000000E+00
 0.6128695507447E+00 -0.1621398208055E+01  0.0000000000000E+00
 0.6200674051547E+00 -0.1549304059578E+01  0.0000000000000E+00
 0.6272301427233E+00 -0.1477195909042E+01  0.0000000000000E+00
 0.6342581611739E+00 -0.1405034780452E+01  0.0000000000000E+00
 0.6410385693841E+00 -0.1332779095967E+01  0.0000000000000E+00
 0.5775000001321E+00 -0.4186859601281E+01  0.0000000000000E+00
 0.5775000002642E+00 -0.4113342086429E+01  0.0000000000000E+00
 0.5775000003963E+00 -0.4039824684257E+01  0.0000000000000E+00
 0.5775000005283E+00 -0.3966307217550E+01  0.0000000000000E+00
 0.5775000006604E+00 -0.3892789747717E+01  0.0000000000000E+00
 0.5775000007925E+00 -0.3819272288128E+01  0.0000000000000E+00
 0.5775000009246E+00 -0.3745754823288E+01  0.0000000000000E+00
 0.5775000010567E+00 -0.3672237366228E+01  0.0000000000000E+00
 0.5775000011888E+00 -0.3598719903615E+01  0.0000000000000E+00
 0.5775000013208E+00 -0.3525202280347E+01  0.0000000000000E+00
 0.5775000014529E+00 -0.3451684819509E+01  0.0000000000000E+00
 0.5775000015850E+00 -0.3378167379303E+01  0.0000000000000E+00
 0.5775000017171E+00 -0.3304649961005E+01  0.0000000000000E+00
 0.5775000018492E+00 -0.3231132803084E+01  0.0000000000000E+00
 0.5775000019813E+00 -0.3157615389387E+01  0.0000000000000E+00
 0.5775017700474E+00 -0.3084098002567E+01  0.0000000000000E+00
 0.5775858109631E+00 -0.3010580866809E+01  0.0000000000000E+00
 0.5779105906176E+00 -0.2937066271891E+01  0.0000000000000E+00
 0.5785624448188E+00 -0.2863559587694E+01  0.0000000000000E+00
 0.5795630614055E+00 -0.2790067100603E+01  0.0000000000000E+00
 0.5809052519297E+00 -0.2716594812945E+01  0.0000000000000E+00
 0.5825748982683E+00 -0.2643146234864E+01  0.0000000000000E+00
 0.5845603897456E+00 -0.2569726064901E+01  0.0000000000000E+00
 0.5868564142874E+00 -0.2496339061666E+01  0.0000000000000E+00
 0.5894659442373E+00 -0.2422989996067E+01  0.0000000000000E+00
 0.5924022997829E+00 -0.2349685803918E+01  0.0000000000000E+00
 0.5956913883518E+00 -0.2276436016165E+01  0.0000000000000E+00
 0.5993453499596E+00 -0.2203248992725E+01  0.0000000000000E+00
 0.6033597556817E+00 -0.2130130513309E+01  0.0000000000000E+00
 0.6077406091920E+00 -0.2057088440582E+01  0.0000000000000E+00
 0.6125056606912E+00 -0.1984133466365E+01  0.0000000000000E+00
 0.6176855399988E+00 -0.1911281600768E+01  0.0000000000000E+00
 0.6233255824932E+00 -0.1838554023784E+01  0.0000000000000E+00
 0.6294850009571E+00 -0.1765979519672E+01  0.0000000000000E+00
 0.6362210749138E+00 -0.1693591126067E+01  0.0000000000000E+00
 0.6435130277495E+00 -0.1621398208055E+01  0.0000000000000E+00
 0.6510707748624E+00 -0.1549304059578E+01  0.0000000000000E+00
 0.6585916492917E+00 -0.1477195909042E+01  0.0000000000000E+00
 0.6659710686472E+00 -0.1405034780452E+01  0.0000000000000E+00
 0.6730904972502E+00 -0.1332779095967E+01  0.0000000000000E+00
 0.6050000001251E+00 -0.4186859601281E+01  0.0000000000000E+00
 0.6050000002503E+00 -0.4113342086429E+01  0.0000000000000E+00
 0.6050000003754E+00 -0.4039824684257E+01  0.0000000000000E+00
 0.6050000005005E+00 -0.3966307217550E+01  0.0000000000000E+00
 0.6050000006257E+00 -0.3892789747717E+01  0.0000000000000E+00
 0.6050000007508E+00 -0.3819272288128E+01  0.0000000000000E+00
 0.6050000008759E+00 -0.3745754823288E+01  0.0000000000000E+00
 0.6050000010011E+00 -0.3672237366228E+01  0.0000000000000E+00
 0.6050000011262E+00 -0.3598719903615E+01  0.0000000000000E+00
 0.6050000012513E+00 -0.3525202280347E+01  0.0000000000000E+00
 0.6050000013765E+00 -0.3451684819509E+01  0.0000000000000E+00
 0.6050000015016E+00 -0.3378167379303E+01  0.0000000000000E+00
 0.6050000016267E+00 -0.3304649961005E+01  0.0000000000000E+00
 0.6050000017518E+00 -0.3231132803084E+01  0.0000000000000E+00
 0.6050000018770E+00 -0.3157615389387E+01  0.0000000000000E+00
 0.6050018541235E+00 -0.3084098002567E+01  0.0000000000000E+00
 0.6050898969743E+00 -0.3010580866809E+01  0.0000000000000E+00
 0.6054301423132E+00 -0.2937066271891E+01  0.0000000000000E+00
 0.6061130371772E+00 -0.2863559587694E+01  0.0000000000000E+00
 0.6071613021590E+00 -0.2790067100603E+01  0.0000000000000E+00
 0.6085674065038E+00 -0.2716594812945E+01  0.0000000000000E+00
 0.6103165597969E+00 -0.2643146234864E+01  0.0000000000000E+00
 0.6123965984732E+00 -0.2569726064901E+01  0.0000000000000E+00
 0.6148019575026E+00 -0.2496339061666E+01  0.0000000000000E+00
 0.6175357507690E+00 -0.2422989996067E+01  0.0000000000000E+00
 0.6206119327546E+00 -0.2349685803918E+01  0.0000000000000E+00
 0.6240576445739E+00 -0.2276436016165E+01  0.0000000000000E+00
 0.6278856043386E+00 -0.2203248992725E+01  0.0000000000000E+00
 0.6320911722229E+00 -0.2130130513309E+01  0.0000000000000E+00
 0.6366806377898E+00 -0.2057088440582E+01  0.0000000000000E+00
 0.6416725964878E+00 -0.1984133466364E+01  0.0000000000000E+00
 0.6470991366993E+00 -0.1911281600768E+01  0.0000000000000E+00
 0.6530077526300E+00 -0.1838554023784E+01  0.0000000000000E+00
 0.6594604767190E+00 -0.1765979519672E+01  0.0000000000000E+00
 0.6665173160858E+00 -0.1693591126067E+01  0.0000000000000E+00
 0.6741565047543E+00 -0.1621398208055E+01  0.0000000000000E+00
 0.6820741445701E+00 -0.1549304059578E+01  0.0000000000000E+00
 0.6899531558602E+00 -0.1477195909042E+01  0.0000000000000E+00
 0.6976839761205E+00 -0.1405034780452E+01  0.0000000000000E+00
 0.7051424251163E+00 -0.1332779095967E+01  0.0000000000000E+00
 0.6325000001182E+00 -0.4186859601281E+01  0.0000000000000E+00
 0.6325000002364E+00 -0.4113342086429E+01  0.0000000000000E+00
 0.6325000003545E+00 -0.4039824684257E+01  0.0000000000000E+00
 0.6325000004727E+00 -0.3966307217550E+01  0.0000000000000E+00
 0.6325000005909E+00 -0.3892789747717E+01  0.0000000000000E+00
 0.6325000007091E+00 -0.3819272288128E+01  0.0000000000000E+00
 0.6325000008273E+00 -0.3745754823288E+01  0.0000000000000E+00
 0.6325000009454E+00 -0.3672237366228E+01  0.0000000000000E+00
 0.6325000010636E+00 -0.3598719903615E+01  0.0000000000000E+00
 0.6325000011818E+00 -0.3525202280347E+01  0.0000000000000E+00
 0.6325000013000E+00 -0.3451684819509E+01  0.0000000000000E+00
 0.6325000014182E+00 -0.3378167379303E+01  0.0000000000000E+00
 0.6325000015363E+00 -0.3304649961005E+01  0.0000000000000E+00
 0.6325000016545E+00 -0.3231132803084E+01  0.0000000000000E+00
 0.6325000017727E+00 -0.3157615389387E+01  0.0000000000000E+00
 0.6325019381996E+00 -0.3084098002567E+01  0.0000000000000E+00
 0.6325939829855E+00 -0.3010580866809E+01  0.0000000000000E+00
 0.6329496940088E+00 -0.2937066271891E+01  0.0000000000000E+00
 0.6336636295355E+00 -0.2863559587694E+01  0.0000000000000E+00
 0.6347595429125E+00 -0.2790067100603E+01  0.0000000000000E+00
 0.6362295610779E+00 -0.2716594812945E+01  0.0000000000000E+00
 0.6380582213255E+00 -0.2643146234864E+01  0.0000000000000E+00
 0.6402328072008E+00 -0.2569726064901E+01  0.0000000000000E+00
 0.6427475007179E+00 -0.2496339061666E+01  0.0000000000000E+00
 0.6456055573008E+00 -0.2422989996067E+01  0.0000000000000E+00
 0.6488215657263E+00 -0.2349685803918E+01  0.0000000000000E+00
 0.6524239007960E+00 -0.2276436016165E+01  0.0000000000000E+00
 0.6564258587176E+00 -0.2203248992725E+01  0.0000000000000E+00
 0.6608225887640E+00 -0.2130130513309E+01  0.0000000000000E+00
 0.6656206663877E+00 -0.2057088440582E+01  0.0000000000000E+00
 0.6708395322845E+00 -0.1984133466364E+01  0.0000000000000E+00
 0.6765127333998E+00 -0.1911281600768E+01  0.0000000000000E+00
 0.6826899227668E+00 -0.1838554023784E+01  0.0000000000000E+00
 0.6894359524808E+00 -0.1765979519672E+01  0.0000000000000E+00
 0.6968135572579E+00 -0.1693591126067E+01  0.0000000000000E+00
 0.7047999817591E+00 -0.1621398208055E+01  0.0000000000000E+00
 0.7130775142778E+00 -0.1549304059578E+01  0.0000000000000E+00
 0.7213146624286E+00 -0.1477195909042E+01  0.0000000000000E+00
 0.7293968835938E+00 -0.1405034780452E+01  0.0000000000000E+00
 0.7371943529824E+00 -0.1332779095967E+01  0.0000000000000E+00
 0.6600000001112E+00 -0.4186859601281E+01  0.0000000000000E+00
 0.6600000002225E+00 -0.4113342086429E+01  0.0000000000000E+00
 0.6600000003337E+00 -0.4039824684257E+01  0.0000000000000E+00
 0.6600000004449E+00 -0.3966307217550E+01  0.0000000000000E+00
 0.6600000005561E+00 -0.3892789747717E+01  0.0000000000000E+00
 0.6600000006674E+00 -0.3819272288128E+01  0.0000000000000E+00
 0.6600000007786E+00 -0.3745754823288E+01  0.0000000000000E+00
 0.6600000008898E+00 -0.3672237366228E+01  0.0000000000000E+00
 0.6600000010011E+00 -0.3598719903615E+01  0.0000000000000E+00
 0.6600000011123E+00 -0.3525202280347E+01  0.0000000000000E+00
 0.6600000012235E+00 -0.3451684819509E+01  0.0000000000000E+00
 0.6600000013347E+00 -0.3378167379303E+01  0.0000000000000E+00
 0.6600000014460E+00 -0.3304649961005E+01  0.0000000000000E+00
 0.6600000015572E+00 -0.3231132803084E+01  0.0000000000000E+00
 0.6600000016684E+00 -0.3157615389387E+01  0.0000000000000E+00
 0.6600020222757E+00 -0.3084098002567E+01  0.0000000000000E+00
 0.6600980689967E+00 -0.3010580866809E+01  0.0000000000000E+00
 0.6604692457045E+00 -0.2937066271891E+01  0.0000000000000E+00
 0.6612142218938E+00 -0.2863559587694E+01  0.0000000000000E+00
 0.6623577836659E+00 -0.2790067100603E+01  0.0000000000000E+00
 0.6638917156520E+00 -0.2716594812945E+01  0.0000000000000E+00
 0.6657998828540E+00 -0.2643146234864E+01  0.0000000000000E+00
 0.6680690159284E+00 -0.2569726064901E+01  0.0000000000000E+00
 0.6706930439331E+00 -0.2496339061666E+01  0.0000000000000E+00
 0.6736753638325E+00 -0.2422989996067E+01  0.0000000000000E+00
 0.6770311986980E+00 -0.2349685803918E+01  0.0000000000000E+00
 0.6807901570181E+00 -0.2276436016165E+01  0.0000000000000E+00
 0.6849661130966E+00 -0.2203248992725E+01  0.0000000000000E+00
 0.6895540053052E+00 -0.2130130513309E+01  0.0000000000000E+00
 0.6945606949855E+00 -0.2057088440582E+01  0.0000000000000E+00
 0.7000064680811E+00 -0.1984133466364E+01  0.0000000000000E+00
 0.7059263301002E+00 -0.1911281600768E+01  0.0000000000000E+00
 0.7123720929035E+00 -0.1838554023784E+01  0.0000000000000E+00
 0.7194114282427E+00 -0.1765979519672E+01  0.0000000000000E+00
 0.7271097984299E+00 -0.1693591126067E+01  0.0000000000000E+00
 0.7354434587639E+00 -0.1621398208055E+01  0.0000000000000E+00
 0.7440808839855E+00 -0.1549304059578E+01  0.0000000000000E+00
 0.7526761689971E+00 -0.1477195909042E+01  0.0000000000000E+00
 0.7611097910671E+00 -0.1405034780452E+01  0.0000000000000E+00
 0.7692462808485E+00 -0.1332779095967E+01  0.0000000000000E+00
 0.6875000001043E+00 -0.4186859601281E+01  0.0000000000000E+00
 0.6875000002086E+00 -0.4113342086429E+01  0.0000000000000E+00
 0.6875000003128E+00 -0.4039824684257E+01  0.0000000000000E+00
 0.6875000004171E+00 -0.3966307217550E+01  0.0000000000000E+00
 0.6875000005214E+00 -0.3892789747717E+01  0.0000000000000E+00
 0.6875000006257E+00 -0.3819272288128E+01  0.0000000000000E+00
 0.6875000007299E+00 -0.3745754823288E+01  0.0000000000000E+00
 0.6875000008342E+00 -0.3672237366228E+01  0.0000000000000E+00
 0.6875000009385E+00 -0.3598719903615E+01  0.0000000000000E+00
 0.6875000010428E+00 -0.3525202280347E+01  0.0000000000000E+00
 0.6875000011470E+00 -0.3451684819509E+01  0.0000000000000E+00
 0.6875000012513E+00 -0.3378167379303E+01  0.0000000000000E+00
 0.6875000013556E+00 -0.3304649961005E+01  0.0000000000000E+00
 0.6875000014599E+00 -0.3231132803084E+01  0.0000000000000E+00
 0.6875000015641E+00 -0.3157615389387E+01  0.0000000000000E+00
 0.6875021063518E+00 -0.3084098002567E+01  0.0000000000000E+00
 0.6876021550079E+00 -0.3010580866809E+01  0.0000000000000E+00
 0.6879887974001E+00 -0.2937066271891E+01  0.0000000000000E+00
 0.6887648142521E+00 -0.2863559587694E+01  0.0000000000000E+00
 0.6899560244194E+00 -0.2790067100603E+01  0.0000000000000E+00
 0.6915538702260E+00 -0.2716594812945E+01  0.0000000000000E+00
 0.6935415443826E+00 -0.2643146234864E+01  0.0000000000000E+00
 0.6959052246560E+00 -0.2569726064901E+01  0.0000000000000E+00
 0.6986385871484E+00 -0.2496339061666E+01  0.0000000000000E+00
 0.7017451703643E+00 -0.2422989996067E+01  0.0000000000000E+00
 0.7052408316697E+00 -0.2349685803918E+01  0.0000000000000E+00
 0.7091564132403E+00 -0.2276436016165E+01  0.0000000000000E+00
 0.7135063674756E+00 -0.2203248992725E+01  0.0000000000000E+00
 0.7182854218463E+00 -0.2130130513309E+01  0.0000000000000E+00
 0.7235007235833E+00 -0.2057088440582E+01  0.0000000000000E+00
 0.7291734038778E+00 -0.1984133466364E+01  0.0000000000000E+00
 0.7353399268007E+00 -0.1911281600768E+01  0.0000000000000E+00
 0.7420542630403E+00 -0.1838554023784E+01  0.0000000000000E+00
 0.7493869040045E+00 -0.1765979519672E+01  0.0000000000000E+00
 0.7574060396020E+00 -0.1693591126067E+01  0.0000000000000E+00
 0.7660869357687E+00 -0.1621398208055E+01  0.0000000000000E+00
 0.7750842536932E+00 -0.1549304059578E+01  0.0000000000000E+00
 0.7840376755656E+00 -0.1477195909041E+01  0.0000000000000E+00
 0.7928226985404E+00 -0.1405034780452E+01  0.0000000000000E+00
 0.8012982087146E+00 -0.1332779095967E+01  0.0000000000000E+00
 0.7150000000973E+00 -0.4186859601281E+01  0.0000000000000E+00
 0.7150000001946E+00 -0.4113342086429E+01  0.0000000000000E+00
 0.7150000002920E+00 -0.4039824684257E+01  0.0000000000000E+00
 0.7150000003893E+00 -0.3966307217550E+01  0.0000000000000E+00
 0.7150000004866E+00 -0.3892789747717E+01  0.0000000000000E+00
 0.7150000005839E+00 -0.3819272288128E+01  0.0000000000000E+00
 0.7150000006813E+00 -0.3745754823288E+01  0.0000000000000E+00
 0.7150000007786E+00 -0.3672237366228E+01  0.0000000000000E+00
 0.7150000008759E+00 -0.3598719903615E+01  0.0000000000000E+00
 0.7150000009732E+00 -0.3525202280347E+01  0.0000000000000E+00
 0.7150000010706E+00 -0.3451684819509E+01  0.0000000000000E+00
 0.7150000011679E+00 -0.3378167379303E+01  0.0000000000000E+00
 0.7150000012652E+00 -0.3304649961005E+01  0.0000000000000E+00
 0.7150000013625E+00 -0.3231132803084E+01  0.0000000000000E+00
 0.7150000014599E+00 -0.3157615389387E+01  0.0000000000000E+00
 0.7150021904279E+00 -0.3084098002567E+01  0.0000000000000E+00
 0.7151062410191E+00 -0.3010580866809E+01  0.0000000000000E+00
 0.7155083490957E+00 -0.2937066271891E+01  0.0000000000000E+00
 0.7163154066104E+00 -0.2863559587694E+01  0.0000000000000E+00
 0.7175542651729E+00 -0.2790067100603E+01  0.0000000000000E+00
 0.7192160248001E+00 -0.2716594812945E+01  0.0000000000000E+00
 0.7212832059111E+00 -0.2643146234864E+01  0.0000000000000E+00
 0.7237414333836E+00 -0.2569726064901E+01  0.0000000000000E+00
 0.7265841303636E+00 -0.2496339061666E+01  0.0000000000000E+00
 0.7298149768960E+00 -0.2422989996067E+01  0.0000000000000E+00
 0.7334504646414E+00 -0.2349685803918E+01  0.0000000000000E+00
 0.7375226694624E+00 -0.2276436016165E+01  0.0000000000000E+00
 0.7420466218545E+00 -0.2203248992725E+01  0.0000000000000E+00
 0.7470168383875E+00 -0.2130130513309E+01  0.0000000000000E+00
 0.7524407521811E+00 -0.2057088440582E+01  0.0000000000000E+00
 0.7583403396744E+00 -0.1984133466364E+01  0.0000000000000E+00
 0.7647535235011E+00 -0.1911281600768E+01  0.0000000000000E+00
 0.7717364331770E+00 -0.1838554023784E+01  0.0000000000000E+00
 0.7793623797664E+00 -0.1765979519672E+01  0.0000000000000E+00
 0.7877022807740E+00 -0.1693591126067E+01  0.0000000000000E+00
 0.7967304127735E+00 -0.1621398208055E+01  0.0000000000000E+00
 0.8060876234009E+00 -0.1549304059578E+01  0.0000000000000E+00
 0.8153991821340E+00 -0.1477195909041E+01  0.0000000000000E+00
 0.8245356060137E+00 -0.1405034780452E+01  0.0000000000000E+00
 0.8333501365807E+00 -0.1332779095966E+01  0.0000000000000E+00
 0.7425000000904E+00 -0.4186859601281E+01  0.0000000000000E+00
 0.7425000001807E+00 -0.4113342086429E+01  0.0000000000000E+00
 0.7425000002711E+00 -0.4039824684257E+01  0.0000000000000E+00
 0.7425000003615E+00 -0.3966307217550E+01  0.0000000000000E+00
 0.7425000004519E+00 -0.3892789747717E+01  0.0000000000000E+00
 0.7425000005422E+00 -0.3819272288128E+01  0.0000000000000E+00
 0.7425000006326E+00 -0.3745754823288E+01  0.0000000000000E+00
 0.7425000007230E+00 -0.3672237366228E+01  0.0000000000000E+00
 0.7425000008134E+00 -0.3598719903615E+01  0.0000000000000E+00
 0.7425000009037E+00 -0.3525202280347E+01  0.0000000000000E+00
 0.7425000009941E+00 -0.3451684819509E+01  0.0000000000000E+00
 0.7425000010845E+00 -0.3378167379303E+01  0.0000000000000E+00
 0.7425000011748E+00 -0.3304649961005E+01  0.0000000000000E+00
 0.7425000012652E+00 -0.3231132803084E+01  0.0000000000000E+00
 0.7425000013556E+00 -0.3157615389387E+01  0.0000000000000E+00
 0.7425022745040E+00 -0.3084098002567E+01  0.0000000000000E+00
 0.7426103270303E+00 -0.3010580866809E+01  0.0000000000000E+00
 0.7430279007913E+00 -0.2937066271891E+01  0.0000000000000E+00
 0.7438659989687E+00 -0.2863559587694E+01  0.0000000000000E+00
 0.7451525059264E+00 -0.2790067100603E+01  0.0000000000000E+00
 0.7468781793742E+00 -0.2716594812945E+01  0.0000000000000E+00
 0.7490248674397E+00 -0.2643146234864E+01  0.0000000000000E+00
 0.7515776421111E+00 -0.2569726064901E+01  0.0000000000000E+00
 0.7545296735789E+00 -0.2496339061666E+01  0.0000000000000E+00
 0.7578847834277E+00 -0.2422989996067E+01  0.0000000000000E+00
 0.7616600976131E+00 -0.2349685803918E+01  0.0000000000000E+00
 0.7658889256845E+00 -0.2276436016165E+01  0.0000000000000E+00
 0.7705868762335E+00 -0.2203248992725E+01  0.0000000000000E+00
 0.7757482549286E+00 -0.2130130513309E+01  0.0000000000000E+00
 0.7813807807790E+00 -0.2057088440582E+01  0.0000000000000E+00
 0.7875072754711E+00 -0.1984133466364E+01  0.0000000000000E+00
 0.7941671202016E+00 -0.1911281600768E+01  0.0000000000000E+00
 0.8014186033138E+00 -0.1838554023784E+01  0.0000000000000E+00
 0.8093378555282E+00 -0.1765979519671E+01  0.0000000000000E+00
 0.8179985219461E+00 -0.1693591126067E+01  0.0000000000000E+00
 0.8273738897783E+00 -0.1621398208055E+01  0.0000000000000E+00
 0.8370909931086E+00 -0.1549304059578E+01  0.0000000000000E+00
 0.8467606887025E+00 -0.1477195909041E+01  0.0000000000000E+00
 0.8562485134870E+00 -0.1405034780452E+01  0.0000000000000E+00
 0.8654020644468E+00 -0.1332779095966E+01  0.0000000000000E+00
 0.7700000000834E+00 -0.4186859601281E+01  0.0000000000000E+00
 0.7700000001668E+00 -0.4113342086429E+01  0.0000000000000E+00
 0.7700000002503E+00 -0.4039824684257E+01  0.0000000000000E+00
 0.7700000003337E+00 -0.3966307217550E+01  0.0000000000000E+00
 0.7700000004171E+00 -0.3892789747717E+01  0.0000000000000E+00
 0.7700000005005E+00 -0.3819272288128E+01  0.0000000000000E+00
 0.7700000005839E+00 -0.3745754823288E+01  0.0000000000000E+00
 0.7700000006674E+00 -0.3672237366228E+01  0.0000000000000E+00
 0.7700000007508E+00 -0.3598719903615E+01  0.0000000000000E+00
 0.7700000008342E+00 -0.3525202280347E+01  0.0000000000000E+00
 0.7700000009176E+00 -0.3451684819509E+01  0.0000000000000E+00
 0.7700000010011E+00 -0.3378167379303E+01  0.0000000000000E+00
 0.7700000010845E+00 -0.3304649961005E+01  0.0000000000000E+00
 0.7700000011679E+00 -0.3231132803084E+01  0.0000000000000E+00
 0.7700000012513E+00 -0.3157615389387E+01  0.0000000000000E+00
 0.7700023585801E+00 -0.3084098002567E+01  0.0000000000000E+00
 0.7701144130415E+00 -0.3010580866809E+01  0.0000000000000E+00
 0.7705474524870E+00 -0.2937066271891E+01  0.0000000000000E+00
 0.7714165913271E+00 -0.2863559587694E+01  0.0000000000000E+00
 0.7727507466799E+00 -0.2790067100603E+01  0.0000000000000E+00
 0.7745403339483E+00 -0.2716594812945E+01  0.0000000000000E+00
 0.7767665289682E+00 -0.2643146234864E+01  0.0000000000000E+00
 0.7794138508387E+00 -0.2569726064901E+01  0.0000000000000E+00
 0.7824752167941E+00 -0.2496339061666E+01  0.0000000000000E+00
 0.7859545899595E+00 -0.2422989996067E+01  0.0000000000000E+00
 0.7898697305848E+00 -0.2349685803918E+01  0.0000000000000E+00
 0.7942551819066E+00 -0.2276436016165E+01  0.0000000000000E+00
 0.7991271306125E+00 -0.2203248992724E+01  0.0000000000000E+00
 0.8044796714698E+00 -0.2130130513309E+01  0.0000000000000E+00
 0.8103208093768E+00 -0.2057088440582E+01  0.0000000000000E+00
 0.8166742112677E+00 -0.1984133466364E+01  0.0000000000000E+00
 0.8235807169020E+00 -0.1911281600768E+01  0.0000000000000E+00
 0.8311007734505E+00 -0.1838554023784E+01  0.0000000000000E+00
 0.8393133312901E+00 -0.1765979519671E+01  0.0000000000000E+00
 0.8482947631181E+00 -0.1693591126067E+01  0.0000000000000E+00
 0.8580173667831E+00 -0.1621398208055E+01  0.0000000000000E+00
 0.8680943628163E+00 -0.1549304059578E+01  0.0000000000000E+00
 0.8781221952709E+00 -0.1477195909041E+01  0.0000000000000E+00
 0.8879614209602E+00 -0.1405034780452E+01  0.0000000000000E+00
 0.8974539923129E+00 -0.1332779095966E+01  0.0000000000000E+00
 0.7975000000765E+00 -0.4186859601281E+01  0.0000000000000E+00
 0.7975000001529E+00 -0.4113342086429E+01  0.0000000000000E+00
 0.7975000002294E+00 -0.4039824684257E+01  0.0000000000000E+00
 0.7975000003059E+00 -0.3966307217550E+01  0.0000000000000E+00
 0.7975000003823E+00 -0.3892789747717E+01  0.0000000000000E+00
 0.7975000004588E+00 -0.3819272288128E+01  0.0000000000000E+00
 0.7975000005353E+00 -0.3745754823288E+01  0.0000000000000E+00
 0.7975000006118E+00 -0.3672237366228E+01  0.0000000000000E+00
 0.7975000006882E+00 -0.3598719903615E+01  0.0000000000000E+00
 0.7975000007647E+00 -0.3525202280347E+01  0.0000000000000E+00
 0.7975000008412E+00 -0.3451684819509E+01  0.0000000000000E+00
 0.7975000009176E+00 -0.3378167379303E+01  0.0000000000000E+00
 0.7975000009941E+00 -0.3304649961005E+01  0.0000000000000E+00
 0.7975000010706E+00 -0.3231132803084E+01  0.0000000000000E+00
 0.7975000011470E+00 -0.3157615389387E+01  0.0000000000000E+00
 0.7975024426562E+00 -0.3084098002567E+01  0.0000000000000E+00
 0.7976184990527E+00 -0.3010580866809E+01  0.0000000000000E+00
 0.7980670041826E+00 -0.2937066271891E+01  0.0000000000000E+00
 0.7989671836854E+00 -0.2863559587694E+01  0.0000000000000E+00
 0.8003489874333E+00 -0.2790067100603E+01  0.0000000000000E+00
 0.8022024885224E+00 -0.2716594812945E+01  0.0000000000000E+00
 0.8045081904968E+00 -0.2643146234864E+01  0.0000000000000E+00
 0.8072500595663E+00 -0.2569726064901E+01  0.0000000000000E+00
 0.8104207600094E+00 -0.2496339061666E+01  0.0000000000000E+00
 0.8140243964912E+00 -0.2422989996067E+01  0.0000000000000E+00
 0.8180793635565E+00 -0.2349685803918E+01  0.0000000000000E+00
 0.8226214381287E+00 -0.2276436016165E+01  0.0000000000000E+00
 0.8276673849915E+00 -0.2203248992724E+01  0.0000000000000E+00
 0.8332110880109E+00 -0.2130130513309E+01  0.0000000000000E+00
 0.8392608379746E+00 -0.2057088440582E+01  0.0000000000000E+00
 0.8458411470644E+00 -0.1984133466364E+01  0.0000000000000E+00
 0.8529943136025E+00 -0.1911281600768E+01  0.0000000000000E+00
 0.8607829435873E+00 -0.1838554023783E+01  0.0000000000000E+00
 0.8692888070519E+00 -0.1765979519671E+01  0.0000000000000E+00
 0.8785910042902E+00 -0.1693591126067E+01  0.0000000000000E+00
 0.8886608437878E+00 -0.1621398208055E+01  0.0000000000000E+00
 0.8990977325239E+00 -0.1549304059578E+01  0.0000000000000E+00
 0.9094837018394E+00 -0.1477195909041E+01  0.0000000000000E+00
 0.9196743284335E+00 -0.1405034780452E+01  0.0000000000000E+00
 0.9295059201790E+00 -0.1332779095966E+01  0.0000000000000E+00
 0.8250000000695E+00 -0.4186859601281E+01  0.0000000000000E+00
 0.8250000001390E+00 -0.4113342086429E+01  0.0000000000000E+00
 0.8250000002086E+00 -0.4039824684257E+01  0.0000000000000E+00
 0.8250000002781E+00 -0.3966307217550E+01  0.0000000000000E+00
 0.8250000003476E+00 -0.3892789747717E+01  0.0000000000000E+00
 0.8250000004171E+00 -0.3819272288128E+01  0.0000000000000E+00
 0.8250000004866E+00 -0.3745754823288E+01  0.0000000000000E+00
 0.8250000005561E+00 -0.3672237366228E+01  0.0000000000000E+00
 0.8250000006257E+00 -0.3598719903615E+01  0.0000000000000E+00
 0.8250000006952E+00 -0.3525202280347E+01  0.0000000000000E+00
 0.8250000007647E+00 -0.3451684819509E+01  0.0000000000000E+00
 0.8250000008342E+00 -0.3378167379303E+01  0.0000000000000E+00
 0.8250000009037E+00 -0.3304649961005E+01  0.0000000000000E+00
 0.8250000009732E+00 -0.3231132803084E+01  0.0000000000000E+00
 0.8250000010428E+00 -0.3157615389387E+01  0.0000000000000E+00
 0.8250025267323E+00 -0.3084098002567E+01  0.0000000000000E+00
 0.8251225850639E+00 -0.3010580866809E+01  0.0000000000000E+00
 0.8255865558782E+00 -0.2937066271891E+01  0.0000000000000E+00
 0.8265177760437E+00 -0.2863559587694E+01  0.0000000000000E+00
 0.8279472281868E+00 -0.2790067100603E+01  0.0000000000000E+00
 0.8298646430965E+00 -0.2716594812945E+01  0.0000000000000E+00
 0.8322498520254E+00 -0.2643146234864E+01  0.0000000000000E+00
 0.8350862682939E+00 -0.2569726064901E+01  0.0000000000000E+00
 0.8383663032246E+00 -0.2496339061666E+01  0.0000000000000E+00
 0.8420942030230E+00 -0.2422989996067E+01  0.0000000000000E+00
 0.8462889965281E+00 -0.2349685803918E+01  0.0000000000000E+00
 0.8509876943508E+00 -0.2276436016165E+01  0.0000000000000E+00
 0.8562076393705E+00 -0.2203248992724E+01  0.0000000000000E+00
 0.8619425045521E+00 -0.2130130513309E+01  0.0000000000000E+00
 0.8682008665724E+00 -0.2057088440582E+01  0.0000000000000E+00
 0.8750080828610E+00 -0.1984133466364E+01  0.0000000000000E+00
 0.8824079103029E+00 -0.1911281600768E+01  0.0000000000000E+00
 0.8904651137241E+00 -0.1838554023783E+01  0.0000000000000E+00
 0.8992642828138E+00 -0.1765979519671E+01  0.0000000000000E+00
 0.9088872454622E+00 -0.1693591126067E+01  0.0000000000000E+00
 0.9193043207926E+00 -0.1621398208055E+01  0.0000000000000E+00
 0.9301011022316E+00 -0.1549304059578E+01  0.0000000000000E+00
 0.9408452084078E+00 -0.1477195909041E+01  0.0000000000000E+00
 0.9513872359068E+00 -0.1405034780452E+01  0.0000000000000E+00
 0.9615578480451E+00 -0.1332779095966E+01  0.0000000000000E+00
 0.8525000000626E+00 -0.4186859601281E+01  0.0000000000000E+00
 0.8525000001251E+00 -0.4113342086429E+01  0.0000000000000E+00
 0.8525000001877E+00 -0.4039824684257E+01  0.0000000000000E+00
 0.8525000002503E+00 -0.3966307217550E+01  0.0000000000000E+00
 0.8525000003128E+00 -0.3892789747717E+01  0.0000000000000E+00
 0.8525000003754E+00 -0.3819272288128E+01  0.0000000000000E+00
 0.8525000004380E+00 -0.3745754823288E+01  0.0000000000000E+00
 0.8525000005005E+00 -0.3672237366228E+01  0.0000000000000E+00
 0.8525000005631E+00 -0.3598719903615E+01  0.0000000000000E+00
 0.8525000006257E+00 -0.3525202280347E+01  0.0000000000000E+00
 0.8525000006882E+00 -0.3451684819509E+01  0.0000000000000E+00
 0.8525000007508E+00 -0.3378167379303E+01  0.0000000000000E+00
 0.8525000008134E+00 -0.3304649961005E+01  0.0000000000000E+00
 0.8525000008759E+00 -0.3231132803084E+01  0.0000000000000E+00
 0.8525000009385E+00 -0.3157615389387E+01  0.0000000000000E+00
 0.8525026108084E+00 -0.3084098002567E+01  0.0000000000000E+00
 0.8526266710751E+00 -0.3010580866809E+01  0.0000000000000E+00
 0.8531061075738E+00 -0.2937066271891E+01  0.0000000000000E+00
 0.8540683684020E+00 -0.2863559587694E+01  0.0000000000000E+00
 0.8555454689403E+00 -0.2790067100603E+01  0.0000000000000E+00
 0.8575267976705E+00 -0.2716594812945E+01  0.0000000000000E+00
 0.8599915135539E+00 -0.2643146234864E+01  0.0000000000000E+00
 0.8629224770215E+00 -0.2569726064901E+01  0.0000000000000E+00
 0.8663118464399E+00 -0.2496339061666E+01  0.0000000000000E+00
 0.8701640095547E+00 -0.2422989996067E+01  0.0000000000000E+00
 0.8744986294998E+00 -0.2349685803918E+01  0.0000000000000E+00
 0.8793539505729E+00 -0.2276436016165E+01  0.0000000000000E+00
 0.8847478937495E+00 -0.2203248992724E+01  0.0000000000000E+00
 0.8906739210932E+00 -0.2130130513309E+01  0.0000000000000E+00
 0.8971408951702E+00 -0.2057088440582E+01  0.0000000000000E+00
 0.9041750186577E+00 -0.1984133466364E+01  0.0000000000000E+00
 0.9118215070034E+00 -0.1911281600768E+01  0.0000000000000E+00
 0.9201472838608E+00 -0.1838554023783E+01  0.0000000000000E+00
 0.9292397585756E+00 -0.1765979519671E+01  0.0000000000000E+00
 0.9391834866342E+00 -0.1693591126067E+01  0.0000000000000E+00
 0.9499477977974E+00 -0.1621398208055E+01  0.0000000000000E+00
 0.9611044719393E+00 -0.1549304059578E+01  0.0000000000000E+00
 0.9722067149763E+00 -0.1477195909041E+01  0.0000000000000E+00
 0.9831001433801E+00 -0.1405034780452E+01  0.0000000000000E+00
 0.9936097759111E+00 -0.1332779095966E+01  0.0000000000000E+00
 0.8800000000556E+00 -0.4186859601281E+01  0.0000000000000E+00
 0.8800000001112E+00 -0.4113342086429E+01  0.0000000000000E+00
 0.8800000001668E+00 -0.4039824684257E+01  0.0000000000000E+00
 0.8800000002225E+00 -0.3966307217550E+01  0.0000000000000E+00
 0.8800000002781E+00 -0.3892789747717E+01  0.0000000000000E+00
 0.8800000003337E+00 -0.3819272288128E+01  0.0000000000000E+00
 0.8800000003893E+00 -0.3745754823288E+01  0.0000000000000E+00
 0.8800000004449E+00 -0.3672237366228E+01  0.0000000000000E+00
 0.8800000005005E+00 -0.3598719903615E+01  0.0000000000000E+00
 0.8800000005561E+00 -0.3525202280347E+01  0.0000000000000E+00
 0.8800000006118E+00 -0.3451684819509E+01  0.0000000000000E+00
 0.8800000006674E+00 -0.3378167379303E+01  0.0000000000000E+00
 0.8800000007230E+00 -0.3304649961005E+01  0.0000000000000E+00
 0.8800000007786E+00 -0.3231132803084E+01  0.0000000000000E+00
 0.8800000008342E+00 -0.3157615389387E+01  0.0000000000000E+00
 0.8800026948845E+00 -0.3084098002567E+01  0.0000000000000E+00
 0.8801307570862E+00 -0.3010580866809E+01  0.0000000000000E+00
 0.8806256592695E+00 -0.2937066271891E+01  0.0000000000000E+00
 0.8816189607603E+00 -0.2863559587694E+01  0.0000000000000E+00
 0.8831437096938E+00 -0.2790067100603E+01  0.0000000000000E+00
 0.8851889522446E+00 -0.2716594812945E+01  0.0000000000000E+00
 0.8877331750825E+00 -0.2643146234864E+01  0.0000000000000E+00
 0.8907586857491E+00 -0.2569726064901E+01  0.0000000000000E+00
 0.8942573896551E+00 -0.2496339061666E+01  0.0000000000000E+00
 0.8982338160864E+00 -0.2422989996067E+01  0.0000000000000E+00
 0.9027082624715E+00 -0.2349685803918E+01  0.0000000000000E+00
 0.9077202067950E+00 -0.2276436016165E+01  0.0000000000000E+00
 0.9132881481285E+00 -0.2203248992724E+01  0.0000000000000E+00
 0.9194053376344E+00 -0.2130130513309E+01  0.0000000000000E+00
 0.9260809237681E+00 -0.2057088440582E+01  0.0000000000000E+00
 0.9333419544543E+00 -0.1984133466364E+01  0.0000000000000E+00
 0.9412351037039E+00 -0.1911281600768E+01  0.0000000000000E+00
 0.9498294539976E+00 -0.1838554023783E+01  0.0000000000000E+00
 0.9592152343375E+00 -0.1765979519671E+01  0.0000000000000E+00
 0.9694797278063E+00 -0.1693591126067E+01  0.0000000000000E+00
 0.9805912748022E+00 -0.1621398208055E+01  0.0000000000000E+00
 0.9921078416470E+00 -0.1549304059578E+01  0.0000000000000E+00
 0.1003568221545E+01 -0.1477195909041E+01  0.0000000000000E+00
 0.1014813050853E+01 -0.1405034780452E+01  0.0000000000000E+00
 0.1025661703777E+01 -0.1332779095966E+01  0.0000000000000E+00
 0.9075000000487E+00 -0.4186859601281E+01  0.0000000000000E+00
 0.9075000000973E+00 -0.4113342086429E+01  0.0000000000000E+00
 0.9075000001460E+00 -0.4039824684257E+01  0.0000000000000E+00
 0.9075000001946E+00 -0.3966307217550E+01  0.0000000000000E+00
 0.9075000002433E+00 -0.3892789747717E+01  0.0000000000000E+00
 0.9075000002920E+00 -0.3819272288128E+01  0.0000000000000E+00
 0.9075000003406E+00 -0.3745754823288E+01  0.0000000000000E+00
 0.9075000003893E+00 -0.3672237366228E+01  0.0000000000000E+00
 0.9075000004380E+00 -0.3598719903615E+01  0.0000000000000E+00
 0.9075000004866E+00 -0.3525202280347E+01  0.0000000000000E+00
 0.9075000005353E+00 -0.3451684819509E+01  0.0000000000000E+00
 0.9075000005839E+00 -0.3378167379303E+01  0.0000000000000E+00
 0.9075000006326E+00 -0.3304649961005E+01  0.0000000000000E+00
 0.9075000006813E+00 -0.3231132803084E+01  0.0000000000000E+00
 0.9075000007299E+00 -0.3157615389387E+01  0.0000000000000E+00
 0.9075027789606E+00 -0.3084098002567E+01  0.0000000000000E+00
 0.9076348430974E+00 -0.3010580866809E+01  0.0000000000000E+00
 0.9081452109651E+00 -0.2937066271891E+01  0.0000000000000E+00
 0.9091695531186E+00 -0.2863559587694E+01  0.0000000000000E+00
 0.9107419504473E+00 -0.2790067100603E+01  0.0000000000000E+00
 0.9128511068187E+00 -0.2716594812945E+01  0.0000000000000E+00
 0.9154748366110E+00 -0.2643146234864E+01  0.0000000000000E+00
 0.9185948944766E+00 -0.2569726064901E+01  0.0000000000000E+00
 0.9222029328704E+00 -0.2496339061666E+01  0.0000000000000E+00
 0.9263036226182E+00 -0.2422989996067E+01  0.0000000000000E+00
 0.9309178954432E+00 -0.2349685803918E+01  0.0000000000000E+00
 0.9360864630172E+00 -0.2276436016165E+01  0.0000000000000E+00
 0.9418284025075E+00 -0.2203248992724E+01  0.0000000000000E+00
 0.9481367541755E+00 -0.2130130513309E+01  0.0000000000000E+00
 0.9550209523659E+00 -0.2057088440582E+01  0.0000000000000E+00
 0.9625088902510E+00 -0.1984133466364E+01  0.0000000000000E+00
 0.9706487004043E+00 -0.1911281600768E+01  0.0000000000000E+00
 0.9795116241343E+00 -0.1838554023783E+01  0.0000000000000E+00
 0.9891907100993E+00 -0.1765979519671E+01  0.0000000000000E+00
 0.9997759689783E+00 -0.1693591126066E+01  0.0000000000000E+00
 0.1011234751807E+01 -0.1621398208055E+01  0.0000000000000E+00
 0.1023111211355E+01 -0.1549304059578E+01  0.0000000000000E+00
 0.1034929728113E+01 -0.1477195909041E+01  0.0000000000000E+00
 0.1046525958327E+01 -0.1405034780452E+01  0.0000000000000E+00
 0.1057713631643E+01 -0.1332779095966E+01  0.0000000000000E+00
 0.9350000000417E+00 -0.4186859601281E+01  0.0000000000000E+00
 0.9350000000834E+00 -0.4113342086429E+01  0.0000000000000E+00
 0.9350000001251E+00 -0.4039824684257E+01  0.0000000000000E+00
 0.9350000001668E+00 -0.3966307217550E+01  0.0000000000000E+00
 0.9350000002086E+00 -0.3892789747717E+01  0.0000000000000E+00
 0.9350000002503E+00 -0.3819272288128E+01  0.0000000000000E+00
 0.9350000002920E+00 -0.3745754823288E+01  0.0000000000000E+00
 0.9350000003337E+00 -0.3672237366228E+01  0.0000000000000E+00
 0.9350000003754E+00 -0.3598719903615E+01  0.0000000000000E+00
 0.9350000004171E+00 -0.3525202280347E+01  0.0000000000000E+00
 0.9350000004588E+00 -0.3451684819509E+01  0.0000000000000E+00
 0.9350000005005E+00 -0.3378167379303E+01  0.0000000000000E+00
 0.9350000005422E+00 -0.3304649961005E+01  0.0000000000000E+00
 0.9350000005839E+00 -0.3231132803084E+01  0.0000000000000E+00
 0.9350000006257E+00 -0.3157615389387E+01  0.0000000000000E+00
 0.9350028630367E+00 -0.3084098002567E+01  0.0000000000000E+00
 0.9351389291086E+00 -0.3010580866809E+01  0.0000000000000E+00
 0.9356647626607E+00 -0.2937066271891E+01  0.0000000000000E+00
 0.9367201454770E+00 -0.2863559587694E+01  0.0000000000000E+00
 0.9383401912008E+00 -0.2790067100603E+01  0.0000000000000E+00
 0.9405132613928E+00 -0.2716594812945E+01  0.0000000000000E+00
 0.9432164981396E+00 -0.2643146234864E+01  0.0000000000000E+00
 0.9464311032042E+00 -0.2569726064901E+01  0.0000000000000E+00
 0.9501484760856E+00 -0.2496339061666E+01  0.0000000000000E+00
 0.9543734291499E+00 -0.2422989996067E+01  0.0000000000000E+00
 0.9591275284149E+00 -0.2349685803918E+01  0.0000000000000E+00
 0.9644527192393E+00 -0.2276436016165E+01  0.0000000000000E+00
 0.9703686568865E+00 -0.2203248992724E+01  0.0000000000000E+00
 0.9768681707167E+00 -0.2130130513309E+01  0.0000000000000E+00
 0.9839609809637E+00 -0.2057088440582E+01  0.0000000000000E+00
 0.9916758260476E+00 -0.1984133466364E+01  0.0000000000000E+00
 0.1000062297105E+01 -0.1911281600768E+01  0.0000000000000E+00
 0.1009193794271E+01 -0.1838554023783E+01  0.0000000000000E+00
 0.1019166185861E+01 -0.1765979519671E+01  0.0000000000000E+00
 0.1030072210150E+01 -0.1693591126066E+01  0.0000000000000E+00
 0.1041878228812E+01 -0.1621398208055E+01  0.0000000000000E+00
 0.1054114581062E+01 -0.1549304059578E+01  0.0000000000000E+00
 0.1066291234682E+01 -0.1477195909041E+01  0.0000000000000E+00
 0.1078238865800E+01 -0.1405034780452E+01  0.0000000000000E+00
 0.1089765559509E+01 -0.1332779095966E+01  0.0000000000000E+00
 0.9625000000348E+00 -0.4186859601281E+01  0.0000000000000E+00
 0.9625000000695E+00 -0.4113342086429E+01  0.0000000000000E+00
 0.9625000001043E+00 -0.4039824684257E+01  0.0000000000000E+00
 0.9625000001390E+00 -0.3966307217550E+01  0.0000000000000E+00
 0.9625000001738E+00 -0.3892789747717E+01  0.0000000000000E+00
 0.9625000002086E+00 -0.3819272288128E+01  0.0000000000000E+00
 0.9625000002433E+00 -0.3745754823288E+01  0.0000000000000E+00
 0.9625000002781E+00 -0.3672237366228E+01  0.0000000000000E+00
 0.9625000003128E+00 -0.3598719903615E+01  0.0000000000000E+00
 0.9625000003476E+00 -0.3525202280347E+01  0.0000000000000E+00
 0.9625000003823E+00 -0.3451684819509E+01  0.0000000000000E+00
 0.9625000004171E+00 -0.3378167379303E+01  0.0000000000000E+00
 0.9625000004519E+00 -0.3304649961005E+01  0.0000000000000E+00
 0.9625000004866E+00 -0.3231132803084E+01  0.0000000000000E+00
 0.9625000005214E+00 -0.3157615389387E+01  0.0000000000000E+00
 0.9625029471128E+00 -0.3084098002567E+01  0.0000000000000E+00
 0.9626430151198E+00 -0.3010580866809E+01  0.0000000000000E+00
 0.9631843143563E+00 -0.2937066271891E+01  0.0000000000000E+00
 0.9642707378353E+00 -0.2863559587694E+01  0.0000000000000E+00
 0.9659384319542E+00 -0.2790067100603E+01  0.0000000000000E+00
 0.9681754159669E+00 -0.2716594812945E+01  0.0000000000000E+00
 0.9709581596681E+00 -0.2643146234864E+01  0.0000000000000E+00
 0.9742673119318E+00 -0.2569726064901E+01  0.0000000000000E+00
 0.9780940193009E+00 -0.2496339061666E+01  0.0000000000000E+00
 0.9824432356817E+00 -0.2422989996067E+01  0.0000000000000E+00
 0.9873371613866E+00 -0.2349685803918E+01  0.0000000000000E+00
 0.9928189754614E+00 -0.2276436016165E+01  0.0000000000000E+00
 0.9989089112655E+00 -0.2203248992724E+01  0.0000000000000E+00
 0.1005599587258E+01 -0.2130130513309E+01  0.0000000000000E+00
 0.1012901009562E+01 -0.2057088440582E+01  0.0000000000000E+00
 0.1020842761844E+01 -0.1984133466364E+01  0.0000000000000E+00
 0.1029475893805E+01 -0.1911281600768E+01  0.0000000000000E+00
 0.1038875964408E+01 -0.1838554023783E+01  0.0000000000000E+00
 0.1049141661623E+01 -0.1765979519671E+01  0.0000000000000E+00
 0.1060368451322E+01 -0.1693591126066E+01  0.0000000000000E+00
 0.1072521705817E+01 -0.1621398208055E+01  0.0000000000000E+00
 0.1085117950770E+01 -0.1549304059578E+01  0.0000000000000E+00
 0.1097652741250E+01 -0.1477195909041E+01  0.0000000000000E+00
 0.1109951773273E+01 -0.1405034780452E+01  0.0000000000000E+00
 0.1121817487376E+01 -0.1332779095966E+01  0.0000000000000E+00
 0.9900000000278E+00 -0.4186859601281E+01  0.0000000000000E+00
 0.9900000000556E+00 -0.4113342086429E+01  0.0000000000000E+00
 0.9900000000834E+00 -0.4039824684257E+01  0.0000000000000E+00
 0.9900000001112E+00 -0.3966307217550E+01  0.0000000000000E+00
 0.9900000001390E+00 -0.3892789747717E+01  0.0000000000000E+00
 0.9900000001668E+00 -0.3819272288128E+01  0.0000000000000E+00
 0.9900000001946E+00 -0.3745754823288E+01  0.0000000000000E+00
 0.9900000002225E+00 -0.3672237366228E+01  0.0000000000000E+00
 0.9900000002503E+00 -0.3598719903615E+01  0.0000000000000E+00
 0.9900000002781E+00 -0.3525202280347E+01  0.0000000000000E+00
 0.9900000003059E+00 -0.3451684819509E+01  0.0000000000000E+00
 0.9900000003337E+00 -0.3378167379303E+01  0.0000000000000E+00
 0.9900000003615E+00 -0.3304649961005E+01  0.0000000000000E+00
 0.9900000003893E+00 -0.3231132803084E+01  0.0000000000000E+00
 0.9900000004171E+00 -0.3157615389387E+01  0.0000000000000E+00
 0.9900030311889E+00 -0.3084098002567E+01  0.0000000000000E+00
 0.9901471011310E+00 -0.3010580866809E+01  0.0000000000000E+00
 0.9907038660519E+00 -0.2937066271891E+01  0.0000000000000E+00
 0.9918213301936E+00 -0.2863559587694E+01  0.0000000000000E+00
 0.9935366727077E+00 -0.2790067100603E+01  0.0000000000000E+00
 0.9958375705410E+00 -0.2716594812945E+01  0.0000000000000E+00
 0.9986998211967E+00 -0.2643146234864E+01  0.0000000000000E+00
 0.1002103520659E+01 -0.2569726064901E+01  0.0000000000000E+00
 0.1006039562516E+01 -0.2496339061666E+01  0.0000000000000E+00
 0.1010513042213E+01 -0.2422989996067E+01  0.0000000000000E+00
 0.1015546794358E+01 -0.2349685803918E+01  0.0000000000000E+00
 0.1021185231684E+01 -0.2276436016165E+01  0.0000000000000E+00
 0.1027449165644E+01 -0.2203248992724E+01  0.0000000000000E+00
 0.1034331003799E+01 -0.2130130513309E+01  0.0000000000000E+00
 0.1041841038159E+01 -0.2057088440582E+01  0.0000000000000E+00
 0.1050009697641E+01 -0.1984133466364E+01  0.0000000000000E+00
 0.1058889490506E+01 -0.1911281600768E+01  0.0000000000000E+00
 0.1068558134545E+01 -0.1838554023783E+01  0.0000000000000E+00
 0.1079117137385E+01 -0.1765979519671E+01  0.0000000000000E+00
 0.1090664692494E+01 -0.1693591126066E+01  0.0000000000000E+00
 0.1103165182821E+01 -0.1621398208054E+01  0.0000000000000E+00
 0.1116121320478E+01 -0.1549304059577E+01  0.0000000000000E+00
 0.1129014247819E+01 -0.1477195909041E+01  0.0000000000000E+00
 0.1141664680747E+01 -0.1405034780452E+01  0.0000000000000E+00
 0.1153869415242E+01 -0.1332779095966E+01  0.0000000000000E+00
 0.1017500000021E+01 -0.4186859601281E+01  0.0000000000000E+00
 0.1017500000042E+01 -0.4113342086429E+01  0.0000000000000E+00
 0.1017500000063E+01 -0.4039824684257E+01  0.0000000000000E+00
 0.1017500000083E+01 -0.3966307217550E+01  0.0000000000000E+00
 0.1017500000104E+01 -0.3892789747717E+01  0.0000000000000E+00
 0.1017500000125E+01 -0.3819272288128E+01  0.0000000000000E+00
 0.1017500000146E+01 -0.3745754823288E+01  0.0000000000000E+00
 0.1017500000167E+01 -0.3672237366228E+01  0.0000000000000E+00
 0.1017500000188E+01 -0.3598719903615E+01  0.0000000000000E+00
 0.1017500000209E+01 -0.3525202280347E+01  0.0000000000000E+00
 0.1017500000229E+01 -0.3451684819509E+01  0.0000000000000E+00
 0.1017500000250E+01 -0.3378167379303E+01  0.0000000000000E+00
 0.1017500000271E+01 -0.3304649961005E+01  0.0000000000000E+00
 0.1017500000292E+01 -0.3231132803084E+01  0.0000000000000E+00
 0.1017500000313E+01 -0.3157615389387E+01  0.0000000000000E+00
 0.1017503115265E+01 -0.3084098002567E+01  0.0000000000000E+00
 0.1017651187142E+01 -0.3010580866809E+01  0.0000000000000E+00
 0.1018223417748E+01 -0.2937066271891E+01  0.0000000000000E+00
 0.1019371922552E+01 -0.2863559587694E+01  0.0000000000000E+00
 0.1021134913461E+01 -0.2790067100603E+01  0.0000000000000E+00
 0.1023499725115E+01 -0.2716594812945E+01  0.0000000000000E+00
 0.1026441482725E+01 -0.2643146234864E+01  0.0000000000000E+00
 0.1029939729387E+01 -0.2569726064901E+01  0.0000000000000E+00
 0.1033985105731E+01 -0.2496339061666E+01  0.0000000000000E+00
 0.1038582848745E+01 -0.2422989996067E+01  0.0000000000000E+00
 0.1043756427330E+01 -0.2349685803918E+01  0.0000000000000E+00
 0.1049551487906E+01 -0.2276436016165E+01  0.0000000000000E+00
 0.1055989420023E+01 -0.2203248992724E+01  0.0000000000000E+00
 0.1063062420340E+01 -0.2130130513309E+01  0.0000000000000E+00
 0.1070781066757E+01 -0.2057088440582E+01  0.0000000000000E+00
 0.1079176633438E+01 -0.1984133466364E+01  0.0000000000000E+00
 0.1088303087206E+01 -0.1911281600768E+01  0.0000000000000E+00
 0.1098240304681E+01 -0.1838554023783E+01  0.0000000000000E+00
 0.1109092613147E+01 -0.1765979519671E+01  0.0000000000000E+00
 0.1120960933667E+01 -0.1693591126066E+01  0.0000000000000E+00
 0.1133808659826E+01 -0.1621398208054E+01  0.0000000000000E+00
 0.1147124690185E+01 -0.1549304059577E+01  0.0000000000000E+00
 0.1160375754387E+01 -0.1477195909041E+01  0.0000000000000E+00
 0.1173377588220E+01 -0.1405034780452E+01  0.0000000000000E+00
 0.1185921343108E+01 -0.1332779095966E+01  0.0000000000000E+00
 0.1045000000014E+01 -0.4186859601281E+01  0.0000000000000E+00
 0.1045000000028E+01 -0.4113342086429E+01  0.0000000000000E+00
 0.1045000000042E+01 -0.4039824684257E+01  0.0000000000000E+00
 0.1045000000056E+01 -0.3966307217550E+01  0.0000000000000E+00
 0.1045000000070E+01 -0.3892789747717E+01  0.0000000000000E+00
 0.1045000000083E+01 -0.3819272288128E+01  0.0000000000000E+00
 0.1045000000097E+01 -0.3745754823288E+01  0.0000000000000E+00
 0.1045000000111E+01 -0.3672237366228E+01  0.0000000000000E+00
 0.1045000000125E+01 -0.3598719903615E+01  0.0000000000000E+00
 0.1045000000139E+01 -0.3525202280347E+01  0.0000000000000E+00
 0.1045000000153E+01 -0.3451684819509E+01  0.0000000000000E+00
 0.1045000000167E+01 -0.3378167379303E+01  0.0000000000000E+00
 0.1045000000181E+01 -0.3304649961005E+01  0.0000000000000E+00
 0.1045000000195E+01 -0.3231132803084E+01  0.0000000000000E+00
 0.1045000000209E+01 -0.3157615389387E+01  0.0000000000000E+00
 0.1045003199341E+01 -0.3084098002567E+01  0.0000000000000E+00
 0.1045155273153E+01 -0.3010580866809E+01  0.0000000000000E+00
 0.1045742969443E+01 -0.2937066271891E+01  0.0000000000000E+00
 0.1046922514910E+01 -0.2863559587694E+01  0.0000000000000E+00
 0.1048733154215E+01 -0.2790067100603E+01  0.0000000000000E+00
 0.1051161879689E+01 -0.2716594812945E+01  0.0000000000000E+00
 0.1054183144254E+01 -0.2643146234864E+01  0.0000000000000E+00
 0.1057775938115E+01 -0.2569726064901E+01  0.0000000000000E+00
 0.1061930648947E+01 -0.2496339061666E+01  0.0000000000000E+00
 0.1066652655277E+01 -0.2422989996067E+01  0.0000000000000E+00
 0.1071966060302E+01 -0.2349685803918E+01  0.0000000000000E+00
 0.1077917744128E+01 -0.2276436016165E+01  0.0000000000000E+00
 0.1084529674402E+01 -0.2203248992724E+01  0.0000000000000E+00
 0.1091793836881E+01 -0.2130130513309E+01  0.0000000000000E+00
 0.1099721095355E+01 -0.2057088440582E+01  0.0000000000000E+00
 0.1108343569234E+01 -0.1984133466364E+01  0.0000000000000E+00
 0.1117716683907E+01 -0.1911281600768E+01  0.0000000000000E+00
 0.1127922474818E+01 -0.1838554023783E+01  0.0000000000000E+00
 0.1139068088909E+01 -0.1765979519671E+01  0.0000000000000E+00
 0.1151257174839E+01 -0.1693591126066E+01  0.0000000000000E+00
 0.1164452136831E+01 -0.1621398208054E+01  0.0000000000000E+00
 0.1178128059893E+01 -0.1549304059577E+01  0.0000000000000E+00
 0.1191737260956E+01 -0.1477195909041E+01  0.0000000000000E+00
 0.1205090495693E+01 -0.1405034780452E+01  0.0000000000000E+00
 0.1217973270974E+01 -0.1332779095966E+01  0.0000000000000E+00
 0.1072500000007E+01 -0.4186859601281E+01  0.0000000000000E+00
 0.1072500000014E+01 -0.4113342086429E+01  0.0000000000000E+00
 0.1072500000021E+01 -0.4039824684257E+01  0.0000000000000E+00
 0.1072500000028E+01 -0.3966307217550E+01  0.0000000000000E+00
 0.1072500000035E+01 -0.3892789747717E+01  0.0000000000000E+00
 0.1072500000042E+01 -0.3819272288128E+01  0.0000000000000E+00
 0.1072500000049E+01 -0.3745754823288E+01  0.0000000000000E+00
 0.1072500000056E+01 -0.3672237366228E+01  0.0000000000000E+00
 0.1072500000063E+01 -0.3598719903615E+01  0.0000000000000E+00
 0.1072500000070E+01 -0.3525202280347E+01  0.0000000000000E+00
 0.1072500000076E+01 -0.3451684819509E+01  0.0000000000000E+00
 0.1072500000083E+01 -0.3378167379303E+01  0.0000000000000E+00
 0.1072500000090E+01 -0.3304649961005E+01  0.0000000000000E+00
 0.1072500000097E+01 -0.3231132803084E+01  0.0000000000000E+00
 0.1072500000104E+01 -0.3157615389387E+01  0.0000000000000E+00
 0.1072503283417E+01 -0.3084098002567E+01  0.0000000000000E+00
 0.1072659359165E+01 -0.3010580866809E+01  0.0000000000000E+00
 0.1073262521139E+01 -0.2937066271891E+01  0.0000000000000E+00
 0.1074473107269E+01 -0.2863559587694E+01  0.0000000000000E+00
 0.1076331394968E+01 -0.2790067100603E+01  0.0000000000000E+00
 0.1078824034263E+01 -0.2716594812945E+01  0.0000000000000E+00
 0.1081924805782E+01 -0.2643146234864E+01  0.0000000000000E+00
 0.1085612146842E+01 -0.2569726064901E+01  0.0000000000000E+00
 0.1089876192162E+01 -0.2496339061666E+01  0.0000000000000E+00
 0.1094722461809E+01 -0.2422989996067E+01  0.0000000000000E+00
 0.1100175693273E+01 -0.2349685803918E+01  0.0000000000000E+00
 0.1106284000350E+01 -0.2276436016165E+01  0.0000000000000E+00
 0.1113069928781E+01 -0.2203248992724E+01  0.0000000000000E+00
 0.1120525253422E+01 -0.2130130513309E+01  0.0000000000000E+00
 0.1128661123953E+01 -0.2057088440582E+01  0.0000000000000E+00
 0.1137510505031E+01 -0.1984133466364E+01  0.0000000000000E+00
 0.1147130280607E+01 -0.1911281600768E+01  0.0000000000000E+00
 0.1157604644955E+01 -0.1838554023783E+01  0.0000000000000E+00
 0.1169043564670E+01 -0.1765979519671E+01  0.0000000000000E+00
 0.1181553416011E+01 -0.1693591126066E+01  0.0000000000000E+00
 0.1195095613836E+01 -0.1621398208054E+01  0.0000000000000E+00
 0.1209131429601E+01 -0.1549304059577E+01  0.0000000000000E+00
 0.1223098767524E+01 -0.1477195909041E+01  0.0000000000000E+00
 0.1236803403166E+01 -0.1405034780452E+01  0.0000000000000E+00
 0.1250025198840E+01 -0.1332779095966E+01  0.0000000000000E+00
-0.6146632205864E+00 -0.1179245927773E+01  0.0000000000000E+00
-0.6133850625710E+00 -0.1098125561271E+01  0.0000000000000E+00
-0.6110781767176E+00 -0.1017031042899E+01  0.0000000000000E+00
-0.6075938972867E+00 -0.9359840196841E+00  0.0000000000000E+00
-0.6027748704429E+00 -0.8550138763628E+00  0.0000000000000E+00
-0.5964762431763E+00 -0.7741576168479E+00  0.0000000000000E+00
-0.5886096354219E+00 -0.6934549809652E+00  0.0000000000000E+00
-0.5792169622724E+00 -0.6129344720338E+00  0.0000000000000E+00
-0.5685607300787E+00 -0.5325891076342E+00  0.0000000000000E+00
-0.5571736404696E+00 -0.4523550909481E+00  0.0000000000000E+00
-0.5457865507829E+00 -0.3721210742731E+00  0.0000000000000E+00
-0.5351303183650E+00 -0.2917757099033E+00  0.0000000000000E+00
-0.5257376448667E+00 -0.2112552010127E+00  0.0000000000000E+00
-0.5178710366670E+00 -0.1305525651737E+00  0.0000000000000E+00
-0.5115724088858E+00 -0.4969630569897E-01  0.0000000000000E+00
-0.5067533814807E+00  0.3127383758862E-01  0.0000000000000E+00
-0.5032691014587E+00  0.1123208607782E+00  0.0000000000000E+00
-0.5009622149962E+00  0.1934153791321E+00  0.0000000000000E+00
-0.4996840563622E+00  0.2745357456241E+00  0.0000000000000E+00
-0.5823375735839E+00 -0.1178925948017E+01  0.0000000000000E+00
-0.5811517361345E+00 -0.1097485602229E+01  0.0000000000000E+00
-0.5789913143491E+00 -0.1016071105210E+01  0.0000000000000E+00
-0.5757154669679E+00 -0.9347041043687E+00  0.0000000000000E+00
-0.5711751219322E+00 -0.8534139844555E+00  0.0000000000000E+00
-0.5652330500847E+00 -0.7722377492156E+00  0.0000000000000E+00
-0.5578055229899E+00 -0.6912151378461E+00  0.0000000000000E+00
-0.5489322497722E+00 -0.6103746525257E+00  0.0000000000000E+00
-0.5388619207640E+00 -0.5297093095395E+00  0.0000000000000E+00
-0.5280992006759E+00 -0.4491553120599E+00  0.0000000000000E+00
-0.5173364805104E+00 -0.3686013145907E+00  0.0000000000000E+00
-0.5072661512780E+00 -0.2879359716328E+00  0.0000000000000E+00
-0.4983928777114E+00 -0.2070954863511E+00  0.0000000000000E+00
-0.4909653501714E+00 -0.1260728750229E+00  0.0000000000000E+00
-0.4850232778093E+00 -0.4489663982115E-01  0.0000000000000E+00
-0.4804829322123E+00  0.3639348006013E-01  0.0000000000000E+00
-0.4772070842400E+00  0.1177604808772E+00  0.0000000000000E+00
-0.4750466618455E+00  0.1991749778796E+00  0.0000000000000E+00
-0.4738608237776E+00  0.2806153236578E+00  0.0000000000000E+00
-0.5500080394828E+00 -0.1178622037865E+01  0.0000000000000E+00
-0.5489106355602E+00 -0.1096877782373E+01  0.0000000000000E+00
-0.5468927908727E+00 -0.1015159376255E+01  0.0000000000000E+00
-0.5438214886538E+00 -0.9334884672851E+00  0.0000000000000E+00
-0.5395559386310E+00 -0.8518944402257E+00  0.0000000000000E+00
-0.5339665355062E+00 -0.7704142986630E+00  0.0000000000000E+00
-0.5269742024711E+00 -0.6890877811968E+00  0.0000000000000E+00
-0.5186164426654E+00 -0.6079433889229E+00  0.0000000000000E+00
-0.5091281303716E+00 -0.5269741368961E+00  0.0000000000000E+00
-0.4989858933504E+00 -0.4461162282797E+00  0.0000000000000E+00
-0.4888436562517E+00 -0.3652583196731E+00  0.0000000000000E+00
-0.4793553437337E+00 -0.2842890676730E+00  0.0000000000000E+00
-0.4709975835792E+00 -0.2031446754356E+00  0.0000000000000E+00
-0.4640052500988E+00 -0.1218181580084E+00  0.0000000000000E+00
-0.4584158464595E+00 -0.4033801648185E-01  0.0000000000000E+00
-0.4541502958753E+00  0.4125601054745E-01  0.0000000000000E+00
-0.4510789930653E+00  0.1229269194944E+00  0.0000000000000E+00
-0.4490611477687E+00  0.2046453255965E+00  0.0000000000000E+00
-0.4479637432275E+00  0.2863895810799E+00  0.0000000000000E+00
-0.5176747919670E+00 -0.1178334388478E+01  0.0000000000000E+00
-0.5166621081398E+00 -0.1096302484021E+01  0.0000000000000E+00
-0.5147831271008E+00 -0.1014296429512E+01  0.0000000000000E+00
-0.5119126565776E+00 -0.9323378730696E+00  0.0000000000000E+00
-0.5079181880800E+00 -0.8504561994673E+00  0.0000000000000E+00
-0.5026777401640E+00 -0.7686884121413E+00  0.0000000000000E+00
-0.4961168876386E+00 -0.6870742491256E+00  0.0000000000000E+00
-0.4882709276467E+00 -0.6056422104914E+00  0.0000000000000E+00
-0.4793609184126E+00 -0.5243853101288E+00  0.0000000000000E+00
-0.4698354507598E+00 -0.4432397511925E+00  0.0000000000000E+00
-0.4603099830294E+00 -0.3620941922655E+00  0.0000000000000E+00
-0.4513999735711E+00 -0.2808372919280E+00  0.0000000000000E+00
-0.4435540132304E+00 -0.1994052533281E+00  0.0000000000000E+00
-0.4369931602597E+00 -0.1177910903493E+00  0.0000000000000E+00
-0.4317527118292E+00 -0.3602330305715E-01  0.0000000000000E+00
-0.4277582427703E+00  0.4585837051678E-01  0.0000000000000E+00
-0.4248877716559E+00  0.1278169269378E+00  0.0000000000000E+00
-0.4230087900078E+00  0.2098229814316E+00  0.0000000000000E+00
-0.4219961055620E+00  0.2918548858801E+00  0.0000000000000E+00
-0.4853380080548E+00 -0.1178063183023E+01  0.0000000000000E+00
-0.4844065078916E+00 -0.1095760073511E+01  0.0000000000000E+00
-0.4826628540306E+00 -0.1013482814487E+01  0.0000000000000E+00
-0.4799896786910E+00 -0.9312530543955E+00  0.0000000000000E+00
-0.4762627551584E+00 -0.8491001780208E+00  0.0000000000000E+00
-0.4713677258340E+00 -0.7670611886573E+00  0.0000000000000E+00
-0.4652348171335E+00 -0.6851758238060E+00  0.0000000000000E+00
-0.4578971201924E+00 -0.6034725825716E+00  0.0000000000000E+00
-0.4495618771738E+00 -0.5219444777461E+00  0.0000000000000E+00
-0.4406496419882E+00 -0.4405277124764E+00  0.0000000000000E+00
-0.4317374067250E+00 -0.3591109472153E+00  0.0000000000000E+00
-0.4234021634823E+00 -0.2775828424134E+00  0.0000000000000E+00
-0.4160644661923E+00 -0.1958796012112E+00  0.0000000000000E+00
-0.4099315570465E+00 -0.1139942363943E+00  0.0000000000000E+00
-0.4050365272076E+00 -0.3195524706260E-01  0.0000000000000E+00
-0.4013096031137E+00  0.5019762928550E-01  0.0000000000000E+00
-0.3986364271830E+00  0.1324273893569E+00  0.0000000000000E+00
-0.3968927727129E+00  0.2147046483665E+00  0.0000000000000E+00
-0.3959612719311E+00  0.2970077578713E+00  0.0000000000000E+00
-0.4529978651745E+00 -0.1177808595865E+01  0.0000000000000E+00
-0.4521441897514E+00 -0.1095250899568E+01  0.0000000000000E+00
-0.4505325041965E+00 -0.1012719054268E+01  0.0000000000000E+00
-0.4480532652313E+00 -0.9302347087123E+00  0.0000000000000E+00
-0.4445905279238E+00 -0.8478272476968E+00  0.0000000000000E+00
-0.4400375585254E+00 -0.7655336743824E+00  0.0000000000000E+00
-0.4343292350556E+00 -0.6833937257696E+00  0.0000000000000E+00
-0.4274964426286E+00 -0.6014359000561E+00  0.0000000000000E+00
-0.4197326073215E+00 -0.5196532090030E+00  0.0000000000000E+00
-0.4114302461080E+00 -0.4379818557497E+00  0.0000000000000E+00
-0.4031278848169E+00 -0.3563105025045E+00  0.0000000000000E+00
-0.3953640492856E+00 -0.2745278114734E+00  0.0000000000000E+00
-0.3885312565098E+00 -0.1925699857899E+00  0.0000000000000E+00
-0.3828229325947E+00 -0.1104300372093E+00  0.0000000000000E+00
-0.3782699626817E+00 -0.2813646392457E-01  0.0000000000000E+00
-0.3748072248130E+00  0.5427099706610E-01  0.0000000000000E+00
-0.3723279852565E+00  0.1367553426026E+00  0.0000000000000E+00
-0.3707162990926E+00  0.2192871878897E+00  0.0000000000000E+00
-0.3698626230510E+00  0.3018448841793E+00  0.0000000000000E+00
-0.4206545565374E+00 -0.1177570794880E+01  0.0000000000000E+00
-0.4198755400873E+00 -0.1094775297949E+01  0.0000000000000E+00
-0.4183926570604E+00 -0.1012005652488E+01  0.0000000000000E+00
-0.4161041886816E+00 -0.9292835075316E+00  0.0000000000000E+00
-0.4129024717991E+00 -0.8466382478836E+00  0.0000000000000E+00
-0.4086883965102E+00 -0.7641068765812E+00  0.0000000000000E+00
-0.4034014924306E+00 -0.6817291301575E+00  0.0000000000000E+00
-0.3970704386426E+00 -0.5995335059625E+00  0.0000000000000E+00
-0.3898748451289E+00 -0.5175130147949E+00  0.0000000000000E+00
-0.3821791919351E+00 -0.4356038597868E+00  0.0000000000000E+00
-0.3744835386638E+00 -0.3536947047861E+00  0.0000000000000E+00
-0.3672879449259E+00 -0.2716742136390E+00  0.0000000000000E+00
-0.3609568907891E+00 -0.1894785894719E+00  0.0000000000000E+00
-0.3556699862643E+00 -0.1071008430780E+00  0.0000000000000E+00
-0.3514559104608E+00 -0.2456947180318E-01  0.0000000000000E+00
-0.3482541930169E+00  0.5807578782172E-01  0.0000000000000E+00
-0.3459657240469E+00  0.1407979327608E+00  0.0000000000000E+00
-0.3444828404110E+00  0.2235675782092E+00  0.0000000000000E+00
-0.3437038233424E+00  0.3063630751341E+00  0.0000000000000E+00
-0.3883082762411E+00 -0.1177349938204E+01  0.0000000000000E+00
-0.3876009471235E+00 -0.1094333584921E+01  0.0000000000000E+00
-0.3862438950063E+00 -0.1011343083549E+01  0.0000000000000E+00
-0.3841432256237E+00 -0.9284000833865E+00  0.0000000000000E+00
-0.3811995576068E+00 -0.8455339692466E+00  0.0000000000000E+00
-0.3773214048994E+00 -0.7627817440508E+00  0.0000000000000E+00
-0.3724529487092E+00 -0.6801831438981E+00  0.0000000000000E+00
-0.3666206620752E+00 -0.5977666653515E+00  0.0000000000000E+00
-0.3599903388695E+00 -0.5155253183156E+00  0.0000000000000E+00
-0.3528984222012E+00 -0.4333953059157E+00  0.0000000000000E+00
-0.3458065054554E+00 -0.3512652935227E+00  0.0000000000000E+00
-0.3391761820256E+00 -0.2690239465056E+00  0.0000000000000E+00
-0.3333438950428E+00 -0.1866074679848E+00  0.0000000000000E+00
-0.3284754384073E+00 -0.1040088678596E+00  0.0000000000000E+00
-0.3245972851854E+00 -0.2125664268932E-01  0.0000000000000E+00
-0.3216536166071E+00  0.6160947142931E-01  0.0000000000000E+00
-0.3195529466334E+00  0.1445524715757E+00  0.0000000000000E+00
-0.3181958939071E+00  0.2275429729362E+00  0.0000000000000E+00
-0.3174885641708E+00  0.3105593262131E+00  0.0000000000000E+00
-0.3559592285778E+00 -0.1177146175326E+01  0.0000000000000E+00
-0.3553208194146E+00 -0.1093926059465E+01  0.0000000000000E+00
-0.3540868308174E+00 -0.1010731795922E+01  0.0000000000000E+00
-0.3521711930307E+00 -0.9275850342389E+00  0.0000000000000E+00
-0.3494828064657E+00 -0.8445151592370E+00  0.0000000000000E+00
-0.3459378089090E+00 -0.7615591737315E+00  0.0000000000000E+00
-0.3414850331533E+00 -0.6787568134207E+00  0.0000000000000E+00
-0.3361487461853E+00 -0.5961365741418E+00  0.0000000000000E+00
-0.3300809257594E+00 -0.5136914649741E+00  0.0000000000000E+00
-0.3235899780573E+00 -0.4313576890368E+00  0.0000000000000E+00
-0.3170990302776E+00 -0.3490239131059E+00  0.0000000000000E+00
-0.3110312096275E+00 -0.2665788039555E+00  0.0000000000000E+00
-0.3056949223106E+00 -0.1839585647001E+00  0.0000000000000E+00
-0.3012421461097E+00 -0.1011562044146E+00  0.0000000000000E+00
-0.2976971480385E+00 -0.1820021893247E-01  0.0000000000000E+00
-0.2950087609122E+00  0.6486965604994E-01  0.0000000000000E+00
-0.2930931225343E+00  0.1480164177185E+00  0.0000000000000E+00
-0.2918591333281E+00  0.2312106812512E+00  0.0000000000000E+00
-0.2912207235462E+00  0.3144307971066E+00  0.0000000000000E+00
-0.3236076203727E+00 -0.1176959645432E+01  0.0000000000000E+00
-0.3230355706320E+00 -0.1093552999950E+01  0.0000000000000E+00
-0.3219220850352E+00 -0.1010172207159E+01  0.0000000000000E+00
-0.3201889183408E+00 -0.9268389168223E+00  0.0000000000000E+00
-0.3177532527416E+00 -0.8435825137707E+00  0.0000000000000E+00
-0.3145388498667E+00 -0.7604400007212E+00  0.0000000000000E+00
-0.3104991940892E+00 -0.6774511130053E+00  0.0000000000000E+00
-0.3056563463339E+00 -0.5946443457954E+00  0.0000000000000E+00
-0.3001484682258E+00 -0.5120127074157E+00  0.0000000000000E+00
-0.2942559290150E+00 -0.4294924009797E+00  0.0000000000000E+00
-0.2883633897267E+00 -0.3469720945496E+00  0.0000000000000E+00
-0.2828555113944E+00 -0.2643404561856E+00  0.0000000000000E+00
-0.2780126632903E+00 -0.1815336889972E+00  0.0000000000000E+00
-0.2739730070675E+00 -0.9854480130419E-01  0.0000000000000E+00
-0.2707586036781E+00 -0.1540228827586E-01  0.0000000000000E+00
-0.2683229375175E+00  0.6785411475801E-01  0.0000000000000E+00
-0.2665897702320E+00  0.1511874050807E+00  0.0000000000000E+00
-0.2654762840261E+00  0.2345681978628E+00  0.0000000000000E+00
-0.2649042336669E+00  0.3179748433392E+00  0.0000000000000E+00
-0.2912536660710E+00 -0.1176790477710E+01  0.0000000000000E+00
-0.2907456296570E+00 -0.1093214664755E+01  0.0000000000000E+00
-0.2897503009658E+00 -0.1009664704829E+01  0.0000000000000E+00
-0.2881972592727E+00 -0.9261622478972E+00  0.0000000000000E+00
-0.2860119685514E+00 -0.8427366787975E+00  0.0000000000000E+00
-0.2831258142719E+00 -0.7594250001585E+00  0.0000000000000E+00
-0.2794969323826E+00 -0.6762669469790E+00  0.0000000000000E+00
-0.2751451777386E+00 -0.5932910138288E+00  0.0000000000000E+00
-0.2701948958265E+00 -0.5104902083470E+00  0.0000000000000E+00
-0.2648984189668E+00 -0.4278007336419E+00  0.0000000000000E+00
-0.2596019420296E+00 -0.3451112589420E+00  0.0000000000000E+00
-0.2546516598934E+00 -0.2623104534743E+00  0.0000000000000E+00
-0.2502999049005E+00 -0.1793345203434E+00  0.0000000000000E+00
-0.2466710225660E+00 -0.9617646718464E-01  0.0000000000000E+00
-0.2437848677719E+00 -0.1286478856466E-01  0.0000000000000E+00
-0.2415995764893E+00  0.7056078051910E-01  0.0000000000000E+00
-0.2400465342051E+00  0.1540632374383E+00  0.0000000000000E+00
-0.2390512049048E+00  0.2376131973566E+00  0.0000000000000E+00
-0.2385431678721E+00  0.3211890103064E+00  0.0000000000000E+00
-0.2588975848758E+00 -0.1176638790520E+01  0.0000000000000E+00
-0.2584514348923E+00 -0.1092911290598E+01  0.0000000000000E+00
-0.2575721362084E+00 -0.1009209644008E+01  0.0000000000000E+00
-0.2561970926179E+00 -0.9255555008964E+00  0.0000000000000E+00
-0.2542600498742E+00 -0.8419782461075E+00  0.0000000000000E+00
-0.2517000172863E+00 -0.7585148821905E+00  0.0000000000000E+00
-0.2484797823734E+00 -0.6752051438462E+00  0.0000000000000E+00
-0.2446169939132E+00 -0.5920775251035E+00  0.0000000000000E+00
-0.2402221812472E+00 -0.5091250329875E+00  0.0000000000000E+00
-0.2355196397695E+00 -0.4262838706018E+00  0.0000000000000E+00
-0.2308170982141E+00 -0.3434427082208E+00  0.0000000000000E+00
-0.2264222853240E+00 -0.2604902161173E+00  0.0000000000000E+00
-0.2225594965150E+00 -0.1773625973918E+00  0.0000000000000E+00
-0.2193392611568E+00 -0.9405285906584E-01  0.0000000000000E+00
-0.2167792280544E+00 -0.1058949516580E-01  0.0000000000000E+00
-0.2148421847494E+00  0.7298775960893E-01  0.0000000000000E+00
-0.2134671405677E+00  0.1566419027092E+00  0.0000000000000E+00
-0.2125878412748E+00  0.2403435492926E+00  0.0000000000000E+00
-0.2121416906726E+00  0.3240710492098E+00  0.0000000000000E+00
-0.2265396002550E+00 -0.1176504690970E+01  0.0000000000000E+00
-0.2261534332785E+00 -0.1092643091695E+01  0.0000000000000E+00
-0.2253882611815E+00 -0.1008807346019E+01  0.0000000000000E+00
-0.2241893122779E+00 -0.9250191042510E+00  0.0000000000000E+00
-0.2224986141016E+00 -0.8413077512389E+00  0.0000000000000E+00
-0.2202627997988E+00 -0.7577102894623E+00  0.0000000000000E+00
-0.2174493084560E+00 -0.6742664533583E+00  0.0000000000000E+00
-0.2140735827668E+00 -0.5910047364781E+00  0.0000000000000E+00
-0.2102323359199E+00 -0.5079181453036E+00  0.0000000000000E+00
-0.2061218263833E+00 -0.4249428829342E+00  0.0000000000000E+00
-0.2020113167692E+00 -0.3419676205689E+00  0.0000000000000E+00
-0.1981700696982E+00 -0.2588810294053E+00  0.0000000000000E+00
-0.1947943436601E+00 -0.1756193125402E+00  0.0000000000000E+00
-0.1919808518720E+00 -0.9217547645228E-01  0.0000000000000E+00
-0.1897450370548E+00 -0.8578014690528E-02  0.0000000000000E+00
-0.1880543383171E+00  0.7513333830921E-01  0.0000000000000E+00
-0.1868553888224E+00  0.1589215800678E+00  0.0000000000000E+00
-0.1860902161163E+00  0.2427573257374E+00  0.0000000000000E+00
-0.1857040485211E+00  0.3266189250080E+00  0.0000000000000E+00
-0.1941799400497E+00 -0.1176388274585E+01  0.0000000000000E+00
-0.1938520805015E+00 -0.1092410259098E+01  0.0000000000000E+00
-0.1931993594199E+00 -0.1008458097441E+01  0.0000000000000E+00
-0.1921748296420E+00 -0.9245534400649E+00  0.0000000000000E+00
-0.1907288004820E+00 -0.8407256718208E+00  0.0000000000000E+00
-0.1888155289237E+00 -0.7570117951279E+00  0.0000000000000E+00
-0.1864071056176E+00 -0.6734515441946E+00  0.0000000000000E+00
-0.1835167671670E+00 -0.5900734121569E+00  0.0000000000000E+00
-0.1802274106004E+00 -0.5068704050253E+00  0.0000000000000E+00
-0.1767072574573E+00 -0.4237787258958E+00  0.0000000000000E+00
-0.1731871042367E+00 -0.3406870467698E+00  0.0000000000000E+00
-0.1698977474458E+00 -0.2574840396476E+00  0.0000000000000E+00
-0.1670074086464E+00 -0.1741059076228E+00  0.0000000000000E+00
-0.1645989848950E+00 -0.9054565670324E-01  0.0000000000000E+00
-0.1626857128222E+00 -0.6831780023127E-02  0.0000000000000E+00
-0.1612396831009E+00  0.7699598821036E-01  0.0000000000000E+00
-0.1602151527318E+00  0.1609006455788E+00  0.0000000000000E+00
-0.1595624310412E+00  0.2448528072298E+00  0.0000000000000E+00
-0.1592345708744E+00  0.3288308227139E+00  0.0000000000000E+00
-0.1618188366807E+00 -0.1176289624985E+01  0.0000000000000E+00
-0.1615478413963E+00 -0.1092212960043E+01  0.0000000000000E+00
-0.1610061281651E+00 -0.1008162149129E+01  0.0000000000000E+00
-0.1601545743482E+00 -0.9241588428095E+00  0.0000000000000E+00
-0.1589517710402E+00 -0.8402324259419E+00  0.0000000000000E+00
-0.1573595990610E+00 -0.7564199008932E+00  0.0000000000000E+00
-0.1553548006218E+00 -0.6727610016777E+00  0.0000000000000E+00
-0.1529484062311E+00 -0.5892842210799E+00  0.0000000000000E+00
-0.1502094967515E+00 -0.5059825647107E+00  0.0000000000000E+00
-0.1472782567965E+00 -0.4227922356629E+00  0.0000000000000E+00
-0.1443470167639E+00 -0.3396019066179E+00  0.0000000000000E+00
-0.1416081070601E+00 -0.2563002502565E+00  0.0000000000000E+00
-0.1392017123206E+00 -0.1728234696695E+00  0.0000000000000E+00
-0.1371969134361E+00 -0.8916457046546E-01  0.0000000000000E+00
-0.1356047409424E+00 -0.5352045427417E-02  0.0000000000000E+00
-0.1344019370731E+00  0.7857437143128E-01  0.0000000000000E+00
-0.1335503826650E+00  0.1625776777437E+00  0.0000000000000E+00
-0.1330086688247E+00  0.2466284886535E+00  0.0000000000000E+00
-0.1327376729217E+00  0.3307051535930E+00  0.0000000000000E+00
-0.1294565253983E+00 -0.1176208813448E+01  0.0000000000000E+00
-0.1292411864641E+00 -0.1092051337089E+01  0.0000000000000E+00
-0.1288092731701E+00 -0.1007919714918E+01  0.0000000000000E+00
-0.1281294874025E+00 -0.9238355976011E+00  0.0000000000000E+00
-0.1271687020359E+00 -0.8398283699972E+00  0.0000000000000E+00
-0.1258964217254E+00 -0.7559350344316E+00  0.0000000000000E+00
-0.1242940402406E+00 -0.6721953247595E+00  0.0000000000000E+00
-0.1223703819904E+00 -0.5886377334774E+00  0.0000000000000E+00
-0.1201807116679E+00 -0.5052552658689E+00  0.0000000000000E+00
-0.1178371769611E+00 -0.4219841250242E+00  0.0000000000000E+00
-0.1154936421767E+00 -0.3387129841817E+00  0.0000000000000E+00
-0.1133039716300E+00 -0.2553305165795E+00  0.0000000000000E+00
-0.1113803130311E+00 -0.1717729253060E+00  0.0000000000000E+00
-0.1097779311010E+00 -0.8803321564312E-01  0.0000000000000E+00
-0.1085056502760E+00 -0.4139880085961E-02  0.0000000000000E+00
-0.1075448643481E+00  0.7986734751083E-01  0.0000000000000E+00
-0.1068650779893E+00  0.1639514648225E+00  0.0000000000000E+00
-0.1064331640861E+00  0.2480830869894E+00  0.0000000000000E+00
-0.1062178245334E+00  0.3322405633470E+00  0.0000000000000E+00
-0.9709324430840E-01 -0.1176145898689E+01  0.0000000000000E+00
-0.9693259191755E-01 -0.1091925507662E+01  0.0000000000000E+00
-0.9660950875430E-01 -0.1007730970950E+01  0.0000000000000E+00
-0.9610052123146E-01 -0.9235839392927E+00  0.0000000000000E+00
-0.9538078400334E-01 -0.8395137975525E+00  0.0000000000000E+00
-0.9442742555954E-01 -0.7555575480213E+00  0.0000000000000E+00
-0.9322649122599E-01 -0.6717549244308E+00  0.0000000000000E+00
-0.9178459930891E-01 -0.5881344190532E+00  0.0000000000000E+00
-0.9014319832780E-01 -0.5046890369170E+00  0.0000000000000E+00
-0.8838639904588E-01 -0.4213549811103E+00  0.0000000000000E+00
-0.8662959968642E-01 -0.3380209253053E+00  0.0000000000000E+00
-0.8498819848112E-01 -0.2545755431738E+00  0.0000000000000E+00
-0.8354630621523E-01 -0.1709550378026E+00  0.0000000000000E+00
-0.8234537143641E-01 -0.8715241421902E-01  0.0000000000000E+00
-0.8139201247807E-01 -0.3196164694228E-02  0.0000000000000E+00
-0.8067227468865E-01  0.8087397704071E-01  0.0000000000000E+00
-0.8016328657462E-01  0.1650210086939E+00  0.0000000000000E+00
-0.7984020280232E-01  0.2492155454030E+00  0.0000000000000E+00
-0.7967954979286E-01  0.3334359364282E+00  0.0000000000000E+00
-0.6472923382140E-01 -0.1176100926619E+01  0.0000000000000E+00
-0.6462253857726E-01 -0.1091835563588E+01  0.0000000000000E+00
-0.6440755614920E-01 -0.1007596054963E+01  0.0000000000000E+00
-0.6406863747714E-01 -0.9234040515362E+00  0.0000000000000E+00
-0.6358921899517E-01 -0.8392889381722E+00  0.0000000000000E+00
-0.6295405302690E-01 -0.7552877171396E+00  0.0000000000000E+00
-0.6215383645313E-01 -0.6714401220813E+00  0.0000000000000E+00
-0.6119298147473E-01 -0.5877746451094E+00  0.0000000000000E+00
-0.6009912043493E-01 -0.5042842910700E+00  0.0000000000000E+00
-0.5892832717247E-01 -0.4209052630496E+00  0.0000000000000E+00
-0.5775753383247E-01 -0.3375262350304E+00  0.0000000000000E+00
-0.5666367256850E-01 -0.2540358809941E+00  0.0000000000000E+00
-0.5570281724129E-01 -0.1703704040265E+00  0.0000000000000E+00
-0.5490260022224E-01 -0.8652280897287E-01  0.0000000000000E+00
-0.5426743373944E-01 -0.2521587944447E-02  0.0000000000000E+00
-0.5378801469616E-01  0.8159352541603E-01  0.0000000000000E+00
-0.5344909543291E-01  0.1657855288401E+00  0.0000000000000E+00
-0.5323411239580E-01  0.2500250374636E+00  0.0000000000000E+00
-0.5312741653305E-01  0.3342904004928E+00  0.0000000000000E+00
-0.3236473608673E-01 -0.1176073930167E+01  0.0000000000000E+00
-0.3231151074225E-01 -0.1091781570725E+01  0.0000000000000E+00
-0.3220414180319E-01 -0.1007515065743E+01  0.0000000000000E+00
-0.3203480473717E-01 -0.9232960660450E+00  0.0000000000000E+00
-0.3179521775803E-01 -0.8391539564979E+00  0.0000000000000E+00
-0.3147775702315E-01 -0.7551257393558E+00  0.0000000000000E+00
-0.3107777096723E-01 -0.6712511482086E+00  0.0000000000000E+00
-0.3059746568405E-01 -0.5875586750717E+00  0.0000000000000E+00
-0.3005065733864E-01 -0.5040413246819E+00  0.0000000000000E+00
-0.2946538284527E-01 -0.4206353001246E+00  0.0000000000000E+00
-0.2888010827436E-01 -0.3372292755679E+00  0.0000000000000E+00
-0.2833329970477E-01 -0.2537119251797E+00  0.0000000000000E+00
-0.2785299407277E-01 -0.1700194520450E+00  0.0000000000000E+00
-0.2745300757158E-01 -0.8614486090003E-01  0.0000000000000E+00
-0.2713554632216E-01 -0.2116643760018E-02  0.0000000000000E+00
-0.2689595878172E-01  0.8202546578529E-01  0.0000000000000E+00
-0.2672662112451E-01  0.1662444654814E+00  0.0000000000000E+00
-0.2661925157640E-01  0.2505109704632E+00  0.0000000000000E+00
-0.2656602561332E-01  0.3348033299045E+00  0.0000000000000E+00
 0.5582238603101E-08 -0.1176064929145E+01  0.0000000000000E+00
 0.4960748769495E-08 -0.1091763568694E+01  0.0000000000000E+00
 0.4343732432866E-08 -0.1007488062721E+01  0.0000000000000E+00
 0.3735549954647E-08 -0.9232600620628E+00  0.0000000000000E+00
 0.3142548509650E-08 -0.8391089515842E+00  0.0000000000000E+00
 0.2573668596438E-08 -0.7550717335353E+00  0.0000000000000E+00
 0.2040772407577E-08 -0.6711881414885E+00  0.0000000000000E+00
 0.1558046544304E-08 -0.5874866674269E+00  0.0000000000000E+00
 0.1139719687470E-08 -0.5039603160504E+00  0.0000000000000E+00
 0.7961283098685E-09 -0.4205452904441E+00  0.0000000000000E+00
 0.5300797238991E-09 -0.3371302648377E+00  0.0000000000000E+00
 0.3359349566239E-09 -0.2536039134613E+00  0.0000000000000E+00
 0.2020188105716E-09 -0.1699024393997E+00  0.0000000000000E+00
 0.1143966199395E-09 -0.8601884735283E-01  0.0000000000000E+00
 0.6005099690279E-10 -0.1981629303997E-02  0.0000000000000E+00
 0.2835452662725E-10  0.8216948117463E-01  0.0000000000000E+00
 0.1136281835831E-10  0.1663974818332E+00  0.0000000000000E+00
 0.3398426023553E-11  0.2506729878062E+00  0.0000000000000E+00
 0.5133240929992E-12  0.3349743482567E+00  0.0000000000000E+00
 0.3236474725121E-01 -0.1176073930165E+01  0.0000000000000E+00
 0.3231152066375E-01 -0.1091781570722E+01  0.0000000000000E+00
 0.3220415049066E-01 -0.1007515065739E+01  0.0000000000000E+00
 0.3203481220827E-01 -0.9232960660417E+00  0.0000000000000E+00
 0.3179522404313E-01 -0.8391539564960E+00  0.0000000000000E+00
 0.3147776217049E-01 -0.7551257393562E+00  0.0000000000000E+00
 0.3107777504878E-01 -0.6712511482121E+00  0.0000000000000E+00
 0.3059746880014E-01 -0.5875586750789E+00  0.0000000000000E+00
 0.3005065961808E-01 -0.5040413246926E+00  0.0000000000000E+00
 0.2946538443753E-01 -0.4206353001381E+00  0.0000000000000E+00
 0.2888010933452E-01 -0.3372292755830E+00  0.0000000000000E+00
 0.2833330037664E-01 -0.2537119251951E+00  0.0000000000000E+00
 0.2785299447681E-01 -0.1700194520597E+00  0.0000000000000E+00
 0.2745300780037E-01 -0.8614486091335E-01  0.0000000000000E+00
 0.2713554644227E-01 -0.2116643771438E-02  0.0000000000000E+00
 0.2689595883843E-01  0.8202546577601E-01  0.0000000000000E+00
 0.2672662114723E-01  0.1662444654744E+00  0.0000000000000E+00
 0.2661925158320E-01  0.2505109704585E+00  0.0000000000000E+00
 0.2656602561434E-01  0.3348033299022E+00  0.0000000000000E+00
 0.6472924498588E-01 -0.1176100926615E+01  0.0000000000000E+00
 0.6462254849876E-01 -0.1091835563582E+01  0.0000000000000E+00
 0.6440756483667E-01 -0.1007596054955E+01  0.0000000000000E+00
 0.6406864494824E-01 -0.9234040515296E+00  0.0000000000000E+00
 0.6358922528027E-01 -0.8392889381684E+00  0.0000000000000E+00
 0.6295405817423E-01 -0.7552877171404E+00  0.0000000000000E+00
 0.6215384053467E-01 -0.6714401220885E+00  0.0000000000000E+00
 0.6119298459082E-01 -0.5877746451237E+00  0.0000000000000E+00
 0.6009912271437E-01 -0.5042842910913E+00  0.0000000000000E+00
 0.5892832876473E-01 -0.4209052630765E+00  0.0000000000000E+00
 0.5775753489263E-01 -0.3375262350606E+00  0.0000000000000E+00
 0.5666367324036E-01 -0.2540358810250E+00  0.0000000000000E+00
 0.5570281764532E-01 -0.1703704040560E+00  0.0000000000000E+00
 0.5490260045104E-01 -0.8652280899949E-01  0.0000000000000E+00
 0.5426743385954E-01 -0.2521587967286E-02  0.0000000000000E+00
 0.5378801475287E-01  0.8159352539748E-01  0.0000000000000E+00
 0.5344909545563E-01  0.1657855288261E+00  0.0000000000000E+00
 0.5323411240259E-01  0.2500250374542E+00  0.0000000000000E+00
 0.5312741653408E-01  0.3342904004881E+00  0.0000000000000E+00
 0.9709325547288E-01 -0.1176145898683E+01  0.0000000000000E+00
 0.9693260183905E-01 -0.1091925507652E+01  0.0000000000000E+00
 0.9660951744177E-01 -0.1007730970939E+01  0.0000000000000E+00
 0.9610052870256E-01 -0.9235839392827E+00  0.0000000000000E+00
 0.9538079028844E-01 -0.8395137975467E+00  0.0000000000000E+00
 0.9442743070688E-01 -0.7555575480226E+00  0.0000000000000E+00
 0.9322649530754E-01 -0.6717549244415E+00  0.0000000000000E+00
 0.9178460242501E-01 -0.5881344190747E+00  0.0000000000000E+00
 0.9014320060724E-01 -0.5046890369490E+00  0.0000000000000E+00
 0.8838640063814E-01 -0.4213549811507E+00  0.0000000000000E+00
 0.8662960074658E-01 -0.3380209253506E+00  0.0000000000000E+00
 0.8498819915299E-01 -0.2545755432202E+00  0.0000000000000E+00
 0.8354630661927E-01 -0.1709550378469E+00  0.0000000000000E+00
 0.8234537166520E-01 -0.8715241425896E-01  0.0000000000000E+00
 0.8139201259817E-01 -0.3196164728487E-02  0.0000000000000E+00
 0.8067227474536E-01  0.8087397701289E-01  0.0000000000000E+00
 0.8016328659734E-01  0.1650210086728E+00  0.0000000000000E+00
 0.7984020280912E-01  0.2492155453889E+00  0.0000000000000E+00
 0.7967954979389E-01  0.3334359364211E+00  0.0000000000000E+00
 0.1294565365627E+00 -0.1176208813440E+01  0.0000000000000E+00
 0.1292411963856E+00 -0.1092051337076E+01  0.0000000000000E+00
 0.1288092818575E+00 -0.1007919714903E+01  0.0000000000000E+00
 0.1281294948736E+00 -0.9238355975878E+00  0.0000000000000E+00
 0.1271687083210E+00 -0.8398283699895E+00  0.0000000000000E+00
 0.1258964268727E+00 -0.7559350344332E+00  0.0000000000000E+00
 0.1242940443221E+00 -0.6721953247737E+00  0.0000000000000E+00
 0.1223703851065E+00 -0.5886377335061E+00  0.0000000000000E+00
 0.1201807139474E+00 -0.5052552659116E+00  0.0000000000000E+00
 0.1178371785533E+00 -0.4219841250780E+00  0.0000000000000E+00
 0.1154936432368E+00 -0.3387129842421E+00  0.0000000000000E+00
 0.1133039723019E+00 -0.2553305166413E+00  0.0000000000000E+00
 0.1113803134351E+00 -0.1717729253651E+00  0.0000000000000E+00
 0.1097779313298E+00 -0.8803321569638E-01  0.0000000000000E+00
 0.1085056503961E+00 -0.4139880131640E-02  0.0000000000000E+00
 0.1075448644048E+00  0.7986734747374E-01  0.0000000000000E+00
 0.1068650780120E+00  0.1639514647945E+00  0.0000000000000E+00
 0.1064331640929E+00  0.2480830869706E+00  0.0000000000000E+00
 0.1062178245344E+00  0.3322405633376E+00  0.0000000000000E+00
 0.1618188478452E+00 -0.1176289624975E+01  0.0000000000000E+00
 0.1615478513178E+00 -0.1092212960027E+01  0.0000000000000E+00
 0.1610061368526E+00 -0.1008162149110E+01  0.0000000000000E+00
 0.1601545818193E+00 -0.9241588427928E+00  0.0000000000000E+00
 0.1589517773253E+00 -0.8402324259322E+00  0.0000000000000E+00
 0.1573596042083E+00 -0.7564199008953E+00  0.0000000000000E+00
 0.1553548047034E+00 -0.6727610016955E+00  0.0000000000000E+00
 0.1529484093472E+00 -0.5892842211157E+00  0.0000000000000E+00
 0.1502094990309E+00 -0.5059825647640E+00  0.0000000000000E+00
 0.1472782583887E+00 -0.4227922357302E+00  0.0000000000000E+00
 0.1443470178240E+00 -0.3396019066934E+00  0.0000000000000E+00
 0.1416081077320E+00 -0.2563002503338E+00  0.0000000000000E+00
 0.1392017127246E+00 -0.1728234697433E+00  0.0000000000000E+00
 0.1371969136649E+00 -0.8916457053203E-01  0.0000000000000E+00
 0.1356047410625E+00 -0.5352045484516E-02  0.0000000000000E+00
 0.1344019371298E+00  0.7857437138492E-01  0.0000000000000E+00
 0.1335503826877E+00  0.1625776777087E+00  0.0000000000000E+00
 0.1330086688315E+00  0.2466284886301E+00  0.0000000000000E+00
 0.1327376729228E+00  0.3307051535812E+00  0.0000000000000E+00
 0.1941799512142E+00 -0.1176388274573E+01  0.0000000000000E+00
 0.1938520904230E+00 -0.1092410259078E+01  0.0000000000000E+00
 0.1931993681074E+00 -0.1008458097419E+01  0.0000000000000E+00
 0.1921748371131E+00 -0.9245534400449E+00  0.0000000000000E+00
 0.1907288067671E+00 -0.8407256718092E+00  0.0000000000000E+00
 0.1888155340711E+00 -0.7570117951304E+00  0.0000000000000E+00
 0.1864071096991E+00 -0.6734515442159E+00  0.0000000000000E+00
 0.1835167702831E+00 -0.5900734121999E+00  0.0000000000000E+00
 0.1802274128798E+00 -0.5068704050893E+00  0.0000000000000E+00
 0.1767072590495E+00 -0.4237787259765E+00  0.0000000000000E+00
 0.1731871052968E+00 -0.3406870468603E+00  0.0000000000000E+00
 0.1698977481177E+00 -0.2574840397403E+00  0.0000000000000E+00
 0.1670074090505E+00 -0.1741059077114E+00  0.0000000000000E+00
 0.1645989851238E+00 -0.9054565678312E-01  0.0000000000000E+00
 0.1626857129423E+00 -0.6831780091645E-02  0.0000000000000E+00
 0.1612396831576E+00  0.7699598815473E-01  0.0000000000000E+00
 0.1602151527545E+00  0.1609006455368E+00  0.0000000000000E+00
 0.1595624310480E+00  0.2448528072017E+00  0.0000000000000E+00
 0.1592345708754E+00  0.3288308226998E+00  0.0000000000000E+00
 0.2265396114195E+00 -0.1176504690955E+01  0.0000000000000E+00
 0.2261534432000E+00 -0.1092643091672E+01  0.0000000000000E+00
 0.2253882698689E+00 -0.1008807345993E+01  0.0000000000000E+00
 0.2241893197490E+00 -0.9250191042277E+00  0.0000000000000E+00
 0.2224986203867E+00 -0.8413077512254E+00  0.0000000000000E+00
 0.2202628049462E+00 -0.7577102894652E+00  0.0000000000000E+00
 0.2174493125376E+00 -0.6742664533833E+00  0.0000000000000E+00
 0.2140735858829E+00 -0.5910047365283E+00  0.0000000000000E+00
 0.2102323381994E+00 -0.5079181453782E+00  0.0000000000000E+00
 0.2061218279756E+00 -0.4249428830284E+00  0.0000000000000E+00
 0.2020113178294E+00 -0.3419676206746E+00  0.0000000000000E+00
 0.1981700703700E+00 -0.2588810295135E+00  0.0000000000000E+00
 0.1947943440642E+00 -0.1756193126435E+00  0.0000000000000E+00
 0.1919808521008E+00 -0.9217547654548E-01  0.0000000000000E+00
 0.1897450371749E+00 -0.8578014770466E-02  0.0000000000000E+00
 0.1880543383738E+00  0.7513333824430E-01  0.0000000000000E+00
 0.1868553888451E+00  0.1589215800187E+00  0.0000000000000E+00
 0.1860902161231E+00  0.2427573257046E+00  0.0000000000000E+00
 0.1857040485222E+00  0.3266189249916E+00  0.0000000000000E+00
 0.2588975960403E+00 -0.1176638790504E+01  0.0000000000000E+00
 0.2584514448138E+00 -0.1092911290572E+01  0.0000000000000E+00
 0.2575721448959E+00 -0.1009209643977E+01  0.0000000000000E+00
 0.2561971000890E+00 -0.9255555008698E+00  0.0000000000000E+00
 0.2542600561593E+00 -0.8419782460920E+00  0.0000000000000E+00
 0.2517000224336E+00 -0.7585148821938E+00  0.0000000000000E+00
 0.2484797864549E+00 -0.6752051438747E+00  0.0000000000000E+00
 0.2446169970293E+00 -0.5920775251608E+00  0.0000000000000E+00
 0.2402221835267E+00 -0.5091250330728E+00  0.0000000000000E+00
 0.2355196413617E+00 -0.4262838707095E+00  0.0000000000000E+00
 0.2308170992743E+00 -0.3434427083415E+00  0.0000000000000E+00
 0.2264222859959E+00 -0.2604902162409E+00  0.0000000000000E+00
 0.2225594969190E+00 -0.1773625975099E+00  0.0000000000000E+00
 0.2193392613856E+00 -0.9405285917235E-01  0.0000000000000E+00
 0.2167792281745E+00 -0.1058949525716E-01  0.0000000000000E+00
 0.2148421848061E+00  0.7298775953475E-01  0.0000000000000E+00
 0.2134671405904E+00  0.1566419026531E+00  0.0000000000000E+00
 0.2125878412816E+00  0.2403435492551E+00  0.0000000000000E+00
 0.2121416906736E+00  0.3240710491911E+00  0.0000000000000E+00
 0.2912536772355E+00 -0.1176790477692E+01  0.0000000000000E+00
 0.2907456395785E+00 -0.1093214664726E+01  0.0000000000000E+00
 0.2897503096532E+00 -0.1009664704795E+01  0.0000000000000E+00
 0.2881972667438E+00 -0.9261622478673E+00  0.0000000000000E+00
 0.2860119748365E+00 -0.8427366787801E+00  0.0000000000000E+00
 0.2831258194192E+00 -0.7594250001622E+00  0.0000000000000E+00
 0.2794969364642E+00 -0.6762669470111E+00  0.0000000000000E+00
 0.2751451808547E+00 -0.5932910138932E+00  0.0000000000000E+00
 0.2701948981060E+00 -0.5104902084429E+00  0.0000000000000E+00
 0.2648984205591E+00 -0.4278007337630E+00  0.0000000000000E+00
 0.2596019430898E+00 -0.3451112590778E+00  0.0000000000000E+00
 0.2546516605652E+00 -0.2623104536134E+00  0.0000000000000E+00
 0.2502999053046E+00 -0.1793345204763E+00  0.0000000000000E+00
 0.2466710227948E+00 -0.9617646730447E-01  0.0000000000000E+00
 0.2437848678920E+00 -0.1286478866744E-01  0.0000000000000E+00
 0.2415995765460E+00  0.7056078043565E-01  0.0000000000000E+00
 0.2400465342278E+00  0.1540632373752E+00  0.0000000000000E+00
 0.2390512049116E+00  0.2376131973144E+00  0.0000000000000E+00
 0.2385431678732E+00  0.3211890102853E+00  0.0000000000000E+00
 0.3236076315371E+00 -0.1176959645411E+01  0.0000000000000E+00
 0.3230355805535E+00 -0.1093552999917E+01  0.0000000000000E+00
 0.3219220937226E+00 -0.1010172207121E+01  0.0000000000000E+00
 0.3201889258119E+00 -0.9268389167890E+00  0.0000000000000E+00
 0.3177532590267E+00 -0.8435825137514E+00  0.0000000000000E+00
 0.3145388550141E+00 -0.7604400007254E+00  0.0000000000000E+00
 0.3104991981707E+00 -0.6774511130409E+00  0.0000000000000E+00
 0.3056563494499E+00 -0.5946443458670E+00  0.0000000000000E+00
 0.3001484705052E+00 -0.5120127075223E+00  0.0000000000000E+00
 0.2942559306073E+00 -0.4294924011143E+00  0.0000000000000E+00
 0.2883633907869E+00 -0.3469720947005E+00  0.0000000000000E+00
 0.2828555120663E+00 -0.2643404563401E+00  0.0000000000000E+00
 0.2780126636944E+00 -0.1815336891448E+00  0.0000000000000E+00
 0.2739730072963E+00 -0.9854480143733E-01  0.0000000000000E+00
 0.2707586037982E+00 -0.1540228839006E-01  0.0000000000000E+00
 0.2683229375742E+00  0.6785411466528E-01  0.0000000000000E+00
 0.2665897702547E+00  0.1511874050106E+00  0.0000000000000E+00
 0.2654762840329E+00  0.2345681978159E+00  0.0000000000000E+00
 0.2649042336679E+00  0.3179748433157E+00  0.0000000000000E+00
 0.3559592397423E+00 -0.1177146175304E+01  0.0000000000000E+00
 0.3553208293361E+00 -0.1093926059429E+01  0.0000000000000E+00
 0.3540868395049E+00 -0.1010731795881E+01  0.0000000000000E+00
 0.3521712005018E+00 -0.9275850342023E+00  0.0000000000000E+00
 0.3494828127508E+00 -0.8445151592157E+00  0.0000000000000E+00
 0.3459378140564E+00 -0.7615591737361E+00  0.0000000000000E+00
 0.3414850372349E+00 -0.6787568134599E+00  0.0000000000000E+00
 0.3361487493013E+00 -0.5961365742205E+00  0.0000000000000E+00
 0.3300809280388E+00 -0.5136914650914E+00  0.0000000000000E+00
 0.3235899796495E+00 -0.4313576891848E+00  0.0000000000000E+00
 0.3170990313377E+00 -0.3490239132719E+00  0.0000000000000E+00
 0.3110312102994E+00 -0.2665788041255E+00  0.0000000000000E+00
 0.3056949227147E+00 -0.1839585648625E+00  0.0000000000000E+00
 0.3012421463385E+00 -0.1011562045611E+00  0.0000000000000E+00
 0.2976971481586E+00 -0.1820021905809E-01  0.0000000000000E+00
 0.2950087609689E+00  0.6486965594795E-01  0.0000000000000E+00
 0.2930931225570E+00  0.1480164176414E+00  0.0000000000000E+00
 0.2918591333349E+00  0.2312106811997E+00  0.0000000000000E+00
 0.2912207235473E+00  0.3144307970808E+00  0.0000000000000E+00
 0.3883082874056E+00 -0.1177349938180E+01  0.0000000000000E+00
 0.3876009570450E+00 -0.1094333584881E+01  0.0000000000000E+00
 0.3862439036937E+00 -0.1011343083504E+01  0.0000000000000E+00
 0.3841432330948E+00 -0.9284000833465E+00  0.0000000000000E+00
 0.3811995638919E+00 -0.8455339692234E+00  0.0000000000000E+00
 0.3773214100467E+00 -0.7627817440558E+00  0.0000000000000E+00
 0.3724529527907E+00 -0.6801831439408E+00  0.0000000000000E+00
 0.3666206651913E+00 -0.5977666654374E+00  0.0000000000000E+00
 0.3599903411489E+00 -0.5155253184436E+00  0.0000000000000E+00
 0.3528984237935E+00 -0.4333953060771E+00  0.0000000000000E+00
 0.3458065065156E+00 -0.3512652937038E+00  0.0000000000000E+00
 0.3391761826974E+00 -0.2690239466911E+00  0.0000000000000E+00
 0.3333438954468E+00 -0.1866074681620E+00  0.0000000000000E+00
 0.3284754386361E+00 -0.1040088680194E+00  0.0000000000000E+00
 0.3245972853055E+00 -0.2125664282636E-01  0.0000000000000E+00
 0.3216536166638E+00  0.6160947131804E-01  0.0000000000000E+00
 0.3195529466561E+00  0.1445524714917E+00  0.0000000000000E+00
 0.3181958939139E+00  0.2275429728799E+00  0.0000000000000E+00
 0.3174885641719E+00  0.3105593261850E+00  0.0000000000000E+00
 0.4206545677019E+00 -0.1177570794854E+01  0.0000000000000E+00
 0.4198755500088E+00 -0.1094775297906E+01  0.0000000000000E+00
 0.4183926657479E+00 -0.1012005652439E+01  0.0000000000000E+00
 0.4161041961527E+00 -0.9292835074883E+00  0.0000000000000E+00
 0.4129024780842E+00 -0.8466382478585E+00  0.0000000000000E+00
 0.4086884016575E+00 -0.7641068765866E+00  0.0000000000000E+00
 0.4034014965121E+00 -0.6817291302038E+00  0.0000000000000E+00
 0.3970704417587E+00 -0.5995335060555E+00  0.0000000000000E+00
 0.3898748474083E+00 -0.5175130149336E+00  0.0000000000000E+00
 0.3821791935274E+00 -0.4356038599617E+00  0.0000000000000E+00
 0.3744835397240E+00 -0.3536947049823E+00  0.0000000000000E+00
 0.3672879455978E+00 -0.2716742138399E+00  0.0000000000000E+00
 0.3609568911932E+00 -0.1894785896638E+00  0.0000000000000E+00
 0.3556699864930E+00 -0.1071008432511E+00  0.0000000000000E+00
 0.3514559105809E+00 -0.2456947195164E-01  0.0000000000000E+00
 0.3482541930737E+00  0.5807578770118E-01  0.0000000000000E+00
 0.3459657240697E+00  0.1407979326698E+00  0.0000000000000E+00
 0.3444828404178E+00  0.2235675781483E+00  0.0000000000000E+00
 0.3437038233434E+00  0.3063630751036E+00  0.0000000000000E+00
 0.4529978763389E+00 -0.1177808595837E+01  0.0000000000000E+00
 0.4521441996729E+00 -0.1095250899522E+01  0.0000000000000E+00
 0.4505325128840E+00 -0.1012719054215E+01  0.0000000000000E+00
 0.4480532727024E+00 -0.9302347086656E+00  0.0000000000000E+00
 0.4445905342089E+00 -0.8478272476697E+00  0.0000000000000E+00
 0.4400375636727E+00 -0.7655336743882E+00  0.0000000000000E+00
 0.4343292391371E+00 -0.6833937258195E+00  0.0000000000000E+00
 0.4274964457447E+00 -0.6014359001563E+00  0.0000000000000E+00
 0.4197326096009E+00 -0.5196532091523E+00  0.0000000000000E+00
 0.4114302477002E+00 -0.4379818559381E+00  0.0000000000000E+00
 0.4031278858770E+00 -0.3563105027157E+00  0.0000000000000E+00
 0.3953640499575E+00 -0.2745278116898E+00  0.0000000000000E+00
 0.3885312569138E+00 -0.1925699859965E+00  0.0000000000000E+00
 0.3828229328235E+00 -0.1104300373957E+00  0.0000000000000E+00
 0.3782699628018E+00 -0.2813646408445E-01  0.0000000000000E+00
 0.3748072248697E+00  0.5427099693629E-01  0.0000000000000E+00
 0.3723279852793E+00  0.1367553425046E+00  0.0000000000000E+00
 0.3707162990994E+00  0.2192871878241E+00  0.0000000000000E+00
 0.3698626230520E+00  0.3018448841465E+00  0.0000000000000E+00
 0.4853380192193E+00 -0.1178063182993E+01  0.0000000000000E+00
 0.4844065178131E+00 -0.1095760073461E+01  0.0000000000000E+00
 0.4826628627181E+00 -0.1013482814431E+01  0.0000000000000E+00
 0.4799896861621E+00 -0.9312530543456E+00  0.0000000000000E+00
 0.4762627614435E+00 -0.8491001779919E+00  0.0000000000000E+00
 0.4713677309814E+00 -0.7670611886636E+00  0.0000000000000E+00
 0.4652348212151E+00 -0.6851758238594E+00  0.0000000000000E+00
 0.4578971233085E+00 -0.6034725826789E+00  0.0000000000000E+00
 0.4495618794533E+00 -0.5219444779061E+00  0.0000000000000E+00
 0.4406496435805E+00 -0.4405277126782E+00  0.0000000000000E+00
 0.4317374077852E+00 -0.3591109474417E+00  0.0000000000000E+00
 0.4234021641542E+00 -0.2775828426453E+00  0.0000000000000E+00
 0.4160644665964E+00 -0.1958796014326E+00  0.0000000000000E+00
 0.4099315572753E+00 -0.1139942365940E+00  0.0000000000000E+00
 0.4050365273277E+00 -0.3195524723390E-01  0.0000000000000E+00
 0.4013096031704E+00  0.5019762914641E-01  0.0000000000000E+00
 0.3986364272057E+00  0.1324273892518E+00  0.0000000000000E+00
 0.3968927727197E+00  0.2147046482963E+00  0.0000000000000E+00
 0.3959612719321E+00  0.2970077578361E+00  0.0000000000000E+00
 0.5176748031315E+00 -0.1178334388446E+01  0.0000000000000E+00
 0.5166621180613E+00 -0.1096302483968E+01  0.0000000000000E+00
 0.5147831357883E+00 -0.1014296429452E+01  0.0000000000000E+00
 0.5119126640487E+00 -0.9323378730163E+00  0.0000000000000E+00
 0.5079181943651E+00 -0.8504561994364E+00  0.0000000000000E+00
 0.5026777453114E+00 -0.7686884121479E+00  0.0000000000000E+00
 0.4961168917201E+00 -0.6870742491826E+00  0.0000000000000E+00
 0.4882709307628E+00 -0.6056422106060E+00  0.0000000000000E+00
 0.4793609206920E+00 -0.5243853102994E+00  0.0000000000000E+00
 0.4698354523520E+00 -0.4432397514078E+00  0.0000000000000E+00
 0.4603099840896E+00 -0.3620941925070E+00  0.0000000000000E+00
 0.4513999742430E+00 -0.2808372921753E+00  0.0000000000000E+00
 0.4435540136345E+00 -0.1994052535644E+00  0.0000000000000E+00
 0.4369931604885E+00 -0.1177910905623E+00  0.0000000000000E+00
 0.4317527119493E+00 -0.3602330323987E-01  0.0000000000000E+00
 0.4277582428270E+00  0.4585837036842E-01  0.0000000000000E+00
 0.4248877716786E+00  0.1278169268257E+00  0.0000000000000E+00
 0.4230087900146E+00  0.2098229813567E+00  0.0000000000000E+00
 0.4219961055631E+00  0.2918548858427E+00  0.0000000000000E+00
 0.5500080506473E+00 -0.1178622037831E+01  0.0000000000000E+00
 0.5489106454817E+00 -0.1096877782317E+01  0.0000000000000E+00
 0.5468927995602E+00 -0.1015159376191E+01  0.0000000000000E+00
 0.5438214961249E+00 -0.9334884672285E+00  0.0000000000000E+00
 0.5395559449161E+00 -0.8518944401928E+00  0.0000000000000E+00
 0.5339665406536E+00 -0.7704142986701E+00  0.0000000000000E+00
 0.5269742065526E+00 -0.6890877812573E+00  0.0000000000000E+00
 0.5186164457815E+00 -0.6079433890446E+00  0.0000000000000E+00
 0.5091281326510E+00 -0.5269741370774E+00  0.0000000000000E+00
 0.4989858949427E+00 -0.4461162285085E+00  0.0000000000000E+00
 0.4888436573119E+00 -0.3652583199297E+00  0.0000000000000E+00
 0.4793553444056E+00 -0.2842890679358E+00  0.0000000000000E+00
 0.4709975839832E+00 -0.2031446756866E+00  0.0000000000000E+00
 0.4640052503276E+00 -0.1218181582348E+00  0.0000000000000E+00
 0.4584158465796E+00 -0.4033801667599E-01  0.0000000000000E+00
 0.4541502959321E+00  0.4125601038982E-01  0.0000000000000E+00
 0.4510789930880E+00  0.1229269193754E+00  0.0000000000000E+00
 0.4490611477755E+00  0.2046453255169E+00  0.0000000000000E+00
 0.4479637432285E+00  0.2863895810401E+00  0.0000000000000E+00
 0.5823375847483E+00 -0.1178925947981E+01  0.0000000000000E+00
 0.5811517460560E+00 -0.1097485602170E+01  0.0000000000000E+00
 0.5789913230366E+00 -0.1016071105142E+01  0.0000000000000E+00
 0.5757154744390E+00 -0.9347041043087E+00  0.0000000000000E+00
 0.5711751282173E+00 -0.8534139844207E+00  0.0000000000000E+00
 0.5652330552321E+00 -0.7722377492231E+00  0.0000000000000E+00
 0.5578055270715E+00 -0.6912151379102E+00  0.0000000000000E+00
 0.5489322528883E+00 -0.6103746526545E+00  0.0000000000000E+00
 0.5388619230434E+00 -0.5297093097315E+00  0.0000000000000E+00
 0.5280992022682E+00 -0.4491553123021E+00  0.0000000000000E+00
 0.5173364815706E+00 -0.3686013148624E+00  0.0000000000000E+00
 0.5072661519498E+00 -0.2879359719111E+00  0.0000000000000E+00
 0.4983928781155E+00 -0.2070954866168E+00  0.0000000000000E+00
 0.4909653504001E+00 -0.1260728752625E+00  0.0000000000000E+00
 0.4850232779294E+00 -0.4489664002671E-01  0.0000000000000E+00
 0.4804829322690E+00  0.3639347989323E-01  0.0000000000000E+00
 0.4772070842627E+00  0.1177604807511E+00  0.0000000000000E+00
 0.4750466618523E+00  0.1991749777953E+00  0.0000000000000E+00
 0.4738608237786E+00  0.2806153236156E+00  0.0000000000000E+00
 0.6146632317509E+00 -0.1179245927735E+01  0.0000000000000E+00
 0.6133850724925E+00 -0.1098125561208E+01  0.0000000000000E+00
 0.6110781854051E+00 -0.1017031042828E+01  0.0000000000000E+00
 0.6075939047578E+00 -0.9359840196208E+00  0.0000000000000E+00
 0.6027748767280E+00 -0.8550138763261E+00  0.0000000000000E+00
 0.5964762483236E+00 -0.7741576168557E+00  0.0000000000000E+00
 0.5886096395034E+00 -0.6934549810328E+00  0.0000000000000E+00
 0.5792169653885E+00 -0.6129344721698E+00  0.0000000000000E+00
 0.5685607323581E+00 -0.5325891078368E+00  0.0000000000000E+00
 0.5571736420618E+00 -0.4523550912038E+00  0.0000000000000E+00
 0.5457865518431E+00 -0.3721210745598E+00  0.0000000000000E+00
 0.5351303190368E+00 -0.2917757101970E+00  0.0000000000000E+00
 0.5257376452707E+00 -0.2112552012932E+00  0.0000000000000E+00
 0.5178710368958E+00 -0.1305525654266E+00  0.0000000000000E+00
 0.5115724090060E+00 -0.4969630591594E-01  0.0000000000000E+00
 0.5067533815375E+00  0.3127383741244E-01  0.0000000000000E+00
 0.5032691014814E+00  0.1123208606451E+00  0.0000000000000E+00
 0.5009622150030E+00  0.1934153790431E+00  0.0000000000000E+00
 0.4996840563632E+00  0.2745357455796E+00  0.0000000000000E+00
-0.1278896502369E+01 -0.1151672018574E+01  0.0000000000000E+00
-0.1293535989863E+01 -0.1042706098075E+01  0.0000000000000E+00
-0.1306740260238E+01 -0.9335568306302E+00  0.0000000000000E+00
-0.1318644601968E+01 -0.8242604251989E+00  0.0000000000000E+00
-0.1329259354471E+01 -0.7148349793802E+00  0.0000000000000E+00
-0.1338484588244E+01 -0.6052883756386E+00  0.0000000000000E+00
-0.1346107409420E+01 -0.4956230009344E+00  0.0000000000000E+00
-0.1352038793124E+01 -0.3858563250419E+00  0.0000000000000E+00
-0.1356201221531E+01 -0.2760094404429E+00  0.0000000000000E+00
-0.1358419956471E+01 -0.1661003673666E+00  0.0000000000000E+00
-0.1358695454008E+01 -0.5615693613661E-01  0.0000000000000E+00
-0.1357550403351E+01  0.5379250691215E-01  0.0000000000000E+00
-0.1350073384709E+01  0.1634872031569E+00  0.0000000000000E+00
-0.1331799419446E+01  0.2718874909373E+00  0.0000000000000E+00
-0.1302044898758E+01  0.3776416251695E+00  0.0000000000000E+00
-0.1260837701565E+01  0.4793297455530E+00  0.0000000000000E+00
-0.1209962422649E+01  0.5763646246461E+00  0.0000000000000E+00
-0.1151420815372E+01  0.6687610104146E+00  0.0000000000000E+00
-0.1085923484021E+01  0.7560985800172E+00  0.0000000000000E+00
-0.1245637993229E+01 -0.1153140953534E+01  0.0000000000000E+00
-0.1259434638352E+01 -0.1045658265064E+01  0.0000000000000E+00
-0.1271814610865E+01 -0.9380032398803E+00  0.0000000000000E+00
-0.1282897842471E+01 -0.8302113205031E+00  0.0000000000000E+00
-0.1292685410739E+01 -0.7223011985908E+00  0.0000000000000E+00
-0.1301074620519E+01 -0.6142822893251E+00  0.0000000000000E+00
-0.1307858886474E+01 -0.5061589456413E+00  0.0000000000000E+00
-0.1312956191413E+01 -0.3979492180895E+00  0.0000000000000E+00
-0.1316307640679E+01 -0.2896727215968E+00  0.0000000000000E+00
-0.1317777205404E+01 -0.1813431702324E+00  0.0000000000000E+00
-0.1317405808375E+01 -0.7298106903875E-01  0.0000000000000E+00
-0.1315729119569E+01  0.3539258808897E-01  0.0000000000000E+00
-0.1308123727530E+01  0.1435341243932E+00  0.0000000000000E+00
-0.1290374195784E+01  0.2504589646731E+00  0.0000000000000E+00
-0.1261835217099E+01  0.3548850080857E+00  0.0000000000000E+00
-0.1222528306679E+01  0.4554650322152E+00  0.0000000000000E+00
-0.1174136108167E+01  0.5516407687444E+00  0.0000000000000E+00
-0.1118546301820E+01  0.6434246428656E+00  0.0000000000000E+00
-0.1056423855374E+01  0.7304173146964E+00  0.0000000000000E+00
-0.1212379484089E+01 -0.1154609888494E+01  0.0000000000000E+00
-0.1225333286841E+01 -0.1048610432053E+01  0.0000000000000E+00
-0.1236888961493E+01 -0.9424496491304E+00  0.0000000000000E+00
-0.1247151082973E+01 -0.8361622158072E+00  0.0000000000000E+00
-0.1256111467007E+01 -0.7297674178015E+00  0.0000000000000E+00
-0.1263664652793E+01 -0.6232762030117E+00  0.0000000000000E+00
-0.1269610363529E+01 -0.5166948903483E+00  0.0000000000000E+00
-0.1273873589703E+01 -0.4100421111372E+00  0.0000000000000E+00
-0.1276414059827E+01 -0.3033360027507E+00  0.0000000000000E+00
-0.1277134454338E+01 -0.1965859730982E+00  0.0000000000000E+00
-0.1276116162743E+01 -0.8980520194089E-01  0.0000000000000E+00
-0.1273907835787E+01  0.1699266926579E-01  0.0000000000000E+00
-0.1266174070351E+01  0.1235810456296E+00  0.0000000000000E+00
-0.1248948972122E+01  0.2290304384090E+00  0.0000000000000E+00
-0.1221625535439E+01  0.3321283910018E+00  0.0000000000000E+00
-0.1184218911793E+01  0.4316003188775E+00  0.0000000000000E+00
-0.1138309793685E+01  0.5269169128427E+00  0.0000000000000E+00
-0.1085671788268E+01  0.6180882753165E+00  0.0000000000000E+00
-0.1026924226726E+01  0.7047360493755E+00  0.0000000000000E+00
-0.1179120974948E+01 -0.1156078823454E+01  0.0000000000000E+00
-0.1191231935330E+01 -0.1051562599042E+01  0.0000000000000E+00
-0.1201963312121E+01 -0.9468960583805E+00  0.0000000000000E+00
-0.1211404323475E+01 -0.8421131111114E+00  0.0000000000000E+00
-0.1219537523275E+01 -0.7372336370121E+00  0.0000000000000E+00
-0.1226254685067E+01 -0.6322701166982E+00  0.0000000000000E+00
-0.1231361840583E+01 -0.5272308350552E+00  0.0000000000000E+00
-0.1234790987992E+01 -0.4221350041848E+00  0.0000000000000E+00
-0.1236520478975E+01 -0.3169992839045E+00  0.0000000000000E+00
-0.1236491703271E+01 -0.2118287759639E+00  0.0000000000000E+00
-0.1234826517111E+01 -0.1066293348430E+00  0.0000000000000E+00
-0.1232086552004E+01 -0.1407249557388E-02  0.0000000000000E+00
-0.1224224413172E+01  0.1036279668659E+00  0.0000000000000E+00
-0.1207523748460E+01  0.2076019121449E+00  0.0000000000000E+00
-0.1181415853780E+01  0.3093717739179E+00  0.0000000000000E+00
-0.1145909516907E+01  0.4077356055397E+00  0.0000000000000E+00
-0.1102483479202E+01  0.5021930569409E+00  0.0000000000000E+00
-0.1052797274716E+01  0.5927519077675E+00  0.0000000000000E+00
-0.9974245980785E+00  0.6790547840547E+00  0.0000000000000E+00
-0.1145862465808E+01 -0.1157547758415E+01  0.0000000000000E+00
-0.1157130583818E+01 -0.1054514766032E+01  0.0000000000000E+00
-0.1167037662748E+01 -0.9513424676306E+00  0.0000000000000E+00
-0.1175657563978E+01 -0.8480640064155E+00  0.0000000000000E+00
-0.1182963579544E+01 -0.7446998562227E+00  0.0000000000000E+00
-0.1188844717341E+01 -0.6412640303847E+00  0.0000000000000E+00
-0.1193113317638E+01 -0.5377667797621E+00  0.0000000000000E+00
-0.1195708386282E+01 -0.4342278972324E+00  0.0000000000000E+00
-0.1196626898123E+01 -0.3306625650584E+00  0.0000000000000E+00
-0.1195848952204E+01 -0.2270715788297E+00  0.0000000000000E+00
-0.1193536871478E+01 -0.1234534677452E+00  0.0000000000000E+00
-0.1190265268222E+01 -0.1980716838057E-01  0.0000000000000E+00
-0.1182274755993E+01  0.8367488810228E-01  0.0000000000000E+00
-0.1166098524797E+01  0.1861733858807E+00  0.0000000000000E+00
-0.1141206172121E+01  0.2866151568340E+00  0.0000000000000E+00
-0.1107600122020E+01  0.3838708922020E+00  0.0000000000000E+00
-0.1066657164720E+01  0.4774692010392E+00  0.0000000000000E+00
-0.1019922761165E+01  0.5674155402184E+00  0.0000000000000E+00
-0.9679249694309E+00  0.6533735187339E+00  0.0000000000000E+00
-0.1112603956668E+01 -0.1159016693375E+01  0.0000000000000E+00
-0.1123029232307E+01 -0.1057466933021E+01  0.0000000000000E+00
-0.1132112013376E+01 -0.9557888768807E+00  0.0000000000000E+00
-0.1139910804480E+01 -0.8540149017197E+00  0.0000000000000E+00
-0.1146389635812E+01 -0.7521660754333E+00  0.0000000000000E+00
-0.1151434749615E+01 -0.6502579440712E+00  0.0000000000000E+00
-0.1154864794692E+01 -0.5483027244690E+00  0.0000000000000E+00
-0.1156625784571E+01 -0.4463207902801E+00  0.0000000000000E+00
-0.1156733317270E+01 -0.3443258462123E+00  0.0000000000000E+00
-0.1155206201138E+01 -0.2423143816954E+00  0.0000000000000E+00
-0.1152247225846E+01 -0.1402776006473E+00  0.0000000000000E+00
-0.1148443984439E+01 -0.3820708720374E-01  0.0000000000000E+00
-0.1140325098814E+01  0.6372180933864E-01  0.0000000000000E+00
-0.1124673301135E+01  0.1647448596166E+00  0.0000000000000E+00
-0.1100996490462E+01  0.2638585397501E+00  0.0000000000000E+00
-0.1069290727134E+01  0.3600061788643E+00  0.0000000000000E+00
-0.1030830850237E+01  0.4527453451374E+00  0.0000000000000E+00
-0.9870482476130E+00  0.5420791726694E+00  0.0000000000000E+00
-0.9384253407834E+00  0.6276922534130E+00  0.0000000000000E+00
-0.1079345447527E+01 -0.1160485628335E+01  0.0000000000000E+00
-0.1088927880796E+01 -0.1060419100010E+01  0.0000000000000E+00
-0.1097186364004E+01 -0.9602352861308E+00  0.0000000000000E+00
-0.1104164044982E+01 -0.8599657970238E+00  0.0000000000000E+00
-0.1109815692080E+01 -0.7596322946440E+00  0.0000000000000E+00
-0.1114024781889E+01 -0.6592518577578E+00  0.0000000000000E+00
-0.1116616271746E+01 -0.5588386691759E+00  0.0000000000000E+00
-0.1117543182861E+01 -0.4584136833277E+00  0.0000000000000E+00
-0.1116839736418E+01 -0.3579891273662E+00  0.0000000000000E+00
-0.1114563450071E+01 -0.2575571845612E+00  0.0000000000000E+00
-0.1110957580214E+01 -0.1571017335495E+00  0.0000000000000E+00
-0.1106622700657E+01 -0.5660700602692E-01  0.0000000000000E+00
-0.1098375441635E+01  0.4376873057499E-01  0.0000000000000E+00
-0.1083248077473E+01  0.1433163333524E+00  0.0000000000000E+00
-0.1060786808803E+01  0.2411019226662E+00  0.0000000000000E+00
-0.1030981332248E+01  0.3361414655265E+00  0.0000000000000E+00
-0.9950045357551E+00  0.4280214892357E+00  0.0000000000000E+00
-0.9541737340612E+00  0.5167428051204E+00  0.0000000000000E+00
-0.9089257121358E+00  0.6020109880922E+00  0.0000000000000E+00
-0.1046086938387E+01 -0.1161954563296E+01  0.0000000000000E+00
-0.1054826529285E+01 -0.1063371266999E+01  0.0000000000000E+00
-0.1062260714631E+01 -0.9646816953809E+00  0.0000000000000E+00
-0.1068417285485E+01 -0.8659166923280E+00  0.0000000000000E+00
-0.1073241748349E+01 -0.7670985138546E+00  0.0000000000000E+00
-0.1076614814163E+01 -0.6682457714443E+00  0.0000000000000E+00
-0.1078367748801E+01 -0.5693746138828E+00  0.0000000000000E+00
-0.1078460581150E+01 -0.4705065763753E+00  0.0000000000000E+00
-0.1076946155566E+01 -0.3716524085200E+00  0.0000000000000E+00
-0.1073920699005E+01 -0.2727999874270E+00  0.0000000000000E+00
-0.1069667934581E+01 -0.1739258664516E+00  0.0000000000000E+00
-0.1064801416874E+01 -0.7500692485010E-01  0.0000000000000E+00
-0.1056425784456E+01  0.2381565181134E-01  0.0000000000000E+00
-0.1041822853810E+01  0.1218878070883E+00  0.0000000000000E+00
-0.1020577127143E+01  0.2183453055823E+00  0.0000000000000E+00
-0.9926719373617E+00  0.3122767521888E+00  0.0000000000000E+00
-0.9591782212728E+00  0.4032976333339E+00  0.0000000000000E+00
-0.9212992205094E+00  0.4914064375713E+00  0.0000000000000E+00
-0.8794260834883E+00  0.5763297227714E+00  0.0000000000000E+00
-0.1012828429247E+01 -0.1163423498256E+01  0.0000000000000E+00
-0.1020725177774E+01 -0.1066323433989E+01  0.0000000000000E+00
-0.1027335065259E+01 -0.9691281046309E+00  0.0000000000000E+00
-0.1032670525987E+01 -0.8718675876321E+00  0.0000000000000E+00
-0.1036667804617E+01 -0.7745647330652E+00  0.0000000000000E+00
-0.1039204846437E+01 -0.6772396851308E+00  0.0000000000000E+00
-0.1040119225855E+01 -0.5799105585897E+00  0.0000000000000E+00
-0.1039377979440E+01 -0.4825994694230E+00  0.0000000000000E+00
-0.1037052574714E+01 -0.3853156896739E+00  0.0000000000000E+00
-0.1033277947938E+01 -0.2880427902927E+00  0.0000000000000E+00
-0.1028378288949E+01 -0.1907499993537E+00  0.0000000000000E+00
-0.1022980133092E+01 -0.9340684367328E-01  0.0000000000000E+00
-0.1014476127276E+01  0.3862573047696E-02  0.0000000000000E+00
-0.1000397630148E+01  0.1004592808241E+00  0.0000000000000E+00
-0.9803674454841E+00  0.1955886884984E+00  0.0000000000000E+00
-0.9543625424755E+00  0.2884120388510E+00  0.0000000000000E+00
-0.9233519067904E+00  0.3785737774322E+00  0.0000000000000E+00
-0.8884247069577E+00  0.4660700700223E+00  0.0000000000000E+00
-0.8499264548408E+00  0.5506484574506E+00  0.0000000000000E+00
-0.9795699201063E+00 -0.1164892433216E+01  0.0000000000000E+00
-0.9866238262626E+00 -0.1069275600978E+01  0.0000000000000E+00
-0.9924094158868E+00 -0.9735745138810E+00  0.0000000000000E+00
-0.9969237664891E+00 -0.8778184829363E+00  0.0000000000000E+00
-0.1000093860885E+01 -0.7820309522758E+00  0.0000000000000E+00
-0.1001794878711E+01 -0.6862335988173E+00  0.0000000000000E+00
-0.1001870702910E+01 -0.5904465032966E+00  0.0000000000000E+00
-0.1000295377729E+01 -0.4946923624706E+00  0.0000000000000E+00
-0.9971589938620E+00 -0.3989789708278E+00  0.0000000000000E+00
-0.9926351968715E+00 -0.3032855931585E+00  0.0000000000000E+00
-0.9870886433164E+00 -0.2075741322559E+00  0.0000000000000E+00
-0.9811588493097E+00 -0.1118067624965E+00  0.0000000000000E+00
-0.9725264700973E+00 -0.1609050571595E-01  0.0000000000000E+00
-0.9589724064858E+00  0.7903075455998E-01  0.0000000000000E+00
-0.9401577638249E+00  0.1728320714145E+00  0.0000000000000E+00
-0.9160531475893E+00  0.2645473255133E+00  0.0000000000000E+00
-0.8875255923080E+00  0.3538499215304E+00  0.0000000000000E+00
-0.8555501934059E+00  0.4407337024732E+00  0.0000000000000E+00
-0.8204268261932E+00  0.5249671921297E+00  0.0000000000000E+00
-0.9463114109659E+00 -0.1166361368177E+01  0.0000000000000E+00
-0.9525224747514E+00 -0.1072227767967E+01  0.0000000000000E+00
-0.9574837665145E+00 -0.9780209231311E+00  0.0000000000000E+00
-0.9611770069914E+00 -0.8837693782404E+00  0.0000000000000E+00
-0.9635199171535E+00 -0.7894971714864E+00  0.0000000000000E+00
-0.9643849109855E+00 -0.6952275125039E+00  0.0000000000000E+00
-0.9636221799641E+00 -0.6009824480035E+00  0.0000000000000E+00
-0.9612127760186E+00 -0.5067852555182E+00  0.0000000000000E+00
-0.9572654130098E+00 -0.4126422519817E+00  0.0000000000000E+00
-0.9519924458049E+00 -0.3185283960243E+00  0.0000000000000E+00
-0.9457989976841E+00 -0.2243982651580E+00  0.0000000000000E+00
-0.9393375655272E+00 -0.1302066813196E+00  0.0000000000000E+00
-0.9305768129182E+00 -0.3604358447960E-01  0.0000000000000E+00
-0.9175471828235E+00  0.5760222829584E-01  0.0000000000000E+00
-0.8999480821656E+00  0.1500754543306E+00  0.0000000000000E+00
-0.8777437527031E+00  0.2406826121755E+00  0.0000000000000E+00
-0.8516992778257E+00  0.3291260656287E+00  0.0000000000000E+00
-0.8226756798541E+00  0.4153973349242E+00  0.0000000000000E+00
-0.7909271975457E+00  0.4992859268089E+00  0.0000000000000E+00
-0.9130529018256E+00 -0.1167830303137E+01  0.0000000000000E+00
-0.9184211232403E+00 -0.1075179934956E+01  0.0000000000000E+00
-0.9225581171422E+00 -0.9824673323812E+00  0.0000000000000E+00
-0.9254302474937E+00 -0.8897202735446E+00  0.0000000000000E+00
-0.9269459734218E+00 -0.7969633906971E+00  0.0000000000000E+00
-0.9269749432596E+00 -0.7042214261904E+00  0.0000000000000E+00
-0.9253736570186E+00 -0.6115183927104E+00  0.0000000000000E+00
-0.9221301743080E+00 -0.5188781485659E+00  0.0000000000000E+00
-0.9173718321577E+00 -0.4263055331355E+00  0.0000000000000E+00
-0.9113496947383E+00 -0.3337711988900E+00  0.0000000000000E+00
-0.9045093520517E+00 -0.2412223980602E+00  0.0000000000000E+00
-0.8975162817448E+00 -0.1486066001428E+00  0.0000000000000E+00
-0.8886271557392E+00 -0.5599666324325E-01  0.0000000000000E+00
-0.8761219591612E+00  0.3617370203170E-01  0.0000000000000E+00
-0.8597384005064E+00  0.1273188372467E+00  0.0000000000000E+00
-0.8394343578169E+00  0.2168178988378E+00  0.0000000000000E+00
-0.8158729633433E+00  0.3044022097269E+00  0.0000000000000E+00
-0.7898011663024E+00  0.3900609673752E+00  0.0000000000000E+00
-0.7614275688981E+00  0.4736046614881E+00  0.0000000000000E+00
-0.8797943926852E+00 -0.1169299238097E+01  0.0000000000000E+00
-0.8843197717291E+00 -0.1078132101946E+01  0.0000000000000E+00
-0.8876324677699E+00 -0.9869137416313E+00  0.0000000000000E+00
-0.8896834879960E+00 -0.8956711688487E+00  0.0000000000000E+00
-0.8903720296900E+00 -0.8044296099077E+00  0.0000000000000E+00
-0.8895649755337E+00 -0.7132153398769E+00  0.0000000000000E+00
-0.8871251340730E+00 -0.6220543374173E+00  0.0000000000000E+00
-0.8830475725975E+00 -0.5309710416135E+00  0.0000000000000E+00
-0.8774782513056E+00 -0.4399688142894E+00  0.0000000000000E+00
-0.8707069436717E+00 -0.3490140017558E+00  0.0000000000000E+00
-0.8632197064193E+00 -0.2580465309623E+00  0.0000000000000E+00
-0.8556949979624E+00 -0.1670065189660E+00  0.0000000000000E+00
-0.8466774985601E+00 -0.7594974200689E-01  0.0000000000000E+00
-0.8346967354989E+00  0.1474517576755E-01  0.0000000000000E+00
-0.8195287188472E+00  0.1045622201628E+00  0.0000000000000E+00
-0.8011249629307E+00  0.1929531855000E+00  0.0000000000000E+00
-0.7800466488610E+00  0.2796783538252E+00  0.0000000000000E+00
-0.7569266527506E+00  0.3647245998261E+00  0.0000000000000E+00
-0.7319279402506E+00  0.4479233961672E+00  0.0000000000000E+00
-0.8465358835449E+00 -0.1170768173058E+01  0.0000000000000E+00
-0.8502184202179E+00 -0.1081084268935E+01  0.0000000000000E+00
-0.8527068183976E+00 -0.9913601508814E+00  0.0000000000000E+00
-0.8539367284983E+00 -0.9016220641529E+00  0.0000000000000E+00
-0.8537980859583E+00 -0.8118958291183E+00  0.0000000000000E+00
-0.8521550078078E+00 -0.7222092535634E+00  0.0000000000000E+00
-0.8488766111274E+00 -0.6325902821242E+00  0.0000000000000E+00
-0.8439649708870E+00 -0.5430639346611E+00  0.0000000000000E+00
-0.8375846704535E+00 -0.4536320954433E+00  0.0000000000000E+00
-0.8300641926051E+00 -0.3642568046215E+00  0.0000000000000E+00
-0.8219300607870E+00 -0.2748706638644E+00  0.0000000000000E+00
-0.8138737141800E+00 -0.1854064377892E+00  0.0000000000000E+00
-0.8047278413810E+00 -0.9590282077054E-01  0.0000000000000E+00
-0.7932715118366E+00 -0.6683350496594E-02  0.0000000000000E+00
-0.7793190371880E+00  0.8180560307893E-01  0.0000000000000E+00
-0.7628155680445E+00  0.1690884721623E+00  0.0000000000000E+00
-0.7442203343786E+00  0.2549544979234E+00  0.0000000000000E+00
-0.7240521391988E+00  0.3393882322771E+00  0.0000000000000E+00
-0.7024283116030E+00  0.4222421308464E+00  0.0000000000000E+00
-0.8132773744045E+00 -0.1172237108018E+01  0.0000000000000E+00
-0.8161170687067E+00 -0.1084036435924E+01  0.0000000000000E+00
-0.8177811690253E+00 -0.9958065601315E+00  0.0000000000000E+00
-0.8181899690006E+00 -0.9075729594570E+00  0.0000000000000E+00
-0.8172241422266E+00 -0.8193620483289E+00  0.0000000000000E+00
-0.8147450400819E+00 -0.7312031672500E+00  0.0000000000000E+00
-0.8106280881819E+00 -0.6431262268311E+00  0.0000000000000E+00
-0.8048823691764E+00 -0.5551568277088E+00  0.0000000000000E+00
-0.7976910896013E+00 -0.4672953765972E+00  0.0000000000000E+00
-0.7894214415385E+00 -0.3794996074873E+00  0.0000000000000E+00
-0.7806404151546E+00 -0.2916947967666E+00  0.0000000000000E+00
-0.7720524303976E+00 -0.2038063566123E+00  0.0000000000000E+00
-0.7627781842019E+00 -0.1158558995342E+00  0.0000000000000E+00
-0.7518462881743E+00 -0.2811187676074E-01  0.0000000000000E+00
-0.7391093555288E+00  0.5904898599503E-01  0.0000000000000E+00
-0.7245061731583E+00  0.1452237588245E+00  0.0000000000000E+00
-0.7083940198962E+00  0.2302306420217E+00  0.0000000000000E+00
-0.6911776256471E+00  0.3140518647280E+00  0.0000000000000E+00
-0.6729286829555E+00  0.3965608655256E+00  0.0000000000000E+00
-0.7800188652641E+00 -0.1173706042978E+01  0.0000000000000E+00
-0.7820157171956E+00 -0.1086988602913E+01  0.0000000000000E+00
-0.7828555196530E+00 -0.1000252969382E+01  0.0000000000000E+00
-0.7824432095029E+00 -0.9135238547612E+00  0.0000000000000E+00
-0.7806501984949E+00 -0.8268282675395E+00  0.0000000000000E+00
-0.7773350723560E+00 -0.7401970809365E+00  0.0000000000000E+00
-0.7723795652363E+00 -0.6536621715381E+00  0.0000000000000E+00
-0.7657997674659E+00 -0.5672497207564E+00  0.0000000000000E+00
-0.7577975087492E+00 -0.4809586577510E+00  0.0000000000000E+00
-0.7487786904719E+00 -0.3947424103531E+00  0.0000000000000E+00
-0.7393507695222E+00 -0.3085189296687E+00  0.0000000000000E+00
-0.7302311466152E+00 -0.2222062754355E+00  0.0000000000000E+00
-0.7208285270228E+00 -0.1358089782978E+00  0.0000000000000E+00
-0.7104210645120E+00 -0.4954040302488E-01  0.0000000000000E+00
-0.6988996738695E+00  0.3629236891114E-01  0.0000000000000E+00
-0.6861967782721E+00  0.1213590454868E+00  0.0000000000000E+00
-0.6725677054139E+00  0.2055067861199E+00  0.0000000000000E+00
-0.6583031120953E+00  0.2887154971790E+00  0.0000000000000E+00
-0.6434290543080E+00  0.3708796002047E+00  0.0000000000000E+00
-0.7467603561238E+00 -0.1175174977939E+01  0.0000000000000E+00
-0.7479143656844E+00 -0.1089940769903E+01  0.0000000000000E+00
-0.7479298702806E+00 -0.1004699378632E+01  0.0000000000000E+00
-0.7466964500052E+00 -0.9194747500653E+00  0.0000000000000E+00
-0.7440762547632E+00 -0.8342944867502E+00  0.0000000000000E+00
-0.7399251046301E+00 -0.7491909946230E+00  0.0000000000000E+00
-0.7341310422907E+00 -0.6641981162450E+00  0.0000000000000E+00
-0.7267171657554E+00 -0.5793426138040E+00  0.0000000000000E+00
-0.7179039278971E+00 -0.4946219389049E+00  0.0000000000000E+00
-0.7081359394053E+00 -0.4099852132188E+00  0.0000000000000E+00
-0.6980611238899E+00 -0.3253430625709E+00  0.0000000000000E+00
-0.6884098628328E+00 -0.2406061942587E+00  0.0000000000000E+00
-0.6788788698437E+00 -0.1557620570615E+00  0.0000000000000E+00
-0.6689958408497E+00 -0.7096892928903E-01  0.0000000000000E+00
-0.6586899922103E+00  0.1353575182724E-01  0.0000000000000E+00
-0.6478873833859E+00  0.9749433214906E-01  0.0000000000000E+00
-0.6367413909315E+00  0.1807829302182E+00  0.0000000000000E+00
-0.6254285985435E+00  0.2633791296299E+00  0.0000000000000E+00
-0.6139294256604E+00  0.3451983348839E+00  0.0000000000000E+00
-0.7135018469834E+00 -0.1176643912899E+01  0.0000000000000E+00
-0.7138130141732E+00 -0.1092892936892E+01  0.0000000000000E+00
-0.7130042209083E+00 -0.1009145787882E+01  0.0000000000000E+00
-0.7109496905075E+00 -0.9254256453695E+00  0.0000000000000E+00
-0.7075023110315E+00 -0.8417607059608E+00  0.0000000000000E+00
-0.7025151369042E+00 -0.7581849083095E+00  0.0000000000000E+00
-0.6958825193452E+00 -0.6747340609519E+00  0.0000000000000E+00
-0.6876345640448E+00 -0.5914355068517E+00  0.0000000000000E+00
-0.6780103470450E+00 -0.5082852200588E+00  0.0000000000000E+00
-0.6674931883387E+00 -0.4252280160846E+00  0.0000000000000E+00
-0.6567714782575E+00 -0.3421671954730E+00  0.0000000000000E+00
-0.6465885790503E+00 -0.2590061130819E+00  0.0000000000000E+00
-0.6369292126646E+00 -0.1757151358251E+00  0.0000000000000E+00
-0.6275706171874E+00 -0.9239745555317E-01  0.0000000000000E+00
-0.6184803105511E+00 -0.9220865256651E-02  0.0000000000000E+00
-0.6095779884997E+00  0.7362961881131E-01  0.0000000000000E+00
-0.6009150764492E+00  0.1560590743164E+00  0.0000000000000E+00
-0.5925540849918E+00  0.2380427620809E+00  0.0000000000000E+00
-0.5844297970129E+00  0.3195170695631E+00  0.0000000000000E+00
-0.6802433378431E+00 -0.1178112847859E+01  0.0000000000000E+00
-0.6797116626621E+00 -0.1095845103881E+01  0.0000000000000E+00
-0.6780785715360E+00 -0.1013592197132E+01  0.0000000000000E+00
-0.6752029310098E+00 -0.9313765406736E+00  0.0000000000000E+00
-0.6709283672997E+00 -0.8492269251714E+00  0.0000000000000E+00
-0.6651051691783E+00 -0.7671788219961E+00  0.0000000000000E+00
-0.6576339963996E+00 -0.6852700056588E+00  0.0000000000000E+00
-0.6485519623343E+00 -0.6035283998993E+00  0.0000000000000E+00
-0.6381167661928E+00 -0.5219485012127E+00  0.0000000000000E+00
-0.6268504372721E+00 -0.4404708189504E+00  0.0000000000000E+00
-0.6154818326251E+00 -0.3589913283751E+00  0.0000000000000E+00
-0.6047672952679E+00 -0.2774060319051E+00  0.0000000000000E+00
-0.5949795554855E+00 -0.1956682145888E+00  0.0000000000000E+00
-0.5861453935251E+00 -0.1138259818173E+00  0.0000000000000E+00
-0.5782706288919E+00 -0.3197748234054E-01  0.0000000000000E+00
-0.5712685936135E+00  0.4976490547357E-01  0.0000000000000E+00
-0.5650887619668E+00  0.1313352184147E+00  0.0000000000000E+00
-0.5596795714400E+00  0.2127063945319E+00  0.0000000000000E+00
-0.5549301683653E+00  0.2938358042423E+00  0.0000000000000E+00
 0.6802433484435E+00 -0.1178112847849E+01  0.0000000000000E+00
 0.6797116720780E+00 -0.1095845103875E+01  0.0000000000000E+00
 0.6780785797770E+00 -0.1013592197145E+01  0.0000000000000E+00
 0.6752029380933E+00 -0.9313765407239E+00  0.0000000000000E+00
 0.6709283732554E+00 -0.8492269252769E+00  0.0000000000000E+00
 0.6651051740529E+00 -0.7671788221750E+00  0.0000000000000E+00
 0.6576340002627E+00 -0.6852700059262E+00  0.0000000000000E+00
 0.6485519652821E+00 -0.6035284002639E+00  0.0000000000000E+00
 0.6381167683488E+00 -0.5219485016727E+00  0.0000000000000E+00
 0.6268504387797E+00 -0.4404708194920E+00  0.0000000000000E+00
 0.6154818336317E+00 -0.3589913289766E+00  0.0000000000000E+00
 0.6047672959142E+00 -0.2774060325421E+00  0.0000000000000E+00
 0.5949795559123E+00 -0.1956682152389E+00  0.0000000000000E+00
 0.5861453938334E+00 -0.1138259824613E+00  0.0000000000000E+00
 0.5782706291498E+00 -0.3197748296223E-01  0.0000000000000E+00
 0.5712685938666E+00  0.4976490488478E-01  0.0000000000000E+00
 0.5650887622411E+00  0.1313352178655E+00  0.0000000000000E+00
 0.5596795717538E+00  0.2127063940286E+00  0.0000000000000E+00
 0.5549301687313E+00  0.2938358037924E+00  0.0000000000000E+00
 0.7135018570198E+00 -0.1176643912919E+01  0.0000000000000E+00
 0.7138130230836E+00 -0.1092892936945E+01  0.0000000000000E+00
 0.7130042287029E+00 -0.1009145787984E+01  0.0000000000000E+00
 0.7109496972034E+00 -0.9254256455366E+00  0.0000000000000E+00
 0.7075023166577E+00 -0.8417607062105E+00  0.0000000000000E+00
 0.7025151415061E+00 -0.7581849086590E+00  0.0000000000000E+00
 0.6958825229899E+00 -0.6747340614155E+00  0.0000000000000E+00
 0.6876345668242E+00 -0.5914355074377E+00  0.0000000000000E+00
 0.6780103490774E+00 -0.5082852207655E+00  0.0000000000000E+00
 0.6674931897617E+00 -0.4252280168988E+00  0.0000000000000E+00
 0.6567714792105E+00 -0.3421671963741E+00  0.0000000000000E+00
 0.6465885796710E+00 -0.2590061140468E+00  0.0000000000000E+00
 0.6369292131142E+00 -0.1757151368302E+00  0.0000000000000E+00
 0.6275706175752E+00 -0.9239745657483E-01  0.0000000000000E+00
 0.6184803109469E+00 -0.9220866271635E-02  0.0000000000000E+00
 0.6095779889493E+00  0.7362961781919E-01  0.0000000000000E+00
 0.6009150769751E+00  0.1560590733582E+00  0.0000000000000E+00
 0.5925540856125E+00  0.2380427611681E+00  0.0000000000000E+00
 0.5844297977438E+00  0.3195170687102E+00  0.0000000000000E+00
 0.7467603655960E+00 -0.1175174977988E+01  0.0000000000000E+00
 0.7479143740892E+00 -0.1089940770016E+01  0.0000000000000E+00
 0.7479298776287E+00 -0.1004699378822E+01  0.0000000000000E+00
 0.7466964563136E+00 -0.9194747503494E+00  0.0000000000000E+00
 0.7440762600600E+00 -0.8342944871440E+00  0.0000000000000E+00
 0.7399251089593E+00 -0.7491909951431E+00  0.0000000000000E+00
 0.7341310457170E+00 -0.6641981169049E+00  0.0000000000000E+00
 0.7267171683664E+00 -0.5793426146115E+00  0.0000000000000E+00
 0.7179039298061E+00 -0.4946219398584E+00  0.0000000000000E+00
 0.7081359407437E+00 -0.4099852143056E+00  0.0000000000000E+00
 0.6980611247893E+00 -0.3253430637716E+00  0.0000000000000E+00
 0.6884098634278E+00 -0.2406061955515E+00  0.0000000000000E+00
 0.6788788703161E+00 -0.1557620584214E+00  0.0000000000000E+00
 0.6689958413171E+00 -0.7096893068838E-01  0.0000000000000E+00
 0.6586899927439E+00  0.1353575041896E-01  0.0000000000000E+00
 0.6478873840319E+00  0.9749433075359E-01  0.0000000000000E+00
 0.6367413917090E+00  0.1807829288509E+00  0.0000000000000E+00
 0.6254285994712E+00  0.2633791283076E+00  0.0000000000000E+00
 0.6139294267563E+00  0.3451983336280E+00  0.0000000000000E+00
 0.7800188741723E+00 -0.1173706043058E+01  0.0000000000000E+00
 0.7820157250948E+00 -0.1086988603087E+01  0.0000000000000E+00
 0.7828555265545E+00 -0.1000252969661E+01  0.0000000000000E+00
 0.7824432154237E+00 -0.9135238551621E+00  0.0000000000000E+00
 0.7806502034623E+00 -0.8268282680776E+00  0.0000000000000E+00
 0.7773350764125E+00 -0.7401970816272E+00  0.0000000000000E+00
 0.7723795684441E+00 -0.6536621723942E+00  0.0000000000000E+00
 0.7657997699086E+00 -0.5672497217854E+00  0.0000000000000E+00
 0.7577975105347E+00 -0.4809586589513E+00  0.0000000000000E+00
 0.7487786917257E+00 -0.3947424117123E+00  0.0000000000000E+00
 0.7393507703682E+00 -0.3085189311692E+00  0.0000000000000E+00
 0.7302311471845E+00 -0.2222062770562E+00  0.0000000000000E+00
 0.7208285275179E+00 -0.1358089800127E+00  0.0000000000000E+00
 0.7104210650589E+00 -0.4954040480193E-01  0.0000000000000E+00
 0.6988996745410E+00  0.3629236710956E-01  0.0000000000000E+00
 0.6861967791145E+00  0.1213590436880E+00  0.0000000000000E+00
 0.6725677064430E+00  0.2055067843436E+00  0.0000000000000E+00
 0.6583031133299E+00  0.2887154954471E+00  0.0000000000000E+00
 0.6434290557688E+00  0.3708795985458E+00  0.0000000000000E+00
 0.8132773827486E+00 -0.1172237108128E+01  0.0000000000000E+00
 0.8161170761004E+00 -0.1084036436157E+01  0.0000000000000E+00
 0.8177811754804E+00 -0.9958065604997E+00  0.0000000000000E+00
 0.8181899745339E+00 -0.9075729599749E+00  0.0000000000000E+00
 0.8172241468646E+00 -0.8193620490111E+00  0.0000000000000E+00
 0.8147450438657E+00 -0.7312031681112E+00  0.0000000000000E+00
 0.8106280911713E+00 -0.6431262278835E+00  0.0000000000000E+00
 0.8048823714508E+00 -0.5551568289592E+00  0.0000000000000E+00
 0.7976910912633E+00 -0.4672953780442E+00  0.0000000000000E+00
 0.7894214427077E+00 -0.3794996091191E+00  0.0000000000000E+00
 0.7806404159470E+00 -0.2916947985667E+00  0.0000000000000E+00
 0.7720524309413E+00 -0.2038063585610E+00  0.0000000000000E+00
 0.7627781847198E+00 -0.1158559016039E+00  0.0000000000000E+00
 0.7518462888007E+00 -0.2811187891548E-01  0.0000000000000E+00
 0.7391093563381E+00  0.5904898380016E-01  0.0000000000000E+00
 0.7245061741971E+00  0.1452237566224E+00  0.0000000000000E+00
 0.7083940211769E+00  0.2302306398363E+00  0.0000000000000E+00
 0.6911776271886E+00  0.3140518625866E+00  0.0000000000000E+00
 0.6729286847813E+00  0.3965608634636E+00  0.0000000000000E+00
 0.8465358913249E+00 -0.1170768173198E+01  0.0000000000000E+00
 0.8502184271060E+00 -0.1081084269228E+01  0.0000000000000E+00
 0.8527068244062E+00 -0.9913601513384E+00  0.0000000000000E+00
 0.8539367336440E+00 -0.9016220647876E+00  0.0000000000000E+00
 0.8537980902669E+00 -0.8118958299447E+00  0.0000000000000E+00
 0.8521550113189E+00 -0.7222092545953E+00  0.0000000000000E+00
 0.8488766138984E+00 -0.6325902833728E+00  0.0000000000000E+00
 0.8439649729930E+00 -0.5430639361330E+00  0.0000000000000E+00
 0.8375846719920E+00 -0.4536320971370E+00  0.0000000000000E+00
 0.8300641936896E+00 -0.3642568065259E+00  0.0000000000000E+00
 0.8219300615258E+00 -0.2748706659642E+00  0.0000000000000E+00
 0.8138737146981E+00 -0.1854064400657E+00  0.0000000000000E+00
 0.8047278419217E+00 -0.9590282319517E-01  0.0000000000000E+00
 0.7932715125426E+00 -0.6683353029025E-02  0.0000000000000E+00
 0.7793190381351E+00  0.8180560049076E-01  0.0000000000000E+00
 0.7628155692797E+00  0.1690884695568E+00  0.0000000000000E+00
 0.7442203359109E+00  0.2549544953290E+00  0.0000000000000E+00
 0.7240521410473E+00  0.3393882297260E+00  0.0000000000000E+00
 0.7024283137938E+00  0.4222421283815E+00  0.0000000000000E+00
 0.8797943999012E+00 -0.1169299238267E+01  0.0000000000000E+00
 0.8843197781116E+00 -0.1078132102298E+01  0.0000000000000E+00
 0.8876324733320E+00 -0.9869137421770E+00  0.0000000000000E+00
 0.8896834927542E+00 -0.8956711696004E+00  0.0000000000000E+00
 0.8903720336692E+00 -0.8044296108782E+00  0.0000000000000E+00
 0.8895649787720E+00 -0.7132153410794E+00  0.0000000000000E+00
 0.8871251366255E+00 -0.6220543388621E+00  0.0000000000000E+00
 0.8830475745352E+00 -0.5309710433068E+00  0.0000000000000E+00
 0.8774782527206E+00 -0.4399688162299E+00  0.0000000000000E+00
 0.8707069446716E+00 -0.3490140039327E+00  0.0000000000000E+00
 0.8632197071046E+00 -0.2580465333617E+00  0.0000000000000E+00
 0.8556949984549E+00 -0.1670065215704E+00  0.0000000000000E+00
 0.8466774991235E+00 -0.7594974478642E-01  0.0000000000000E+00
 0.8346967362844E+00  0.1474517285743E-01  0.0000000000000E+00
 0.8195287199322E+00  0.1045622171814E+00  0.0000000000000E+00
 0.8011249643623E+00  0.1929531824912E+00  0.0000000000000E+00
 0.7800466506448E+00  0.2796783508217E+00  0.0000000000000E+00
 0.7569266549060E+00  0.3647245968655E+00  0.0000000000000E+00
 0.7319279428062E+00  0.4479233932993E+00  0.0000000000000E+00
 0.9130529084775E+00 -0.1167830303337E+01  0.0000000000000E+00
 0.9184211291173E+00 -0.1075179935369E+01  0.0000000000000E+00
 0.9225581222579E+00 -0.9824673330156E+00  0.0000000000000E+00
 0.9254302518643E+00 -0.8897202744131E+00  0.0000000000000E+00
 0.9269459770715E+00 -0.7969633918117E+00  0.0000000000000E+00
 0.9269749462252E+00 -0.7042214275634E+00  0.0000000000000E+00
 0.9253736593527E+00 -0.6115183943514E+00  0.0000000000000E+00
 0.9221301760774E+00 -0.5188781504806E+00  0.0000000000000E+00
 0.9173718334493E+00 -0.4263055353228E+00  0.0000000000000E+00
 0.9113496956536E+00 -0.3337712013394E+00  0.0000000000000E+00
 0.9045093526834E+00 -0.2412224007593E+00  0.0000000000000E+00
 0.8975162822117E+00 -0.1486066030751E+00  0.0000000000000E+00
 0.8886271563254E+00 -0.5599666637767E-01  0.0000000000000E+00
 0.8761219600262E+00  0.3617369874388E-01  0.0000000000000E+00
 0.8597384017292E+00  0.1273188338720E+00  0.0000000000000E+00
 0.8394343594449E+00  0.2168178954256E+00  0.0000000000000E+00
 0.8158729653788E+00  0.3044022063144E+00  0.0000000000000E+00
 0.7898011687647E+00  0.3900609640050E+00  0.0000000000000E+00
 0.7614275718187E+00  0.4736046582171E+00  0.0000000000000E+00
 0.9463114170538E+00 -0.1166361368407E+01  0.0000000000000E+00
 0.9525224801229E+00 -0.1072227768440E+01  0.0000000000000E+00
 0.9574837711837E+00 -0.9780209238543E+00  0.0000000000000E+00
 0.9611770109745E+00 -0.8837693792259E+00  0.0000000000000E+00
 0.9635199204738E+00 -0.7894971727453E+00  0.0000000000000E+00
 0.9643849136784E+00 -0.6952275140475E+00  0.0000000000000E+00
 0.9636221820798E+00 -0.6009824498407E+00  0.0000000000000E+00
 0.9612127776196E+00 -0.5067852576544E+00  0.0000000000000E+00
 0.9572654141779E+00 -0.4126422544157E+00  0.0000000000000E+00
 0.9519924466356E+00 -0.3185283987462E+00  0.0000000000000E+00
 0.9457989982622E+00 -0.2243982681568E+00  0.0000000000000E+00
 0.9393375659685E+00 -0.1302066845798E+00  0.0000000000000E+00
 0.9305768135273E+00 -0.3604358796892E-01  0.0000000000000E+00
 0.9175471837681E+00  0.5760222463033E-01  0.0000000000000E+00
 0.8999480835263E+00  0.1500754505626E+00  0.0000000000000E+00
 0.8777437545275E+00  0.2406826083600E+00  0.0000000000000E+00
 0.8516992801127E+00  0.3291260618070E+00  0.0000000000000E+00
 0.8226756826234E+00  0.4153973311445E+00  0.0000000000000E+00
 0.7909272008312E+00  0.4992859231349E+00  0.0000000000000E+00
 0.9795699256300E+00 -0.1164892433477E+01  0.0000000000000E+00
 0.9866238311285E+00 -0.1069275601510E+01  0.0000000000000E+00
 0.9924094201095E+00 -0.9735745146929E+00  0.0000000000000E+00
 0.9969237700846E+00 -0.8778184840386E+00  0.0000000000000E+00
 0.1000093863876E+01 -0.7820309536788E+00  0.0000000000000E+00
 0.1001794881132E+01 -0.6862336005316E+00  0.0000000000000E+00
 0.1001870704807E+01 -0.5904465053301E+00  0.0000000000000E+00
 0.1000295379162E+01 -0.4946923648282E+00  0.0000000000000E+00
 0.9971589949066E+00 -0.3989789735085E+00  0.0000000000000E+00
 0.9926351976176E+00 -0.3032855961530E+00  0.0000000000000E+00
 0.9870886438410E+00 -0.2075741355543E+00  0.0000000000000E+00
 0.9811588497253E+00 -0.1118067660845E+00  0.0000000000000E+00
 0.9725264707291E+00 -0.1609050956017E-01  0.0000000000000E+00
 0.9589724075099E+00  0.7903075051678E-01  0.0000000000000E+00
 0.9401577653233E+00  0.1728320672532E+00  0.0000000000000E+00
 0.9160531496101E+00  0.2645473212944E+00  0.0000000000000E+00
 0.8875255948467E+00  0.3538499172997E+00  0.0000000000000E+00
 0.8555501964822E+00  0.4407336982840E+00  0.0000000000000E+00
 0.8204268298437E+00  0.5249671880527E+00  0.0000000000000E+00
 0.1012828434206E+01 -0.1163423498546E+01  0.0000000000000E+00
 0.1020725182134E+01 -0.1066323434581E+01  0.0000000000000E+00
 0.1027335069035E+01 -0.9691281055316E+00  0.0000000000000E+00
 0.1032670529195E+01 -0.8718675888514E+00  0.0000000000000E+00
 0.1036667807278E+01 -0.7745647346124E+00  0.0000000000000E+00
 0.1039204848585E+01 -0.6772396870156E+00  0.0000000000000E+00
 0.1040119227534E+01 -0.5799105608194E+00  0.0000000000000E+00
 0.1039377980704E+01 -0.4825994720020E+00  0.0000000000000E+00
 0.1037052575635E+01 -0.3853156926014E+00  0.0000000000000E+00
 0.1033277948600E+01 -0.2880427935598E+00  0.0000000000000E+00
 0.1028378289420E+01 -0.1907500029518E+00  0.0000000000000E+00
 0.1022980133482E+01 -0.9340684758923E-01  0.0000000000000E+00
 0.1014476127931E+01  0.3862568848579E-02  0.0000000000000E+00
 0.1000397631252E+01  0.1004592764032E+00  0.0000000000000E+00
 0.9803674471204E+00  0.1955886839438E+00  0.0000000000000E+00
 0.9543625446928E+00  0.2884120342288E+00  0.0000000000000E+00
 0.9233519095806E+00  0.3785737727924E+00  0.0000000000000E+00
 0.8884247103409E+00  0.4660700654235E+00  0.0000000000000E+00
 0.8499264588562E+00  0.5506484529706E+00  0.0000000000000E+00
 0.1046086942783E+01 -0.1161954563616E+01  0.0000000000000E+00
 0.1054826533140E+01 -0.1063371267651E+01  0.0000000000000E+00
 0.1062260717961E+01 -0.9646816963702E+00  0.0000000000000E+00
 0.1068417288305E+01 -0.8659166936641E+00  0.0000000000000E+00
 0.1073241750681E+01 -0.7670985155459E+00  0.0000000000000E+00
 0.1076614816038E+01 -0.6682457734997E+00  0.0000000000000E+00
 0.1078367750261E+01 -0.5693746163087E+00  0.0000000000000E+00
 0.1078460582246E+01 -0.4705065791758E+00  0.0000000000000E+00
 0.1076946156364E+01 -0.3716524116943E+00  0.0000000000000E+00
 0.1073920699582E+01 -0.2727999909666E+00  0.0000000000000E+00
 0.1069667934999E+01 -0.1739258703494E+00  0.0000000000000E+00
 0.1064801417239E+01 -0.7500692909395E-01  0.0000000000000E+00
 0.1056425785133E+01  0.2381564725733E-01  0.0000000000000E+00
 0.1041822854994E+01  0.1218878022897E+00  0.0000000000000E+00
 0.1020577128917E+01  0.2183453006344E+00  0.0000000000000E+00
 0.9926719397754E+00  0.3122767471633E+00  0.0000000000000E+00
 0.9591782243146E+00  0.4032976282851E+00  0.0000000000000E+00
 0.9212992241996E+00  0.4914064325630E+00  0.0000000000000E+00
 0.8794260878687E+00  0.5763297178884E+00  0.0000000000000E+00
 0.1079345451359E+01 -0.1160485628686E+01  0.0000000000000E+00
 0.1088927884145E+01 -0.1060419100722E+01  0.0000000000000E+00
 0.1097186366887E+01 -0.9602352872088E+00  0.0000000000000E+00
 0.1104164047415E+01 -0.8599657984769E+00  0.0000000000000E+00
 0.1109815694083E+01 -0.7596322964795E+00  0.0000000000000E+00
 0.1114024783491E+01 -0.6592518599838E+00  0.0000000000000E+00
 0.1116616272988E+01 -0.5588386717980E+00  0.0000000000000E+00
 0.1117543183788E+01 -0.4584136863497E+00  0.0000000000000E+00
 0.1116839737092E+01 -0.3579891307872E+00  0.0000000000000E+00
 0.1114563450564E+01 -0.2575571883733E+00  0.0000000000000E+00
 0.1110957580577E+01 -0.1571017377469E+00  0.0000000000000E+00
 0.1106622700996E+01 -0.5660701059866E-01  0.0000000000000E+00
 0.1098375442335E+01  0.4376872566608E-01  0.0000000000000E+00
 0.1083248078735E+01  0.1433163281761E+00  0.0000000000000E+00
 0.1060786810715E+01  0.2411019173250E+00  0.0000000000000E+00
 0.1030981334858E+01  0.3361414600977E+00  0.0000000000000E+00
 0.9950045390485E+00  0.4280214837778E+00  0.0000000000000E+00
 0.9541737380583E+00  0.5167427997025E+00  0.0000000000000E+00
 0.9089257168812E+00  0.6020109828062E+00  0.0000000000000E+00
 0.1112603959935E+01 -0.1159016693756E+01  0.0000000000000E+00
 0.1123029235151E+01 -0.1057466933793E+01  0.0000000000000E+00
 0.1132112015813E+01 -0.9557888780475E+00  0.0000000000000E+00
 0.1139910806525E+01 -0.8540149032896E+00  0.0000000000000E+00
 0.1146389637485E+01 -0.7521660774130E+00  0.0000000000000E+00
 0.1151434750944E+01 -0.6502579464678E+00  0.0000000000000E+00
 0.1154864795715E+01 -0.5483027272873E+00  0.0000000000000E+00
 0.1156625785331E+01 -0.4463207935235E+00  0.0000000000000E+00
 0.1156733317821E+01 -0.3443258498800E+00  0.0000000000000E+00
 0.1155206201545E+01 -0.2423143857801E+00  0.0000000000000E+00
 0.1152247226156E+01 -0.1402776051444E+00  0.0000000000000E+00
 0.1148443984752E+01 -0.3820709210337E-01  0.0000000000000E+00
 0.1140325099537E+01  0.6372180407483E-01  0.0000000000000E+00
 0.1124673302477E+01  0.1647448540626E+00  0.0000000000000E+00
 0.1100996492512E+01  0.2638585340156E+00  0.0000000000000E+00
 0.1069290729941E+01  0.3600061730321E+00  0.0000000000000E+00
 0.1030830853782E+01  0.4527453392705E+00  0.0000000000000E+00
 0.9870482519170E+00  0.5420791668420E+00  0.0000000000000E+00
 0.9384253458937E+00  0.6276922477240E+00  0.0000000000000E+00
 0.1145862468511E+01 -0.1157547758825E+01  0.0000000000000E+00
 0.1157130586157E+01 -0.1054514766863E+01  0.0000000000000E+00
 0.1167037664739E+01 -0.9513424688861E+00  0.0000000000000E+00
 0.1175657565635E+01 -0.8480640081024E+00  0.0000000000000E+00
 0.1182963580888E+01 -0.7446998583466E+00  0.0000000000000E+00
 0.1188844718398E+01 -0.6412640329519E+00  0.0000000000000E+00
 0.1193113318443E+01 -0.5377667827766E+00  0.0000000000000E+00
 0.1195708386873E+01 -0.4342279006973E+00  0.0000000000000E+00
 0.1196626898550E+01 -0.3306625689729E+00  0.0000000000000E+00
 0.1195848952527E+01 -0.2270715831869E+00  0.0000000000000E+00
 0.1193536871735E+01 -0.1234534725419E+00  0.0000000000000E+00
 0.1190265268509E+01 -0.1980717360809E-01  0.0000000000000E+00
 0.1182274756738E+01  0.8367488248358E-01  0.0000000000000E+00
 0.1166098526219E+01  0.1861733799490E+00  0.0000000000000E+00
 0.1141206174309E+01  0.2866151507062E+00  0.0000000000000E+00
 0.1107600125023E+01  0.3838708859665E+00  0.0000000000000E+00
 0.1066657168516E+01  0.4774691947632E+00  0.0000000000000E+00
 0.1019922765776E+01  0.5674155339815E+00  0.0000000000000E+00
 0.9679249749061E+00  0.6533735126418E+00  0.0000000000000E+00
 0.1179120977088E+01 -0.1156078823895E+01  0.0000000000000E+00
 0.1191231937162E+01 -0.1051562599934E+01  0.0000000000000E+00
 0.1201963313665E+01 -0.9468960597248E+00  0.0000000000000E+00
 0.1211404324746E+01 -0.8421131129151E+00  0.0000000000000E+00
 0.1219537524290E+01 -0.7372336392801E+00  0.0000000000000E+00
 0.1226254685851E+01 -0.6322701194360E+00  0.0000000000000E+00
 0.1231361841170E+01 -0.5272308382660E+00  0.0000000000000E+00
 0.1234790988415E+01 -0.4221350078711E+00  0.0000000000000E+00
 0.1236520479278E+01 -0.3169992880658E+00  0.0000000000000E+00
 0.1236491703509E+01 -0.2118287805937E+00  0.0000000000000E+00
 0.1234826517314E+01 -0.1066293399394E+00  0.0000000000000E+00
 0.1232086552266E+01 -0.1407255112799E-02  0.0000000000000E+00
 0.1224224413940E+01  0.1036279608923E+00  0.0000000000000E+00
 0.1207523749961E+01  0.2076019058355E+00  0.0000000000000E+00
 0.1181415856106E+01  0.3093717673968E+00  0.0000000000000E+00
 0.1145909520106E+01  0.4077355989009E+00  0.0000000000000E+00
 0.1102483483250E+01  0.5021930502559E+00  0.0000000000000E+00
 0.1052797279634E+01  0.5927519011209E+00  0.0000000000000E+00
 0.9974246039186E+00  0.6790547775596E+00  0.0000000000000E+00
 0.1212379485664E+01 -0.1154609888965E+01  0.0000000000000E+00
 0.1225333288168E+01 -0.1048610433004E+01  0.0000000000000E+00
 0.1236888962590E+01 -0.9424496505634E+00  0.0000000000000E+00
 0.1247151083856E+01 -0.8361622177279E+00  0.0000000000000E+00
 0.1256111467692E+01 -0.7297674202137E+00  0.0000000000000E+00
 0.1263664653304E+01 -0.6232762059200E+00  0.0000000000000E+00
 0.1269610363897E+01 -0.5166948937553E+00  0.0000000000000E+00
 0.1273873589957E+01 -0.4100421150449E+00  0.0000000000000E+00
 0.1276414060007E+01 -0.3033360071587E+00  0.0000000000000E+00
 0.1277134454491E+01 -0.1965859780004E+00  0.0000000000000E+00
 0.1276116162893E+01 -0.8980520733696E-01  0.0000000000000E+00
 0.1273907836023E+01  0.1699266338249E-01  0.0000000000000E+00
 0.1266174071142E+01  0.1235810393011E+00  0.0000000000000E+00
 0.1248948973703E+01  0.2290304317219E+00  0.0000000000000E+00
 0.1221625537903E+01  0.3321283840874E+00  0.0000000000000E+00
 0.1184218915188E+01  0.4316003118353E+00  0.0000000000000E+00
 0.1138309797984E+01  0.5269169057486E+00  0.0000000000000E+00
 0.1085671793493E+01  0.6180882682604E+00  0.0000000000000E+00
 0.1026924232931E+01  0.7047360424775E+00  0.0000000000000E+00
 0.1245637994240E+01 -0.1153140954035E+01  0.0000000000000E+00
 0.1259434639173E+01 -0.1045658266075E+01  0.0000000000000E+00
 0.1271814611516E+01 -0.9380032414020E+00  0.0000000000000E+00
 0.1282897842966E+01 -0.8302113225406E+00  0.0000000000000E+00
 0.1292685411094E+01 -0.7223012011472E+00  0.0000000000000E+00
 0.1301074620757E+01 -0.6142822924041E+00  0.0000000000000E+00
 0.1307858886624E+01 -0.5061589492446E+00  0.0000000000000E+00
 0.1312956191499E+01 -0.3979492222187E+00  0.0000000000000E+00
 0.1316307640736E+01 -0.2896727262515E+00  0.0000000000000E+00
 0.1317777205473E+01 -0.1813431754072E+00  0.0000000000000E+00
 0.1317405808471E+01 -0.7298107473448E-01  0.0000000000000E+00
 0.1315729119780E+01  0.3539258187777E-01  0.0000000000000E+00
 0.1308123728344E+01  0.1435341177098E+00  0.0000000000000E+00
 0.1290374197445E+01  0.2504589576084E+00  0.0000000000000E+00
 0.1261835219700E+01  0.3548850007780E+00  0.0000000000000E+00
 0.1222528310271E+01  0.4554650247697E+00  0.0000000000000E+00
 0.1174136112718E+01  0.5516407612413E+00  0.0000000000000E+00
 0.1118546307352E+01  0.6434246353999E+00  0.0000000000000E+00
 0.1056423861944E+01  0.7304173073953E+00  0.0000000000000E+00
 0.1278896502817E+01 -0.1151672019104E+01  0.0000000000000E+00
 0.1293535990179E+01 -0.1042706099146E+01  0.0000000000000E+00
 0.1306740260442E+01 -0.9335568322407E+00  0.0000000000000E+00
 0.1318644602076E+01 -0.8242604273534E+00  0.0000000000000E+00
 0.1329259354497E+01 -0.7148349820807E+00  0.0000000000000E+00
 0.1338484588210E+01 -0.6052883788882E+00  0.0000000000000E+00
 0.1346107409351E+01 -0.4956230047339E+00  0.0000000000000E+00
 0.1352038793042E+01 -0.3858563293925E+00  0.0000000000000E+00
 0.1356201221464E+01 -0.2760094453444E+00  0.0000000000000E+00
 0.1358419956455E+01 -0.1661003728140E+00  0.0000000000000E+00
 0.1358695454050E+01 -0.5615694213201E-01  0.0000000000000E+00
 0.1357550403536E+01  0.5379250037306E-01  0.0000000000000E+00
 0.1350073385546E+01  0.1634871961186E+00  0.0000000000000E+00
 0.1331799421186E+01  0.2718874834949E+00  0.0000000000000E+00
 0.1302044901497E+01  0.3776416174686E+00  0.0000000000000E+00
 0.1260837705354E+01  0.4793297377041E+00  0.0000000000000E+00
 0.1209962427452E+01  0.5763646167340E+00  0.0000000000000E+00
 0.1151420821211E+01  0.6687610025394E+00  0.0000000000000E+00
 0.1085923490956E+01  0.7560985723131E+00  0.0000000000000E+00
-0.5241075387717E+00  0.3828365024885E+00  0.0000000000000E+00
-0.5489124003152E+00  0.4100062281915E+00  0.0000000000000E+00
-0.5737172618587E+00  0.4371759538945E+00  0.0000000000000E+00
-0.5985221234022E+00  0.4643456795974E+00  0.0000000000000E+00
-0.6233269849456E+00  0.4915154053004E+00  0.0000000000000E+00
-0.6481318464891E+00  0.5186851310034E+00  0.0000000000000E+00
-0.6729367080326E+00  0.5458548567064E+00  0.0000000000000E+00
-0.6977415695760E+00  0.5730245824093E+00  0.0000000000000E+00
-0.7225464311195E+00  0.6001943081123E+00  0.0000000000000E+00
-0.7473512926630E+00  0.6273640338153E+00  0.0000000000000E+00
-0.7721561542064E+00  0.6545337595182E+00  0.0000000000000E+00
-0.7969610157499E+00  0.6817034852212E+00  0.0000000000000E+00
-0.8217658772934E+00  0.7088732109242E+00  0.0000000000000E+00
-0.8465707388369E+00  0.7360429366271E+00  0.0000000000000E+00
-0.8713756003803E+00  0.7632126623301E+00  0.0000000000000E+00
-0.8961804619238E+00  0.7903823880331E+00  0.0000000000000E+00
-0.9209853234673E+00  0.8175521137361E+00  0.0000000000000E+00
-0.9457901850107E+00  0.8447218394390E+00  0.0000000000000E+00
-0.9705950465542E+00  0.8718915651420E+00  0.0000000000000E+00
-0.4973724741866E+00  0.3906327015564E+00  0.0000000000000E+00
-0.5212203820320E+00  0.4191990685373E+00  0.0000000000000E+00
-0.5450682898774E+00  0.4477654355183E+00  0.0000000000000E+00
-0.5689161977228E+00  0.4763318024992E+00  0.0000000000000E+00
-0.5927641055682E+00  0.5048981694801E+00  0.0000000000000E+00
-0.6166120134136E+00  0.5334645364611E+00  0.0000000000000E+00
-0.6404599212590E+00  0.5620309034420E+00  0.0000000000000E+00
-0.6643078291044E+00  0.5905972704229E+00  0.0000000000000E+00
-0.6881557369498E+00  0.6191636374039E+00  0.0000000000000E+00
-0.7120036447952E+00  0.6477300043848E+00  0.0000000000000E+00
-0.7358515526406E+00  0.6762963713657E+00  0.0000000000000E+00
-0.7596994604860E+00  0.7048627383467E+00  0.0000000000000E+00
-0.7835473683314E+00  0.7334291053276E+00  0.0000000000000E+00
-0.8073952761768E+00  0.7619954723085E+00  0.0000000000000E+00
-0.8312431840221E+00  0.7905618392895E+00  0.0000000000000E+00
-0.8550910918675E+00  0.8191282062704E+00  0.0000000000000E+00
-0.8789389997129E+00  0.8476945732514E+00  0.0000000000000E+00
-0.9027869075583E+00  0.8762609402323E+00  0.0000000000000E+00
-0.9266348154037E+00  0.9048273072132E+00  0.0000000000000E+00
-0.4704791810931E+00  0.3980072356707E+00  0.0000000000000E+00
-0.4932896417959E+00  0.4278699691922E+00  0.0000000000000E+00
-0.5161001024988E+00  0.4577327027136E+00  0.0000000000000E+00
-0.5389105632016E+00  0.4875954362350E+00  0.0000000000000E+00
-0.5617210239044E+00  0.5174581697564E+00  0.0000000000000E+00
-0.5845314846072E+00  0.5473209032779E+00  0.0000000000000E+00
-0.6073419453101E+00  0.5771836367993E+00  0.0000000000000E+00
-0.6301524060129E+00  0.6070463703207E+00  0.0000000000000E+00
-0.6529628667157E+00  0.6369091038421E+00  0.0000000000000E+00
-0.6757733274185E+00  0.6667718373635E+00  0.0000000000000E+00
-0.6985837881214E+00  0.6966345708850E+00  0.0000000000000E+00
-0.7213942488242E+00  0.7264973044064E+00  0.0000000000000E+00
-0.7442047095270E+00  0.7563600379278E+00  0.0000000000000E+00
-0.7670151702298E+00  0.7862227714492E+00  0.0000000000000E+00
-0.7898256309326E+00  0.8160855049706E+00  0.0000000000000E+00
-0.8126360916355E+00  0.8459482384921E+00  0.0000000000000E+00
-0.8354465523383E+00  0.8758109720135E+00  0.0000000000000E+00
-0.8582570130411E+00  0.9056737055349E+00  0.0000000000000E+00
-0.8810674737439E+00  0.9355364390563E+00  0.0000000000000E+00
-0.4434431133913E+00  0.4049623049046E+00  0.0000000000000E+00
-0.4651476228734E+00  0.4360271534721E+00  0.0000000000000E+00
-0.4868521323554E+00  0.4670920020396E+00  0.0000000000000E+00
-0.5085566418375E+00  0.4981568506071E+00  0.0000000000000E+00
-0.5302611513196E+00  0.5292216991746E+00  0.0000000000000E+00
-0.5519656608017E+00  0.5602865477421E+00  0.0000000000000E+00
-0.5736701702838E+00  0.5913513963096E+00  0.0000000000000E+00
-0.5953746797659E+00  0.6224162448771E+00  0.0000000000000E+00
-0.6170791892479E+00  0.6534810934446E+00  0.0000000000000E+00
-0.6387836987300E+00  0.6845459420121E+00  0.0000000000000E+00
-0.6604882082121E+00  0.7156107905796E+00  0.0000000000000E+00
-0.6821927176942E+00  0.7466756391471E+00  0.0000000000000E+00
-0.7038972271763E+00  0.7777404877146E+00  0.0000000000000E+00
-0.7256017366584E+00  0.8088053362822E+00  0.0000000000000E+00
-0.7473062461404E+00  0.8398701848497E+00  0.0000000000000E+00
-0.7690107556225E+00  0.8709350334172E+00  0.0000000000000E+00
-0.7907152651046E+00  0.9019998819847E+00  0.0000000000000E+00
-0.8124197745867E+00  0.9330647305522E+00  0.0000000000000E+00
-0.8341242840688E+00  0.9641295791197E+00  0.0000000000000E+00
-0.4162795944393E+00  0.4115031806360E+00  0.0000000000000E+00
-0.4368214338124E+00  0.4436848274892E+00  0.0000000000000E+00
-0.4573632731855E+00  0.4758664743423E+00  0.0000000000000E+00
-0.4779051125585E+00  0.5080481211954E+00  0.0000000000000E+00
-0.4984469519316E+00  0.5402297680486E+00  0.0000000000000E+00
-0.5189887913047E+00  0.5724114149017E+00  0.0000000000000E+00
-0.5395306306778E+00  0.6045930617548E+00  0.0000000000000E+00
-0.5600724700509E+00  0.6367747086080E+00  0.0000000000000E+00
-0.5806143094240E+00  0.6689563554611E+00  0.0000000000000E+00
-0.6011561487970E+00  0.7011380023142E+00  0.0000000000000E+00
-0.6216979881701E+00  0.7333196491674E+00  0.0000000000000E+00
-0.6422398275432E+00  0.7655012960205E+00  0.0000000000000E+00
-0.6627816669163E+00  0.7976829428736E+00  0.0000000000000E+00
-0.6833235062894E+00  0.8298645897268E+00  0.0000000000000E+00
-0.7038653456625E+00  0.8620462365799E+00  0.0000000000000E+00
-0.7244071850355E+00  0.8942278834330E+00  0.0000000000000E+00
-0.7449490244086E+00  0.9264095302862E+00  0.0000000000000E+00
-0.7654908637817E+00  0.9585911771393E+00  0.0000000000000E+00
-0.7860327031548E+00  0.9907728239924E+00  0.0000000000000E+00
-0.3890049746149E+00  0.4176409907798E+00  0.0000000000000E+00
-0.4083402172239E+00  0.4508687343098E+00  0.0000000000000E+00
-0.4276754598330E+00  0.4840964778399E+00  0.0000000000000E+00
-0.4470107024420E+00  0.5173242213700E+00  0.0000000000000E+00
-0.4663459450510E+00  0.5505519649000E+00  0.0000000000000E+00
-0.4856811876600E+00  0.5837797084301E+00  0.0000000000000E+00
-0.5050164302691E+00  0.6170074519601E+00  0.0000000000000E+00
-0.5243516728781E+00  0.6502351954902E+00  0.0000000000000E+00
-0.5436869154871E+00  0.6834629390203E+00  0.0000000000000E+00
-0.5630221580962E+00  0.7166906825503E+00  0.0000000000000E+00
-0.5823574007052E+00  0.7499184260804E+00  0.0000000000000E+00
-0.6016926433142E+00  0.7831461696105E+00  0.0000000000000E+00
-0.6210278859232E+00  0.8163739131405E+00  0.0000000000000E+00
-0.6403631285323E+00  0.8496016566706E+00  0.0000000000000E+00
-0.6596983711413E+00  0.8828294002006E+00  0.0000000000000E+00
-0.6790336137503E+00  0.9160571437307E+00  0.0000000000000E+00
-0.6983688563594E+00  0.9492848872608E+00  0.0000000000000E+00
-0.7177040989684E+00  0.9825126307908E+00  0.0000000000000E+00
-0.7370393415774E+00  0.1015740374321E+01  0.0000000000000E+00
-0.3616375814374E+00  0.4233950320155E+00  0.0000000000000E+00
-0.3797367705145E+00  0.4576208248420E+00  0.0000000000000E+00
-0.3978359595916E+00  0.4918466176685E+00  0.0000000000000E+00
-0.4159351486687E+00  0.5260724104950E+00  0.0000000000000E+00
-0.4340343377458E+00  0.5602982033215E+00  0.0000000000000E+00
-0.4521335268229E+00  0.5945239961480E+00  0.0000000000000E+00
-0.4702327159000E+00  0.6287497889745E+00  0.0000000000000E+00
-0.4883319049771E+00  0.6629755818010E+00  0.0000000000000E+00
-0.5064310940542E+00  0.6972013746275E+00  0.0000000000000E+00
-0.5245302831313E+00  0.7314271674540E+00  0.0000000000000E+00
-0.5426294722084E+00  0.7656529602805E+00  0.0000000000000E+00
-0.5607286612855E+00  0.7998787531070E+00  0.0000000000000E+00
-0.5788278503626E+00  0.8341045459335E+00  0.0000000000000E+00
-0.5969270394397E+00  0.8683303387600E+00  0.0000000000000E+00
-0.6150262285168E+00  0.9025561315865E+00  0.0000000000000E+00
-0.6331254175939E+00  0.9367819244129E+00  0.0000000000000E+00
-0.6512246066710E+00  0.9710077172394E+00  0.0000000000000E+00
-0.6693237957481E+00  0.1005233510066E+01  0.0000000000000E+00
-0.6874229848252E+00  0.1039459302892E+01  0.0000000000000E+00
-0.3341971102105E+00  0.4287924375866E+00  0.0000000000000E+00
-0.3510465988283E+00  0.4639985282286E+00  0.0000000000000E+00
-0.3678960874461E+00  0.4992046188705E+00  0.0000000000000E+00
-0.3847455760639E+00  0.5344107095124E+00  0.0000000000000E+00
-0.4015950646816E+00  0.5696168001544E+00  0.0000000000000E+00
-0.4184445532994E+00  0.6048228907963E+00  0.0000000000000E+00
-0.4352940419172E+00  0.6400289814383E+00  0.0000000000000E+00
-0.4521435305350E+00  0.6752350720802E+00  0.0000000000000E+00
-0.4689930191527E+00  0.7104411627221E+00  0.0000000000000E+00
-0.4858425077705E+00  0.7456472533641E+00  0.0000000000000E+00
-0.5026919963883E+00  0.7808533440060E+00  0.0000000000000E+00
-0.5195414850061E+00  0.8160594346480E+00  0.0000000000000E+00
-0.5363909736238E+00  0.8512655252899E+00  0.0000000000000E+00
-0.5532404622416E+00  0.8864716159318E+00  0.0000000000000E+00
-0.5700899508594E+00  0.9216777065738E+00  0.0000000000000E+00
-0.5869394394772E+00  0.9568837972157E+00  0.0000000000000E+00
-0.6037889280950E+00  0.9920898878576E+00  0.0000000000000E+00
-0.6206384167127E+00  0.1027295978500E+01  0.0000000000000E+00
-0.6374879053305E+00  0.1062502069142E+01  0.0000000000000E+00
-0.3066965706001E+00  0.4338489484850E+00  0.0000000000000E+00
-0.3222916391952E+00  0.4700363162541E+00  0.0000000000000E+00
-0.3378867077903E+00  0.5062236840232E+00  0.0000000000000E+00
-0.3534817763854E+00  0.5424110517923E+00  0.0000000000000E+00
-0.3690768449805E+00  0.5785984195614E+00  0.0000000000000E+00
-0.3846719135756E+00  0.6147857873305E+00  0.0000000000000E+00
-0.4002669821708E+00  0.6509731550996E+00  0.0000000000000E+00
-0.4158620507659E+00  0.6871605228687E+00  0.0000000000000E+00
-0.4314571193610E+00  0.7233478906379E+00  0.0000000000000E+00
-0.4470521879561E+00  0.7595352584070E+00  0.0000000000000E+00
-0.4626472565512E+00  0.7957226261761E+00  0.0000000000000E+00
-0.4782423251463E+00  0.8319099939452E+00  0.0000000000000E+00
-0.4938373937414E+00  0.8680973617143E+00  0.0000000000000E+00
-0.5094324623365E+00  0.9042847294834E+00  0.0000000000000E+00
-0.5250275309316E+00  0.9404720972525E+00  0.0000000000000E+00
-0.5406225995268E+00  0.9766594650216E+00  0.0000000000000E+00
-0.5562176681219E+00  0.1012846832791E+01  0.0000000000000E+00
-0.5718127367170E+00  0.1049034200560E+01  0.0000000000000E+00
-0.5874078053121E+00  0.1085221568329E+01  0.0000000000000E+00
-0.2791218293927E+00  0.4385208078592E+00  0.0000000000000E+00
-0.2934394861648E+00  0.4756494588749E+00  0.0000000000000E+00
-0.3077571429369E+00  0.5127781098906E+00  0.0000000000000E+00
-0.3220747997090E+00  0.5499067609063E+00  0.0000000000000E+00
-0.3363924564811E+00  0.5870354119220E+00  0.0000000000000E+00
-0.3507101132532E+00  0.6241640629377E+00  0.0000000000000E+00
-0.3650277700253E+00  0.6612927139534E+00  0.0000000000000E+00
-0.3793454267974E+00  0.6984213649692E+00  0.0000000000000E+00
-0.3936630835695E+00  0.7355500159849E+00  0.0000000000000E+00
-0.4079807403416E+00  0.7726786670006E+00  0.0000000000000E+00
-0.4222983971137E+00  0.8098073180163E+00  0.0000000000000E+00
-0.4366160538858E+00  0.8469359690320E+00  0.0000000000000E+00
-0.4509337106579E+00  0.8840646200477E+00  0.0000000000000E+00
-0.4652513674300E+00  0.9211932710634E+00  0.0000000000000E+00
-0.4795690242021E+00  0.9583219220791E+00  0.0000000000000E+00
-0.4938866809742E+00  0.9954505730948E+00  0.0000000000000E+00
-0.5082043377463E+00  0.1032579224111E+01  0.0000000000000E+00
-0.5225219945184E+00  0.1069707875126E+01  0.0000000000000E+00
-0.5368396512905E+00  0.1106836526142E+01  0.0000000000000E+00
-0.2514639251819E+00  0.4427693913927E+00  0.0000000000000E+00
-0.2644679291393E+00  0.4807632912527E+00  0.0000000000000E+00
-0.2774719330968E+00  0.5187571911127E+00  0.0000000000000E+00
-0.2904759370542E+00  0.5567510909728E+00  0.0000000000000E+00
-0.3034799410116E+00  0.5947449908328E+00  0.0000000000000E+00
-0.3164839449691E+00  0.6327388906929E+00  0.0000000000000E+00
-0.3294879489265E+00  0.6707327905529E+00  0.0000000000000E+00
-0.3424919528839E+00  0.7087266904129E+00  0.0000000000000E+00
-0.3554959568414E+00  0.7467205902730E+00  0.0000000000000E+00
-0.3684999607988E+00  0.7847144901330E+00  0.0000000000000E+00
-0.3815039647562E+00  0.8227083899931E+00  0.0000000000000E+00
-0.3945079687137E+00  0.8607022898531E+00  0.0000000000000E+00
-0.4075119726711E+00  0.8986961897131E+00  0.0000000000000E+00
-0.4205159766285E+00  0.9366900895732E+00  0.0000000000000E+00
-0.4335199805859E+00  0.9746839894332E+00  0.0000000000000E+00
-0.4465239845434E+00  0.1012677889293E+01  0.0000000000000E+00
-0.4595279885008E+00  0.1050671789153E+01  0.0000000000000E+00
-0.4725319924582E+00  0.1088665689013E+01  0.0000000000000E+00
-0.4855359964157E+00  0.1126659588873E+01  0.0000000000000E+00
-0.2237255065535E+00  0.4465773318235E+00  0.0000000000000E+00
-0.2353778815772E+00  0.4853454460208E+00  0.0000000000000E+00
-0.2470302566009E+00  0.5241135602180E+00  0.0000000000000E+00
-0.2586826316245E+00  0.5628816744153E+00  0.0000000000000E+00
-0.2703350066482E+00  0.6016497886126E+00  0.0000000000000E+00
-0.2819873816718E+00  0.6404179028098E+00  0.0000000000000E+00
-0.2936397566955E+00  0.6791860170071E+00  0.0000000000000E+00
-0.3052921317192E+00  0.7179541312043E+00  0.0000000000000E+00
-0.3169445067428E+00  0.7567222454016E+00  0.0000000000000E+00
-0.3285968817665E+00  0.7954903595989E+00  0.0000000000000E+00
-0.3402492567901E+00  0.8342584737961E+00  0.0000000000000E+00
-0.3519016318138E+00  0.8730265879934E+00  0.0000000000000E+00
-0.3635540068375E+00  0.9117947021907E+00  0.0000000000000E+00
-0.3752063818611E+00  0.9505628163879E+00  0.0000000000000E+00
-0.3868587568848E+00  0.9893309305852E+00  0.0000000000000E+00
-0.3985111319084E+00  0.1028099044782E+01  0.0000000000000E+00
-0.4101635069321E+00  0.1066867158980E+01  0.0000000000000E+00
-0.4218158819558E+00  0.1105635273177E+01  0.0000000000000E+00
-0.4334682569794E+00  0.1144403387374E+01  0.0000000000000E+00
-0.1959146411182E+00  0.4499388903646E+00  0.0000000000000E+00
-0.2061810087786E+00  0.4893865877542E+00  0.0000000000000E+00
-0.2164473764389E+00  0.5288342851439E+00  0.0000000000000E+00
-0.2267137440993E+00  0.5682819825336E+00  0.0000000000000E+00
-0.2369801117597E+00  0.6077296799233E+00  0.0000000000000E+00
-0.2472464794201E+00  0.6471773773130E+00  0.0000000000000E+00
-0.2575128470805E+00  0.6866250747027E+00  0.0000000000000E+00
-0.2677792147409E+00  0.7260727720924E+00  0.0000000000000E+00
-0.2780455824013E+00  0.7655204694820E+00  0.0000000000000E+00
-0.2883119500617E+00  0.8049681668717E+00  0.0000000000000E+00
-0.2985783177220E+00  0.8444158642614E+00  0.0000000000000E+00
-0.3088446853824E+00  0.8838635616511E+00  0.0000000000000E+00
-0.3191110530428E+00  0.9233112590408E+00  0.0000000000000E+00
-0.3293774207032E+00  0.9627589564305E+00  0.0000000000000E+00
-0.3396437883636E+00  0.1002206653820E+01  0.0000000000000E+00
-0.3499101560240E+00  0.1041654351210E+01  0.0000000000000E+00
-0.3601765236844E+00  0.1081102048600E+01  0.0000000000000E+00
-0.3704428913448E+00  0.1120549745989E+01  0.0000000000000E+00
-0.3807092590051E+00  0.1159997443379E+01  0.0000000000000E+00
-0.1680410293477E+00  0.4528534155756E+00  0.0000000000000E+00
-0.1768921543896E+00  0.4928873240860E+00  0.0000000000000E+00
-0.1857432794315E+00  0.5329212325965E+00  0.0000000000000E+00
-0.1945944044734E+00  0.5729551411069E+00  0.0000000000000E+00
-0.2034455295152E+00  0.6129890496173E+00  0.0000000000000E+00
-0.2122966545571E+00  0.6530229581278E+00  0.0000000000000E+00
-0.2211477795990E+00  0.6930568666382E+00  0.0000000000000E+00
-0.2299989046409E+00  0.7330907751486E+00  0.0000000000000E+00
-0.2388500296828E+00  0.7731246836591E+00  0.0000000000000E+00
-0.2477011547246E+00  0.8131585921695E+00  0.0000000000000E+00
-0.2565522797665E+00  0.8531925006799E+00  0.0000000000000E+00
-0.2654034048084E+00  0.8932264091904E+00  0.0000000000000E+00
-0.2742545298503E+00  0.9332603177008E+00  0.0000000000000E+00
-0.2831056548921E+00  0.9732942262112E+00  0.0000000000000E+00
-0.2919567799340E+00  0.1013328134722E+01  0.0000000000000E+00
-0.3008079049759E+00  0.1053362043232E+01  0.0000000000000E+00
-0.3096590300178E+00  0.1093395951743E+01  0.0000000000000E+00
-0.3185101550597E+00  0.1133429860253E+01  0.0000000000000E+00
-0.3273612801015E+00  0.1173463768763E+01  0.0000000000000E+00
-0.1401143208464E+00  0.4553218992365E+00  0.0000000000000E+00
-0.1475259700085E+00  0.4958513109285E+00  0.0000000000000E+00
-0.1549376191705E+00  0.5363807226205E+00  0.0000000000000E+00
-0.1623492683326E+00  0.5769101343125E+00  0.0000000000000E+00
-0.1697609174946E+00  0.6174395460045E+00  0.0000000000000E+00
-0.1771725666567E+00  0.6579689576965E+00  0.0000000000000E+00
-0.1845842158187E+00  0.6984983693885E+00  0.0000000000000E+00
-0.1919958649808E+00  0.7390277810805E+00  0.0000000000000E+00
-0.1994075141428E+00  0.7795571927725E+00  0.0000000000000E+00
-0.2068191633048E+00  0.8200866044646E+00  0.0000000000000E+00
-0.2142308124669E+00  0.8606160161566E+00  0.0000000000000E+00
-0.2216424616289E+00  0.9011454278486E+00  0.0000000000000E+00
-0.2290541107910E+00  0.9416748395406E+00  0.0000000000000E+00
-0.2364657599530E+00  0.9822042512326E+00  0.0000000000000E+00
-0.2438774091151E+00  0.1022733662925E+01  0.0000000000000E+00
-0.2512890582771E+00  0.1063263074617E+01  0.0000000000000E+00
-0.2587007074392E+00  0.1103792486309E+01  0.0000000000000E+00
-0.2661123566012E+00  0.1144321898001E+01  0.0000000000000E+00
-0.2735240057633E+00  0.1184851309693E+01  0.0000000000000E+00
-0.1121439916984E+00  0.4573452348171E+00  0.0000000000000E+00
-0.1180967026830E+00  0.4982817607989E+00  0.0000000000000E+00
-0.1240494136676E+00  0.5392182867806E+00  0.0000000000000E+00
-0.1300021246522E+00  0.5801548127624E+00  0.0000000000000E+00
-0.1359548356368E+00  0.6210913387441E+00  0.0000000000000E+00
-0.1419075466214E+00  0.6620278647259E+00  0.0000000000000E+00
-0.1478602576060E+00  0.7029643907077E+00  0.0000000000000E+00
-0.1538129685906E+00  0.7439009166894E+00  0.0000000000000E+00
-0.1597656795751E+00  0.7848374426712E+00  0.0000000000000E+00
-0.1657183905597E+00  0.8257739686529E+00  0.0000000000000E+00
-0.1716711015443E+00  0.8667104946347E+00  0.0000000000000E+00
-0.1776238125289E+00  0.9076470206164E+00  0.0000000000000E+00
-0.1835765235135E+00  0.9485835465982E+00  0.0000000000000E+00
-0.1895292344981E+00  0.9895200725800E+00  0.0000000000000E+00
-0.1954819454827E+00  0.1030456598562E+01  0.0000000000000E+00
-0.2014346564673E+00  0.1071393124543E+01  0.0000000000000E+00
-0.2073873674519E+00  0.1112329650525E+01  0.0000000000000E+00
-0.2133400784365E+00  0.1153266176507E+01  0.0000000000000E+00
-0.2192927894211E+00  0.1194202702489E+01  0.0000000000000E+00
-0.8413885627146E-01  0.4589235298149E+00  0.0000000000000E+00
-0.8861721895939E-01  0.5001800629532E+00  0.0000000000000E+00
-0.9309558164732E-01  0.5414365960915E+00  0.0000000000000E+00
-0.9757394433525E-01  0.5826931292297E+00  0.0000000000000E+00
-0.1020523070232E+00  0.6239496623680E+00  0.0000000000000E+00
-0.1065306697111E+00  0.6652061955063E+00  0.0000000000000E+00
-0.1110090323990E+00  0.7064627286446E+00  0.0000000000000E+00
-0.1154873950870E+00  0.7477192617829E+00  0.0000000000000E+00
-0.1199657577749E+00  0.7889757949212E+00  0.0000000000000E+00
-0.1244441204628E+00  0.8302323280595E+00  0.0000000000000E+00
-0.1289224831508E+00  0.8714888611978E+00  0.0000000000000E+00
-0.1334008458387E+00  0.9127453943361E+00  0.0000000000000E+00
-0.1378792085266E+00  0.9540019274744E+00  0.0000000000000E+00
-0.1423575712146E+00  0.9952584606127E+00  0.0000000000000E+00
-0.1468359339025E+00  0.1036514993751E+01  0.0000000000000E+00
-0.1513142965904E+00  0.1077771526889E+01  0.0000000000000E+00
-0.1557926592784E+00  0.1119028060028E+01  0.0000000000000E+00
-0.1602710219663E+00  0.1160284593166E+01  0.0000000000000E+00
-0.1647493846542E+00  0.1201541126304E+01  0.0000000000000E+00
-0.5610747836923E-01  0.4600556068131E+00  0.0000000000000E+00
-0.5909983820158E-01  0.5015447808148E+00  0.0000000000000E+00
-0.6209219803393E-01  0.5430339548165E+00  0.0000000000000E+00
-0.6508455786628E-01  0.5845231288182E+00  0.0000000000000E+00
-0.6807691769863E-01  0.6260123028200E+00  0.0000000000000E+00
-0.7106927753098E-01  0.6675014768217E+00  0.0000000000000E+00
-0.7406163736334E-01  0.7089906508234E+00  0.0000000000000E+00
-0.7705399719569E-01  0.7504798248252E+00  0.0000000000000E+00
-0.8004635702804E-01  0.7919689988269E+00  0.0000000000000E+00
-0.8303871686039E-01  0.8334581728286E+00  0.0000000000000E+00
-0.8603107669274E-01  0.8749473468303E+00  0.0000000000000E+00
-0.8902343652509E-01  0.9164365208321E+00  0.0000000000000E+00
-0.9201579635744E-01  0.9579256948338E+00  0.0000000000000E+00
-0.9500815618979E-01  0.9994148688355E+00  0.0000000000000E+00
-0.9800051602214E-01  0.1040904042837E+01  0.0000000000000E+00
-0.1009928758545E+00  0.1082393216839E+01  0.0000000000000E+00
-0.1039852356868E+00  0.1123882390841E+01  0.0000000000000E+00
-0.1069775955192E+00  0.1165371564842E+01  0.0000000000000E+00
-0.1099699553515E+00  0.1206860738844E+01  0.0000000000000E+00
-0.2805830974039E-01  0.4607386669267E+00  0.0000000000000E+00
-0.2955662089814E-01  0.5023709751786E+00  0.0000000000000E+00
-0.3105493205590E-01  0.5440032834305E+00  0.0000000000000E+00
-0.3255324321365E-01  0.5856355916824E+00  0.0000000000000E+00
-0.3405155437141E-01  0.6272678999343E+00  0.0000000000000E+00
-0.3554986552916E-01  0.6689002081862E+00  0.0000000000000E+00
-0.3704817668692E-01  0.7105325164381E+00  0.0000000000000E+00
-0.3854648784467E-01  0.7521648246900E+00  0.0000000000000E+00
-0.4004479900242E-01  0.7937971329419E+00  0.0000000000000E+00
-0.4154311016018E-01  0.8354294411938E+00  0.0000000000000E+00
-0.4304142131793E-01  0.8770617494457E+00  0.0000000000000E+00
-0.4453973247569E-01  0.9186940576976E+00  0.0000000000000E+00
-0.4603804363344E-01  0.9603263659495E+00  0.0000000000000E+00
-0.4753635479120E-01  0.1001958674201E+01  0.0000000000000E+00
-0.4903466594895E-01  0.1043590982453E+01  0.0000000000000E+00
-0.5053297710671E-01  0.1085223290705E+01  0.0000000000000E+00
-0.5203128826446E-01  0.1126855598957E+01  0.0000000000000E+00
-0.5352959942222E-01  0.1168487907209E+01  0.0000000000000E+00
-0.5502791057997E-01  0.1210120215461E+01  0.0000000000000E+00
 0.2860756622583E-09  0.4609678550140E+00  0.0000000000000E+00
 0.5721514265632E-09  0.5026493319786E+00  0.0000000000000E+00
 0.8582273643404E-09  0.5443308089433E+00  0.0000000000000E+00
 0.1144303288240E-08  0.5860122859079E+00  0.0000000000000E+00
 0.1430379267650E-08  0.6276937628726E+00  0.0000000000000E+00
 0.1716455108283E-08  0.6693752398372E+00  0.0000000000000E+00
 0.2002531059938E-08  0.7110567168019E+00  0.0000000000000E+00
 0.2288607011593E-08  0.7527381937665E+00  0.0000000000000E+00
 0.2574682879981E-08  0.7944196707312E+00  0.0000000000000E+00
 0.2860758831636E-08  0.8361011476958E+00  0.0000000000000E+00
 0.3146834755536E-08  0.8777826246605E+00  0.0000000000000E+00
 0.3432910790458E-08  0.9194641016251E+00  0.0000000000000E+00
 0.3718986714357E-08  0.9611455785898E+00  0.0000000000000E+00
 0.4005062638256E-08  0.1002827055554E+01  0.0000000000000E+00
 0.4291138673178E-08  0.1044508532519E+01  0.0000000000000E+00
 0.4577214430544E-08  0.1086190009484E+01  0.0000000000000E+00
 0.4863290520977E-08  0.1127871486448E+01  0.0000000000000E+00
 0.5149366278343E-08  0.1169552963413E+01  0.0000000000000E+00
 0.5435442368776E-08  0.1211234440378E+01  0.0000000000000E+00
 0.2805831031206E-01  0.4607386669015E+00  0.0000000000000E+00
 0.2955662204149E-01  0.5023709751282E+00  0.0000000000000E+00
 0.3105493377092E-01  0.5440032833549E+00  0.0000000000000E+00
 0.3255324550035E-01  0.5856355915817E+00  0.0000000000000E+00
 0.3405155722978E-01  0.6272678998084E+00  0.0000000000000E+00
 0.3554986895921E-01  0.6689002080351E+00  0.0000000000000E+00
 0.3704818068864E-01  0.7105325162618E+00  0.0000000000000E+00
 0.3854649241807E-01  0.7521648244885E+00  0.0000000000000E+00
 0.4004480414750E-01  0.7937971327152E+00  0.0000000000000E+00
 0.4154311587693E-01  0.8354294409419E+00  0.0000000000000E+00
 0.4304142760636E-01  0.8770617491687E+00  0.0000000000000E+00
 0.4453973933579E-01  0.9186940573954E+00  0.0000000000000E+00
 0.4603805106522E-01  0.9603263656221E+00  0.0000000000000E+00
 0.4753636279465E-01  0.1001958673849E+01  0.0000000000000E+00
 0.4903467452408E-01  0.1043590982076E+01  0.0000000000000E+00
 0.5053298625351E-01  0.1085223290302E+01  0.0000000000000E+00
 0.5203129798294E-01  0.1126855598529E+01  0.0000000000000E+00
 0.5352960971237E-01  0.1168487906756E+01  0.0000000000000E+00
 0.5502792144180E-01  0.1210120214982E+01  0.0000000000000E+00
 0.5610747893947E-01  0.4600556067638E+00  0.0000000000000E+00
 0.5909983934207E-01  0.5015447807163E+00  0.0000000000000E+00
 0.6209219974467E-01  0.5430339546687E+00  0.0000000000000E+00
 0.6508456014726E-01  0.5845231286212E+00  0.0000000000000E+00
 0.6807692054986E-01  0.6260123025737E+00  0.0000000000000E+00
 0.7106928095246E-01  0.6675014765262E+00  0.0000000000000E+00
 0.7406164135505E-01  0.7089906504786E+00  0.0000000000000E+00
 0.7705400175765E-01  0.7504798244311E+00  0.0000000000000E+00
 0.8004636216024E-01  0.7919689983836E+00  0.0000000000000E+00
 0.8303872256284E-01  0.8334581723360E+00  0.0000000000000E+00
 0.8603108296544E-01  0.8749473462885E+00  0.0000000000000E+00
 0.8902344336803E-01  0.9164365202410E+00  0.0000000000000E+00
 0.9201580377063E-01  0.9579256941934E+00  0.0000000000000E+00
 0.9500816417323E-01  0.9994148681459E+00  0.0000000000000E+00
 0.9800052457582E-01  0.1040904042098E+01  0.0000000000000E+00
 0.1009928849784E+00  0.1082393216051E+01  0.0000000000000E+00
 0.1039852453810E+00  0.1123882390003E+01  0.0000000000000E+00
 0.1069776057836E+00  0.1165371563956E+01  0.0000000000000E+00
 0.1099699661862E+00  0.1206860737908E+01  0.0000000000000E+00
 0.8413885683948E-01  0.4589235297423E+00  0.0000000000000E+00
 0.8861722009544E-01  0.5001800628080E+00  0.0000000000000E+00
 0.9309558335140E-01  0.5414365958738E+00  0.0000000000000E+00
 0.9757394660735E-01  0.5826931289395E+00  0.0000000000000E+00
 0.1020523098633E+00  0.6239496620052E+00  0.0000000000000E+00
 0.1065306731193E+00  0.6652061950710E+00  0.0000000000000E+00
 0.1110090363752E+00  0.7064627281367E+00  0.0000000000000E+00
 0.1154873996312E+00  0.7477192612024E+00  0.0000000000000E+00
 0.1199657628871E+00  0.7889757942682E+00  0.0000000000000E+00
 0.1244441261431E+00  0.8302323273339E+00  0.0000000000000E+00
 0.1289224893991E+00  0.8714888603996E+00  0.0000000000000E+00
 0.1334008526550E+00  0.9127453934654E+00  0.0000000000000E+00
 0.1378792159110E+00  0.9540019265311E+00  0.0000000000000E+00
 0.1423575791669E+00  0.9952584595968E+00  0.0000000000000E+00
 0.1468359424229E+00  0.1036514992663E+01  0.0000000000000E+00
 0.1513143056788E+00  0.1077771525728E+01  0.0000000000000E+00
 0.1557926689348E+00  0.1119028058794E+01  0.0000000000000E+00
 0.1602710321908E+00  0.1160284591860E+01  0.0000000000000E+00
 0.1647493954467E+00  0.1201541124925E+01  0.0000000000000E+00
 0.1121439922631E+00  0.4573452347218E+00  0.0000000000000E+00
 0.1180967038124E+00  0.4982817606082E+00  0.0000000000000E+00
 0.1240494153618E+00  0.5392182864946E+00  0.0000000000000E+00
 0.1300021269111E+00  0.5801548123811E+00  0.0000000000000E+00
 0.1359548384605E+00  0.6210913382675E+00  0.0000000000000E+00
 0.1419075500098E+00  0.6620278641539E+00  0.0000000000000E+00
 0.1478602615592E+00  0.7029643900404E+00  0.0000000000000E+00
 0.1538129731085E+00  0.7439009159268E+00  0.0000000000000E+00
 0.1597656846578E+00  0.7848374418132E+00  0.0000000000000E+00
 0.1657183962072E+00  0.8257739676996E+00  0.0000000000000E+00
 0.1716711077565E+00  0.8667104935861E+00  0.0000000000000E+00
 0.1776238193059E+00  0.9076470194725E+00  0.0000000000000E+00
 0.1835765308552E+00  0.9485835453589E+00  0.0000000000000E+00
 0.1895292424046E+00  0.9895200712454E+00  0.0000000000000E+00
 0.1954819539539E+00  0.1030456597132E+01  0.0000000000000E+00
 0.2014346655032E+00  0.1071393123018E+01  0.0000000000000E+00
 0.2073873770526E+00  0.1112329648905E+01  0.0000000000000E+00
 0.2133400886019E+00  0.1153266174791E+01  0.0000000000000E+00
 0.2192928001513E+00  0.1194202700677E+01  0.0000000000000E+00
 0.1401143214071E+00  0.4553218991187E+00  0.0000000000000E+00
 0.1475259711299E+00  0.4958513106929E+00  0.0000000000000E+00
 0.1549376208526E+00  0.5363807222671E+00  0.0000000000000E+00
 0.1623492705753E+00  0.5769101338413E+00  0.0000000000000E+00
 0.1697609202981E+00  0.6174395454155E+00  0.0000000000000E+00
 0.1771725700208E+00  0.6579689569897E+00  0.0000000000000E+00
 0.1845842197436E+00  0.6984983685639E+00  0.0000000000000E+00
 0.1919958694663E+00  0.7390277801381E+00  0.0000000000000E+00
 0.1994075191891E+00  0.7795571917124E+00  0.0000000000000E+00
 0.2068191689118E+00  0.8200866032866E+00  0.0000000000000E+00
 0.2142308186346E+00  0.8606160148608E+00  0.0000000000000E+00
 0.2216424683573E+00  0.9011454264350E+00  0.0000000000000E+00
 0.2290541180800E+00  0.9416748380092E+00  0.0000000000000E+00
 0.2364657678028E+00  0.9822042495834E+00  0.0000000000000E+00
 0.2438774175255E+00  0.1022733661158E+01  0.0000000000000E+00
 0.2512890672483E+00  0.1063263072732E+01  0.0000000000000E+00
 0.2587007169710E+00  0.1103792484306E+01  0.0000000000000E+00
 0.2661123666938E+00  0.1144321895880E+01  0.0000000000000E+00
 0.2735240164165E+00  0.1184851307454E+01  0.0000000000000E+00
 0.1680410299043E+00  0.4528534154353E+00  0.0000000000000E+00
 0.1768921555027E+00  0.4928873238054E+00  0.0000000000000E+00
 0.1857432811012E+00  0.5329212321756E+00  0.0000000000000E+00
 0.1945944066996E+00  0.5729551405457E+00  0.0000000000000E+00
 0.2034455322981E+00  0.6129890489159E+00  0.0000000000000E+00
 0.2122966578965E+00  0.6530229572860E+00  0.0000000000000E+00
 0.2211477834950E+00  0.6930568656562E+00  0.0000000000000E+00
 0.2299989090934E+00  0.7330907740263E+00  0.0000000000000E+00
 0.2388500346918E+00  0.7731246823965E+00  0.0000000000000E+00
 0.2477011602903E+00  0.8131585907666E+00  0.0000000000000E+00
 0.2565522858887E+00  0.8531924991368E+00  0.0000000000000E+00
 0.2654034114872E+00  0.8932264075069E+00  0.0000000000000E+00
 0.2742545370856E+00  0.9332603158771E+00  0.0000000000000E+00
 0.2831056626841E+00  0.9732942242472E+00  0.0000000000000E+00
 0.2919567882825E+00  0.1013328132617E+01  0.0000000000000E+00
 0.3008079138810E+00  0.1053362040987E+01  0.0000000000000E+00
 0.3096590394794E+00  0.1093395949358E+01  0.0000000000000E+00
 0.3185101650779E+00  0.1133429857728E+01  0.0000000000000E+00
 0.3273612906763E+00  0.1173463766098E+01  0.0000000000000E+00
 0.1959146416683E+00  0.4499388902022E+00  0.0000000000000E+00
 0.2061810098788E+00  0.4893865874296E+00  0.0000000000000E+00
 0.2164473780893E+00  0.5288342846570E+00  0.0000000000000E+00
 0.2267137462998E+00  0.5682819818844E+00  0.0000000000000E+00
 0.2369801145103E+00  0.6077296791117E+00  0.0000000000000E+00
 0.2472464827208E+00  0.6471773763391E+00  0.0000000000000E+00
 0.2575128509313E+00  0.6866250735665E+00  0.0000000000000E+00
 0.2677792191418E+00  0.7260727707939E+00  0.0000000000000E+00
 0.2780455873523E+00  0.7655204680212E+00  0.0000000000000E+00
 0.2883119555628E+00  0.8049681652486E+00  0.0000000000000E+00
 0.2985783237733E+00  0.8444158624760E+00  0.0000000000000E+00
 0.3088446919838E+00  0.8838635597034E+00  0.0000000000000E+00
 0.3191110601943E+00  0.9233112569307E+00  0.0000000000000E+00
 0.3293774284048E+00  0.9627589541581E+00  0.0000000000000E+00
 0.3396437966153E+00  0.1002206651385E+01  0.0000000000000E+00
 0.3499101648258E+00  0.1041654348613E+01  0.0000000000000E+00
 0.3601765330363E+00  0.1081102045840E+01  0.0000000000000E+00
 0.3704429012468E+00  0.1120549743068E+01  0.0000000000000E+00
 0.3807092694573E+00  0.1159997440295E+01  0.0000000000000E+00
 0.2237255070970E+00  0.4465773316393E+00  0.0000000000000E+00
 0.2353778826642E+00  0.4853454456524E+00  0.0000000000000E+00
 0.2470302582313E+00  0.5241135596654E+00  0.0000000000000E+00
 0.2586826337985E+00  0.5628816736785E+00  0.0000000000000E+00
 0.2703350093657E+00  0.6016497876915E+00  0.0000000000000E+00
 0.2819873849328E+00  0.6404179017046E+00  0.0000000000000E+00
 0.2936397605000E+00  0.6791860157177E+00  0.0000000000000E+00
 0.3052921360671E+00  0.7179541297307E+00  0.0000000000000E+00
 0.3169445116343E+00  0.7567222437438E+00  0.0000000000000E+00
 0.3285968872014E+00  0.7954903577569E+00  0.0000000000000E+00
 0.3402492627686E+00  0.8342584717699E+00  0.0000000000000E+00
 0.3519016383358E+00  0.8730265857830E+00  0.0000000000000E+00
 0.3635540139029E+00  0.9117946997960E+00  0.0000000000000E+00
 0.3752063894701E+00  0.9505628138091E+00  0.0000000000000E+00
 0.3868587650372E+00  0.9893309278222E+00  0.0000000000000E+00
 0.3985111406044E+00  0.1028099041835E+01  0.0000000000000E+00
 0.4101635161715E+00  0.1066867155848E+01  0.0000000000000E+00
 0.4218158917387E+00  0.1105635269861E+01  0.0000000000000E+00
 0.4334682673059E+00  0.1144403383874E+01  0.0000000000000E+00
 0.2514639257183E+00  0.4427693911874E+00  0.0000000000000E+00
 0.2644679302121E+00  0.4807632908421E+00  0.0000000000000E+00
 0.2774719347060E+00  0.5187571904969E+00  0.0000000000000E+00
 0.2904759391998E+00  0.5567510901517E+00  0.0000000000000E+00
 0.3034799436937E+00  0.5947449898064E+00  0.0000000000000E+00
 0.3164839481875E+00  0.6327388894612E+00  0.0000000000000E+00
 0.3294879526813E+00  0.6707327891159E+00  0.0000000000000E+00
 0.3424919571752E+00  0.7087266887707E+00  0.0000000000000E+00
 0.3554959616690E+00  0.7467205884254E+00  0.0000000000000E+00
 0.3684999661629E+00  0.7847144880802E+00  0.0000000000000E+00
 0.3815039706567E+00  0.8227083877350E+00  0.0000000000000E+00
 0.3945079751505E+00  0.8607022873897E+00  0.0000000000000E+00
 0.4075119796444E+00  0.8986961870445E+00  0.0000000000000E+00
 0.4205159841382E+00  0.9366900866992E+00  0.0000000000000E+00
 0.4335199886321E+00  0.9746839863540E+00  0.0000000000000E+00
 0.4465239931259E+00  0.1012677886009E+01  0.0000000000000E+00
 0.4595279976197E+00  0.1050671785664E+01  0.0000000000000E+00
 0.4725320021136E+00  0.1088665685318E+01  0.0000000000000E+00
 0.4855360066074E+00  0.1126659584973E+01  0.0000000000000E+00
 0.2791218299219E+00  0.4385208076351E+00  0.0000000000000E+00
 0.2934394872232E+00  0.4756494584267E+00  0.0000000000000E+00
 0.3077571445244E+00  0.5127781092184E+00  0.0000000000000E+00
 0.3220748018257E+00  0.5499067600100E+00  0.0000000000000E+00
 0.3363924591269E+00  0.5870354108016E+00  0.0000000000000E+00
 0.3507101164282E+00  0.6241640615933E+00  0.0000000000000E+00
 0.3650277737294E+00  0.6612927123849E+00  0.0000000000000E+00
 0.3793454310307E+00  0.6984213631766E+00  0.0000000000000E+00
 0.3936630883319E+00  0.7355500139682E+00  0.0000000000000E+00
 0.4079807456332E+00  0.7726786647598E+00  0.0000000000000E+00
 0.4222984029344E+00  0.8098073155515E+00  0.0000000000000E+00
 0.4366160602357E+00  0.8469359663431E+00  0.0000000000000E+00
 0.4509337175369E+00  0.8840646171348E+00  0.0000000000000E+00
 0.4652513748382E+00  0.9211932679264E+00  0.0000000000000E+00
 0.4795690321395E+00  0.9583219187180E+00  0.0000000000000E+00
 0.4938866894407E+00  0.9954505695097E+00  0.0000000000000E+00
 0.5082043467420E+00  0.1032579220301E+01  0.0000000000000E+00
 0.5225220040432E+00  0.1069707871093E+01  0.0000000000000E+00
 0.5368396613445E+00  0.1106836521885E+01  0.0000000000000E+00
 0.3066965711232E+00  0.4338489482471E+00  0.0000000000000E+00
 0.3222916402414E+00  0.4700363157784E+00  0.0000000000000E+00
 0.3378867093596E+00  0.5062236833096E+00  0.0000000000000E+00
 0.3534817784778E+00  0.5424110508409E+00  0.0000000000000E+00
 0.3690768475959E+00  0.5785984183721E+00  0.0000000000000E+00
 0.3846719167141E+00  0.6147857859034E+00  0.0000000000000E+00
 0.4002669858323E+00  0.6509731534347E+00  0.0000000000000E+00
 0.4158620549505E+00  0.6871605209659E+00  0.0000000000000E+00
 0.4314571240687E+00  0.7233478884972E+00  0.0000000000000E+00
 0.4470521931869E+00  0.7595352560285E+00  0.0000000000000E+00
 0.4626472623051E+00  0.7957226235597E+00  0.0000000000000E+00
 0.4782423314233E+00  0.8319099910910E+00  0.0000000000000E+00
 0.4938374005415E+00  0.8680973586222E+00  0.0000000000000E+00
 0.5094324696597E+00  0.9042847261535E+00  0.0000000000000E+00
 0.5250275387779E+00  0.9404720936848E+00  0.0000000000000E+00
 0.5406226078961E+00  0.9766594612160E+00  0.0000000000000E+00
 0.5562176770143E+00  0.1012846828747E+01  0.0000000000000E+00
 0.5718127461325E+00  0.1049034196279E+01  0.0000000000000E+00
 0.5874078152507E+00  0.1085221563810E+01  0.0000000000000E+00
 0.3341971107314E+00  0.4287924373437E+00  0.0000000000000E+00
 0.3510465998701E+00  0.4639985277428E+00  0.0000000000000E+00
 0.3678960890087E+00  0.4992046181418E+00  0.0000000000000E+00
 0.3847455781474E+00  0.5344107085408E+00  0.0000000000000E+00
 0.4015950672860E+00  0.5696167989399E+00  0.0000000000000E+00
 0.4184445564247E+00  0.6048228893389E+00  0.0000000000000E+00
 0.4352940455633E+00  0.6400289797380E+00  0.0000000000000E+00
 0.4521435347020E+00  0.6752350701370E+00  0.0000000000000E+00
 0.4689930238406E+00  0.7104411605360E+00  0.0000000000000E+00
 0.4858425129793E+00  0.7456472509351E+00  0.0000000000000E+00
 0.5026920021179E+00  0.7808533413341E+00  0.0000000000000E+00
 0.5195414912566E+00  0.8160594317332E+00  0.0000000000000E+00
 0.5363909803952E+00  0.8512655221322E+00  0.0000000000000E+00
 0.5532404695339E+00  0.8864716125313E+00  0.0000000000000E+00
 0.5700899586725E+00  0.9216777029303E+00  0.0000000000000E+00
 0.5869394478112E+00  0.9568837933293E+00  0.0000000000000E+00
 0.6037889369498E+00  0.9920898837284E+00  0.0000000000000E+00
 0.6206384260885E+00  0.1027295974127E+01  0.0000000000000E+00
 0.6374879152271E+00  0.1062502064526E+01  0.0000000000000E+00
 0.3616375819568E+00  0.4233950317695E+00  0.0000000000000E+00
 0.3797367715532E+00  0.4576208243499E+00  0.0000000000000E+00
 0.3978359611496E+00  0.4918466169303E+00  0.0000000000000E+00
 0.4159351507460E+00  0.5260724095108E+00  0.0000000000000E+00
 0.4340343403424E+00  0.5602982020912E+00  0.0000000000000E+00
 0.4521335299388E+00  0.5945239946716E+00  0.0000000000000E+00
 0.4702327195353E+00  0.6287497872521E+00  0.0000000000000E+00
 0.4883319091317E+00  0.6629755798325E+00  0.0000000000000E+00
 0.5064310987281E+00  0.6972013724129E+00  0.0000000000000E+00
 0.5245302883245E+00  0.7314271649934E+00  0.0000000000000E+00
 0.5426294779209E+00  0.7656529575738E+00  0.0000000000000E+00
 0.5607286675173E+00  0.7998787501542E+00  0.0000000000000E+00
 0.5788278571138E+00  0.8341045427347E+00  0.0000000000000E+00
 0.5969270467102E+00  0.8683303353151E+00  0.0000000000000E+00
 0.6150262363066E+00  0.9025561278956E+00  0.0000000000000E+00
 0.6331254259030E+00  0.9367819204760E+00  0.0000000000000E+00
 0.6512246154994E+00  0.9710077130564E+00  0.0000000000000E+00
 0.6693238050958E+00  0.1005233505637E+01  0.0000000000000E+00
 0.6874229946923E+00  0.1039459298217E+01  0.0000000000000E+00
 0.3890049751294E+00  0.4176409905240E+00  0.0000000000000E+00
 0.4083402182530E+00  0.4508687337983E+00  0.0000000000000E+00
 0.4276754613766E+00  0.4840964770726E+00  0.0000000000000E+00
 0.4470107045002E+00  0.5173242203469E+00  0.0000000000000E+00
 0.4663459476237E+00  0.5505519636212E+00  0.0000000000000E+00
 0.4856811907473E+00  0.5837797068956E+00  0.0000000000000E+00
 0.5050164338709E+00  0.6170074501699E+00  0.0000000000000E+00
 0.5243516769945E+00  0.6502351934442E+00  0.0000000000000E+00
 0.5436869201180E+00  0.6834629367185E+00  0.0000000000000E+00
 0.5630221632416E+00  0.7166906799928E+00  0.0000000000000E+00
 0.5823574063652E+00  0.7499184232671E+00  0.0000000000000E+00
 0.6016926494888E+00  0.7831461665414E+00  0.0000000000000E+00
 0.6210278926123E+00  0.8163739098157E+00  0.0000000000000E+00
 0.6403631357359E+00  0.8496016530900E+00  0.0000000000000E+00
 0.6596983788595E+00  0.8828293963643E+00  0.0000000000000E+00
 0.6790336219831E+00  0.9160571396386E+00  0.0000000000000E+00
 0.6983688651066E+00  0.9492848829129E+00  0.0000000000000E+00
 0.7177041082302E+00  0.9825126261872E+00  0.0000000000000E+00
 0.7370393513538E+00  0.1015740369462E+01  0.0000000000000E+00
 0.4162795949455E+00  0.4115031803644E+00  0.0000000000000E+00
 0.4368214348248E+00  0.4436848269459E+00  0.0000000000000E+00
 0.4573632747041E+00  0.4758664735274E+00  0.0000000000000E+00
 0.4779051145834E+00  0.5080481201089E+00  0.0000000000000E+00
 0.4984469544626E+00  0.5402297666905E+00  0.0000000000000E+00
 0.5189887943419E+00  0.5724114132720E+00  0.0000000000000E+00
 0.5395306342212E+00  0.6045930598535E+00  0.0000000000000E+00
 0.5600724741005E+00  0.6367747064350E+00  0.0000000000000E+00
 0.5806143139798E+00  0.6689563530165E+00  0.0000000000000E+00
 0.6011561538591E+00  0.7011379995980E+00  0.0000000000000E+00
 0.6216979937384E+00  0.7333196461795E+00  0.0000000000000E+00
 0.6422398336177E+00  0.7655012927610E+00  0.0000000000000E+00
 0.6627816734970E+00  0.7976829393425E+00  0.0000000000000E+00
 0.6833235133763E+00  0.8298645859240E+00  0.0000000000000E+00
 0.7038653532555E+00  0.8620462325056E+00  0.0000000000000E+00
 0.7244071931348E+00  0.8942278790871E+00  0.0000000000000E+00
 0.7449490330141E+00  0.9264095256686E+00  0.0000000000000E+00
 0.7654908728934E+00  0.9585911722501E+00  0.0000000000000E+00
 0.7860327127727E+00  0.9907728188316E+00  0.0000000000000E+00
 0.4434431138861E+00  0.4049623046123E+00  0.0000000000000E+00
 0.4651476238630E+00  0.4360271528875E+00  0.0000000000000E+00
 0.4868521338399E+00  0.4670920011626E+00  0.0000000000000E+00
 0.5085566438169E+00  0.4981568494378E+00  0.0000000000000E+00
 0.5302611537938E+00  0.5292216977130E+00  0.0000000000000E+00
 0.5519656637707E+00  0.5602865459881E+00  0.0000000000000E+00
 0.5736701737476E+00  0.5913513942633E+00  0.0000000000000E+00
 0.5953746837245E+00  0.6224162425385E+00  0.0000000000000E+00
 0.6170791937015E+00  0.6534810908137E+00  0.0000000000000E+00
 0.6387837036784E+00  0.6845459390888E+00  0.0000000000000E+00
 0.6604882136553E+00  0.7156107873640E+00  0.0000000000000E+00
 0.6821927236322E+00  0.7466756356392E+00  0.0000000000000E+00
 0.7038972336091E+00  0.7777404839143E+00  0.0000000000000E+00
 0.7256017435861E+00  0.8088053321895E+00  0.0000000000000E+00
 0.7473062535630E+00  0.8398701804647E+00  0.0000000000000E+00
 0.7690107635399E+00  0.8709350287399E+00  0.0000000000000E+00
 0.7907152735168E+00  0.9019998770150E+00  0.0000000000000E+00
 0.8124197834938E+00  0.9330647252902E+00  0.0000000000000E+00
 0.8341242934707E+00  0.9641295735654E+00  0.0000000000000E+00
 0.4704791815732E+00  0.3980072353552E+00  0.0000000000000E+00
 0.4932896427561E+00  0.4278699685610E+00  0.0000000000000E+00
 0.5161001039390E+00  0.4577327017669E+00  0.0000000000000E+00
 0.5389105651219E+00  0.4875954349727E+00  0.0000000000000E+00
 0.5617210263048E+00  0.5174581681785E+00  0.0000000000000E+00
 0.5845314874877E+00  0.5473209013844E+00  0.0000000000000E+00
 0.6073419486706E+00  0.5771836345902E+00  0.0000000000000E+00
 0.6301524098535E+00  0.6070463677961E+00  0.0000000000000E+00
 0.6529628710365E+00  0.6369091010019E+00  0.0000000000000E+00
 0.6757733322194E+00  0.6667718342078E+00  0.0000000000000E+00
 0.6985837934023E+00  0.6966345674136E+00  0.0000000000000E+00
 0.7213942545852E+00  0.7264973006194E+00  0.0000000000000E+00
 0.7442047157681E+00  0.7563600338253E+00  0.0000000000000E+00
 0.7670151769510E+00  0.7862227670311E+00  0.0000000000000E+00
 0.7898256381339E+00  0.8160855002370E+00  0.0000000000000E+00
 0.8126360993168E+00  0.8459482334428E+00  0.0000000000000E+00
 0.8354465604997E+00  0.8758109666487E+00  0.0000000000000E+00
 0.8582570216826E+00  0.9056736998545E+00  0.0000000000000E+00
 0.8810674828655E+00  0.9355364330604E+00  0.0000000000000E+00
 0.4973724746499E+00  0.3906327012162E+00  0.0000000000000E+00
 0.5212203829587E+00  0.4191990678570E+00  0.0000000000000E+00
 0.5450682912674E+00  0.4477654344978E+00  0.0000000000000E+00
 0.5689161995761E+00  0.4763318011386E+00  0.0000000000000E+00
 0.5927641078849E+00  0.5048981677794E+00  0.0000000000000E+00
 0.6166120161936E+00  0.5334645344202E+00  0.0000000000000E+00
 0.6404599245023E+00  0.5620309010610E+00  0.0000000000000E+00
 0.6643078328111E+00  0.5905972677017E+00  0.0000000000000E+00
 0.6881557411198E+00  0.6191636343425E+00  0.0000000000000E+00
 0.7120036494285E+00  0.6477300009833E+00  0.0000000000000E+00
 0.7358515577373E+00  0.6762963676241E+00  0.0000000000000E+00
 0.7596994660460E+00  0.7048627342649E+00  0.0000000000000E+00
 0.7835473743547E+00  0.7334291009057E+00  0.0000000000000E+00
 0.8073952826635E+00  0.7619954675465E+00  0.0000000000000E+00
 0.8312431909722E+00  0.7905618341873E+00  0.0000000000000E+00
 0.8550910992809E+00  0.8191282008280E+00  0.0000000000000E+00
 0.8789390075897E+00  0.8476945674688E+00  0.0000000000000E+00
 0.9027869158984E+00  0.8762609341096E+00  0.0000000000000E+00
 0.9266348242071E+00  0.9048273007504E+00  0.0000000000000E+00
 0.5241075392167E+00  0.3828365021242E+00  0.0000000000000E+00
 0.5489124012050E+00  0.4100062274629E+00  0.0000000000000E+00
 0.5737172631934E+00  0.4371759528015E+00  0.0000000000000E+00
 0.5985221251818E+00  0.4643456781402E+00  0.0000000000000E+00
 0.6233269871702E+00  0.4915154034788E+00  0.0000000000000E+00
 0.6481318491586E+00  0.5186851288175E+00  0.0000000000000E+00
 0.6729367111470E+00  0.5458548541562E+00  0.0000000000000E+00
 0.6977415731353E+00  0.5730245794948E+00  0.0000000000000E+00
 0.7225464351237E+00  0.6001943048335E+00  0.0000000000000E+00
 0.7473512971121E+00  0.6273640301721E+00  0.0000000000000E+00
 0.7721561591005E+00  0.6545337555108E+00  0.0000000000000E+00
 0.7969610210889E+00  0.6817034808494E+00  0.0000000000000E+00
 0.8217658830773E+00  0.7088732061881E+00  0.0000000000000E+00
 0.8465707450657E+00  0.7360429315268E+00  0.0000000000000E+00
 0.8713756070540E+00  0.7632126568654E+00  0.0000000000000E+00
 0.8961804690424E+00  0.7903823822041E+00  0.0000000000000E+00
 0.9209853310308E+00  0.8175521075427E+00  0.0000000000000E+00
 0.9457901930192E+00  0.8447218328814E+00  0.0000000000000E+00
 0.9705950550076E+00  0.8718915582200E+00  0.0000000000000E+00
</DataArray>
</Points>
<Cells>
<DataArray type="Int64" Name="connectivity" format="ascii">
0 11 438 243
243 438 439 244
244 439 440 245
245 440 441 246
246 441 442 247
247 442 443 248
248 443 444 249
249 444 445 250
250 445 446 251
251 446 447 252
252 447 448 253
253 448 449 254
254 449 450 255
255 450 451 256
256 451 452 257
257 452 453 258
258 453 454 259
259 454 455 260
260 455 456 261
261 456 457 262
262 457 458 263
263 458 459 264
264 459 460 265
265 460 461 266
266 461 462 267
267 462 463 268
268 463 464 269
269 464 465 270
270 465 466 271
271 466 467 272
272 467 468 273
273 468 469 274
274 469 470 275
275 470 471 276
276 471 472 277
277 472 473 278
278 473 474 279
279 474 475 280
280 475 476 281
281 476 477 282
282 477 89 3
11 12 478 438
438 478 479 439
439 479 480 440
440 480 481 441
441 481 482 442
442 482 483 443
443 483 484 444
444 484 485 445
445 485 486 446
446 486 487 447
447 487 488 448
448 488 489 449
449 489 490 450
450 490 491 451
451 491 492 452
452 492 493 453
453 493 494 454
454 494 495 455
455 495 496 456
456 496 497 457
457 497 498 458
458 498 499 459
459 499 500 460
460 500 501 461
461 501 502 462
462 502 503 463
463 503 504 464
464 504 505 465
465 505 506 466
466 506 507 467
467 507 508 468
468 508 509 469
469 509 510 470
470 510 511 471
471 511 512 472
472 512 513 473
473 513 514 474
474 514 515 475
475 515 516 476
476 516 517 477
477 517 90 89
12 13 518 478
478 518 519 479
479 519 520 480
480 520 521 481
481 521 522 482
482 522 523 483
483 523 524 484
484 524 525 485
485 525 526 486
486 526 527 487
487 527 528 488
488 528 529 489
489 529 530 490
490 530 531 491
491 531 532 492
492 532 533 493
493 533 534 494
494 534 535 495
495 535 536 496
496 536 537 497
497 537 538 498
498 538 539 499
499 539 540 500
500 540 541 501
501 541 542 502
502 542 543 503
503 543 544 504
504 544 545 505
505 545 546 506
506 546 547 507
507 547 548 508
508 548 549 509
509 549 550 510
510 550 551 511
511 551 552 512
512 552 553 513
513 553 554 514
514 554 555 515
515 555 556 516
516 556 557 517
517 557 91 90
13 14 558 518
518 558 559 519
519 559 560 520
520 560 561 521
521 561 562 522
522 562 563 523
523 563 564 524
524 564 565 525
525 565 566 526
526 566 567 527
527 567 568 528
528 568 569 529
529 569 570 530
530 570 571 531
531 571 572 532
532 572 573 533
533 573 574 534
534 574 575 535
535 575 576 536
536 576 577 537
537 577 578 538
538 578 579 539
539 579 580 540
540 580 581 541
541 581 582 542
542 582 583 543
543 583 584 544
544 584 585 545
545 585 586 546
546 586 587 547
547 587 588 548
548 588 589 549
549 589 590 550
550 590 591 551
551 591 592 552
552 592 593 553
553 593 594 554
554 594 595 555
555 595 596 556
556 596 597 557
557 597 92 91
14 15 598 558
558 598 599 559
559 599 600 560
560 600 601 561
561 601 602 562
562 602 603 563
563 603 604 564
564 604 605 565
565 605 606 566
566 606 607 567
567 607 608 568
568 608 609 569
569 609 610 570
570 610 611 571
571 611 612 572
572 612 613 573
573 613 614 574
574 614 615 575
575 615 616 576
576 616 617 577
577 617 618 578
578 618 619 579
579 619 620 580
580 620 621 581
581 621 622 582
582 622 623 583
583 623 624 584
584 624 625 585
585 625 626 586
586 626 627 587
587 627 628 588
588 628 629 589
589 629 630 590
590 630 631 591
591 631 632 592
592 632 633 593
593 633 634 594
594 634 635 595
595 635 636 596
596 636 637 597
597 637 93 92
15 16 638 598
598 638 639 599
599 639 640 600
600 640 641 601
601 641 642 602
602 642 643 603
603 643 644 604
604 644 645 605
605 645 646 606
606 646 647 607
607 647 648 608
608 648 649 609
609 649 650 610
610 650 651 611
611 651 652 612
612 652 653 613
613 653 654 614
614 654 655 615
615 655 656 616
616 656 657 617
617 657 658 618
618 658 659 619
619 659 660 620
620 660 661 621
621 661 662 622
622 662 663 623
623 663 664 624
624 664 665 625
625 665 666 626
626 666 667 627
627 667 668 628
628 668 669 629
629 669 670 630
630 670 671 631
631 671 672 632
632 672 673 633
633 673 674 634
634 674 675 635
635 675 676 636
636 676 677 637
637 677 94 93
16 17 678 638
638 678 679 639
639 679 680 640
640 680 681 641
641 681 682 642
642 682 683 643
643 683 684 644
644 684 685 645
645 685 686 646
646 686 687 647
647 687 688 648
648 688 689 649
649 689 690 650
650 690 691 651
651 691 692 652
652 692 693 653
653 693 694 654
654 694 695 655
655 695 696 656
656 696 697 657
657 697 698 658
658 698 699 659
659 699 700 660
660 700 701 661
661 701 702 662
662 702 703 663
663 703 704 664
664 704 705 665
665 705 706 666
666 706 707 667
667 707 708 668
668 708 709 669
669 709 710 670
670 710 711 671
671 711 712 672
672 712 713 673
673 713 714 674
674 714 715 675
675 715 716 676
676 716 717 677
677 717 95 94
17 18 718 678
678 718 719 679
679 719 720 680
680 720 721 681
681 721 722 682
682 722 723 683
683 723 724 684
684 724 725 685
685 725 726 686
686 726 727 687
687 727 728 688
688 728 729 689
689 729 730 690
690 730 731 691
691 731 732 692
692 732 733 693
693 733 734 694
694 734 735 695
695 735 736 696
696 736 737 697
697 737 738 698
698 738 739 699
699 739 740 700
700 740 741 701
701 741 742 702
702 742 743 703
703 743 744 704
704 744 745 705
705 745 746 706
706 746 747 707
707 747 748 708
708 748 749 709
709 749 750 710
710 750 751 711
711 751 752 712
712 752 753 713
713 753 754 714
714 754 755 715
715 755 756 716
716 756 757 717
717 757 96 95
18 19 758 718
718 758 759 719
719 759 760 720
720 760 761 721
721 761 762 722
722 762 763 723
723 763 764 724
724 764 765 725
725 765 766 726
726 766 767 727
727 767 768 728
728 768 769 729
729 769 770 730
730 770 771 731
731 771 772 732
732 772 773 733
733 773 774 734
734 774 775 735
735 775 776 736
736 776 777 737
737 777 778 738
738 778 779 739
739 779 780 740
740 780 781 741
741 781 782 742
742 782 783 743
743 783 784 744
744 784 785 745
745 785 786 746
746 786 787 747
747 787 788 748
748 788 789 749
749 789 790 750
750 790 791 751
751 791 792 752
752 792 793 753
753 793 794 754
754 794 795 755
755 795 796 756
756 796 797 757
757 797 97 96
19 20 798 758
758 798 799 759
759 799 800 760
760 800 801 761
761 801 802 762
762 802 803 763
763 803 804 764
764 804 805 765
765 805 806 766
766 806 807 767
767 807 808 768
768 808 809 769
769 809 810 770
770 810 811 771
771 811 812 772
772 812 813 773
773 813 814 774
774 814 815 775
775 815 816 776
776 816 817 777
777 817 818 778
778 818 819 779
779 819 820 780
780 820 821 781
781 821 822 782
782 822 823 783
783 823 824 784
784 824 825 785
785 825 826 786
786 826 827 787
787 827 828 788
788 828 829 789
789 829 830 790
790 830 831 791
791 831 832 792
792 832 833 793
793 833 834 794
794 834 835 795
795 835 836 796
796 836 837 797
797 837 98 97
20 21 838 798
798 838 839 799
799 839 840 800
800 840 841 801
801 841 842 802
802 842 843 803
803 843 844 804
804 844 845 805
805 845 846 806
806 846 847 807
807 847 848 808
808 848 849 809
809 849 850 810
810 850 851 811
811 851 852 812
812 852 853 813
813 853 854 814
814 854 855 815
815 855 856 816
816 856 857 817
817 857 858 818
818 858 859 819
819 859 860 820
820 860 861 821
821 861 862 822
822 862 863 823
823 863 864 824
824 864 865 825
825 865 866 826
826 866 867 827
827 867 868 828
828 868 869 829
829 869 870 830
830 870 871 831
831 871 872 832
832 872 873 833
833 873 874 834
834 874 875 835
835 875 876 836
836 876 877 837
837 877 99 98
21 22 878 838
838 878 879 839
839 879 880 840
840 880 881 841
841 881 882 842
842 882 883 843
843 883 884 844
844 884 885 845
845 885 886 846
846 886 887 847
847 887 888 848
848 888 889 849
849 889 890 850
850 890 891 851
851 891 892 852
852 892 893 853
853 893 894 854
854 894 895 855
855 895 896 856
856 896 897 857
857 897 898 858
858 898 899 859
859 899 900 860
860 900 901 861
861 901 902 862
862 902 903 863
863 903 904 864
864 904 905 865
865 905 906 866
866 906 907 867
867 907 908 868
868 908 909 869
869 909 910 870
870 910 911 871
871 911 912 872
872 912 913 873
873 913 914 874
874 914 915 875
875 915 916 876
876 916 917 877
877 917 100 99
22 23 918 878
878 918 919 879
879 919 920 880
880 920 921 881
881 921 922 882
882 922 923 883
883 923 924 884
884 924 925 885
885 925 926 886
886 926 927 887
887 927 928 888
888 928 929 889
889 929 930 890
890 930 931 891
891 931 932 892
892 932 933 893
893 933 934 894
894 934 935 895
895 935 936 896
896 936 937 897
897 937 938 898
898 938 939 899
899 939 940 900
900 940 941 901
901 941 942 902
902 942 943 903
903 943 944 904
904 944 945 905
905 945 946 906
906 946 947 907
907 947 948 908
908 948 949 909
909 949 950 910
910 950 951 911
911 951 952 912
912 952 953 913
913 953 954 914
914 954 955 915
915 955 956 916
916 956 957 917
917 957 101 100
23 24 958 918
918 958 959 919
919 959 960 920
920 960 961 921
921 961 962 922
922 962 963 923
923 963 964 924
924 964 965 925
925 965 966 926
926 966 967 927
927 967 968 928
928 968 969 929
929 969 970 930
930 970 971 931
931 971 972 932
932 972 973 933
933 973 974 934
934 974 975 935
935 975 976 936
936 976 977 937
937 977 978 938
938 978 979 939
939 979 980 940
940 980 981 941
941 981 982 942
942 982 983 943
943 983 984 944
944 984 985 945
945 985 986 946
946 986 987 947
947 987 988 948
948 988 989 949
949 989 990 950
950 990 991 951
951 991 992 952
952 992 993 953
953 993 994 954
954 994 995 955
955 995 996 956
956 996 997 957
957 997 102 101
24 25 998 958
958 998 999 959
959 999 1000 960
960 1000 1001 961
961 1001 1002 962
962 1002 1003 963
963 1003 1004 964
964 1004 1005 965
965 1005 1006 966
966 1006 1007 967
967 1007 1008 968
968 1008 1009 969
969 1009 1010 970
970 1010 1011 971
971 1011 1012 972
972 1012 1013 973
973 1013 1014 974
974 1014 1015 975
975 1015 1016 976
976 1016 1017 977
977 1017 1018 978
978 1018 1019 979
979 1019 1020 980
980 1020 1021 981
981 1021 1022 982
982 1022 1023 983
983 1023 1024 984
984 1024 1025 985
985 1025 1026 986
986 1026 1027 987
987 1027 1028 988
988 1028 1029 989
989 1029 1030 990
990 1030 1031 991
991 1031 1032 992
992 1032 1033 993
993 1033 1034 994
994 1034 1035 995
995 1035 1036 996
996 1036 1037 997
997 1037 103 102
25 26 1038 998
998 1038 1039 999
999 1039 1040 1000
1000 1040 1041 1001
1001 1041 1042 1002
1002 1042 1043 1003
1003 1043 1044 1004
1004 1044 1045 1005
1005 1045 1046 1006
1006 1046 1047 1007
1007 1047 1048 1008
1008 1048 1049 1009
1009 1049 1050 1010
1010 1050 1051 1011
1011 1051 1052 1012
1012 1052 1053 1013
1013 1053 1054 1014
1014 1054 1055 1015
1015 1055 1056 1016
1016 1056 1057 1017
1017 1057 1058 1018
1018 1058 1059 1019
1019 1059 1060 1020
1020 1060 1061 1021
1021 1061 1062 1022
1022 1062 1063 1023
1023 1063 1064 1024
1024 1064 1065 1025
1025 1065 1066 1026
1026 1066 1067 1027
1027 1067 1068 1028
1028 1068 1069 1029
1029 1069 1070 1030
1030 1070 1071 1031
1031 1071 1072 1032
1032 1072 1073 1033
1033 1073 1074 1034
1034 1074 1075 1035
1035 1075 1076 1036
1036 1076 1077 1037
1037 1077 104 103
26 27 1078 1038
1038 1078 1079 1039
1039 1079 1080 1040
1040 1080 1081 1041
1041 1081 1082 1042
1042 1082 1083 1043
1043 1083 1084 1044
1044 1084 1085 1045
1045 1085 1086 1046
1046 1086 1087 1047
1047 1087 1088 1048
1048 1088 1089 1049
1049 1089 1090 1050
1050 1090 1091 1051
1051 1091 1092 1052
1052 1092 1093 1053
1053 1093 1094 1054
1054 1094 1095 1055
1055 1095 1096 1056
1056 1096 1097 1057
1057 1097 1098 1058
1058 1098 1099 1059
1059 1099 1100 1060
1060 1100 1101 1061
1061 1101 1102 1062
1062 1102 1103 1063
1063 1103 1104 1064
1064 1104 1105 1065
1065 1105 1106 1066
1066 1106 1107 1067
1067 1107 1108 1068
1068 1108 1109 1069
1069 1109 1110 1070
1070 1110 1111 1071
1071 1111 1112 1072
1072 1112 1113 1073
1073 1113 1114 1074
1074 1114 1115 1075
1075 1115 1116 1076
1076 1116 1117 1077
1077 1117 105 104
27 28 1118 1078
1078 1118 1119 1079
1079 1119 1120 1080
1080 1120 1121 1081
1081 1121 1122 1082
1082 1122 1123 1083
1083 1123 1124 1084
1084 1124 1125 1085
1085 1125 1126 1086
1086 1126 1127 1087
1087 1127 1128 1088
1088 1128 1129 1089
1089 1129 1130 1090
1090 1130 1131 1091
1091 1131 1132 1092
1092 1132 1133 1093
1093 1133 1134 1094
1094 1134 1135 1095
1095 1135 1136 1096
1096 1136 1137 1097
1097 1137 1138 1098
1098 1138 1139 1099
1099 1139 1140 1100
1100 1140 1141 1101
1101 1141 1142 1102
1102 1142 1143 1103
1103 1143 1144 1104
1104 1144 1145 1105
1105 1145 1146 1106
1106 1146 1147 1107
1107 1147 1148 1108
1108 1148 1149 1109
1109 1149 1150 1110
1110 1150 1151 1111
1111 1151 1152 1112
1112 1152 1153 1113
1113 1153 1154 1114
1114 1154 1155 1115
1115 1155 1156 1116
1116 1156 1157 1117
1117 1157 106 105
28 29 1158 1118
1118 1158 1159 1119
1119 1159 1160 1120
1120 1160 1161 1121
1121 1161 1162 1122
1122 1162 1163 1123
1123 1163 1164 1124
1124 1164 1165 1125
1125 1165 1166 1126
1126 1166 1167 1127
1127 1167 1168 1128
1128 1168 1169 1129
1129 1169 1170 1130
1130 1170 1171 1131
1131 1171 1172 1132
1132 1172 1173 1133
1133 1173 1174 1134
1134 1174 1175 1135
1135 1175 1176 1136
1136 1176 1177 1137
1137 1177 1178 1138
1138 1178 1179 1139
1139 1179 1180 1140
1140 1180 1181 1141
1141 1181 1182 1142
1142 1182 1183 1143
1143 1183 1184 1144
1144 1184 1185 1145
1145 1185 1186 1146
1146 1186 1187 1147
1147 1187 1188 1148
1148 1188 1189 1149
1149 1189 1190 1150
1150 1190 1191 1151
1151 1191 1192 1152
1152 1192 1193 1153
1153 1193 1194 1154
1154 1194 1195 1155
1155 1195 1196 1156
1156 1196 1197 1157
1157 1197 107 106
29 30 1198 1158
1158 1198 1199 1159
1159 1199 1200 1160
1160 1200 1201 1161
1161 1201 1202 1162
1162 1202 1203 1163
1163 1203 1204 1164
1164 1204 1205 1165
1165 1205 1206 1166
1166 1206 1207 1167
1167 1207 1208 1168
1168 1208 1209 1169
1169 1209 1210 1170
1170 1210 1211 1171
1171 1211 1212 1172
1172 1212 1213 1173
1173 1213 1214 1174
1174 1214 1215 1175
1175 1215 1216 1176
1176 1216 1217 1177
1177 1217 1218 1178
1178 1218 1219 1179
1179 1219 1220 1180
1180 1220 1221 1181
1181 1221 1222 1182
1182 1222 1223 1183
1183 1223 1224 1184
1184 1224 1225 1185
1185 1225 1226 1186
1186 1226 1227 1187
1187 1227 1228 1188
1188 1228 1229 1189
1189 1229 1230 1190
1190 1230 1231 1191
1191 1231 1232 1192
1192 1232 1233 1193
1193 1233 1234 1194
1194 1234 1235 1195
1195 1235 1236 1196
1196 1236 1237 1197
1197 1237 4 107
30 31 1238 1198
1198 1238 1239 1199
1199 1239 1240 1200
1200 1240 1241 1201
1201 1241 1242 1202
1202 1242 1243 1203
1203 1243 1244 1204
1204 1244 1245 1205
1205 1245 1246 1206
1206 1246 1247 1207
1207 1247 1248 1208
1208 1248 1249 1209
1209 1249 1250 1210
1210 1250 1251 1211
1211 1251 1252 1212
1212 1252 1253 1213
1213 1253 1254 1214
1214 1254 1255 1215
1215 1255 1256 1216
1216 1256 1257 1217
1217 1257 1258 1218
1218 1258 1259 1219
1219 1259 1260 1220
1220 1260 1261 1221
1221 1261 1262 1222
1222 1262 1263 1223
1223 1263 1264 1224
1224 1264 1265 1225
1225 1265 1266 1226
1226 1266 1267 1227
1227 1267 1268 1228
1228 1268 1269 1229
1229 1269 1270 1230
1230 1270 1271 1231
1231 1271 1272 1232
1232 1272 1273 1233
1233 1273 1274 1234
1234 1274 1275 1235
1235 1275 1276 1236
1236 1276 1277 1237
1237 1277 108 4
31 32 1278 1238
1238 1278 1279 1239
1239 1279 1280 1240
1240 1280 1281 1241
1241 1281 1282 1242
1242 1282 1283 1243
1243 1283 1284 1244
1244 1284 1285 1245
1245 1285 1286 1246
1246 1286 1287 1247
1247 1287 1288 1248
1248 1288 1289 1249
1249 1289 1290 1250
1250 1290 1291 1251
1251 1291 1292 1252
1252 1292 1293 1253
1253 1293 1294 1254
1254 1294 1295 1255
1255 1295 1296 1256
1256 1296 1297 1257
1257 1297 1298 1258
1258 1298 1299 1259
1259 1299 1300 1260
1260 1300 1301 1261
1261 1301 1302 1262
1262 1302 1303 1263
1263 1303 1304 1264
1264 1304 1305 1265
1265 1305 1306 1266
1266 1306 1307 1267
1267 1307 1308 1268
1268 1308 1309 1269
1269 1309 1310 1270
1270 1310 1311 1271
1271 1311 1312 1272
1272 1312 1313 1273
1273 1313 1314 1274
1274 1314 1315 1275
1275 1315 1316 1276
1276 1316 1317 1277
1277 1317 109 108
32 33 1318 1278
1278 1318 1319 1279
1279 1319 1320 1280
1280 1320 1321 1281
1281 1321 1322 1282
1282 1322 1323 1283
1283 1323 1324 1284
1284 1324 1325 1285
1285 1325 1326 1286
1286 1326 1327 1287
1287 1327 1328 1288
1288 1328 1329 1289
1289 1329 1330 1290
1290 1330 1331 1291
1291 1331 1332 1292
1292 1332 1333 1293
1293 1333 1334 1294
1294 1334 1335 1295
1295 1335 1336 1296
1296 1336 1337 1297
1297 1337 1338 1298
1298 1338 1339 1299
1299 1339 1340 1300
1300 1340 1341 1301
1301 1341 1342 1302
1302 1342 1343 1303
1303 1343 1344 1304
1304 1344 1345 1305
1305 1345 1346 1306
1306 1346 1347 1307
1307 1347 1348 1308
1308 1348 1349 1309
1309 1349 1350 1310
1310 1350 1351 1311
1311 1351 1352 1312
1312 1352 1353 1313
1313 1353 1354 1314
1314 1354 1355 1315
1315 1355 1356 1316
1316 1356 1357 1317
1317 1357 110 109
33 34 1358 1318
1318 1358 1359 1319
1319 1359 1360 1320
1320 1360 1361 1321
1321 1361 1362 1322
1322 1362 1363 1323
1323 1363 1364 1324
1324 1364 1365 1325
1325 1365 1366 1326
1326 1366 1367 1327
1327 1367 1368 1328
1328 1368 1369 1329
1329 1369 1370 1330
1330 1370 1371 1331
1331 1371 1372 1332
1332 1372 1373 1333
1333 1373 1374 1334
1334 1374 1375 1335
1335 1375 1376 1336
1336 1376 1377 1337
1337 1377 1378 1338
1338 1378 1379 1339
1339 1379 1380 1340
1340 1380 1381 1341
1341 1381 1382 1342
1342 1382 1383 1343
1343 1383 1384 1344
1344 1384 1385 1345
1345 1385 1386 1346
1346 1386 1387 1347
1347 1387 1388 1348
1348 1388 1389 1349
1349 1389 1390 1350
1350 1390 1391 1351
1351 1391 1392 1352
1352 1392 1393 1353
1353 1393 1394 1354
1354 1394 1395 1355
1355 1395 1396 1356
1356 1396 1397 1357
1357 1397 111 110
34 35 1398 1358
1358 1398 1399 1359
1359 1399 1400 1360
1360 1400 1401 1361
1361 1401 1402 1362
1362 1402 1403 1363
1363 1403 1404 1364
1364 1404 1405 1365
1365 1405 1406 1366
1366 1406 1407 1367
1367 1407 1408 1368
1368 1408 1409 1369
1369 1409 1410 1370
1370 1410 1411 1371
1371 1411 1412 1372
1372 1412 1413 1373
1373 1413 1414 1374
1374 1414 1415 1375
1375 1415 1416 1376
1376 1416 1417 1377
1377 1417 1418 1378
1378 1418 1419 1379
1379 1419 1420 1380
1380 1420 1421 1381
1381 1421 1422 1382
1382 1422 1423 1383
1383 1423 1424 1384
1384 1424 1425 1385
1385 1425 1426 1386
1386 1426 1427 1387
1387 1427 1428 1388
1388 1428 1429 1389
1389 1429 1430 1390
1390 1430 1431 1391
1391 1431 1432 1392
1392 1432 1433 1393
1393 1433 1434 1394
1394 1434 1435 1395
1395 1435 1436 1396
1396 1436 1437 1397
1397 1437 112 111
35 36 1438 1398
1398 1438 1439 1399
1399 1439 1440 1400
1400 1440 1441 1401
1401 1441 1442 1402
1402 1442 1443 1403
1403 1443 1444 1404
1404 1444 1445 1405
1405 1445 1446 1406
1406 1446 1447 1407
1407 1447 1448 1408
1408 1448 1449 1409
1409 1449 1450 1410
1410 1450 1451 1411
1411 1451 1452 1412
1412 1452 1453 1413
1413 1453 1454 1414
1414 1454 1455 1415
1415 1455 1456 1416
1416 1456 1457 1417
1417 1457 1458 1418
1418 1458 1459 1419
1419 1459 1460 1420
1420 1460 1461 1421
1421 1461 1462 1422
1422 1462 1463 1423
1423 1463 1464 1424
1424 1464 1465 1425
1425 1465 1466 1426
1426 1466 1467 1427
1427 1467 1468 1428
1428 1468 1469 1429
1429 1469 1470 1430
1430 1470 1471 1431
1431 1471 1472 1432
1432 1472 1473 1433
1433 1473 1474 1434
1434 1474 1475 1435
1435 1475 1476 1436
1436 1476 1477 1437
1437 1477 113 112
36 37 1478 1438
1438 1478 1479 1439
1439 1479 1480 1440
1440 1480 1481 1441
1441 1481 1482 1442
1442 1482 1483 1443
1443 1483 1484 1444
1444 1484 1485 1445
1445 1485 1486 1446
1446 1486 1487 1447
1447 1487 1488 1448
1448 1488 1489 1449
1449 1489 1490 1450
1450 1490 1491 1451
1451 1491 1492 1452
1452 1492 1493 1453
1453 1493 1494 1454
1454 1494 1495 1455
1455 1495 1496 1456
1456 1496 1497 1457
1457 1497 1498 1458
1458 1498 1499 1459
1459 1499 1500 1460
1460 1500 1501 1461
1461 1501 1502 1462
1462 1502 1503 1463
1463 1503 1504 1464
1464 1504 1505 1465
1465 1505 1506 1466
1466 1506 1507 1467
1467 1507 1508 1468
1468 1508 1509 1469
1469 1509 1510 1470
1470 1510 1511 1471
1471 1511 1512 1472
1472 1512 1513 1473
1473 1513 1514 1474
1474 1514 1515 1475
1475 1515 1516 1476
1476 1516 1517 1477
1477 1517 114 113
37 38 1518 1478
1478 1518 1519 1479
1479 1519 1520 1480
1480 1520 1521 1481
1481 1521 1522 1482
1482 1522 1523 1483
1483 1523 1524 1484
1484 1524 1525 1485
1485 1525 1526 1486
1486 1526 1527 1487
1487 1527 1528 1488
1488 1528 1529 1489
1489 1529 1530 1490
1490 1530 1531 1491
1491 1531 1532 1492
1492 1532 1533 1493
1493 1533 1534 1494
1494 1534 1535 1495
1495 1535 1536 1496
1496 1536 1537 1497
1497 1537 1538 1498
1498 1538 1539 1499
1499 1539 1540 1500
1500 1540 1541 1501
1501 1541 1542 1502
1502 1542 1543 1503
1503 1543 1544 1504
1504 1544 1545 1505
1505 1545 1546 1506
1506 1546 1547 1507
1507 1547 1548 1508
1508 1548 1549 1509
1509 1549 1550 1510
1510 1550 1551 1511
1511 1551 1552 1512
1512 1552 1553 1513
1513 1553 1554 1514
1514 1554 1555 1515
1515 1555 1556 1516
1516 1556 1557 1517
1517 1557 115 114
38 39 1558 1518
1518 1558 1559 1519
1519 1559 1560 1520
1520 1560 1561 1521
1521 1561 1562 1522
1522 1562 1563 1523
1523 1563 1564 1524
1524 1564 1565 1525
1525 1565 1566 1526
1526 1566 1567 1527
1527 1567 1568 1528
1528 1568 1569 1529
1529 1569 1570 1530
1530 1570 1571 1531
1531 1571 1572 1532
1532 1572 1573 1533
1533 1573 1574 1534
1534 1574 1575 1535
1535 1575 1576 1536
1536 1576 1577 1537
1537 1577 1578 1538
1538 1578 1579 1539
1539 1579 1580 1540
1540 1580 1581 1541
1541 1581 1582 1542
1542 1582 1583 1543
1543 1583 1584 1544
1544 1584 1585 1545
1545 1585 1586 1546
1546 1586 1587 1547
1547 1587 1588 1548
1548 1588 1589 1549
1549 1589 1590 1550
1550 1590 1591 1551
1551 1591 1592 1552
1552 1592 1593 1553
1553 1593 1594 1554
1554 1594 1595 1555
1555 1595 1596 1556
1556 1596 1597 1557
1557 1597 116 115
39 40 1598 1558
1558 1598 1599 1559
1559 1599 1600 1560
1560 1600 1601 1561
1561 1601 1602 1562
1562 1602 1603 1563
1563 1603 1604 1564
1564 1604 1605 1565
1565 1605 1606 1566
1566 1606 1607 1567
1567 1607 1608 1568
1568 1608 1609 1569
1569 1609 1610 1570
1570 1610 1611 1571
1571 1611 1612 1572
1572 1612 1613 1573
1573 1613 1614 1574
1574 1614 1615 1575
1575 1615 1616 1576
1576 1616 1617 1577
1577 1617 1618 1578
1578 1618 1619 1579
1579 1619 1620 1580
1580 1620 1621 1581
1581 1621 1622 1582
1582 1622 1623 1583
1583 1623 1624 1584
1584 1624 1625 1585
1585 1625 1626 1586
1586 1626 1627 1587
1587 1627 1628 1588
1588 1628 1629 1589
1589 1629 1630 1590
1590 1630 1631 1591
1591 1631 1632 1592
1592 1632 1633 1593
1593 1633 1634 1594
1594 1634 1635 1595
1595 1635 1636 1596
1596 1636 1637 1597
1597 1637 117 116
40 41 1638 1598
1598 1638 1639 1599
1599 1639 1640 1600
1600 1640 1641 1601
1601 1641 1642 1602
1602 1642 1643 1603
1603 1643 1644 1604
1604 1644 1645 1605
1605 1645 1646 1606
1606 1646 1647 1607
1607 1647 1648 1608
1608 1648 1649 1609
1609 1649 1650 1610
1610 1650 1651 1611
1611 1651 1652 1612
1612 1652 1653 1613
1613 1653 1654 1614
1614 1654 1655 1615
1615 1655 1656 1616
1616 1656 1657 1617
1617 1657 1658 1618
1618 1658 1659 1619
1619 1659 1660 1620
1620 1660 1661 1621
1621 1661 1662 1622
1622 1662 1663 1623
1623 1663 1664 1624
1624 1664 1665 1625
1625 1665 1666 1626
1626 1666 1667 1627
1627 1667 1668 1628
1628 1668 1669 1629
1629 1669 1670 1630
1630 1670 1671 1631
1631 1671 1672 1632
1632 1672 1673 1633
1633 1673 1674 1634
1634 1674 1675 1635
1635 1675 1676 1636
1636 1676 1677 1637
1637 1677 118 117
41 42 1678 1638
1638 1678 1679 1639
1639 1679 1680 1640
1640 1680 1681 1641
1641 1681 1682 1642
1642 1682 1683 1643
1643 1683 1684 1644
1644 1684 1685 1645
1645 1685 1686 1646
1646 1686 1687 1647
1647 1687 1688 1648
1648 1688 1689 1649
1649 1689 1690 1650
1650 1690 1691 1651
1651 1691 1692 1652
1652 1692 1693 1653
1653 1693 1694 1654
1654 1694 1695 1655
1655 1695 1696 1656
1656 1696 1697 1657
1657 1697 1698 1658
1658 1698 1699 1659
1659 1699 1700 1660
1660 1700 1701 1661
1661 1701 1702 1662
1662 1702 1703 1663
1663 1703 1704 1664
1664 1704 1705 1665
1665 1705 1706 1666
1666 1706 1707 1667
1667 1707 1708 1668
1668 1708 1709 1669
1669 1709 1710 1670
1670 1710 1711 1671
1671 1711 1712 1672
1672 1712 1713 1673
1673 1713 1714 1674
1674 1714 1715 1675
1675 1715 1716 1676
1676 1716 1717 1677
1677 1717 119 118
42 43 1718 1678
1678 1718 1719 1679
1679 1719 1720 1680
1680 1720 1721 1681
1681 1721 1722 1682
1682 1722 1723 1683
1683 1723 1724 1684
1684 1724 1725 1685
1685 1725 1726 1686
1686 1726 1727 1687
1687 1727 1728 1688
1688 1728 1729 1689
1689 1729 1730 1690
1690 1730 1731 1691
1691 1731 1732 1692
1692 1732 1733 1693
1693 1733 1734 1694
1694 1734 1735 1695
1695 1735 1736 1696
1696 1736 1737 1697
1697 1737 1738 1698
1698 1738 1739 1699
1699 1739 1740 1700
1700 1740 1741 1701
1701 1741 1742 1702
1702 1742 1743 1703
1703 1743 1744 1704
1704 1744 1745 1705
1705 1745 1746 1706
1706 1746 1747 1707
1707 1747 1748 1708
1708 1748 1749 1709
1709 1749 1750 1710
1710 1750 1751 1711
1711 1751 1752 1712
1712 1752 1753 1713
1713 1753 1754 1714
1714 1754 1755 1715
1715 1755 1756 1716
1716 1756 1757 1717
1717 1757 120 119
43 44 1758 1718
1718 1758 1759 1719
1719 1759 1760 1720
1720 1760 1761 1721
1721 1761 1762 1722
1722 1762 1763 1723
1723 1763 1764 1724
1724 1764 1765 1725
1725 1765 1766 1726
1726 1766 1767 1727
1727 1767 1768 1728
1728 1768 1769 1729
1729 1769 1770 1730
1730 1770 1771 1731
1731 1771 1772 1732
1732 1772 1773 1733
1733 1773 1774 1734
1734 1774 1775 1735
1735 1775 1776 1736
1736 1776 1777 1737
1737 1777 1778 1738
1738 1778 1779 1739
1739 1779 1780 1740
1740 1780 1781 1741
1741 1781 1782 1742
1742 1782 1783 1743
1743 1783 1784 1744
1744 1784 1785 1745
1745 1785 1786 1746
1746 1786 1787 1747
1747 1787 1788 1748
1748 1788 1789 1749
1749 1789 1790 1750
1750 1790 1791 1751
1751 1791 1792 1752
1752 1792 1793 1753
1753 1793 1794 1754
1754 1794 1795 1755
1755 1795 1796 1756
1756 1796 1797 1757
1757 1797 121 120
44 45 1798 1758
1758 1798 1799 1759
1759 1799 1800 1760
1760 1800 1801 1761
1761 1801 1802 1762
1762 1802 1803 1763
1763 1803 1804 1764
1764 1804 1805 1765
1765 1805 1806 1766
1766 1806 1807 1767
1767 1807 1808 1768
1768 1808 1809 1769
1769 1809 1810 1770
1770 1810 1811 1771
1771 1811 1812 1772
1772 1812 1813 1773
1773 1813 1814 1774
1774 1814 1815 1775
1775 1815 1816 1776
1776 1816 1817 1777
1777 1817 1818 1778
1778 1818 1819 1779
1779 1819 1820 1780
1780 1820 1821 1781
1781 1821 1822 1782
1782 1822 1823 1783
1783 1823 1824 1784
1784 1824 1825 1785
1785 1825 1826 1786
1786 1826 1827 1787
1787 1827 1828 1788
1788 1828 1829 1789
1789 1829 1830 1790
1790 1830 1831 1791
1791 1831 1832 1792
1792 1832 1833 1793
1793 1833 1834 1794
1794 1834 1835 1795
1795 1835 1836 1796
1796 1836 1837 1797
1797 1837 122 121
45 46 1838 1798
1798 1838 1839 1799
1799 1839 1840 1800
1800 1840 1841 1801
1801 1841 1842 1802
1802 1842 1843 1803
1803 1843 1844 1804
1804 1844 1845 1805
1805 1845 1846 1806
1806 1846 1847 1807
1807 1847 1848 1808
1808 1848 1849 1809
1809 1849 1850 1810
1810 1850 1851 1811
1811 1851 1852 1812
1812 1852 1853 1813
1813 1853 1854 1814
1814 1854 1855 1815
1815 1855 1856 1816
1816 1856 1857 1817
1817 1857 1858 1818
1818 1858 1859 1819
1819 1859 1860 1820
1820 1860 1861 1821
1821 1861 1862 1822
1822 1862 1863 1823
1823 1863 1864 1824
1824 1864 1865 1825
1825 1865 1866 1826
1826 1866 1867 1827
1827 1867 1868 1828
1828 1868 1869 1829
1829 1869 1870 1830
1830 1870 1871 1831
1831 1871 1872 1832
1832 1872 1873 1833
1833 1873 1874 1834
1834 1874 1875 1835
1835 1875 1876 1836
1836 1876 1877 1837
1837 1877 123 122
46 47 1878 1838
1838 1878 1879 1839
1839 1879 1880 1840
1840 1880 1881 1841
1841 1881 1882 1842
1842 1882 1883 1843
1843 1883 1884 1844
1844 1884 1885 1845
1845 1885 1886 1846
1846 1886 1887 1847
1847 1887 1888 1848
1848 1888 1889 1849
1849 1889 1890 1850
1850 1890 1891 1851
1851 1891 1892 1852
1852 1892 1893 1853
1853 1893 1894 1854
1854 1894 1895 1855
1855 1895 1896 1856
1856 1896 1897 1857
1857 1897 1898 1858
1858 1898 1899 1859
1859 1899 1900 1860
1860 1900 1901 1861
1861 1901 1902 1862
1862 1902 1903 1863
1863 1903 1904 1864
1864 1904 1905 1865
1865 1905 1906 1866
1866 1906 1907 1867
1867 1907 1908 1868
1868 1908 1909 1869
1869 1909 1910 1870
1870 1910 1911 1871
1871 1911 1912 1872
1872 1912 1913 1873
1873 1913 1914 1874
1874 1914 1915 1875
1875 1915 1916 1876
1876 1916 1917 1877
1877 1917 124 123
47 48 1918 1878
1878 1918 1919 1879
1879 1919 1920 1880
1880 1920 1921 1881
1881 1921 1922 1882
1882 1922 1923 1883
1883 1923 1924 1884
1884 1924 1925 1885
1885 1925 1926 1886
1886 1926 1927 1887
1887 1927 1928 1888
1888 1928 1929 1889
1889 1929 1930 1890
1890 1930 1931 1891
1891 1931 1932 1892
1892 1932 1933 1893
1893 1933 1934 1894
1894 1934 1935 1895
1895 1935 1936 1896
1896 1936 1937 1897
1897 1937 1938 1898
1898 1938 1939 1899
1899 1939 1940 1900
1900 1940 1941 1901
1901 1941 1942 1902
1902 1942 1943 1903
1903 1943 1944 1904
1904 1944 1945 1905
1905 1945 1946 1906
1906 1946 1947 1907
1907 1947 1948 1908
1908 1948 1949 1909
1909 1949 1950 1910
1910 1950 1951 1911
1911 1951 1952 1912
1912 1952 1953 1913
1913 1953 1954 1914
1914 1954 1955 1915
1915 1955 1956 1916
1916 1956 1957 1917
1917 1957 125 124
48 49 1958 1918
1918 1958 1959 1919
1919 1959 1960 1920
1920 1960 1961 1921
1921 1961 1962 1922
1922 1962 1963 1923
1923 1963 1964 1924
1924 1964 1965 1925
1925 1965 1966 1926
1926 1966 1967 1927
1927 1967 1968 1928
1928 1968 1969 1929
1929 1969 1970 1930
1930 1970 1971 1931
1931 1971 1972 1932
1932 1972 1973 1933
1933 1973 1974 1934
1934 1974 1975 1935
1935 1975 1976 1936
1936 1976 1977 1937
1937 1977 1978 1938
1938 1978 1979 1939
1939 1979 1980 1940
1940 1980 1981 1941
1941 1981 1982 1942
1942 1982 1983 1943
1943 1983 1984 1944
1944 1984 1985 1945
1945 1985 1986 1946
1946 1986 1987 1947
1947 1987 1988 1948
1948 1988 1989 1949
1949 1989 1990 1950
1950 1990 1991 1951
1951 1991 1992 1952
1952 1992 1993 1953
1953 1993 1994 1954
1954 1994 1995 1955
1955 1995 1996 1956
1956 1996 1997 1957
1957 1997 126 125
49 1 1998 1958
1958 1998 1999 1959
1959 1999 2000 1960
1960 2000 2001 1961
1961 2001 2002 1962
1962 2002 2003 1963
1963 2003 2004 1964
1964 2004 2005 1965
1965 2005 2006 1966
1966 2006 2007 1967
1967 2007 2008 1968
1968 2008 2009 1969
1969 2009 2010 1970
1970 2010 2011 1971
1971 2011 2012 1972
1972 2012 2013 1973
1973 2013 2014 1974
1974 2014 2015 1975
1975 2015 2016 1976
1976 2016 2017 1977
1977 2017 2018 1978
1978 2018 2019 1979
1979 2019 2020 1980
1980 2020 2021 1981
1981 2021 2022 1982
1982 2022 2023 1983
1983 2023 2024 1984
1984 2024 2025 1985
1985 2025 2026 1986
1986 2026 2027 1987
1987 2027 2028 1988
1988 2028 2029 1989
1989 2029 2030 1990
1990 2030 2031 1991
1991 2031 2032 1992
1992 2032 2033 1993
1993 2033 2034 1994
1994 2034 2035 1995
1995 2035 2036 1996
1996 2036 2037 1997
1997 2037 127 126
1 50 2038 1998
1998 2038 2039 1999
1999 2039 2040 2000
2000 2040 2041 2001
2001 2041 2042 2002
2002 2042 2043 2003
2003 2043 2044 2004
2004 2044 2045 2005
2005 2045 2046 2006
2006 2046 2047 2007
2007 2047 2048 2008
2008 2048 2049 2009
2009 2049 2050 2010
2010 2050 2051 2011
2011 2051 2052 2012
2012 2052 2053 2013
2013 2053 2054 2014
2014 2054 2055 2015
2015 2055 2056 2016
2016 2056 2057 2017
2017 2057 2058 2018
2018 2058 2059 2019
2019 2059 2060 2020
2020 2060 2061 2021
2021 2061 2062 2022
2022 2062 2063 2023
2023 2063 2064 2024
2024 2064 2065 2025
2025 2065 2066 2026
2026 2066 2067 2027
2027 2067 2068 2028
2028 2068 2069 2029
2029 2069 2070 2030
2030 2070 2071 2031
2031 2071 2072 2032
2032 2072 2073 2033
2033 2073 2074 2034
2034 2074 2075 2035
2035 2075 2076 2036
2036 2076 2077 2037
2037 2077 128 127
50 51 2078 2038
2038 2078 2079 2039
2039 2079 2080 2040
2040 2080 2081 2041
2041 2081 2082 2042
2042 2082 2083 2043
2043 2083 2084 2044
2044 2084 2085 2045
2045 2085 2086 2046
2046 2086 2087 2047
2047 2087 2088 2048
2048 2088 2089 2049
2049 2089 2090 2050
2050 2090 2091 2051
2051 2091 2092 2052
2052 2092 2093 2053
2053 2093 2094 2054
2054 2094 2095 2055
2055 2095 2096 2056
2056 2096 2097 2057
2057 2097 2098 2058
2058 2098 2099 2059
2059 2099 2100 2060
2060 2100 2101 2061
2061 2101 2102 2062
2062 2102 2103 2063
2063 2103 2104 2064
2064 2104 2105 2065
2065 2105 2106 2066
2066 2106 2107 2067
2067 2107 2108 2068
2068 2108 2109 2069
2069 2109 2110 2070
2070 2110 2111 2071
2071 2111 2112 2072
2072 2112 2113 2073
2073 2113 2114 2074
2074 2114 2115 2075
2075 2115 2116 2076
2076 2116 2117 2077
2077 2117 129 128
51 52 2118 2078
2078 2118 2119 2079
2079 2119 2120 2080
2080 2120 2121 2081
2081 2121 2122 2082
2082 2122 2123 2083
2083 2123 2124 2084
2084 2124 2125 2085
2085 2125 2126 2086
2086 2126 2127 2087
2087 2127 2128 2088
2088 2128 2129 2089
2089 2129 2130 2090
2090 2130 2131 2091
2091 2131 2132 2092
2092 2132 2133 2093
2093 2133 2134 2094
2094 2134 2135 2095
2095 2135 2136 2096
2096 2136 2137 2097
2097 2137 2138 2098
2098 2138 2139 2099
2099 2139 2140 2100
2100 2140 2141 2101
2101 2141 2142 2102
2102 2142 2143 2103
2103 2143 2144 2104
2104 2144 2145 2105
2105 2145 2146 2106
2106 2146 2147 2107
2107 2147 2148 2108
2108 2148 2149 2109
2109 2149 2150 2110
2110 2150 2151 2111
2111 2151 2152 2112
2112 2152 2153 2113
2113 2153 2154 2114
2114 2154 2155 2115
2115 2155 2156 2116
2116 2156 2157 2117
2117 2157 130 129
52 53 2158 2118
2118 2158 2159 2119
2119 2159 2160 2120
2120 2160 2161 2121
2121 2161 2162 2122
2122 2162 2163 2123
2123 2163 2164 2124
2124 2164 2165 2125
2125 2165 2166 2126
2126 2166 2167 2127
2127 2167 2168 2128
2128 2168 2169 2129
2129 2169 2170 2130
2130 2170 2171 2131
2131 2171 2172 2132
2132 2172 2173 2133
2133 2173 2174 2134
2134 2174 2175 2135
2135 2175 2176 2136
2136 2176 2177 2137
2137 2177 2178 2138
2138 2178 2179 2139
2139 2179 2180 2140
2140 2180 2181 2141
2141 2181 2182 2142
2142 2182 2183 2143
2143 2183 2184 2144
2144 2184 2185 2145
2145 2185 2186 2146
2146 2186 2187 2147
2147 2187 2188 2148
2148 2188 2189 2149
2149 2189 2190 2150
2150 2190 2191 2151
2151 2191 2192 2152
2152 2192 2193 2153
2153 2193 2194 2154
2154 2194 2195 2155
2155 2195 2196 2156
2156 2196 2197 2157
2157 2197 131 130
53 54 2198 2158
2158 2198 2199 2159
2159 2199 2200 2160
2160 2200 2201 2161
2161 2201 2202 2162
2162 2202 2203 2163
2163 2203 2204 2164
2164 2204 2205 2165
2165 2205 2206 2166
2166 2206 2207 2167
2167 2207 2208 2168
2168 2208 2209 2169
2169 2209 2210 2170
2170 2210 2211 2171
2171 2211 2212 2172
2172 2212 2213 2173
2173 2213 2214 2174
2174 2214 2215 2175
2175 2215 2216 2176
2176 2216 2217 2177
2177 2217 2218 2178
2178 2218 2219 2179
2179 2219 2220 2180
2180 2220 2221 2181
2181 2221 2222 2182
2182 2222 2223 2183
2183 2223 2224 2184
2184 2224 2225 2185
2185 2225 2226 2186
2186 2226 2227 2187
2187 2227 2228 2188
2188 2228 2229 2189
2189 2229 2230 2190
2190 2230 2231 2191
2191 2231 2232 2192
2192 2232 2233 2193
2193 2233 2234 2194
2194 2234 2235 2195
2195 2235 2236 2196
2196 2236 2237 2197
2197 2237 132 131
54 55 2238 2198
2198 2238 2239 2199
2199 2239 2240 2200
2200 2240 2241 2201
2201 2241 2242 2202
2202 2242 2243 2203
2203 2243 2244 2204
2204 2244 2245 2205
2205 2245 2246 2206
2206 2246 2247 2207
2207 2247 2248 2208
2208 2248 2249 2209
2209 2249 2250 2210
2210 2250 2251 2211
2211 2251 2252 2212
2212 2252 2253 2213
2213 2253 2254 2214
2214 2254 2255 2215
2215 2255 2256 2216
2216 2256 2257 2217
2217 2257 2258 2218
2218 2258 2259 2219
2219 2259 2260 2220
2220 2260 2261 2221
2221 2261 2262 2222
2222 2262 2263 2223
2223 2263 2264 2224
2224 2264 2265 2225
2225 2265 2266 2226
2226 2266 2267 2227
2227 2267 2268 2228
2228 2268 2269 2229
2229 2269 2270 2230
2230 2270 2271 2231
2231 2271 2272 2232
2232 2272 2273 2233
2233 2273 2274 2234
2234 2274 2275 2235
2235 2275 2276 2236
2236 2276 2277 2237
2237 2277 133 132
55 56 2278 2238
2238 2278 2279 2239
2239 2279 2280 2240
2240 2280 2281 2241
2241 2281 2282 2242
2242 2282 2283 2243
2243 2283 2284 2244
2244 2284 2285 2245
2245 2285 2286 2246
2246 2286 2287 2247
2247 2287 2288 2248
2248 2288 2289 2249
2249 2289 2290 2250
2250 2290 2291 2251
2251 2291 2292 2252
2252 2292 2293 2253
2253 2293 2294 2254
2254 2294 2295 2255
2255 2295 2296 2256
2256 2296 2297 2257
2257 2297 2298 2258
2258 2298 2299 2259
2259 2299 2300 2260
2260 2300 2301 2261
2261 2301 2302 2262
2262 2302 2303 2263
2263 2303 2304 2264
2264 2304 2305 2265
2265 2305 2306 2266
2266 2306 2307 2267
2267 2307 2308 2268
2268 2308 2309 2269
2269 2309 2310 2270
2270 2310 2311 2271
2271 2311 2312 2272
2272 2312 2313 2273
2273 2313 2314 2274
2274 2314 2315 2275
2275 2315 2316 2276
2276 2316 2317 2277
2277 2317 134 133
56 57 2318 2278
2278 2318 2319 2279
2279 2319 2320 2280
2280 2320 2321 2281
2281 2321 2322 2282
2282 2322 2323 2283
2283 2323 2324 2284
2284 2324 2325 2285
2285 2325 2326 2286
2286 2326 2327 2287
2287 2327 2328 2288
2288 2328 2329 2289
2289 2329 2330 2290
2290 2330 2331 2291
2291 2331 2332 2292
2292 2332 2333 2293
2293 2333 2334 2294
2294 2334 2335 2295
2295 2335 2336 2296
2296 2336 2337 2297
2297 2337 2338 2298
2298 2338 2339 2299
2299 2339 2340 2300
2300 2340 2341 2301
2301 2341 2342 2302
2302 2342 2343 2303
2303 2343 2344 2304
2304 2344 2345 2305
2305 2345 2346 2306
2306 2346 2347 2307
2307 2347 2348 2308
2308 2348 2349 2309
2309 2349 2350 2310
2310 2350 2351 2311
2311 2351 2352 2312
2312 2352 2353 2313
2313 2353 2354 2314
2314 2354 2355 2315
2315 2355 2356 2316
2316 2356 2357 2317
2317 2357 135 134
57 58 2358 2318
2318 2358 2359 2319
2319 2359 2360 2320
2320 2360 2361 2321
2321 2361 2362 2322
2322 2362 2363 2323
2323 2363 2364 2324
2324 2364 2365 2325
2325 2365 2366 2326
2326 2366 2367 2327
2327 2367 2368 2328
2328 2368 2369 2329
2329 2369 2370 2330
2330 2370 2371 2331
2331 2371 2372 2332
2332 2372 2373 2333
2333 2373 2374 2334
2334 2374 2375 2335
2335 2375 2376 2336
2336 2376 2377 2337
2337 2377 2378 2338
2338 2378 2379 2339
2339 2379 2380 2340
2340 2380 2381 2341
2341 2381 2382 2342
2342 2382 2383 2343
2343 2383 2384 2344
2344 2384 2385 2345
2345 2385 2386 2346
2346 2386 2387 2347
2347 2387 2388 2348
2348 2388 2389 2349
2349 2389 2390 2350
2350 2390 2391 2351
2351 2391 2392 2352
2352 2392 2393 2353
2353 2393 2394 2354
2354 2394 2395 2355
2355 2395 2396 2356
2356 2396 2397 2357
2357 2397 136 135
58 59 2398 2358
2358 2398 2399 2359
2359 2399 2400 2360
2360 2400 2401 2361
2361 2401 2402 2362
2362 2402 2403 2363
2363 2403 2404 2364
2364 2404 2405 2365
2365 2405 2406 2366
2366 2406 2407 2367
2367 2407 2408 2368
2368 2408 2409 2369
2369 2409 2410 2370
2370 2410 2411 2371
2371 2411 2412 2372
2372 2412 2413 2373
2373 2413 2414 2374
2374 2414 2415 2375
2375 2415 2416 2376
2376 2416 2417 2377
2377 2417 2418 2378
2378 2418 2419 2379
2379 2419 2420 2380
2380 2420 2421 2381
2381 2421 2422 2382
2382 2422 2423 2383
2383 2423 2424 2384
2384 2424 2425 2385
2385 2425 2426 2386
2386 2426 2427 2387
2387 2427 2428 2388
2388 2428 2429 2389
2389 2429 2430 2390
2390 2430 2431 2391
2391 2431 2432 2392
2392 2432 2433 2393
2393 2433 2434 2394
2394 2434 2435 2395
2395 2435 2436 2396
2396 2436 2437 2397
2397 2437 137 136
59 60 2438 2398
2398 2438 2439 2399
2399 2439 2440 2400
2400 2440 2441 2401
2401 2441 2442 2402
2402 2442 2443 2403
2403 2443 2444 2404
2404 2444 2445 2405
2405 2445 2446 2406
2406 2446 2447 2407
2407 2447 2448 2408
2408 2448 2449 2409
2409 2449 2450 2410
2410 2450 2451 2411
2411 2451 2452 2412
2412 2452 2453 2413
2413 2453 2454 2414
2414 2454 2455 2415
2415 2455 2456 2416
2416 2456 2457 2417
2417 2457 2458 2418
2418 2458 2459 2419
2419 2459 2460 2420
2420 2460 2461 2421
2421 2461 2462 2422
2422 2462 2463 2423
2423 2463 2464 2424
2424 2464 2465 2425
2425 2465 2466 2426
2426 2466 2467 2427
2427 2467 2468 2428
2428 2468 2469 2429
2429 2469 2470 2430
2430 2470 2471 2431
2431 2471 2472 2432
2432 2472 2473 2433
2433 2473 2474 2434
2434 2474 2475 2435
2435 2475 2476 2436
2436 2476 2477 2437
2437 2477 138 137
60 61 2478 2438
2438 2478 2479 2439
2439 2479 2480 2440
2440 2480 2481 2441
2441 2481 2482 2442
2442 2482 2483 2443
2443 2483 2484 2444
2444 2484 2485 2445
2445 2485 2486 2446
2446 2486 2487 2447
2447 2487 2488 2448
2448 2488 2489 2449
2449 2489 2490 2450
2450 2490 2491 2451
2451 2491 2492 2452
2452 2492 2493 2453
2453 2493 2494 2454
2454 2494 2495 2455
2455 2495 2496 2456
2456 2496 2497 2457
2457 2497 2498 2458
2458 2498 2499 2459
2459 2499 2500 2460
2460 2500 2501 2461
2461 2501 2502 2462
2462 2502 2503 2463
2463 2503 2504 2464
2464 2504 2505 2465
2465 2505 2506 2466
2466 2506 2507 2467
2467 2507 2508 2468
2468 2508 2509 2469
2469 2509 2510 2470
2470 2510 2511 2471
2471 2511 2512 2472
2472 2512 2513 2473
2473 2513 2514 2474
2474 2514 2515 2475
2475 2515 2516 2476
2476 2516 2517 2477
2477 2517 139 138
61 62 2518 2478
2478 2518 2519 2479
2479 2519 2520 2480
2480 2520 2521 2481
2481 2521 2522 2482
2482 2522 2523 2483
2483 2523 2524 2484
2484 2524 2525 2485
2485 2525 2526 2486
2486 2526 2527 2487
2487 2527 2528 2488
2488 2528 2529 2489
2489 2529 2530 2490
2490 2530 2531 2491
2491 2531 2532 2492
2492 2532 2533 2493
2493 2533 2534 2494
2494 2534 2535 2495
2495 2535 2536 2496
2496 2536 2537 2497
2497 2537 2538 2498
2498 2538 2539 2499
2499 2539 2540 2500
2500 2540 2541 2501
2501 2541 2542 2502
2502 2542 2543 2503
2503 2543 2544 2504
2504 2544 2545 2505
2505 2545 2546 2506
2506 2546 2547 2507
2507 2547 2548 2508
2508 2548 2549 2509
2509 2549 2550 2510
2510 2550 2551 2511
2511 2551 2552 2512
2512 2552 2553 2513
2513 2553 2554 2514
2514 2554 2555 2515
2515 2555 2556 2516
2516 2556 2557 2517
2517 2557 140 139
62 63 2558 2518
2518 2558 2559 2519
2519 2559 2560 2520
2520 2560 2561 2521
2521 2561 2562 2522
2522 2562 2563 2523
2523 2563 2564 2524
2524 2564 2565 2525
2525 2565 2566 2526
2526 2566 2567 2527
2527 2567 2568 2528
2528 2568 2569 2529
2529 2569 2570 2530
2530 2570 2571 2531
2531 2571 2572 2532
2532 2572 2573 2533
2533 2573 2574 2534
2534 2574 2575 2535
2535 2575 2576 2536
2536 2576 2577 2537
2537 2577 2578 2538
2538 2578 2579 2539
2539 2579 2580 2540
2540 2580 2581 2541
2541 2581 2582 2542
2542 2582 2583 2543
2543 2583 2584 2544
2544 2584 2585 2545
2545 2585 2586 2546
2546 2586 2587 2547
2547 2587 2588 2548
2548 2588 2589 2549
2549 2589 2590 2550
2550 2590 2591 2551
2551 2591 2592 2552
2552 2592 2593 2553
2553 2593 2594 2554
2554 2594 2595 2555
2555 2595 2596 2556
2556 2596 2597 2557
2557 2597 141 140
63 64 2598 2558
2558 2598 2599 2559
2559 2599 2600 2560
2560 2600 2601 2561
2561 2601 2602 2562
2562 2602 2603 2563
2563 2603 2604 2564
2564 2604 2605 2565
2565 2605 2606 2566
2566 2606 2607 2567
2567 2607 2608 2568
2568 2608 2609 2569
2569 2609 2610 2570
2570 2610 2611 2571
2571 2611 2612 2572
2572 2612 2613 2573
2573 2613 2614 2574
2574 2614 2615 2575
2575 2615 2616 2576
2576 2616 2617 2577
2577 2617 2618 2578
2578 2618 2619 2579
2579 2619 2620 2580
2580 2620 2621 2581
2581 2621 2622 2582
2582 2622 2623 2583
2583 2623 2624 2584
2584 2624 2625 2585
2585 2625 2626 2586
2586 2626 2627 2587
2587 2627 2628 2588
2588 2628 2629 2589
2589 2629 2630 2590
2590 2630 2631 2591
2591 2631 2632 2592
2592 2632 2633 2593
2593 2633 2634 2594
2594 2634 2635 2595
2595 2635 2636 2596
2596 2636 2637 2597
2597 2637 142 141
64 65 2638 2598
2598 2638 2639 2599
2599 2639 2640 2600
2600 2640 2641 2601
2601 2641 2642 2602
2602 2642 2643 2603
2603 2643 2644 2604
2604 2644 2645 2605
2605 2645 2646 2606
2606 2646 2647 2607
2607 2647 2648 2608
2608 2648 2649 2609
2609 2649 2650 2610
2610 2650 2651 2611
2611 2651 2652 2612
2612 2652 2653 2613
2613 2653 2654 2614
2614 2654 2655 2615
2615 2655 2656 2616
2616 2656 2657 2617
2617 2657 2658 2618
2618 2658 2659 2619
2619 2659 2660 2620
2620 2660 2661 2621
2621 2661 2662 2622
2622 2662 2663 2623
2623 2663 2664 2624
2624 2664 2665 2625
2625 2665 2666 2626
2626 2666 2667 2627
2627 2667 2668 2628
2628 2668 2669 2629
2629 2669 2670 2630
2630 2670 2671 2631
2631 2671 2672 2632
2632 2672 2673 2633
2633 2673 2674 2634
2634 2674 2675 2635
2635 2675 2676 2636
2636 2676 2677 2637
2637 2677 143 142
65 66 2678 2638
2638 2678 2679 2639
2639 2679 2680 2640
2640 2680 2681 2641
2641 2681 2682 2642
2642 2682 2683 2643
2643 2683 2684 2644
2644 2684 2685 2645
2645 2685 2686 2646
2646 2686 2687 2647
2647 2687 2688 2648
2648 2688 2689 2649
2649 2689 2690 2650
2650 2690 2691 2651
2651 2691 2692 2652
2652 2692 2693 2653
2653 2693 2694 2654
2654 2694 2695 2655
2655 2695 2696 2656
2656 2696 2697 2657
2657 2697 2698 2658
2658 2698 2699 2659
2659 2699 2700 2660
2660 2700 2701 2661
2661 2701 2702 2662
2662 2702 2703 2663
2663 2703 2704 2664
2664 2704 2705 2665
2665 2705 2706 2666
2666 2706 2707 2667
2667 2707 2708 2668
2668 2708 2709 2669
2669 2709 2710 2670
2670 2710 2711 2671
2671 2711 2712 2672
2672 2712 2713 2673
2673 2713 2714 2674
2674 2714 2715 2675
2675 2715 2716 2676
2676 2716 2717 2677
2677 2717 144 143
66 67 2718 2678
2678 2718 2719 2679
2679 2719 2720 2680
2680 2720 2721 2681
2681 2721 2722 2682
2682 2722 2723 2683
2683 2723 2724 2684
2684 2724 2725 2685
2685 2725 2726 2686
2686 2726 2727 2687
2687 2727 2728 2688
2688 2728 2729 2689
2689 2729 2730 2690
2690 2730 2731 2691
2691 2731 2732 2692
2692 2732 2733 2693
2693 2733 2734 2694
2694 2734 2735 2695
2695 2735 2736 2696
2696 2736 2737 2697
2697 2737 2738 2698
2698 2738 2739 2699
2699 2739 2740 2700
2700 2740 2741 2701
2701 2741 2742 2702
2702 2742 2743 2703
2703 2743 2744 2704
2704 2744 2745 2705
2705 2745 2746 2706
2706 2746 2747 2707
2707 2747 2748 2708
2708 2748 2749 2709
2709 2749 2750 2710
2710 2750 2751 2711
2711 2751 2752 2712
2712 2752 2753 2713
2713 2753 2754 2714
2714 2754 2755 2715
2715 2755 2756 2716
2716 2756 2757 2717
2717 2757 145 144
67 68 2758 2718
2718 2758 2759 2719
2719 2759 2760 2720
2720 2760 2761 2721
2721 2761 2762 2722
2722 2762 2763 2723
2723 2763 2764 2724
2724 2764 2765 2725
2725 2765 2766 2726
2726 2766 2767 2727
2727 2767 2768 2728
2728 2768 2769 2729
2729 2769 2770 2730
2730 2770 2771 2731
2731 2771 2772 2732
2732 2772 2773 2733
2733 2773 2774 2734
2734 2774 2775 2735
2735 2775 2776 2736
2736 2776 2777 2737
2737 2777 2778 2738
2738 2778 2779 2739
2739 2779 2780 2740
2740 2780 2781 2741
2741 2781 2782 2742
2742 2782 2783 2743
2743 2783 2784 2744
2744 2784 2785 2745
2745 2785 2786 2746
2746 2786 2787 2747
2747 2787 2788 2748
2748 2788 2789 2749
2749 2789 2790 2750
2750 2790 2791 2751
2751 2791 2792 2752
2752 2792 2793 2753
2753 2793 2794 2754
2754 2794 2795 2755
2755 2795 2796 2756
2756 2796 2797 2757
2757 2797 146 145
68 69 2798 2758
2758 2798 2799 2759
2759 2799 2800 2760
2760 2800 2801 2761
2761 2801 2802 2762
2762 2802 2803 2763
2763 2803 2804 2764
2764 2804 2805 2765
2765 2805 2806 2766
2766 2806 2807 2767
2767 2807 2808 2768
2768 2808 2809 2769
2769 2809 2810 2770
2770 2810 2811 2771
2771 2811 2812 2772
2772 2812 2813 2773
2773 2813 2814 2774
2774 2814 2815 2775
2775 2815 2816 2776
2776 2816 2817 2777
2777 2817 2818 2778
2778 2818 2819 2779
2779 2819 2820 2780
2780 2820 2821 2781
2781 2821 2822 2782
2782 2822 2823 2783
2783 2823 2824 2784
2784 2824 2825 2785
2785 2825 2826 2786
2786 2826 2827 2787
2787 2827 2828 2788
2788 2828 2829 2789
2789 2829 2830 2790
2790 2830 2831 2791
2791 2831 2832 2792
2792 2832 2833 2793
2793 2833 2834 2794
2794 2834 2835 2795
2795 2835 2836 2796
2796 2836 2837 2797
2797 2837 5 146
69 70 2838 2798
2798 2838 2839 2799
2799 2839 2840 2800
2800 2840 2841 2801
2801 2841 2842 2802
2802 2842 2843 2803
2803 2843 2844 2804
2804 2844 2845 2805
2805 2845 2846 2806
2806 2846 2847 2807
2807 2847 2848 2808
2808 2848 2849 2809
2809 2849 2850 2810
2810 2850 2851 2811
2811 2851 2852 2812
2812 2852 2853 2813
2813 2853 2854 2814
2814 2854 2855 2815
2815 2855 2856 2816
2816 2856 2857 2817
2817 2857 2858 2818
2818 2858 2859 2819
2819 2859 2860 2820
2820 2860 2861 2821
2821 2861 2862 2822
2822 2862 2863 2823
2823 2863 2864 2824
2824 2864 2865 2825
2825 2865 2866 2826
2826 2866 2867 2827
2827 2867 2868 2828
2828 2868 2869 2829
2829 2869 2870 2830
2830 2870 2871 2831
2831 2871 2872 2832
2832 2872 2873 2833
2833 2873 2874 2834
2834 2874 2875 2835
2835 2875 2876 2836
2836 2876 2877 2837
2837 2877 147 5
70 71 2878 2838
2838 2878 2879 2839
2839 2879 2880 2840
2840 2880 2881 2841
2841 2881 2882 2842
2842 2882 2883 2843
2843 2883 2884 2844
2844 2884 2885 2845
2845 2885 2886 2846
2846 2886 2887 2847
2847 2887 2888 2848
2848 2888 2889 2849
2849 2889 2890 2850
2850 2890 2891 2851
2851 2891 2892 2852
2852 2892 2893 2853
2853 2893 2894 2854
2854 2894 2895 2855
2855 2895 2896 2856
2856 2896 2897 2857
2857 2897 2898 2858
2858 2898 2899 2859
2859 2899 2900 2860
2860 2900 2901 2861
2861 2901 2902 2862
2862 2902 2903 2863
2863 2903 2904 2864
2864 2904 2905 2865
2865 2905 2906 2866
2866 2906 2907 2867
2867 2907 2908 2868
2868 2908 2909 2869
2869 2909 2910 2870
2870 2910 2911 2871
2871 2911 2912 2872
2872 2912 2913 2873
2873 2913 2914 2874
2874 2914 2915 2875
2875 2915 2916 2876
2876 2916 2917 2877
2877 2917 148 147
71 72 2918 2878
2878 2918 2919 2879
2879 2919 2920 2880
2880 2920 2921 2881
2881 2921 2922 2882
2882 2922 2923 2883
2883 2923 2924 2884
2884 2924 2925 2885
2885 2925 2926 2886
2886 2926 2927 2887
2887 2927 2928 2888
2888 2928 2929 2889
2889 2929 2930 2890
2890 2930 2931 2891
2891 2931 2932 2892
2892 2932 2933 2893
2893 2933 2934 2894
2894 2934 2935 2895
2895 2935 2936 2896
2896 2936 2937 2897
2897 2937 2938 2898
2898 2938 2939 2899
2899 2939 2940 2900
2900 2940 2941 2901
2901 2941 2942 2902
2902 2942 2943 2903
2903 2943 2944 2904
2904 2944 2945 2905
2905 2945 2946 2906
2906 2946 2947 2907
2907 2947 2948 2908
2908 2948 2949 2909
2909 2949 2950 2910
2910 2950 2951 2911
2911 2951 2952 2912
2912 2952 2953 2913
2913 2953 2954 2914
2914 2954 2955 2915
2915 2955 2956 2916
2916 2956 2957 2917
2917 2957 149 148
72 73 2958 2918
2918 2958 2959 2919
2919 2959 2960 2920
2920 2960 2961 2921
2921 2961 2962 2922
2922 2962 2963 2923
2923 2963 2964 2924
2924 2964 2965 2925
2925 2965 2966 2926
2926 2966 2967 2927
2927 2967 2968 2928
2928 2968 2969 2929
2929 2969 2970 2930
2930 2970 2971 2931
2931 2971 2972 2932
2932 2972 2973 2933
2933 2973 2974 2934
2934 2974 2975 2935
2935 2975 2976 2936
2936 2976 2977 2937
2937 2977 2978 2938
2938 2978 2979 2939
2939 2979 2980 2940
2940 2980 2981 2941
2941 2981 2982 2942
2942 2982 2983 2943
2943 2983 2984 2944
2944 2984 2985 2945
2945 2985 2986 2946
2946 2986 2987 2947
2947 2987 2988 2948
2948 2988 2989 2949
2949 2989 2990 2950
2950 2990 2991 2951
2951 2991 2992 2952
2952 2992 2993 2953
2953 2993 2994 2954
2954 2994 2995 2955
2955 2995 2996 2956
2956 2996 2997 2957
2957 2997 150 149
73 74 2998 2958
2958 2998 2999 2959
2959 2999 3000 2960
2960 3000 3001 2961
2961 3001 3002 2962
2962 3002 3003 2963
2963 3003 3004 2964
2964 3004 3005 2965
2965 3005 3006 2966
2966 3006 3007 2967
2967 3007 3008 2968
2968 3008 3009 2969
2969 3009 3010 2970
2970 3010 3011 2971
2971 3011 3012 2972
2972 3012 3013 2973
2973 3013 3014 2974
2974 3014 3015 2975
2975 3015 3016 2976
2976 3016 3017 2977
2977 3017 3018 2978
2978 3018 3019 2979
2979 3019 3020 2980
2980 3020 3021 2981
2981 3021 3022 2982
2982 3022 3023 2983
2983 3023 3024 2984
2984 3024 3025 2985
2985 3025 3026 2986
2986 3026 3027 2987
2987 3027 3028 2988
2988 3028 3029 2989
2989 3029 3030 2990
2990 3030 3031 2991
2991 3031 3032 2992
2992 3032 3033 2993
2993 3033 3034 2994
2994 3034 3035 2995
2995 3035 3036 2996
2996 3036 3037 2997
2997 3037 151 150
74 75 3038 2998
2998 3038 3039 2999
2999 3039 3040 3000
3000 3040 3041 3001
3001 3041 3042 3002
3002 3042 3043 3003
3003 3043 3044 3004
3004 3044 3045 3005
3005 3045 3046 3006
3006 3046 3047 3007
3007 3047 3048 3008
3008 3048 3049 3009
3009 3049 3050 3010
3010 3050 3051 3011
3011 3051 3052 3012
3012 3052 3053 3013
3013 3053 3054 3014
3014 3054 3055 3015
3015 3055 3056 3016
3016 3056 3057 3017
3017 3057 3058 3018
3018 3058 3059 3019
3019 3059 3060 3020
3020 3060 3061 3021
3021 3061 3062 3022
3022 3062 3063 3023
3023 3063 3064 3024
3024 3064 3065 3025
3025 3065 3066 3026
3026 3066 3067 3027
3027 3067 3068 3028
3028 3068 3069 3029
3029 3069 3070 3030
3030 3070 3071 3031
3031 3071 3072 3032
3032 3072 3073 3033
3033 3073 3074 3034
3034 3074 3075 3035
3035 3075 3076 3036
3036 3076 3077 3037
3037 3077 152 151
75 76 3078 3038
3038 3078 3079 3039
3039 3079 3080 3040
3040 3080 3081 3041
3041 3081 3082 3042
3042 3082 3083 3043
3043 3083 3084 3044
3044 3084 3085 3045
3045 3085 3086 3046
3046 3086 3087 3047
3047 3087 3088 3048
3048 3088 3089 3049
3049 3089 3090 3050
3050 3090 3091 3051
3051 3091 3092 3052
3052 3092 3093 3053
3053 3093 3094 3054
3054 3094 3095 3055
3055 3095 3096 3056
3056 3096 3097 3057
3057 3097 3098 3058
3058 3098 3099 3059
3059 3099 3100 3060
3060 3100 3101 3061
3061 3101 3102 3062
3062 3102 3103 3063
3063 3103 3104 3064
3064 3104 3105 3065
3065 3105 3106 3066
3066 3106 3107 3067
3067 3107 3108 3068
3068 3108 3109 3069
3069 3109 3110 3070
3070 3110 3111 3071
3071 3111 3112 3072
3072 3112 3113 3073
3073 3113 3114 3074
3074 3114 3115 3075
3075 3115 3116 3076
3076 3116 3117 3077
3077 3117 153 152
76 77 3118 3078
3078 3118 3119 3079
3079 3119 3120 3080
3080 3120 3121 3081
3081 3121 3122 3082
3082 3122 3123 3083
3083 3123 3124 3084
3084 3124 3125 3085
3085 3125 3126 3086
3086 3126 3127 3087
3087 3127 3128 3088
3088 3128 3129 3089
3089 3129 3130 3090
3090 3130 3131 3091
3091 3131 3132 3092
3092 3132 3133 3093
3093 3133 3134 3094
3094 3134 3135 3095
3095 3135 3136 3096
3096 3136 3137 3097
3097 3137 3138 3098
3098 3138 3139 3099
3099 3139 3140 3100
3100 3140 3141 3101
3101 3141 3142 3102
3102 3142 3143 3103
3103 3143 3144 3104
3104 3144 3145 3105
3105 3145 3146 3106
3106 3146 3147 3107
3107 3147 3148 3108
3108 3148 3149 3109
3109 3149 3150 3110
3110 3150 3151 3111
3111 3151 3152 3112
3112 3152 3153 3113
3113 3153 3154 3114
3114 3154 3155 3115
3115 3155 3156 3116
3116 3156 3157 3117
3117 3157 154 153
77 78 3158 3118
3118 3158 3159 3119
3119 3159 3160 3120
3120 3160 3161 3121
3121 3161 3162 3122
3122 3162 3163 3123
3123 3163 3164 3124
3124 3164 3165 3125
3125 3165 3166 3126
3126 3166 3167 3127
3127 3167 3168 3128
3128 3168 3169 3129
3129 3169 3170 3130
3130 3170 3171 3131
3131 3171 3172 3132
3132 3172 3173 3133
3133 3173 3174 3134
3134 3174 3175 3135
3135 3175 3176 3136
3136 3176 3177 3137
3137 3177 3178 3138
3138 3178 3179 3139
3139 3179 3180 3140
3140 3180 3181 3141
3141 3181 3182 3142
3142 3182 3183 3143
3143 3183 3184 3144
3144 3184 3185 3145
3145 3185 3186 3146
3146 3186 3187 3147
3147 3187 3188 3148
3148 3188 3189 3149
3149 3189 3190 3150
3150 3190 3191 3151
3151 3191 3192 3152
3152 3192 3193 3153
3153 3193 3194 3154
3154 3194 3195 3155
3155 3195 3196 3156
3156 3196 3197 3157
3157 3197 155 154
78 79 3198 3158
3158 3198 3199 3159
3159 3199 3200 3160
3160 3200 3201 3161
3161 3201 3202 3162
3162 3202 3203 3163
3163 3203 3204 3164
3164 3204 3205 3165
3165 3205 3206 3166
3166 3206 3207 3167
3167 3207 3208 3168
3168 3208 3209 3169
3169 3209 3210 3170
3170 3210 3211 3171
3171 3211 3212 3172
3172 3212 3213 3173
3173 3213 3214 3174
3174 3214 3215 3175
3175 3215 3216 3176
3176 3216 3217 3177
3177 3217 3218 3178
3178 3218 3219 3179
3179 3219 3220 3180
3180 3220 3221 3181
3181 3221 3222 3182
3182 3222 3223 3183
3183 3223 3224 3184
3184 3224 3225 3185
3185 3225 3226 3186
3186 3226 3227 3187
3187 3227 3228 3188
3188 3228 3229 3189
3189 3229 3230 3190
3190 3230 3231 3191
3191 3231 3232 3192
3192 3232 3233 3193
3193 3233 3234 3194
3194 3234 3235 3195
3195 3235 3236 3196
3196 3236 3237 3197
3197 3237 156 155
79 80 3238 3198
3198 3238 3239 3199
3199 3239 3240 3200
3200 3240 3241 3201
3201 3241 3242 3202
3202 3242 3243 3203
3203 3243 3244 3204
3204 3244 3245 3205
3205 3245 3246 3206
3206 3246 3247 3207
3207 3247 3248 3208
3208 3248 3249 3209
3209 3249 3250 3210
3210 3250 3251 3211
3211 3251 3252 3212
3212 3252 3253 3213
3213 3253 3254 3214
3214 3254 3255 3215
3215 3255 3256 3216
3216 3256 3257 3217
3217 3257 3258 3218
3218 3258 3259 3219
3219 3259 3260 3220
3220 3260 3261 3221
3221 3261 3262 3222
3222 3262 3263 3223
3223 3263 3264 3224
3224 3264 3265 3225
3225 3265 3266 3226
3226 3266 3267 3227
3227 3267 3268 3228
3228 3268 3269 3229
3229 3269 3270 3230
3230 3270 3271 3231
3231 3271 3272 3232
3232 3272 3273 3233
3233 3273 3274 3234
3234 3274 3275 3235
3235 3275 3276 3236
3236 3276 3277 3237
3237 3277 157 156
80 81 3278 3238
3238 3278 3279 3239
3239 3279 3280 3240
3240 3280 3281 3241
3241 3281 3282 3242
3242 3282 3283 3243
3243 3283 3284 3244
3244 3284 3285 3245
3245 3285 3286 3246
3246 3286 3287 3247
3247 3287 3288 3248
3248 3288 3289 3249
3249 3289 3290 3250
3250 3290 3291 3251
3251 3291 3292 3252
3252 3292 3293 3253
3253 3293 3294 3254
3254 3294 3295 3255
3255 3295 3296 3256
3256 3296 3297 3257
3257 3297 3298 3258
3258 3298 3299 3259
3259 3299 3300 3260
3260 3300 3301 3261
3261 3301 3302 3262
3262 3302 3303 3263
3263 3303 3304 3264
3264 3304 3305 3265
3265 3305 3306 3266
3266 3306 3307 3267
3267 3307 3308 3268
3268 3308 3309 3269
3269 3309 3310 3270
3270 3310 3311 3271
3271 3311 3312 3272
3272 3312 3313 3273
3273 3313 3314 3274
3274 3314 3315 3275
3275 3315 3316 3276
3276 3316 3317 3277
3277 3317 158 157
81 82 3318 3278
3278 3318 3319 3279
3279 3319 3320 3280
3280 3320 3321 3281
3281 3321 3322 3282
3282 3322 3323 3283
3283 3323 3324 3284
3284 3324 3325 3285
3285 3325 3326 3286
3286 3326 3327 3287
3287 3327 3328 3288
3288 3328 3329 3289
3289 3329 3330 3290
3290 3330 3331 3291
3291 3331 3332 3292
3292 3332 3333 3293
3293 3333 3334 3294
3294 3334 3335 3295
3295 3335 3336 3296
3296 3336 3337 3297
3297 3337 3338 3298
3298 3338 3339 3299
3299 3339 3340 3300
3300 3340 3341 3301
3301 3341 3342 3302
3302 3342 3343 3303
3303 3343 3344 3304
3304 3344 3345 3305
3305 3345 3346 3306
3306 3346 3347 3307
3307 3347 3348 3308
3308 3348 3349 3309
3309 3349 3350 3310
3310 3350 3351 3311
3311 3351 3352 3312
3312 3352 3353 3313
3313 3353 3354 3314
3314 3354 3355 3315
3315 3355 3356 3316
3316 3356 3357 3317
3317 3357 159 158
82 83 3358 3318
3318 3358 3359 3319
3319 3359 3360 3320
3320 3360 3361 3321
3321 3361 3362 3322
3322 3362 3363 3323
3323 3363 3364 3324
3324 3364 3365 3325
3325 3365 3366 3326
3326 3366 3367 3327
3327 3367 3368 3328
3328 3368 3369 3329
3329 3369 3370 3330
3330 3370 3371 3331
3331 3371 3372 3332
3332 3372 3373 3333
3333 3373 3374 3334
3334 3374 3375 3335
3335 3375 3376 3336
3336 3376 3377 3337
3337 3377 3378 3338
3338 3378 3379 3339
3339 3379 3380 3340
3340 3380 3381 3341
3341 3381 3382 3342
3342 3382 3383 3343
3343 3383 3384 3344
3344 3384 3385 3345
3345 3385 3386 3346
3346 3386 3387 3347
3347 3387 3388 3348
3348 3388 3389 3349
3349 3389 3390 3350
3350 3390 3391 3351
3351 3391 3392 3352
3352 3392 3393 3353
3353 3393 3394 3354
3354 3394 3395 3355
3355 3395 3396 3356
3356 3396 3397 3357
3357 3397 160 159
83 84 3398 3358
3358 3398 3399 3359
3359 3399 3400 3360
3360 3400 3401 3361
3361 3401 3402 3362
3362 3402 3403 3363
3363 3403 3404 3364
3364 3404 3405 3365
3365 3405 3406 3366
3366 3406 3407 3367
3367 3407 3408 3368
3368 3408 3409 3369
3369 3409 3410 3370
3370 3410 3411 3371
3371 3411 3412 3372
3372 3412 3413 3373
3373 3413 3414 3374
3374 3414 3415 3375
3375 3415 3416 3376
3376 3416 3417 3377
3377 3417 3418 3378
3378 3418 3419 3379
3379 3419 3420 3380
3380 3420 3421 3381
3381 3421 3422 3382
3382 3422 3423 3383
3383 3423 3424 3384
3384 3424 3425 3385
3385 3425 3426 3386
3386 3426 3427 3387
3387 3427 3428 3388
3388 3428 3429 3389
3389 3429 3430 3390
3390 3430 3431 3391
3391 3431 3432 3392
3392 3432 3433 3393
3393 3433 3434 3394
3394 3434 3435 3395
3395 3435 3436 3396
3396 3436 3437 3397
3397 3437 161 160
84 85 3438 3398
3398 3438 3439 3399
3399 3439 3440 3400
3400 3440 3441 3401
3401 3441 3442 3402
3402 3442 3443 3403
3403 3443 3444 3404
3404 3444 3445 3405
3405 3445 3446 3406
3406 3446 3447 3407
3407 3447 3448 3408
3408 3448 3449 3409
3409 3449 3450 3410
3410 3450 3451 3411
3411 3451 3452 3412
3412 3452 3453 3413
3413 3453 3454 3414
3414 3454 3455 3415
3415 3455 3456 3416
3416 3456 3457 3417
3417 3457 3458 3418
3418 3458 3459 3419
3419 3459 3460 3420
3420 3460 3461 3421
3421 3461 3462 3422
3422 3462 3463 3423
3423 3463 3464 3424
3424 3464 3465 3425
3425 3465 3466 3426
3426 3466 3467 3427
3427 3467 3468 3428
3428 3468 3469 3429
3429 3469 3470 3430
3430 3470 3471 3431
3431 3471 3472 3432
3432 3472 3473 3433
3433 3473 3474 3434
3434 3474 3475 3435
3435 3475 3476 3436
3436 3476 3477 3437
3437 3477 162 161
85 86 3478 3438
3438 3478 3479 3439
3439 3479 3480 3440
3440 3480 3481 3441
3441 3481 3482 3442
3442 3482 3483 3443
3443 3483 3484 3444
3444 3484 3485 3445
3445 3485 3486 3446
3446 3486 3487 3447
3447 3487 3488 3448
3448 3488 3489 3449
3449 3489 3490 3450
3450 3490 3491 3451
3451 3491 3492 3452
3452 3492 3493 3453
3453 3493 3494 3454
3454 3494 3495 3455
3455 3495 3496 3456
3456 3496 3497 3457
3457 3497 3498 3458
3458 3498 3499 3459
3459 3499 3500 3460
3460 3500 3501 3461
3461 3501 3502 3462
3462 3502 3503 3463
3463 3503 3504 3464
3464 3504 3505 3465
3465 3505 3506 3466
3466 3506 3507 3467
3467 3507 3508 3468
3468 3508 3509 3469
3469 3509 3510 3470
3470 3510 3511 3471
3471 3511 3512 3472
3472 3512 3513 3473
3473 3513 3514 3474
3474 3514 3515 3475
3475 3515 3516 3476
3476 3516 3517 3477
3477 3517 163 162
86 87 3518 3478
3478 3518 3519 3479
3479 3519 3520 3480
3480 3520 3521 3481
3481 3521 3522 3482
3482 3522 3523 3483
3483 3523 3524 3484
3484 3524 3525 3485
3485 3525 3526 3486
3486 3526 3527 3487
3487 3527 3528 3488
3488 3528 3529 3489
3489 3529 3530 3490
3490 3530 3531 3491
3491 3531 3532 3492
3492 3532 3533 3493
3493 3533 3534 3494
3494 3534 3535 3495
3495 3535 3536 3496
3496 3536 3537 3497
3497 3537 3538 3498
3498 3538 3539 3499
3499 3539 3540 3500
3500 3540 3541 3501
3501 3541 3542 3502
3502 3542 3543 3503
3503 3543 3544 3504
3504 3544 3545 3505
3505 3545 3546 3506
3506 3546 3547 3507
3507 3547 3548 3508
3508 3548 3549 3509
3509 3549 3550 3510
3510 3550 3551 3511
3511 3551 3552 3512
3512 3552 3553 3513
3513 3553 3554 3514
3514 3554 3555 3515
3515 3555 3556 3516
3516 3556 3557 3517
3517 3557 164 163
87 88 3558 3518
3518 3558 3559 3519
3519 3559 3560 3520
3520 3560 3561 3521
3521 3561 3562 3522
3522 3562 3563 3523
3523 3563 3564 3524
3524 3564 3565 3525
3525 3565 3566 3526
3526 3566 3567 3527
3527 3567 3568 3528
3528 3568 3569 3529
3529 3569 3570 3530
3530 3570 3571 3531
3531 3571 3572 3532
3532 3572 3573 3533
3533 3573 3574 3534
3534 3574 3575 3535
3535 3575 3576 3536
3536 3576 3577 3537
3537 3577 3578 3538
3538 3578 3579 3539
3539 3579 3580 3540
3540 3580 3581 3541
3541 3581 3582 3542
3542 3582 3583 3543
3543 3583 3584 3544
3544 3584 3585 3545
3545 3585 3586 3546
3546 3586 3587 3547
3547 3587 3588 3548
3548 3588 3589 3549
3549 3589 3590 3550
3550 3590 3591 3551
3551 3591 3592 3552
3552 3592 3593 3553
3553 3593 3594 3554
3554 3594 3595 3555
3555 3595 3596 3556
3556 3596 3597 3557
3557 3597 165 164
88 2 322 3558
3558 322 321 3559
3559 321 320 3560
3560 320 319 3561
3561 319 318 3562
3562 318 317 3563
3563 317 316 3564
3564 316 315 3565
3565 315 314 3566
3566 314 313 3567
3567 313 312 3568
3568 312 311 3569
3569 311 310 3570
3570 310 309 3571
3571 309 308 3572
3572 308 307 3573
3573 307 306 3574
3574 306 305 3575
3575 305 304 3576
3576 304 303 3577
3577 303 302 3578
3578 302 301 3579
3579 301 300 3580
3580 300 299 3581
3581 299 298 3582
3582 298 297 3583
3583 297 296 3584
3584 296 295 3585
3585 295 294 3586
3586 294 293 3587
3587 293 292 3588
3588 292 291 3589
3589 291 290 3590
3590 290 289 3591
3591 289 288 3592
3592 288 287 3593
3593 287 286 3594
3594 286 285 3595
3595 285 284 3596
3596 284 283 3597
3597 283 6 165
4 108 3598 380
380 3598 3599 379
379 3599 3600 378
378 3600 3601 377
377 3601 3602 376
376 3602 3603 375
375 3603 3604 374
374 3604 3605 373
373 3605 3606 372
372 3606 3607 371
371 3607 3608 370
370 3608 3609 369
369 3609 3610 368
368 3610 3611 367
367 3611 3612 366
366 3612 3613 365
365 3613 3614 364
364 3614 3615 363
363 3615 3616 362
362 3616 323 9
108 109 3617 3598
3598 3617 3618 3599
3599 3618 3619 3600
3600 3619 3620 3601
3601 3620 3621 3602
3602 3621 3622 3603
3603 3622 3623 3604
3604 3623 3624 3605
3605 3624 3625 3606
3606 3625 3626 3607
3607 3626 3627 3608
3608 3627 3628 3609
3609 3628 3629 3610
3610 3629 3630 3611
3611 3630 3631 3612
3612 3631 3632 3613
3613 3632 3633 3614
3614 3633 3634 3615
3615 3634 3635 3616
3616 3635 324 323
109 110 3636 3617
3617 3636 3637 3618
3618 3637 3638 3619
3619 3638 3639 3620
3620 3639 3640 3621
3621 3640 3641 3622
3622 3641 3642 3623
3623 3642 3643 3624
3624 3643 3644 3625
3625 3644 3645 3626
3626 3645 3646 3627
3627 3646 3647 3628
3628 3647 3648 3629
3629 3648 3649 3630
3630 3649 3650 3631
3631 3650 3651 3632
3632 3651 3652 3633
3633 3652 3653 3634
3634 3653 3654 3635
3635 3654 325 324
110 111 3655 3636
3636 3655 3656 3637
3637 3656 3657 3638
3638 3657 3658 3639
3639 3658 3659 3640
3640 3659 3660 3641
3641 3660 3661 3642
3642 3661 3662 3643
3643 3662 3663 3644
3644 3663 3664 3645
3645 3664 3665 3646
3646 3665 3666 3647
3647 3666 3667 3648
3648 3667 3668 3649
3649 3668 3669 3650
3650 3669 3670 3651
3651 3670 3671 3652
3652 3671 3672 3653
3653 3672 3673 3654
3654 3673 326 325
111 112 3674 3655
3655 3674 3675 3656
3656 3675 3676 3657
3657 3676 3677 3658
3658 3677 3678 3659
3659 3678 3679 3660
3660 3679 3680 3661
3661 3680 3681 3662
3662 3681 3682 3663
3663 3682 3683 3664
3664 3683 3684 3665
3665 3684 3685 3666
3666 3685 3686 3667
3667 3686 3687 3668
3668 3687 3688 3669
3669 3688 3689 3670
3670 3689 3690 3671
3671 3690 3691 3672
3672 3691 3692 3673
3673 3692 327 326
112 113 3693 3674
3674 3693 3694 3675
3675 3694 3695 3676
3676 3695 3696 3677
3677 3696 3697 3678
3678 3697 3698 3679
3679 3698 3699 3680
3680 3699 3700 3681
3681 3700 3701 3682
3682 3701 3702 3683
3683 3702 3703 3684
3684 3703 3704 3685
3685 3704 3705 3686
3686 3705 3706 3687
3687 3706 3707 3688
3688 3707 3708 3689
3689 3708 3709 3690
3690 3709 3710 3691
3691 3710 3711 3692
3692 3711 328 327
113 114 3712 3693
3693 3712 3713 3694
3694 3713 3714 3695
3695 3714 3715 3696
3696 3715 3716 3697
3697 3716 3717 3698
3698 3717 3718 3699
3699 3718 3719 3700
3700 3719 3720 3701
3701 3720 3721 3702
3702 3721 3722 3703
3703 3722 3723 3704
3704 3723 3724 3705
3705 3724 3725 3706
3706 3725 3726 3707
3707 3726 3727 3708
3708 3727 3728 3709
3709 3728 3729 3710
3710 3729 3730 3711
3711 3730 329 328
114 115 3731 3712
3712 3731 3732 3713
3713 3732 3733 3714
3714 3733 3734 3715
3715 3734 3735 3716
3716 3735 3736 3717
3717 3736 3737 3718
3718 3737 3738 3719
3719 3738 3739 3720
3720 3739 3740 3721
3721 3740 3741 3722
3722 3741 3742 3723
3723 3742 3743 3724
3724 3743 3744 3725
3725 3744 3745 3726
3726 3745 3746 3727
3727 3746 3747 3728
3728 3747 3748 3729
3729 3748 3749 3730
3730 3749 330 329
115 116 3750 3731
3731 3750 3751 3732
3732 3751 3752 3733
3733 3752 3753 3734
3734 3753 3754 3735
3735 3754 3755 3736
3736 3755 3756 3737
3737 3756 3757 3738
3738 3757 3758 3739
3739 3758 3759 3740
3740 3759 3760 3741
3741 3760 3761 3742
3742 3761 3762 3743
3743 3762 3763 3744
3744 3763 3764 3745
3745 3764 3765 3746
3746 3765 3766 3747
3747 3766 3767 3748
3748 3767 3768 3749
3749 3768 331 330
116 117 3769 3750
3750 3769 3770 3751
3751 3770 3771 3752
3752 3771 3772 3753
3753 3772 3773 3754
3754 3773 3774 3755
3755 3774 3775 3756
3756 3775 3776 3757
3757 3776 3777 3758
3758 3777 3778 3759
3759 3778 3779 3760
3760 3779 3780 3761
3761 3780 3781 3762
3762 3781 3782 3763
3763 3782 3783 3764
3764 3783 3784 3765
3765 3784 3785 3766
3766 3785 3786 3767
3767 3786 3787 3768
3768 3787 332 331
117 118 3788 3769
3769 3788 3789 3770
3770 3789 3790 3771
3771 3790 3791 3772
3772 3791 3792 3773
3773 3792 3793 3774
3774 3793 3794 3775
3775 3794 3795 3776
3776 3795 3796 3777
3777 3796 3797 3778
3778 3797 3798 3779
3779 3798 3799 3780
3780 3799 3800 3781
3781 3800 3801 3782
3782 3801 3802 3783
3783 3802 3803 3784
3784 3803 3804 3785
3785 3804 3805 3786
3786 3805 3806 3787
3787 3806 333 332
118 119 3807 3788
3788 3807 3808 3789
3789 3808 3809 3790
3790 3809 3810 3791
3791 3810 3811 3792
3792 3811 3812 3793
3793 3812 3813 3794
3794 3813 3814 3795
3795 3814 3815 3796
3796 3815 3816 3797
3797 3816 3817 3798
3798 3817 3818 3799
3799 3818 3819 3800
3800 3819 3820 3801
3801 3820 3821 3802
3802 3821 3822 3803
3803 3822 3823 3804
3804 3823 3824 3805
3805 3824 3825 3806
3806 3825 334 333
119 120 3826 3807
3807 3826 3827 3808
3808 3827 3828 3809
3809 3828 3829 3810
3810 3829 3830 3811
3811 3830 3831 3812
3812 3831 3832 3813
3813 3832 3833 3814
3814 3833 3834 3815
3815 3834 3835 3816
3816 3835 3836 3817
3817 3836 3837 3818
3818 3837 3838 3819
3819 3838 3839 3820
3820 3839 3840 3821
3821 3840 3841 3822
3822 3841 3842 3823
3823 3842 3843 3824
3824 3843 3844 3825
3825 3844 335 334
120 121 3845 3826
3826 3845 3846 3827
3827 3846 3847 3828
3828 3847 3848 3829
3829 3848 3849 3830
3830 3849 3850 3831
3831 3850 3851 3832
3832 3851 3852 3833
3833 3852 3853 3834
3834 3853 3854 3835
3835 3854 3855 3836
3836 3855 3856 3837
3837 3856 3857 3838
3838 3857 3858 3839
3839 3858 3859 3840
3840 3859 3860 3841
3841 3860 3861 3842
3842 3861 3862 3843
3843 3862 3863 3844
3844 3863 336 335
121 122 3864 3845
3845 3864 3865 3846
3846 3865 3866 3847
3847 3866 3867 3848
3848 3867 3868 3849
3849 3868 3869 3850
3850 3869 3870 3851
3851 3870 3871 3852
3852 3871 3872 3853
3853 3872 3873 3854
3854 3873 3874 3855
3855 3874 3875 3856
3856 3875 3876 3857
3857 3876 3877 3858
3858 3877 3878 3859
3859 3878 3879 3860
3860 3879 3880 3861
3861 3880 3881 3862
3862 3881 3882 3863
3863 3882 337 336
122 123 3883 3864
3864 3883 3884 3865
3865 3884 3885 3866
3866 3885 3886 3867
3867 3886 3887 3868
3868 3887 3888 3869
3869 3888 3889 3870
3870 3889 3890 3871
3871 3890 3891 3872
3872 3891 3892 3873
3873 3892 3893 3874
3874 3893 3894 3875
3875 3894 3895 3876
3876 3895 3896 3877
3877 3896 3897 3878
3878 3897 3898 3879
3879 3898 3899 3880
3880 3899 3900 3881
3881 3900 3901 3882
3882 3901 338 337
123 124 3902 3883
3883 3902 3903 3884
3884 3903 3904 3885
3885 3904 3905 3886
3886 3905 3906 3887
3887 3906 3907 3888
3888 3907 3908 3889
3889 3908 3909 3890
3890 3909 3910 3891
3891 3910 3911 3892
3892 3911 3912 3893
3893 3912 3913 3894
3894 3913 3914 3895
3895 3914 3915 3896
3896 3915 3916 3897
3897 3916 3917 3898
3898 3917 3918 3899
3899 3918 3919 3900
3900 3919 3920 3901
3901 3920 339 338
124 125 3921 3902
3902 3921 3922 3903
3903 3922 3923 3904
3904 3923 3924 3905
3905 3924 3925 3906
3906 3925 3926 3907
3907 3926 3927 3908
3908 3927 3928 3909
3909 3928 3929 3910
3910 3929 3930 3911
3911 3930 3931 3912
3912 3931 3932 3913
3913 3932 3933 3914
3914 3933 3934 3915
3915 3934 3935 3916
3916 3935 3936 3917
3917 3936 3937 3918
3918 3937 3938 3919
3919 3938 3939 3920
3920 3939 340 339
125 126 3940 3921
3921 3940 3941 3922
3922 3941 3942 3923
3923 3942 3943 3924
3924 3943 3944 3925
3925 3944 3945 3926
3926 3945 3946 3927
3927 3946 3947 3928
3928 3947 3948 3929
3929 3948 3949 3930
3930 3949 3950 3931
3931 3950 3951 3932
3932 3951 3952 3933
3933 3952 3953 3934
3934 3953 3954 3935
3935 3954 3955 3936
3936 3955 3956 3937
3937 3956 3957 3938
3938 3957 3958 3939
3939 3958 341 340
126 127 3959 3940
3940 3959 3960 3941
3941 3960 3961 3942
3942 3961 3962 3943
3943 3962 3963 3944
3944 3963 3964 3945
3945 3964 3965 3946
3946 3965 3966 3947
3947 3966 3967 3948
3948 3967 3968 3949
3949 3968 3969 3950
3950 3969 3970 3951
3951 3970 3971 3952
3952 3971 3972 3953
3953 3972 3973 3954
3954 3973 3974 3955
3955 3974 3975 3956
3956 3975 3976 3957
3957 3976 3977 3958
3958 3977 342 341
127 128 3978 3959
3959 3978 3979 3960
3960 3979 3980 3961
3961 3980 3981 3962
3962 3981 3982 3963
3963 3982 3983 3964
3964 3983 3984 3965
3965 3984 3985 3966
3966 3985 3986 3967
3967 3986 3987 3968
3968 3987 3988 3969
3969 3988 3989 3970
3970 3989 3990 3971
3971 3990 3991 3972
3972 3991 3992 3973
3973 3992 3993 3974
3974 3993 3994 3975
3975 3994 3995 3976
3976 3995 3996 3977
3977 3996 343 342
128 129 3997 3978
3978 3997 3998 3979
3979 3998 3999 3980
3980 3999 4000 3981
3981 4000 4001 3982
3982 4001 4002 3983
3983 4002 4003 3984
3984 4003 4004 3985
3985 4004 4005 3986
3986 4005 4006 3987
3987 4006 4007 3988
3988 4007 4008 3989
3989 4008 4009 3990
3990 4009 4010 3991
3991 4010 4011 3992
3992 4011 4012 3993
3993 4012 4013 3994
3994 4013 4014 3995
3995 4014 4015 3996
3996 4015 344 343
129 130 4016 3997
3997 4016 4017 3998
3998 4017 4018 3999
3999 4018 4019 4000
4000 4019 4020 4001
4001 4020 4021 4002
4002 4021 4022 4003
4003 4022 4023 4004
4004 4023 4024 4005
4005 4024 4025 4006
4006 4025 4026 4007
4007 4026 4027 4008
4008 4027 4028 4009
4009 4028 4029 4010
4010 4029 4030 4011
4011 4030 4031 4012
4012 4031 4032 4013
4013 4032 4033 4014
4014 4033 4034 4015
4015 4034 345 344
130 131 4035 4016
4016 4035 4036 4017
4017 4036 4037 4018
4018 4037 4038 4019
4019 4038 4039 4020
4020 4039 4040 4021
4021 4040 4041 4022
4022 4041 4042 4023
4023 4042 4043 4024
4024 4043 4044 4025
4025 4044 4045 4026
4026 4045 4046 4027
4027 4046 4047 4028
4028 4047 4048 4029
4029 4048 4049 4030
4030 4049 4050 4031
4031 4050 4051 4032
4032 4051 4052 4033
4033 4052 4053 4034
4034 4053 346 345
131 132 4054 4035
4035 4054 4055 4036
4036 4055 4056 4037
4037 4056 4057 4038
4038 4057 4058 4039
4039 4058 4059 4040
4040 4059 4060 4041
4041 4060 4061 4042
4042 4061 4062 4043
4043 4062 4063 4044
4044 4063 4064 4045
4045 4064 4065 4046
4046 4065 4066 4047
4047 4066 4067 4048
4048 4067 4068 4049
4049 4068 4069 4050
4050 4069 4070 4051
4051 4070 4071 4052
4052 4071 4072 4053
4053 4072 347 346
132 133 4073 4054
4054 4073 4074 4055
4055 4074 4075 4056
4056 4075 4076 4057
4057 4076 4077 4058
4058 4077 4078 4059
4059 4078 4079 4060
4060 4079 4080 4061
4061 4080 4081 4062
4062 4081 4082 4063
4063 4082 4083 4064
4064 4083 4084 4065
4065 4084 4085 4066
4066 4085 4086 4067
4067 4086 4087 4068
4068 4087 4088 4069
4069 4088 4089 4070
4070 4089 4090 4071
4071 4090 4091 4072
4072 4091 348 347
133 134 4092 4073
4073 4092 4093 4074
4074 4093 4094 4075
4075 4094 4095 4076
4076 4095 4096 4077
4077 4096 4097 4078
4078 4097 4098 4079
4079 4098 4099 4080
4080 4099 4100 4081
4081 4100 4101 4082
4082 4101 4102 4083
4083 4102 4103 4084
4084 4103 4104 4085
4085 4104 4105 4086
4086 4105 4106 4087
4087 4106 4107 4088
4088 4107 4108 4089
4089 4108 4109 4090
4090 4109 4110 4091
4091 4110 349 348
134 135 4111 4092
4092 4111 4112 4093
4093 4112 4113 4094
4094 4113 4114 4095
4095 4114 4115 4096
4096 4115 4116 4097
4097 4116 4117 4098
4098 4117 4118 4099
4099 4118 4119 4100
4100 4119 4120 4101
4101 4120 4121 4102
4102 4121 4122 4103
4103 4122 4123 4104
4104 4123 4124 4105
4105 4124 4125 4106
4106 4125 4126 4107
4107 4126 4127 4108
4108 4127 4128 4109
4109 4128 4129 4110
4110 4129 350 349
135 136 4130 4111
4111 4130 4131 4112
4112 4131 4132 4113
4113 4132 4133 4114
4114 4133 4134 4115
4115 4134 4135 4116
4116 4135 4136 4117
4117 4136 4137 4118
4118 4137 4138 4119
4119 4138 4139 4120
4120 4139 4140 4121
4121 4140 4141 4122
4122 4141 4142 4123
4123 4142 4143 4124
4124 4143 4144 4125
4125 4144 4145 4126
4126 4145 4146 4127
4127 4146 4147 4128
4128 4147 4148 4129
4129 4148 351 350
136 137 4149 4130
4130 4149 4150 4131
4131 4150 4151 4132
4132 4151 4152 4133
4133 4152 4153 4134
4134 4153 4154 4135
4135 4154 4155 4136
4136 4155 4156 4137
4137 4156 4157 4138
4138 4157 4158 4139
4139 4158 4159 4140
4140 4159 4160 4141
4141 4160 4161 4142
4142 4161 4162 4143
4143 4162 4163 4144
4144 4163 4164 4145
4145 4164 4165 4146
4146 4165 4166 4147
4147 4166 4167 4148
4148 4167 352 351
137 138 4168 4149
4149 4168 4169 4150
4150 4169 4170 4151
4151 4170 4171 4152
4152 4171 4172 4153
4153 4172 4173 4154
4154 4173 4174 4155
4155 4174 4175 4156
4156 4175 4176 4157
4157 4176 4177 4158
4158 4177 4178 4159
4159 4178 4179 4160
4160 4179 4180 4161
4161 4180 4181 4162
4162 4181 4182 4163
4163 4182 4183 4164
4164 4183 4184 4165
4165 4184 4185 4166
4166 4185 4186 4167
4167 4186 353 352
138 139 4187 4168
4168 4187 4188 4169
4169 4188 4189 4170
4170 4189 4190 4171
4171 4190 4191 4172
4172 4191 4192 4173
4173 4192 4193 4174
4174 4193 4194 4175
4175 4194 4195 4176
4176 4195 4196 4177
4177 4196 4197 4178
4178 4197 4198 4179
4179 4198 4199 4180
4180 4199 4200 4181
4181 4200 4201 4182
4182 4201 4202 4183
4183 4202 4203 4184
4184 4203 4204 4185
4185 4204 4205 4186
4186 4205 354 353
139 140 4206 4187
4187 4206 4207 4188
4188 4207 4208 4189
4189 4208 4209 4190
4190 4209 4210 4191
4191 4210 4211 4192
4192 4211 4212 4193
4193 4212 4213 4194
4194 4213 4214 4195
4195 4214 4215 4196
4196 4215 4216 4197
4197 4216 4217 4198
4198 4217 4218 4199
4199 4218 4219 4200
4200 4219 4220 4201
4201 4220 4221 4202
4202 4221 4222 4203
4203 4222 4223 4204
4204 4223 4224 4205
4205 4224 355 354
140 141 4225 4206
4206 4225 4226 4207
4207 4226 4227 4208
4208 4227 4228 4209
4209 4228 4229 4210
4210 4229 4230 4211
4211 4230 4231 4212
4212 4231 4232 4213
4213 4232 4233 4214
4214 4233 4234 4215
4215 4234 4235 4216
4216 4235 4236 4217
4217 4236 4237 4218
4218 4237 4238 4219
4219 4238 4239 4220
4220 4239 4240 4221
4221 4240 4241 4222
4222 4241 4242 4223
4223 4242 4243 4224
4224 4243 356 355
141 142 4244 4225
4225 4244 4245 4226
4226 4245 4246 4227
4227 4246 4247 4228
4228 4247 4248 4229
4229 4248 4249 4230
4230 4249 4250 4231
4231 4250 4251 4232
4232 4251 4252 4233
4233 4252 4253 4234
4234 4253 4254 4235
4235 4254 4255 4236
4236 4255 4256 4237
4237 4256 4257 4238
4238 4257 4258 4239
4239 4258 4259 4240
4240 4259 4260 4241
4241 4260 4261 4242
4242 4261 4262 4243
4243 4262 357 356
142 143 4263 4244
4244 4263 4264 4245
4245 4264 4265 4246
4246 4265 4266 4247
4247 4266 4267 4248
4248 4267 4268 4249
4249 4268 4269 4250
4250 4269 4270 4251
4251 4270 4271 4252
4252 4271 4272 4253
4253 4272 4273 4254
4254 4273 4274 4255
4255 4274 4275 4256
4256 4275 4276 4257
4257 4276 4277 4258
4258 4277 4278 4259
4259 4278 4279 4260
4260 4279 4280 4261
4261 4280 4281 4262
4262 4281 358 357
143 144 4282 4263
4263 4282 4283 4264
4264 4283 4284 4265
4265 4284 4285 4266
4266 4285 4286 4267
4267 4286 4287 4268
4268 4287 4288 4269
4269 4288 4289 4270
4270 4289 4290 4271
4271 4290 4291 4272
4272 4291 4292 4273
4273 4292 4293 4274
4274 4293 4294 4275
4275 4294 4295 4276
4276 4295 4296 4277
4277 4296 4297 4278
4278 4297 4298 4279
4279 4298 4299 4280
4280 4299 4300 4281
4281 4300 359 358
144 145 4301 4282
4282 4301 4302 4283
4283 4302 4303 4284
4284 4303 4304 4285
4285 4304 4305 4286
4286 4305 4306 4287
4287 4306 4307 4288
4288 4307 4308 4289
4289 4308 4309 4290
4290 4309 4310 4291
4291 4310 4311 4292
4292 4311 4312 4293
4293 4312 4313 4294
4294 4313 4314 4295
4295 4314 4315 4296
4296 4315 4316 4297
4297 4316 4317 4298
4298 4317 4318 4299
4299 4318 4319 4300
4300 4319 360 359
145 146 4320 4301
4301 4320 4321 4302
4302 4321 4322 4303
4303 4322 4323 4304
4304 4323 4324 4305
4305 4324 4325 4306
4306 4325 4326 4307
4307 4326 4327 4308
4308 4327 4328 4309
4309 4328 4329 4310
4310 4329 4330 4311
4311 4330 4331 4312
4312 4331 4332 4313
4313 4332 4333 4314
4314 4333 4334 4315
4315 4334 4335 4316
4316 4335 4336 4317
4317 4336 4337 4318
4318 4337 4338 4319
4319 4338 361 360
146 5 399 4320
4320 399 398 4321
4321 398 397 4322
4322 397 396 4323
4323 396 395 4324
4324 395 394 4325
4325 394 393 4326
4326 393 392 4327
4327 392 391 4328
4328 391 390 4329
4329 390 389 4330
4330 389 388 4331
4331 388 387 4332
4332 387 386 4333
4333 386 385 4334
4334 385 384 4335
4335 384 383 4336
4336 383 382 4337
4337 382 381 4338
4338 381 10 361
3 89 4339 166
166 4339 4340 167
167 4340 4341 168
168 4341 4342 169
169 4342 4343 170
170 4343 4344 171
171 4344 4345 172
172 4345 4346 173
173 4346 4347 174
174 4347 4348 175
175 4348 4349 176
176 4349 4350 177
177 4350 4351 178
178 4351 4352 179
179 4352 4353 180
180 4353 4354 181
181 4354 4355 182
182 4355 4356 183
183 4356 4357 184
184 4357 418 7
89 90 4358 4339
4339 4358 4359 4340
4340 4359 4360 4341
4341 4360 4361 4342
4342 4361 4362 4343
4343 4362 4363 4344
4344 4363 4364 4345
4345 4364 4365 4346
4346 4365 4366 4347
4347 4366 4367 4348
4348 4367 4368 4349
4349 4368 4369 4350
4350 4369 4370 4351
4351 4370 4371 4352
4352 4371 4372 4353
4353 4372 4373 4354
4354 4373 4374 4355
4355 4374 4375 4356
4356 4375 4376 4357
4357 4376 417 418
90 91 4377 4358
4358 4377 4378 4359
4359 4378 4379 4360
4360 4379 4380 4361
4361 4380 4381 4362
4362 4381 4382 4363
4363 4382 4383 4364
4364 4383 4384 4365
4365 4384 4385 4366
4366 4385 4386 4367
4367 4386 4387 4368
4368 4387 4388 4369
4369 4388 4389 4370
4370 4389 4390 4371
4371 4390 4391 4372
4372 4391 4392 4373
4373 4392 4393 4374
4374 4393 4394 4375
4375 4394 4395 4376
4376 4395 416 417
91 92 4396 4377
4377 4396 4397 4378
4378 4397 4398 4379
4379 4398 4399 4380
4380 4399 4400 4381
4381 4400 4401 4382
4382 4401 4402 4383
4383 4402 4403 4384
4384 4403 4404 4385
4385 4404 4405 4386
4386 4405 4406 4387
4387 4406 4407 4388
4388 4407 4408 4389
4389 4408 4409 4390
4390 4409 4410 4391
4391 4410 4411 4392
4392 4411 4412 4393
4393 4412 4413 4394
4394 4413 4414 4395
4395 4414 415 416
92 93 4415 4396
4396 4415 4416 4397
4397 4416 4417 4398
4398 4417 4418 4399
4399 4418 4419 4400
4400 4419 4420 4401
4401 4420 4421 4402
4402 4421 4422 4403
4403 4422 4423 4404
4404 4423 4424 4405
4405 4424 4425 4406
4406 4425 4426 4407
4407 4426 4427 4408
4408 4427 4428 4409
4409 4428 4429 4410
4410 4429 4430 4411
4411 4430 4431 4412
4412 4431 4432 4413
4413 4432 4433 4414
4414 4433 414 415
93 94 4434 4415
4415 4434 4435 4416
4416 4435 4436 4417
4417 4436 4437 4418
4418 4437 4438 4419
4419 4438 4439 4420
4420 4439 4440 4421
4421 4440 4441 4422
4422 4441 4442 4423
4423 4442 4443 4424
4424 4443 4444 4425
4425 4444 4445 4426
4426 4445 4446 4427
4427 4446 4447 4428
4428 4447 4448 4429
4429 4448 4449 4430
4430 4449 4450 4431
4431 4450 4451 4432
4432 4451 4452 4433
4433 4452 413 414
94 95 4453 4434
4434 4453 4454 4435
4435 4454 4455 4436
4436 4455 4456 4437
4437 4456 4457 4438
4438 4457 4458 4439
4439 4458 4459 4440
4440 4459 4460 4441
4441 4460 4461 4442
4442 4461 4462 4443
4443 4462 4463 4444
4444 4463 4464 4445
4445 4464 4465 4446
4446 4465 4466 4447
4447 4466 4467 4448
4448 4467 4468 4449
4449 4468 4469 4450
4450 4469 4470 4451
4451 4470 4471 4452
4452 4471 412 413
95 96 4472 4453
4453 4472 4473 4454
4454 4473 4474 4455
4455 4474 4475 4456
4456 4475 4476 4457
4457 4476 4477 4458
4458 4477 4478 4459
4459 4478 4479 4460
4460 4479 4480 4461
4461 4480 4481 4462
4462 4481 4482 4463
4463 4482 4483 4464
4464 4483 4484 4465
4465 4484 4485 4466
4466 4485 4486 4467
4467 4486 4487 4468
4468 4487 4488 4469
4469 4488 4489 4470
4470 4489 4490 4471
4471 4490 411 412
96 97 4491 4472
4472 4491 4492 4473
4473 4492 4493 4474
4474 4493 4494 4475
4475 4494 4495 4476
4476 4495 4496 4477
4477 4496 4497 4478
4478 4497 4498 4479
4479 4498 4499 4480
4480 4499 4500 4481
4481 4500 4501 4482
4482 4501 4502 4483
4483 4502 4503 4484
4484 4503 4504 4485
4485 4504 4505 4486
4486 4505 4506 4487
4487 4506 4507 4488
4488 4507 4508 4489
4489 4508 4509 4490
4490 4509 410 411
97 98 4510 4491
4491 4510 4511 4492
4492 4511 4512 4493
4493 4512 4513 4494
4494 4513 4514 4495
4495 4514 4515 4496
4496 4515 4516 4497
4497 4516 4517 4498
4498 4517 4518 4499
4499 4518 4519 4500
4500 4519 4520 4501
4501 4520 4521 4502
4502 4521 4522 4503
4503 4522 4523 4504
4504 4523 4524 4505
4505 4524 4525 4506
4506 4525 4526 4507
4507 4526 4527 4508
4508 4527 4528 4509
4509 4528 409 410
98 99 4529 4510
4510 4529 4530 4511
4511 4530 4531 4512
4512 4531 4532 4513
4513 4532 4533 4514
4514 4533 4534 4515
4515 4534 4535 4516
4516 4535 4536 4517
4517 4536 4537 4518
4518 4537 4538 4519
4519 4538 4539 4520
4520 4539 4540 4521
4521 4540 4541 4522
4522 4541 4542 4523
4523 4542 4543 4524
4524 4543 4544 4525
4525 4544 4545 4526
4526 4545 4546 4527
4527 4546 4547 4528
4528 4547 408 409
99 100 4548 4529
4529 4548 4549 4530
4530 4549 4550 4531
4531 4550 4551 4532
4532 4551 4552 4533
4533 4552 4553 4534
4534 4553 4554 4535
4535 4554 4555 4536
4536 4555 4556 4537
4537 4556 4557 4538
4538 4557 4558 4539
4539 4558 4559 4540
4540 4559 4560 4541
4541 4560 4561 4542
4542 4561 4562 4543
4543 4562 4563 4544
4544 4563 4564 4545
4545 4564 4565 4546
4546 4565 4566 4547
4547 4566 407 408
100 101 4567 4548
4548 4567 4568 4549
4549 4568 4569 4550
4550 4569 4570 4551
4551 4570 4571 4552
4552 4571 4572 4553
4553 4572 4573 4554
4554 4573 4574 4555
4555 4574 4575 4556
4556 4575 4576 4557
4557 4576 4577 4558
4558 4577 4578 4559
4559 4578 4579 4560
4560 4579 4580 4561
4561 4580 4581 4562
4562 4581 4582 4563
4563 4582 4583 4564
4564 4583 4584 4565
4565 4584 4585 4566
4566 4585 406 407
101 102 4586 4567
4567 4586 4587 4568
4568 4587 4588 4569
4569 4588 4589 4570
4570 4589 4590 4571
4571 4590 4591 4572
4572 4591 4592 4573
4573 4592 4593 4574
4574 4593 4594 4575
4575 4594 4595 4576
4576 4595 4596 4577
4577 4596 4597 4578
4578 4597 4598 4579
4579 4598 4599 4580
4580 4599 4600 4581
4581 4600 4601 4582
4582 4601 4602 4583
4583 4602 4603 4584
4584 4603 4604 4585
4585 4604 405 406
102 103 4605 4586
4586 4605 4606 4587
4587 4606 4607 4588
4588 4607 4608 4589
4589 4608 4609 4590
4590 4609 4610 4591
4591 4610 4611 4592
4592 4611 4612 4593
4593 4612 4613 4594
4594 4613 4614 4595
4595 4614 4615 4596
4596 4615 4616 4597
4597 4616 4617 4598
4598 4617 4618 4599
4599 4618 4619 4600
4600 4619 4620 4601
4601 4620 4621 4602
4602 4621 4622 4603
4603 4622 4623 4604
4604 4623 404 405
103 104 4624 4605
4605 4624 4625 4606
4606 4625 4626 4607
4607 4626 4627 4608
4608 4627 4628 4609
4609 4628 4629 4610
4610 4629 4630 4611
4611 4630 4631 4612
4612 4631 4632 4613
4613 4632 4633 4614
4614 4633 4634 4615
4615 4634 4635 4616
4616 4635 4636 4617
4617 4636 4637 4618
4618 4637 4638 4619
4619 4638 4639 4620
4620 4639 4640 4621
4621 4640 4641 4622
4622 4641 4642 4623
4623 4642 403 404
104 105 4643 4624
4624 4643 4644 4625
4625 4644 4645 4626
4626 4645 4646 4627
4627 4646 4647 4628
4628 4647 4648 4629
4629 4648 4649 4630
4630 4649 4650 4631
4631 4650 4651 4632
4632 4651 4652 4633
4633 4652 4653 4634
4634 4653 4654 4635
4635 4654 4655 4636
4636 4655 4656 4637
4637 4656 4657 4638
4638 4657 4658 4639
4639 4658 4659 4640
4640 4659 4660 4641
4641 4660 4661 4642
4642 4661 402 403
105 106 4662 4643
4643 4662 4663 4644
4644 4663 4664 4645
4645 4664 4665 4646
4646 4665 4666 4647
4647 4666 4667 4648
4648 4667 4668 4649
4649 4668 4669 4650
4650 4669 4670 4651
4651 4670 4671 4652
4652 4671 4672 4653
4653 4672 4673 4654
4654 4673 4674 4655
4655 4674 4675 4656
4656 4675 4676 4657
4657 4676 4677 4658
4658 4677 4678 4659
4659 4678 4679 4660
4660 4679 4680 4661
4661 4680 401 402
106 107 4681 4662
4662 4681 4682 4663
4663 4682 4683 4664
4664 4683 4684 4665
4665 4684 4685 4666
4666 4685 4686 4667
4667 4686 4687 4668
4668 4687 4688 4669
4669 4688 4689 4670
4670 4689 4690 4671
4671 4690 4691 4672
4672 4691 4692 4673
4673 4692 4693 4674
4674 4693 4694 4675
4675 4694 4695 4676
4676 4695 4696 4677
4677 4696 4697 4678
4678 4697 4698 4679
4679 4698 4699 4680
4680 4699 400 401
107 4 380 4681
4681 380 379 4682
4682 379 378 4683
4683 378 377 4684
4684 377 376 4685
4685 376 375 4686
4686 375 374 4687
4687 374 373 4688
4688 373 372 4689
4689 372 371 4690
4690 371 370 4691
4691 370 369 4692
4692 369 368 4693
4693 368 367 4694
4694 367 366 4695
4695 366 365 4696
4696 365 364 4697
4697 364 363 4698
4698 363 362 4699
4699 362 9 400
5 147 4700 399
399 4700 4701 398
398 4701 4702 397
397 4702 4703 396
396 4703 4704 395
395 4704 4705 394
394 4705 4706 393
393 4706 4707 392
392 4707 4708 391
391 4708 4709 390
390 4709 4710 389
389 4710 4711 388
388 4711 4712 387
387 4712 4713 386
386 4713 4714 385
385 4714 4715 384
384 4715 4716 383
383 4716 4717 382
382 4717 4718 381
381 4718 419 10
147 148 4719 4700
4700 4719 4720 4701
4701 4720 4721 4702
4702 4721 4722 4703
4703 4722 4723 4704
4704 4723 4724 4705
4705 4724 4725 4706
4706 4725 4726 4707
4707 4726 4727 4708
4708 4727 4728 4709
4709 4728 4729 4710
4710 4729 4730 4711
4711 4730 4731 4712
4712 4731 4732 4713
4713 4732 4733 4714
4714 4733 4734 4715
4715 4734 4735 4716
4716 4735 4736 4717
4717 4736 4737 4718
4718 4737 420 419
148 149 4738 4719
4719 4738 4739 4720
4720 4739 4740 4721
4721 4740 4741 4722
4722 4741 4742 4723
4723 4742 4743 4724
4724 4743 4744 4725
4725 4744 4745 4726
4726 4745 4746 4727
4727 4746 4747 4728
4728 4747 4748 4729
4729 4748 4749 4730
4730 4749 4750 4731
4731 4750 4751 4732
4732 4751 4752 4733
4733 4752 4753 4734
4734 4753 4754 4735
4735 4754 4755 4736
4736 4755 4756 4737
4737 4756 421 420
149 150 4757 4738
4738 4757 4758 4739
4739 4758 4759 4740
4740 4759 4760 4741
4741 4760 4761 4742
4742 4761 4762 4743
4743 4762 4763 4744
4744 4763 4764 4745
4745 4764 4765 4746
4746 4765 4766 4747
4747 4766 4767 4748
4748 4767 4768 4749
4749 4768 4769 4750
4750 4769 4770 4751
4751 4770 4771 4752
4752 4771 4772 4753
4753 4772 4773 4754
4754 4773 4774 4755
4755 4774 4775 4756
4756 4775 422 421
150 151 4776 4757
4757 4776 4777 4758
4758 4777 4778 4759
4759 4778 4779 4760
4760 4779 4780 4761
4761 4780 4781 4762
4762 4781 4782 4763
4763 4782 4783 4764
4764 4783 4784 4765
4765 4784 4785 4766
4766 4785 4786 4767
4767 4786 4787 4768
4768 4787 4788 4769
4769 4788 4789 4770
4770 4789 4790 4771
4771 4790 4791 4772
4772 4791 4792 4773
4773 4792 4793 4774
4774 4793 4794 4775
4775 4794 423 422
151 152 4795 4776
4776 4795 4796 4777
4777 4796 4797 4778
4778 4797 4798 4779
4779 4798 4799 4780
4780 4799 4800 4781
4781 4800 4801 4782
4782 4801 4802 4783
4783 4802 4803 4784
4784 4803 4804 4785
4785 4804 4805 4786
4786 4805 4806 4787
4787 4806 4807 4788
4788 4807 4808 4789
4789 4808 4809 4790
4790 4809 4810 4791
4791 4810 4811 4792
4792 4811 4812 4793
4793 4812 4813 4794
4794 4813 424 423
152 153 4814 4795
4795 4814 4815 4796
4796 4815 4816 4797
4797 4816 4817 4798
4798 4817 4818 4799
4799 4818 4819 4800
4800 4819 4820 4801
4801 4820 4821 4802
4802 4821 4822 4803
4803 4822 4823 4804
4804 4823 4824 4805
4805 4824 4825 4806
4806 4825 4826 4807
4807 4826 4827 4808
4808 4827 4828 4809
4809 4828 4829 4810
4810 4829 4830 4811
4811 4830 4831 4812
4812 4831 4832 4813
4813 4832 425 424
153 154 4833 4814
4814 4833 4834 4815
4815 4834 4835 4816
4816 4835 4836 4817
4817 4836 4837 4818
4818 4837 4838 4819
4819 4838 4839 4820
4820 4839 4840 4821
4821 4840 4841 4822
4822 4841 4842 4823
4823 4842 4843 4824
4824 4843 4844 4825
4825 4844 4845 4826
4826 4845 4846 4827
4827 4846 4847 4828
4828 4847 4848 4829
4829 4848 4849 4830
4830 4849 4850 4831
4831 4850 4851 4832
4832 4851 426 425
154 155 4852 4833
4833 4852 4853 4834
4834 4853 4854 4835
4835 4854 4855 4836
4836 4855 4856 4837
4837 4856 4857 4838
4838 4857 4858 4839
4839 4858 4859 4840
4840 4859 4860 4841
4841 4860 4861 4842
4842 4861 4862 4843
4843 4862 4863 4844
4844 4863 4864 4845
4845 4864 4865 4846
4846 4865 4866 4847
4847 4866 4867 4848
4848 4867 4868 4849
4849 4868 4869 4850
4850 4869 4870 4851
4851 4870 427 426
155 156 4871 4852
4852 4871 4872 4853
4853 4872 4873 4854
4854 4873 4874 4855
4855 4874 4875 4856
4856 4875 4876 4857
4857 4876 4877 4858
4858 4877 4878 4859
4859 4878 4879 4860
4860 4879 4880 4861
4861 4880 4881 4862
4862 4881 4882 4863
4863 4882 4883 4864
4864 4883 4884 4865
4865 4884 4885 4866
4866 4885 4886 4867
4867 4886 4887 4868
4868 4887 4888 4869
4869 4888 4889 4870
4870 4889 428 427
156 157 4890 4871
4871 4890 4891 4872
4872 4891 4892 4873
4873 4892 4893 4874
4874 4893 4894 4875
4875 4894 4895 4876
4876 4895 4896 4877
4877 4896 4897 4878
4878 4897 4898 4879
4879 4898 4899 4880
4880 4899 4900 4881
4881 4900 4901 4882
4882 4901 4902 4883
4883 4902 4903 4884
4884 4903 4904 4885
4885 4904 4905 4886
4886 4905 4906 4887
4887 4906 4907 4888
4888 4907 4908 4889
4889 4908 429 428
157 158 4909 4890
4890 4909 4910 4891
4891 4910 4911 4892
4892 4911 4912 4893
4893 4912 4913 4894
4894 4913 4914 4895
4895 4914 4915 4896
4896 4915 4916 4897
4897 4916 4917 4898
4898 4917 4918 4899
4899 4918 4919 4900
4900 4919 4920 4901
4901 4920 4921 4902
4902 4921 4922 4903
4903 4922 4923 4904
4904 4923 4924 4905
4905 4924 4925 4906
4906 4925 4926 4907
4907 4926 4927 4908
4908 4927 430 429
158 159 4928 4909
4909 4928 4929 4910
4910 4929 4930 4911
4911 4930 4931 4912
4912 4931 4932 4913
4913 4932 4933 4914
4914 4933 4934 4915
4915 4934 4935 4916
4916 4935 4936 4917
4917 4936 4937 4918
4918 4937 4938 4919
4919 4938 4939 4920
4920 4939 4940 4921
4921 4940 4941 4922
4922 4941 4942 4923
4923 4942 4943 4924
4924 4943 4944 4925
4925 4944 4945 4926
4926 4945 4946 4927
4927 4946 431 430
159 160 4947 4928
4928 4947 4948 4929
4929 4948 4949 4930
4930 4949 4950 4931
4931 4950 4951 4932
4932 4951 4952 4933
4933 4952 4953 4934
4934 4953 4954 4935
4935 4954 4955 4936
4936 4955 4956 4937
4937 4956 4957 4938
4938 4957 4958 4939
4939 4958 4959 4940
4940 4959 4960 4941
4941 4960 4961 4942
4942 4961 4962 4943
4943 4962 4963 4944
4944 4963 4964 4945
4945 4964 4965 4946
4946 4965 432 431
160 161 4966 4947
4947 4966 4967 4948
4948 4967 4968 4949
4949 4968 4969 4950
4950 4969 4970 4951
4951 4970 4971 4952
4952 4971 4972 4953
4953 4972 4973 4954
4954 4973 4974 4955
4955 4974 4975 4956
4956 4975 4976 4957
4957 4976 4977 4958
4958 4977 4978 4959
4959 4978 4979 4960
4960 4979 4980 4961
4961 4980 4981 4962
4962 4981 4982 4963
4963 4982 4983 4964
4964 4983 4984 4965
4965 4984 433 432
161 162 4985 4966
4966 4985 4986 4967
4967 4986 4987 4968
4968 4987 4988 4969
4969 4988 4989 4970
4970 4989 4990 4971
4971 4990 4991 4972
4972 4991 4992 4973
4973 4992 4993 4974
4974 4993 4994 4975
4975 4994 4995 4976
4976 4995 4996 4977
4977 4996 4997 4978
4978 4997 4998 4979
4979 4998 4999 4980
4980 4999 5000 4981
4981 5000 5001 4982
4982 5001 5002 4983
4983 5002 5003 4984
4984 5003 434 433
162 163 5004 4985
4985 5004 5005 4986
4986 5005 5006 4987
4987 5006 5007 4988
4988 5007 5008 4989
4989 5008 5009 4990
4990 5009 5010 4991
4991 5010 5011 4992
4992 5011 5012 4993
4993 5012 5013 4994
4994 5013 5014 4995
4995 5014 5015 4996
4996 5015 5016 4997
4997 5016 5017 4998
4998 5017 5018 4999
4999 5018 5019 5000
5000 5019 5020 5001
5001 5020 5021 5002
5002 5021 5022 5003
5003 5022 435 434
163 164 5023 5004
5004 5023 5024 5005
5005 5024 5025 5006
5006 5025 5026 5007
5007 5026 5027 5008
5008 5027 5028 5009
5009 5028 5029 5010
5010 5029 5030 5011
5011 5030 5031 5012
5012 5031 5032 5013
5013 5032 5033 5014
5014 5033 5034 5015
5015 5034 5035 5016
5016 5035 5036 5017
5017 5036 5037 5018
5018 5037 5038 5019
5019 5038 5039 5020
5020 5039 5040 5021
5021 5040 5041 5022
5022 5041 436 435
164 165 5042 5023
5023 5042 5043 5024
5024 5043 5044 5025
5025 5044 5045 5026
5026 5045 5046 5027
5027 5046 5047 5028
5028 5047 5048 5029
5029 5048 5049 5030
5030 5049 5050 5031
5031 5050 5051 5032
5032 5051 5052 5033
5033 5052 5053 5034
5034 5053 5054 5035
5035 5054 5055 5036
5036 5055 5056 5037
5037 5056 5057 5038
5038 5057 5058 5039
5039 5058 5059 5040
5040 5059 5060 5041
5041 5060 437 436
165 6 242 5042
5042 242 241 5043
5043 241 240 5044
5044 240 239 5045
5045 239 238 5046
5046 238 237 5047
5047 237 236 5048
5048 236 235 5049
5049 235 234 5050
5050 234 233 5051
5051 233 232 5052
5052 232 231 5053
5053 231 230 5054
5054 230 229 5055
5055 229 228 5056
5056 228 227 5057
5057 227 226 5058
5058 226 225 5059
5059 225 224 5060
5060 224 8 437
9 323 5061 400
400 5061 5062 401
401 5062 5063 402
402 5063 5064 403
403 5064 5065 404
404 5065 5066 405
405 5066 5067 406
406 5067 5068 407
407 5068 5069 408
408 5069 5070 409
409 5070 5071 410
410 5071 5072 411
411 5072 5073 412
412 5073 5074 413
413 5074 5075 414
414 5075 5076 415
415 5076 5077 416
416 5077 5078 417
417 5078 5079 418
418 5079 185 7
323 324 5080 5061
5061 5080 5081 5062
5062 5081 5082 5063
5063 5082 5083 5064
5064 5083 5084 5065
5065 5084 5085 5066
5066 5085 5086 5067
5067 5086 5087 5068
5068 5087 5088 5069
5069 5088 5089 5070
5070 5089 5090 5071
5071 5090 5091 5072
5072 5091 5092 5073
5073 5092 5093 5074
5074 5093 5094 5075
5075 5094 5095 5076
5076 5095 5096 5077
5077 5096 5097 5078
5078 5097 5098 5079
5079 5098 186 185
324 325 5099 5080
5080 5099 5100 5081
5081 5100 5101 5082
5082 5101 5102 5083
5083 5102 5103 5084
5084 5103 5104 5085
5085 5104 5105 5086
5086 5105 5106 5087
5087 5106 5107 5088
5088 5107 5108 5089
5089 5108 5109 5090
5090 5109 5110 5091
5091 5110 5111 5092
5092 5111 5112 5093
5093 5112 5113 5094
5094 5113 5114 5095
5095 5114 5115 5096
5096 5115 5116 5097
5097 5116 5117 5098
5098 5117 187 186
325 326 5118 5099
5099 5118 5119 5100
5100 5119 5120 5101
5101 5120 5121 5102
5102 5121 5122 5103
5103 5122 5123 5104
5104 5123 5124 5105
5105 5124 5125 5106
5106 5125 5126 5107
5107 5126 5127 5108
5108 5127 5128 5109
5109 5128 5129 5110
5110 5129 5130 5111
5111 5130 5131 5112
5112 5131 5132 5113
5113 5132 5133 5114
5114 5133 5134 5115
5115 5134 5135 5116
5116 5135 5136 5117
5117 5136 188 187
326 327 5137 5118
5118 5137 5138 5119
5119 5138 5139 5120
5120 5139 5140 5121
5121 5140 5141 5122
5122 5141 5142 5123
5123 5142 5143 5124
5124 5143 5144 5125
5125 5144 5145 5126
5126 5145 5146 5127
5127 5146 5147 5128
5128 5147 5148 5129
5129 5148 5149 5130
5130 5149 5150 5131
5131 5150 5151 5132
5132 5151 5152 5133
5133 5152 5153 5134
5134 5153 5154 5135
5135 5154 5155 5136
5136 5155 189 188
327 328 5156 5137
5137 5156 5157 5138
5138 5157 5158 5139
5139 5158 5159 5140
5140 5159 5160 5141
5141 5160 5161 5142
5142 5161 5162 5143
5143 5162 5163 5144
5144 5163 5164 5145
5145 5164 5165 5146
5146 5165 5166 5147
5147 5166 5167 5148
5148 5167 5168 5149
5149 5168 5169 5150
5150 5169 5170 5151
5151 5170 5171 5152
5152 5171 5172 5153
5153 5172 5173 5154
5154 5173 5174 5155
5155 5174 190 189
328 329 5175 5156
5156 5175 5176 5157
5157 5176 5177 5158
5158 5177 5178 5159
5159 5178 5179 5160
5160 5179 5180 5161
5161 5180 5181 5162
5162 5181 5182 5163
5163 5182 5183 5164
5164 5183 5184 5165
5165 5184 5185 5166
5166 5185 5186 5167
5167 5186 5187 5168
5168 5187 5188 5169
5169 5188 5189 5170
5170 5189 5190 5171
5171 5190 5191 5172
5172 5191 5192 5173
5173 5192 5193 5174
5174 5193 191 190
329 330 5194 5175
5175 5194 5195 5176
5176 5195 5196 5177
5177 5196 5197 5178
5178 5197 5198 5179
5179 5198 5199 5180
5180 5199 5200 5181
5181 5200 5201 5182
5182 5201 5202 5183
5183 5202 5203 5184
5184 5203 5204 5185
5185 5204 5205 5186
5186 5205 5206 5187
5187 5206 5207 5188
5188 5207 5208 5189
5189 5208 5209 5190
5190 5209 5210 5191
5191 5210 5211 5192
5192 5211 5212 5193
5193 5212 192 191
330 331 5213 5194
5194 5213 5214 5195
5195 5214 5215 5196
5196 5215 5216 5197
5197 5216 5217 5198
5198 5217 5218 5199
5199 5218 5219 5200
5200 5219 5220 5201
5201 5220 5221 5202
5202 5221 5222 5203
5203 5222 5223 5204
5204 5223 5224 5205
5205 5224 5225 5206
5206 5225 5226 5207
5207 5226 5227 5208
5208 5227 5228 5209
5209 5228 5229 5210
5210 5229 5230 5211
5211 5230 5231 5212
5212 5231 193 192
331 332 5232 5213
5213 5232 5233 5214
5214 5233 5234 5215
5215 5234 5235 5216
5216 5235 5236 5217
5217 5236 5237 5218
5218 5237 5238 5219
5219 5238 5239 5220
5220 5239 5240 5221
5221 5240 5241 5222
5222 5241 5242 5223
5223 5242 5243 5224
5224 5243 5244 5225
5225 5244 5245 5226
5226 5245 5246 5227
5227 5246 5247 5228
5228 5247 5248 5229
5229 5248 5249 5230
5230 5249 5250 5231
5231 5250 194 193
332 333 5251 5232
5232 5251 5252 5233
5233 5252 5253 5234
5234 5253 5254 5235
5235 5254 5255 5236
5236 5255 5256 5237
5237 5256 5257 5238
5238 5257 5258 5239
5239 5258 5259 5240
5240 5259 5260 5241
5241 5260 5261 5242
5242 5261 5262 5243
5243 5262 5263 5244
5244 5263 5264 5245
5245 5264 5265 5246
5246 5265 5266 5247
5247 5266 5267 5248
5248 5267 5268 5249
5249 5268 5269 5250
5250 5269 195 194
333 334 5270 5251
5251 5270 5271 5252
5252 5271 5272 5253
5253 5272 5273 5254
5254 5273 5274 5255
5255 5274 5275 5256
5256 5275 5276 5257
5257 5276 5277 5258
5258 5277 5278 5259
5259 5278 5279 5260
5260 5279 5280 5261
5261 5280 5281 5262
5262 5281 5282 5263
5263 5282 5283 5264
5264 5283 5284 5265
5265 5284 5285 5266
5266 5285 5286 5267
5267 5286 5287 5268
5268 5287 5288 5269
5269 5288 196 195
334 335 5289 5270
5270 5289 5290 5271
5271 5290 5291 5272
5272 5291 5292 5273
5273 5292 5293 5274
5274 5293 5294 5275
5275 5294 5295 5276
5276 5295 5296 5277
5277 5296 5297 5278
5278 5297 5298 5279
5279 5298 5299 5280
5280 5299 5300 5281
5281 5300 5301 5282
5282 5301 5302 5283
5283 5302 5303 5284
5284 5303 5304 5285
5285 5304 5305 5286
5286 5305 5306 5287
5287 5306 5307 5288
5288 5307 197 196
335 336 5308 5289
5289 5308 5309 5290
5290 5309 5310 5291
5291 5310 5311 5292
5292 5311 5312 5293
5293 5312 5313 5294
5294 5313 5314 5295
5295 5314 5315 5296
5296 5315 5316 5297
5297 5316 5317 5298
5298 5317 5318 5299
5299 5318 5319 5300
5300 5319 5320 5301
5301 5320 5321 5302
5302 5321 5322 5303
5303 5322 5323 5304
5304 5323 5324 5305
5305 5324 5325 5306
5306 5325 5326 5307
5307 5326 198 197
336 337 5327 5308
5308 5327 5328 5309
5309 5328 5329 5310
5310 5329 5330 5311
5311 5330 5331 5312
5312 5331 5332 5313
5313 5332 5333 5314
5314 5333 5334 5315
5315 5334 5335 5316
5316 5335 5336 5317
5317 5336 5337 5318
5318 5337 5338 5319
5319 5338 5339 5320
5320 5339 5340 5321
5321 5340 5341 5322
5322 5341 5342 5323
5323 5342 5343 5324
5324 5343 5344 5325
5325 5344 5345 5326
5326 5345 199 198
337 338 5346 5327
5327 5346 5347 5328
5328 5347 5348 5329
5329 5348 5349 5330
5330 5349 5350 5331
5331 5350 5351 5332
5332 5351 5352 5333
5333 5352 5353 5334
5334 5353 5354 5335
5335 5354 5355 5336
5336 5355 5356 5337
5337 5356 5357 5338
5338 5357 5358 5339
5339 5358 5359 5340
5340 5359 5360 5341
5341 5360 5361 5342
5342 5361 5362 5343
5343 5362 5363 5344
5344 5363 5364 5345
5345 5364 200 199
338 339 5365 5346
5346 5365 5366 5347
5347 5366 5367 5348
5348 5367 5368 5349
5349 5368 5369 5350
5350 5369 5370 5351
5351 5370 5371 5352
5352 5371 5372 5353
5353 5372 5373 5354
5354 5373 5374 5355
5355 5374 5375 5356
5356 5375 5376 5357
5357 5376 5377 5358
5358 5377 5378 5359
5359 5378 5379 5360
5360 5379 5380 5361
5361 5380 5381 5362
5362 5381 5382 5363
5363 5382 5383 5364
5364 5383 201 200
339 340 5384 5365
5365 5384 5385 5366
5366 5385 5386 5367
5367 5386 5387 5368
5368 5387 5388 5369
5369 5388 5389 5370
5370 5389 5390 5371
5371 5390 5391 5372
5372 5391 5392 5373
5373 5392 5393 5374
5374 5393 5394 5375
5375 5394 5395 5376
5376 5395 5396 5377
5377 5396 5397 5378
5378 5397 5398 5379
5379 5398 5399 5380
5380 5399 5400 5381
5381 5400 5401 5382
5382 5401 5402 5383
5383 5402 202 201
340 341 5403 5384
5384 5403 5404 5385
5385 5404 5405 5386
5386 5405 5406 5387
5387 5406 5407 5388
5388 5407 5408 5389
5389 5408 5409 5390
5390 5409 5410 5391
5391 5410 5411 5392
5392 5411 5412 5393
5393 5412 5413 5394
5394 5413 5414 5395
5395 5414 5415 5396
5396 5415 5416 5397
5397 5416 5417 5398
5398 5417 5418 5399
5399 5418 5419 5400
5400 5419 5420 5401
5401 5420 5421 5402
5402 5421 203 202
341 342 5422 5403
5403 5422 5423 5404
5404 5423 5424 5405
5405 5424 5425 5406
5406 5425 5426 5407
5407 5426 5427 5408
5408 5427 5428 5409
5409 5428 5429 5410
5410 5429 5430 5411
5411 5430 5431 5412
5412 5431 5432 5413
5413 5432 5433 5414
5414 5433 5434 5415
5415 5434 5435 5416
5416 5435 5436 5417
5417 5436 5437 5418
5418 5437 5438 5419
5419 5438 5439 5420
5420 5439 5440 5421
5421 5440 204 203
342 343 5441 5422
5422 5441 5442 5423
5423 5442 5443 5424
5424 5443 5444 5425
5425 5444 5445 5426
5426 5445 5446 5427
5427 5446 5447 5428
5428 5447 5448 5429
5429 5448 5449 5430
5430 5449 5450 5431
5431 5450 5451 5432
5432 5451 5452 5433
5433 5452 5453 5434
5434 5453 5454 5435
5435 5454 5455 5436
5436 5455 5456 5437
5437 5456 5457 5438
5438 5457 5458 5439
5439 5458 5459 5440
5440 5459 205 204
343 344 5460 5441
5441 5460 5461 5442
5442 5461 5462 5443
5443 5462 5463 5444
5444 5463 5464 5445
5445 5464 5465 5446
5446 5465 5466 5447
5447 5466 5467 5448
5448 5467 5468 5449
5449 5468 5469 5450
5450 5469 5470 5451
5451 5470 5471 5452
5452 5471 5472 5453
5453 5472 5473 5454
5454 5473 5474 5455
5455 5474 5475 5456
5456 5475 5476 5457
5457 5476 5477 5458
5458 5477 5478 5459
5459 5478 206 205
344 345 5479 5460
5460 5479 5480 5461
5461 5480 5481 5462
5462 5481 5482 5463
5463 5482 5483 5464
5464 5483 5484 5465
5465 5484 5485 5466
5466 5485 5486 5467
5467 5486 5487 5468
5468 5487 5488 5469
5469 5488 5489 5470
5470 5489 5490 5471
5471 5490 5491 5472
5472 5491 5492 5473
5473 5492 5493 5474
5474 5493 5494 5475
5475 5494 5495 5476
5476 5495 5496 5477
5477 5496 5497 5478
5478 5497 207 206
345 346 5498 5479
5479 5498 5499 5480
5480 5499 5500 5481
5481 5500 5501 5482
5482 5501 5502 5483
5483 5502 5503 5484
5484 5503 5504 5485
5485 5504 5505 5486
5486 5505 5506 5487
5487 5506 5507 5488
5488 5507 5508 5489
5489 5508 5509 5490
5490 5509 5510 5491
5491 5510 5511 5492
5492 5511 5512 5493
5493 5512 5513 5494
5494 5513 5514 5495
5495 5514 5515 5496
5496 5515 5516 5497
5497 5516 208 207
346 347 5517 5498
5498 5517 5518 5499
5499 5518 5519 5500
5500 5519 5520 5501
5501 5520 5521 5502
5502 5521 5522 5503
5503 5522 5523 5504
5504 5523 5524 5505
5505 5524 5525 5506
5506 5525 5526 5507
5507 5526 5527 5508
5508 5527 5528 5509
5509 5528 5529 5510
5510 5529 5530 5511
5511 5530 5531 5512
5512 5531 5532 5513
5513 5532 5533 5514
5514 5533 5534 5515
5515 5534 5535 5516
5516 5535 209 208
347 348 5536 5517
5517 5536 5537 5518
5518 5537 5538 5519
5519 5538 5539 5520
5520 5539 5540 5521
5521 5540 5541 5522
5522 5541 5542 5523
5523 5542 5543 5524
5524 5543 5544 5525
5525 5544 5545 5526
5526 5545 5546 5527
5527 5546 5547 5528
5528 5547 5548 5529
5529 5548 5549 5530
5530 5549 5550 5531
5531 5550 5551 5532
5532 5551 5552 5533
5533 5552 5553 5534
5534 5553 5554 5535
5535 5554 210 209
348 349 5555 5536
5536 5555 5556 5537
5537 5556 5557 5538
5538 5557 5558 5539
5539 5558 5559 5540
5540 5559 5560 5541
5541 5560 5561 5542
5542 5561 5562 5543
5543 5562 5563 5544
5544 5563 5564 5545
5545 5564 5565 5546
5546 5565 5566 5547
5547 5566 5567 5548
5548 5567 5568 5549
5549 5568 5569 5550
5550 5569 5570 5551
5551 5570 5571 5552
5552 5571 5572 5553
5553 5572 5573 5554
5554 5573 211 210
349 350 5574 5555
5555 5574 5575 5556
5556 5575 5576 5557
5557 5576 5577 5558
5558 5577 5578 5559
5559 5578 5579 5560
5560 5579 5580 5561
5561 5580 5581 5562
5562 5581 5582 5563
5563 5582 5583 5564
5564 5583 5584 5565
5565 5584 5585 5566
5566 5585 5586 5567
5567 5586 5587 5568
5568 5587 5588 5569
5569 5588 5589 5570
5570 5589 5590 5571
5571 5590 5591 5572
5572 5591 5592 5573
5573 5592 212 211
350 351 5593 5574
5574 5593 5594 5575
5575 5594 5595 5576
5576 5595 5596 5577
5577 5596 5597 5578
5578 5597 5598 5579
5579 5598 5599 5580
5580 5599 5600 5581
5581 5600 5601 5582
5582 5601 5602 5583
5583 5602 5603 5584
5584 5603 5604 5585
5585 5604 5605 5586
5586 5605 5606 5587
5587 5606 5607 5588
5588 5607 5608 5589
5589 5608 5609 5590
5590 5609 5610 5591
5591 5610 5611 5592
5592 5611 213 212
351 352 5612 5593
5593 5612 5613 5594
5594 5613 5614 5595
5595 5614 5615 5596
5596 5615 5616 5597
5597 5616 5617 5598
5598 5617 5618 5599
5599 5618 5619 5600
5600 5619 5620 5601
5601 5620 5621 5602
5602 5621 5622 5603
5603 5622 5623 5604
5604 5623 5624 5605
5605 5624 5625 5606
5606 5625 5626 5607
5607 5626 5627 5608
5608 5627 5628 5609
5609 5628 5629 5610
5610 5629 5630 5611
5611 5630 214 213
352 353 5631 5612
5612 5631 5632 5613
5613 5632 5633 5614
5614 5633 5634 5615
5615 5634 5635 5616
5616 5635 5636 5617
5617 5636 5637 5618
5618 5637 5638 5619
5619 5638 5639 5620
5620 5639 5640 5621
5621 5640 5641 5622
5622 5641 5642 5623
5623 5642 5643 5624
5624 5643 5644 5625
5625 5644 5645 5626
5626 5645 5646 5627
5627 5646 5647 5628
5628 5647 5648 5629
5629 5648 5649 5630
5630 5649 215 214
353 354 5650 5631
5631 5650 5651 5632
5632 5651 5652 5633
5633 5652 5653 5634
5634 5653 5654 5635
5635 5654 5655 5636
5636 5655 5656 5637
5637 5656 5657 5638
5638 5657 5658 5639
5639 5658 5659 5640
5640 5659 5660 5641
5641 5660 5661 5642
5642 5661 5662 5643
5643 5662 5663 5644
5644 5663 5664 5645
5645 5664 5665 5646
5646 5665 5666 5647
5647 5666 5667 5648
5648 5667 5668 5649
5649 5668 216 215
354 355 5669 5650
5650 5669 5670 5651
5651 5670 5671 5652
5652 5671 5672 5653
5653 5672 5673 5654
5654 5673 5674 5655
5655 5674 5675 5656
5656 5675 5676 5657
5657 5676 5677 5658
5658 5677 5678 5659
5659 5678 5679 5660
5660 5679 5680 5661
5661 5680 5681 5662
5662 5681 5682 5663
5663 5682 5683 5664
5664 5683 5684 5665
5665 5684 5685 5666
5666 5685 5686 5667
5667 5686 5687 5668
5668 5687 217 216
355 356 5688 5669
5669 5688 5689 5670
5670 5689 5690 5671
5671 5690 5691 5672
5672 5691 5692 5673
5673 5692 5693 5674
5674 5693 5694 5675
5675 5694 5695 5676
5676 5695 5696 5677
5677 5696 5697 5678
5678 5697 5698 5679
5679 5698 5699 5680
5680 5699 5700 5681
5681 5700 5701 5682
5682 5701 5702 5683
5683 5702 5703 5684
5684 5703 5704 5685
5685 5704 5705 5686
5686 5705 5706 5687
5687 5706 218 217
356 357 5707 5688
5688 5707 5708 5689
5689 5708 5709 5690
5690 5709 5710 5691
5691 5710 5711 5692
5692 5711 5712 5693
5693 5712 5713 5694
5694 5713 5714 5695
5695 5714 5715 5696
5696 5715 5716 5697
5697 5716 5717 5698
5698 5717 5718 5699
5699 5718 5719 5700
5700 5719 5720 5701
5701 5720 5721 5702
5702 5721 5722 5703
5703 5722 5723 5704
5704 5723 5724 5705
5705 5724 5725 5706
5706 5725 219 218
357 358 5726 5707
5707 5726 5727 5708
5708 5727 5728 5709
5709 5728 5729 5710
5710 5729 5730 5711
5711 5730 5731 5712
5712 5731 5732 5713
5713 5732 5733 5714
5714 5733 5734 5715
5715 5734 5735 5716
5716 5735 5736 5717
5717 5736 5737 5718
5718 5737 5738 5719
5719 5738 5739 5720
5720 5739 5740 5721
5721 5740 5741 5722
5722 5741 5742 5723
5723 5742 5743 5724
5724 5743 5744 5725
5725 5744 220 219
358 359 5745 5726
5726 5745 5746 5727
5727 5746 5747 5728
5728 5747 5748 5729
5729 5748 5749 5730
5730 5749 5750 5731
5731 5750 5751 5732
5732 5751 5752 5733
5733 5752 5753 5734
5734 5753 5754 5735
5735 5754 5755 5736
5736 5755 5756 5737
5737 5756 5757 5738
5738 5757 5758 5739
5739 5758 5759 5740
5740 5759 5760 5741
5741 5760 5761 5742
5742 5761 5762 5743
5743 5762 5763 5744
5744 5763 221 220
359 360 5764 5745
5745 5764 5765 5746
5746 5765 5766 5747
5747 5766 5767 5748
5748 5767 5768 5749
5749 5768 5769 5750
5750 5769 5770 5751
5751 5770 5771 5752
5752 5771 5772 5753
5753 5772 5773 5754
5754 5773 5774 5755
5755 5774 5775 5756
5756 5775 5776 5757
5757 5776 5777 5758
5758 5777 5778 5759
5759 5778 5779 5760
5760 5779 5780 5761
5761 5780 5781 5762
5762 5781 5782 5763
5763 5782 222 221
360 361 5783 5764
5764 5783 5784 5765
5765 5784 5785 5766
5766 5785 5786 5767
5767 5786 5787 5768
5768 5787 5788 5769
5769 5788 5789 5770
5770 5789 5790 5771
5771 5790 5791 5772
5772 5791 5792 5773
5773 5792 5793 5774
5774 5793 5794 5775
5775 5794 5795 5776
5776 5795 5796 5777
5777 5796 5797 5778
5778 5797 5798 5779
5779 5798 5799 5780
5780 5799 5800 5781
5781 5800 5801 5782
5782 5801 223 222
361 10 419 5783
5783 419 420 5784
5784 420 421 5785
5785 421 422 5786
5786 422 423 5787
5787 423 424 5788
5788 424 425 5789
5789 425 426 5790
5790 426 427 5791
5791 427 428 5792
5792 428 429 5793
5793 429 430 5794
5794 430 431 5795
5795 431 432 5796
5796 432 433 5797
5797 433 434 5798
5798 434 435 5799
5799 435 436 5800
5800 436 437 5801
5801 437 8 223
</DataArray>
<DataArray type="Int64" Name="offsets" format="ascii">
4
8
12
16
20
24
28
32
36
40
44
48
52
56
60
64
68
72
76
80
84
88
92
96
100
104
108
112
116
120
124
128
132
136
140
144
148
152
156
160
164
168
172
176
180
184
188
192
196
200
204
208
212
216
220
224
228
232
236
240
244
248
252
256
260
264
268
272
276
280
284
288
292
296
300
304
308
312
316
320
324
328
332
336
340
344
348
352
356
360
364
368
372
376
380
384
388
392
396
400
404
408
412
416
420
424
428
432
436
440
444
448
452
456
460
464
468
472
476
480
484
488
492
496
500
504
508
512
516
520
524
528
532
536
540
544
548
552
556
560
564
568
572
576
580
584
588
592
596
600
604
608
612
616
620
624
628
632
636
640
644
648
652
656
660
664
668
672
676
680
684
688
692
696
700
704
708
712
716
720
724
728
732
736
740
744
748
752
756
760
764
768
772
776
780
784
788
792
796
800
804
808
812
816
820
824
828
832
836
840
844
848
852
856
860
864
868
872
876
880
884
888
892
896
900
904
908
912
916
920
924
928
932
936
940
944
948
952
956
960
964
968
972
976
980
984
988
992
996
1000
1004
1008
1012
1016
1020
1024
1028
1032
1036
1040
1044
1048
1052
1056
1060
1064
1068
1072
1076
1080
1084
1088
1092
1096
1100
1104
1108
1112
1116
1120
1124
1128
1132
1136
1140
1144
1148
1152
1156
1160
1164
1168
1172
1176
1180
1184
1188
1192
1196
1200
1204
1208
1212
1216
1220
1224
1228
1232
1236
1240
1244
1248
1252
1256
1260
1264
1268
1272
1276
1280
1284
1288
1292
1296
1300
1304
1308
1312
1316
1320
1324
1328
1332
1336
1340
1344
1348
1352
1356
1360
1364
1368
1372
1376
1380
1384
1388
1392
1396
1400
1404
1408
1412
1416
1420
1424
1428
1432
1436
1440
1444
1448
1452
1456
1460
1464
1468
1472
1476
1480
1484
1488
1492
1496
1500
1504
1508
1512
1516
1520
1524
1528
1532
1536
1540
1544
1548
1552
1556
1560
1564
1568
1572
1576
1580
1584
1588
1592
1596
1600
1604
1608
1612
1616
1620
1624
1628
1632
1636
1640
1644
1648
1652
1656
1660
1664
1668
1672
1676
1680
1684
1688
1692
1696
1700
1704
1708
1712
1716
1720
1724
1728
1732
1736
1740
1744
1748
1752
1756
1760
1764
1768
1772
1776
1780
1784
1788
1792
1796
1800
1804
1808
1812
1816
1820
1824
1828
1832
1836
1840
1844
1848
1852
1856
1860
1864
1868
1872
1876
1880
1884
1888
1892
1896
1900
1904
1908
1912
1916
1920
1924
1928
1932
1936
1940
1944
1948
1952
1956
1960
1964
1968
1972
1976
1980
1984
1988
1992
1996
2000
2004
2008
2012
2016
2020
2024
2028
2032
2036
2040
2044
2048
2052
2056
2060
2064
2068
2072
2076
2080
2084
2088
2092
2096
2100
2104
2108
2112
2116
2120
2124
2128
2132
2136
2140
2144
2148
2152
2156
2160
2164
2168
2172
2176
2180
2184
2188
2192
2196
2200
2204
2208
2212
2216
2220
2224
2228
2232
2236
2240
2244
2248
2252
2256
2260
2264
2268
2272
2276
2280
2284
2288
2292
2296
2300
2304
2308
2312
2316
2320
2324
2328
2332
2336
2340
2344
2348
2352
2356
2360
2364
2368
2372
2376
2380
2384
2388
2392
2396
2400
2404
2408
2412
2416
2420
2424
2428
2432
2436
2440
2444
2448
2452
2456
2460
2464
2468
2472
2476
2480
2484
2488
2492
2496
2500
2504
2508
2512
2516
2520
2524
2528
2532
2536
2540
2544
2548
2552
2556
2560
2564
2568
2572
2576
2580
2584
2588
2592
2596
2600
2604
2608
2612
2616
2620
2624
2628
2632
2636
2640
2644
2648
2652
2656
2660
2664
2668
2672
2676
2680
2684
2688
2692
2696
2700
2704
2708
2712
2716
2720
2724
2728
2732
2736
2740
2744
2748
2752
2756
2760
2764
2768
2772
2776
2780
2784
2788
2792
2796
2800
2804
2808
2812
2816
2820
2824
2828
2832
2836
2840
2844
2848
2852
2856
2860
2864
2868
2872
2876
2880
2884
2888
2892
2896
2900
2904
2908
2912
2916
2920
2924
2928
2932
2936
2940
2944
2948
2952
2956
2960
2964
2968
2972
2976
2980
2984
2988
2992
2996
3000
3004
3008
3012
3016
3020
3024
3028
3032
3036
3040
3044
3048
3052
3056
3060
3064
3068
3072
3076
3080
3084
3088
3092
3096
3100
3104
3108
3112
3116
3120
3124
3128
3132
3136
3140
3144
3148
3152
3156
3160
3164
3168
3172
3176
3180
3184
3188
3192
3196
3200
3204
3208
3212
3216
3220
3224
3228
3232
3236
3240
3244
3248
3252
3256
3260
3264
3268
3272
3276
3280
3284
3288
3292
3296
3300
3304
3308
3312
3316
3320
3324
3328
3332
3336
3340
3344
3348
3352
3356
3360
3364
3368
3372
3376
3380
3384
3388
3392
3396
3400
3404
3408
3412
3416
3420
3424
3428
3432
3436
3440
3444
3448
3452
3456
3460
3464
3468
3472
3476
3480
3484
3488
3492
3496
3500
3504
3508
3512
3516
3520
3524
3528
3532
3536
3540
3544
3548
3552
3556
3560
3564
3568
3572
3576
3580
3584
3588
3592
3596
3600
3604
3608
3612
3616
3620
3624
3628
3632
3636
3640
3644
3648
3652
3656
3660
3664
3668
3672
3676
3680
3684
3688
3692
3696
3700
3704
3708
3712
3716
3720
3724
3728
3732
3736
3740
3744
3748
3752
3756
3760
3764
3768
3772
3776
3780
3784
3788
3792
3796
3800
3804
3808
3812
3816
3820
3824
3828
3832
3836
3840
3844
3848
3852
3856
3860
3864
3868
3872
3876
3880
3884
3888
3892
3896
3900
3904
3908
3912
3916
3920
3924
3928
3932
3936
3940
3944
3948
3952
3956
3960
3964
3968
3972
3976
3980
3984
3988
3992
3996
4000
4004
4008
4012
4016
4020
4024
4028
4032
4036
4040
4044
4048
4052
4056
4060
4064
4068
4072
4076
4080
4084
4088
4092
4096
4100
4104
4108
4112
4116
4120
4124
4128
4132
4136
4140
4144
4148
4152
4156
4160
4164
4168
4172
4176
4180
4184
4188
4192
4196
4200
4204
4208
4212
4216
4220
4224
4228
4232
4236
4240
4244
4248
4252
4256
4260
4264
4268
4272
4276
4280
4284
4288
4292
4296
4300
4304
4308
4312
4316
4320
4324
4328
4332
4336
4340
4344
4348
4352
4356
4360
4364
4368
4372
4376
4380
4384
4388
4392
4396
4400
4404
4408
4412
4416
4420
4424
4428
4432
4436
4440
4444
4448
4452
4456
4460
4464
4468
4472
4476
4480
4484
4488
4492
4496
4500
4504
4508
4512
4516
4520
4524
4528
4532
4536
4540
4544
4548
4552
4556
4560
4564
4568
4572
4576
4580
4584
4588
4592
4596
4600
4604
4608
4612
4616
4620
4624
4628
4632
4636
4640
4644
4648
4652
4656
4660
4664
4668
4672
4676
4680
4684
4688
4692
4696
4700
4704
4708
4712
4716
4720
4724
4728
4732
4736
4740
4744
4748
4752
4756
4760
4764
4768
4772
4776
4780
4784
4788
4792
4796
4800
4804
4808
4812
4816
4820
4824
4828
4832
4836
4840
4844
4848
4852
4856
4860
4864
4868
4872
4876
4880
4884
4888
4892
4896
4900
4904
4908
4912
4916
4920
4924
4928
4932
4936
4940
4944
4948
4952
4956
4960
4964
4968
4972
4976
4980
4984
4988
4992
4996
5000
5004
5008
5012
5016
5020
5024
5028
5032
5036
5040
5044
5048
5052
5056
5060
5064
5068
5072
5076
5080
5084
5088
5092
5096
5100
5104
5108
5112
5116
5120
5124
5128
5132
5136
5140
5144
5148
5152
5156
5160
5164
5168
5172
5176
5180
5184
5188
5192
5196
5200
5204
5208
5212
5216
5220
5224
5228
5232
5236
5240
5244
5248
5252
5256
5260
5264
5268
5272
5276
5280
5284
5288
5292
5296
5300
5304
5308
5312
5316
5320
5324
5328
5332
5336
5340
5344
5348
5352
5356
5360
5364
5368
5372
5376
5380
5384
5388
5392
5396
5400
5404
5408
5412
5416
5420
5424
5428
5432
5436
5440
5444
5448
5452
5456
5460
5464
5468
5472
5476
5480
5484
5488
5492
5496
5500
5504
5508
5512
5516
5520
5524
5528
5532
5536
5540
5544
5548
5552
5556
5560
5564
5568
5572
5576
5580
5584
5588
5592
5596
5600
5604
5608
5612
5616
5620
5624
5628
5632
5636
5640
5644
5648
5652
5656
5660
5664
5668
5672
5676
5680
5684
5688
5692
5696
5700
5704
5708
5712
5716
5720
5724
5728
5732
5736
5740
5744
5748
5752
5756
5760
5764
5768
5772
5776
5780
5784
5788
5792
5796
5800
5804
5808
5812
5816
5820
5824
5828
5832
5836
5840
5844
5848
5852
5856
5860
5864
5868
5872
5876
5880
5884
5888
5892
5896
5900
5904
5908
5912
5916
5920
5924
5928
5932
5936
5940
5944
5948
5952
5956
5960
5964
5968
5972
5976
5980
5984
5988
5992
5996
6000
6004
6008
6012
6016
6020
6024
6028
6032
6036
6040
6044
6048
6052
6056
6060
6064
6068
6072
6076
6080
6084
6088
6092
6096
6100
6104
6108
6112
6116
6120
6124
6128
6132
6136
6140
6144
6148
6152
6156
6160
6164
6168
6172
6176
6180
6184
6188
6192
6196
6200
6204
6208
6212
6216
6220
6224
6228
6232
6236
6240
6244
6248
6252
6256
6260
6264
6268
6272
6276
6280
6284
6288
6292
6296
6300
6304
6308
6312
6316
6320
6324
6328
6332
6336
6340
6344
6348
6352
6356
6360
6364
6368
6372
6376
6380
6384
6388
6392
6396
6400
6404
6408
6412
6416
6420
6424
6428
6432
6436
6440
6444
6448
6452
6456
6460
6464
6468
6472
6476
6480
6484
6488
6492
6496
6500
6504
6508
6512
6516
6520
6524
6528
6532
6536
6540
6544
6548
6552
6556
6560
6564
6568
6572
6576
6580
6584
6588
6592
6596
6600
6604
6608
6612
6616
6620
6624
6628
6632
6636
6640
6644
6648
6652
6656
6660
6664
6668
6672
6676
6680
6684
6688
6692
6696
6700
6704
6708
6712
6716
6720
6724
6728
6732
6736
6740
6744
6748
6752
6756
6760
6764
6768
6772
6776
6780
6784
6788
6792
6796
6800
6804
6808
6812
6816
6820
6824
6828
6832
6836
6840
6844
6848
6852
6856
6860
6864
6868
6872
6876
6880
6884
6888
6892
6896
6900
6904
6908
6912
6916
6920
6924
6928
6932
6936
6940
6944
6948
6952
6956
6960
6964
6968
6972
6976
6980
6984
6988
6992
6996
7000
7004
7008
7012
7016
7020
7024
7028
7032
7036
7040
7044
7048
7052
7056
7060
7064
7068
7072
7076
7080
7084
7088
7092
7096
7100
7104
7108
7112
7116
7120
7124
7128
7132
7136
7140
7144
7148
7152
7156
7160
7164
7168
7172
7176
7180
7184
7188
7192
7196
7200
7204
7208
7212
7216
7220
7224
7228
7232
7236
7240
7244
7248
7252
7256
7260
7264
7268
7272
7276
7280
7284
7288
7292
7296
7300
7304
7308
7312
7316
7320
7324
7328
7332
7336
7340
7344
7348
7352
7356
7360
7364
7368
7372
7376
7380
7384
7388
7392
7396
7400
7404
7408
7412
7416
7420
7424
7428
7432
7436
7440
7444
7448
7452
7456
7460
7464
7468
7472
7476
7480
7484
7488
7492
7496
7500
7504
7508
7512
7516
7520
7524
7528
7532
7536
7540
7544
7548
7552
7556
7560
7564
7568
7572
7576
7580
7584
7588
7592
7596
7600
7604
7608
7612
7616
7620
7624
7628
7632
7636
7640
7644
7648
7652
7656
7660
7664
7668
7672
7676
7680
7684
7688
7692
7696
7700
7704
7708
7712
7716
7720
7724
7728
7732
7736
7740
7744
7748
7752
7756
7760
7764
7768
7772
7776
7780
7784
7788
7792
7796
7800
7804
7808
7812
7816
7820
7824
7828
7832
7836
7840
7844
7848
7852
7856
7860
7864
7868
7872
7876
7880
7884
7888
7892
7896
7900
7904
7908
7912
7916
7920
7924
7928
7932
7936
7940
7944
7948
7952
7956
7960
7964
7968
7972
7976
7980
7984
7988
7992
7996
8000
8004
8008
8012
8016
8020
8024
8028
8032
8036
8040
8044
8048
8052
8056
8060
8064
8068
8072
8076
8080
8084
8088
8092
8096
8100
8104
8108
8112
8116
8120
8124
8128
8132
8136
8140
8144
8148
8152
8156
8160
8164
8168
8172
8176
8180
8184
8188
8192
8196
8200
8204
8208
8212
8216
8220
8224
8228
8232
8236
8240
8244
8248
8252
8256
8260
8264
8268
8272
8276
8280
8284
8288
8292
8296
8300
8304
8308
8312
8316
8320
8324
8328
8332
8336
8340
8344
8348
8352
8356
8360
8364
8368
8372
8376
8380
8384
8388
8392
8396
8400
8404
8408
8412
8416
8420
8424
8428
8432
8436
8440
8444
8448
8452
8456
8460
8464
8468
8472
8476
8480
8484
8488
8492
8496
8500
8504
8508
8512
8516
8520
8524
8528
8532
8536
8540
8544
8548
8552
8556
8560
8564
8568
8572
8576
8580
8584
8588
8592
8596
8600
8604
8608
8612
8616
8620
8624
8628
8632
8636
8640
8644
8648
8652
8656
8660
8664
8668
8672
8676
8680
8684
8688
8692
8696
8700
8704
8708
8712
8716
8720
8724
8728
8732
8736
8740
8744
8748
8752
8756
8760
8764
8768
8772
8776
8780
8784
8788
8792
8796
8800
8804
8808
8812
8816
8820
8824
8828
8832
8836
8840
8844
8848
8852
8856
8860
8864
8868
8872
8876
8880
8884
8888
8892
8896
8900
8904
8908
8912
8916
8920
8924
8928
8932
8936
8940
8944
8948
8952
8956
8960
8964
8968
8972
8976
8980
8984
8988
8992
8996
9000
9004
9008
9012
9016
9020
9024
9028
9032
9036
9040
9044
9048
9052
9056
9060
9064
9068
9072
9076
9080
9084
9088
9092
9096
9100
9104
9108
9112
9116
9120
9124
9128
9132
9136
9140
9144
9148
9152
9156
9160
9164
9168
9172
9176
9180
9184
9188
9192
9196
9200
9204
9208
9212
9216
9220
9224
9228
9232
9236
9240
9244
9248
9252
9256
9260
9264
9268
9272
9276
9280
9284
9288
9292
9296
9300
9304
9308
9312
9316
9320
9324
9328
9332
9336
9340
9344
9348
9352
9356
9360
9364
9368
9372
9376
9380
9384
9388
9392
9396
9400
9404
9408
9412
9416
9420
9424
9428
9432
9436
9440
9444
9448
9452
9456
9460
9464
9468
9472
9476
9480
9484
9488
9492
9496
9500
9504
9508
9512
9516
9520
9524
9528
9532
9536
9540
9544
9548
9552
9556
9560
9564
9568
9572
9576
9580
9584
9588
9592
9596
9600
9604
9608
9612
9616
9620
9624
9628
9632
9636
9640
9644
9648
9652
9656
9660
9664
9668
9672
9676
9680
9684
9688
9692
9696
9700
9704
9708
9712
9716
9720
9724
9728
9732
9736
9740
9744
9748
9752
9756
9760
9764
9768
9772
9776
9780
9784
9788
9792
9796
9800
9804
9808
9812
9816
9820
9824
9828
9832
9836
9840
9844
9848
9852
9856
9860
9864
9868
9872
9876
9880
9884
9888
9892
9896
9900
9904
9908
9912
9916
9920
9924
9928
9932
9936
9940
9944
9948
9952
9956
9960
9964
9968
9972
9976
9980
9984
9988
9992
9996
10000
10004
10008
10012
10016
10020
10024
10028
10032
10036
10040
10044
10048
10052
10056
10060
10064
10068
10072
10076
10080
10084
10088
10092
10096
10100
10104
10108
10112
10116
10120
10124
10128
10132
10136
10140
10144
10148
10152
10156
10160
10164
10168
10172
10176
10180
10184
10188
10192
10196
10200
10204
10208
10212
10216
10220
10224
10228
10232
10236
10240
10244
10248
10252
10256
10260
10264
10268
10272
10276
10280
10284
10288
10292
10296
10300
10304
10308
10312
10316
10320
10324
10328
10332
10336
10340
10344
10348
10352
10356
10360
10364
10368
10372
10376
10380
10384
10388
10392
10396
10400
10404
10408
10412
10416
10420
10424
10428
10432
10436
10440
10444
10448
10452
10456
10460
10464
10468
10472
10476
10480
10484
10488
10492
10496
10500
10504
10508
10512
10516
10520
10524
10528
10532
10536
10540
10544
10548
10552
10556
10560
10564
10568
10572
10576
10580
10584
10588
10592
10596
10600
10604
10608
10612
10616
10620
10624
10628
10632
10636
10640
10644
10648
10652
10656
10660
10664
10668
10672
10676
10680
10684
10688
10692
10696
10700
10704
10708
10712
10716
10720
10724
10728
10732
10736
10740
10744
10748
10752
10756
10760
10764
10768
10772
10776
10780
10784
10788
10792
10796
10800
10804
10808
10812
10816
10820
10824
10828
10832
10836
10840
10844
10848
10852
10856
10860
10864
10868
10872
10876
10880
10884
10888
10892
10896
10900
10904
10908
10912
10916
10920
10924
10928
10932
10936
10940
10944
10948
10952
10956
10960
10964
10968
10972
10976
10980
10984
10988
10992
10996
11000
11004
11008
11012
11016
11020
11024
11028
11032
11036
11040
11044
11048
11052
11056
11060
11064
11068
11072
11076
11080
11084
11088
11092
11096
11100
11104
11108
11112
11116
11120
11124
11128
11132
11136
11140
11144
11148
11152
11156
11160
11164
11168
11172
11176
11180
11184
11188
11192
11196
11200
11204
11208
11212
11216
11220
11224
11228
11232
11236
11240
11244
11248
11252
11256
11260
11264
11268
11272
11276
11280
11284
11288
11292
11296
11300
11304
11308
11312
11316
11320
11324
11328
11332
11336
11340
11344
11348
11352
11356
11360
11364
11368
11372
11376
11380
11384
11388
11392
11396
11400
11404
11408
11412
11416
11420
11424
11428
11432
11436
11440
11444
11448
11452
11456
11460
11464
11468
11472
11476
11480
11484
11488
11492
11496
11500
11504
11508
11512
11516
11520
11524
11528
11532
11536
11540
11544
11548
11552
11556
11560
11564
11568
11572
11576
11580
11584
11588
11592
11596
11600
11604
11608
11612
11616
11620
11624
11628
11632
11636
11640
11644
11648
11652
11656
11660
11664
11668
11672
11676
11680
11684
11688
11692
11696
11700
11704
11708
11712
11716
11720
11724
11728
11732
11736
11740
11744
11748
11752
11756
11760
11764
11768
11772
11776
11780
11784
11788
11792
11796
11800
11804
11808
11812
11816
11820
11824
11828
11832
11836
11840
11844
11848
11852
11856
11860
11864
11868
11872
11876
11880
11884
11888
11892
11896
11900
11904
11908
11912
11916
11920
11924
11928
11932
11936
11940
11944
11948
11952
11956
11960
11964
11968
11972
11976
11980
11984
11988
11992
11996
12000
12004
12008
12012
12016
12020
12024
12028
12032
12036
12040
12044
12048
12052
12056
12060
12064
12068
12072
12076
12080
12084
12088
12092
12096
12100
12104
12108
12112
12116
12120
12124
12128
12132
12136
12140
12144
12148
12152
12156
12160
12164
12168
12172
12176
12180
12184
12188
12192
12196
12200
12204
12208
12212
12216
12220
12224
12228
12232
12236
12240
12244
12248
12252
12256
12260
12264
12268
12272
12276
12280
12284
12288
12292
12296
12300
12304
12308
12312
12316
12320
12324
12328
12332
12336
12340
12344
12348
12352
12356
12360
12364
12368
12372
12376
12380
12384
12388
12392
12396
12400
12404
12408
12412
12416
12420
12424
12428
12432
12436
12440
12444
12448
12452
12456
12460
12464
12468
12472
12476
12480
12484
12488
12492
12496
12500
12504
12508
12512
12516
12520
12524
12528
12532
12536
12540
12544
12548
12552
12556
12560
12564
12568
12572
12576
12580
12584
12588
12592
12596
12600
12604
12608
12612
12616
12620
12624
12628
12632
12636
12640
12644
12648
12652
12656
12660
12664
12668
12672
12676
12680
12684
12688
12692
12696
12700
12704
12708
12712
12716
12720
12724
12728
12732
12736
12740
12744
12748
12752
12756
12760
12764
12768
12772
12776
12780
12784
12788
12792
12796
12800
12804
12808
12812
12816
12820
12824
12828
12832
12836
12840
12844
12848
12852
12856
12860
12864
12868
12872
12876
12880
12884
12888
12892
12896
12900
12904
12908
12912
12916
12920
12924
12928
12932
12936
12940
12944
12948
12952
12956
12960
12964
12968
12972
12976
12980
12984
12988
12992
12996
13000
13004
13008
13012
13016
13020
13024
13028
13032
13036
13040
13044
13048
13052
13056
13060
13064
13068
13072
13076
13080
13084
13088
13092
13096
13100
13104
13108
13112
13116
13120
13124
13128
13132
13136
13140
13144
13148
13152
13156
13160
13164
13168
13172
13176
13180
13184
13188
13192
13196
13200
13204
13208
13212
13216
13220
13224
13228
13232
13236
13240
13244
13248
13252
13256
13260
13264
13268
13272
13276
13280
13284
13288
13292
13296
13300
13304
13308
13312
13316
13320
13324
13328
13332
13336
13340
13344
13348
13352
13356
13360
13364
13368
13372
13376
13380
13384
13388
13392
13396
13400
13404
13408
13412
13416
13420
13424
13428
13432
13436
13440
13444
13448
13452
13456
13460
13464
13468
13472
13476
13480
13484
13488
13492
13496
13500
13504
13508
13512
13516
13520
13524
13528
13532
13536
13540
13544
13548
13552
13556
13560
13564
13568
13572
13576
13580
13584
13588
13592
13596
13600
13604
13608
13612
13616
13620
13624
13628
13632
13636
13640
13644
13648
13652
13656
13660
13664
13668
13672
13676
13680
13684
13688
13692
13696
13700
13704
13708
13712
13716
13720
13724
13728
13732
13736
13740
13744
13748
13752
13756
13760
13764
13768
13772
13776
13780
13784
13788
13792
13796
13800
13804
13808
13812
13816
13820
13824
13828
13832
13836
13840
13844
13848
13852
13856
13860
13864
13868
13872
13876
13880
13884
13888
13892
13896
13900
13904
13908
13912
13916
13920
13924
13928
13932
13936
13940
13944
13948
13952
13956
13960
13964
13968
13972
13976
13980
13984
13988
13992
13996
14000
14004
14008
14012
14016
14020
14024
14028
14032
14036
14040
14044
14048
14052
14056
14060
14064
14068
14072
14076
14080
14084
14088
14092
14096
14100
14104
14108
14112
14116
14120
14124
14128
14132
14136
14140
14144
14148
14152
14156
14160
14164
14168
14172
14176
14180
14184
14188
14192
14196
14200
14204
14208
14212
14216
14220
14224
14228
14232
14236
14240
14244
14248
14252
14256
14260
14264
14268
14272
14276
14280
14284
14288
14292
14296
14300
14304
14308
14312
14316
14320
14324
14328
14332
14336
14340
14344
14348
14352
14356
14360
14364
14368
14372
14376
14380
14384
14388
14392
14396
14400
14404
14408
14412
14416
14420
14424
14428
14432
14436
14440
14444
14448
14452
14456
14460
14464
14468
14472
14476
14480
14484
14488
14492
14496
14500
14504
14508
14512
14516
14520
14524
14528
14532
14536
14540
14544
14548
14552
14556
14560
14564
14568
14572
14576
14580
14584
14588
14592
14596
14600
14604
14608
14612
14616
14620
14624
14628
14632
14636
14640
14644
14648
14652
14656
14660
14664
14668
14672
14676
14680
14684
14688
14692
14696
14700
14704
14708
14712
14716
14720
14724
14728
14732
14736
14740
14744
14748
14752
14756
14760
14764
14768
14772
14776
14780
14784
14788
14792
14796
14800
14804
14808
14812
14816
14820
14824
14828
14832
14836
14840
14844
14848
14852
14856
14860
14864
14868
14872
14876
14880
14884
14888
14892
14896
14900
14904
14908
14912
14916
14920
14924
14928
14932
14936
14940
14944
14948
14952
14956
14960
14964
14968
14972
14976
14980
14984
14988
14992
14996
15000
15004
15008
15012
15016
15020
15024
15028
15032
15036
15040
15044
15048
15052
15056
15060
15064
15068
15072
15076
15080
15084
15088
15092
15096
15100
15104
15108
15112
15116
15120
15124
15128
15132
15136
15140
15144
15148
15152
15156
15160
15164
15168
15172
15176
15180
15184
15188
15192
15196
15200
15204
15208
15212
15216
15220
15224
15228
15232
15236
15240
15244
15248
15252
15256
15260
15264
15268
15272
15276
15280
15284
15288
15292
15296
15300
15304
15308
15312
15316
15320
15324
15328
15332
15336
15340
15344
15348
15352
15356
15360
15364
15368
15372
15376
15380
15384
15388
15392
15396
15400
15404
15408
15412
15416
15420
15424
15428
15432
15436
15440
15444
15448
15452
15456
15460
15464
15468
15472
15476
15480
15484
15488
15492
15496
15500
15504
15508
15512
15516
15520
15524
15528
15532
15536
15540
15544
15548
15552
15556
15560
15564
15568
15572
15576
15580
15584
15588
15592
15596
15600
15604
15608
15612
15616
15620
15624
15628
15632
15636
15640
15644
15648
15652
15656
15660
15664
15668
15672
15676
15680
15684
15688
15692
15696
15700
15704
15708
15712
15716
15720
15724
15728
15732
15736
15740
15744
15748
15752
15756
15760
15764
15768
15772
15776
15780
15784
15788
15792
15796
15800
15804
15808
15812
15816
15820
15824
15828
15832
15836
15840
15844
15848
15852
15856
15860
15864
15868
15872
15876
15880
15884
15888
15892
15896
15900
15904
15908
15912
15916
15920
15924
15928
15932
15936
15940
15944
15948
15952
15956
15960
15964
15968
15972
15976
15980
15984
15988
15992
15996
16000
16004
16008
16012
16016
16020
16024
16028
16032
16036
16040
16044
16048
16052
16056
16060
16064
16068
16072
16076
16080
16084
16088
16092
16096
16100
16104
16108
16112
16116
16120
16124
16128
16132
16136
16140
16144
16148
16152
16156
16160
16164
16168
16172
16176
16180
16184
16188
16192
16196
16200
16204
16208
16212
16216
16220
16224
16228
16232
16236
16240
16244
16248
16252
16256
16260
16264
16268
16272
16276
16280
16284
16288
16292
16296
16300
16304
16308
16312
16316
16320
16324
16328
16332
16336
16340
16344
16348
16352
16356
16360
16364
16368
16372
16376
16380
16384
16388
16392
16396
16400
16404
16408
16412
16416
16420
16424
16428
16432
16436
16440
16444
16448
16452
16456
16460
16464
16468
16472
16476
16480
16484
16488
16492
16496
16500
16504
16508
16512
16516
16520
16524
16528
16532
16536
16540
16544
16548
16552
16556
16560
16564
16568
16572
16576
16580
16584
16588
16592
16596
16600
16604
16608
16612
16616
16620
16624
16628
16632
16636
16640
16644
16648
16652
16656
16660
16664
16668
16672
16676
16680
16684
16688
16692
16696
16700
16704
16708
16712
16716
16720
16724
16728
16732
16736
16740
16744
16748
16752
16756
16760
16764
16768
16772
16776
16780
16784
16788
16792
16796
16800
16804
16808
16812
16816
16820
16824
16828
16832
16836
16840
16844
16848
16852
16856
16860
16864
16868
16872
16876
16880
16884
16888
16892
16896
16900
16904
16908
16912
16916
16920
16924
16928
16932
16936
16940
16944
16948
16952
16956
16960
16964
16968
16972
16976
16980
16984
16988
16992
16996
17000
17004
17008
17012
17016
17020
17024
17028
17032
17036
17040
17044
17048
17052
17056
17060
17064
17068
17072
17076
17080
17084
17088
17092
17096
17100
17104
17108
17112
17116
17120
17124
17128
17132
17136
17140
17144
17148
17152
17156
17160
17164
17168
17172
17176
17180
17184
17188
17192
17196
17200
17204
17208
17212
17216
17220
17224
17228
17232
17236
17240
17244
17248
17252
17256
17260
17264
17268
17272
17276
17280
17284
17288
17292
17296
17300
17304
17308
17312
17316
17320
17324
17328
17332
17336
17340
17344
17348
17352
17356
17360
17364
17368
17372
17376
17380
17384
17388
17392
17396
17400
17404
17408
17412
17416
17420
17424
17428
17432
17436
17440
17444
17448
17452
17456
17460
17464
17468
17472
17476
17480
17484
17488
17492
17496
17500
17504
17508
17512
17516
17520
17524
17528
17532
17536
17540
17544
17548
17552
17556
17560
17564
17568
17572
17576
17580
17584
17588
17592
17596
17600
17604
17608
17612
17616
17620
17624
17628
17632
17636
17640
17644
17648
17652
17656
17660
17664
17668
17672
17676
17680
17684
17688
17692
17696
17700
17704
17708
17712
17716
17720
17724
17728
17732
17736
17740
17744
17748
17752
17756
17760
17764
17768
17772
17776
17780
17784
17788
17792
17796
17800
17804
17808
17812
17816
17820
17824
17828
17832
17836
17840
17844
17848
17852
17856
17860
17864
17868
17872
17876
17880
17884
17888
17892
17896
17900
17904
17908
17912
17916
17920
17924
17928
17932
17936
17940
17944
17948
17952
17956
17960
17964
17968
17972
17976
17980
17984
17988
17992
17996
18000
18004
18008
18012
18016
18020
18024
18028
18032
18036
18040
18044
18048
18052
18056
18060
18064
18068
18072
18076
18080
18084
18088
18092
18096
18100
18104
18108
18112
18116
18120
18124
18128
18132
18136
18140
18144
18148
18152
18156
18160
18164
18168
18172
18176
18180
18184
18188
18192
18196
18200
18204
18208
18212
18216
18220
18224
18228
18232
18236
18240
18244
18248
18252
18256
18260
18264
18268
18272
18276
18280
18284
18288
18292
18296
18300
18304
18308
18312
18316
18320
18324
18328
18332
18336
18340
18344
18348
18352
18356
18360
18364
18368
18372
18376
18380
18384
18388
18392
18396
18400
18404
18408
18412
18416
18420
18424
18428
18432
18436
18440
18444
18448
18452
18456
18460
18464
18468
18472
18476
18480
18484
18488
18492
18496
18500
18504
18508
18512
18516
18520
18524
18528
18532
18536
18540
18544
18548
18552
18556
18560
18564
18568
18572
18576
18580
18584
18588
18592
18596
18600
18604
18608
18612
18616
18620
18624
18628
18632
18636
18640
18644
18648
18652
18656
18660
18664
18668
18672
18676
18680
18684
18688
18692
18696
18700
18704
18708
18712
18716
18720
18724
18728
18732
18736
18740
18744
18748
18752
18756
18760
18764
18768
18772
18776
18780
18784
18788
18792
18796
18800
18804
18808
18812
18816
18820
18824
18828
18832
18836
18840
18844
18848
18852
18856
18860
18864
18868
18872
18876
18880
18884
18888
18892
18896
18900
18904
18908
18912
18916
18920
18924
18928
18932
18936
18940
18944
18948
18952
18956
18960
18964
18968
18972
18976
18980
18984
18988
18992
18996
19000
19004
19008
19012
19016
19020
19024
19028
19032
19036
19040
19044
19048
19052
19056
19060
19064
19068
19072
19076
19080
19084
19088
19092
19096
19100
19104
19108
19112
19116
19120
19124
19128
19132
19136
19140
19144
19148
19152
19156
19160
19164
19168
19172
19176
19180
19184
19188
19192
19196
19200
19204
19208
19212
19216
19220
19224
19228
19232
19236
19240
19244
19248
19252
19256
19260
19264
19268
19272
19276
19280
19284
19288
19292
19296
19300
19304
19308
19312
19316
19320
19324
19328
19332
19336
19340
19344
19348
19352
19356
19360
19364
19368
19372
19376
19380
19384
19388
19392
19396
19400
19404
19408
19412
19416
19420
19424
19428
19432
19436
19440
19444
19448
19452
19456
19460
19464
19468
19472
19476
19480
19484
19488
19492
19496
19500
19504
19508
19512
19516
19520
19524
19528
19532
19536
19540
19544
19548
19552
19556
19560
19564
19568
19572
19576
19580
19584
19588
19592
19596
19600
19604
19608
19612
19616
19620
19624
19628
19632
19636
19640
19644
19648
19652
19656
19660
19664
19668
19672
19676
19680
19684
19688
19692
19696
19700
19704
19708
19712
19716
19720
19724
19728
19732
19736
19740
19744
19748
19752
19756
19760
19764
19768
19772
19776
19780
19784
19788
19792
19796
19800
19804
19808
19812
19816
19820
19824
19828
19832
19836
19840
19844
19848
19852
19856
19860
19864
19868
19872
19876
19880
19884
19888
19892
19896
19900
19904
19908
19912
19916
19920
19924
19928
19932
19936
19940
19944
19948
19952
19956
19960
19964
19968
19972
19976
19980
19984
19988
19992
19996
20000
20004
20008
20012
20016
20020
20024
20028
20032
20036
20040
20044
20048
20052
20056
20060
20064
20068
20072
20076
20080
20084
20088
20092
20096
20100
20104
20108
20112
20116
20120
20124
20128
20132
20136
20140
20144
20148
20152
20156
20160
20164
20168
20172
20176
20180
20184
20188
20192
20196
20200
20204
20208
20212
20216
20220
20224
20228
20232
20236
20240
20244
20248
20252
20256
20260
20264
20268
20272
20276
20280
20284
20288
20292
20296
20300
20304
20308
20312
20316
20320
20324
20328
20332
20336
20340
20344
20348
20352
20356
20360
20364
20368
20372
20376
20380
20384
20388
20392
20396
20400
20404
20408
20412
20416
20420
20424
20428
20432
20436
20440
20444
20448
20452
20456
20460
20464
20468
20472
20476
20480
20484
20488
20492
20496
20500
20504
20508
20512
20516
20520
20524
20528
20532
20536
20540
20544
20548
20552
20556
20560
20564
20568
20572
20576
20580
20584
20588
20592
20596
20600
20604
20608
20612
20616
20620
20624
20628
20632
20636
20640
20644
20648
20652
20656
20660
20664
20668
20672
20676
20680
20684
20688
20692
20696
20700
20704
20708
20712
20716
20720
20724
20728
20732
20736
20740
20744
20748
20752
20756
20760
20764
20768
20772
20776
20780
20784
20788
20792
20796
20800
20804
20808
20812
20816
20820
20824
20828
20832
20836
20840
20844
20848
20852
20856
20860
20864
20868
20872
20876
20880
20884
20888
20892
20896
20900
20904
20908
20912
20916
20920
20924
20928
20932
20936
20940
20944
20948
20952
20956
20960
20964
20968
20972
20976
20980
20984
20988
20992
20996
21000
21004
21008
21012
21016
21020
21024
21028
21032
21036
21040
21044
21048
21052
21056
21060
21064
21068
21072
21076
21080
21084
21088
21092
21096
21100
21104
21108
21112
21116
21120
21124
21128
21132
21136
21140
21144
21148
21152
21156
21160
21164
21168
21172
21176
21180
21184
21188
21192
21196
21200
21204
21208
21212
21216
21220
21224
21228
21232
21236
21240
21244
21248
21252
21256
21260
21264
21268
21272
21276
21280
21284
21288
21292
21296
21300
21304
21308
21312
21316
21320
21324
21328
21332
21336
21340
21344
21348
21352
21356
21360
21364
21368
21372
21376
21380
21384
21388
21392
21396
21400
21404
21408
21412
21416
21420
21424
21428
21432
21436
21440
21444
21448
21452
21456
21460
21464
21468
21472
21476
21480
21484
21488
21492
21496
21500
21504
21508
21512
21516
21520
21524
21528
21532
21536
21540
21544
21548
21552
21556
21560
21564
21568
21572
21576
21580
21584
21588
21592
21596
21600
21604
21608
21612
21616
21620
21624
21628
21632
21636
21640
21644
21648
21652
21656
21660
21664
21668
21672
21676
21680
21684
21688
21692
21696
21700
21704
21708
21712
21716
21720
21724
21728
21732
21736
21740
21744
21748
21752
21756
21760
21764
21768
21772
21776
21780
21784
21788
21792
21796
21800
21804
21808
21812
21816
21820
21824
21828
21832
21836
21840
21844
21848
21852
21856
21860
21864
21868
21872
21876
21880
21884
21888
21892
21896
21900
21904
21908
21912
21916
21920
21924
21928
21932
21936
21940
21944
21948
21952
21956
21960
21964
21968
21972
21976
21980
21984
21988
21992
21996
22000
22004
22008
22012
22016
22020
22024
22028
22032
22036
22040
22044
22048
22052
22056
22060
22064
22068
22072
22076
22080
22084
22088
22092
22096
22100
22104
22108
22112
22116
22120
22124
22128
22132
22136
22140
22144
22148
22152
22156
22160
22164
22168
22172
22176
22180
22184
22188
22192
22196
22200
22204
22208
22212
22216
22220
22224
22228
22232
22236
22240
22244
22248
22252
22256
22260
22264
22268
22272
22276
22280
22284
22288
22292
22296
22300
22304
22308
22312
22316
22320
22324
22328
22332
22336
22340
22344
22348
22352
22356
22360
22364
22368
22372
22376
22380
22384
22388
22392
22396
22400
22404
22408
22412
22416
22420
22424
22428
22432
22436
22440
22444
22448
22452
22456
22460
22464
22468
22472
22476
22480
22484
22488
22492
22496
22500
22504
22508
22512
22516
22520
22524
22528
22532
22536
22540
22544
22548
22552
22556
22560
22564
22568
22572
22576
22580
22584
22588
22592
22596
22600
22604
22608
22612
22616
22620
22624
22628
22632
22636
22640
22644
22648
22652
22656
22660
22664
22668
22672
22676
22680
22684
22688
22692
22696
22700
22704
22708
22712
22716
22720
</DataArray>
<DataArray type="Int64" Name="types" format="ascii">
9
9
9
9
9
9
9
9
9
9
9
9
9
9
9
9
9
9
9
9
9
9
9
9
9
9
9
9
9
9
9
9
9
9
9
9
9
9
9
9
9
9
9
9
9
9
9
9
9
9
9
9
9
9
9
9
9
9
9
9
9
9
9
9
9
9
9
9
9
9
9
9
9
9
9
9
9
9
9
9
9
9
9
9
9
9
9
9
9
9
9
9
9
9
9
9
9
9
9
9
9
9
9
9
9
9
9
9
9
9
9
9
9
9
9
9
9
9
9
9
9
9
9
9
9
9
9
9
9
9
9
9
9
9
9
9
9
9
9
9
9
9
9
9
9
9
9
9
9
9
9
9
9
9
9
9
9
9
9
9
9
9
9
9
9
9
9
9
9
9
9
9
9
9
9
9
9
9
9
9
9
9
9
9
9
9
9
9
9
9
9
9
9
9
9
9
9
9
9
9
9
9
9
9
9
9
9
9
9
9
9
9
9
9
9
9
9
9
9
9
9
9
9
9
9
9
9
9
9
9
9
9
9
9
9
9
9
9
9
9
9
9
9
9
9
9
9
9
9
9
9
9
9
9
9
9
9
9
9
9
9
9
9
9
9
9
9
9
9
9
9
9
9
9
9
9
9
9
9
9
9
9
9
9
9
9
9
9
9
9
9
9
9
9
9
9
9
9
9
9
9
9
9
9
9
9
9
9
9
9
9
9
9
9
9
9
9
9
9
9
9
9
9
9
9
9
9
9
9
9
9
9
9
9
9
9
9
9
9
9
9
9
9
9
9
9
9
9
9
9
9
9
9
9
9
9
9
9
9
9
9
9
9
9
9
9
9
9
9
9
9
9
9
9
9
9
9
9
9
9
9
9
9
9
9
9
9
9
9
9
9
9
9
9
9
9
9
9
9
9
9
9
9
9
9
9
9
9
9
9
9
9
9
9
9
9
9
9
9
9
9
9
9
9
9
9
9
9
9
9
9
9
9
9
9
9
9
9
9
9
9
9
9
9
9
9
9
9
9
9
9
9
9
9
9
9
9
9
9
9
9
9
9
9
9
9
9
9
9
9
9
9
9
9
9
9
9
9
9
9
9
9
9
9
9
9
9
9
9
9
9
9
9
9
9
9
9
9
9
9
9
9
9
9
9
9
9
9
9
9
9
9
9
9
9
9
9
9
9
9
9
9
9
9
9
9
9
9
9
9
9
9
9
9
9
9
9
9
9
9
9
9
9
9
9
9
9
9
9
9
9
9
9
9
9
9
9
9
9
9
9
9
9
9
9
9
9
9
9
9
9
9
9
9
9
9
9
9
9
9
9
9
9
9
9
9
9
9
9
9
9
9
9
9
9
9
9
9
9
9
9
9
9
9
9
9
9
9
9
9
9
9
9
9
9
9
9
9
9
9
9
9
9
9
9
9
9
9
9
9
9
9
9
9
9
9
9
9
9
9
9
9
9
9
9
9
9
9
9
9
9
9
9
9
9
9
9
9
9
9
9
9
9
9
9
9
9
9
9
9
9
9
9
9
9
9
9
9
9
9
9
9
9
9
9
9
9
9
9
9
9
9
9
9
9
9
9
9
9
9
9
9
9
9
9
9
9
9
9
9
9
9
9
9
9
9
9
9
9
9
9
9
9
9
9
9
9
9
9
9
9
9
9
9
9
9
9
9
9
9
9
9
9
9
9
9
9
9
9
9
9
9
9
9
9
9
9
9
9
9
9
9
9
9
9
9
9
9
9
9
9
9
9
9
9
9
9
9
9
9
9
9
9
9
9
9
9
9
9
9
9
9
9
9
9
9
9
9
9
9
9
9
9
9
9
9
9
9
9
9
9
9
9
9
9
9
9
9
9
9
9
9
9
9
9
9
9
9
9
9
9
9
9
9
9
9
9
9
9
9
9
9
9
9
9
9
9
9
9
9
9
9
9
9
9
9
9
9
9
9
9
9
9
9
9
9
9
9
9
9
9
9
9
9
9
9
9
9
9
9
9
9
9
9
9
9
9
9
9
9
9
9
9
9
9
9
9
9
9
9
9
9
9
9
9
9
9
9
9
9
9
9
9
9
9
9
9
9
9
9
9
9
9
9
9
9
9
9
9
9
9
9
9
9
9
9
9
9
9
9
9
9
9
9
9
9
9
9
9
9
9
9
9
9
9
9
9
9
9
9
9
9
9
9
9
9
9
9
9
9
9
9
9
9
9
9
9
9
9
9
9
9
9
9
9
9
9
9
9
9
9
9
9
9
9
9
9
9
9
9
9
9
9
9
9
9
9
9
9
9
9
9
9
9
9
9
9
9
9
9
9
9
9
9
9
9
9
9
9
9
9
9
9
9
9
9
9
9
9
9
9
9
9
9
9
9
9
9
9
9
9
9
9
9
9
9
9
9
9
9
9
9
9
9
9
9
9
9
9
9
9
9
9
9
9
9
9
9
9
9
9
9
9
9
9
9
9
9
9
9
9
9
9
9
9
9
9
9
9
9
9
9
9
9
9
9
9
9
9
9
9
9
9
9
9
9
9
9
9
9
9
9
9
9
9
9
9
9
9
9
9
9
9
9
9
9
9
9
9
9
9
9
9
9
9
9
9
9
9
9
9
9
9
9
9
9
9
9
9
9
9
9
9
9
9
9
9
9
9
9
9
9
9
9
9
9
9
9
9
9
9
9
9
9
9
9
9
9
9
9
9
9
9
9
9
9
9
9
9
9
9
9
9
9
9
9
9
9
9
9
9
9
9
9
9
9
9
9
9
9
9
9
9
9
9
9
9
9
9
9
9
9
9
9
9
9
9
9
9
9
9
9
9
9
9
9
9
9
9
9
9
9
9
9
9
9
9
9
9
9
9
9
9
9
9
9
9
9
9
9
9
9
9
9
9
9
9
9
9
9
9
9
9
9
9
9
9
9
9
9
9
9
9
9
9
9
9
9
9
9
9
9
9
9
9
9
9
9
9
9
9
9
9
9
9
9
9
9
9
9
9
9
9
9
9
9
9
9
9
9
9
9
9
9
9
9
9
9
9
9
9
9
9
9
9
9
9
9
9
9
9
9
9
9
9
9
9
9
9
9
9
9
9
9
9
9
9
9
9
9
9
9
9
9
9
9
9
9
9
9
9
9
9
9
9
9
9
9
9
9
9
9
9
9
9
9
9
9
9
9
9
9
9
9
9
9
9
9
9
9
9
9
9
9
9
9
9
9
9
9
9
9
9
9
9
9
9
9
9
9
9
9
9
9
9
9
9
9
9
9
9
9
9
9
9
9
9
9
9
9
9
9
9
9
9
9
9
9
9
9
9
9
9
9
9
9
9
9
9
9
9
9
9
9
9
9
9
9
9
9
9
9
9
9
9
9
9
9
9
9
9
9
9
9
9
9
9
9
9
9
9
9
9
9
9
9
9
9
9
9
9
9
9
9
9
9
9
9
9
9
9
9
9
9
9
9
9
9
9
9
9
9
9
9
9
9
9
9
9
9
9
9
9
9
9
9
9
9
9
9
9
9
9
9
9
9
9
9
9
9
9
9
9
9
9
9
9
9
9
9
9
9
9
9
9
9
9
9
9
9
9
9
9
9
9
9
9
9
9
9
9
9
9
9
9
9
9
9
9
9
9
9
9
9
9
9
9
9
9
9
9
9
9
9
9
9
9
9
9
9
9
9
9
9
9
9
9
9
9
9
9
9
9
9
9
9
9
9
9
9
9
9
9
9
9
9
9
9
9
9
9
9
9
9
9
9
9
9
9
9
9
9
9
9
9
9
9
9
9
9
9
9
9
9
9
9
9
9
9
9
9
9
9
9
9
9
9
9
9
9
9
9
9
9
9
9
9
9
9
9
9
9
9
9
9
9
9
9
9
9
9
9
9
9
9
9
9
9
9
9
9
9
9
9
9
9
9
9
9
9
9
9
9
9
9
9
9
9
9
9
9
9
9
9
9
9
9
9
9
9
9
9
9
9
9
9
9
9
9
9
9
9
9
9
9
9
9
9
9
9
9
9
9
9
9
9
9
9
9
9
9
9
9
9
9
9
9
9
9
9
9
9
9
9
9
9
9
9
9
9
9
9
9
9
9
9
9
9
9
9
9
9
9
9
9
9
9
9
9
9
9
9
9
9
9
9
9
9
9
9
9
9
9
9
9
9
9
9
9
9
9
9
9
9
9
9
9
9
9
9
9
9
9
9
9
9
9
9
9
9
9
9
9
9
9
9
9
9
9
9
9
9
9
9
9
9
9
9
9
9
9
9
9
9
9
9
9
9
9
9
9
9
9
9
9
9
9
9
9
9
9
9
9
9
9
9
9
9
9
9
9
9
9
9
9
9
9
9
9
9
9
9
9
9
9
9
9
9
9
9
9
9
9
9
9
9
9
9
9
9
9
9
9
9
9
9
9
9
9
9
9
9
9
9
9
9
9
9
9
9
9
9
9
9
9
9
9
9
9
9
9
9
9
9
9
9
9
9
9
9
9
9
9
9
9
9
9
9
9
9
9
9
9
9
9
9
9
9
9
9
9
9
9
9
9
9
9
9
9
9
9
9
9
9
9
9
9
9
9
9
9
9
9
9
9
9
9
9
9
9
9
9
9
9
9
9
9
9
9
9
9
9
9
9
9
9
9
9
9
9
9
9
9
9
9
9
9
9
9
9
9
9
9
9
9
9
9
9
9
9
9
9
9
9
9
9
9
9
9
9
9
9
9
9
9
9
9
9
9
9
9
9
9
9
9
9
9
9
9
9
9
9
9
9
9
9
9
9
9
9
9
9
9
9
9
9
9
9
9
9
9
9
9
9
9
9
9
9
9
9
9
9
9
9
9
9
9
9
9
9
9
9
9
9
9
9
9
9
9
9
9
9
9
9
9
9
9
9
9
9
9
9
9
9
9
9
9
9
9
9
9
9
9
9
9
9
9
9
9
9
9
9
9
9
9
9
9
9
9
9
9
9
9
9
9
9
9
9
9
9
9
9
9
9
9
9
9
9
9
9
9
9
9
9
9
9
9
9
9
9
9
9
9
9
9
9
9
9
9
9
9
9
9
9
9
9
9
9
9
9
9
9
9
9
9
9
9
9
9
9
9
9
9
9
9
9
9
9
9
9
9
9
9
9
9
9
9
9
9
9
9
9
9
9
9
9
9
9
9
9
9
9
9
9
9
9
9
9
9
9
9
9
9
9
9
9
9
9
9
9
9
9
9
9
9
9
9
9
9
9
9
9
9
9
9
9
9
9
9
9
9
9
9
9
9
9
9
9
9
9
9
9
9
9
9
9
9
9
9
9
9
9
9
9
9
9
9
9
9
9
9
9
9
9
9
9
9
9
9
9
9
9
9
9
9
9
9
9
9
9
9
9
9
9
9
9
9
9
9
9
9
9
9
9
9
9
9
9
9
9
9
9
9
9
9
9
9
9
9
9
9
9
9
9
9
9
9
9
9
9
9
9
9
9
9
9
9
9
9
9
9
9
9
9
9
9
9
9
9
9
9
9
9
9
9
9
9
9
9
9
9
9
9
9
9
9
9
9
9
9
9
9
9
9
9
9
9
9
9
9
9
9
9
9
9
9
9
9
9
9
9
9
9
9
9
9
9
9
9
9
9
9
9
9
9
9
9
9
9
9
9
9
9
9
9
9
9
9
9
9
9
9
9
9
9
9
9
9
9
9
9
9
9
9
9
9
9
9
9
9
9
9
9
9
9
9
9
9
9
9
9
9
9
9
9
9
9
9
9
9
9
9
9
9
9
9
9
9
9
9
9
9
9
9
9
9
9
9
9
9
9
9
9
9
9
9
9
9
9
9
9
9
9
9
9
9
9
9
9
9
9
9
9
9
9
9
9
9
9
9
9
9
9
9
9
9
9
9
9
9
9
9
9
9
9
9
9
9
9
9
9
9
9
9
9
9
9
9
9
9
9
9
9
9
9
9
9
9
9
9
9
9
9
9
9
9
9
9
9
9
9
9
9
9
9
9
9
9
9
9
9
9
9
9
9
9
9
9
9
9
9
9
9
9
9
9
9
9
9
9
9
9
9
9
9
9
9
9
9
9
9
9
9
9
9
9
9
9
9
9
9
9
9
9
9
9
9
9
9
9
9
9
9
9
9
9
9
9
9
9
9
9
9
9
9
9
9
9
9
9
9
9
9
9
9
9
9
9
9
9
9
9
9
9
9
9
9
9
9
9
9
9
9
9
9
9
9
9
9
9
9
9
9
9
9
9
9
9
9
9
9
9
9
9
9
9
9
9
9
9
9
9
9
9
9
9
9
9
9
9
9
9
9
9
9
9
9
9
9
9
9
9
9
9
9
9
9
9
9
9
9
9
9
9
9
9
9
9
9
9
9
9
9
9
9
9
9
9
9
9
9
9
9
9
9
9
9
9
9
9
9
9
9
9
9
9
9
9
9
9
9
9
9
9
9
9
9
9
9
9
9
9
9
9
9
9
9
9
9
9
9
9
9
9
9
9
9
9
9
9
9
9
9
9
9
9
9
9
9
9
9
9
9
9
9
9
9
9
9
9
9
9
9
9
9
9
9
9
9
9
9
9
9
9
9
9
9
9
9
9
9
9
9
9
9
9
9
9
9
9
9
9
9
9
9
9
9
9
9
9
9
9
9
9
9
9
9
9
9
9
9
9
9
9
9
9
9
9
9
9
9
9
9
9
9
9
9
9
9
9
9
9
9
9
9
9
9
9
9
9
9
9
9
9
9
9
9
9
9
9
9
9
9
9
9
9
9
9
9
9
9
9
9
9
9
9
9
9
9
9
9
9
9
9
9
9
9
9
9
9
9
9
9
9
9
9
9
9
9
9
9
9
9
9
9
9
9
9
9
9
9
9
9
9
9
9
9
9
9
9
9
9
9
9
9
9
9
9
9
9
9
9
9
9
9
9
9
9
9
9
9
9
9
9
9
9
9
9
9
9
9
9
9
9
9
9
9
9
9
9
9
9
9
9
9
9
9
9
9
9
9
9
9
9
9
9
9
9
9
9
9
9
9
9
9
9
9
9
9
9
9
9
9
9
9
9
9
9
9
9
9
9
9
9
9
9
9
9
9
9
9
9
9
9
9
9
9
9
9
9
9
9
9
9
9
9
9
9
9
9
9
9
9
9
9
9
9
9
9
9
9
9
9
9
9
9
9
9
9
9
9
9
9
9
9
9
9
9
9
9
9
9
9
9
9
9
9
9
9
9
9
9
9
9
9
9
9
9
9
9
9
9
9
9
9
9
9
9
9
9
9
9
9
9
9
9
9
9
9
9
9
9
9
9
9
9
9
9
9
9
9
9
9
9
9
9
9
9
9
9
9
9
9
9
9
9
9
9
9
9
9
9
9
9
9
9
9
9
9
9
9
9
9
9
9
9
9
9
9
9
9
9
9
9
9
9
9
9
9
9
9
9
9
9
9
9
9
9
9
9
9
9
9
9
9
9
9
9
9
9
9
9
9
9
9
9
9
9
9
9
9
9
9
9
9
9
9
9
9
9
9
9
9
9
9
9
9
9
9
9
9
9
9
9
9
9
9
9
9
9
9
9
9
9
9
9
9
9
9
9
9
9
9
9
9
9
9
9
9
9
9
9
9
9
9
9
9
9
9
9
9
9
9
9
9
9
9
9
9
9
9
9
9
9
9
9
9
9
9
9
9
9
9
9
9
9
9
9
9
9
9
9
9
9
9
9
9
9
9
9
9
9
9
9
9
9
9
9
9
9
9
9
9
9
9
9
9
9
9
9
9
9
9
9
9
9
9
9
9
9
9
9
9
9
9
9
9
9
9
9
9
9
9
9
9
9
9
9
9
9
9
9
9
9
9
9
9
9
9
9
9
9
9
9
9
9
9
9
9
9
9
9
9
9
9
9
9
9
9
9
9
9
9
9
9
9
9
9
9
9
9
9
9
9
9
9
9
9
9
9
9
9
9
9
9
9
9
9
9
9
9
9
9
9
9
9
9
9
9
9
9
9
9
9
9
9
9
9
9
9
9
9
9
9
9
9
9
9
9
9
9
9
9
9
9
9
9
9
9
9
9
9
9
9
9
9
9
9
9
9
9
9
9
9
9
9
9
9
9
9
9
9
9
9
9
9
9
9
9
9
9
9
9
9
9
9
9
9
9
9
9
9
9
9
9
9
9
9
9
9
9
9
9
9
9
9
9
9
9
9
9
9
9
9
9
9
9
9
9
9
9
9
9
9
9
9
9
9
9
9
9
9
9
9
9
9
9
9
9
9
9
9
9
9
9
9
9
9
9
9
9
9
9
9
9
9
9
9
9
9
9
9
9
9
9
9
9
9
9
9
9
9
9
9
9
9
9
9
9
9
9
9
9
9
9
9
9
9
9
9
9
9
9
9
9
9
9
9
9
9
9
9
9
9
9
9
9
9
9
9
9
9
9
9
9
9
9
9
9
9
9
9
9
9
9
9
9
9
9
9
9
9
9
9
9
9
9
9
9
9
9
9
9
9
9
9
9
9
9
9
9
9
9
9
9
9
9
9
9
9
9
9
9
9
9
9
9
9
9
9
9
9
9
9
9
9
9
9
9
9
9
9
9
9
9
9
9
9
9
9
9
9
9
9
9
9
9
9
9
9
9
9
9
9
9
9
9
9
9
9
9
9
9
9
9
9
9
9
9
9
9
9
9
9
9
9
9
9
9
9
9
9
9
9
9
9
9
9
9
9
9
9
9
9
9
9
9
9
9
9
9
9
9
9
9
9
9
9
9
9
9
9
9
9
9
9
9
9
9
9
9
9
9
9
9
9
9
9
9
9
9
9
9
9
9
9
9
9
9
9
9
9
9
9
9
9
9
9
9
9
9
9
9
9
9
9
9
9
9
9
9
9
9
9
9
9
9
9
9
9
9
9
9
9
9
9
9
9
9
9
9
9
9
9
9
9
9
9
9
9
9
9
9
9
9
9
9
9
9
9
9
9
9
9
9
9
9
9
9
9
9
9
9
9
9
9
9
9
9
9
9
9
9
9
9
9
9
9
9
9
9
9
9
9
9
9
9
9
9
9
9
9
9
9
9
9
9
9
9
9
9
9
9
9
9
9
9
9
9
9
9
9
9
9
9
9
9
9
9
9
9
9
9
9
9
9
9
9
9
9
9
9
9
9
9
9
9
9
9
9
9
9
9
9
9
9
9
9
9
9
9
9
9
9
9
9
9
9
9
9
9
9
9
9
9
9
9
9
9
9
9
9
9
9
9
9
9
9
9
9
9
9
9
9
9
9
9
9
9
9
9
9
9
9
9
9
9
9
9
9
9
9
9
9
9
9
9
9
9
9
9
9
9
9
9
9
9
9
9
9
9
9
9
9
9
9
9
9
9
9
9
9
9
9
9
9
9
9
9
9
9
9
9
9
9
9
9
9
9
9
9
9
9
9
9
9
9
9
9
9
9
9
9
9
9
9
9
9
9
9
9
9
9
9
9
9
9
9
9
9
9
9
9
9
9
9
9
9
9
9
9
9
9
9
9
9
9
9
9
9
9
9
9
9
9
9
9
9
9
9
9
9
9
9
9
9
9
9
9
9
9
9
9
9
9
9
9
9
9
9
9
9
9
9
9
9
9
9
9
9
9
9
9
9
9
9
9
9
9
9
9
9
9
9
9
9
9
9
9
9
9
9
9
9
9
9
9
9
9
9
9
9
9
9
9
9
9
9
9
9
9
9
9
9
9
9
9
9
9
9
9
9
9
9
9
9
9
9
9
9
9
9
9
9
9
9
9
9
9
9
9
9
9
9
9
9
9
9
9
9
9
9
9
9
9
9
9
9
9
9
9
9
9
9
9
9
9
9
9
9
9
9
9
9
9
9
9
9
9
9
9
9
9
9
9
9
9
9
9
9
9
9
9
9
9
9
9
9
9
9
9
9
9
9
9
9
9
9
9
9
9
9
9
9
9
9
9
9
9
9
9
9
9
9
9
9
9
9
9
9
9
9
9
9
9
9
9
9
9
9
9
9
9
9
9
9
9
9
9
9
9
9
9
9
9
9
9
9
9
9
9
9
9
9
9
9
9
9
9
9
9
9
9
9
9
9
9
9
9
9
9
9
9
9
9
9
9
9
9
9
9
9
9
9
9
9
9
9
9
9
9
9
9
9
9
9
9
9
9
9
9
9
9
9
9
9
9
9
9
9
9
9
9
9
9
9
9
9
9
9
9
9
9
9
9
9
9
9
9
9
9
9
9
9
9
9
9
9
9
9
9
9
9
9
9
9
9
9
9
9
9
9
9
9
9
9
9
9
9
9
9
9
9
9
9
9
9
9
9
9
9
9
9
9
9
9
9
9
9
9
9
9
9
9
9
9
9
9
9
9
9
9
9
9
9
9
9
9
9
9
9
9
9
9
9
9
9
9
9
9
9
9
9
9
9
9
9
9
9
9
9
9
9
9
9
9
9
9
9
9
9
9
9
9
9
9
9
9
9
9
9
9
9
9
9
9
9
9
9
9
9
9
9
9
9
9
9
9
9
9
9
9
9
9
9
9
9
9
9
9
9
9
9
9
9
9
9
9
9
9
9
9
9
9
9
9
9
9
9
9
9
9
9
9
9
9
9
9
9
9
9
9
9
9
9
9
9
9
9
9
9
9
9
9
9
9
9
9
9
9
9
9
9
9
9
9
9
9
9
9
9
9
9
9
9
9
9
9
9
9
9
9
9
9
9
9
9
9
9
9
9
9
9
9
9
9
9
9
9
9
9
9
9
9
9
9
9
9
9
9
9
9
9
9
9
9
9
9
9
9
9
9
9
9
9
9
9
9
9
9
9
9
9
9
9
9
9
9
9
9
9
9
9
9
9
9
9
9
9
9
9
9
9
9
9
9
9
9
9
9
9
9
9
9
9
9
9
9
9
9
9
9
9
9
9
9
9
9
9
9
9
9
9
9
9
9
9
9
9
9
9
9
9
9
9
9
9
9
9
9
9
9
9
9
9
9
9
9
9
9
9
9
9
9
9
9
9
9
9
9
9
9
9
9
9
9
9
9
9
9
9
9
9
9
9
9
9
9
9
9
9
9
9
9
9
9
9
9
9
9
9
9
9
9
9
9
9
9
9
9
9
9
9
9
9
9
9
9
9
9
9
9
9
9
9
9
9
9
9
9
9
9
9
9
9
9
9
9
9
9
9
9
9
9
9
9
9
9
9
9
9
9
9
9
9
9
9
9
9
9
9
9
9
9
9
9
9
9
9
9
9
9
9
9
9
9
9
9
9
9
9
9
9
9
9
9
9
9
9
9
9
9
9
9
9
9
9
9
9
9
9
9
9
9
9
9
9
9
9
9
9
9
9
9
9
9
9
9
9
9
9
9
9
9
9
9
9
9
9
9
9
9
9
9
9
9
9
9
9
9
9
9
9
9
9
9
9
9
9
9
9
9
9
9
9
9
9
9
9
9
9
9
9
9
9
9
9
9
9
9
9
9
9
9
9
9
9
9
9
9
9
9
9
9
9
9
9
9
9
9
9
9
9
9
9
9
9
9
9
9
9
9
9
9
9
9
9
9
9
9
9
9
9
9
9
9
9
9
9
9
9
9
9
9
9
9
9
9
9
9
9
9
9
9
9
9
9
9
9
9
9
9
9
9
9
9
9
9
9
9
9
9
9
9
9
9
9
9
9
9
9
9
9
9
9
9
9
9
9
9
9
9
9
9
9
9
9
9
9
9
9
9
9
9
9
9
9
9
9
9
9
9
9
9
9
9
9
9
9
9
9
9
9
9
9
9
9
9
9
9
9
9
9
9
9
9
9
9
9
9
9
9
9
9
9
9
9
9
9
9
9
9
9
9
9
9
9
9
9
9
9
9
9
9
9
9
9
9
9
9
9
9
9
9
9
9
9
9
9
9
9
9
9
9
9
9
9
9
9
9
9
9
9
9
9
9
9
9
9
9
9
9
9
9
9
9
9
9
9
9
9
9
9
9
9
9
9
9
9
9
9
9
9
9
9
9
9
9
9
9
9
9
9
9
9
9
9
9
9
9
9
9
9
9
9
9
9
9
9
9
9
9
9
9
9
9
9
9
9
9
9
9
9
9
9
9
9
9
9
9
9
9
9
9
9
9
9
9
9
9
9
9
9
9
9
9
9
9
9
9
9
9
9
9
9
9
9
9
9
9
9
9
9
9
9
9
9
9
9
9
9
9
9
9
9
9
9
9
9
9
9
9
9
9
9
9
9
9
9
9
9
9
9
9
9
9
9
9
9
9
9
9
9
9
9
9
9
9
9
9
9
9
9
9
9
9
9
9
9
9
9
9
9
9
9
9
9
9
9
9
9
9
9
9
9
9
9
9
9
9
9
9
9
9
9
9
9
9
9
9
9
9
9
9
9
9
9
9
9
9
9
9
9
9
9
9
9
9
9
9
9
9
9
9
9
9
9
9
9
9
9
9
9
9
9
9
9
9
9
9
9
9
9
9
9
9
9
9
9
9
9
9
9
9
9
9
9
9
9
9
9
9
9
9
9
9
9
9
9
9
9
9
9
9
9
9
9
9
9
9
9
9
9
9
9
9
9
9
9
9
9
9
9
9
9
9
9
9
9
9
9
9
9
9
9
9
9
9
9
9
9
9
9
9
9
9
9
9
9
9
9
9
9
9
9
9
9
9
9
9
9
9
9
9
9
9
9
9
9
9
9
9
9
9
9
9
9
9
9
9
9
9
9
9
9
9
9
9
9
9
9
9
9
9
9
9
9
9
9
9
9
9
9
9
9
9
9
9
9
9
9
9
9
9
9
9
9
9
9
9
9
9
9
9
9
9
9
9
9
9
9
9
9
9
9
9
9
9
9
9
</DataArray>
</Cells>
<PointData Vectors="'U'">
<DataArray type="Float64" Name="U" NumberOfComponents="2" ComponentName0="U1" ComponentName1="U2" format="ascii">
-0.1093690557462E-36 -0.2730237138472E-36
-0.4627500900429E-37 -0.1509924980117E-37
-0.1339284873256E-36  0.3336932186404E-36
-0.1060675569696E+00 -0.8123451191229E-01
-0.9018062091728E-01 -0.3337631859288E-01
-0.8082790552657E-01  0.9420265055504E-02
-0.8085450141733E-01  0.3254874924655E-01
-0.1328953335772E+01 -0.3755756348619E+00
-0.1239795224864E+01 -0.3418854207785E+00
-0.1146380864715E+01 -0.3162187672579E+00
-0.9353278915048E+00 -0.4123640587102E+00
-0.8032946056295E-37 -0.4340542193099E-36
-0.8304320066451E-37 -0.3844337278777E-36
-0.7990465094738E-37 -0.3540870744789E-36
-0.7616103483906E-37 -0.3316684992130E-36
-0.7272538840691E-37 -0.3134444587970E-36
-0.6972259405954E-37 -0.2977910603724E-36
-0.6711927417662E-37 -0.2838646611474E-36
-0.6485626598551E-37 -0.2711738090700E-36
-0.6287817425294E-37 -0.2594087924907E-36
-0.6113879475561E-37 -0.2483628250004E-36
-0.5960072496129E-37 -0.2378915126635E-36
-0.5823381248537E-37 -0.2278903095492E-36
-0.5701362771763E-37 -0.2182812011792E-36
-0.5592021370870E-37 -0.2090044528125E-36
-0.5493711761535E-37 -0.2000132909940E-36
-0.5405065217228E-37 -0.1912703602123E-36
-0.5324933308087E-37 -0.1827452941387E-36
-0.5252344807663E-37 -0.1744130091590E-36
-0.5186472417313E-37 -0.1662524790072E-36
-0.5126606838225E-37 -0.1582458377012E-36
-0.5072136382598E-37 -0.1503777113871E-36
-0.5022530798261E-37 -0.1426347128450E-36
-0.4977328328449E-37 -0.1350050537282E-36
-0.4936125278839E-37 -0.1274782432175E-36
-0.4898567546621E-37 -0.1200448511157E-36
-0.4864343698455E-37 -0.1126963195873E-36
-0.4833179282027E-37 -0.1054248120585E-36
-0.4804832128512E-37 -0.9822309080773E-37
-0.4779088457591E-37 -0.9108441692168E-37
-0.4755759637898E-37 -0.8400246783240E-37
-0.4734679487134E-37 -0.7697126877819E-37
-0.4715702020330E-37 -0.6998513535731E-37
-0.4698699573567E-37 -0.6303862496094E-37
-0.4683561245217E-37 -0.5612649533402E-37
-0.4670191608506E-37 -0.4924366886116E-37
-0.4658509658582E-37 -0.4238520144080E-37
-0.4648447964897E-37 -0.3554625501140E-37
-0.4639952005975E-37 -0.2872207294735E-37
-0.4632979668909E-37 -0.2190795765708E-37
-0.4623497500302E-37 -0.8291308609032E-38
-0.4620963051437E-37 -0.1479492812340E-38
-0.4619902984377E-37  0.5340858265197E-38
-0.4620334777127E-37  0.1217444391790E-37
-0.4622288294584E-37  0.1902602203708E-37
-0.4625806275282E-37  0.2590043035842E-37
-0.4630944977000E-37  0.3280260952776E-37
-0.4637774997064E-37  0.3973762860825E-37
-0.4646382288148E-37  0.4671071375267E-37
-0.4656869396352E-37  0.5372728090012E-37
-0.4669356955429E-37  0.6079297353536E-37
-0.4683985479921E-37  0.6791370678538E-37
-0.4700917510872E-37  0.7509571944021E-37
-0.4720340181634E-37  0.8234563589835E-37
-0.4742468288850E-37  0.8967054058870E-37
-0.4767547976294E-37  0.9707806816268E-37
-0.4795861168540E-37  0.1045765137561E-36
-0.4827730929763E-37  0.1121749690010E-36
-0.4863527973636E-37  0.1198834913826E-36
-0.4903678617743E-37  0.1277133172320E-36
-0.4948674566456E-37  0.1356771324742E-36
-0.4999085030027E-37  0.1437894208798E-36
-0.5055571854896E-37  0.1520669176145E-36
-0.5118908572802E-37  0.1605292083854E-36
-0.5190004597404E-37  0.1691995331879E-36
-0.5269936240674E-37  0.1781058832496E-36
-0.5359986830014E-37  0.1872825272292E-36
-0.5461699014879E-37  0.1967721812130E-36
-0.5576943338016E-37  0.2066291710911E-36
-0.5708008063576E-37  0.2169241735391E-36
-0.5857715079239E-37  0.2277515620889E-36
-0.6029561826645E-37  0.2392412445715E-36
-0.6227867390937E-37  0.2515786692661E-36
-0.6457819031125E-37  0.2650407218934E-36
-0.6725012166881E-37  0.2800653608806E-36
-0.7032882756662E-37  0.2974017971436E-36
-0.7371154660866E-37  0.3184864917061E-36
-0.7660904515325E-37  0.3466073894797E-36
-0.7445439628023E-37  0.3917118415776E-36
-0.1041425173487E+00 -0.7458447341803E-01
-0.1026526040210E+00 -0.6993293246668E-01
-0.1013862291615E+00 -0.6625156661840E-01
-0.1002944678804E+00 -0.6311755634207E-01
-0.9933094006665E-01 -0.6033830017707E-01
-0.9846203849304E-01 -0.5781012689097E-01
-0.9766426182172E-01 -0.5547180775870E-01
-0.9692150219890E-01 -0.5328426922623E-01
-0.9622266398531E-01 -0.5122094214773E-01
-0.9555998260678E-01 -0.4926277646941E-01
-0.9492790618150E-01 -0.4739550485089E-01
-0.9432237117619E-01 -0.4560805476379E-01
-0.9374033503028E-01 -0.4389157953106E-01
-0.9317947231640E-01 -0.4223883940523E-01
-0.9263797459489E-01 -0.4064378986299E-01
-0.9211441704722E-01 -0.3910129790375E-01
-0.9160766989746E-01 -0.3760694024983E-01
-0.9111684507447E-01 -0.3615685609202E-01
-0.9064127160231E-01 -0.3474762702159E-01
-0.8973334626194E-01 -0.3204008117696E-01
-0.8929924886687E-01 -0.3073583488266E-01
-0.8887790609106E-01 -0.2946165308535E-01
-0.8846904496651E-01 -0.2821548590237E-01
-0.8807242978839E-01 -0.2699538980859E-01
-0.8768785131182E-01 -0.2579953087691E-01
-0.8731512116788E-01 -0.2462617899379E-01
-0.8695406913049E-01 -0.2347369812382E-01
-0.8660454071915E-01 -0.2234053647428E-01
-0.8626639492081E-01 -0.2122521743898E-01
-0.8593950199697E-01 -0.2012633161433E-01
-0.8562374142166E-01 -0.1904252989205E-01
-0.8531899997305E-01 -0.1797251754436E-01
-0.8502516998682E-01 -0.1691504918657E-01
-0.8474214776562E-01 -0.1586892450365E-01
-0.8446983213234E-01 -0.1483298463945E-01
-0.8420812311016E-01 -0.1380610915970E-01
-0.8395692071348E-01 -0.1278721351320E-01
-0.8371612383350E-01 -0.1177524692818E-01
-0.8348562920398E-01 -0.1076919069131E-01
-0.8326533043453E-01 -0.9768056765586E-02
-0.8305511710070E-01 -0.8770886711479E-02
-0.8285487388216E-01 -0.7776750881911E-02
-0.8266447974256E-01 -0.6784747867724E-02
-0.8248380714685E-01 -0.5794004175053E-02
-0.8231272131453E-01 -0.4803674120700E-02
-0.8215107951052E-01 -0.3812939935774E-02
-0.8199873037879E-01 -0.2821012071254E-02
-0.8185551333178E-01 -0.1827129704357E-02
-0.8172125801443E-01 -0.8305614479183E-03
-0.8159578387920E-01  0.1693937319995E-03
-0.8147889993377E-01  0.1173405380148E-02
-0.8137040477361E-01  0.2182110184592E-02
-0.8127008709798E-01  0.3196110380827E-02
-0.8117772710729E-01  0.4215971967274E-02
-0.8109309955711E-01  0.5242222897124E-02
-0.8101597993618E-01  0.6275351981843E-02
-0.8094615824706E-01  0.7315809285042E-02
-0.8088346230845E-01  0.8364021539921E-02
-0.8077810722172E-01  0.1048475860025E-01
-0.8073371236297E-01  0.1155813701232E-01
-0.8069452903289E-01  0.1264043325539E-01
-0.8066031176925E-01  0.1373175558226E-01
-0.8063078317996E-01  0.1483217788433E-01
-0.8060565521226E-01  0.1594172020918E-01
-0.8058464555578E-01  0.1706034066003E-01
-0.8056749450082E-01  0.1818793232115E-01
-0.8055398511595E-01  0.1932432368118E-01
-0.8054397023060E-01  0.2046928363695E-01
-0.8053741094193E-01  0.2162253422701E-01
-0.8053443395507E-01  0.2278377761361E-01
-0.8053541962916E-01  0.2395275050658E-01
-0.8054114014085E-01  0.2512933347907E-01
-0.8055297844045E-01  0.2631377466180E-01
-0.8057327291185E-01  0.2750716254648E-01
-0.8060583390320E-01  0.2871247823072E-01
-0.8065666278539E-01  0.2993708665092E-01
-0.8073439409842E-01  0.3119976498657E-01
-0.2877126726710E+00 -0.1714511681041E+00
-0.4000384713227E+00 -0.2478618594634E+00
-0.4952573652059E+00 -0.3002790363729E+00
-0.5800202455824E+00 -0.3408099176705E+00
-0.6577410992315E+00 -0.3732196447525E+00
-0.7300058201864E+00 -0.3995088543622E+00
-0.7976938205711E+00 -0.4207076846486E+00
-0.8613299171469E+00 -0.4375558773782E+00
-0.9212309267112E+00 -0.4505663099228E+00
-0.9775702305983E+00 -0.4600822193166E+00
-0.1030460346234E+01 -0.4664794589394E+00
-0.1080073417752E+01 -0.4702892107823E+00
-0.1126021686024E+01 -0.4697752116389E+00
-0.1167810553653E+01 -0.4640743166914E+00
-0.1205247422553E+01 -0.4540442606240E+00
-0.1238187777462E+01 -0.4406420514185E+00
-0.1266842506340E+01 -0.4251842019833E+00
-0.1291528698709E+01 -0.4088029980811E+00
-0.1312326297543E+01 -0.3921493516892E+00
-0.1335385470060E+01 -0.3675393287650E+00
-0.1340927950057E+01 -0.3598409421564E+00
-0.1345621688915E+01 -0.3526478841286E+00
-0.1349520906272E+01 -0.3460852601503E+00
-0.1352692299738E+01 -0.3402858345366E+00
-0.1355209033570E+01 -0.3353851179873E+00
-0.1357138393262E+01 -0.3315154371625E+00
-0.1358518377953E+01 -0.3287944927653E+00
-0.1359322257004E+01 -0.3273218028523E+00
-0.1359464889347E+01 -0.3272522645952E+00
-0.1358938345611E+01 -0.3288108505498E+00
-0.1357795938915E+01 -0.3322893210041E+00
-0.1356117317423E+01 -0.3380730570330E+00
-0.1354004453830E+01 -0.3467101398126E+00
-0.1351617659098E+01 -0.3590831393190E+00
-0.1349018149806E+01 -0.3770785507382E+00
-0.1346407272686E+01 -0.4015687216092E+00
-0.1344398722958E+01 -0.4303128475514E+00
-0.1343585020233E+01 -0.4606133606560E+00
-0.1344247250828E+01 -0.4908992559145E+00
-0.1346413431879E+01 -0.5200105576898E+00
-0.1349889305620E+01 -0.5470501540698E+00
-0.1354395891398E+01 -0.5713100815476E+00
-0.1359615712438E+01 -0.5922211000841E+00
-0.1365198977363E+01 -0.6093260711568E+00
-0.1370764272766E+01 -0.6222653191345E+00
-0.1375895785478E+01 -0.6307676883928E+00
-0.1380142198487E+01 -0.6346496030164E+00
-0.1383020751933E+01 -0.6338139021787E+00
-0.1384045331967E+01 -0.6282497818238E+00
-0.1382811993406E+01 -0.6180189307009E+00
-0.1379185874459E+01 -0.6032181848522E+00
-0.1373343712061E+01 -0.5839050702565E+00
-0.1365089275909E+01 -0.5600982744861E+00
-0.1353993659864E+01 -0.5319741218259E+00
-0.1339568019357E+01 -0.4998623213862E+00
-0.1321338125144E+01 -0.4642106947350E+00
-0.1298879745765E+01 -0.4255622372582E+00
-0.1271818753545E+01 -0.3845441062317E+00
-0.1161215004774E+01 -0.2584014948174E+00
-0.1066521578208E+01 -0.1773999958403E+00
-0.9617548895534E+00 -0.1027605586952E+00
-0.8564472077575E+00 -0.4062288257013E-01
-0.7619245056223E+00  0.3048274945675E-02
-0.6799590893200E+00  0.2980734967636E-01
-0.6062593450634E+00  0.4576713015254E-01
-0.5392990505705E+00  0.5441306963839E-01
-0.4777779461080E+00  0.5991350590066E-01
-0.4204991269124E+00  0.6511065269834E-01
-0.3670911217230E+00  0.6924168401846E-01
-0.3172718384033E+00  0.7199373981688E-01
-0.2709673561368E+00  0.7316892350190E-01
-0.2283222665483E+00  0.7254547035060E-01
-0.1896780919180E+00  0.6994905161306E-01
-0.1555773409662E+00  0.6530567914444E-01
-0.1268078042248E+00  0.5859770714054E-01
-0.1044038989524E+00  0.4999305476102E-01
-0.8952361110094E-01  0.4008487156360E-01
-0.1532898964852E-02 -0.2757927188688E-02
-0.2618081545113E-02 -0.4800409687213E-02
-0.3642413505860E-02 -0.6725379671378E-02
-0.4663217668297E-02 -0.8568963388073E-02
-0.5716452266103E-02 -0.1035821917571E-01
-0.6818200736179E-02 -0.1210568223992E-01
-0.7978953177825E-02 -0.1381821120818E-01
-0.9204904541435E-02 -0.1549996512438E-01
-0.1049994949000E-01 -0.1715358581113E-01
-0.1186637790814E-01 -0.1878090787803E-01
-0.1330537848680E-01 -0.2038333462224E-01
-0.1481735486333E-01 -0.2196212875972E-01
-0.1640212037920E-01 -0.2351861926861E-01
-0.1805904193405E-01 -0.2505444478876E-01
-0.1978711277213E-01 -0.2657199986843E-01
-0.2158557510017E-01 -0.2807624294395E-01
-0.2345600901937E-01 -0.2957698072342E-01
-0.2540166387100E-01 -0.3108250093922E-01
-0.2742375160171E-01 -0.3259267129459E-01
-0.2952107684055E-01 -0.3410485925907E-01
-0.3169142043501E-01 -0.3561730662251E-01
-0.3393253791596E-01 -0.3713002414106E-01
-0.3624251493928E-01 -0.3864469369916E-01
-0.3862003850997E-01 -0.4016454977197E-01
-0.4106458382321E-01 -0.4169432917967E-01
-0.4357657836073E-01 -0.4324025500343E-01
-0.4615753770577E-01 -0.4480961945367E-01
-0.4880988750410E-01 -0.4640915667901E-01
-0.5153718272074E-01 -0.4804638143595E-01
-0.5434495157935E-01 -0.4973213543315E-01
-0.5724157340007E-01 -0.5148059576666E-01
-0.6023917013007E-01 -0.5330986246211E-01
-0.6335516825098E-01 -0.5524290455847E-01
-0.6661453073949E-01 -0.5730821347588E-01
-0.7005340590430E-01 -0.5953844383985E-01
-0.7372304383297E-01 -0.6196291280369E-01
-0.7770253618783E-01 -0.6460183300012E-01
-0.8210648332261E-01 -0.6752494191908E-01
-0.8722286974040E-01 -0.7087833735288E-01
-0.9334734512963E-01 -0.7531979048112E-01
-0.7793419254149E-01  0.3185958036424E-01
-0.7536636318712E-01  0.3124814308891E-01
-0.7282457554382E-01  0.3069294062726E-01
-0.7029968379605E-01  0.3015654849962E-01
-0.6777522880759E-01  0.2963189357660E-01
-0.6524184057051E-01  0.2912671415664E-01
-0.6269357776930E-01  0.2864986224931E-01
-0.6013121239947E-01  0.2819353429136E-01
-0.5755843078848E-01  0.2774611880605E-01
-0.5498027773249E-01  0.2729722925998E-01
-0.5240255187507E-01  0.2683860706569E-01
-0.4983155208736E-01  0.2636401651538E-01
-0.4727382381532E-01  0.2586897500416E-01
-0.4473607768427E-01  0.2535057985339E-01
-0.4222503364956E-01  0.2480748652724E-01
-0.3974730274309E-01  0.2423806270073E-01
-0.3730922379119E-01  0.2364015845791E-01
-0.3491682927356E-01  0.2301260910058E-01
-0.3257589249520E-01  0.2235514265989E-01
-0.3029200143561E-01  0.2166827874026E-01
-0.2807055720194E-01  0.2095329582186E-01
-0.2591669729968E-01  0.2021221901886E-01
-0.2383522193034E-01  0.1944770466051E-01
-0.2183004427417E-01  0.1866220096954E-01
-0.1990336253293E-01  0.1785555187450E-01
-0.1805573340835E-01  0.1702177308667E-01
-0.1628815027057E-01  0.1615587460906E-01
-0.1460268708118E-01  0.1525687292560E-01
-0.1300147841531E-01  0.1432492851821E-01
-0.1148640881169E-01  0.1336043234931E-01
-0.1005907372726E-01  0.1236381593296E-01
-0.8720709542744E-02  0.1133545651608E-01
-0.7472091972462E-02  0.1027559479371E-01
-0.6313346415525E-02  0.9184197770722E-02
-0.5243647033283E-02  0.8060772765183E-02
-0.4260788222665E-02  0.6903984201176E-02
-0.3359907636202E-02  0.5711004560124E-02
-0.2532663721798E-02  0.4475804662259E-02
-0.1757789312890E-02  0.3183802933372E-02
-0.1000423972748E-02  0.1817068626798E-02
-0.1147666443662E+01 -0.3176922200440E+00
-0.1148808543043E+01 -0.3195537069916E+00
-0.1149756135333E+01 -0.3217528892260E+00
-0.1150490694395E+01 -0.3242695318051E+00
-0.1150998725184E+01 -0.3270904256900E+00
-0.1151267760228E+01 -0.3302040223342E+00
-0.1151285014068E+01 -0.3335982135454E+00
-0.1151037033639E+01 -0.3372594914943E+00
-0.1150509601465E+01 -0.3411726301127E+00
-0.1149687661068E+01 -0.3453201230522E+00
-0.1148555491676E+01 -0.3496815398511E+00
-0.1147096930581E+01 -0.3542334449855E+00
-0.1145295623976E+01 -0.3589495341433E+00
-0.1143135295393E+01 -0.3638007716354E+00
-0.1140600014562E+01 -0.3687555385019E+00
-0.1137674455261E+01 -0.3737798137988E+00
-0.1134344139379E+01 -0.3788373862677E+00
-0.1130595660289E+01 -0.3838900980574E+00
-0.1126416880261E+01 -0.3888981204982E+00
-0.1121797098976E+01 -0.3938202482954E+00
-0.1116727197852E+01 -0.3986141994938E+00
-0.1111199769119E+01 -0.4032369532330E+00
-0.1105209197438E+01 -0.4076451933238E+00
-0.1098751682789E+01 -0.4117956498596E+00
-0.1091825234823E+01 -0.4156454205820E+00
-0.1084429648631E+01 -0.4191522905205E+00
-0.1076566465231E+01 -0.4222750372276E+00
-0.1068238923457E+01 -0.4249737246704E+00
-0.1059451892209E+01 -0.4272099731729E+00
-0.1050211809690E+01 -0.4289472004759E+00
-0.1040526626177E+01 -0.4301508101279E+00
-0.1030405767350E+01 -0.4307882604641E+00
-0.1019860123489E+01 -0.4308290706100E+00
-0.1008902079735E+01 -0.4302451676313E+00
-0.9975453609347E+00 -0.4290109565559E+00
-0.9858050033783E+00 -0.4271033242925E+00
-0.9736970978181E+00 -0.4245015352593E+00
-0.9612384672640E+00 -0.4211872117930E+00
-0.9484461171015E+00 -0.4171434373804E+00
-0.1104985059288E+01 -0.3065158790941E+00
-0.1061362574464E+01 -0.2952924083422E+00
-0.1015871004547E+01 -0.2825701849862E+00
-0.9688676091611E+00 -0.2685220329478E+00
-0.9206514837366E+00 -0.2533557503006E+00
-0.8714632574225E+00 -0.2372942952382E+00
-0.8214786874424E+00 -0.2205697867927E+00
-0.7707946454786E+00 -0.2034088203709E+00
-0.7193933618756E+00 -0.1860116928706E+00
-0.6671311024345E+00 -0.1685329302910E+00
-0.6137701652139E+00 -0.1510849087516E+00
-0.5590632910167E+00 -0.1337834619587E+00
-0.5028667083520E+00 -0.1168058545201E+00
-0.4451996936227E+00 -0.1004196017069E+00
-0.3862523175675E+00 -0.8497293498182E-01
-0.3263781302937E+00 -0.7085796147843E-01
-0.2660918659591E+00 -0.5845507667430E-01
-0.2060699643319E+00 -0.4805769330687E-01
-0.1471366677781E+00 -0.3977064494045E-01
-0.8772167718233E+00 -0.3818582479672E+00
-0.8196430747020E+00 -0.3512225561130E+00
-0.7629329831124E+00 -0.3207756709715E+00
-0.7072598484872E+00 -0.2908044280572E+00
-0.6527070931475E+00 -0.2615317703276E+00
-0.5993285353593E+00 -0.2331308211861E+00
-0.5472021864280E+00 -0.2057409432694E+00
-0.4964627907378E+00 -0.1794866587757E+00
-0.4473105803472E+00 -0.1544932050900E+00
-0.3999956674399E+00 -0.1308893441503E+00
-0.3547819300499E+00 -0.1087933379677E+00
-0.3119241431195E+00 -0.8830026653668E-01
-0.2716532438515E+00 -0.6947445067610E-01
-0.2341812156567E+00 -0.5235604946245E-01
-0.1997174963666E+00 -0.3698153801004E-01
-0.1684844227769E+00 -0.2341036403729E-01
-0.1407235624957E+00 -0.1175106799809E-01
-0.1166923494700E+00 -0.2185737509401E-02
-0.9665066435934E-01  0.5005388446780E-02
-0.1161270150659E+01 -0.3184418406588E+00
-0.1175504846741E+01 -0.3205072329395E+00
-0.1189029545033E+01 -0.3224991363875E+00
-0.1201840313274E+01 -0.3244683087852E+00
-0.1213946046424E+01 -0.3264529330863E+00
-0.1225362141051E+01 -0.3284865480183E+00
-0.1236108357073E+01 -0.3306001724036E+00
-0.1246208108349E+01 -0.3328230456704E+00
-0.1255688124749E+01 -0.3351826741583E+00
-0.1264578181620E+01 -0.3377046077541E+00
-0.1272910788930E+01 -0.3404121120049E+00
-0.1280720810855E+01 -0.3433258314866E+00
-0.1288045016715E+01 -0.3464635039456E+00
-0.1294921576600E+01 -0.3498397702797E+00
-0.1301389511163E+01 -0.3534661093538E+00
-0.1307488116855E+01 -0.3573509492948E+00
-0.1313256265018E+01 -0.3614998762836E+00
-0.1318732004027E+01 -0.3659166364334E+00
-0.1323949881590E+01 -0.3706023307648E+00
-0.9455132200781E+00 -0.4194207498206E+00
-0.9558251625311E+00 -0.4259726736334E+00
-0.9663077199586E+00 -0.4319368171552E+00
-0.9770065249857E+00 -0.4372464158094E+00
-0.9879708663314E+00 -0.4418237639678E+00
-0.9992563794453E+00 -0.4455832518757E+00
-0.1010926054500E+01 -0.4484312616832E+00
-0.1023050878652E+01 -0.4502660801200E+00
-0.1035710281309E+01 -0.4509774104554E+00
-0.1048992438368E+01 -0.4504456700765E+00
-0.1062994377185E+01 -0.4485410965737E+00
-0.1077821753696E+01 -0.4451226842763E+00
-0.1093588081853E+01 -0.4400369752430E+00
-0.1110413062120E+01 -0.4331167692270E+00
-0.1128419437631E+01 -0.4241799392017E+00
-0.1147727566044E+01 -0.4130287101031E+00
-0.1168446358319E+01 -0.3994505924358E+00
-0.1190661237071E+01 -0.3832213118730E+00
-0.1214417442745E+01 -0.3641195767489E+00
-0.1285389030237E-02 -0.2304037239667E-02
-0.2441631889803E-02 -0.4439729723210E-02
-0.3465850666279E-02 -0.6357416337131E-02
-0.4494834748062E-02 -0.8191039013698E-02
-0.5552164758193E-02 -0.9962636446118E-02
-0.6657651544263E-02 -0.1168855806710E-01
-0.7821493806998E-02 -0.1337701518169E-01
-0.9050235410497E-02 -0.1503310157492E-01
-0.1034784384618E-01 -0.1666007064854E-01
-0.1171667759790E-01 -0.1826018112230E-01
-0.1315795238430E-01 -0.1983513987738E-01
-0.1467207917033E-01 -0.2138642896176E-01
-0.1625885803721E-01 -0.2291553083754E-01
-0.1791761657414E-01 -0.2442417378638E-01
-0.1964726430652E-01 -0.2591476704461E-01
-0.2144698535969E-01 -0.2739069771232E-01
-0.2331851563253E-01 -0.2885861012839E-01
-0.2526543591654E-01 -0.3032662084833E-01
-0.2728913395374E-01 -0.3179734568479E-01
-0.2938834878771E-01 -0.3327001603722E-01
-0.3156070969360E-01 -0.3474352778510E-01
-0.3380383080715E-01 -0.3621783728267E-01
-0.3611569076146E-01 -0.3769422791984E-01
-0.3849490255565E-01 -0.3917534649804E-01
-0.4094089708456E-01 -0.4066518443638E-01
-0.4345409856427E-01 -0.4216903864508E-01
-0.4603601172854E-01 -0.4369356613580E-01
-0.4868896933100E-01 -0.4524522711813E-01
-0.5141641568582E-01 -0.4683058799755E-01
-0.5422381344326E-01 -0.4845866445812E-01
-0.5711951054126E-01 -0.5014125162146E-01
-0.6011564810286E-01 -0.5189326752834E-01
-0.6322972452369E-01 -0.5373338881993E-01
-0.6648687779283E-01 -0.5568452461332E-01
-0.6992298531479E-01 -0.5777333276342E-01
-0.7358874155574E-01 -0.6002502646971E-01
-0.7755638414442E-01 -0.6244935920047E-01
-0.8195953627121E-01 -0.6506163129190E-01
-0.8698669525847E-01 -0.6797539355732E-01
-0.9345824109101E-01 -0.7104776500151E-01
-0.1113612242930E-02 -0.2058402611532E-02
-0.2254317955415E-02 -0.4107783436985E-02
-0.3295439464750E-02 -0.6019294638505E-02
-0.4328174356554E-02 -0.7831169394491E-02
-0.5390492063746E-02 -0.9581244478272E-02
-0.6499566697505E-02 -0.1128304688588E-01
-0.7666601435861E-02 -0.1294592476008E-01
-0.8898166776433E-02 -0.1457535396703E-01
-0.1019837099674E-01 -0.1617498488357E-01
-0.1156962647195E-01 -0.1774735901975E-01
-0.1301318356600E-01 -0.1929439590035E-01
-0.1452946465956E-01 -0.2081772470005E-01
-0.1611826671443E-01 -0.2231890764535E-01
-0.1777888896804E-01 -0.2379966550583E-01
-0.1951028324834E-01 -0.2526206681183E-01
-0.2131182561271E-01 -0.2670832545805E-01
-0.2318527185781E-01 -0.2814355126147E-01
-0.2513401561016E-01 -0.2957563092405E-01
-0.2715945864459E-01 -0.3100847215448E-01
-0.2926046303253E-01 -0.3244262966304E-01
-0.3143467624933E-01 -0.3387763551975E-01
-0.3367966975625E-01 -0.3531351414155E-01
-0.3599336603230E-01 -0.3675127066936E-01
-0.3837433276296E-01 -0.3819305975369E-01
-0.4082197984965E-01 -0.3964221839588E-01
-0.4333670505161E-01 -0.4110330189230E-01
-0.4591994336163E-01 -0.4258229478596E-01
-0.4857398792660E-01 -0.4408502685635E-01
-0.5130230804642E-01 -0.4561707514476E-01
-0.5411039309924E-01 -0.4718583649305E-01
-0.5700663924564E-01 -0.4880087569393E-01
-0.6000329441763E-01 -0.5047417730718E-01
-0.6311801538924E-01 -0.5222057835878E-01
-0.6637597819555E-01 -0.5405818252377E-01
-0.6981276742040E-01 -0.5600799098634E-01
-0.7347756629788E-01 -0.5808861057430E-01
-0.7744630097229E-01 -0.6029241945672E-01
-0.8184302667375E-01 -0.6261088404047E-01
-0.8690869829236E-01 -0.6501543531810E-01
-0.9344102854626E-01 -0.6733731991418E-01
-0.9896514589928E-03 -0.1896521211476E-02
-0.2082987115315E-02 -0.3836343377915E-02
-0.3128795924201E-02 -0.5706960820800E-02
-0.4166029142532E-02 -0.7491815181290E-02
-0.5231962203782E-02 -0.9214732747841E-02
-0.6344516748334E-02 -0.1088979112554E-01
-0.7514577536934E-02 -0.1252532801063E-01
-0.8748917637820E-02 -0.1412697176990E-01
-0.1005168660424E-01 -0.1569846924466E-01
-0.1142535085911E-01 -0.1724250452177E-01
-0.1287118730860E-01 -0.1876110953967E-01
-0.1438963348485E-01 -0.2025598593295E-01
-0.1598049129118E-01 -0.2172870775029E-01
-0.1764307252851E-01 -0.2318088239376E-01
-0.1937645452884E-01 -0.2461416737472E-01
-0.2118022936531E-01 -0.2602999426897E-01
-0.2305607877640E-01 -0.2743264285839E-01
-0.2500704941209E-01 -0.2882977002726E-01
-0.2703444074902E-01 -0.3022588999468E-01
-0.2913726130117E-01 -0.3162239162221E-01
-0.3131327820851E-01 -0.3301933397418E-01
-0.3356010117231E-01 -0.3441685785036E-01
-0.3587564799457E-01 -0.3581577477598E-01
-0.3825847273092E-01 -0.3721783016072E-01
-0.4070797613227E-01 -0.3862579990047E-01
-0.4322452225313E-01 -0.4004359044298E-01
-0.4580948009028E-01 -0.4147649030288E-01
-0.4846513939697E-01 -0.4292956828832E-01
-0.5119505624482E-01 -0.4440739163499E-01
-0.5400481878045E-01 -0.4591587911693E-01
-0.5690293238733E-01 -0.4746257580815E-01
-0.5990179739456E-01 -0.4905683544876E-01
-0.6301921839363E-01 -0.5071014730904E-01
-0.6628038059178E-01 -0.5243643203527E-01
-0.6972036303281E-01 -0.5425154935772E-01
-0.7338846659346E-01 -0.5616620268652E-01
-0.7736154704390E-01 -0.5816123306224E-01
-0.8176730659808E-01 -0.6019885612594E-01
-0.8686942457202E-01 -0.6220662801377E-01
-0.9327941613784E-01 -0.6411057697017E-01
-0.8959908245614E-03 -0.1776749680786E-02
-0.1933319295468E-02 -0.3613141439339E-02
-0.2970317735336E-02 -0.5424250901228E-02
-0.4009236735650E-02 -0.7172453460308E-02
-0.5077639432430E-02 -0.8863849160903E-02
-0.6192984730850E-02 -0.1050912507116E-01
-0.7365783107541E-02 -0.1211551083514E-01
-0.8602723031971E-02 -0.1368813016730E-01
-0.9907965798873E-02 -0.1523062565169E-01
-0.1128398960092E-01 -0.1674566116722E-01
-0.1273208766546E-01 -0.1823528387793E-01
-0.1425271029907E-01 -0.1970119433219E-01
-0.1584567528950E-01 -0.2114491344412E-01
-0.1751034426280E-01 -0.2256787418847E-01
-0.1924594898808E-01 -0.2397136073933E-01
-0.2105225602432E-01 -0.2535629453780E-01
-0.2293081988718E-01 -0.2672646176919E-01
-0.2488430873328E-01 -0.2808928771331E-01
-0.2691386016839E-01 -0.2944954111750E-01
-0.2901860030461E-01 -0.3080910140473E-01
-0.3119645766008E-01 -0.3216841234140E-01
-0.3344513806184E-01 -0.3352773134501E-01
-0.3576259988930E-01 -0.3488772987048E-01
-0.3814741264229E-01 -0.3624981357491E-01
-0.4059897943642E-01 -0.3761627337941E-01
-0.4311763732664E-01 -0.3899042660018E-01
-0.4570471057598E-01 -0.4037686874342E-01
-0.4836251271992E-01 -0.4177987438507E-01
-0.5109471591288E-01 -0.4320302324144E-01
-0.5390704800883E-01 -0.4465088578410E-01
-0.5680815862882E-01 -0.4612921427925E-01
-0.5981060227812E-01 -0.4764506966649E-01
-0.6293229522458E-01 -0.4920707662961E-01
-0.6619832619643E-01 -0.5082562355364E-01
-0.6964342855209E-01 -0.5251194253699E-01
-0.7331691950956E-01 -0.5427036019958E-01
-0.7729647077664E-01 -0.5607287199111E-01
-0.8171263126756E-01 -0.5786727025452E-01
-0.8681223105294E-01 -0.5959036410355E-01
-0.9300634184426E-01 -0.6124824282213E-01
-0.8223749137881E-03 -0.1681248496206E-02
-0.1804239405055E-02 -0.3425032537855E-02
-0.2822995831537E-02 -0.5169670030367E-02
-0.3859100155743E-02 -0.6873102882810E-02
-0.4928311863148E-02 -0.8528572190637E-02
-0.6045526013010E-02 -0.1014125359701E-01
-0.7220569192726E-02 -0.1171660919500E-01
-0.8459835137857E-02 -0.1325893322390E-01
-0.9767392845835E-02 -0.1477151070400E-01
-0.1114568979300E-01 -0.1625684953606E-01
-0.1259601280997E-01 -0.1771691461938E-01
-0.1411881927847E-01 -0.1915333710315E-01
-0.1571395140949E-01 -0.2056753066741E-01
-0.1738084219111E-01 -0.2196072925300E-01
-0.1911887292772E-01 -0.2333390694841E-01
-0.2092793151416E-01 -0.2468765023688E-01
-0.2280941924718E-01 -0.2602542042878E-01
-0.2476564131026E-01 -0.2735440349693E-01
-0.2679755095652E-01 -0.2867942889240E-01
-0.2890435437452E-01 -0.3000263872952E-01
-0.3108414758594E-01 -0.3132472958476E-01
-0.3333476710801E-01 -0.3264604834443E-01
-0.3565424732519E-01 -0.3396715656620E-01
-0.3804119820321E-01 -0.3528917437486E-01
-0.4049503858623E-01 -0.3661396840389E-01
-0.4301609239599E-01 -0.3794431550577E-01
-0.4560566293957E-01 -0.3928414235345E-01
-0.4826610705373E-01 -0.4063694659076E-01
-0.5100122407692E-01 -0.4200537723907E-01
-0.5381689598228E-01 -0.4339279277970E-01
-0.5672192163019E-01 -0.4480338611524E-01
-0.5972898145594E-01 -0.4624227023567E-01
-0.6285602466799E-01 -0.4771569317841E-01
-0.6612795185518E-01 -0.4923113480879E-01
-0.6957908226421E-01 -0.5079612336524E-01
-0.7325836414489E-01 -0.5241036952974E-01
-0.7724321229298E-01 -0.5404119267711E-01
-0.8166003896494E-01 -0.5563600682402E-01
-0.8671632014722E-01 -0.5715718044748E-01
-0.9266203778620E-01 -0.5865472027068E-01
-0.7626450828829E-03 -0.1601065401869E-02
-0.1692932826750E-02 -0.3262386541085E-02
-0.2687945406499E-02 -0.4939531425763E-02
-0.3716783939209E-02 -0.6593012936302E-02
-0.4784679859937E-02 -0.8208623277677E-02
-0.5902644064393E-02 -0.9786122800379E-02
-0.7079285935804E-02 -0.1132864430545E-01
-0.8320504101244E-02 -0.1283940313191E-01
-0.9630156036382E-02 -0.1432113499514E-01
-0.1101060112063E-01 -0.1577606386908E-01
-0.1246309133773E-01 -0.1720598648615E-01
-0.1398808026755E-01 -0.1861240286356E-01
-0.1558543731325E-01 -0.1999657868150E-01
-0.1725467240816E-01 -0.2135954435301E-01
-0.1899529468462E-01 -0.2270202269582E-01
-0.2080726552812E-01 -0.2402437434537E-01
-0.2269182336416E-01 -0.2532982170327E-01
-0.2465094159210E-01 -0.2662530060036E-01
-0.2668538740312E-01 -0.2791558831553E-01
-0.2879441484939E-01 -0.2920294049597E-01
-0.3097627611966E-01 -0.3048819946525E-01
-0.3322895432001E-01 -0.3177176411131E-01
-0.3555058443899E-01 -0.3305409992474E-01
-0.3793983729242E-01 -0.3433608208134E-01
-0.4039616154327E-01 -0.3561920239186E-01
-0.4291988391365E-01 -0.3690574273208E-01
-0.4551230751686E-01 -0.3819900000561E-01
-0.4817584451995E-01 -0.3950174119688E-01
-0.5091441993269E-01 -0.4081576535520E-01
-0.5373406279605E-01 -0.4214336425573E-01
-0.5664370016444E-01 -0.4348740468605E-01
-0.5965608169142E-01 -0.4485139256632E-01
-0.6278908574251E-01 -0.4623966960736E-01
-0.6606728483752E-01 -0.4765745540610E-01
-0.6952434708369E-01 -0.4910959743162E-01
-0.7320821292790E-01 -0.5059304212152E-01
-0.7719395423202E-01 -0.5207462086677E-01
-0.8159705830414E-01 -0.5350929647203E-01
-0.8657916343412E-01 -0.5488388713034E-01
-0.9227518805132E-01 -0.5626607919298E-01
-0.7129469463406E-03 -0.1531207832710E-02
-0.1596480500097E-02 -0.3118529871567E-02
-0.2565075647154E-02 -0.4729870013979E-02
-0.3583007307427E-02 -0.6330732309937E-02
-0.4647330147164E-02 -0.7903447377722E-02
-0.5764774101431E-02 -0.9443485161040E-02
-0.6942258133767E-02 -0.1095151221650E-01
-0.8184970585591E-02 -0.1242948663470E-01
-0.9496439764838E-02 -0.1387946085005E-01
-0.1087887134336E-01 -0.1530327046275E-01
-0.1233344858508E-01 -0.1670247016254E-01
-0.1386060573132E-01 -0.1807837704677E-01
-0.1546023495822E-01 -0.1943207941149E-01
-0.1713191660156E-01 -0.2076440849266E-01
-0.1887525933764E-01 -0.2207588187641E-01
-0.2069025941112E-01 -0.2336670065227E-01
-0.2257799195124E-01 -0.2463989145568E-01
-0.2454013284525E-01 -0.2590212847962E-01
-0.2657727200309E-01 -0.2715806815944E-01
-0.2868868730184E-01 -0.2840998209071E-01
-0.3087276890734E-01 -0.2965877699842E-01
-0.3312764945007E-01 -0.3090486628203E-01
-0.3545157920949E-01 -0.3214862326294E-01
-0.3784330524959E-01 -0.3339070819091E-01
-0.4030231914237E-01 -0.3463227976323E-01
-0.4282896519565E-01 -0.3587516971140E-01
-0.4542456197944E-01 -0.3712209409339E-01
-0.4809158170807E-01 -0.3837515255728E-01
-0.5083406347592E-01 -0.3963538991198E-01
-0.5365815960066E-01 -0.4090418201875E-01
-0.5657288261328E-01 -0.4218329794926E-01
-0.5959097233655E-01 -0.4347496225030E-01
-0.6273010837999E-01 -0.4478205784949E-01
-0.6601434270804E-01 -0.4610817752157E-01
-0.6947634302639E-01 -0.4745647237496E-01
-0.7316220320148E-01 -0.4882282770935E-01
-0.7714239313007E-01 -0.5017663127130E-01
-0.8151727453168E-01 -0.5148313484713E-01
-0.8640526278891E-01 -0.5274724096485E-01
-0.9186427758281E-01 -0.5403937117487E-01
-0.6707646502131E-03 -0.1468671933871E-02
-0.1512332956843E-02 -0.2988836185117E-02
-0.2453669958234E-02 -0.4537139867997E-02
-0.3458039263999E-02 -0.6084473551386E-02
-0.4516679844990E-02 -0.7612233981143E-02
-0.5632272392448E-02 -0.9112935319353E-02
-0.6809770199614E-02 -0.1058499718874E-01
-0.8053456439313E-02 -0.1202905800178E-01
-0.9366418492173E-02 -0.1344640379993E-01
-0.1075064180631E-01 -0.1483840653677E-01
-0.1220720347338E-01 -0.1620631999435E-01
-0.1373649870048E-01 -0.1755123736389E-01
-0.1533843148550E-01 -0.1887404924797E-01
-0.1701263799631E-01 -0.2017539475420E-01
-0.1875879703263E-01 -0.2145561930489E-01
-0.2057690981988E-01 -0.2271480355578E-01
-0.2246789258627E-01 -0.2395579882430E-01
-0.2443315607981E-01 -0.2518500700029E-01
-0.2647312624603E-01 -0.2640692057765E-01
-0.2858708807717E-01 -0.2762376319871E-01
-0.3077355012784E-01 -0.2883644663868E-01
-0.3303078934897E-01 -0.3004536628626E-01
-0.3535717787443E-01 -0.3125080229015E-01
-0.3775154938734E-01 -0.3245322267670E-01
-0.4021344904277E-01 -0.3365348944004E-01
-0.4274325050947E-01 -0.3485302886745E-01
-0.4534229768314E-01 -0.3605403110718E-01
-0.4801312060782E-01 -0.3725800139351E-01
-0.5075985247216E-01 -0.3846533398018E-01
-0.5358873216984E-01 -0.3967664041145E-01
-0.5650879840007E-01 -0.4089281057238E-01
-0.5953268513689E-01 -0.4211509117575E-01
-0.6267772518361E-01 -0.4334531981552E-01
-0.6596722055142E-01 -0.4458604170724E-01
-0.6943242773347E-01 -0.4583957500164E-01
-0.7311671389237E-01 -0.4710208043471E-01
-0.7708414898630E-01 -0.4834717223188E-01
-0.8141837684496E-01 -0.4955014238465E-01
-0.8620104570209E-01 -0.5072743640316E-01
-0.9144080202107E-01 -0.5194493038398E-01
-0.6343905914305E-03 -0.1411542008446E-02
-0.1438391626859E-02 -0.2870049340901E-02
-0.2352747542530E-02 -0.4358380384513E-02
-0.3341802236047E-02 -0.5852392253871E-02
-0.4392959031853E-02 -0.7334000361039E-02
-0.5505404245211E-02 -0.8793938942375E-02
-0.6682057397675E-02 -0.1022878952965E-01
-0.7926156941071E-02 -0.1163792549852E-01
-0.9240251483973E-02 -0.1302183503141E-01
-0.1062604361103E-01 -0.1438138030890E-01
-0.1208446584855E-01 -0.1571747223695E-01
-0.1361585153595E-01 -0.1703095005467E-01
-0.1522010053325E-01 -0.1832249345151E-01
-0.1689688561309E-01 -0.1959255649445E-01
-0.1864592774024E-01 -0.2084133491919E-01
-0.2046721034804E-01 -0.2206881106045E-01
-0.2236149733136E-01 -0.2327766933910E-01
-0.2432996300004E-01 -0.2447403028447E-01
-0.2637288389620E-01 -0.2566219495526E-01
-0.2848954098977E-01 -0.2684429735123E-01
-0.3067854270680E-01 -0.2802121236118E-01
-0.3293830045487E-01 -0.2919329160108E-01
-0.3526730858338E-01 -0.3036071958504E-01
-0.3766449300593E-01 -0.3152379025540E-01
-0.4012945983477E-01 -0.3268310169793E-01
-0.4266261991517E-01 -0.3383971912100E-01
-0.4526534655447E-01 -0.3499536478417E-01
-0.4794021907875E-01 -0.3615102694964E-01
-0.5069143781356E-01 -0.3730655550879E-01
-0.5352528192998E-01 -0.3846194548751E-01
-0.5645074526228E-01 -0.3961741185212E-01
-0.5948024839298E-01 -0.4077349928137E-01
-0.6263061699353E-01 -0.4193136782368E-01
-0.6592415757489E-01 -0.4309301331142E-01
-0.6939029792837E-01 -0.4426061074544E-01
-0.7306891324870E-01 -0.4543148421933E-01
-0.7701656854523E-01 -0.4658404805203E-01
-0.8130046657327E-01 -0.4770207558861E-01
-0.8597279278182E-01 -0.4880841674819E-01
-0.9101187916111E-01 -0.4996151002149E-01
-0.6026242628051E-03 -0.1358537792061E-02
-0.1372966524210E-02 -0.2759832937327E-02
-0.2261263294270E-02 -0.4191188654729E-02
-0.3233987533002E-02 -0.5632743761179E-02
-0.4276226902367E-02 -0.7067682871703E-02
-0.5384338871907E-02 -0.8485867460013E-02
-0.6559300468406E-02 -0.9882503636176E-02
-0.7803235453010E-02 -0.1125584027059E-01
-0.9118078521662E-02 -0.1260558503624E-01
-0.1050519447623E-01 -0.1393207193271E-01
-0.1196533438828E-01 -0.1523584401486E-01
-0.1349874522259E-01 -0.1651746716468E-01
-0.1510530349145E-01 -0.1777740266278E-01
-0.1678469716938E-01 -0.1901592589794E-01
-0.1853666396420E-01 -0.2023309764668E-01
-0.2036115213815E-01 -0.2142881364102E-01
-0.2225878045004E-01 -0.2260559366707E-01
-0.2423051140093E-01 -0.2376926978903E-01
-0.2627648619807E-01 -0.2492393414754E-01
-0.2839597452957E-01 -0.2607160428333E-01
-0.3058766813377E-01 -0.2721308956307E-01
-0.3285010063398E-01 -0.2834867894737E-01
-0.3518188444278E-01 -0.2947845947632E-01
-0.3758203903926E-01 -0.3060256663966E-01
-0.4005023518041E-01 -0.3172136491739E-01
-0.4258692440369E-01 -0.3283560204327E-01
-0.4519350808682E-01 -0.3394659126135E-01
-0.4787260074231E-01 -0.3505488219031E-01
-0.5062843732586E-01 -0.3615988490109E-01
-0.5346728433216E-01 -0.3726111801702E-01
-0.5639801243425E-01 -0.3835830803409E-01
-0.5943271548671E-01 -0.3945154126443E-01
-0.6258754892981E-01 -0.4054161414901E-01
-0.6588358328344E-01 -0.4163037530414E-01
-0.6934804331693E-01 -0.4272035312389E-01
-0.7301675386138E-01 -0.4381051037804E-01
-0.7693833167912E-01 -0.4488392991830E-01
-0.8116490778353E-01 -0.4593096939827E-01
-0.8572594681408E-01 -0.4697731099763E-01
-0.9058196169084E-01 -0.4807333455603E-01
-0.5745949332609E-03 -0.1308769841808E-02
-0.1314704709308E-02 -0.2656476716283E-02
-0.2178209038506E-02 -0.4033634874720E-02
-0.3134149924780E-02 -0.5423953750247E-02
-0.4166404010061E-02 -0.6812209334809E-02
-0.5269153147855E-02 -0.8188034869589E-02
-0.6441623554991E-02 -0.9545696489821E-02
-0.7684820222082E-02 -0.1088250621303E-01
-0.9000016804983E-02 -0.1219744829033E-01
-0.1038819631624E-01 -0.1349033516485E-01
-0.1184989505329E-01 -0.1476133300120E-01
-0.1338524899618E-01 -0.1601072485135E-01
-0.1499409053422E-01 -0.1723875096006E-01
-0.1667610099345E-01 -0.1844551380895E-01
-0.1843101225246E-01 -0.1963094873393E-01
-0.2025872399049E-01 -0.2079487047353E-01
-0.2215971679877E-01 -0.2193963359139E-01
-0.2413476210276E-01 -0.2307077663585E-01
-0.2618387850189E-01 -0.2419217207949E-01
-0.2830631966294E-01 -0.2530570432348E-01
-0.3050084614974E-01 -0.2641209856096E-01
-0.3276610057516E-01 -0.2751156844505E-01
-0.3510080609151E-01 -0.2860410340409E-01
-0.3750407339297E-01 -0.2968969497208E-01
-0.3997563787613E-01 -0.3076850254403E-01
-0.4251599105100E-01 -0.3184099876196E-01
-0.4512655616084E-01 -0.3290814588090E-01
-0.4780996416426E-01 -0.3397013144251E-01
-0.5057044802323E-01 -0.3502602548052E-01
-0.5341420458908E-01 -0.3607499965897E-01
-0.5634989986161E-01 -0.3711645801974E-01
-0.5938918749628E-01 -0.3815023724927E-01
-0.6254739623286E-01 -0.3917702633119E-01
-0.6584414378079E-01 -0.4019882892963E-01
-0.6930415523508E-01 -0.4121884014289E-01
-0.7295887960431E-01 -0.4223781731128E-01
-0.7684905921621E-01 -0.4324300511674E-01
-0.8101362794698E-01 -0.4422957698557E-01
-0.8546499430427E-01 -0.4522375414575E-01
-0.9015388819693E-01 -0.4626829722151E-01
-0.5496535064670E-03 -0.1261599614181E-02
-0.1262521100962E-02 -0.2558704264159E-02
-0.2102659052766E-02 -0.3884171857343E-02
-0.3041775890864E-02 -0.5224638887150E-02
-0.4063307847815E-02 -0.6566547373368E-02
-0.5159841974887E-02 -0.7899730838811E-02
-0.6329095472373E-02 -0.9217885958875E-02
-0.7571003092277E-02 -0.1051759012664E-01
-0.8886159051670E-02 -0.1179718855651E-01
-0.1027513355809E-01 -0.1305599964160E-01
-0.1173822003029E-01 -0.1429381775949E-01
-0.1327542018959E-01 -0.1551064258908E-01
-0.1488650141612E-01 -0.1670649501284E-01
-0.1657111725812E-01 -0.1788131025551E-01
-0.1832897400786E-01 -0.1903490455276E-01
-0.2015991223549E-01 -0.2016701393165E-01
-0.2206428066702E-01 -0.2127982619053E-01
-0.2404267688573E-01 -0.2237858333294E-01
-0.2609500791863E-01 -0.2346693214321E-01
-0.2822050819162E-01 -0.2454661423851E-01
-0.3041799445792E-01 -0.2561825942031E-01
-0.3268620489929E-01 -0.2668199868335E-01
-0.3502396391910E-01 -0.2773772581973E-01
-0.3743046800659E-01 -0.2878530258428E-01
-0.3990551375057E-01 -0.2982471043032E-01
-0.4244962800578E-01 -0.3085618764350E-01
-0.4506424549827E-01 -0.3188040138971E-01
-0.4775199121747E-01 -0.3289725001436E-01
-0.5051705680793E-01 -0.3390555630085E-01
-0.5336551086589E-01 -0.3490426162580E-01
-0.5630573358423E-01 -0.3589259157212E-01
-0.5934882996424E-01 -0.3687030600491E-01
-0.6250916035287E-01 -0.3783818491970E-01
-0.6580471018356E-01 -0.3879859479281E-01
-0.6925750219820E-01 -0.3975555636384E-01
-0.7289449866166E-01 -0.4071156094150E-01
-0.7674899268265E-01 -0.4165735999377E-01
-0.8084872209553E-01 -0.4259147773708E-01
-0.8519355673613E-01 -0.4353930281234E-01
-0.8972951191150E-01 -0.4453683364610E-01
-0.5273043471823E-03 -0.1216555586539E-02
-0.1215540457959E-02 -0.2465545338520E-02
-0.2033785665860E-02 -0.3741555456408E-02
-0.2956329284420E-02 -0.5033601695992E-02
-0.3966685148586E-02 -0.6329732401005E-02
-0.5056332033083E-02 -0.7620247023050E-02
-0.6221733764050E-02 -0.8898567671279E-02
-0.7461839919251E-02 -0.1016073166995E-01
-0.8776572702825E-02 -0.1140454445124E-01
-0.1016607217232E-01 -0.1262887360078E-01
-0.1163036711543E-01 -0.1383315864926E-01
-0.1316930423883E-01 -0.1501712310058E-01
-0.1478256607800E-01 -0.1618057399565E-01
-0.1646975876558E-01 -0.1732328534238E-01
-0.1823054589550E-01 -0.1844495895833E-01
-0.2006470051333E-01 -0.1954525291195E-01
-0.2197244493554E-01 -0.2062618682126E-01
-0.2395421709619E-01 -0.2169270503486E-01
-0.2600982171854E-01 -0.2274822608308E-01
-0.2813847158965E-01 -0.2379434412677E-01
-0.3033902853382E-01 -0.2483158786929E-01
-0.3261031309808E-01 -0.2586000262914E-01
-0.3495124001208E-01 -0.2687939065261E-01
-0.3736108365933E-01 -0.2788949817195E-01
-0.3983969533560E-01 -0.2889015464869E-01
-0.4238762919118E-01 -0.2988140272967E-01
-0.4500631762382E-01 -0.3086366732058E-01
-0.4769835455091E-01 -0.3183662540628E-01
-0.5046784963459E-01 -0.3279893679654E-01
-0.5332068504960E-01 -0.3374941520515E-01
-0.5626487750356E-01 -0.3468722915828E-01
-0.5931088421289E-01 -0.3561219925167E-01
-0.6247197637315E-01 -0.3652534076449E-01
-0.6576437282913E-01 -0.3742950810351E-01
-0.6920728627486E-01 -0.3832958849117E-01
-0.7282325548665E-01 -0.3922961848973E-01
-0.7663875676942E-01 -0.4012318888095E-01
-0.8067224375795E-01 -0.4101104174757E-01
-0.8491453802328E-01 -0.4191698108930E-01
-0.8931007530764E-01 -0.4287119752920E-01
-0.5071609617848E-03 -0.1173280941885E-02
-0.1173051375832E-02 -0.2376249686028E-02
-0.1970859620758E-02 -0.3604779601396E-02
-0.2877280081793E-02 -0.4849813745647E-02
-0.3876238395645E-02 -0.6100880942709E-02
-0.4958496323132E-02 -0.7348896020428E-02
-0.6119510640581E-02 -0.8587229463019E-02
-0.7357352402730E-02 -0.9811552648205E-02
-0.8671300101555E-02 -0.1101923498720E-01
-0.1006105935511E-01 -0.1220874687441E-01
-0.1152637948979E-01 -0.1337919917041E-01
-0.1306693482298E-01 -0.1453005284246E-01
-0.1468230512342E-01 -0.1566091001943E-01
-0.1637203145089E-01 -0.1677139033275E-01
-0.1813572002881E-01 -0.1786108528452E-01
-0.1997306953978E-01 -0.1892957535377E-01
-0.2188418047257E-01 -0.1997871129466E-01
-0.2386934271764E-01 -0.2101314046964E-01
-0.2592826626861E-01 -0.2203605319645E-01
-0.2806014023052E-01 -0.2304889507793E-01
-0.3026386156235E-01 -0.2405209208697E-01
-0.3253832037737E-01 -0.2504560428330E-01
-0.3488250989015E-01 -0.2602914834380E-01
-0.3729577253385E-01 -0.2700236943352E-01
-0.3977800526953E-01 -0.2796496981272E-01
-0.4232977864427E-01 -0.2891683288081E-01
-0.4495250625770E-01 -0.2985819036921E-01
-0.4764872412833E-01 -0.3078855978608E-01
-0.5042241918613E-01 -0.3170651282253E-01
-0.5327923125629E-01 -0.3261082355613E-01
-0.5622674184052E-01 -0.3350070261711E-01
-0.5927467382810E-01 -0.3437613574355E-01
-0.6243511329224E-01 -0.3523846948850E-01
-0.6572242563821E-01 -0.3609110382128E-01
-0.6915299158428E-01 -0.3693975075938E-01
-0.7274511755160E-01 -0.3778974134861E-01
-0.7651919315030E-01 -0.3863689671559E-01
-0.8048610464155E-01 -0.3948334138093E-01
-0.8463026881465E-01 -0.4035094002522E-01
-0.8889643486420E-01 -0.4126498030401E-01
-0.4889163607532E-03 -0.1131499804330E-02
-0.1134470672895E-02 -0.2290227849620E-02
-0.1913243295020E-02 -0.3473024995942E-02
-0.2804121321706E-02 -0.4672394805744E-02
-0.3791646232746E-02 -0.5879194337046E-02
-0.4866167851899E-02 -0.7085023773487E-02
-0.6022359878359E-02 -0.8283362936121E-02
-0.7257530978032E-02 -0.9469665266977E-02
-0.8570359483948E-02 -0.1064096485607E-01
-0.9960123778084E-02 -0.1179539398861E-01
-0.1142628583828E-01 -0.1293176761363E-01
-0.1296833412722E-01 -0.1404930289066E-01
-0.1458573022281E-01 -0.1514740890593E-01
-0.1627793472190E-01 -0.1622555881616E-01
-0.1804448404695E-01 -0.1728323805244E-01
-0.1988499690108E-01 -0.1831995019754E-01
-0.2179945571489E-01 -0.1933737750212E-01
-0.2378801177203E-01 -0.2033987263212E-01
-0.2585028636226E-01 -0.2133039975278E-01
-0.2798544292340E-01 -0.2231025740505E-01
-0.3019240450264E-01 -0.2327977019652E-01
-0.3247011844915E-01 -0.2423881599376E-01
-0.3481764407470E-01 -0.2518703342574E-01
-0.3723438054952E-01 -0.2612398118666E-01
-0.3972025940774E-01 -0.2704925790774E-01
-0.4227585444793E-01 -0.2796262156094E-01
-0.4490254209813E-01 -0.2886415559839E-01
-0.4760277283288E-01 -0.2975327344365E-01
-0.5038037113534E-01 -0.3062852368650E-01
-0.5324068226813E-01 -0.3148871425915E-01
-0.5619078866109E-01 -0.3233317593485E-01
-0.5923960707236E-01 -0.3316213404141E-01
-0.6239796888894E-01 -0.3397732143712E-01
-0.6567834469856E-01 -0.3478268962212E-01
-0.6909433249886E-01 -0.3558468167796E-01
-0.7266028229221E-01 -0.3638965491583E-01
-0.7639124906231E-01 -0.3719513993757E-01
-0.8029203495910E-01 -0.3800405106100E-01
-0.8434262859329E-01 -0.3883620457703E-01
-0.8848919767318E-01 -0.3971278270433E-01
-0.4723227219040E-03 -0.1090994784737E-02
-0.1099316068607E-02 -0.2207009807533E-02
-0.1860381108440E-02 -0.3345619208800E-02
-0.2736378165529E-02 -0.4500591851491E-02
-0.3712578449069E-02 -0.5663956605118E-02
-0.4779151615796E-02 -0.6828016738413E-02
-0.5930183930196E-02 -0.7986472122410E-02
-0.7162338389758E-02 -0.9134679121669E-02
-0.8473746602567E-02 -0.1026942926738E-01
-0.9863276310849E-02 -0.1138857722866E-01
-0.1133010076367E-01 -0.1249067889160E-01
-0.1287351322348E-01 -0.1357473009349E-01
-0.1449284449150E-01 -0.1463996117882E-01
-0.1618746171688E-01 -0.1568570790238E-01
-0.1795682115331E-01 -0.1671135445389E-01
-0.1980045690074E-01 -0.1771632894690E-01
-0.2171823639706E-01 -0.1870214666427E-01
-0.2371017996151E-01 -0.1967286931919E-01
-0.2577582483642E-01 -0.2063123857563E-01
-0.2791430668956E-01 -0.2157840931462E-01
-0.3012456626677E-01 -0.2251460832969E-01
-0.3240559629540E-01 -0.2343963633931E-01
-0.3475650951755E-01 -0.2435306261216E-01
-0.3717674947513E-01 -0.2525437395237E-01
-0.3966626962871E-01 -0.2614308760853E-01
-0.4222563223278E-01 -0.2701886719195E-01
-0.4485615698048E-01 -0.2788168831572E-01
-0.4756018116157E-01 -0.2873090897709E-01
-0.5034132909034E-01 -0.2956510982960E-01
-0.5320460411907E-01 -0.3038319216877E-01
-0.5615653489047E-01 -0.3118466553058E-01
-0.5920517604675E-01 -0.3197004315845E-01
-0.6236006085348E-01 -0.3274146609413E-01
-0.6563176432766E-01 -0.3350340635539E-01
-0.6903120589604E-01 -0.3426291616355E-01
-0.7256910414711E-01 -0.3502712087346E-01
-0.7625590538236E-01 -0.3579483339408E-01
-0.8009157620515E-01 -0.3656935254360E-01
-0.8405314265336E-01 -0.3736848455834E-01
-0.8808880539753E-01 -0.3820998348957E-01
-0.4571771054660E-03 -0.1051591647076E-02
-0.1067185252438E-02 -0.2126215587699E-02
-0.1811789347143E-02 -0.3222005800381E-02
-0.2673611891138E-02 -0.4333759704611E-02
-0.3638706535452E-02 -0.5454529086987E-02
-0.4697234583874E-02 -0.6577305170140E-02
-0.5842860726546E-02 -0.7696079539446E-02
-0.7071713605862E-02 -0.8806206844499E-02
-0.8381436798887E-02 -0.9904318216707E-02
-0.9770511117363E-02 -0.1098804955288E-01
-0.1123782544653E-01 -0.1205573644103E-01
-0.1278247256222E-01 -0.1310617838346E-01
-0.1440364287516E-01 -0.1413844317937E-01
-0.1610059953402E-01 -0.1515173940526E-01
-0.1787271015803E-01 -0.1614535565772E-01
-0.1971942046870E-01 -0.1711864694846E-01
-0.2164048540166E-01 -0.1807296432067E-01
-0.2363580048863E-01 -0.1901208356284E-01
-0.2570482239983E-01 -0.1993852875455E-01
-0.2784665672175E-01 -0.2085331591951E-01
-0.3006025399257E-01 -0.2175657915776E-01
-0.3234464091259E-01 -0.2264804850652E-01
-0.3469897090700E-01 -0.2352723335443E-01
-0.3712271882990E-01 -0.2439356298020E-01
-0.3961584633293E-01 -0.2524649404687E-01
-0.4217888824408E-01 -0.2608562399879E-01
-0.4481308742172E-01 -0.2691085648455E-01
-0.4752064105490E-01 -0.2772153599557E-01
-0.5030493834047E-01 -0.2851632086230E-01
-0.5317059906517E-01 -0.2929425219510E-01
-0.5612355325205E-01 -0.3005505958465E-01
-0.5917095340836E-01 -0.3079957053636E-01
-0.6232101565691E-01 -0.3153033056276E-01
-0.6558245293853E-01 -0.3225227680330E-01
-0.6896364949659E-01 -0.3297293776497E-01
-0.7247203915565E-01 -0.3369997380148E-01
-0.7611413204430E-01 -0.3443313995167E-01
-0.7988609058728E-01 -0.3517585202704E-01
-0.8376305689299E-01 -0.3594403110716E-01
-0.8769558538945E-01 -0.3675257185687E-01
-0.4433112057232E-03 -0.1013148587136E-02
-0.1037739802735E-02 -0.2047534056257E-02
-0.1767046482390E-02 -0.3101720447266E-02
-0.2615420747835E-02 -0.4171343984428E-02
-0.3569710810420E-02 -0.5250343532486E-02
-0.4620193707831E-02 -0.6332363687182E-02
-0.5760249854220E-02 -0.7411730059436E-02
-0.6985575795761E-02 -0.8483868450809E-02
-0.8293387352858E-02 -0.9545320115497E-02
-0.9681807028449E-02 -0.1059355726759E-01
-0.1114944850267E-01 -0.1162673410537E-01
-0.1269520256586E-01 -0.1264348016040E-01
-0.1431811256449E-01 -0.1364271823874E-01
-0.1601732946775E-01 -0.1462354099347E-01
-0.1779212554969E-01 -0.1558514797482E-01
-0.1964185513628E-01 -0.1652682446812E-01
-0.2156616270969E-01 -0.1744976114147E-01
-0.2356482401086E-01 -0.1835745400112E-01
-0.2563721761694E-01 -0.1925221546620E-01
-0.2778241648078E-01 -0.2013492852726E-01
-0.2999937338857E-01 -0.2100564080697E-01
-0.3228713803752E-01 -0.2186401909065E-01
-0.3464489186144E-01 -0.2270952281636E-01
-0.3707212758141E-01 -0.2354153767726E-01
-0.3956880063922E-01 -0.2435947898184E-01
-0.4213540198139E-01 -0.2516290326775E-01
-0.4477307757418E-01 -0.2595167354128E-01
-0.4748385892320E-01 -0.2672515615391E-01
-0.5027086853229E-01 -0.2748212371135E-01
-0.5313830718152E-01 -0.2822179171500E-01
-0.5609147155885E-01 -0.2894413607615E-01
-0.5913658737510E-01 -0.2965030705680E-01
-0.6228055635126E-01 -0.3034323219974E-01
-0.6553029017334E-01 -0.3102824408576E-01
-0.6889180690114E-01 -0.3171321558977E-01
-0.7236960386224E-01 -0.3240614040863E-01
-0.7596686157940E-01 -0.3310745262325E-01
-0.7967677864591E-01 -0.3382051123017E-01
-0.8347339577437E-01 -0.3455952496529E-01
-0.8730977801715E-01 -0.3533702110867E-01
-0.4305838571443E-03 -0.9755485757639E-03
-0.1010692767285E-02 -0.1970707374418E-02
-0.1725784444710E-02 -0.2984372427803E-02
-0.2561438954889E-02 -0.4012866479096E-02
-0.3505284985219E-02 -0.5050894688761E-02
-0.4547802153463E-02 -0.6092710035510E-02
-0.5682197960746E-02 -0.7132993040113E-02
-0.6903828170461E-02 -0.8167294505405E-02
-0.8209539961102E-02 -0.9192124766136E-02
-0.9597129099486E-02 -0.1020484240453E-01
-0.1106494699083E-01 -0.1120345792770E-01
-0.1261168431125E-01 -0.1218645767770E-01
-0.1423623345086E-01 -0.1315263785659E-01
-0.1593762727247E-01 -0.1410098729305E-01
-0.1771503760959E-01 -0.1503062390841E-01
-0.1956772507600E-01 -0.1594076761896E-01
-0.2149522543439E-01 -0.1683245361704E-01
-0.2349719869735E-01 -0.1770890521567E-01
-0.2557294700596E-01 -0.1857222989076E-01
-0.2772150789221E-01 -0.1942318415349E-01
-0.2994182913028E-01 -0.2026173609288E-01
-0.3223297285034E-01 -0.2108749725974E-01
-0.3459413601609E-01 -0.2189988721875E-01
-0.3702481564859E-01 -0.2269826139829E-01
-0.3952494628837E-01 -0.2348201132149E-01
-0.4209495842816E-01 -0.2425067494151E-01
-0.4473588162475E-01 -0.2500410150588E-01
-0.4744955794217E-01 -0.2574170836246E-01
-0.5023881541124E-01 -0.2646241068011E-01
-0.5310740682409E-01 -0.2716562238825E-01
-0.5605997075311E-01 -0.2785157931480E-01
-0.5910179565243E-01 -0.2852174901081E-01
-0.6223849016456E-01 -0.2917940576836E-01
-0.6547524620491E-01 -0.2983020139165E-01
-0.6881589884744E-01 -0.3048222941217E-01
-0.7226234601289E-01 -0.3114364856873E-01
-0.7581497320435E-01 -0.3181537075175E-01
-0.7946470066225E-01 -0.3250059922442E-01
-0.8318501075746E-01 -0.3321198097168E-01
-0.8693154244027E-01 -0.3396019363390E-01
-0.4188754598991E-03 -0.9386937852410E-03
-0.9857990094828E-03 -0.1895519446174E-02
-0.1687680992287E-02 -0.2869630198822E-02
-0.2511334677090E-02 -0.3857912782360E-02
-0.3445138871529E-02 -0.4855732995338E-02
-0.4479834015529E-02 -0.5857902737433E-02
-0.5608543344510E-02 -0.6859463134604E-02
-0.6826361551673E-02 -0.7856128270645E-02
-0.8129823224333E-02 -0.8844425706507E-02
-0.9516430272606E-02 -0.9821644768848E-02
-0.1098428752596E-01 -0.1078568780336E-01
-0.1253189028536E-01 -0.1173492438063E-01
-0.1415797862701E-01 -0.1266804284933E-01
-0.1586146346460E-01 -0.1358394093166E-01
-0.1764141257467E-01 -0.1448166310844E-01
-0.1949699120211E-01 -0.1536036917907E-01
-0.2142762792432E-01 -0.1622094466422E-01
-0.2343287036357E-01 -0.1706634805541E-01
-0.2551194521999E-01 -0.1789848921327E-01
-0.2766385161400E-01 -0.1871800522238E-01
-0.2988752528882E-01 -0.1952479202133E-01
-0.3218203064865E-01 -0.2031841422884E-01
-0.3454656800637E-01 -0.2109826150613E-01
-0.3698062521874E-01 -0.2186367155116E-01
-0.3948410126815E-01 -0.2261402794264E-01
-0.4205734989537E-01 -0.2334886947899E-01
-0.4470126568331E-01 -0.2406805428605E-01
-0.4741747969641E-01 -0.2477107404218E-01
-0.5020850176590E-01 -0.2545700726770E-01
-0.5307761418133E-01 -0.2612548122040E-01
-0.5602878204897E-01 -0.2677699486037E-01
-0.5906635878508E-01 -0.2741331709635E-01
-0.6219469653172E-01 -0.2803802569670E-01
-0.6541736346278E-01 -0.2865701450815E-01
-0.6873620045244E-01 -0.2927848645028E-01
-0.7215082275836E-01 -0.2991062841571E-01
-0.7565928864824E-01 -0.3055468043887E-01
-0.7925078301563E-01 -0.3121363532303E-01
-0.8289865581465E-01 -0.3189874040962E-01
-0.8656089030608E-01 -0.3261913346826E-01
-0.4080837687706E-03 -0.9025014612704E-03
-0.9628476509325E-03 -0.1821787216775E-02
-0.1652453153162E-02 -0.2757210095177E-02
-0.2464807506546E-02 -0.3706121935509E-02
-0.3388999776833E-02 -0.4664457719495E-02
-0.4416067787909E-02 -0.5627538116332E-02
-0.5539119761370E-02 -0.6590760138334E-02
-0.6753057594133E-02 -0.7550027011057E-02
-0.8054155054731E-02 -0.8501921976062E-02
-0.9439653075740E-02 -0.9443703649681E-02
-0.1090742745768E-01 -0.1037319896036E-01
-0.1245578519737E-01 -0.1128868616108E-01
-0.1408331493148E-01 -0.1218876444295E-01
-0.1578880366661E-01 -0.1307225351909E-01
-0.1757121284965E-01 -0.1393813324600E-01
-0.1942961132679E-01 -0.1478550932815E-01
-0.2136332192421E-01 -0.1561512417841E-01
-0.2337178266537E-01 -0.1642967996221E-01
-0.2545414528756E-01 -0.1723089670432E-01
-0.2760936735200E-01 -0.1801929942801E-01
-0.2983636577577E-01 -0.1879471951658E-01
-0.3213419748620E-01 -0.1955668300172E-01
-0.3450205435009E-01 -0.2030455929483E-01
-0.3693940188765E-01 -0.2103767997734E-01
-0.3944608917638E-01 -0.2175543476209E-01
-0.4202237750801E-01 -0.2245737991921E-01
-0.4466900920912E-01 -0.2314340109525E-01
-0.4738738525258E-01 -0.2381308232618E-01
-0.5017967770700E-01 -0.2446567963853E-01
-0.5304868212239E-01 -0.2510104078032E-01
-0.5599768347719E-01 -0.2571992281355E-01
-0.5903011333767E-01 -0.2632437264071E-01
-0.6214911590665E-01 -0.2691822406474E-01
-0.6535674102332E-01 -0.2750753866833E-01
-0.6865302292411E-01 -0.2810053179168E-01
-0.7203558701233E-01 -0.2870531001094E-01
-0.7550056552734E-01 -0.2932333249664E-01
-0.7903585325165E-01 -0.2995735700032E-01
-0.8261492501515E-01 -0.3061739477604E-01
-0.8619809607382E-01 -0.3131120338379E-01
-0.3981206677056E-03 -0.8669008170832E-03
-0.9416561119999E-03 -0.1749354035501E-02
-0.1619851648857E-02 -0.2646867419014E-02
-0.2421585777767E-02 -0.3557177788175E-02
-0.3336612996593E-02 -0.4476710689513E-02
-0.4356288840323E-02 -0.5401247033728E-02
-0.5473759517195E-02 -0.6326528161409E-02
-0.6683791627755E-02 -0.7248662619498E-02
-0.7982444940625E-02 -0.8164319366483E-02
-0.9366731303274E-02 -0.9070759196888E-02
-0.1083431607721E-01 -0.9965763243742E-02
-0.1238332682828E-01 -0.1084754249749E-01
-0.1401220352967E-01 -0.1171462528425E-01
-0.1571960899066E-01 -0.1256576655048E-01
-0.1750439726437E-01 -0.1339989080706E-01
-0.1936554036388E-01 -0.1421605630997E-01
-0.2130225678148E-01 -0.1501486953632E-01
-0.2331387733632E-01 -0.1579878529243E-01
-0.2539947889289E-01 -0.1656934185627E-01
-0.2755797420349E-01 -0.1732695971447E-01
-0.2978825478914E-01 -0.1807141332172E-01
-0.3208936076907E-01 -0.1880219831814E-01
-0.3446046422936E-01 -0.1951867303737E-01
-0.3690099563158E-01 -0.2022017353838E-01
-0.3941074033973E-01 -0.2090610798241E-01
-0.4198985236461E-01 -0.2157606406031E-01
-0.4463890602537E-01 -0.2222996988033E-01
-0.4735905574219E-01 -0.2286751509098E-01
-0.5015212040473E-01 -0.2348814162498E-01
-0.5302039852258E-01 -0.2409191848416E-01
-0.5596649608173E-01 -0.2467984947948E-01
-0.5899294517826E-01 -0.2525423125022E-01
-0.6210173962250E-01 -0.2581910492552E-01
-0.6529352132677E-01 -0.2638063084029E-01
-0.6856669982649E-01 -0.2694695441756E-01
-0.7191717641240E-01 -0.2752601839793E-01
-0.7533950301349E-01 -0.2811942255567E-01
-0.7882063121052E-01 -0.2872969217621E-01
-0.8233437546023E-01 -0.2936572389188E-01
-0.8584318078930E-01 -0.3003417359841E-01
-0.3889096685295E-03 -0.8318306627657E-03
-0.9220653786665E-03 -0.1678084533222E-02
-0.1589656181738E-02 -0.2538389366625E-02
-0.2381423911863E-02 -0.3410801807335E-02
-0.3287741704847E-02 -0.4292170682154E-02
-0.4300291121434E-02 -0.5178691566847E-02
-0.5412295935782E-02 -0.6066434358629E-02
-0.6618435119138E-02 -0.6951721722541E-02
-0.7914596031801E-02 -0.7831331237987E-02
-0.9297591639219E-02 -0.8702553494650E-02
-0.1076489582480E-01 -0.9563150209679E-02
-0.1231446690293E-01 -0.1041128747877E-01
-0.1394460052630E-01 -0.1124544037451E-01
-0.1565383646002E-01 -0.1206431224764E-01
-0.1744092137395E-01 -0.1286678183323E-01
-0.1930473057584E-01 -0.1365186705637E-01
-0.2124437969182E-01 -0.1442004608750E-01
-0.2325909445889E-01 -0.1517353566757E-01
-0.2534787668408E-01 -0.1591370059962E-01
-0.2750959101695E-01 -0.1664086438998E-01
-0.2974309725209E-01 -0.1735475207947E-01
-0.3204740980672E-01 -0.1805483681285E-01
-0.3442167017712E-01 -0.1874047441048E-01
-0.3686526162377E-01 -0.1941101491726E-01
-0.3937789271038E-01 -0.2006589552085E-01
-0.4195959640506E-01 -0.2070474675890E-01
-0.4461076497519E-01 -0.2132755076158E-01
-0.4733229253355E-01 -0.2193411182198E-01
-0.5012563339982E-01 -0.2252406128360E-01
-0.5299258422611E-01 -0.2309768501125E-01
-0.5593507996372E-01 -0.2365621757204E-01
-0.5895478307978E-01 -0.2420217425278E-01
-0.6205260083774E-01 -0.2473975565113E-01
-0.6522787925361E-01 -0.2527515856139E-01
-0.6847757611908E-01 -0.2581639030254E-01
-0.7179610803159E-01 -0.2637116695257E-01
-0.7517673945242E-01 -0.2694117591295E-01
-0.7860576122881E-01 -0.2752872133365E-01
-0.8205745499012E-01 -0.2814172072881E-01
-0.8549626294795E-01 -0.2878587276440E-01
-0.3803839496277E-03 -0.7972375716381E-03
-0.9039362171549E-03 -0.1607860624596E-02
-0.1561671465456E-02 -0.2431589374377E-02
-0.2344099899943E-02 -0.3266747090359E-02
-0.3242166459586E-02 -0.4110548455348E-02
-0.4247878269919E-02 -0.4959561766049E-02
-0.5354565293476E-02 -0.5810167384571E-02
-0.6556857768885E-02 -0.6658905389130E-02
-0.7850507023941E-02 -0.7502678966391E-02
-0.9232155191805E-02 -0.8338831351074E-02
-0.1069910347100E-01 -0.9165128021094E-02
-0.1224915196637E-01 -0.9979710691828E-02
-0.1388045759712E-01 -0.1078101790314E-01
-0.1559143945921E-01 -0.1156771431913E-01
-0.1738073779265E-01 -0.1233864259396E-01
-0.1924713185371E-01 -0.1309278775833E-01
-0.2118963597275E-01 -0.1383050761587E-01
-0.2320737275686E-01 -0.1455379032702E-01
-0.2529926859505E-01 -0.1526383556009E-01
-0.2746413675388E-01 -0.1596087732189E-01
-0.2970079923272E-01 -0.1664459852862E-01
-0.3200823631153E-01 -0.1731445731209E-01
-0.3438554866845E-01 -0.1796981484515E-01
-0.3683206090376E-01 -0.1861004354623E-01
-0.3934739255862E-01 -0.1923461852501E-01
-0.4193144301729E-01 -0.1984322224540E-01
-0.4458441026698E-01 -0.2043589937289E-01
-0.4730691706370E-01 -0.2101257419990E-01
-0.5010004558746E-01 -0.2157306690470E-01
-0.5296509077443E-01 -0.2211787179388E-01
-0.5590333032389E-01 -0.2264843499125E-01
-0.5891559274927E-01 -0.2316745813407E-01
-0.6200176662893E-01 -0.2367925573695E-01
-0.6516001305511E-01 -0.2419000610132E-01
-0.6838600031322E-01 -0.2470752316753E-01
-0.7167287362603E-01 -0.2523925112891E-01
-0.7501285918310E-01 -0.2578692966953E-01
-0.7839180914293E-01 -0.2635266589350E-01
-0.8178456295493E-01 -0.2694351083673E-01
-0.8515739632727E-01 -0.2756437039767E-01
-0.3724848028038E-03 -0.7630744446397E-03
-0.8871461267675E-03 -0.1538578355322E-02
-0.1535723886776E-02 -0.2326302567721E-02
-0.2309412982796E-02 -0.3124793374399E-02
-0.3199684477369E-02 -0.3931582388037E-02
-0.4198864282170E-02 -0.4743572579290E-02
-0.5300408310025E-02 -0.5557435702909E-02
-0.6498929275447E-02 -0.6369928553715E-02
-0.7790073837390E-02 -0.7178092093249E-02
-0.9170338921645E-02 -0.7979340841522E-02
-0.1063687125406E-01 -0.8771464160699E-02
-0.1218732425151E-01 -0.9552597979019E-02
-0.1381972263190E-01 -0.1032115998660E-01
-0.1553236820672E-01 -0.1107578864852E-01
-0.1732379655573E-01 -0.1181530020446E-01
-0.1919269202437E-01 -0.1253865440157E-01
-0.2113796935870E-01 -0.1324609678928E-01
-0.2315864990203E-01 -0.1393939649740E-01
-0.2525358417355E-01 -0.1461959636530E-01
-0.2742153084496E-01 -0.1528684821515E-01
-0.2966126833954E-01 -0.1594079981286E-01
-0.3197173484587E-01 -0.1658090126083E-01
-0.3435198062182E-01 -0.1720652619046E-01
-0.3680126091205E-01 -0.1781707665202E-01
-0.3931909498309E-01 -0.1841207296608E-01
-0.4190523741643E-01 -0.1899125644591E-01
-0.4455968155781E-01 -0.1955474009618E-01
-0.4728277039770E-01 -0.2010257041196E-01
-0.5007520996316E-01 -0.2063475250392E-01
-0.5293779800906E-01 -0.2115197766035E-01
-0.5587117361174E-01 -0.2165588234671E-01
-0.5887537136907E-01 -0.2214932228183E-01
-0.6194933113548E-01 -0.2263668359932E-01
-0.6509013707236E-01 -0.2312407856346E-01
-0.6829231837563E-01 -0.2361908406171E-01
-0.7154793806399E-01 -0.2412884120284E-01
-0.7484839454229E-01 -0.2465512099643E-01
-0.7817927799956E-01 -0.2519986166597E-01
-0.8151604032434E-01 -0.2576935366041E-01
-0.8482663313019E-01 -0.2636784306232E-01
-0.3651603925964E-03 -0.7292993735330E-03
-0.8715868721057E-03 -0.1470145391077E-02
-0.1511658699748E-02 -0.2222382072473E-02
-0.2277181550480E-02 -0.2984742866663E-02
-0.3160108784666E-02 -0.3755034672088E-02
-0.4153073854188E-02 -0.4530460989353E-02
-0.5249671276385E-02 -0.5307965840173E-02
-0.6444520801151E-02 -0.6084519240369E-02
-0.7733191094382E-02 -0.6857308239652E-02
-0.9112056952792E-02 -0.7623833638723E-02
-0.1057812795940E-01 -0.8381925974695E-02
-0.1212892252593E-01 -0.9129732068132E-02
-0.1376234037883E-01 -0.9865663311993E-02
-0.1547657024258E-01 -0.1058834391048E-01
-0.1727004550189E-01 -0.1129657319065E-01
-0.1914135717755E-01 -0.1198929326828E-01
-0.2108932231073E-01 -0.1266664559670E-01
-0.2311286282791E-01 -0.1333018977435E-01
-0.2521075290757E-01 -0.1398081999099E-01
-0.2738169353355E-01 -0.1461861295703E-01
-0.2962441408735E-01 -0.1524318787824E-01
-0.3193780321496E-01 -0.1585399325173E-01
-0.3432085181416E-01 -0.1645042147804E-01
-0.3677273590123E-01 -0.1703191038281E-01
-0.3929286425870E-01 -0.1759803127166E-01
-0.4188083682727E-01 -0.1814858927260E-01
-0.4453643381877E-01 -0.1868376915454E-01
-0.4725971257468E-01 -0.1920373916331E-01
-0.5005100220528E-01 -0.1970868279565E-01
-0.5291061163278E-01 -0.2019947467861E-01
-0.5583856385990E-01 -0.2067791935368E-01
-0.5883414267040E-01 -0.2114699528979E-01
-0.6189540971204E-01 -0.2161112173289E-01
-0.6501847584413E-01 -0.2207630452146E-01
-0.6819686947463E-01 -0.2254984987151E-01
-0.7142173829451E-01 -0.2303857597526E-01
-0.7468383061374E-01 -0.2354427441202E-01
-0.7796861447167E-01 -0.2406874547599E-01
-0.8125218355328E-01 -0.2461761349316E-01
-0.8450402415445E-01 -0.2519456927445E-01
-0.3583647575982E-03 -0.6958747311660E-03
-0.8571624735291E-03 -0.1402478998691E-02
-0.1489337666996E-02 -0.2119696004301E-02
-0.2247241265454E-02 -0.2846416750083E-02
-0.3123267319649E-02 -0.3580687996000E-02
-0.4110342489638E-02 -0.4319983383608E-02
-0.5202206890358E-02 -0.5061500646706E-02
-0.6393506178148E-02 -0.5802417656445E-02
-0.7679753405679E-02 -0.6540072836974E-02
-0.9057221762739E-02 -0.7272065162753E-02
-0.1052279993197E-01 -0.7996281064007E-02
-0.1207388290822E-01 -0.8710893082097E-02
-0.1370825308203E-01 -0.9414319688193E-02
-0.1542399092289E-01 -0.1010518211705E-01
-0.1721943066914E-01 -0.1078227200392E-01
-0.1909307200615E-01 -0.1144452140774E-01
-0.2104363633440E-01 -0.1209197577440E-01
-0.2306994804450E-01 -0.1272599451468E-01
-0.2517070454447E-01 -0.1334733113985E-01
-0.2734454620121E-01 -0.1395599401598E-01
-0.2959014823016E-01 -0.1455157994188E-01
-0.3190634280569E-01 -0.1513354163395E-01
-0.3429205321480E-01 -0.1570129576262E-01
-0.3674636723508E-01 -0.1625432099003E-01
-0.3926857404171E-01 -0.1679224397110E-01
-0.4185811049926E-01 -0.1731493685661E-01
-0.4451453702279E-01 -0.1782265754420E-01
-0.4723762179288E-01 -0.1831569338135E-01
-0.5002731915649E-01 -0.1879439766670E-01
-0.5288346079467E-01 -0.1925981326406E-01
-0.5580547925185E-01 -0.1971389023716E-01
-0.5879195254549E-01 -0.2015970004657E-01
-0.6184013397077E-01 -0.2060166057833E-01
-0.6494525944824E-01 -0.2104563751863E-01
-0.6809998291264E-01 -0.2149864139288E-01
-0.7129468346619E-01 -0.2196715655121E-01
-0.7451960917512E-01 -0.2245299182562E-01
-0.7776021628559E-01 -0.2295784107884E-01
-0.8099325313821E-01 -0.2348674453811E-01
-0.8418961691492E-01 -0.2404292096563E-01
-0.3520570012693E-03 -0.6627664361726E-03
-0.8437875628193E-03 -0.1335504408470E-02
-0.1468637076032E-02 -0.2018124994806E-02
-0.2219443401429E-02 -0.2709652244540E-02
-0.3089002033872E-02 -0.3408342660589E-02
-0.4070516444963E-02 -0.4111913159043E-02
-0.5157874860678E-02 -0.4817797606578E-02
-0.6345762891216E-02 -0.5523375208400E-02
-0.7629656481616E-02 -0.6226138719655E-02
-0.9005745252317E-02 -0.6923794581793E-02
-0.1047081201564E-01 -0.7614297541004E-02
-0.1202213964627E-01 -0.8295858937700E-02
-0.1365740110454E-01 -0.8966916509572E-02
-0.1537457391432E-01 -0.9626099097464E-02
-0.1717189669744E-01 -0.1027219948830E-01
-0.1904778015352E-01 -0.1090414707772E-01
-0.2100085230053E-01 -0.1152189922115E-01
-0.2302984194918E-01 -0.1212662423615E-01
-0.2513336939815E-01 -0.1271894264657E-01
-0.2731001167126E-01 -0.1329880088350E-01
-0.2955838505873E-01 -0.1386577901649E-01
-0.3187725887208E-01 -0.1441933918280E-01
-0.3426548124362E-01 -0.1495892701641E-01
-0.3672204358690E-01 -0.1548406604187E-01
-0.3924610745059E-01 -0.1599444133000E-01
-0.4183693958090E-01 -0.1648999370329E-01
-0.4449387569105E-01 -0.1697105379154E-01
-0.4721639347877E-01 -0.1743802361370E-01
-0.5000407725519E-01 -0.1789141617662E-01
-0.5285629574692E-01 -0.1833242661937E-01
-0.5577191895228E-01 -0.1876312827118E-01
-0.5874886517580E-01 -0.1918665781524E-01
-0.6178364762183E-01 -0.1960740136345E-01
-0.6487071983337E-01 -0.2003105677581E-01
-0.6800197605879E-01 -0.2046432108140E-01
-0.7116715557640E-01 -0.2091334074371E-01
-0.7435613256787E-01 -0.2137994377042E-01
-0.7755443867078E-01 -0.2186574802982E-01
-0.8073947923547E-01 -0.2237528022855E-01
-0.8388345396665E-01 -0.2291135475856E-01
-0.3462006326597E-03 -0.6299433530326E-03
-0.8313860321153E-03 -0.1269153474215E-02
-0.1449446070216E-02 -0.1917560144662E-02
-0.2193653384016E-02 -0.2574300125366E-02
-0.3057168026036E-02 -0.3237814070352E-02
-0.4033452565589E-02 -0.3906038554669E-02
-0.5116542330363E-02 -0.4576627222584E-02
-0.6301172871975E-02 -0.5247153479325E-02
-0.7582798084620E-02 -0.5915265617274E-02
-0.8957539699904E-02 -0.6578784691520E-02
-0.1042208841739E-01 -0.7235744169567E-02
-0.1197362585207E-01 -0.7884405643749E-02
-0.1360972353052E-01 -0.8523237138268E-02
-0.1532826168216E-01 -0.9150884915285E-02
-0.1712738723174E-01 -0.9766151302825E-02
-0.1900542456219E-01 -0.1036797015800E-01
-0.2096091076371E-01 -0.1095621840215E-01
-0.2299248112937E-01 -0.1153188202216E-01
-0.2509867864062E-01 -0.1209545590289E-01
-0.2727801448777E-01 -0.1264683054925E-01
-0.2952904166177E-01 -0.1318557447702E-01
-0.3185046076911E-01 -0.1371116381329E-01
-0.3424103795905E-01 -0.1422307705862E-01
-0.3669966104815E-01 -0.1472088564843E-01
-0.3922535704005E-01 -0.1520433495508E-01
-0.4181721687841E-01 -0.1567343475419E-01
-0.4447434833004E-01 -0.1612858652802E-01
-0.4719593927833E-01 -0.1657030112704E-01
-0.4998121095720E-01 -0.1699924011597E-01
-0.5282908560778E-01 -0.1741673457463E-01
-0.5573790021198E-01 -0.1782495957196E-01
-0.5870495964583E-01 -0.1822709147760E-01
-0.6172610300795E-01 -0.1862745814641E-01
-0.6479508797105E-01 -0.1903156732576E-01
-0.6790315302110E-01 -0.1944579070001E-01
-0.7103951048620E-01 -0.1987593801577E-01
-0.7419376733156E-01 -0.2032386192145E-01
-0.7735159967130E-01 -0.2079113281640E-01
-0.8049106559123E-01 -0.2128182463169E-01
-0.8358557203262E-01 -0.2179840342854E-01
-0.3407630268933E-03 -0.5973767981256E-03
-0.8198899201364E-03 -0.1203363567614E-02
-0.1431665244158E-02 -0.1817901318430E-02
-0.2169749516493E-02 -0.2440222618612E-02
-0.3027632727898E-02 -0.3068930549238E-02
-0.3999018053940E-02 -0.3702160697152E-02
-0.5078084161328E-02 -0.4337771491146E-02
-0.6259623135829E-02 -0.4973523197045E-02
-0.7539078840939E-02 -0.5607219576088E-02
-0.8912518606656E-02 -0.6236801697651E-02
-0.1037655349583E-01 -0.6860390405642E-02
-0.1192827418937E-01 -0.7476307509619E-02
-0.1356515874138E-01 -0.8083061211806E-02
-0.1528499596622E-01 -0.8679324227142E-02
-0.1708584532016E-01 -0.9263916301537E-02
-0.1896594781892E-01 -0.9835782537203E-02
-0.2092375227450E-01 -0.1039472674110E-01
-0.2295780265348E-01 -0.1094156092817E-01
-0.2506656457507E-01 -0.1147666129685E-01
-0.2724848116799E-01 -0.1199986800044E-01
-0.2950203815040E-01 -0.1251074265756E-01
-0.3182586213707E-01 -0.1300877932302E-01
-0.3421863118195E-01 -0.1349349250368E-01
-0.3667912315800E-01 -0.1396450368205E-01
-0.3920622468445E-01 -0.1442161935422E-01
-0.4179884652062E-01 -0.1486491734512E-01
-0.4445586678699E-01 -0.1529486688016E-01
-0.4717618600229E-01 -0.1571208071843E-01
-0.4995867117914E-01 -0.1611735715691E-01
-0.5280181625318E-01 -0.1651214689433E-01
-0.5570345574820E-01 -0.1689870625229E-01
-0.5866032700281E-01 -0.1728022809416E-01
-0.6166765823884E-01 -0.1766095924006E-01
-0.6471859167296E-01 -0.1804619975405E-01
-0.6780380387264E-01 -0.1844198897464E-01
-0.7091207915210E-01 -0.1885380496026E-01
-0.7403284750434E-01 -0.1928353276347E-01
-0.7715198448307E-01 -0.1973272160638E-01
-0.8024819253017E-01 -0.2020504513050E-01
-0.8329600163289E-01 -0.2070266807418E-01
-0.3357149822348E-03 -0.5650401294576E-03
-0.8092384918569E-03 -0.1138076658463E-02
-0.1415205461999E-02 -0.1719055714152E-02
-0.2147621873316E-02 -0.2307291607155E-02
-0.3000275154067E-02 -0.2901531435045E-02
-0.3967090199643E-02 -0.3500091842216E-02
-0.5042383114499E-02 -0.4101022473839E-02
-0.6221006289356E-02 -0.4702263213221E-02
-0.7498402928996E-02 -0.5301772333982E-02
-0.8870597440869E-02 -0.5897614922736E-02
-0.1033413247591E-01 -0.6488006354143E-02
-0.1188601751191E-01 -0.7071337275054E-02
-0.1352364496185E-01 -0.7646164883204E-02
-0.1524471823969E-01 -0.8211196587621E-02
-0.1704721380212E-01 -0.8765276873943E-02
-0.1892929249171E-01 -0.9307368473836E-02
-0.2088931768134E-01 -0.9837208999413E-02
-0.2292574434728E-01 -0.1035544438714E-01
-0.2503696088854E-01 -0.1086233866104E-01
-0.2722134042707E-01 -0.1135768673755E-01
-0.2947729784633E-01 -0.1184104746780E-01
-0.3180338103926E-01 -0.1231193615177E-01
-0.3419817456118E-01 -0.1276990571420E-01
-0.3666034086382E-01 -0.1321462897868E-01
-0.3918862138534E-01 -0.1364597343960E-01
-0.4178174354980E-01 -0.1406408305265E-01
-0.4443835554761E-01 -0.1446949067583E-01
-0.4715707455120E-01 -0.1486290325410E-01
-0.4993642378701E-01 -0.1524524363151E-01
-0.5277448835076E-01 -0.1561806611419E-01
-0.5566863139261E-01 -0.1598368903292E-01
-0.5861506772032E-01 -0.1634530090678E-01
-0.6160847483829E-01 -0.1670704816233E-01
-0.6464145394423E-01 -0.1707400967840E-01
-0.6770420428797E-01 -0.1745188933143E-01
-0.7078516896038E-01 -0.1784584129719E-01
-0.7387367756678E-01 -0.1825779222000E-01
-0.7695584903160E-01 -0.1868929417890E-01
-0.8001101935848E-01 -0.1914366609539E-01
-0.8301476697552E-01 -0.1962281115833E-01
-0.3310303557701E-03 -0.5329084029123E-03
-0.7993774771127E-03 -0.1073238543162E-02
-0.1399986864206E-02 -0.1620936654847E-02
-0.2127171344487E-02 -0.2175387093536E-02
-0.2974985221702E-02 -0.2735465412088E-02
-0.3937556094308E-02 -0.3299653792952E-02
-0.5009329953121E-02 -0.3866180966623E-02
-0.6185220932258E-02 -0.4433159507276E-02
-0.7460678660851E-02 -0.4998700667472E-02
-0.8831694290222E-02 -0.5560996455007E-02
-0.1029475209243E-01 -0.6118362656574E-02
-0.1184678945145E-01 -0.6669266171709E-02
-0.1348512077291E-01 -0.7212321000737E-02
-0.1520737014706E-01 -0.7746276704985E-02
-0.1701143568249E-01 -0.8270009248518E-02
-0.1889540145489E-01 -0.8782504932597E-02
-0.2085754841926E-01 -0.9283441641859E-02
-0.2289624505316E-01 -0.9773306611085E-02
-0.2500980288240E-01 -0.1025225772483E-01
-0.2719652337468E-01 -0.1072004929926E-01
-0.2945474743464E-01 -0.1117624101996E-01
-0.3178294005593E-01 -0.1162037214676E-01
-0.3417958758685E-01 -0.1205203574690E-01
-0.3664323242206E-01 -0.1247095650908E-01
-0.3917246701647E-01 -0.1287706196491E-01
-0.4176583345565E-01 -0.1327055942504E-01
-0.4442175099607E-01 -0.1365204047095E-01
-0.4713855884090E-01 -0.1402229795261E-01
-0.4991444814692E-01 -0.1438236697286E-01
-0.5274711554247E-01 -0.1473388996650E-01
-0.5563348399353E-01 -0.1507922939534E-01
-0.5856928952259E-01 -0.1542155089072E-01
-0.6154871582606E-01 -0.1576488422802E-01
-0.6456389176548E-01 -0.1611407706431E-01
-0.6760461547756E-01 -0.1647449776189E-01
-0.7065906508668E-01 -0.1685098634763E-01
-0.7371653504927E-01 -0.1724552107185E-01
-0.7676342296320E-01 -0.1765967877243E-01
-0.7977968635895E-01 -0.1809646339903E-01
-0.8274188595300E-01 -0.1855755043596E-01
-0.3266857636748E-03 -0.5009580817038E-03
-0.7902584408274E-03 -0.1008798192128E-02
-0.1385938034606E-02 -0.1523462559864E-02
-0.2108308815048E-02 -0.2044395874992E-02
-0.2951663142339E-02 -0.2570589046864E-02
-0.3910312347226E-02 -0.3100676475970E-02
-0.4978823491412E-02 -0.3633055264014E-02
-0.6152171974507E-02 -0.4166004223884E-02
-0.7425818971949E-02 -0.4697785724890E-02
-0.8795730430795E-02 -0.5226720754060E-02
-0.1025834116631E-01 -0.5751230322094E-02
-0.1181052495547E-01 -0.6269863926240E-02
-0.1344952558945E-01 -0.6781299234404E-02
-0.1517289391785E-01 -0.7284334652440E-02
-0.1697845448808E-01 -0.7777883762062E-02
-0.1886421819905E-01 -0.8260961896835E-02
-0.2082838678264E-01 -0.8733193187923E-02
-0.2286924487065E-01 -0.9194912986387E-02
-0.2498502767981E-01 -0.9646178566276E-02
-0.2717396368344E-01 -0.1008670779028E-01
-0.2943431708246E-01 -0.1051606425803E-01
-0.3176446633784E-01 -0.1093381332434E-01
-0.3416279555695E-01 -0.1133958928168E-01
-0.3662772324823E-01 -0.1173316851074E-01
-0.3915769001829E-01 -0.1211453689009E-01
-0.4175105166725E-01 -0.1248396159575E-01
-0.4440600065405E-01 -0.1284208740281E-01
-0.4712060474472E-01 -0.1318978443069E-01
-0.4989273574959E-01 -0.1352818785321E-01
-0.5271972277702E-01 -0.1385901344718E-01
-0.5559807955549E-01 -0.1418465134956E-01
-0.5852310552811E-01 -0.1450822794483E-01
-0.6148854416567E-01 -0.1483364287290E-01
-0.6448611521570E-01 -0.1516550544857E-01
-0.6750528433439E-01 -0.1550885084167E-01
-0.7053403183269E-01 -0.1586821593616E-01
-0.7356167283778E-01 -0.1624564102945E-01
-0.7657491217616E-01 -0.1664274767808E-01
-0.7955431647199E-01 -0.1706225967391E-01
-0.8247737016186E-01 -0.1750565371210E-01
-0.3226603350508E-03 -0.4691667885778E-03
-0.7818382631642E-03 -0.9447071929642E-03
-0.1372995304350E-02 -0.1426556062382E-02
-0.2090954465459E-02 -0.1914210393894E-02
-0.2930218885684E-02 -0.2406765495973E-02
-0.3885264813691E-02 -0.2902996656876E-02
-0.4950770606145E-02 -0.3401460012866E-02
-0.6121770886157E-02 -0.3900594748866E-02
-0.7393741832782E-02 -0.4398812356236E-02
-0.8762630821537E-02 -0.4894564225410E-02
-0.1022483111743E-01 -0.5386380513132E-02
-0.1177716077558E-01 -0.5872898714008E-02
-0.1341680010140E-01 -0.6352866155872E-02
-0.1514123275360E-01 -0.6825136039570E-02
-0.1694821460367E-01 -0.7288665097631E-02
-0.1883568712322E-01 -0.7742502658221E-02
-0.2080177617988E-01 -0.8186224548164E-02
-0.2284468537662E-01 -0.8620020460407E-02
-0.2496257440954E-01 -0.9043852059720E-02
-0.2715359772958E-01 -0.9457404406612E-02
-0.2941594052539E-01 -0.9860247582401E-02
-0.3174789162262E-01 -0.1025197462008E-01
-0.3414772950277E-01 -0.1063226152569E-01
-0.3661374572397E-01 -0.1100093557332E-01
-0.3914422705245E-01 -0.1135803866903E-01
-0.4173734301575E-01 -0.1170389377988E-01
-0.4439106241231E-01 -0.1203919287795E-01
-0.4710318906432E-01 -0.1236487452994E-01
-0.4987128891559E-01 -0.1268216205136E-01
-0.5269234478895E-01 -0.1299283057299E-01
-0.5556249159732E-01 -0.1329928288023E-01
-0.5847663267310E-01 -0.1360459179337E-01
-0.6142812151847E-01 -0.1391251578200E-01
-0.6440832686388E-01 -0.1422742112281E-01
-0.6740644372767E-01 -0.1455401391457E-01
-0.7041031391163E-01 -0.1489653967481E-01
-0.7340932121448E-01 -0.1525711135484E-01
-0.7639050098237E-01 -0.1563741345924E-01
-0.7933501671937E-01 -0.1603992022728E-01
-0.8222122490568E-01 -0.1646593434788E-01
-0.3189355106481E-03 -0.4375130924615E-03
-0.7740787123245E-03 -0.8809192709227E-03
-0.1361102173693E-02 -0.1330143245793E-02
-0.2075037180222E-02 -0.1784727733015E-02
-0.2910571713657E-02 -0.2243863359594E-02
-0.3862328344269E-02 -0.2706456777498E-02
-0.4925086225050E-02 -0.3171215148878E-02
-0.6093935894446E-02 -0.3636732825467E-02
-0.7364370594552E-02 -0.4101568447145E-02
-0.8732324532327E-02 -0.4564304773604E-02
-0.1019415641874E-01 -0.5023584295126E-02
-0.1174663590767E-01 -0.5478137071566E-02
-0.1338688667743E-01 -0.5926785278255E-02
-0.1511233118640E-01 -0.6368442148472E-02
-0.1692066158535E-01 -0.6802112493806E-02
-0.1880975380705E-01 -0.7226884084745E-02
-0.2077766136846E-01 -0.7642289345186E-02
-0.2282250982425E-01 -0.8048377917607E-02
-0.2494238436589E-01 -0.8445020315776E-02
-0.2713536470645E-01 -0.8831871953365E-02
-0.2939955512329E-01 -0.9208511463941E-02
-0.3173315221749E-01 -0.9574560620694E-02
-0.3413432607845E-01 -0.9929737085770E-02
-0.3660123896848E-01 -0.1027391767222E-01
-0.3913202262552E-01 -0.1060719745738E-01
-0.4172466117840E-01 -0.1092995065542E-01
-0.4437690376573E-01 -0.1124291010329E-01
-0.4708629853821E-01 -0.1154707394309E-01
-0.4985011958498E-01 -0.1184374207946E-01
-0.5266502471857E-01 -0.1213473587173E-01
-0.5552679970899E-01 -0.1242245712565E-01
-0.5842999037852E-01 -0.1270991265977E-01
-0.6136760725228E-01 -0.1300071087792E-01
-0.6433072137121E-01 -0.1329897231408E-01
-0.6730831289561E-01 -0.1360907944442E-01
-0.7028813766690E-01 -0.1393499858671E-01
-0.7325968966633E-01 -0.1427892595343E-01
-0.7621035396511E-01 -0.1464262570870E-01
-0.7912187941006E-01 -0.1502834953724E-01
-0.8197344916531E-01 -0.1543724742744E-01
-0.3154948796041E-03 -0.4059763228987E-03
-0.7669460962240E-03 -0.8173898717746E-03
-0.1350208835943E-02 -0.1234152976700E-02
-0.2060494053753E-02 -0.1655848730049E-02
-0.2892649782229E-02 -0.2081755657225E-02
-0.3841426560730E-02 -0.2510903898397E-02
-0.4901693302825E-02 -0.2942144907925E-02
-0.6068592140266E-02 -0.3374223710827E-02
-0.7337634279308E-02 -0.3805844262016E-02
-0.8704745113125E-02 -0.4235721341508E-02
-0.1016625499565E-01 -0.4662612358479E-02
-0.1171889198576E-01 -0.5085343775302E-02
-0.1335972973128E-01 -0.5502817061700E-02
-0.1508613540752E-01 -0.5914010038936E-02
-0.1689574244946E-01 -0.6317979928048E-02
-0.1878636526149E-01 -0.6713856868210E-02
-0.2075598866905E-01 -0.7101134218912E-02
-0.2280266332019E-01 -0.7479726543412E-02
-0.2492440114488E-01 -0.7849417110583E-02
-0.2711920671212E-01 -0.8209834351004E-02
-0.2938510188767E-01 -0.8560567042466E-02
-0.3172018895143E-01 -0.8901266272124E-02
-0.3412252741946E-01 -0.9231690803962E-02
-0.3659014858086E-01 -0.9551765146124E-02
-0.3912102868999E-01 -0.9861634239273E-02
-0.4171296811276E-01 -0.1016171863217E-01
-0.4436350106020E-01 -0.1045278546991E-01
-0.4706992889396E-01 -0.1073588365716E-01
-0.4982924819216E-01 -0.1101237859678E-01
-0.5263781286480E-01 -0.1128412564341E-01
-0.5549108828765E-01 -0.1155351333592E-01
-0.5838329942789E-01 -0.1182347176190E-01
-0.6130715766091E-01 -0.1209745221290E-01
-0.6425348525682E-01 -0.1237932838895E-01
-0.6721109790130E-01 -0.1267316553235E-01
-0.7016771221587E-01 -0.1298266303266E-01
-0.7311296849032E-01 -0.1331011087241E-01
-0.7603461758238E-01 -0.1365736827278E-01
-0.7891498315913E-01 -0.1402648826156E-01
-0.8173403553195E-01 -0.1441848650386E-01
-0.3123240487790E-03 -0.3745364068555E-03
-0.7604109820889E-03 -0.7540757949540E-03
-0.1340271790844E-02 -0.1138516316176E-02
-0.2047269984052E-02 -0.1527477189825E-02
-0.2876389808155E-02 -0.1920318905358E-02
-0.3822491662527E-02 -0.2316188731411E-02
-0.4880522793166E-02 -0.2714076903906E-02
-0.6045671803892E-02 -0.3112875370867E-02
-0.7313467823524E-02 -0.3511431799446E-02
-0.8679830910920E-02 -0.3908593441685E-02
-0.1014106857502E-01 -0.4303234719613E-02
-0.1169387363122E-01 -0.4694281692758E-02
-0.1333527605072E-01 -0.5080718890281E-02
-0.1506259356552E-01 -0.5461592626843E-02
-0.1687340593582E-01 -0.5836016276841E-02
-0.1876547015672E-01 -0.6203165752523E-02
-0.2073670615791E-01 -0.6562499116094E-02
-0.2278509297961E-01 -0.6913800174495E-02
-0.2490857075724E-01 -0.7256768301886E-02
-0.2710506881192E-01 -0.7591007126501E-02
-0.2937252548270E-01 -0.7916116705227E-02
-0.3170894710032E-01 -0.8231777559323E-02
-0.3411228097436E-01 -0.8537788551884E-02
-0.3658042635899E-01 -0.8834119615839E-02
-0.3911120422929E-01 -0.9120961872508E-02
-0.4170223348838E-01 -0.9398777012342E-02
-0.4435083875781E-01 -0.9668359799117E-02
-0.4705408394774E-01 -0.9930801230742E-02
-0.4980870262455E-01 -0.1018752163576E-01
-0.5261076556204E-01 -0.1044039902575E-01
-0.5545544543365E-01 -0.1069179764939E-01
-0.5833668102598E-01 -0.1094456166896E-01
-0.6124692535705E-01 -0.1120197979840E-01
-0.6417679678944E-01 -0.1146767909909E-01
-0.6711499212535E-01 -0.1174541459428E-01
-0.7004923051599E-01 -0.1203863090960E-01
-0.7296933021973E-01 -0.1234972215555E-01
-0.7586342155408E-01 -0.1268065688496E-01
-0.7871439374540E-01 -0.1303331069806E-01
-0.8150297010430E-01 -0.1340858085113E-01
-0.3094105404245E-03 -0.3431737234251E-03
-0.7544479753005E-03 -0.6909348669282E-03
-0.1331253537110E-02 -0.1043165993939E-02
-0.2035317346210E-02 -0.1399519175822E-02
-0.2861736797705E-02 -0.1759432279192E-02
-0.3805464266340E-02 -0.2122164748086E-02
-0.4861513623190E-02 -0.2486841264517E-02
-0.6025114207951E-02 -0.2852497710767E-02
-0.7291812282655E-02 -0.3218124161624E-02
-0.8657525340369E-02 -0.3582700684348E-02
-0.1011854298757E-01 -0.3945220406851E-02
-0.1167152875943E-01 -0.4304711612425E-02
-0.1331347508979E-01 -0.4660245025303E-02
-0.1504165603329E-01 -0.5010938739748E-02
-0.1685360274459E-01 -0.5355965455330E-02
-0.1874701902653E-01 -0.5694549744144E-02
-0.2071976383714E-01 -0.6026117564152E-02
-0.2276974805923E-01 -0.6350325634393E-02
-0.2489484171856E-01 -0.6666792229792E-02
-0.2709289907765E-01 -0.6975097886383E-02
-0.2936177420210E-01 -0.7274854641929E-02
-0.3169937628788E-01 -0.7565772153902E-02
-0.3410353931433E-01 -0.7847687980721E-02
-0.3657203000020E-01 -0.8120614842370E-02
-0.3910251483260E-01 -0.8384786052856E-02
-0.4169243412154E-01 -0.8640699046968E-02
-0.4433890872492E-01 -0.8889169460094E-02
-0.4703877475323E-01 -0.9131321920822E-02
-0.4978851726225E-01 -0.9368621662836E-02
-0.5258394417094E-01 -0.9602958892826E-02
-0.5541996198845E-01 -0.9836663720629E-02
-0.5829025601232E-01 -0.1007248655293E-01
-0.6118705880698E-01 -0.1031354939841E-01
-0.6410082597487E-01 -0.1056323388090E-01
-0.6702017677587E-01 -0.1082499219165E-01
-0.6993287035288E-01 -0.1110202609421E-01
-0.7282893089222E-01 -0.1139684401288E-01
-0.7569688006400E-01 -0.1171153716083E-01
-0.7852016482990E-01 -0.1204782264403E-01
-0.8128023235301E-01 -0.1240649315931E-01
-0.3067437148696E-03 -0.3118689726871E-03
-0.7490355507001E-03 -0.6279256463576E-03
-0.1323122335903E-02 -0.9480359324160E-03
-0.2024595739161E-02 -0.1271882365123E-02
-0.2848643834616E-02 -0.1598976842508E-02
-0.3790293280215E-02 -0.1928687350910E-02
-0.4844612675072E-02 -0.2260269816442E-02
-0.6006865903930E-02 -0.2592901837352E-02
-0.7272615002871E-02 -0.2925714938192E-02
-0.8637777113140E-02 -0.3257822305248E-02
-0.1009862842706E-01 -0.3588337135941E-02
-0.1165180884572E-01 -0.3916392057181E-02
-0.1329427922495E-01 -0.4241146539725E-02
-0.1502327564411E-01 -0.4561793153472E-02
-0.1683628574635E-01 -0.4877566539105E-02
-0.1873096444893E-01 -0.5187742306149E-02
-0.2070511378270E-01 -0.5491716929631E-02
-0.2275658006865E-01 -0.5789023053681E-02
-0.2488316511791E-01 -0.6079200100479E-02
-0.2708264860465E-01 -0.6361806769189E-02
-0.2935279992406E-01 -0.6636467373274E-02
-0.3169143036566E-01 -0.6902920026710E-02
-0.3409625992384E-01 -0.7161039224379E-02
-0.3656492278817E-01 -0.7410877523222E-02
-0.3909493226424E-01 -0.7652706198722E-02
-0.4168355341766E-01 -0.7887052892973E-02
-0.4432770954617E-01 -0.8114747368419E-02
-0.4702401880005E-01 -0.8336939673872E-02
-0.4976873209445E-01 -0.8555130494275E-02
-0.5255741417330E-01 -0.8771212612068E-02
-0.5538473069739E-01 -0.8987473227434E-02
-0.5824414420595E-01 -0.9206562360895E-02
-0.6112770198072E-01 -0.9431432306336E-02
-0.6402573461496E-01 -0.9665221217299E-02
-0.6692682140130E-01 -0.9911086008240E-02
-0.6981879525214E-01 -0.1017199710855E-01
-0.7269191117781E-01 -0.1045058727095E-01
-0.7553509280202E-01 -0.1074908291381E-01
-0.7833233855458E-01 -0.1106905960866E-01
-0.8106579495661E-01 -0.1141121761912E-01
-0.3043147156933E-03 -0.2806030555153E-03
-0.7441559311472E-03 -0.5650071538102E-03
-0.1315852038898E-02 -0.8530608094592E-03
-0.2015071800382E-02 -0.1144475452896E-02
-0.2837071924800E-02 -0.1438834831438E-02
-0.3776935813166E-02 -0.1735613095158E-02
-0.4829774778375E-02 -0.2034195311487E-02
-0.5990880747104E-02 -0.2333899349269E-02
-0.7255829764915E-02 -0.2633997604246E-02
-0.8620540430144E-02 -0.2933736695949E-02
-0.1008127966924E-01 -0.3232350979279E-02
-0.1163466915244E-01 -0.3529079085959E-02
-0.1327764397608E-01 -0.3823171238070E-02
-0.1500740789686E-01 -0.4113896613316E-02
-0.1682141016530E-01 -0.4400553870784E-02
-0.1871726120279E-01 -0.4682471537477E-02
-0.2069271027034E-01 -0.4959018661742E-02
-0.2274554286055E-01 -0.5229606174151E-02
-0.2487349466557E-01 -0.5493696351467E-02
-0.2707427150858E-01 -0.5750826875311E-02
-0.2934555804642E-01 -0.6000634250634E-02
-0.3168506727468E-01 -0.6242884022906E-02
-0.3409040497615E-01 -0.6477485553985E-02
-0.3655907326968E-01 -0.6704528026381E-02
-0.3908843403153E-01 -0.6924316257751E-02
-0.4167558082457E-01 -0.7137402475473E-02
-0.4431724586639E-01 -0.7344623874070E-02
-0.4700983926097E-01 -0.7547147994370E-02
-0.4974939190790E-01 -0.7746502084816E-02
-0.5253124436069E-01 -0.7944572681032E-02
-0.5534984548145E-01 -0.8143596280081E-02
-0.5819846386112E-01 -0.8346116929647E-02
-0.6106899409500E-01 -0.8554915120947E-02
-0.6395167641893E-01 -0.8772888066784E-02
-0.6683508439577E-01 -0.9002904965337E-02
-0.6970715531752E-01 -0.9247715988158E-02
-0.7255839738193E-01 -0.9510088074913E-02
-0.7537814586783E-01 -0.9792394757537E-02
-0.7815094603786E-01 -0.1009608534016E-01
-0.8085962361295E-01 -0.1042177835108E-01
-0.3021164355286E-03 -0.2493569615305E-03
-0.7397950094790E-03 -0.5021386196896E-03
-0.1309421976104E-02 -0.7581756497942E-03
-0.2006719084419E-02 -0.1017207593970E-02
-0.2826989895698E-02 -0.1278888979153E-02
-0.3765357120600E-02 -0.1542798949941E-02
-0.4816962715523E-02 -0.1808450685412E-02
-0.5977119963443E-02 -0.2075301650446E-02
-0.7241416903903E-02 -0.2342764931550E-02
-0.8605775139976E-02 -0.2610220938270E-02
-0.1006645625328E-01 -0.2877026032298E-02
-0.1162006891875E-01 -0.3142526087818E-02
-0.1326352819310E-01 -0.3406063565938E-02
-0.1499401113086E-01 -0.3666985843463E-02
-0.1680893373581E-01 -0.3924657154051E-02
-0.1870586640090E-01 -0.4178460338973E-02
-0.2068250987998E-01 -0.4427738521632E-02
-0.2273659270068E-01 -0.4671782636743E-02
-0.2486578672141E-01 -0.4909978997389E-02
-0.2706772490348E-01 -0.5141844672555E-02
-0.2934000740428E-01 -0.5367027924883E-02
-0.3168024889158E-01 -0.5585320397667E-02
-0.3408594109657E-01 -0.5796663982447E-02
-0.3655445492482E-01 -0.6001181061900E-02
-0.3908300295424E-01 -0.6199205437316E-02
-0.4166851129915E-01 -0.6391308260013E-02
-0.4430752776105E-01 -0.6578327547017E-02
-0.4699626428604E-01 -0.6761440702680E-02
-0.4973054554170E-01 -0.6942193204745E-02
-0.5250550610696E-01 -0.7122457262369E-02
-0.5531540080347E-01 -0.7304411752066E-02
-0.5815333121567E-01 -0.7490490059813E-02
-0.6101106943033E-01 -0.7683299533038E-02
-0.6387879715132E-01 -0.7885499362994E-02
-0.6674511348919E-01 -0.8099678468225E-02
-0.6959808799885E-01 -0.8328377335454E-02
-0.7242850233736E-01 -0.8574506818078E-02
-0.7522611255451E-01 -0.8840598966025E-02
-0.7797600778197E-01 -0.9127990634807E-02
-0.8066167683022E-01 -0.9437228141842E-02
-0.3001435012295E-03 -0.2181116626736E-03
-0.7359423112144E-03 -0.4392792446625E-03
-0.1303816900095E-02 -0.6633154362124E-03
-0.1999518002258E-02 -0.8899878701252E-03
-0.2818374348629E-02 -0.1119021869401E-02
-0.3755530585617E-02 -0.1350101587628E-02
-0.4806147241934E-02 -0.1582868341366E-02
-0.5965552210976E-02 -0.1816919282201E-02
-0.7229343407766E-02 -0.2051808411627E-02
-0.8593446866067E-02 -0.2287050344237E-02
-0.1005412262729E-01 -0.2522124080060E-02
-0.1160797151464E-01 -0.2756483572272E-02
-0.1325189420935E-01 -0.2989564513015E-02
-0.1498304667101E-01 -0.3220793547956E-02
-0.1679881683291E-01 -0.3449601537775E-02
-0.1869673959992E-01 -0.3675426567979E-02
-0.2067447157930E-01 -0.3897586798164E-02
-0.2272968831851E-01 -0.4115254253144E-02
-0.2486000030523E-01 -0.4327739955490E-02
-0.2706296886288E-01 -0.4534540376125E-02
-0.2933611017228E-01 -0.4735314782825E-02
-0.3167694086159E-01 -0.4929879311049E-02
-0.3408283911633E-01 -0.5118205818145E-02
-0.3655104583315E-01 -0.5300446291323E-02
-0.3907862673804E-01 -0.5476958860872E-02
-0.4166234478880E-01 -0.5648327939180E-02
-0.4429857013536E-01 -0.5815385867801E-02
-0.4698332634116E-01 -0.5979312592909E-02
-0.4971224520274E-01 -0.6141664019001E-02
-0.5248027271493E-01 -0.6304290632614E-02
-0.5528149111553E-01 -0.6469307548210E-02
-0.5810886011645E-01 -0.6639033563129E-02
-0.6095405720626E-01 -0.6815902131549E-02
-0.6380723480416E-01 -0.7002337586093E-02
-0.6665704621668E-01 -0.7200655776874E-02
-0.6949171879304E-01 -0.7413197543781E-02
-0.7230232619660E-01 -0.7643027278625E-02
-0.7507905402735E-01 -0.7892846567809E-02
-0.7780753400471E-01 -0.8163892401161E-02
-0.8047190570141E-01 -0.8456647456884E-02
-0.2983922776693E-03 -0.1868480100563E-03
-0.7325909964352E-03 -0.3763879672714E-03
-0.1299026984577E-02 -0.5684147321294E-03
-0.1993455819615E-02 -0.7627247724516E-03
-0.2811209662895E-02 -0.9591153074923E-03
-0.3747437735939E-02 -0.1157376691276E-02
-0.4797307121541E-02 -0.1357279450019E-02
-0.5956153636983E-02 -0.1558561269291E-02
-0.7219582996052E-02 -0.1760917689201E-02
-0.8583527104217E-02 -0.1963998002563E-02
-0.1004424825985E-01 -0.2167404266831E-02
-0.1159834456024E-01 -0.2370698959505E-02
-0.1324270796250E-01 -0.2573411513368E-02
-0.1497447894393E-01 -0.2775048406678E-02
-0.1679102257743E-01 -0.2975107692915E-02
-0.1868984288813E-01 -0.3173083183284E-02
-0.2066855678751E-01 -0.3368268511175E-02
-0.2272479094001E-01 -0.3559717261208E-02
-0.2485609709049E-01 -0.3746665350302E-02
-0.2705996636597E-01 -0.3928588302004E-02
-0.2933383175355E-01 -0.4105155349968E-02
-0.3167511242093E-01 -0.4276205280847E-02
-0.3408107381939E-01 -0.4441737167137E-02
-0.3654882833831E-01 -0.4601928875359E-02
-0.3907529755389E-01 -0.4757158152189E-02
-0.4165708572864E-01 -0.4908017037717E-02
-0.4429039215109E-01 -0.5055325829776E-02
-0.4697106158793E-01 -0.5200260000087E-02
-0.4969454583577E-01 -0.5344378579995E-02
-0.5245561882810E-01 -0.5489503557943E-02
-0.5524821037530E-01 -0.5637680823228E-02
-0.5806516170770E-01 -0.5791111293901E-02
-0.6089808150131E-01 -0.5952054235815E-02
-0.6373711978329E-01 -0.6122702406551E-02
-0.6657101036316E-01 -0.6305105494536E-02
-0.6938816188207E-01 -0.6501414179412E-02
-0.7217995713499E-01 -0.6714855946187E-02
-0.7493701991130E-01 -0.6948312653880E-02
-0.7764552490711E-01 -0.7202932957194E-02
-0.8029025366612E-01 -0.7479143704745E-02
-0.2968608899451E-03 -0.1555466318345E-03
-0.7297379003028E-03 -0.3134232336170E-03
-0.1295047876495E-02 -0.4734073074297E-03
-0.1988526713238E-02 -0.6353256884681E-03
-0.2805488050903E-02 -0.7990496976878E-03
-0.3741068296074E-02 -0.9644782699807E-03
-0.4790429177713E-02 -0.1131513258667E-02
-0.5948907931426E-02 -0.1300034475230E-02
-0.7212116179779E-02 -0.1469880004379E-02
-0.8575993291413E-02 -0.1640834332609E-02
-0.1003680771809E-01 -0.1812622771300E-02
-0.1159116001154E-01 -0.1984916374028E-02
-0.1323593908404E-01 -0.2157338346728E-02
-0.1496827556611E-01 -0.2329475069700E-02
-0.1678551691663E-01 -0.2500891884923E-02
-0.1868514095191E-01 -0.2671138382361E-02
-0.2066472942047E-01 -0.2839483603275E-02
-0.2272186430373E-01 -0.3004862564510E-02
-0.2485404138332E-01 -0.3166435797201E-02
-0.2705868323051E-01 -0.3323657192954E-02
-0.2933314065762E-01 -0.3476204658636E-02
-0.3167473621062E-01 -0.3623937592542E-02
-0.3408062368456E-01 -0.3766879383443E-02
-0.3654778871294E-01 -0.3905229960268E-02
-0.3907301162460E-01 -0.4039381949350E-02
-0.4165274255476E-01 -0.4169929439873E-02
-0.4428301667993E-01 -0.4297674458883E-02
-0.4695950930125E-01 -0.4423781284748E-02
-0.4967750454184E-01 -0.4549805244123E-02
-0.5243161989835E-01 -0.4677533607918E-02
-0.5521565162010E-01 -0.4808938161467E-02
-0.5802234417024E-01 -0.4946099173334E-02
-0.6084326120629E-01 -0.5091101758857E-02
-0.6366857510056E-01 -0.5245910401086E-02
-0.6648712438056E-01 -0.5412315168323E-02
-0.6928752071128E-01 -0.5592285510583E-02
-0.7206147197345E-01 -0.5789221523832E-02
-0.7480004879846E-01 -0.6006195883073E-02
-0.7748997088690E-01 -0.6244279542714E-02
-0.8011665626389E-01 -0.6503850732854E-02
-0.2955492642638E-03 -0.1241878298516E-03
-0.7273836126824E-03 -0.2503427639968E-03
-0.1291880802091E-02 -0.3782257595343E-03
-0.1984731885344E-02 -0.5076963837420E-03
-0.2801209663984E-02 -0.6387034160114E-03
-0.3736420274061E-02 -0.7712579721641E-03
-0.4785508358847E-02 -0.9053964016950E-03
-0.5943806376063E-02 -0.1041142962353E-02
-0.7206930302098E-02 -0.1178479642105E-02
-0.8570828846023E-02 -0.1317326646831E-02
-0.1003178071308E-01 -0.1457532490131E-02
-0.1158639421304E-01 -0.1598876445332E-02
-0.1323156095808E-01 -0.1741075044527E-02
-0.1496440740490E-01 -0.1883794153424E-02
-0.1678226868161E-01 -0.2026666044450E-02
-0.1868260112235E-01 -0.2169295732896E-02
-0.2066295591869E-01 -0.2310927121427E-02
-0.2272087466206E-01 -0.2450375956533E-02
-0.2485380008834E-01 -0.2586726664693E-02
-0.2705908803462E-01 -0.2719410516566E-02
-0.2933400836918E-01 -0.2848112580615E-02
-0.3167578808406E-01 -0.2972710665588E-02
-0.3408147062481E-01 -0.3093249467045E-02
-0.3654791682563E-01 -0.3209947103444E-02
-0.3907176881955E-01 -0.3323206350189E-02
-0.4164932723314E-01 -0.3433617842247E-02
-0.4427646978141E-01 -0.3541959256069E-02
-0.4694871132108E-01 -0.3649377241837E-02
-0.4966118003917E-01 -0.3757417020338E-02
-0.5240835170133E-01 -0.3867825416308E-02
-0.5518390658863E-01 -0.3982495726501E-02
-0.5798051250057E-01 -0.4103385213585E-02
-0.6078971000105E-01 -0.4232405105363E-02
-0.6360171656530E-01 -0.4371294840143E-02
-0.6640549777549E-01 -0.4521590996562E-02
-0.6918988851143E-01 -0.4685090174186E-02
-0.7194693672850E-01 -0.4865374593210E-02
-0.7466816868502E-01 -0.5065718171410E-02
-0.7734085270638E-01 -0.5287124033095E-02
-0.7995104088367E-01 -0.5529928539725E-02
-0.2944591883000E-03 -0.9275147271335E-04
-0.7255325983854E-03 -0.1871033111891E-03
-0.1289532728588E-02 -0.2828011213450E-03
-0.1982079737285E-02 -0.3797404674768E-03
-0.2798382749022E-02 -0.4779521673487E-03
-0.3733500081948E-02 -0.5775643868298E-03
-0.4782547817177E-02 -0.6787522049493E-03
-0.5940847887690E-02 -0.7816873523129E-03
-0.7204019558534E-02 -0.8864973876340E-03
-0.8568023178700E-02 -0.9932387229402E-03
-0.1002915211223E-01 -0.1101882732726E-02
-0.1158402791785E-01 -0.1212316119252E-02
-0.1322955075044E-01 -0.1324347804524E-02
-0.1496284861378E-01 -0.1437722242027E-02
-0.1678124962281E-01 -0.1552137839229E-02
-0.1868219340341E-01 -0.1667254300750E-02
-0.2066320525978E-01 -0.1782289389644E-02
-0.2272179076920E-01 -0.1895938330088E-02
-0.2485534266350E-01 -0.2007208315461E-02
-0.2706115202945E-01 -0.2115506734911E-02
-0.2933640921004E-01 -0.2220524123658E-02
-0.3167824691022E-01 -0.2322154375369E-02
-0.3408359972560E-01 -0.2420460409287E-02
-0.3654920581110E-01 -0.2515674638523E-02
-0.3907157225803E-01 -0.2608205290561E-02
-0.4164685480385E-01 -0.2698634134883E-02
-0.4427078020349E-01 -0.2787708566610E-02
-0.4693871153398E-01 -0.2876551439711E-02
-0.4964563216023E-01 -0.2966691857734E-02
-0.5238588989157E-01 -0.3059830896441E-02
-0.5515306538077E-01 -0.3157779387551E-02
-0.5793976832014E-01 -0.3262369546911E-02
-0.6073753634635E-01 -0.3375339107023E-02
-0.6353665296953E-01 -0.3498205546136E-02
-0.6632623146632E-01 -0.3632257638335E-02
-0.6909534876767E-01 -0.3779126972115E-02
-0.7183640709599E-01 -0.3942587432545E-02
-0.7454139734552E-01 -0.4126124554365E-02
-0.7719814162221E-01 -0.4330682843687E-02
-0.7979332651472E-01 -0.4556563192370E-02
-0.2935943923759E-03 -0.6121688277779E-04
-0.7241933606510E-03 -0.1236604046720E-03
-0.1288016584453E-02 -0.1870624471353E-03
-0.1980586104570E-02 -0.2513588309092E-03
-0.2797023856377E-02 -0.3166683152164E-03
-0.3732322688803E-02 -0.3832423225988E-03
-0.4781558998522E-02 -0.4513999766607E-03
-0.5940039052930E-02 -0.5214641830527E-03
-0.7203384994626E-02 -0.5937099872193E-03
-0.8567571672578E-02 -0.6683303874044E-03
-0.1002891191825E-01 -0.7454189303970E-03
-0.1158404627553E-01 -0.8249684839386E-03
-0.1322988940882E-01 -0.9068789180106E-03
-0.1496357664284E-01 -0.9909718978446E-03
-0.1678243442502E-01 -0.1077010750126E-02
-0.1868389048336E-01 -0.1164708776557E-02
-0.2066544895722E-01 -0.1253256174246E-02
-0.2272458385801E-01 -0.1341225872734E-02
-0.2485864106568E-01 -0.1427546326305E-02
-0.2706484904481E-01 -0.1511599545482E-02
-0.2934032019618E-01 -0.1593079691251E-02
-0.3168209437455E-01 -0.1671894330192E-02
-0.3408699898389E-01 -0.1748121485269E-02
-0.3655165174470E-01 -0.1822003980205E-02
-0.3907242792145E-01 -0.1893950856501E-02
-0.4164534293937E-01 -0.1964529712799E-02
-0.4426597890306E-01 -0.2034451879803E-02
-0.4692955538057E-01 -0.2104810493906E-02
-0.4963092137912E-01 -0.2177112877746E-02
-0.5236430958950E-01 -0.2253009417030E-02
-0.5512321614698E-01 -0.2334224828240E-02
-0.5790020970613E-01 -0.2422464464074E-02
-0.6068684348335E-01 -0.2519292997241E-02
-0.6347348626231E-01 -0.2626008821656E-02
-0.6624941810869E-01 -0.2743658121385E-02
-0.6900397563863E-01 -0.2873714790464E-02
-0.7172992887400E-01 -0.3020153978537E-02
-0.7441974265042E-01 -0.3186683212857E-02
-0.7706179948327E-01 -0.3374197017189E-02
-0.7964342350531E-01 -0.3582966941632E-02
-0.2929606534349E-03 -0.2956271425584E-04
-0.7233786517214E-03 -0.5996807441880E-04
-0.1287351542650E-02 -0.9093636652697E-04
-0.1980274556399E-02 -0.1224490463801E-03
-0.2797158099897E-02 -0.1547201718525E-03
-0.3732911804640E-02 -0.1881320540580E-03
-0.4782561739736E-02 -0.2231542777147E-03
-0.5941394150892E-02 -0.2602652587153E-03
-0.7205034477739E-02 -0.2998896137838E-03
-0.8569475630569E-02 -0.3423571125077E-03
-0.1003105521365E-01 -0.3878823635917E-03
-0.1158643878754E-01 -0.4365626147248E-03
-0.1323256163483E-01 -0.4883867138375E-03
-0.1496657222604E-01 -0.5432516844539E-03
-0.1678580070380E-01 -0.6009841544602E-03
-0.1868766773151E-01 -0.6613496033164E-03
-0.2066966104747E-01 -0.7235088432575E-03
-0.2272922760770E-01 -0.7859102490319E-03
-0.2486366968959E-01 -0.8474016872074E-03
-0.2707015538997E-01 -0.9073380931723E-03
-0.2934572089208E-01 -0.9654153050705E-03
-0.3168731477953E-01 -0.1021552102651E-02
-0.3409165904939E-01 -0.1075838492730E-02
-0.3655525332231E-01 -0.1128523868698E-02
-0.3907434427450E-01 -0.1180013530903E-02
-0.4164481151594E-01 -0.1230855719521E-02
-0.4426209858389E-01 -0.1281720061672E-02
-0.4692128938439E-01 -0.1333664279324E-02
-0.4961710836316E-01 -0.1388168555326E-02
-0.5234368499316E-01 -0.1446827943117E-02
-0.5509444479895E-01 -0.1511277641930E-02
-0.5786193103566E-01 -0.1583094465176E-02
-0.6063772943416E-01 -0.1663670426683E-02
-0.6341231170934E-01 -0.1754087447068E-02
-0.6617514238939E-01 -0.1855153845395E-02
-0.6891583432835E-01 -0.1968192636004E-02
-0.7162753832954E-01 -0.2097389924370E-02
-0.7430320283099E-01 -0.2246685654888E-02
-0.7693177880062E-01 -0.2416932488377E-02
-0.7950123333653E-01 -0.2608378532085E-02
-0.2925659245065E-03  0.2233180792097E-05
-0.7231057357796E-03  0.4021453008579E-05
-0.1287563372822E-02  0.5653404643103E-05
-0.1981176763944E-02  0.7095286457861E-05
-0.2798819469997E-02  0.8028764769605E-05
-0.3735300093003E-02  0.7931475484891E-05
-0.4785584369534E-02  0.6175835739136E-05
-0.5944935158771E-02  0.2123010373466E-05
-0.7208982638822E-02 -0.4803338152099E-05
-0.8573742186863E-02 -0.1506962990863E-04
-0.1003558206934E-01 -0.2900991143721E-04
-0.1159119923035E-01 -0.4682344254927E-04
-0.1323755582887E-01 -0.6858552376200E-04
-0.1497181934688E-01 -0.9426620644218E-04
-0.1679132898513E-01 -0.1237534198369E-03
-0.1869350318224E-01 -0.1568631074009E-03
-0.2067581806779E-01 -0.1927245215970E-03
-0.2273569810477E-01 -0.2296587705821E-03
-0.2487040530195E-01 -0.2664309798418E-03
-0.2707704975204E-01 -0.3023671530836E-03
-0.2935259326467E-01 -0.3371627895522E-03
-0.3169389484667E-01 -0.3707454145893E-03
-0.3409757296938E-01 -0.4032139367019E-03
-0.3656001154604E-01 -0.4348205534003E-03
-0.3907733189478E-01 -0.4659623749071E-03
-0.4164528219644E-01 -0.4971632235929E-03
-0.4425917324909E-01 -0.5290455224983E-03
-0.4691396069780E-01 -0.5626260834894E-03
-0.4960425354294E-01 -0.5993528523835E-03
-0.5232408900752E-01 -0.6407611456137E-03
-0.5506683473399E-01 -0.6883934168351E-03
-0.5782502283614E-01 -0.7436963252774E-03
-0.6059028699749E-01 -0.8078895208399E-03
-0.6335321803428E-01 -0.8818407472399E-03
-0.6610348128837E-01 -0.9661246787014E-03
-0.6883098141456E-01 -0.1061919785576E-02
-0.7152926251313E-01 -0.1173632946649E-02
-0.7419176669368E-01 -0.1305447044860E-02
-0.7680802279109E-01 -0.1458180522048E-02
-0.7936664841984E-01 -0.1632063706540E-02
-0.2924204932228E-03  0.3419390234768E-04
-0.7233967111817E-03  0.6835809461544E-04
-0.1288684870151E-02  0.1027866095665E-03
-0.1983332942714E-02  0.1373852626941E-03
-0.2802051200852E-02  0.1717206417585E-03
-0.3739529409067E-02  0.2051195062670E-03
-0.4790663806975E-02  0.2367876040504E-03
-0.5950691734119E-02  0.2659202797071E-03
-0.7215250778764E-02  0.2917873925537E-03
-0.8580384179012E-02  0.3137864353880E-03
-0.1004249741557E-01  0.3314661714115E-03
-0.1159832554598E-01  0.3445283488726E-03
-0.1324486400872E-01  0.3528143260634E-03
-0.1497930518399E-01  0.3562838299854E-03
-0.1679900267062E-01  0.3549899881358E-03
-0.1870137750889E-01  0.3490683644513E-03
-0.2068389902704E-01  0.3394237561894E-03
-0.2274397379969E-01  0.3278654451491E-03
-0.2487882697369E-01  0.3157134641371E-03
-0.2708551309416E-01  0.3036727160669E-03
-0.2936092153891E-01  0.2920500820883E-03
-0.3170182352203E-01  0.2809117252473E-03
-0.3410473593875E-01  0.2701528410058E-03
-0.3656592941678E-01  0.2595220849263E-03
-0.3908140311081E-01  0.2486348563314E-03
-0.4164677802312E-01  0.2369966716585E-03
-0.4425723776498E-01  0.2240376798120E-03
-0.4690761666045E-01  0.2087872974642E-03
-0.4959241669495E-01  0.1898346943476E-03
-0.5230559288456E-01  0.1657085181716E-03
-0.5504046656572E-01  0.1349621868924E-03
-0.5778957163466E-01  0.9628082351622E-04
-0.6054460373359E-01  0.4861701947196E-04
-0.6329628753868E-01 -0.8684727580378E-05
-0.6603450430914E-01 -0.7596914773612E-04
-0.6874946513678E-01 -0.1542760456664E-03
-0.7143511952566E-01 -0.2482430546449E-03
-0.7408541378405E-01 -0.3623066713747E-03
-0.7669046539184E-01 -0.4972583197719E-03
-0.7923955192752E-01 -0.6533159088942E-03
-0.2925371740005E-03  0.6634367276378E-04
-0.7242789009238E-03  0.1330942976279E-03
-0.1290756370707E-02  0.2005470672245E-03
-0.1986792375492E-02  0.2685374803085E-03
-0.2806906192569E-02  0.3365041664191E-03
-0.3745651058931E-02  0.4036103813563E-03
-0.4797845650267E-02  0.4688853964365E-03
-0.5958701165948E-02  0.5313529555033E-03
-0.7223866732879E-02  0.5901272664453E-03
-0.8589419976327E-02  0.6444709055852E-03
-0.1005181087321E-01  0.6938184447703E-03
-0.1160781969973E-01  0.7377763913812E-03
-0.1325448170317E-01  0.7761064922858E-03
-0.1498902003886E-01  0.8087015311734E-03
-0.1680880799057E-01  0.8355583807227E-03
-0.1871127399008E-01  0.8567662995027E-03
-0.2069388537239E-01  0.8732668937956E-03
-0.2275403546192E-01  0.8870033261212E-03
-0.2488891601263E-01  0.8993834246350E-03
-0.2709552855624E-01  0.9111450481706E-03
-0.2937069205759E-01  0.9225994811331E-03
-0.3171109178719E-01  0.9338089319736E-03
-0.3411314505632E-01  0.9446655887584E-03
-0.3657301163370E-01  0.9549224746662E-03
-0.3908657164766E-01  0.9642116643456E-03
-0.4164932301847E-01  0.9720727854843E-03
-0.4425632743334E-01  0.9779938003464E-03
-0.4690230436580E-01  0.9810555193027E-03
-0.4958165653091E-01  0.9798889298037E-03
-0.5228826586725E-01  0.9730907515839E-03
-0.5501541785404E-01  0.9593133666814E-03
-0.5775565979981E-01  0.9373753923973E-03
-0.6050076193305E-01  0.9064017739325E-03
-0.6324159619709E-01  0.8659477199096E-03
-0.6596827367800E-01  0.8158952799440E-03
-0.6867132564863E-01  0.7553378783297E-03
-0.7134511874301E-01  0.6793969440606E-03
-0.7398411449877E-01  0.5833714586683E-03
-0.7657903123604E-01  0.4664902119063E-03
-0.7911981766462E-01  0.3285428075484E-03
-0.2929315398157E-03  0.9870803310309E-04
-0.7257853227365E-03  0.1982854851499E-03
-0.1293826365499E-02  0.2990233792157E-03
-0.1991614023504E-02  0.4006749553402E-03
-0.2813447488725E-02  0.5025356241900E-03
-0.3753726074086E-02  0.6035905455245E-03
-0.4807184246508E-02  0.7026815894396E-03
-0.5969008285115E-02  0.7986548919439E-03
-0.7234864685896E-02  0.8904676037844E-03
-0.8600873259727E-02  0.9772493587373E-03
-0.1006353654310E-01  0.1058324432944E-02
-0.1161968750509E-01  0.1133208659849E-02
-0.1326640782190E-01  0.1201588554705E-02
-0.1500095724789E-01  0.1263293700372E-02
-0.1682073394776E-01  0.1318267699868E-02
-0.1872317847134E-01  0.1366555861962E-02
-0.2070576095468E-01  0.1409139579691E-02
-0.2276586613626E-01  0.1448099705994E-02
-0.2490065589967E-01  0.1484934674104E-02
-0.2710708136081E-01  0.1520417375900E-02
-0.2938189314766E-01  0.1554865456854E-02
-0.3172169247780E-01  0.1588339405111E-02
-0.3412279908923E-01  0.1620731130087E-02
-0.3658126430172E-01  0.1651801358184E-02
-0.3909285227975E-01  0.1681202825999E-02
-0.4165294179236E-01  0.1708513885300E-02
-0.4425647756857E-01  0.1733285432434E-02
-0.4689807023085E-01  0.1754654706886E-02
-0.4957203028801E-01  0.1771299081207E-02
-0.5227217483093E-01  0.1781887392720E-02
-0.5499176282741E-01  0.1785174113054E-02
-0.5772336536917E-01  0.1780113218036E-02
-0.6045883856398E-01  0.1766002414266E-02
-0.6318921372394E-01  0.1742606539476E-02
-0.6590484451178E-01  0.1710031816429E-02
-0.6859659523992E-01  0.1667499900239E-02
-0.7125926100705E-01  0.1609880865509E-02
-0.7388783014450E-01  0.1532197916920E-02
-0.7647363556938E-01  0.1433693547430E-02
-0.7900730998513E-01  0.1314160657312E-02
-0.2936222011563E-03  0.1313140724202E-03
-0.7279552532605E-03  0.2639905763200E-03
-0.1297952228307E-02  0.3983097492945E-03
-0.1997867234590E-02  0.5339281689100E-03
-0.2821748808731E-02  0.6699800203759E-03
-0.3763825492829E-02  0.8052556367387E-03
-0.4818742730545E-02  0.9383974957996E-03
-0.5981665322468E-02  0.1068068098216E-02
-0.7248284928668E-02  0.1193066832735E-02
-0.8614772747720E-02  0.1312393397445E-02
-0.1007769275135E-01  0.1425266726867E-02
-0.1163393841594E-01  0.1531117451810E-02
-0.1328064450329E-01  0.1629561913918E-02
-0.1501511308132E-01  0.1720370687494E-02
-0.1683477225491E-01  0.1803437347130E-02
-0.1873707932530E-01  0.1878765721613E-02
-0.2071951199573E-01  0.1947380130288E-02
-0.2277945110349E-01  0.2011503192179E-02
-0.2491403223121E-01  0.2072726877590E-02
-0.2712015872707E-01  0.2131861167229E-02
-0.2939451499598E-01  0.2189231911320E-02
-0.3173362011182E-01  0.2244899940577E-02
-0.3413369824664E-01  0.2298759408744E-02
-0.3659069464697E-01  0.2350581863132E-02
-0.3910026049010E-01  0.2400044482126E-02
-0.4165765915327E-01  0.2446768782327E-02
-0.4425772307651E-01  0.2490373598998E-02
-0.4689495956455E-01  0.2530057529116E-02
-0.4956359331416E-01  0.2564548803487E-02
-0.5225738391532E-01  0.2592592415914E-02
-0.5496957209041E-01  0.2613048151176E-02
-0.5769276185608E-01  0.2625007426421E-02
-0.6041890519182E-01  0.2627941471085E-02
-0.6313920360783E-01  0.2621824162020E-02
-0.6584426495303E-01  0.2606983873743E-02
-0.6852529853443E-01  0.2582765950619E-02
-0.7117753879716E-01  0.2543778457624E-02
-0.7379651294694E-01  0.2484757065385E-02
-0.7637418407185E-01  0.2404951515508E-02
-0.7890188373803E-01  0.2304154779718E-02
-0.2946311418661E-03  0.1641906987382E-03
-0.7308349046071E-03  0.3302726004212E-03
-0.1303201075772E-02  0.4985069435816E-03
-0.2005632558213E-02  0.6684362758169E-03
-0.2831895132933E-02  0.8390123694580E-03
-0.3776030637413E-02  0.1008811683522E-02
-0.4832593018066E-02  0.1176264346331E-02
-0.5996731701107E-02  0.1339843450248E-02
-0.7264173546716E-02  0.1498190934959E-02
-0.8631151862883E-02  0.1650180867740E-02
-0.1009430174848E-01  0.1794933029346E-02
-0.1165058528648E-01  0.1931799311660E-02
-0.1329719694245E-01  0.2060331640089E-02
-0.1503148663209E-01  0.2180246199317E-02
-0.1685091726922E-01  0.2291389983818E-02
-0.1875296741388E-01  0.2393727865112E-02
-0.2073512706084E-01  0.2488330327589E-02
-0.2279477784881E-01  0.2577566040397E-02
-0.2492903267141E-01  0.2663123511463E-02
-0.2713474979605E-01  0.2745851792821E-02
-0.2940854953704E-01  0.2826086616881E-02
-0.3174687072993E-01  0.2903890996151E-02
-0.3414584396434E-01  0.2979163596318E-02
-0.3660131074117E-01  0.3051689642943E-02
-0.3910881213523E-01  0.3121174298913E-02
-0.4166349972174E-01  0.3187286499860E-02
-0.4426009803131E-01  0.3249717912331E-02
-0.4689301612990E-01  0.3307733333629E-02
-0.4955639864213E-01  0.3360116271097E-02
-0.5224395414024E-01  0.3405691961753E-02
-0.5494891230963E-01  0.3443428889141E-02
-0.5766391802882E-01  0.3472558278594E-02
-0.6038102786608E-01  0.3492726055684E-02
-0.6309162310849E-01  0.3504115081866E-02
-0.6578657626967E-01  0.3507274478566E-02
-0.6845745266862E-01  0.3501669238971E-02
-0.7109993640480E-01  0.3481634581336E-02
-0.7371010602783E-01  0.3441606212289E-02
-0.7628057252933E-01  0.3380834228110E-02
-0.7880338418761E-01  0.3299109681427E-02
-0.2959841243603E-03  0.1973689629081E-03
-0.7344782365056E-03  0.3971994296666E-03
-0.1309650782251E-02  0.5997234263243E-03
-0.2015002677893E-02  0.8043485105081E-03
-0.2843983335900E-02  0.1009819158908E-02
-0.3790433371740E-02  0.1214476421203E-02
-0.4848815734515E-02  0.1416524324833E-02
-0.6014273746788E-02  0.1614241398699E-02
-0.7282582029730E-02  0.1806113849131E-02
-0.8650048333149E-02  0.1990896016285E-02
-0.1011338936071E-01  0.2167616133223E-02
-0.1166964409990E-01  0.2335554891288E-02
-0.1331607320165E-01  0.2494206266449E-02
-0.1505007969787E-01  0.2643237065062E-02
-0.1686916592772E-01  0.2782451298260E-02
-0.1877083605624E-01  0.2911777386782E-02
-0.2075259704038E-01  0.3032335249046E-02
-0.2281183604143E-01  0.3146644034402E-02
-0.2494564691738E-01  0.3256491800497E-02
-0.2715084557040E-01  0.3362768524970E-02
-0.2942399035605E-01  0.3465821277949E-02
-0.3176144175056E-01  0.3565716812848E-02
-0.3415923870212E-01  0.3662360265397E-02
-0.3661312123528E-01  0.3755553089838E-02
-0.3911852311514E-01  0.3845031705421E-02
-0.4167048754366E-01  0.3930516517533E-02
-0.4426363524676E-01  0.4011776805485E-02
-0.4689228169465E-01  0.4088148344134E-02
-0.4955049654663E-01  0.4158474318743E-02
-0.5223194299840E-01  0.4221664397614E-02
-0.5492984587062E-01  0.4276799374308E-02
-0.5763689765538E-01  0.4323252998874E-02
-0.6034526696774E-01  0.4360847536458E-02
-0.6304652321109E-01  0.4389975358813E-02
-0.6573181291273E-01  0.4411405577737E-02
-0.6839306745131E-01  0.4424719359750E-02
-0.7102643014288E-01  0.4423968225999E-02
-0.7362854340115E-01  0.4403274734031E-02
-0.7619268628572E-01  0.4361881097607E-02
-0.7871164674582E-01  0.4299575510981E-02
-0.2977111803314E-03  0.2308824498359E-03
-0.7389479335432E-03  0.4648446624254E-03
-0.1317391176765E-02  0.7020767151010E-03
-0.2026083472030E-02  0.9418258337439E-03
-0.2858122859677E-02  0.1182600017813E-02
-0.3807136319282E-02  0.1422480739067E-02
-0.4867500057032E-02  0.1659431652367E-02
-0.6034364298055E-02  0.1891532660478E-02
-0.7303566790416E-02  0.2117117816968E-02
-0.8671503722484E-02  0.2334829571803E-02
-0.1013498459242E-01  0.2543613821231E-02
-0.1169113366742E-01  0.2742688738627E-02
-0.1333728400658E-01  0.2931497521043E-02
-0.1507089666019E-01  0.3109662952200E-02
-0.1688951768745E-01  0.3276949736050E-02
-0.1879068100648E-01  0.3433252255580E-02
-0.2077191514414E-01  0.3579743087163E-02
-0.2283061752929E-01  0.3719096369411E-02
-0.2496386668148E-01  0.3853202672960E-02
-0.2716843887248E-01  0.3982994568952E-02
-0.2944083261058E-01  0.4108831639106E-02
-0.3177733184237E-01  0.4230785595145E-02
-0.3417388575560E-01  0.4348769631897E-02
-0.3662613510314E-01  0.4462603624304E-02
-0.3912940904744E-01  0.4572058211392E-02
-0.4167864570131E-01  0.4676909095714E-02
-0.4426836583834E-01  0.4777007839317E-02
-0.4689279556570E-01  0.4871765924258E-02
-0.4954593407761E-01  0.4960090634474E-02
-0.5222140401760E-01  0.5040980411534E-02
-0.5491243049847E-01  0.5113632259520E-02
-0.5761175920664E-01  0.5177565586531E-02
-0.6031167701083E-01  0.5232781169792E-02
-0.6300394853228E-01  0.5279882043509E-02
-0.6568000252410E-01  0.5319857234860E-02
-0.6833214549117E-01  0.5352401224201E-02
-0.7095698862387E-01  0.5371271274438E-02
-0.7355175010670E-01  0.5370263139695E-02
-0.7611039942916E-01  0.5348600176863E-02
-0.7862649611539E-01  0.5306066322702E-02
-0.2998472079071E-03  0.2647677560502E-03
-0.7443165851656E-03  0.5332886981506E-03
-0.1326525455069E-02  0.8056950111619E-03
-0.2038995213594E-02  0.1081042872534E-02
-0.2874436413318E-02  0.1357569624033E-02
-0.3826253014164E-02  0.1633070268219E-02
-0.4888743441667E-02  0.1905253712018E-02
-0.6057082195297E-02  0.2171998875630E-02
-0.7327188580752E-02  0.2431493652379E-02
-0.8695562886254E-02  0.2682278734410E-02
-0.1015911917975E-01  0.2923228675343E-02
-0.1171507530016E-01  0.3153509005410E-02
-0.1336084253190E-01  0.3372519990251E-02
-0.1509394436478E-01  0.3579846027359E-02
-0.1691197447487E-01  0.3775216188945E-02
-0.1881250044552E-01  0.3958493054667E-02
-0.2079307691283E-01  0.4130904956177E-02
-0.2285111635291E-01  0.4295285537666E-02
-0.2498368569447E-01  0.4453630733438E-02
-0.2718752432473E-01  0.4606917127908E-02
-0.2945907297466E-01  0.4755517641921E-02
-0.3179454081729E-01  0.4899509753543E-02
-0.3418978908458E-01  0.5038815870750E-02
-0.3664036139579E-01  0.5173276065714E-02
-0.3914148494500E-01  0.5302697810211E-02
-0.4168799591973E-01  0.5426915684995E-02
-0.4427431877205E-01  0.5545868090168E-02
-0.4689459410150E-01  0.5659046912711E-02
-0.4954275456344E-01  0.5765428009607E-02
-0.5221238628516E-01  0.5864103143044E-02
-0.5489671883380E-01  0.5954389781957E-02
-0.5758855551062E-01  0.6035956611267E-02
-0.6028030639046E-01  0.6108985687027E-02
-0.6296393717237E-01  0.6174292521429E-02
-0.6563116588951E-01  0.6233086719315E-02
-0.6827468225781E-01  0.6285173829650E-02
-0.7089157310260E-01  0.6324006882610E-02
-0.7347964272558E-01  0.6343041866359E-02
-0.7603357379507E-01  0.6341468266722E-02
-0.7854774395362E-01  0.6319058621343E-02
-0.3024327027527E-03  0.2990650787733E-03
-0.7506681167780E-03  0.6026200581741E-03
-0.1337171846511E-02  0.9107191760920E-03
-0.2053873917331E-02  0.1222190217218E-02
-0.2893060677207E-02  0.1534959886683E-02
-0.3847907949804E-02  0.1846507115885E-02
-0.4912651202351E-02  0.2154272197991E-02
-0.6082511625735E-02  0.2455933204640E-02
-0.7353511793951E-02  0.2749540909733E-02
-0.8722273347853E-02  0.3033547054284E-02
-0.1018582709649E-01  0.3306767782815E-02
-0.1174149245729E-01  0.3568327065519E-02
-0.1338676418042E-01  0.3817590707928E-02
-0.1511923200785E-01  0.4054110557287E-02
-0.1693654064925E-01  0.4277583638000E-02
-0.1883629499180E-01  0.4487842689734E-02
-0.2081608025112E-01  0.4686174682801E-02
-0.2287332878296E-01  0.4875577214314E-02
-0.2500509973425E-01  0.5058154253115E-02
-0.2720809835685E-01  0.5234927502625E-02
-0.2947870960927E-01  0.5406283633455E-02
-0.3181306954741E-01  0.5572306213619E-02
-0.3420695316018E-01  0.5732927509935E-02
-0.3665580900726E-01  0.5888009089465E-02
-0.3915476489622E-01  0.6037397472630E-02
-0.4169855816615E-01  0.6180989426549E-02
-0.4428152039617E-01  0.6318814624051E-02
-0.4689771019717E-01  0.6450450035647E-02
-0.4954099707681E-01  0.6574944650950E-02
-0.5220493392614E-01  0.6691488355748E-02
-0.5488275795615E-01  0.6799523757219E-02
-0.5756733334819E-01  0.6898872995620E-02
-0.6025119707504E-01  0.6989902830432E-02
-0.6292652049412E-01  0.7073643795358E-02
-0.6558531685589E-01  0.7151527427754E-02
-0.6822066602350E-01  0.7223469004030E-02
-0.7083013775806E-01  0.7282607309053E-02
-0.7341213061101E-01  0.7322049189768E-02
-0.7596205857989E-01  0.7340932180290E-02
-0.7847518253051E-01  0.7338991583715E-02
-0.3055146595146E-03  0.3338189502824E-03
-0.7580995343387E-03  0.6729370242405E-03
-0.1349465583026E-02  0.1017305146433E-02
-0.2070872839151E-02  0.1365477153195E-02
-0.2914146979455E-02  0.1715022442857E-02
-0.3872236478598E-02  0.2063071745010E-02
-0.4939335901811E-02  0.2406784262937E-02
-0.6110741299714E-02  0.2743640832849E-02
-0.7382603641605E-02  0.3071567922329E-02
-0.8751684595223E-02  0.3388944179088E-02
-0.1021514401551E-01  0.3694542325930E-02
-0.1177041037506E-01  0.3987457035873E-02
-0.1341506636103E-01  0.4267028664458E-02
-0.1514677103319E-01  0.4532782445020E-02
-0.1696322298497E-01  0.4784386746283E-02
-0.1886206773550E-01  0.5021646061801E-02
-0.2084092548705E-01  0.5245908577598E-02
-0.2289725338608E-01  0.5460340141582E-02
-0.2502810668497E-01  0.5667155177278E-02
-0.2723015924470E-01  0.5867421228001E-02
-0.2949974216407E-01  0.6061538629981E-02
-0.3183291990945E-01  0.6249596796469E-02
-0.3422538283313E-01  0.6431537908532E-02
-0.3667248645273E-01  0.6607245776765E-02
-0.3916926174728E-01  0.6776607737622E-02
-0.4171035023995E-01  0.6939585749931E-02
-0.4428999395182E-01  0.7096305064165E-02
-0.4690217273659E-01  0.7246432403171E-02
-0.4954069585604E-01  0.7389094562087E-02
-0.5219908552699E-01  0.7523584657148E-02
-0.5487058884450E-01  0.7649475593349E-02
-0.5754813298499E-01  0.7766747782189E-02
-0.6022438422195E-01  0.7875956850206E-02
-0.6289172286712E-01  0.7978351654264E-02
-0.6554246205910E-01  0.8075587824128E-02
-0.6817007809117E-01  0.8167689500140E-02
-0.7077262885287E-01  0.8247473159012E-02
-0.7334911891234E-01  0.8307683646496E-02
-0.7589569179521E-01  0.8347415553225E-02
-0.7840857171493E-01  0.8366265217857E-02
-0.3091476923200E-03  0.3690791635214E-03
-0.7667230634675E-03  0.7443496911954E-03
-0.1363561226039E-02  0.1125626904984E-02
-0.2090164124760E-02  0.1511134920996E-02
-0.2937861896046E-02  0.1898031507570E-02
-0.3899384502655E-02  0.2283064987069E-02
-0.4968916507962E-02  0.2663103624056E-02
-0.6141863433046E-02  0.3035439338648E-02
-0.7414533197873E-02  0.3397891676881E-02
-0.8783847298728E-02  0.3748785448114E-02
-0.1024710673082E-01  0.4086867042902E-02
-0.1180185568268E-01  0.4411215192833E-02
-0.1344576827062E-01  0.4721154230914E-02
-0.1517657504544E-01  0.5016188696655E-02
-0.1699203067784E-01  0.5295961396275E-02
-0.1888982430163E-01  0.5560249699632E-02
-0.2086761546274E-01  0.5810465182927E-02
-0.2292289112442E-01  0.6049946008782E-02
-0.2505270663207E-01  0.6281019149852E-02
-0.2725370718651E-01  0.6504798248401E-02
-0.2952217181523E-01  0.6721696640296E-02
-0.3185409476101E-01  0.6931808676365E-02
-0.3424508322581E-01  0.7135085825408E-02
-0.3669040165985E-01  0.7331434263961E-02
-0.3918498678549E-01  0.7520783407460E-02
-0.4172338735077E-01  0.7703163075718E-02
-0.4429975905810E-01  0.7878798259549E-02
-0.4690800600528E-01  0.8047450098108E-02
-0.4954187967405E-01  0.8208328001662E-02
-0.5219487349493E-01  0.8360833772936E-02
-0.5486024576604E-01  0.8504676328460E-02
-0.5753098762294E-01  0.8639999891317E-02
-0.6019989573351E-01  0.8767553941945E-02
-0.6285956127631E-01  0.8888809802272E-02
-0.6550260081917E-01  0.9005650078189E-02
-0.6812289196790E-01  0.9118207773597E-02
-0.7071898726619E-01  0.9218968921409E-02
-0.7329049917051E-01  0.9300310003727E-02
-0.7583433666699E-01  0.9361273238647E-02
-0.7834756120513E-01  0.9401351415956E-02
-0.3133954403040E-03  0.4049019523431E-03
-0.7766687889584E-03  0.8169825646014E-03
-0.1379635415874E-02  0.1235880163427E-02
-0.2111940591586E-02  0.1659420616934E-02
-0.2964387704517E-02  0.2084287111952E-02
-0.3929507879098E-02  0.2506810158869E-02
-0.5001517262947E-02  0.2923561570417E-02
-0.6175972511164E-02  0.3331658869853E-02
-0.7449370306470E-02  0.3728837484048E-02
-0.8818812455703E-02  0.4113391309478E-02
-0.1028175254796E-01  0.4484059547678E-02
-0.1183585601179E-01  0.4839919277540E-02
-0.1347889068603E-01  0.5180288493161E-02
-0.1520865974453E-01  0.5504656812770E-02
-0.1702297538065E-01  0.5812644164678E-02
-0.1891957294687E-01  0.6104001343832E-02
-0.2089615566185E-01  0.6380204990073E-02
-0.2295024549440E-01  0.6644769322495E-02
-0.2507890199936E-01  0.6900135551825E-02
-0.2727874442272E-01  0.7147463131507E-02
-0.2954600134531E-01  0.7387177050398E-02
-0.3187659795284E-01  0.7619374918646E-02
-0.3426605965068E-01  0.7844016081888E-02
-0.3670956177422E-01  0.8061028494627E-02
-0.3920194942284E-01  0.8270384350017E-02
-0.4173768168222E-01  0.8472183626055E-02
-0.4431083116773E-01  0.8666755058278E-02
-0.4691522905832E-01  0.8853958860791E-02
-0.4954457114683E-01  0.9033092022228E-02
-0.5219232334318E-01  0.9203670877704E-02
-0.5485175557958E-01  0.9365546692045E-02
-0.5751592276931E-01  0.9519033859479E-02
-0.6017775170767E-01  0.9665081631879E-02
-0.6283004494081E-01  0.9805388851925E-02
-0.6546572458621E-01  0.9942068759501E-02
-0.6807907398451E-01  0.1007536381629E-01
-0.7066914425351E-01  0.1019742215683E-01
-0.7323616720081E-01  0.1030024779862E-01
-0.7577780096003E-01  0.1038281953314E-01
-0.7829206998233E-01  0.1044462133425E-01
-0.3183323486985E-03  0.4413515151380E-03
-0.7880879339921E-03  0.8909778830287E-03
-0.1397890116398E-02  0.1348286959425E-02
-0.2136417606453E-02  0.1810621868126E-02
-0.2993922591377E-02  0.2274118755858E-02
-0.3962771444347E-02  0.2734655231076E-02
-0.5037266207160E-02  0.3188507793957E-02
-0.6213163814918E-02  0.3632642063148E-02
-0.7487184352848E-02  0.4064738405226E-02
-0.8856630472519E-02  0.4483086542967E-02
-0.1031911865419E-01  0.4886439505515E-02
-0.1187243960866E-01  0.5273887693915E-02
-0.1351445577234E-01  0.5644752501435E-02
-0.1524304288704E-01  0.5998514109311E-02
-0.1705607127339E-01  0.6334771738467E-02
-0.1895132469641E-01  0.6653249486715E-02
-0.2092655438014E-01  0.6955490131690E-02
-0.2297932271163E-01  0.7245187276823E-02
-0.2510669773569E-01  0.7524897568388E-02
-0.2730527540710E-01  0.7795825340590E-02
-0.2957123527205E-01  0.8058405093794E-02
-0.3190043438252E-01  0.8312735125106E-02
-0.3428831755842E-01  0.8558780347511E-02
-0.3672997298023E-01  0.8796489104839E-02
-0.3922015687939E-01  0.9025876440259E-02
-0.4175324193908E-01  0.9247114377100E-02
-0.4432322098923E-01  0.9460639221692E-02
-0.4692385503711E-01  0.9666414908923E-02
-0.4954878597283E-01  0.9863831130750E-02
-0.5219145289037E-01  0.1005252502396E-01
-0.5484513694258E-01  0.1023249722964E-01
-0.5750295549822E-01  0.1040423959725E-01
-0.6015796381706E-01  0.1056890812866E-01
-0.6280317474806E-01  0.1072843526335E-01
-0.6543181674495E-01  0.1088516936837E-01
-0.6803858190626E-01  0.1103946326658E-01
-0.7062302546386E-01  0.1118312120164E-01
-0.7318600199100E-01  0.1130776605588E-01
-0.7572593471040E-01  0.1141233735393E-01
-0.7824179209480E-01  0.1149621176836E-01
-0.3240459514892E-03  0.4785020079256E-03
-0.8011569632660E-03  0.9664999142265E-03
-0.1418556432536E-02  0.1463101434123E-02
-0.2163834986422E-02  0.1965062434457E-02
-0.3026680472637E-02  0.2467889476301E-02
-0.3999347539288E-02  0.2966974954658E-02
-0.5076293297483E-02  0.3458310931203E-02
-0.6253531694215E-02  0.3938743618857E-02
-0.7528042911359E-02  0.4405934381840E-02
-0.8897350199855E-02  0.4858199259816E-02
-0.1035924148115E-01  0.5294327648624E-02
-0.1191163495705E-01  0.5713438587111E-02
-0.1355248691243E-01  0.6114866420502E-02
-0.1527974427764E-01  0.6498086947408E-02
-0.1709133517186E-01  0.6862680245812E-02
-0.1898509352484E-01  0.7208342837407E-02
-0.2095882294406E-01  0.7536684017351E-02
-0.2301013194818E-01  0.7851579592149E-02
-0.2513610155833E-01  0.8155702255269E-02
-0.2733330703658E-01  0.8450299537701E-02
-0.2959788003217E-01  0.8735812380469E-02
-0.3192561009369E-01  0.9012336158425E-02
-0.3431186251760E-01  0.9279838017368E-02
-0.3675164033701E-01  0.9538284406530E-02
-0.3923961386467E-01  0.9787732602578E-02
-0.4177007287495E-01  0.1002842811260E-01
-0.4433693387114E-01  0.1026091843718E-01
-0.4693389042844E-01  0.1048527584848E-01
-0.4955453209418E-01  0.1070098802447E-01
-0.5219227136244E-01  0.1090781961919E-01
-0.5484039940453E-01  0.1110592843394E-01
-0.5749209360139E-01  0.1129599209935E-01
-0.6014053455768E-01  0.1147938156203E-01
-0.6277894270457E-01  0.1165827013211E-01
-0.6540085192366E-01  0.1183524661447E-01
-0.6800136533185E-01  0.1201077575711E-01
-0.7058054656481E-01  0.1217631066006E-01
-0.7313988103763E-01  0.1232309163205E-01
-0.7567856057229E-01  0.1245001299987E-01
-0.7819644825578E-01  0.1255632638187E-01
-0.3306398338181E-03  0.5164401894434E-03
-0.8160827551369E-03  0.1043740576824E-02
-0.1441899076225E-02  0.1580617142913E-02
-0.2194458795734E-02  0.2123108910630E-02
-0.3062890234097E-02  0.2666000298678E-02
-0.4039413895379E-02  0.3204172806342E-02
-0.5118728062971E-02  0.3733358677416E-02
-0.6297167589596E-02  0.4250329442189E-02
-0.7572010290189E-02  0.4752771028379E-02
-0.8941017945682E-02  0.5239059673953E-02
-0.1040215607848E-01  0.5708044643660E-02
-0.1195347042288E-01  0.6158888820460E-02
-0.1359300856360E-01  0.6590948598106E-02
-0.1531878579518E-01  0.7003699886420E-02
-0.1712878667968E-01  0.7396704513007E-02
-0.1902089658776E-01  0.7769629722934E-02
-0.2099297598539E-01  0.8124150926384E-02
-0.2304268563156E-01  0.8464328343465E-02
-0.2516712426390E-01  0.8792950634247E-02
-0.2736284895049E-01  0.9111305956538E-02
-0.2962594422952E-01  0.9419837529994E-02
-0.3195213242711E-01  0.9718632995084E-02
-0.3433670022924E-01  0.1000765723256E-01
-0.3677456763101E-01  0.1028689152221E-01
-0.3926032225689E-01  0.1055643400988E-01
-0.4178817479874E-01  0.1081660463846E-01
-0.4435196914503E-01  0.1106806549437E-01
-0.4694533426046E-01  0.1131100174595E-01
-0.4956180877048E-01  0.1154500447722E-01
-0.5219477838285E-01  0.1176997302885E-01
-0.5483754237098E-01  0.1198623096037E-01
-0.5748333459601E-01  0.1219465117674E-01
-0.6012545639347E-01  0.1239682918084E-01
-0.6275733120704E-01  0.1259518782409E-01
-0.6537279561371E-01  0.1279256274595E-01
-0.6796736454495E-01  0.1298953224345E-01
-0.7054161490708E-01  0.1317719182261E-01
-0.7309767129148E-01  0.1334639438679E-01
-0.7563549289533E-01  0.1349598733664E-01
-0.7815577869497E-01  0.1362508434702E-01
-0.3382375303663E-03  0.5552689870666E-03
-0.8331091698428E-03  0.1122926888630E-02
-0.1468221538662E-02  0.1701176363926E-02
-0.2228582826660E-02  0.2285178706172E-02
-0.3102794128651E-02  0.2868894967053E-02
-0.4083150720653E-02  0.3446682537538E-02
-0.5164696752125E-02  0.4014057288663E-02
-0.6344157820057E-02  0.4567775243397E-02
-0.7619146010140E-02  0.5105598043612E-02
-0.8987676497052E-02  0.5625998633453E-02
-0.1044789551798E-01  0.6127909813802E-02
-0.1199797392988E-01  0.6610552855380E-02
-0.1363604614417E-01  0.7073314550355E-02
-0.1536019145410E-01  0.7515674749386E-02
-0.1716844838595E-01  0.7937177227461E-02
-0.1905875450860E-01  0.8337457399941E-02
-0.2102903177901E-01  0.8718255532483E-02
-0.2307699981489E-01  0.9083817757416E-02
-0.2519978011804E-01  0.9437047804192E-02
-0.2739391391036E-01  0.9779270837786E-02
-0.2965543895591E-01  0.1011092690453E-01
-0.3198001022828E-01  0.1043208970148E-01
-0.3436283657798E-01  0.1074271603496E-01
-0.3679875724462E-01  0.1104279765861E-01
-0.3928228077860E-01  0.1133247142481E-01
-0.4180754305802E-01  0.1161213214346E-01
-0.4436831942410E-01  0.1188255961114E-01
-0.4695817722952E-01  0.1214405634982E-01
-0.4957060555571E-01  0.1239632236489E-01
-0.5219896283699E-01  0.1263939929280E-01
-0.5483655391607E-01  0.1287378590824E-01
-0.5747666457577E-01  0.1310056118575E-01
-0.6011271073772E-01  0.1332155644256E-01
-0.6273831227961E-01  0.1353945447250E-01
-0.6534760350260E-01  0.1375734541196E-01
-0.6793651033398E-01  0.1397592322420E-01
-0.7050612788762E-01  0.1418591857830E-01
-0.7305922991467E-01  0.1437779161441E-01
-0.7559653974989E-01  0.1455034450849E-01
-0.7811954106648E-01  0.1470255937843E-01
-0.3469877351168E-03  0.5951123878663E-03
-0.8525254509326E-03  0.1204330966858E-02
-0.1497871978889E-02  0.1825182016663E-02
-0.2266529422649E-02  0.2451749463709E-02
-0.3146644982603E-02  0.3077064740101E-02
-0.4130736812981E-02  0.3694969017385E-02
-0.5214318951496E-02  0.4300830248930E-02
-0.6394581182956E-02  0.4891464489872E-02
-0.7669503270613E-02  0.5464767209133E-02
-0.9037364190250E-02  0.6019345917536E-02
-0.1049649035113E-01  0.6554239733825E-02
-0.1204517267560E-01  0.7068741553242E-02
-0.1368162595096E-01  0.7562275875758E-02
-0.1540398750011E-01  0.8034329600871E-02
-0.1721034610979E-01  0.8484427995521E-02
-0.1909869172584E-01  0.8912171259843E-02
-0.2106701265217E-01  0.9319362344587E-02
-0.2311309463039E-01  0.9710433971107E-02
-0.2523408733841E-01  0.1008840307267E-01
-0.2742651827413E-01  0.1045462694239E-01
-0.2968637819446E-01  0.1080953546224E-01
-0.3200925411659E-01  0.1115318055319E-01
-0.3439027772090E-01  0.1148550367284E-01
-0.3682421004032E-01  0.1180650153273E-01
-0.3930548466778E-01  0.1211634669605E-01
-0.4182816749766E-01  0.1241550872110E-01
-0.4438596985483E-01  0.1270488792834E-01
-0.4697240075333E-01  0.1298490848505E-01
-0.4958090116880E-01  0.1325538485776E-01
-0.5220480159440E-01  0.1351650898411E-01
-0.5483740942177E-01  0.1376896519484E-01
-0.5747205686783E-01  0.1401405076488E-01
-0.6010226676836E-01  0.1425384601037E-01
-0.6272184665492E-01  0.1449130619885E-01
-0.6532522093367E-01  0.1472978540380E-01
-0.6790872348137E-01  0.1497009598803E-01
-0.7047397245664E-01  0.1520259579556E-01
-0.7302440375608E-01  0.1541734631787E-01
-0.7556150667505E-01  0.1561311334547E-01
-0.7808750556330E-01  0.1578876915674E-01
-0.3570713836353E-03  0.6361222764388E-03
-0.8746770423450E-03  0.1288283645317E-02
-0.1531249734130E-02  0.1953112990593E-02
-0.2308649107846E-02  0.2623370005053E-02
-0.3194701763410E-02  0.3291052862098E-02
-0.4182344535342E-02  0.3949527937946E-02
-0.5267703700202E-02  0.4594115843026E-02
-0.6448506447470E-02  0.5221785611540E-02
-0.7723127474416E-02  0.5830629961354E-02
-0.9090114076033E-02  0.6419428317958E-02
-0.1054796814478E-01  0.6987346726211E-02
-0.1209509289537E-01  0.7533760925116E-02
-0.1372977510485E-01  0.8058139113304E-02
-0.1545020253455E-01  0.8559977636336E-02
-0.1725450919003E-01  0.9038782278035E-02
-0.1914073690471E-01  0.9494113901172E-02
-0.2110694547560E-01  0.9927835039680E-02
-0.2315099484161E-01  0.1034456474031E-01
-0.2527006868927E-01  0.1074743011216E-01
-0.2746068258098E-01  0.1113781415999E-01
-0.2971877931586E-01  0.1151612775326E-01
-0.3203987681951E-01  0.1188239131654E-01
-0.3441903021361E-01  0.1223652207016E-01
-0.3685092525884E-01  0.1257851495838E-01
-0.3932992534333E-01  0.1290857441663E-01
-0.4185003189361E-01  0.1322724406242E-01
-0.4440489732064E-01  0.1353554718832E-01
-0.4698797594630E-01  0.1383403364130E-01
-0.4959266224873E-01  0.1412263780505E-01
-0.5221225807223E-01  0.1440171023814E-01
-0.5484007001589E-01  0.1467213204658E-01
-0.5746947046377E-01  0.1493543259835E-01
-0.6009408001885E-01  0.1519395662728E-01
-0.6270788272685E-01  0.1545094707477E-01
-0.6530558232518E-01  0.1571003386531E-01
-0.6788391452587E-01  0.1597215172223E-01
-0.7044502476223E-01  0.1622727703979E-01
-0.7299302924333E-01  0.1646506613545E-01
-0.7553019710709E-01  0.1668426369772E-01
-0.7805945424368E-01  0.1688366773144E-01
-0.3687114651065E-03  0.6784881990079E-03
-0.8999795893224E-03  0.1375193296359E-02
-0.1568812147777E-02  0.2085543910003E-02
-0.2355318201237E-02  0.2800672722026E-02
-0.3247222958673E-02  0.3511458044882E-02
-0.4238133532285E-02  0.4210883804450E-02
-0.5324945195961E-02  0.4894363358222E-02
-0.6505989866024E-02  0.5559128388030E-02
-0.7780054900467E-02  0.6203534548895E-02
-0.9145953232416E-02  0.6826567540676E-02
-0.1060235312001E-01  0.7427537298356E-02
-0.1214775967945E-01  0.8005910864911E-02
-0.1378052151647E-01  0.8561204566695E-02
-0.1549886765635E-01  0.9092925983412E-02
-0.1730097081445E-01  0.9600560181117E-02
-0.1918492341683E-01  0.1008362403306E-01
-0.2114886224834E-01  0.1054403565408E-01
-0.2319073051428E-01  0.1098659908104E-01
-0.2530775221140E-01  0.1141454714816E-01
-0.2749643226672E-01  0.1182928023705E-01
-0.2975266367783E-01  0.1223117908706E-01
-0.3207189357355E-01  0.1262022071500E-01
-0.3444910117090E-01  0.1299628747225E-01
-0.3687890042875E-01  0.1335936459902E-01
-0.3935559006426E-01  0.1370968374941E-01
-0.4187311336225E-01  0.1404786132887E-01
-0.4442506959800E-01  0.1437504561320E-01
-0.4700486251487E-01  0.1469191577824E-01
-0.4960584198555E-01  0.1499853134155E-01
-0.5222128062168E-01  0.1529540998499E-01
-0.5484448077966E-01  0.1558364164049E-01
-0.5746884817846E-01  0.1586500322570E-01
-0.6008809069681E-01  0.1614212187383E-01
-0.6269635530330E-01  0.1641854671682E-01
-0.6528861060103E-01  0.1669819893004E-01
-0.6786198381587E-01  0.1698214192758E-01
-0.7041915024305E-01  0.1725996193587E-01
-0.7296493174168E-01  0.1752090154848E-01
-0.7550241073663E-01  0.1776370279787E-01
-0.7803518305715E-01  0.1798714047083E-01
-0.3821869048615E-03  0.7224516397173E-03
-0.9289371128249E-03  0.1465572261753E-02
-0.1611081011254E-02  0.2223170604980E-02
-0.2406933185220E-02  0.2984386965152E-02
-0.3304457138399E-02  0.3738935889980E-02
-0.4298243174917E-02  0.4479585483249E-02
-0.5386118290043E-02  0.5202027658387E-02
-0.6567072874024E-02  0.5903879497091E-02
-0.7840311627225E-02  0.6583822820413E-02
-0.9204902280542E-02  0.7241077982209E-02
-0.1065966591938E-01  0.7875110573479E-02
-0.1220319684538E-01  0.8485483912431E-02
-0.1383389385776E-01  0.9071765125759E-02
-0.1555001660214E-01  0.9633474417911E-02
-0.1734976837693E-01  0.1017007507237E-01
-0.1923128988970E-01  0.1068103515969E-01
-0.2119280079188E-01  0.1116832358670E-01
-0.2323233783260E-01  0.1163692682407E-01
-0.2534717211822E-01  0.1209017719215E-01
-0.2753379853314E-01  0.1252948165988E-01
-0.2978805733739E-01  0.1295517690890E-01
-0.3210532258992E-01  0.1336718210613E-01
-0.3448049845588E-01  0.1376533227912E-01
-0.3690813128354E-01  0.1414959388952E-01
-0.3938246158276E-01  0.1452022042153E-01
-0.4189738174835E-01  0.1487789921335E-01
-0.4444644446794E-01  0.1522390500035E-01
-0.4702300757231E-01  0.1555904937525E-01
-0.4962037861995E-01  0.1588352175108E-01
-0.5223180071927E-01  0.1619801542550E-01
-0.5485056869148E-01  0.1650384193653E-01
-0.5747011448584E-01  0.1680304293307E-01
-0.6008422165596E-01  0.1709854881064E-01
-0.6268718408218E-01  0.1739423746096E-01
-0.6527421659641E-01  0.1769434155200E-01
-0.6784282198398E-01  0.1800006379534E-01
-0.7039620433035E-01  0.1830059269569E-01
-0.7293992440777E-01  0.1858474411416E-01
-0.7547794016004E-01  0.1885127332057E-01
-0.7801450527730E-01  0.1909900153863E-01
-0.3978526680294E-03  0.7683274560510E-03
-0.9621655695625E-03  0.1560074589738E-02
-0.1658647175124E-02  0.2366842743682E-02
-0.2463900040818E-02  0.3175352270388E-02
-0.3366630080636E-02  0.3974196606352E-02
-0.4362783929806E-02  0.4756198470670E-02
-0.5451274098982E-02  0.5517561963043E-02
-0.6631780188093E-02  0.6256417280474E-02
-0.7903912816041E-02  0.6971826725052E-02
-0.9266975159131E-02  0.7663264453544E-02
-0.1071992352645E-01  0.8330356780183E-02
-0.1226142686434E-01  0.8972764105315E-02
-0.1388992151694E-01  0.9590105128370E-02
-0.1560368585396E-01  0.1018191400217E-01
-0.1740094384183E-01  0.1074763198330E-01
-0.1927988082525E-01  0.1128667397495E-01
-0.2123880557377E-01  0.1180105434864E-01
-0.2327586009875E-01  0.1229593805612E-01
-0.2538836989978E-01  0.1277474834179E-01
-0.2757281939942E-01  0.1323888474367E-01
-0.2982499188256E-01  0.1368862243485E-01
-0.3214018557712E-01  0.1412380539834E-01
-0.3451323088729E-01  0.1454420707429E-01
-0.3693861168084E-01  0.1494976512356E-01
-0.3941051779244E-01  0.1534074888562E-01
-0.4192279899695E-01  0.1571791419635E-01
-0.4446896878864E-01  0.1608266305467E-01
-0.4704234437517E-01  0.1643594175642E-01
-0.4963619380511E-01  0.1677807362712E-01
-0.5224373094417E-01  0.1710993579749E-01
-0.5485824027133E-01  0.1743307475203E-01
-0.5747317297288E-01  0.1774981577371E-01
-0.6008237593095E-01  0.1806341653313E-01
-0.6268027172911E-01  0.1837811106489E-01
-0.6526229834703E-01  0.1869847028691E-01
-0.6782631094143E-01  0.1902585399139E-01
-0.7037603417133E-01  0.1934904930098E-01
-0.7291780708607E-01  0.1965642525987E-01
-0.7545656549993E-01  0.1994675440957E-01
-0.7799725486368E-01  0.2021899463246E-01
-0.4161696286953E-03  0.8165370453670E-03
-0.1000423117232E-02  0.1659550849024E-02
-0.1712170539061E-02  0.2517604999013E-02
-0.2526616062379E-02  0.3374528931314E-02
-0.3433928054522E-02  0.4217996640668E-02
-0.4431828194904E-02  0.5041293074157E-02
-0.5520436201964E-02  0.5841408850625E-02
-0.6700118533116E-02  0.6617105878163E-02
-0.7970862460242E-02  0.7367864643894E-02
-0.9332179209321E-02  0.8093419941332E-02
-0.1078313935949E-01  0.8793555876038E-02
-0.1232247083773E-01  0.9468025992406E-02
-0.1394863450549E-01  0.1011649932383E-01
-0.1565991466813E-01  0.1073852566285E-01
-0.1745454408091E-01  0.1133352574676E-01
-0.1933074728235E-01  0.1190085836591E-01
-0.2128692868879E-01  0.1244257796480E-01
-0.2332134896914E-01  0.1296402241516E-01
-0.2543139569109E-01  0.1346869418760E-01
-0.2761354096751E-01  0.1395796700181E-01
-0.2986350538464E-01  0.1443203260897E-01
-0.3217650830404E-01  0.1489063923814E-01
-0.3454730844838E-01  0.1533348285115E-01
-0.3697033351742E-01  0.1576046169550E-01
-0.3943973137565E-01  0.1617185463949E-01
-0.4194931851883E-01  0.1656848300249E-01
-0.4449257753917E-01  0.1695187597975E-01
-0.4706279098648E-01  0.1732311572774E-01
-0.4965319082641E-01  0.1768266237691E-01
-0.5225696272353E-01  0.1803158448668E-01
-0.5486737888917E-01  0.1837167714006E-01
-0.5747790334703E-01  0.1870556978361E-01
-0.6008243372729E-01  0.1903687469185E-01
-0.6267550138667E-01  0.1937021492631E-01
-0.6525274006646E-01  0.1971053477613E-01
-0.6781232542678E-01  0.2005938011744E-01
-0.7035848209060E-01  0.2040514239175E-01
-0.7289836636322E-01  0.2073571568758E-01
-0.7543804630413E-01  0.2104986734272E-01
-0.7798328761844E-01  0.2134679909998E-01
-0.4377502165372E-03  0.8676614562985E-03
-0.1044648071221E-02  0.1765129141964E-02
-0.1772370229259E-02  0.2676747238914E-02
-0.2595440942871E-02  0.3583001032418E-02
-0.3506477492026E-02  0.4471121060038E-02
-0.4505401651332E-02  0.5335428035983E-02
-0.5593597997104E-02  0.6173989798939E-02
-0.6772076214546E-02  0.6986288970991E-02
-0.8041153693198E-02  0.7772237702803E-02
-0.9400515614101E-02  0.8531823510335E-02
-0.1084932355966E-01  0.9264976386695E-02
-0.1238634852017E-01  0.9971533894980E-02
-0.1401006327658E-01  0.1065121202434E-01
-0.1571874495695E-01  0.1130357874395E-01
-0.1751062112553E-01  0.1192803880387E-01
-0.1938394761065E-01  0.1252389487733E-01
-0.2133723103842E-01  0.1309323688989E-01
-0.2336886600754E-01  0.1364156820033E-01
-0.2547630998224E-01  0.1417245439320E-01
-0.2765601893679E-01  0.1468721890411E-01
-0.2990364346118E-01  0.1518594246365E-01
-0.3221432117429E-01  0.1566825349789E-01
-0.3458274247379E-01  0.1613375342849E-01
-0.3700328663272E-01  0.1658229047392E-01
-0.3947006945785E-01  0.1701414668819E-01
-0.4197688456488E-01  0.1743020526150E-01
-0.4451719284933E-01  0.1783212135488E-01
-0.4708424887394E-01  0.1822111256944E-01
-0.4967125267598E-01  0.1859777712183E-01
-0.5227136382882E-01  0.1896338154327E-01
-0.5487784170054E-01  0.1931998314611E-01
-0.5748415792882E-01  0.1967053747894E-01
-0.6008424874517E-01  0.2001904206614E-01
-0.6267273339588E-01  0.2037054786945E-01
-0.6524541046754E-01  0.2073041775881E-01
-0.6780073495604E-01  0.2110042894028E-01
-0.7034339175909E-01  0.2146860205461E-01
-0.7288137886924E-01  0.2182232449286E-01
-0.7542211017828E-01  0.2216028830959E-01
-0.7797247628826E-01  0.2248204572685E-01
-0.4634303529418E-03  0.9225298953651E-03
-0.1096003902217E-02  0.1878336841117E-02
-0.1839995583558E-02  0.2845861215403E-02
-0.2670653604989E-02  0.3801962985111E-02
-0.3584322688783E-02  0.4734353175393E-02
-0.4583476772289E-02  0.5639130022722E-02
-0.5670721772220E-02  0.6515693907025E-02
-0.6847623703692E-02  0.7364283422518E-02
-0.8114769730586E-02  0.8185226249574E-02
-0.9471980222729E-02  0.8978738459674E-02
-0.1091848349185E-01  0.9744874540115E-02
-0.1245307839097E-01  0.1048354151455E-01
-0.1407423840796E-01  0.1119449656833E-01
-0.1578022092466E-01  0.1187732960732E-01
-0.1756923224031E-01  0.1253143859966E-01
-0.1943954820819E-01  0.1315607541653E-01
-0.2138978377005E-01  0.1375336323233E-01
-0.2341848467682E-01  0.1432896125248E-01
-0.2552318577682E-01  0.1488647556608E-01
-0.2770032040118E-01  0.1542714618151E-01
-0.2994546042053E-01  0.1595090798229E-01
-0.3225365976502E-01  0.1645724208754E-01
-0.3461954578196E-01  0.1694563803185E-01
-0.3703745869404E-01  0.1741588426877E-01
-0.3950149328334E-01  0.1786826012178E-01
-0.4200543163290E-01  0.1830370637630E-01
-0.4454272303709E-01  0.1872400133181E-01
-0.4710660145478E-01  0.1913049543650E-01
-0.4969023998020E-01  0.1952392405230E-01
-0.5228677560793E-01  0.1990575667037E-01
-0.5488945617573E-01  0.2027832602930E-01
-0.5749175756020E-01  0.2064493674726E-01
-0.6008764370803E-01  0.2101000531667E-01
-0.6267180097852E-01  0.2137905563513E-01
-0.6524015990274E-01  0.2175792563168E-01
-0.6779140559070E-01  0.2214869043982E-01
-0.7033061804929E-01  0.2253905939411E-01
-0.7286662161628E-01  0.2291589501681E-01
-0.7540843884410E-01  0.2327767156288E-01
-0.7796469229998E-01  0.2362435041147E-01
-0.4943866477081E-03  0.9823743371033E-03
-0.1155925432332E-02  0.2001286017655E-02
-0.1915761541417E-02  0.3026892809020E-02
-0.2752392551879E-02  0.4032674310464E-02
-0.3667405782906E-02  0.5008429217783E-02
-0.4665970499364E-02  0.5952870999167E-02
-0.5751739814035E-02  0.6866866582680E-02
-0.6926715355386E-02  0.7751373127904E-02
-0.8191685496738E-02  0.8607086722826E-02
-0.9546564767407E-02  0.9434410839559E-02
-0.1099062447684E-01  0.1023349376337E-01
-0.1252267779050E-01  0.1100429199095E-01
-0.1414119010442E-01  0.1174659527258E-01
-0.1584438831855E-01  0.1246002042287E-01
-0.1763043966188E-01  0.1314397447608E-01
-0.1949762424868E-01  0.1379767285986E-01
-0.2144467007476E-01  0.1442327496912E-01
-0.2347029296049E-01  0.1502658356595E-01
-0.2557211134438E-01  0.1561121262195E-01
-0.2774652595017E-01  0.1617827290420E-01
-0.2998902042771E-01  0.1672750957767E-01
-0.3229456526071E-01  0.1725822609833E-01
-0.3465773271201E-01  0.1776978399588E-01
-0.3707283505824E-01  0.1826190433351E-01
-0.3953395793630E-01  0.1873485876794E-01
-0.4203488394273E-01  0.1918964060057E-01
-0.4456906168319E-01  0.1962814619832E-01
-0.4712971260034E-01  0.2005185323295E-01
-0.4970998877769E-01  0.2046163030016E-01
-0.5230300994134E-01  0.2085915275180E-01
-0.5490201619632E-01  0.2124704104620E-01
-0.5750048686212E-01  0.2162897227605E-01
-0.6009240495998E-01  0.2200981808556E-01
-0.6267250463181E-01  0.2239562627907E-01
-0.6523681565668E-01  0.2279277790549E-01
-0.6778420014903E-01  0.2320373716694E-01
-0.7032004081924E-01  0.2361601614116E-01
-0.7285389578720E-01  0.2401598983661E-01
-0.7539665625077E-01  0.2440168582042E-01
-0.7795976047244E-01  0.2477338126248E-01
-0.5323342058616E-03  0.1049115568502E-02
-0.1226145697800E-02  0.2136957234211E-02
-0.2000221268118E-02  0.3222157016728E-02
-0.2840583467720E-02  0.4276359948800E-02
-0.3755557118273E-02  0.5293981599648E-02
-0.4752747466548E-02  0.6277047180731E-02
-0.5836557498306E-02  0.7227798584353E-02
-0.7009292397787E-02  0.8147803506417E-02
-0.8271869923968E-02  0.9038049167356E-02
-0.9624258452254E-02  0.9899068408596E-02
-0.1106575077405E-01  0.1073106459017E-01
-0.1259516316589E-01  0.1153401849738E-01
-0.1421094749876E-01  0.1230774011913E-01
-0.1591129310469E-01  0.1305187842702E-01
-0.1769430973745E-01  0.1376587397948E-01
-0.1955826026994E-01  0.1444893502120E-01
-0.2150198751038E-01  0.1510327064821E-01
-0.2352439692365E-01  0.1573481162427E-01
-0.2562319376015E-01  0.1634713099925E-01
-0.2779473205959E-01  0.1694114565026E-01
-0.3003439858201E-01  0.1751635629899E-01
-0.3233708468681E-01  0.1807185725697E-01
-0.3469731901517E-01  0.1860686951677E-01
-0.3710939860779E-01  0.1912104281862E-01
-0.3956741214513E-01  0.1961463785750E-01
-0.4206515503327E-01  0.2008869432838E-01
-0.4459608678296E-01  0.2054521837804E-01
-0.4715342511184E-01  0.2098580504482E-01
-0.4973030814123E-01  0.2141144838940E-01
-0.5231984591566E-01  0.2182402998120E-01
-0.5491527770583E-01  0.2222646890608E-01
-0.5751008878676E-01  0.2262283769781E-01
-0.6009827598302E-01  0.2301850067963E-01
-0.6267460501532E-01  0.2342008569815E-01
-0.6523517479484E-01  0.2383459623298E-01
-0.6777897439114E-01  0.2426499989122E-01
-0.7031158025913E-01  0.2469879660584E-01
-0.7284307344147E-01  0.2512204772679E-01
-0.7538633374010E-01  0.2553206144063E-01
-0.7795736260354E-01  0.2592898817536E-01
-0.5798728829766E-03  0.1125932268152E-02
-0.1308642603363E-02  0.2289624717385E-02
-0.2093536419801E-02  0.3434228288758E-02
-0.2934875258238E-02  0.4534033738461E-02
-0.3848506995591E-02  0.5591488228957E-02
-0.4843627369008E-02  0.6611961904145E-02
-0.5925058397550E-02  0.7598715231131E-02
-0.7095287349628E-02  0.8553777540057E-02
-0.8355288780413E-02  0.9478315497087E-02
-0.9705049893799E-02  0.1037292012148E-01
-0.1114386681834E-01  0.1123780499229E-01
-0.1267055051395E-01  0.1207294539519E-01
-0.1428353780163E-01  0.1287815449728E-01
-0.1598097932446E-01  0.1365311618866E-01
-0.1776091099940E-01  0.1439733857234E-01
-0.1962155040517E-01  0.1511007608127E-01
-0.2156185115208E-01  0.1579362174794E-01
-0.2358092572788E-01  0.1645401456216E-01
-0.2567656347124E-01  0.1709471035175E-01
-0.2784505367627E-01  0.1771633918258E-01
-0.3008168172800E-01  0.1831809084544E-01
-0.3238127082399E-01  0.1889882162339E-01
-0.3473832154537E-01  0.1945760635598E-01
-0.3714712956115E-01  0.1999402506241E-01
-0.3960179822796E-01  0.2050832660701E-01
-0.4209614756521E-01  0.2100158959926E-01
-0.4462366002829E-01  0.2147591697909E-01
-0.4717755916760E-01  0.2193300524591E-01
-0.4975097762641E-01  0.2237396131221E-01
-0.5233702622016E-01  0.2280087063554E-01
-0.5492895392070E-01  0.2321696002360E-01
-0.5752025843323E-01  0.2362671866014E-01
-0.6010494967970E-01  0.2403604067600E-01
-0.6267781405763E-01  0.2445219353498E-01
-0.6523499448171E-01  0.2488289348526E-01
-0.6777556607693E-01  0.2533174344723E-01
-0.7030520495678E-01  0.2578647959469E-01
-0.7283417679712E-01  0.2623327781453E-01
-0.7537705224584E-01  0.2666862345252E-01
-0.7795685197546E-01  0.2709144786999E-01
-0.6411144667348E-03  0.1218507601548E-02
-0.1405332686708E-02  0.2465423749104E-02
-0.2195110231730E-02  0.3665491561648E-02
-0.3034646464765E-02  0.4806270401168E-02
-0.3945921491684E-02  0.5901262412591E-02
-0.4938391159337E-02  0.6957804042264E-02
-0.6017113249964E-02  0.7979768509279E-02
-0.7184629318396E-02  0.8969454017104E-02
-0.8441907900562E-02  0.9928058353395E-02
-0.9788929393800E-02  0.1085615637231E-01
-0.1122497866072E-01  0.1175392105249E-01
-0.1274885616748E-01  0.1262128985470E-01
-0.1435898551331E-01  0.1345805631720E-01
-0.1605348587693E-01  0.1426393393217E-01
-0.1783031033421E-01  0.1503853900361E-01
-0.1968759779914E-01  0.1578126387299E-01
-0.2162439816174E-01  0.1649456126244E-01
-0.2364003897871E-01  0.1718455258627E-01
-0.2573238012759E-01  0.1785445081648E-01
-0.2789762673437E-01  0.1850446411137E-01
-0.3013096873904E-01  0.1913339536908E-01
-0.3242718167140E-01  0.1973984340503E-01
-0.3478075769049E-01  0.2032274237375E-01
-0.3718600525457E-01  0.2088161157429E-01
-0.3963705226256E-01  0.2141669056006E-01
-0.4212775346489E-01  0.2192908781944E-01
-0.4465162628987E-01  0.2242098309211E-01
-0.4720191071010E-01  0.2289414943186E-01
-0.4977174450796E-01  0.2334978823323E-01
-0.5235425329797E-01  0.2379018449204E-01
-0.5494271014357E-01  0.2421887973025E-01
-0.5753063610078E-01  0.2464079707597E-01
-0.6011205936223E-01  0.2506239479824E-01
-0.6268178371249E-01  0.2549164018694E-01
-0.6523598029051E-01  0.2593706198100E-01
-0.6777377644090E-01  0.2640304876489E-01
-0.7030091158344E-01  0.2687782539401E-01
-0.7282748467653E-01  0.2734843193263E-01
-0.7536861571069E-01  0.2781121048010E-01
-0.7795693881278E-01  0.2826190902665E-01
-0.7228412512823E-03  0.1338151451246E-02
-0.1517020571596E-02  0.2672681913219E-02
-0.2303169365649E-02  0.3916920595622E-02
-0.3139204748373E-02  0.5093172596014E-02
-0.4047417697696E-02  0.6223468129726E-02
-0.5036790685232E-02  0.7314607618934E-02
-0.6112594748259E-02  0.8371044448513E-02
-0.7277247957123E-02  0.9394943463630E-02
-0.8531697542251E-02  0.1038742234066E-01
-0.9875891138178E-02  0.1134894952202E-01
-0.1130909564115E-01  0.1227960812705E-01
-0.1283009801275E-01  0.1317926356827E-01
-0.1443731226388E-01  0.1404766251797E-01
-0.1612884214954E-01  0.1488452591679E-01
-0.1790256565092E-01  0.1568961147155E-01
-0.1975651219290E-01  0.1646259989466E-01
-0.2168979504985E-01  0.1720626591819E-01
-0.2370193792771E-01  0.1792677706448E-01
-0.2579083972820E-01  0.1862688368503E-01
-0.2795261005081E-01  0.1930617688818E-01
-0.3018236994669E-01  0.1996299789566E-01
-0.3247487933400E-01  0.2059568868746E-01
-0.3482464449431E-01  0.2120306376169E-01
-0.3722599986904E-01  0.2178459955729E-01
-0.3967310459019E-01  0.2234053339704E-01
-0.4215985465115E-01  0.2287199367728E-01
-0.4467981339219E-01  0.2338120623654E-01
-0.4722624965162E-01  0.2386998139611E-01
-0.4979232074528E-01  0.2433959068491E-01
-0.5237118531129E-01  0.2479251487860E-01
-0.5495615833946E-01  0.2523261453606E-01
-0.5754079943159E-01  0.2566525717175E-01
-0.6011916862146E-01  0.2609749183182E-01
-0.6268609181971E-01  0.2653804681084E-01
-0.6523777095940E-01  0.2699635989431E-01
-0.6777335460533E-01  0.2747779653604E-01
-0.7029864615704E-01  0.2797125865358E-01
-0.7282358630940E-01  0.2846541030257E-01
-0.7536161719689E-01  0.2895913369368E-01
-0.7795527345083E-01  0.2944313624469E-01
-0.8365423821464E-03  0.1511278898996E-02
-0.1640187683386E-02  0.2919059405235E-02
-0.2415086528159E-02  0.4186096015355E-02
-0.3248171425832E-02  0.5395224468830E-02
-0.4152440591330E-02  0.6557791494259E-02
-0.5138627577750E-02  0.7682337360560E-02
-0.6211370413521E-02  0.8772540653200E-02
-0.7373084914787E-02  0.9830315143915E-02
-0.8624634831064E-02  0.1085652416514E-01
-0.9965936059265E-02  0.1185145557464E-01
-0.1139623197179E-01  0.1281505236595E-01
-0.1291429706077E-01  0.1374707427556E-01
-0.1451853835457E-01  0.1464719359540E-01
-0.1620706336184E-01  0.1551509440106E-01
-0.1797771185764E-01  0.1635065877256E-01
-0.1982840321500E-01  0.1715408506585E-01
-0.2175825073133E-01  0.1792882708554E-01
-0.2376688310515E-01  0.1868103672630E-01
-0.2585218234524E-01  0.1941258893429E-01
-0.2801018569939E-01  0.2012219191978E-01
-0.3023600538880E-01  0.2080767910063E-01
-0.3252442822171E-01  0.2146716874829E-01
-0.3486999746994E-01  0.2209939685110E-01
-0.3726708399878E-01  0.2270382392391E-01
-0.3970988075542E-01  0.2328069761527E-01
-0.4219232483827E-01  0.2383115910966E-01
-0.4470803228980E-01  0.2435743288934E-01
-0.4725031755565E-01  0.2486130135371E-01
-0.4981237959517E-01  0.2534407881140E-01
-0.5238743217431E-01  0.2580844528774E-01
-0.5496885140434E-01  0.2625857989894E-01
-0.5755025543321E-01  0.2670029292512E-01
-0.6012575763807E-01  0.2714124004634E-01
-0.6269023122869E-01  0.2759095968569E-01
-0.6523990364183E-01  0.2805992279712E-01
-0.6777401404930E-01  0.2855458578699E-01
-0.7029818359026E-01  0.2906503056918E-01
-0.7282308457947E-01  0.2958089524327E-01
-0.7535859913638E-01  0.3010924006696E-01
-0.7794855601968E-01  0.3064004297407E-01
-0.1461955106643E+00 -0.3835199001861E-01
-0.2044756741860E+00 -0.4652542629791E-01
-0.2638272482992E+00 -0.5676980131262E-01
-0.3235210018043E+00 -0.6900882398765E-01
-0.3829329371018E+00 -0.8298479824913E-01
-0.4415716242744E+00 -0.9834948333580E-01
-0.4990866351910E+00 -0.1147332364405E+00
-0.5552775873299E+00 -0.1317978069310E+00
-0.6101065024760E+00 -0.1492727994372E+00
-0.6636941877997E+00 -0.1669674099351E+00
-0.7162648265800E+00 -0.1847464918289E+00
-0.7680379831709E+00 -0.2024779458378E+00
-0.8191430237279E+00 -0.2199921681653E+00
-0.8695859019355E+00 -0.2370780354377E+00
-0.9192611482418E+00 -0.2535002632492E+00
-0.9679852089173E+00 -0.2690210906853E+00
-0.1015508802072E+01 -0.2834141732112E+00
-0.1061526194302E+01 -0.2964755465744E+00
-0.1105653129626E+01 -0.3080206047873E+00
-0.1452651467757E+00 -0.3698574695720E-01
-0.2029005622971E+00 -0.4507442639062E-01
-0.2615873412857E+00 -0.5520436318775E-01
-0.3206839584629E+00 -0.6731900206398E-01
-0.3796188710194E+00 -0.8119115631289E-01
-0.4379261102864E+00 -0.9650118462531E-01
-0.4952615370758E+00 -0.1129004316946E+00
-0.5514175875713E+00 -0.1300610158642E+00
-0.6063401195104E+00 -0.1477114942139E+00
-0.6601286392262E+00 -0.1656501081374E+00
-0.7129852283287E+00 -0.1837246450365E+00
-0.7651113715738E+00 -0.2017857475893E+00
-0.8166218805905E+00 -0.2196501144280E+00
-0.8675111517016E+00 -0.2370965619027E+00
-0.9176651727689E+00 -0.2538825492616E+00
-0.9668919457895E+00 -0.2697646192239E+00
-0.1014934667205E+01 -0.2845113215751E+00
-0.1061476456053E+01 -0.2979060962881E+00
-0.1106166604814E+01 -0.3096801424247E+00
-0.1443373984971E+00 -0.3566284092959E-01
-0.2013318328008E+00 -0.4369388454540E-01
-0.2593560455750E+00 -0.5374365240135E-01
-0.3178502685065E+00 -0.6577035940498E-01
-0.3762941975882E+00 -0.7957181572878E-01
-0.4342489179052E+00 -0.9485363296521E-01
-0.4913791242207E+00 -0.1112865618610E+00
-0.5474727757111E+00 -0.1285531827883E+00
-0.6024618567858E+00 -0.1463824020170E+00
-0.6564262406357E+00 -0.1645636284302E+00
-0.7095469030391E+00 -0.1829300622155E+00
-0.7620073487811E+00 -0.2013172204911E+00
-0.8139078366295E+00 -0.2195296112896E+00
-0.8652313884459E+00 -0.2373371040756E+00
-0.9158553769062E+00 -0.2544904929858E+00
-0.9655799108970E+00 -0.2707399806624E+00
-0.1014140871415E+01 -0.2858445347001E+00
-0.1061224257094E+01 -0.2995578530052E+00
-0.1106500162875E+01 -0.3116051742787E+00
-0.1434059434539E+00 -0.3437859857562E-01
-0.1997580493440E+00 -0.4237452592209E-01
-0.2571190914161E+00 -0.5237484758393E-01
-0.3150046948361E+00 -0.6434675956698E-01
-0.3729442355058E+00 -0.7810840293158E-01
-0.4305267284064E+00 -0.9338727362387E-01
-0.4874277377165E+00 -0.1098718730213E+00
-0.5434330552335E+00 -0.1272550761248E+00
-0.5984628750759E+00 -0.1452671857041E+00
-0.6525790270017E+00 -0.1636906827629E+00
-0.7059423505254E+00 -0.1823464780247E+00
-0.7587185760004E+00 -0.2010570496524E+00
-0.8109934839498E+00 -0.2196162588734E+00
-0.8627388930190E+00 -0.2377860408973E+00
-0.9138238326900E+00 -0.2553107530958E+00
-0.9640412237097E+00 -0.2719331459667E+00
-0.1013123512429E+01 -0.2873983240474E+00
-0.1060760641442E+01 -0.3014454657073E+00
-0.1106630174415E+01 -0.3138049498121E+00
-0.1424657056289E+00 -0.3312910854475E-01
-0.1981694324233E+00 -0.4110898352924E-01
-0.2548638044048E+00 -0.5108677224778E-01
-0.3121335062310E+00 -0.6303382125041E-01
-0.3695555290293E+00 -0.7678411513681E-01
-0.4267471737168E+00 -0.9208386691456E-01
-0.4833964146105E+00 -0.1086375807720E+00
-0.5392888374300E+00 -0.1261480558917E+00
-0.5943347152790E+00 -0.1443477869349E+00
-0.6485793191880E+00 -0.1630140007756E+00
-0.7021642882997E+00 -0.1819574500280E+00
-0.7552378598359E+00 -0.2009895784133E+00
-0.8078714765762E+00 -0.2198951067743E+00
-0.8600260355878E+00 -0.2384289301242E+00
-0.9115626779770E+00 -0.2563291044512E+00
-0.9622686550683E+00 -0.2733300640926E+00
-0.1011874585805E+01 -0.2891661475866E+00
-0.1060072194665E+01 -0.3035691343025E+00
-0.1106538240604E+01 -0.3162757889762E+00
-0.1415124992468E+00 -0.3191101492704E-01
-0.1965576310576E+00 -0.3989098294945E-01
-0.2525790557485E+00 -0.4986969201036E-01
-0.3092243977452E+00 -0.6181860195362E-01
-0.3661158439538E+00 -0.7558350979182E-01
-0.4228988588249E+00 -0.9092631124721E-01
-0.4792749414516E+00 -0.1075657465656E+00
-0.5350311031383E+00 -0.1252140133195E+00
-0.5900693537974E+00 -0.1436063866460E+00
-0.6444197734845E+00 -0.1625163071743E+00
-0.6982056936095E+00 -0.1817463291022E+00
-0.7515581959831E+00 -0.2010987600741E+00
-0.8045346092847E+00 -0.2203506199636E+00
-0.8570852845758E+00 -0.2392506298472E+00
-0.9090641766612E+00 -0.2575308261801E+00
-0.9602539924178E+00 -0.2749183044393E+00
-0.1010383793547E+01 -0.2911396347928E+00
-0.1059144793175E+01 -0.3059227033170E+00
-0.1106208171304E+01 -0.3190085769490E+00
-0.1405428340838E+00 -0.3072131965966E-01
-0.1949155179666E+00 -0.3871503685010E-01
-0.2502551337403E+00 -0.4871496913351E-01
-0.3062664332175E+00 -0.6068937492718E-01
-0.3626141465712E+00 -0.7449230008032E-01
-0.4189713838842E+00 -0.8989849249865E-01
-0.4750539008620E+00 -0.1066391725098E+00
-0.5306514625436E+00 -0.1244353060850E+00
-0.5856592651928E+00 -0.1430253678799E+00
-0.6400934433851E+00 -0.1621802941085E+00
-0.6940598642748E+00 -0.1816962306145E+00
-0.7476728379613E+00 -0.2013681290335E+00
-0.8009758743067E+00 -0.2209666986846E+00
-0.8539092440266E+00 -0.2402354052632E+00
-0.9063203848679E+00 -0.2589010667046E+00
-0.9579881373718E+00 -0.2766848865202E+00
-0.1008639783930E+01 -0.2933079778130E+00
-0.1057964310617E+01 -0.3084958029257E+00
-0.1105624791927E+01 -0.3219913305297E+00
-0.1395537901150E+00 -0.2955729153717E-01
-0.1932370284997E+00 -0.3757623506825E-01
-0.2478836207020E+00 -0.4761482419005E-01
-0.3032499768359E+00 -0.5963540931772E-01
-0.3590405812568E+00 -0.7349718208464E-01
-0.4149553536779E+00 -0.8898514763273E-01
-0.4707247033283E+00 -0.1058413064489E+00
-0.5261421973382E+00 -0.1237946979487E+00
-0.5810974674009E+00 -0.1425872798655E+00
-0.6355938244497E+00 -0.1619885989462E+00
-0.6897204631026E+00 -0.1817900197204E+00
-0.7435753373210E+00 -0.2017808049308E+00
-0.7971884892586E+00 -0.2217267163380E+00
-0.8504905903381E+00 -0.2413670258997E+00
-0.9033231136335E+00 -0.2604244018828E+00
-0.9554614322207E+00 -0.2786156196426E+00
-0.1006630754186E+01 -0.2956579653293E+00
-0.1056516759406E+01 -0.3112750756521E+00
-0.1104773323617E+01 -0.3252098597201E+00
-0.1385429303785E+00 -0.2841640649818E-01
-0.1915170313053E+00 -0.3647010951228E-01
-0.2454572796359E+00 -0.4656215609411E-01
-0.3001666226998E+00 -0.5864679277081E-01
-0.3553864434320E+00 -0.7258568312122E-01
-0.4108423852197E+00 -0.8817174799141E-01
-0.4662796188562E+00 -0.1051561588572E+00
-0.5214963073695E+00 -0.1232753053891E+00
-0.5763775764575E+00 -0.1422748061877E+00
-0.6309149134404E+00 -0.1619237861773E+00
-0.6851815774723E+00 -0.1820103044928E+00
-0.7392595989066E+00 -0.2023194985003E+00
-0.7931659283419E+00 -0.2226135385525E+00
-0.8468220922148E+00 -0.2426286586669E+00
-0.9000640457942E+00 -0.2620845381712E+00
-0.9526639638921E+00 -0.2806948386488E+00
-0.1004344780492E+01 -0.2981741938543E+00
-0.1054788317291E+01 -0.3142446929743E+00
-0.1103639069298E+01 -0.3286478590149E+00
-0.1375082399061E+00 -0.2729630694095E-01
-0.1897512281511E+00 -0.3539253879158E-01
-0.2429699579738E+00 -0.4555040707357E-01
-0.2970091285154E+00 -0.5771428712004E-01
-0.3516441488521E+00 -0.7174603293846E-01
-0.4066251071158E+00 -0.8744439736179E-01
-0.4617117977979E+00 -0.1045682304031E+00
-0.5167075448495E+00 -0.1228605516328E+00
-0.5714938481805E+00 -0.1420707398723E+00
-0.6260512532524E+00 -0.1619683384424E+00
-0.6804377632718E+00 -0.1823394393298E+00
-0.7347199176641E+00 -0.2029665231810E+00
-0.7889019526947E+00 -0.2236095059543E+00
-0.8428966661557E+00 -0.2440027716577E+00
-0.8965348742238E+00 -0.2638641596667E+00
-0.9495857867119E+00 -0.2829053645395E+00
-0.1001770007914E+01 -0.3008392675711E+00
-0.1052765343109E+01 -0.3173866255650E+00
-0.1102207295113E+01 -0.3322868561328E+00
-0.1364480801620E+00 -0.2619477259776E-01
-0.1879360737092E+00 -0.3433967987217E-01
-0.2404165055387E+00 -0.4457346082192E-01
-0.2937713556939E+00 -0.5682921398266E-01
-0.3478072044170E+00 -0.7096705720773E-01
-0.4022971591701E+00 -0.8678974585592E-01
-0.4570152929491E+00 -0.1040624503914E+00
-0.5117704521738E+00 -0.1225341283651E+00
-0.5664412261072E+00 -0.1419579643177E+00
-0.6209979865013E+00 -0.1621046519422E+00
-0.6754840996100E+00 -0.1827595292837E+00
-0.7299510328989E+00 -0.2037037944528E+00
-0.7843906732815E+00 -0.2246964044230E+00
-0.8387074729011E+00 -0.2454710631721E+00
-0.8927274539551E+00 -0.2657448606769E+00
-0.9462171083378E+00 -0.2852285279126E+00
-0.9988947973658E+00 -0.3036339383118E+00
-0.1050434433743E+01 -0.3206807709973E+00
-0.1100463249434E+01 -0.3361060945702E+00
-0.1353611552016E+00 -0.2510969877535E-01
-0.1860687120814E+00 -0.3330791738251E-01
-0.2377927058427E+00 -0.4362556450372E-01
-0.2904482158052E+00 -0.5598336381717E-01
-0.3438701789544E+00 -0.7023809026551E-01
-0.3978531876736E+00 -0.8619491817704E-01
-0.4521850749566E+00 -0.1036241259122E+00
-0.5066803918931E+00 -0.1222799659612E+00
-0.5612153810569E+00 -0.1419194417791E+00
-0.6157509005940E+00 -0.1623150386713E+00
-0.6703162365916E+00 -0.1832524385721E+00
-0.7249481807275E+00 -0.2045128326753E+00
-0.7796266181618E+00 -0.2258554507508E+00
-0.8342480146887E+00 -0.2470144362714E+00
-0.8886339345876E+00 -0.2677071448717E+00
-0.9425484350839E+00 -0.2876442345586E+00
-0.9957078445512E+00 -0.3065372284931E+00
-0.1047782502678E+01 -0.3241050483895E+00
-0.1098392285825E+01 -0.3400824917183E+00
-0.1342464855290E+00 -0.2403907989693E-01
-0.1841469254690E+00 -0.3229382576662E-01
-0.2350952181327E+00 -0.4270126910210E-01
-0.2870356233867E+00 -0.5516892443901E-01
-0.3398286760374E+00 -0.6954890501751E-01
-0.3932888399654E+00 -0.8564745552466E-01
-0.4472170459052E+00 -0.1032389014358E+00
-0.5014335749636E+00 -0.1220822118799E+00
-0.5558127497697E+00 -0.1419382084169E+00
-0.6103064734113E+00 -0.1625817335428E+00
-0.6649304466602E+00 -0.1837998027183E+00
-0.7197071541513E+00 -0.2053747720908E+00
-0.7746048090573E+00 -0.2270672952841E+00
-0.8295122358647E+00 -0.2486130052587E+00
-0.8842468830147E+00 -0.2697304592768E+00
-0.9385707000432E+00 -0.2901310442747E+00
-0.9921982932049E+00 -0.3095265384084E+00
-0.1044796884701E+01 -0.3276354823730E+00
-0.1095980007030E+01 -0.3441907124006E+00
-0.1331033875749E+00 -0.2298099690546E-01
-0.1821690923841E+00 -0.3129414081849E-01
-0.2323215285070E+00 -0.4179538380054E-01
-0.2835304546300E+00 -0.5437842528213E-01
-0.3356793090615E+00 -0.6888965758457E-01
-0.3886007585816E+00 -0.8513526987877E-01
-0.4421080511230E+00 -0.1028927283338E+00
-0.4960270869488E+00 -0.1219252170546E+00
-0.5502305720655E+00 -0.1419973759406E+00
-0.6046619189075E+00 -0.1628869072291E+00
-0.6593236781129E+00 -0.1843830470185E+00
-0.7142243672922E+00 -0.2062703802954E+00
-0.7693208413141E+00 -0.2283120431278E+00
-0.8244946215428E+00 -0.2502461280103E+00
-0.8795593969276E+00 -0.2717932519973E+00
-0.9342753802513E+00 -0.2926662600968E+00
-0.9883558473484E+00 -0.3125777528740E+00
-0.1041465450299E+01 -0.3312463091555E+00
-0.1093212411239E+01 -0.3484032814632E+00
-0.1319314572640E+00 -0.2193360757545E-01
-0.1801341532467E+00 -0.3030573827426E-01
-0.2294699084352E+00 -0.4090294130534E-01
-0.2799305111509E+00 -0.5360469451307E-01
-0.3314196784433E+00 -0.6825084459867E-01
-0.3837865751071E+00 -0.8464660945062E-01
-0.4368558892768E+00 -0.1025718437600E+00
-0.4904589120889E+00 -0.1217935301165E+00
-0.5444669262796E+00 -0.1420801400904E+00
-0.5988152320786E+00 -0.1632126857105E+00
-0.6534936094001E+00 -0.1849834132382E+00
-0.7084969210446E+00 -0.2071800898324E+00
-0.7637709636993E+00 -0.2295692927938E+00
-0.8191902921302E+00 -0.2518924589009E+00
-0.8745652102928E+00 -0.2738730477476E+00
-0.9296546063149E+00 -0.2952260281067E+00
-0.9841708814883E+00 -0.3156653577807E+00
-0.1037776722857E+01 -0.3349101005237E+00
-0.1090076046264E+01 -0.3526907090527E+00
-0.1307305565370E+00 -0.2089513901668E-01
-0.1780415815104E+00 -0.2932561773891E-01
-0.2265393788360E+00 -0.4001917170564E-01
-0.2762344872994E+00 -0.5284082657989E-01
-0.3270483495617E+00 -0.6762327123046E-01
-0.3788449022101E+00 -0.8417003405663E-01
-0.4314593188270E+00 -0.1022627582608E+00
-0.4847279527475E+00 -0.1216718993341E+00
-0.5385207598298E+00 -0.1421697963957E+00
-0.5927652293227E+00 -0.1635411776185E+00
-0.6474386991272E+00 -0.1855819960388E+00
-0.7025226639395E+00 -0.2080840428714E+00
-0.7579521514472E+00 -0.2308181915375E+00
-0.8135950880857E+00 -0.2535300200669E+00
-0.8692587868409E+00 -0.2759465400986E+00
-0.9247012606348E+00 -0.2977854515299E+00
-0.9796345425931E+00 -0.3187625718115E+00
-0.1033719992652E+01 -0.3385979058853E+00
-0.1086558164782E+01 -0.3570216396929E+00
-0.1295008019345E+00 -0.1986388198344E-01
-0.1758913590722E+00 -0.2835089091764E-01
-0.2235296789119E+00 -0.3913948332206E-01
-0.2724419411428E+00 -0.5208015852765E-01
-0.3225648326412E+00 -0.6699802851026E-01
-0.3737753260415E+00 -0.8369439934497E-01
-0.4259180638688E+00 -0.1019522513639E+00
-0.4788340479796E+00 -0.1215452817332E+00
-0.5323919192325E+00 -0.1422497627754E+00
-0.5865115888910E+00 -0.1638545088583E+00
-0.6411582366582E+00 -0.1861597880465E+00
-0.6963002533938E+00 -0.2089621465212E+00
-0.7518621784687E+00 -0.2320375029498E+00
-0.8077056520969E+00 -0.2551362849447E+00
-0.8636354098429E+00 -0.2779896942268E+00
-0.9194090723707E+00 -0.3003187133260E+00
-0.9747388510410E+00 -0.3218414859872E+00
-0.1029285433045E+01 -0.3422794042267E+00
-0.1082646882081E+01 -0.3613630190967E+00
-0.1282425546745E+00 -0.1883818658361E-01
-0.1736839548635E+00 -0.2737877316677E-01
-0.2204412384535E+00 -0.3825944907613E-01
-0.2685532678329E+00 -0.5131625345329E-01
-0.3179695632357E+00 -0.6636647848387E-01
-0.3685783974357E+00 -0.8320884878679E-01
-0.4202328173901E+00 -0.1016273745030E+00
-0.4727779886913E+00 -0.1213988591922E+00
-0.5260811763731E+00 -0.1423036091760E+00
-0.5800548875056E+00 -0.1641348649690E+00
-0.6346523886940E+00 -0.1866977340120E+00
-0.6898292122694E+00 -0.2097941388782E+00
-0.7454996836465E+00 -0.2332056865232E+00
-0.8015195039753E+00 -0.2566882739973E+00
-0.8576912637821E+00 -0.2799778611757E+00
-0.9137727046538E+00 -0.3027992097471E+00
-0.9694767954675E+00 -0.3248732151580E+00
-0.1024464212424E+01 -0.3459230721117E+00
-0.1078331326928E+01 -0.3656802859987E+00
-0.1269564117314E+00 -0.1781645912460E-01
-0.1714203057731E+00 -0.2640657770228E-01
-0.2172751527766E+00 -0.3737479733048E-01
-0.2645696747829E+00 -0.5054288986421E-01
-0.3132638830707E+00 -0.6572024601484E-01
-0.3632556219380E+00 -0.8270281244627E-01
-0.4144052421192E+00 -0.1012754605436E+00
-0.4665615295989E+00 -0.1212180610050E+00
-0.5195902511808E+00 -0.1423150938615E+00
-0.5733966331811E+00 -0.1643645407718E+00
-0.6279222417961E+00 -0.1871767932747E+00
-0.6831099808068E+00 -0.2105596644631E+00
-0.7388642316145E+00 -0.2343009872849E+00
-0.7950351091052E+00 -0.2581626604778E+00
-0.8514235090133E+00 -0.2818859015826E+00
-0.9077878348983E+00 -0.3051996931195E+00
-0.9638424215062E+00 -0.3278280603401E+00
-0.1019248600276E+01 -0.3494963669778E+00
-0.1073601782223E+01 -0.3699375855549E+00
-0.1256431975551E+00 -0.1679715988216E-01
-0.1691017992280E+00 -0.2543171192228E-01
-0.2140331595561E+00 -0.3648140632008E-01
-0.2604931580457E+00 -0.4975405586847E-01
-0.3084500208104E+00 -0.6505121615462E-01
-0.3578094483492E+00 -0.8216601158451E-01
-0.4084379686791E+00 -0.1008841391634E+00
-0.4601873976346E+00 -0.1209885923401E+00
-0.5129218302164E+00 -0.1422682058718E+00
-0.5665392936217E+00 -0.1645259967654E+00
-0.6209698401438E+00 -0.1875780097701E+00
-0.6761439632913E+00 -0.2112383579561E+00
-0.7319563675997E+00 -0.2353015341368E+00
-0.7882519402924E+00 -0.2595358848068E+00
-0.8448303493859E+00 -0.2836883176288E+00
-0.9014512279110E+00 -0.3074924228059E+00
-0.9578309130790E+00 -0.3306756810801E+00
-0.1013632064947E+01 -0.3529659258872E+00
-0.1068449812489E+01 -0.3740980031633E+00
-0.1243039561517E+00 -0.1577880161918E-01
-0.1667302569011E+00 -0.2445167540181E-01
-0.2107176169641E+00 -0.3557530143971E-01
-0.2563264793857E+00 -0.4894394726815E-01
-0.3035310723736E+00 -0.6435153610235E-01
-0.3522432555028E+00 -0.8158846818715E-01
-0.4023345907855E+00 -0.1004413572983E+00
-0.4536592964844E+00 -0.1206964679233E+00
-0.5060795807721E+00 -0.1421472130255E+00
-0.5594863197046E+00 -0.1646019215879E+00
-0.6137982180253E+00 -0.1878825887314E+00
-0.6689335690475E+00 -0.2118099351625E+00
-0.7247776661176E+00 -0.2361854456635E+00
-0.7811705330080E+00 -0.2607842763013E+00
-0.8379110928919E+00 -0.2853593920678E+00
-0.8947608016341E+00 -0.3096493233135E+00
-0.9514386651871E+00 -0.3333852760744E+00
-0.1007609360149E+01 -0.3562977776937E+00
-0.1062868376896E+01 -0.3781238207366E+00
-0.1229399433146E+00 -0.1475994870584E-01
-0.1643079191143E+00 -0.2346405917887E-01
-0.2073314825875E+00 -0.3465265474075E-01
-0.2520731435357E+00 -0.4810696871263E-01
-0.2985109803430E+00 -0.6361362082816E-01
-0.3465613368489E+00 -0.8096051850565E-01
-0.3960996570285E+00 -0.9993540381570E-01
-0.4469819067070E+00 -0.1203280501732E+00
-0.4990681598144E+00 -0.1419367147244E+00
-0.5522421632906E+00 -0.1645752997625E+00
-0.6064114262695E+00 -0.1880719792085E+00
-0.6614822470311E+00 -0.2122542902195E+00
-0.7173307729201E+00 -0.2369309423502E+00
-0.7737925335438E+00 -0.2618841812063E+00
-0.8306662048620E+00 -0.2868733333825E+00
-0.8877156848438E+00 -0.3116421486819E+00
-0.9446633471555E+00 -0.3359257707306E+00
-0.1001176597367E+01 -0.3594575632012E+00
-0.1056851922046E+01 -0.3819767934638E+00
-0.1215526188498E+00 -0.1373921671759E-01
-0.1618374296250E+00 -0.2246654600737E-01
-0.2038782927549E+00 -0.3370978607298E-01
-0.2477373752974E+00 -0.4723773715308E-01
-0.2933945121862E+00 -0.6283016149336E-01
-0.3407688826064E+00 -0.8027282971730E-01
-0.3897386590024E+00 -0.9935493753710E-01
-0.4401608811653E+00 -0.1198700909391E+00
-0.4918932174526E+00 -0.1416216987092E+00
-0.5448122890145E+00 -0.1644294838452E+00
-0.5988145523009E+00 -0.1881279614568E+00
-0.6537945138004E+00 -0.2125515980241E+00
-0.7096194401278E+00 -0.2375164641330E+00
-0.7661207401428E+00 -0.2628120959246E+00
-0.8230973537933E+00 -0.2882044259384E+00
-0.8803162667590E+00 -0.3134426519173E+00
-0.9375039561136E+00 -0.3382660102776E+00
-0.9943313044095E+00 -0.3624107599007E+00
-0.1050396447138E+01 -0.3856184303282E+00
-0.1201436386984E+00 -0.1271527240256E-01
-0.1593218205844E+00 -0.2145691128580E-01
-0.2003621420092E+00 -0.3274316535669E-01
-0.2433240962363E+00 -0.4633108689214E-01
-0.2881872370867E+00 -0.6199413583778E-01
-0.3348719593154E+00 -0.7951641881582E-01
-0.3832580156192E+00 -0.9868901770410E-01
-0.4332028355759E+00 -0.1193097759311E+00
-0.4845613946979E+00 -0.1411876008531E+00
-0.5372031798034E+00 -0.1641482700456E+00
-0.5910137336008E+00 -0.1880327382525E+00
-0.6458759747579E+00 -0.2126824209287E+00
-0.7016485545904E+00 -0.2379207923226E+00
-0.7581591372901E+00 -0.2635448044578E+00
-0.8152074500510E+00 -0.2893271840413E+00
-0.8725642387298E+00 -0.3150227581758E+00
-0.9299608607961E+00 -0.3403749567780E+00
-0.9870724706475E+00 -0.3651229113854E+00
-0.1043499544930E+01 -0.3890102702548E+00
-0.1187148468924E+00 -0.1168683391211E-01
-0.1567644975065E+00 -0.2043302437551E-01
-0.1967876624920E+00 -0.3174941548043E-01
-0.2388389006993E+00 -0.4538207553029E-01
-0.2828955010864E+00 -0.6109881969758E-01
-0.3288774864604E+00 -0.7868267281115E-01
-0.3766650532143E+00 -0.9792713591925E-01
-0.4261153336927E+00 -0.1186347708469E+00
-0.4770803149314E+00 -0.1406203669858E+00
-0.5294223354592E+00 -0.1637159763262E+00
-0.5830161638810E+00 -0.1877690291773E+00
-0.6377333380036E+00 -0.2126278188053E+00
-0.6934241589144E+00 -0.2381231750617E+00
-0.7499129227176E+00 -0.2640595192301E+00
-0.8070006770623E+00 -0.2902165089720E+00
-0.8644626275774E+00 -0.3163547404751E+00
-0.9220358351507E+00 -0.3422218885811E+00
-0.9794005783647E+00 -0.3675598591050E+00
-0.1036160425361E+01 -0.3921141549658E+00
-0.1172682673329E+00 -0.1065267119510E-01
-0.1541692241866E+00 -0.1939285003513E-01
-0.1931600031368E+00 -0.3072531534236E-01
-0.2342880310344E+00 -0.4438599013900E-01
-0.2775264004233E+00 -0.6013779884095E-01
-0.3227932100428E+00 -0.7776336932252E-01
-0.3699679812992E+00 -0.9705924856709E-01
-0.4189068669333E+00 -0.1178332681432E+00
-0.4694585688205E+00 -0.1399065156638E+00
-0.5214782639911E+00 -0.1631175219011E+00
-0.5748300916404E+00 -0.1873201668466E+00
-0.6293744205369E+00 -0.2123694615464E+00
-0.6849534650343E+00 -0.2381034554737E+00
-0.7413885271789E+00 -0.2643340244636E+00
-0.7984825152184E+00 -0.2908478479955E+00
-0.8560158208890E+00 -0.3174113965222E+00
-0.9137320819711E+00 -0.3437766000056E+00
-0.9713176213118E+00 -0.3696879727548E+00
-0.1028379922726E+01 -0.3948924997656E+00
-0.1158060954247E+00 -0.9611606451815E-02
-0.1515401075811E+00 -0.1833444968760E-01
-0.1894848086400E+00 -0.2966780254378E-01
-0.2296783519503E+00 -0.4333835298991E-01
-0.2720877529825E+00 -0.5910498031071E-01
-0.3166276730095E+00 -0.7675069664006E-01
-0.3631758638350E+00 -0.9607580868889E-01
-0.4115868282548E+00 -0.1168940333358E+00
-0.4617056924023E+00 -0.1390332007168E+00
-0.5133804653229E+00 -0.1623385069722E+00
-0.5664648106790E+00 -0.1866701940037E+00
-0.6208081464051E+00 -0.2118897430706E+00
-0.6762448600515E+00 -0.2378422017284E+00
-0.7325936269350E+00 -0.2643468214074E+00
-0.7896597586791E+00 -0.2911973545056E+00
-0.8472295846478E+00 -0.3181662253171E+00
-0.9050542471922E+00 -0.3450095989011E+00
-0.9628271110756E+00 -0.3714743766520E+00
-0.1020160487640E+01 -0.3973085584140E+00
-0.1143306896997E+00 -0.8562514563045E-02
-0.1488815828772E+00 -0.1725598225829E-01
-0.1857681985176E+00 -0.2857397529859E-01
-0.2250173244305E+00 -0.4223492627070E-01
-0.2665880684275E+00 -0.5799460261144E-01
-0.3103901832814E+00 -0.7563727250880E-01
-0.3562985869481E+00 -0.9496779647053E-01
-0.4041654813516E+00 -0.1158064498909E+00
-0.4538321395220E+00 -0.1379882725665E+00
-0.5051394086636E+00 -0.1613652917016E+00
-0.5579306439795E+00 -0.1858039605795E+00
-0.6120445384248E+00 -0.2111718961211E+00
-0.6673079063097E+00 -0.2373208385255E+00
-0.7235371513944E+00 -0.2640772750343E+00
-0.7805405280901E+00 -0.2912420487748E+00
-0.8381110768004E+00 -0.3185936023473E+00
-0.8960084288513E+00 -0.3458922998265E+00
-0.9539340755909E+00 -0.3728871684734E+00
-0.1011506168447E+01 -0.3993266764610E+00
-0.1128445634112E+00 -0.7504323254596E-02
-0.1461983983901E+00 -0.1615570401811E-01
-0.1820167453279E+00 -0.2744109267471E-01
-0.2203129776001E+00 -0.4107171465087E-01
-0.2610365146680E+00 -0.5680124339077E-01
-0.3040907762498E+00 -0.7441616006077E-01
-0.3493468191032E+00 -0.9372674650947E-01
-0.3966539202497E+00 -0.1145605606038E+00
-0.4458492426728E+00 -0.1367603359931E+00
-0.4967664964981E+00 -0.1601850720035E+00
-0.5492389128264E+00 -0.1847072183989E+00
-0.6030946943410E+00 -0.2102001058496E+00
-0.6581533257439E+00 -0.2365217784838E+00
-0.7142292753483E+00 -0.2635057612503E+00
-0.7711342682971E+00 -0.2909599788079E+00
-0.8286688456937E+00 -0.3186689530844E+00
-0.8866021695490E+00 -0.3463972121453E+00
-0.9446450382272E+00 -0.3738956288451E+00
-0.1002422570885E+01 -0.4009125320758E+00
-0.1113503766063E+00 -0.6436012962076E-02
-0.1434956014013E+00 -0.1503196728491E-01
-0.1782374538782E+00 -0.2626657299422E-01
-0.2155738812485E+00 -0.3984496561685E-01
-0.2554428844568E+00 -0.5551982467169E-01
-0.2977401767890E+00 -0.7308088103510E-01
-0.3423319701140E+00 -0.9234477197998E-01
-0.3890640270086E+00 -0.1131471054750E+00
-0.4377691712225E+00 -0.1353388042320E+00
-0.4882740253972E+00 -0.1587859519604E+00
-0.5404019025473E+00 -0.1833667133522E+00
-0.5939707600686E+00 -0.2089596221238E+00
-0.6487929825617E+00 -0.2354285535399E+00
-0.7046814115071E+00 -0.2626138147611E+00
-0.7614517485870E+00 -0.2903303809934E+00
-0.8189128327755E+00 -0.3183689234261E+00
-0.8768444536325E+00 -0.3464981197268E+00
-0.9349679998383E+00 -0.3744704141660E+00
-0.9929168179639E+00 -0.4020333525980E+00
-0.1098509289110E+00 -0.5356616079995E-02
-0.1407785249136E+00 -0.1388321722643E-01
-0.1744377408500E+00 -0.2504798937848E-01
-0.2108091178169E+00 -0.3855116650713E-01
-0.2498175603249E+00 -0.5414561457092E-01
-0.2913497584214E+00 -0.7162542513790E-01
-0.3352661460221E+00 -0.9081458432253E-01
-0.3814084238473E+00 -0.1115575543913E+00
-0.4296048824898E+00 -0.1337139474099E+00
-0.4796751381246E+00 -0.1571570107220E+00
-0.5314328183138E+00 -0.1817702730039E+00
-0.5846858924696E+00 -0.2074368689570E+00
-0.6392398559354E+00 -0.2340259455524E+00
-0.6949061946291E+00 -0.2613842779104E+00
-0.7515050569106E+00 -0.2893338419733E+00
-0.8088543714328E+00 -0.3176715488115E+00
-0.8667457016577E+00 -0.3461702547666E+00
-0.9249124177846E+00 -0.3745837348485E+00
-0.9829975035003E+00 -0.4026581008396E+00
-0.1083491535250E+00 -0.4265215173222E-02
-0.1380527757098E+00 -0.1270798582240E-01
-0.1706254148509E+00 -0.2378306132268E-01
-0.2060282535094E+00 -0.3718703726704E-01
-0.2441714773358E+00 -0.5267422469224E-01
-0.2849314990611E+00 -0.7004425471100E-01
-0.3281620992114E+00 -0.8912950735073E-01
-0.3737004188908E+00 -0.1097841330473E+00
-0.4213700645091E+00 -0.1318769332517E+00
-0.4709837653332E+00 -0.1552883614513E+00
-0.5223457286149E+00 -0.1799068870865E+00
-0.5752542086106E+00 -0.2056195486936E+00
-0.6295079991202E+00 -0.2323001142955E+00
-0.6849174535025E+00 -0.2598014497053E+00
-0.7413075848369E+00 -0.2879524622319E+00
-0.7985061800175E+00 -0.3165564230099E+00
-0.8563177606152E+00 -0.3453904644108E+00
-0.9144891819749E+00 -0.3742095219136E+00
-0.9726746455086E+00 -0.4027576263831E+00
-0.1068481131000E+00 -0.3160939363265E-02
-0.1353242239141E+00 -0.1150488140050E-01
-0.1668086561961E+00 -0.2246964054746E-01
-0.2012413070086E+00 -0.3574951745738E-01
-0.2385160815554E+00 -0.5110160197977E-01
-0.2784979307884E+00 -0.6833230335618E-01
-0.3210331707264E+00 -0.8728348392233E-01
-0.3659539418473E+00 -0.1078198394727E+00
-0.4130790658713E+00 -0.1298198565318E+00
-0.4622145510080E+00 -0.1531711980127E+00
-0.5131554891060E+00 -0.1777667761449E+00
-0.5656907127113E+00 -0.2034967361549E+00
-0.6196124747760E+00 -0.2302387182896E+00
-0.6747301593546E+00 -0.2578512314500E+00
-0.7308739914417E+00 -0.2861700197808E+00
-0.7878823380882E+00 -0.3150048668414E+00
-0.8455738810695E+00 -0.3441373690945E+00
-0.9037105748593E+00 -0.3733235711619E+00
-0.9619596357050E+00 -0.4023048061107E+00
-0.1053509997082E+00 -0.2042958225215E-02
-0.1325989977036E+00 -0.1027257264753E-01
-0.1629960017383E+00 -0.2110569101343E-01
-0.1964587237576E+00 -0.3423574935797E-01
-0.2328632958449E+00 -0.4942401853024E-01
-0.2720620995025E+00 -0.6648497324500E-01
-0.3138932451590E+00 -0.8527108067908E-01
-0.3581834945817E+00 -0.1056584572598E+00
-0.4047468421560E+00 -0.1275357636404E+00
-0.4533827954779E+00 -0.1507978359908E+00
-0.5038776847713E+00 -0.1753414555737E+00
-0.5560112429650E+00 -0.2010589709322E+00
-0.6095693131310E+00 -0.2278310374869E+00
-0.6643604017425E+00 -0.2555212786359E+00
-0.7202202020000E+00 -0.2839721460485E+00
-0.7769983085585E+00 -0.3130001121129E+00
-0.8345287519147E+00 -0.3423915280278E+00
-0.8925902954465E+00 -0.3719036681686E+00
-0.9508652346240E+00 -0.4012746584056E+00
-0.1038611393399E+00 -0.9104699789830E-03
-0.1298834788133E+00 -0.9009760738992E-02
-0.1591963239495E+00 -0.1968925679679E-01
-0.1916913385462E+00 -0.3264305090828E-01
-0.2272254692334E+00 -0.4763805259703E-01
-0.2656375037400E+00 -0.6449812193572E-01
-0.3067566796050E+00 -0.8308747933162E-01
-0.3504040698044E+00 -0.1032945510601E+00
-0.3963888632727E+00 -0.1250186546807E+00
-0.4445043506242E+00 -0.1481617269718E+00
-0.4945285143011E+00 -0.1726237712443E+00
-0.5462323512294E+00 -0.1982983235160E+00
-0.5993953954595E+00 -0.2250680727726E+00
-0.6538252836232E+00 -0.2528011336471E+00
-0.7093633217730E+00 -0.2813464901068E+00
-0.7658708775116E+00 -0.3105274881994E+00
-0.8231984627654E+00 -0.3401356077559E+00
-0.8811434143547E+00 -0.3699296973401E+00
-0.9394054730192E+00 -0.3996444095495E+00
-0.1023820072367E+00  0.2373204997042E-03
-0.1271843079088E+00 -0.7715136486731E-02
-0.1554188177828E+00 -0.1821841835452E-01
-0.1869503485068E+00 -0.3096888820037E-01
-0.2216153435682E+00 -0.4574057234181E-01
-0.2592380580727E+00 -0.6236805407344E-01
-0.2996382646393E+00 -0.8072847210384E-01
-0.3426311088594E+00 -0.1007234660957E+00
-0.3880210666232E+00 -0.1222634868878E+00
-0.4355955657757E+00 -0.1452574714083E+00
-0.4851247282310E+00 -0.1696079332241E+00
-0.5363712393880E+00 -0.1952084641207E+00
-0.5891084013702E+00 -0.2219426585167E+00
-0.6431428894174E+00 -0.2496823707752E+00
-0.6983216302852E+00 -0.2782829019853E+00
-0.7545181870127E+00 -0.3075746454466E+00
-0.8116005902260E+00 -0.3373546154623E+00
-0.8693864816384E+00 -0.3673837740252E+00
-0.9275956935668E+00 -0.3973935223439E+00
-0.1009172587746E+00  0.1401241986187E-02
-0.1245083887066E+00 -0.6387294490945E-02
-0.1516729687290E+00 -0.1669123263065E-01
-0.1822472608283E+00 -0.2921083395434E-01
-0.2160459893186E+00 -0.4372871284087E-01
-0.2528780193480E+00 -0.6009149320153E-01
-0.2925531372418E+00 -0.7819043667553E-01
-0.3348804022864E+00 -0.9794130006276E-01
-0.3796597419579E+00 -0.1192661420186E+00
-0.4266731512940E+00 -0.1420807832937E+00
-0.4756834661813E+00 -0.1662894931864E+00
-0.5264455746169E+00 -0.1917846731767E+00
-0.5787266157484E+00 -0.2184495251951E+00
-0.6323321079004E+00 -0.2461587111481E+00
-0.6871144141503E+00 -0.2747735401401E+00
-0.7429595828431E+00 -0.3041317563031E+00
-0.7997541102292E+00 -0.3340361595299E+00
-0.8573375148377E+00 -0.3642504428426E+00
-0.9154524582532E+00 -0.3945035725333E+00
-0.9947079261907E-01  0.2582295256605E-02
-0.1218628991209E+00 -0.5024622156191E-02
-0.1479685199478E+00 -0.1510562747830E-01
-0.1775938517645E+00 -0.2736658015866E-01
-0.2105307836064E+00 -0.4159984691940E-01
-0.2465719570005E+00 -0.5766556973807E-01
-0.2855167536559E+00 -0.7547032626592E-01
-0.3271680647936E+00 -0.9494489851050E-01
-0.3713215075143E+00 -0.1160234116128E+00
-0.4177541467583E+00 -0.1386284697474E+00
-0.4662222071292E+00 -0.1626653258350E+00
-0.5164734209459E+00 -0.1880238628202E+00
-0.5682688598540E+00 -0.2145853838507E+00
-0.6214125880140E+00 -0.2422261899662E+00
-0.6757619983979E+00 -0.2708130898798E+00
-0.7312156090466E+00 -0.3001915390193E+00
-0.7876794571061E+00 -0.3301710186262E+00
-0.8450162904477E+00 -0.3605170525462E+00
-0.9029938606205E+00 -0.3909582583968E+00
-0.9804692375483E-01  0.3781712710477E-02
-0.1192552626930E+00 -0.3624698369905E-02
-0.1443153298836E+00 -0.1345961769351E-01
-0.1730021642704E+00 -0.2543385522527E-01
-0.2050833513640E+00 -0.3935155250921E-01
-0.2403346951514E+00 -0.5508779663662E-01
-0.2785448281081E+00 -0.7256565029299E-01
-0.3195104667789E+00 -0.9173181871151E-01
-0.3630232386375E+00 -0.1125329841962E+00
-0.4088558427976E+00 -0.1348983533283E+00
-0.4567586494998E+00 -0.1587335573305E+00
-0.5064730790730E+00 -0.1839245211871E+00
-0.5577543027474E+00 -0.2103489574604E+00
-0.6104045633049E+00 -0.2378832723752E+00
-0.6642856126893E+00 -0.2663990167989E+00
-0.7193080723218E+00 -0.2957494933134E+00
-0.7753980865820E+00 -0.3257523600419E+00
-0.8324445033851E+00 -0.3561764522039E+00
-0.8902402224980E+00 -0.3867423821755E+00
-0.2657361953243E+00 -0.1322556862123E+00
-0.3840236422958E+00 -0.2101366116559E+00
-0.4816480759810E+00 -0.2674853299493E+00
-0.5677024437094E+00 -0.3109087633808E+00
-0.6461158086704E+00 -0.3454244643245E+00
-0.7188153548553E+00 -0.3733808551068E+00
-0.7868148839823E+00 -0.3960281469200E+00
-0.8507154505754E+00 -0.4141972339859E+00
-0.9108789602377E+00 -0.4284687984564E+00
-0.9675075268812E+00 -0.4392334252525E+00
-0.1020734446187E+01 -0.4468818296957E+00
-0.1070719102299E+01 -0.4519737308148E+00
-0.1117070950093E+01 -0.4529610043806E+00
-0.1159279295115E+01 -0.4489420922067E+00
-0.1197140102191E+01 -0.4406481438063E+00
-0.1230541282133E+01 -0.4290016400152E+00
-0.1259714790377E+01 -0.4152803873530E+00
-0.1284997822764E+01 -0.4005895532049E+00
-0.1306490338140E+01 -0.3855740972381E+00
-0.2471408709493E+00 -0.1137165283530E+00
-0.3660188632470E+00 -0.1786942905713E+00
-0.4665394380154E+00 -0.2366710110229E+00
-0.5541745227826E+00 -0.2822196854720E+00
-0.6334979337434E+00 -0.3184991565258E+00
-0.7067482329201E+00 -0.3479415685235E+00
-0.7751295291024E+00 -0.3719129545497E+00
-0.8393365313384E+00 -0.3913203235038E+00
-0.8997874758828E+00 -0.4067914554517E+00
-0.9567229032690E+00 -0.4187549347016E+00
-0.1010298742781E+01 -0.4276271159350E+00
-0.1060663775575E+01 -0.4339716890879E+00
-0.1107435391511E+01 -0.4363706451067E+00
-0.1150109638780E+01 -0.4339700802675E+00
-0.1188470678740E+01 -0.4274136710730E+00
-0.1222416613586E+01 -0.4175515747284E+00
-0.1252194041413E+01 -0.4056054830465E+00
-0.1278151458415E+01 -0.3926392131538E+00
-0.1300403424977E+01 -0.3792845983384E+00
-0.2322181219072E+00 -0.1011428697245E+00
-0.3486239617198E+00 -0.1554884763710E+00
-0.4503813781194E+00 -0.2093136190005E+00
-0.5396059602880E+00 -0.2552325479302E+00
-0.6199402996230E+00 -0.2926907982048E+00
-0.6938333050208E+00 -0.3233414286318E+00
-0.7626521597817E+00 -0.3484730952840E+00
-0.8271997703886E+00 -0.3690083975538E+00
-0.8879586580222E+00 -0.3856003669285E+00
-0.9452134079411E+00 -0.3987048857870E+00
-0.9991462474547E+00 -0.4087558874784E+00
-0.1049906405961E+01 -0.4163051837171E+00
-0.1097120708161E+01 -0.4200625162082E+00
-0.1140297389581E+01 -0.4192341253819E+00
-0.1179217792136E+01 -0.4143981501440E+00
-0.1213782534951E+01 -0.4063325767027E+00
-0.1244241403722E+01 -0.3961843608703E+00
-0.1270946485313E+01 -0.3849637941093E+00
-0.1294019340138E+01 -0.3732802696580E+00
-0.2200169608167E+00 -0.9183314824654E-01
-0.3326441453549E+00 -0.1375343582997E+00
-0.4341102466666E+00 -0.1861887304190E+00
-0.5242926567925E+00 -0.2305499100578E+00
-0.6055694436461E+00 -0.2683013948677E+00
-0.6801267602184E+00 -0.2997560832515E+00
-0.7494140568380E+00 -0.3258278469470E+00
-0.8143227686107E+00 -0.3473512364293E+00
-0.8754016473127E+00 -0.3649668354215E+00
-0.9329820990705E+00 -0.3791409818718E+00
-0.9872769156589E+00 -0.3903135190386E+00
-0.1038444720212E+01 -0.3990161332968E+00
-0.1086122971144E+01 -0.4040844067286E+00
-0.1129834511212E+01 -0.4047899879541E+00
-0.1169363356154E+01 -0.4016527093801E+00
-0.1204610089313E+01 -0.3953812847329E+00
-0.1235820235447E+01 -0.3870393273541E+00
-0.1263341217630E+01 -0.3775727663606E+00
-0.1287295166601E+01 -0.3675587271300E+00
-0.2098979437529E+00 -0.8450899755728E-01
-0.3181888782855E+00 -0.1232645964100E+00
-0.4182894870629E+00 -0.1667263698064E+00
-0.5086683859249E+00 -0.2085311289480E+00
-0.5905800270246E+00 -0.2456360223031E+00
-0.6657258351422E+00 -0.2773792402392E+00
-0.7354672034114E+00 -0.3041065485656E+00
-0.8007362463445E+00 -0.3264438847668E+00
-0.8621345275144E+00 -0.3449653323335E+00
-0.9200389269466E+00 -0.3601232790412E+00
-0.9746951854765E+00 -0.3723501566927E+00
-0.1026277710081E+01 -0.3821502954040E+00
-0.1074436503375E+01 -0.3884824315972E+00
-0.1118710352279E+01 -0.3906841589937E+00
-0.1158889203046E+01 -0.3892196159527E+00
-0.1194872258919E+01 -0.3847295466058E+00
-0.1226895749260E+01 -0.3781894857323E+00
-0.1255295976820E+01 -0.3704734805673E+00
-0.1280190377047E+01 -0.3621198910293E+00
-0.2013916139047E+00 -0.7852075035696E-01
-0.3051792596027E+00 -0.1116647706904E+00
-0.4031984516622E+00 -0.1503091053907E+00
-0.4930870793931E+00 -0.1891133765363E+00
-0.5752177871203E+00 -0.2248940847445E+00
-0.6507657573207E+00 -0.2563913573166E+00
-0.7208886941201E+00 -0.2834416560614E+00
-0.7864862561025E+00 -0.3063845814658E+00
-0.8481858627667E+00 -0.3256724652684E+00
-0.9064012673979E+00 -0.3417138902259E+00
-0.9614104263226E+00 -0.3549181931317E+00
-0.1013407111281E+01 -0.3657548253037E+00
-0.1062056347146E+01 -0.3733008017483E+00
-0.1106913891824E+01 -0.3769577235671E+00
-0.1147777184062E+01 -0.3771344104196E+00
-0.1184543110379E+01 -0.3744038004677E+00
-0.1217434862590E+01 -0.3696503541864E+00
-0.1246772712938E+01 -0.3636715788957E+00
-0.1272664896690E+01 -0.3569623108639E+00
-0.1941509225541E+00 -0.7348318453618E-01
-0.2934753662223E+00 -0.1020653491186E+00
-0.3889573251973E+00 -0.1363892297364E+00
-0.4777947018446E+00 -0.1720831984864E+00
-0.5597130839370E+00 -0.2061143584240E+00
-0.6354066558349E+00 -0.2369189941956E+00
-0.7057783276651E+00 -0.2639520389587E+00
-0.7716354695344E+00 -0.2872691317988E+00
-0.8335957432129E+00 -0.3071647318925E+00
-0.8920946876567E+00 -0.3239754373729E+00
-0.9474376735726E+00 -0.3380706489154E+00
-0.9998384959347E+00 -0.3498766851421E+00
-0.1048979778261E+01 -0.3585817002266E+00
-0.1094435160585E+01 -0.3636475725972E+00
-0.1136009933680E+01 -0.3654272651945E+00
-0.1173597816335E+01 -0.3644254345338E+00
-0.1207405928128E+01 -0.3614336380350E+00
-0.1237734592915E+01 -0.3571699778695E+00
-0.1264679153350E+01 -0.3520822726618E+00
-0.1879133133113E+00 -0.6915056683758E-01
-0.2829252455447E+00 -0.9400133743241E-01
-0.3755968403326E+00 -0.1245177355382E+00
-0.4629483298576E+00 -0.1571781236083E+00
-0.5442550184366E+00 -0.1892335299377E+00
-0.6198083055035E+00 -0.2190142091048E+00
-0.6902506761645E+00 -0.2457251346446E+00
-0.7562612219494E+00 -0.2691817122947E+00
-0.8184159177661E+00 -0.2895143324677E+00
-0.8771534354287E+00 -0.3069687330386E+00
-0.9327982942948E+00 -0.3218594638382E+00
-0.9855821177457E+00 -0.3345614459567E+00
-0.1035207356310E+01 -0.3443648674602E+00
-0.1081266328478E+01 -0.3507868478810E+00
-0.1123571664909E+01 -0.3541236930086E+00
-0.1162013024751E+01 -0.3548111641465E+00
-0.1196778775169E+01 -0.3535469882111E+00
-0.1228146018261E+01 -0.3509682592938E+00
-0.1256194282478E+01 -0.3474730597573E+00
-0.1824769213103E+00 -0.6535682378142E-01
-0.2733828536043E+00 -0.8713848112150E-01
-0.3630982321608E+00 -0.1143322808188E+00
-0.4486395129559E+00 -0.1441355281784E+00
-0.5289872811494E+00 -0.1741309629666E+00
-0.6041143941175E+00 -0.2026669418246E+00
-0.6744233719016E+00 -0.2288074257355E+00
-0.7404507208330E+00 -0.2521859153734E+00
-0.8027082516742E+00 -0.2727836578449E+00
-0.8616202549507E+00 -0.2907496044254E+00
-0.9175203218533E+00 -0.3063334930815E+00
-0.9706534947901E+00 -0.3198520174518E+00
-0.1020743690557E+01 -0.3306870217253E+00
-0.1067402559225E+01 -0.3384049763309E+00
-0.1110448926323E+01 -0.3432448970828E+00
-0.1149767395751E+01 -0.3455732604497E+00
-0.1185525051660E+01 -0.3459938937295E+00
-0.1217972910532E+01 -0.3450622649096E+00
-0.1247172525929E+01 -0.3431245646487E+00
-0.1776845127636E+00 -0.6198493742757E-01
-0.2647146662598E+00 -0.8122955840965E-01
-0.3514159748850E+00 -0.1055410048090E+00
-0.4349136472876E+00 -0.1327118415193E+00
-0.5140126506951E+00 -0.1606592892390E+00
-0.5884455716192E+00 -0.1878225638284E+00
-0.6584078353136E+00 -0.2132063799764E+00
-0.7242947191974E+00 -0.2363195543346E+00
-0.7865417027553E+00 -0.2570202043828E+00
-0.8455452447728E+00 -0.2753653056252E+00
-0.9016382623686E+00 -0.2915361653926E+00
-0.9550736519683E+00 -0.3057871808809E+00
-0.1005597940571E+01 -0.3175810891006E+00
-0.1052842671044E+01 -0.3265274666792E+00
-0.1096631293634E+01 -0.3328079026600E+00
-0.1136842232256E+01 -0.3367197131276E+00
-0.1173618769188E+01 -0.3387736664084E+00
-0.1207183214530E+01 -0.3394439051148E+00
-0.1237577738570E+01 -0.3390231080580E+00
-0.1734123674933E+00 -0.5894971072722E-01
-0.2568015458445E+00 -0.7608753780930E-01
-0.3404910316501E+00 -0.9790784099484E-01
-0.4217843801041E+00 -0.1226890229448E+00
-0.4994000296242E+00 -0.1486627602273E+00
-0.5728980273207E+00 -0.1743978314139E+00
-0.6423035674565E+00 -0.1988971954369E+00
-0.7078818402429E+00 -0.2215942401098E+00
-0.7699885287671E+00 -0.2422533805625E+00
-0.8289838815241E+00 -0.2608513342905E+00
-0.8851922848096E+00 -0.2775030564077E+00
-0.9388689496844E+00 -0.2923999479531E+00
-0.9897840200023E+00 -0.3050752576701E+00
-0.1037589590253E+01 -0.3151755401915E+00
-0.1082111966742E+01 -0.3228255764265E+00
-0.1123222144708E+01 -0.3282543880653E+00
-0.1161036985363E+01 -0.3318815374103E+00
-0.1195747561878E+01 -0.3341011360341E+00
-0.1227375980953E+01 -0.3351514250291E+00
-0.1695623481644E+00 -0.5618747224066E-01
-0.2495386117286E+00 -0.7156829165256E-01
-0.3302586891084E+00 -0.9124070878293E-01
-0.4092439603720E+00 -0.1138753134286E+00
-0.4851914920062E+00 -0.1379877348053E+00
-0.5575449655014E+00 -0.1622930910521E+00
-0.6261954499898E+00 -0.1858307575049E+00
-0.6912944194383E+00 -0.2079979620845E+00
-0.7531206498574E+00 -0.2284936445219E+00
-0.8119945943867E+00 -0.2472293106368E+00
-0.8682268924582E+00 -0.2642597753556E+00
-0.9220704854835E+00 -0.2797159057315E+00
-0.9733204715715E+00 -0.2931919159360E+00
-0.1021650561377E+01 -0.3043656506199E+00
-0.1066888224704E+01 -0.3133066025322E+00
-0.1108895692316E+01 -0.3201772434515E+00
-0.1147760569277E+01 -0.3253088931085E+00
-0.1183640064292E+01 -0.3290180910939E+00
-0.1216536184663E+01 -0.3314887669118E+00
-0.1660561128187E+00 -0.5364960576000E-01
-0.2428342862244E+00 -0.6755905082322E-01
-0.3206532256566E+00 -0.8538231803698E-01
-0.3972705890232E+00 -0.1061036046999E+00
-0.4714084639943E+00 -0.1284883186935E+00
-0.5424393592963E+00 -0.1514009571337E+00
-0.6101531211206E+00 -0.1739409809067E+00
-0.6746059444932E+00 -0.1954990869079E+00
-0.7360066975587E+00 -0.2157334554653E+00
-0.7946363473250E+00 -0.2345061456952E+00
-0.8507893010113E+00 -0.2518204854836E+00
-0.9047131456491E+00 -0.2677517587158E+00
-0.9562300146398E+00 -0.2819465726527E+00
-0.1005037074524E+01 -0.2941089423345E+00
-0.1050961673230E+01 -0.3042554656173E+00
-0.1093855929928E+01 -0.3124846675292E+00
-0.1133774999641E+01 -0.3190437047639E+00
-0.1170839225498E+01 -0.3241753775541E+00
-0.1205030903785E+01 -0.3280110730129E+00
-0.1628308124574E+00 -0.5129831280177E-01
-0.2366090453956E+00 -0.6397044046348E-01
-0.3116106783367E+00 -0.8020306656275E-01
-0.3858336226683E+00 -0.9922894295090E-01
-0.4580568388887E+00 -0.1200291196872E+00
-0.5276170902876E+00 -0.1416122003627E+00
-0.5942316253257E+00 -0.1631509057693E+00
-0.6578798255821E+00 -0.1840506934785E+00
-0.7187099325466E+00 -0.2039493500049E+00
-0.7769665538886E+00 -0.2226743411634E+00
-0.8329277857575E+00 -0.2401871917223E+00
-0.8868344535264E+00 -0.2565142328563E+00
-0.9385388183066E+00 -0.2713468495235E+00
-0.9877644832324E+00 -0.2844106676724E+00
-0.1034338199505E+01 -0.2956724631383E+00
-0.1078100757896E+01 -0.3051700019913E+00
-0.1119071131573E+01 -0.3130712529019E+00
-0.1157328980013E+01 -0.3195505975024E+00
-0.1192837208524E+01 -0.3246911720984E+00
-0.1598358465902E+00 -0.4910373595593E-01
-0.2307941171774E+00 -0.6073082721176E-01
-0.3030704417981E+00 -0.7559553642864E-01
-0.3748972534292E+00 -0.9312585766297E-01
-0.4451310882283E+00 -0.1124863193223E+00
-0.5131000211233E+00 -0.1328195986787E+00
-0.5784727611327E+00 -0.1533774698562E+00
-0.6411691467217E+00 -0.1735946561574E+00
-0.7012869965884E+00 -0.1931045566593E+00
-0.7590394896726E+00 -0.2117131190943E+00
-0.8146902127865E+00 -0.2293497628781E+00
-0.8684733979705E+00 -0.2459994299768E+00
-0.9202756090516E+00 -0.2613915851571E+00
-0.9698513214985E+00 -0.2752695201766E+00
-0.1017027519845E+01 -0.2875536695724E+00
-0.1061632907156E+01 -0.2982243053993E+00
-0.1103645813381E+01 -0.3073753122640E+00
-0.1143099879856E+01 -0.3151192723583E+00
-0.1179937849574E+01 -0.3214989950072E+00
-0.1570303924507E+00 -0.4704193778666E-01
-0.2253302362861E+00 -0.5778219908152E-01
-0.2949761342571E+00 -0.7147019130949E-01
-0.3644231026121E+00 -0.8768581724061E-01
-0.4326175115716E+00 -0.1057477845586E+00
-0.4988987945302E+00 -0.1249203582122E+00
-0.5629067498099E+00 -0.1445351067431E+00
-0.6245170807705E+00 -0.1640652148863E+00
-0.6837873649280E+00 -0.1831517434240E+00
-0.7409052398695E+00 -0.2015900733479E+00
-0.7961228905488E+00 -0.2192865752621E+00
-0.8496694144195E+00 -0.2361926710148E+00
-0.9014708089070E+00 -0.2520700991538E+00
-0.9513184012679E+00 -0.2666766786932E+00
-0.9990422134462E+00 -0.2798906084789E+00
-0.1044459235369E+01 -0.2916371912832E+00
-0.1087502092023E+01 -0.3019401390447E+00
-0.1128150419945E+01 -0.3108565585885E+00
-0.1166322954441E+01 -0.3184019114162E+00
-0.1543815189409E+00 -0.4509343056602E-01
-0.2201664997669E+00 -0.5507706253766E-01
-0.2872759897899E+00 -0.6775198430647E-01
-0.3543720324261E+00 -0.8281492549042E-01
-0.4204967773199E+00 -0.9971266005184E-01
-0.4850152838933E+00 -0.1178175498585E+00
-0.5475539910096E+00 -0.1365383867764E+00
-0.6079577175605E+00 -0.1553919616600E+00
-0.6662533383417E+00 -0.1740356540785E+00
-0.7226091400751E+00 -0.1922630869271E+00
-0.7772697894386E+00 -0.2099656333476E+00
-0.8304616456630E+00 -0.2270688629467E+00
-0.8821559151430E+00 -0.2433617659104E+00
-0.9321881029133E+00 -0.2586145560060E+00
-0.9803961883188E+00 -0.2726685992825E+00
-0.1026588864828E+01 -0.2853973513667E+00
-0.1070648249636E+01 -0.2967532260915E+00
-0.1112488337606E+01 -0.3067410893019E+00
-0.1151992770503E+01 -0.3153655082516E+00
-0.1518627609113E+00 -0.4324196428230E-01
-0.2152593260325E+00 -0.5257605654456E-01
-0.2799229253903E+00 -0.6437760510867E-01
-0.3447053826097E+00 -0.7843195991424E-01
-0.4087459036884E+00 -0.9429067158741E-01
-0.4714446800626E+00 -0.1114208828002E+00
-0.5324267679292E+00 -0.1293039133418E+00
-0.5915171209505E+00 -0.1475022732103E+00
-0.6487204264834E+00 -0.1656955108214E+00
-0.7041916313683E+00 -0.1836823213175E+00
-0.7581721093307E+00 -0.2013460044115E+00
-0.8108884922996E+00 -0.2185933795343E+00
-0.8623632900622E+00 -0.2352362161056E+00
-0.9124842646692E+00 -0.2510557865351E+00
-0.9611040283362E+00 -0.2658637356751E+00
-0.1008029132123E+01 -0.2794880809039E+00
-0.1053094034863E+01 -0.2918100977880E+00
-0.1096130769434E+01 -0.3027619931131E+00
-0.1136962381919E+01 -0.3123577204664E+00
-0.1494531621982E+00 -0.4147367974852E-01
-0.2105714508803E+00 -0.5024546565062E-01
-0.2728742829137E+00 -0.6129369612572E-01
-0.3353858697375E+00 -0.7446660179476E-01
-0.3973397742953E+00 -0.8940131008270E-01
-0.4581772371926E+00 -0.1056470227697E+00
-0.5175308161622E+00 -0.1227516557428E+00
-0.5752144874091E+00 -0.1403232799258E+00
-0.6312180023324E+00 -0.1580671379697E+00
-0.6856884506834E+00 -0.1757921553582E+00
-0.7388681407308E+00 -0.1933793881168E+00
-0.7909873768295E+00 -0.2107233078739E+00
-0.8421261842296E+00 -0.2276543621995E+00
-0.8922329803136E+00 -0.2439636330157E+00
-0.9411820442022E+00 -0.2594407856552E+00
-0.9887857943649E+00 -0.2738785817448E+00
-0.1034837080269E+01 -0.2870980989144E+00
-0.1079098178267E+01 -0.2989473469070E+00
-0.1121271095096E+01 -0.3093591831022E+00
-0.9561479105749E-01  0.6146950124677E-02
-0.1149885946674E+00 -0.1002548523687E-02
-0.1386056564955E+00 -0.1053560137407E-01
-0.1661504711659E+00 -0.2216547564538E-01
-0.1973170772673E+00 -0.3571343271137E-01
-0.2318250067333E+00 -0.5108265856632E-01
-0.2694238160054E+00 -0.6823166268509E-01
-0.3098855227264E+00 -0.8714475501126E-01
-0.3529907557964E+00 -0.1078027941531E+00
-0.3985138724027E+00 -0.1301600932008E+00
-0.4462135106823E+00 -0.1541334661269E+00
-0.4958391937006E+00 -0.1796065476888E+00
-0.5472279570953E+00 -0.2064804957238E+00
-0.6002521479615E+00 -0.2346451499312E+00
-0.6547863388314E+00 -0.2639513593124E+00
-0.7107377589203E+00 -0.2942149898940E+00
-0.7680120118565E+00 -0.3252043929831E+00
-0.8264611699458E+00 -0.3566337681736E+00
-0.8858070501937E+00 -0.3881693952445E+00
-0.9456837987190E-01  0.7315587689305E-02
-0.1132769784266E+00  0.2420714324049E-03
-0.1364934363908E+00 -0.9211379823875E-02
-0.1638393435401E+00 -0.2075081688228E-01
-0.1949558532251E+00 -0.3420306507063E-01
-0.2295203463709E+00 -0.4948523559534E-01
-0.2672521156566E+00 -0.6657611189045E-01
-0.3079033258815E+00 -0.8548288721960E-01
-0.3512466374389E+00 -0.1062095325404E+00
-0.3970619599268E+00 -0.1287313377148E+00
-0.4451228751483E+00 -0.1529792040300E+00
-0.4951962503778E+00 -0.1788395118663E+00
-0.5472095846724E+00 -0.2062596093112E+00
-0.6011133726687E+00 -0.2351627221013E+00
-0.6567996302823E+00 -0.2653842471278E+00
-0.7141673105471E+00 -0.2966994095147E+00
-0.7730804558226E+00 -0.3288110701281E+00
-0.8333143567227E+00 -0.3613603287155E+00
-0.8944577718198E+00 -0.3939289107819E+00
-0.9351781572859E-01  0.8513260084882E-02
-0.1115707237079E+00  0.1552721526574E-02
-0.1344060058663E+00 -0.7767707662458E-02
-0.1615753727330E+00 -0.1914937299409E-01
-0.1926622407887E+00 -0.3242678727903E-01
-0.2272987695454E+00 -0.4753339979965E-01
-0.2651719945827E+00 -0.6447039474303E-01
-0.3060131435526E+00 -0.8326958941876E-01
-0.3495865317811E+00 -0.1039596966278E+00
-0.3956780099413E+00 -0.1265390668114E+00
-0.4440778695999E+00 -0.1509550485257E+00
-0.4945737614653E+00 -0.1770990186859E+00
-0.5471860362795E+00 -0.2049814901446E+00
-0.6019487410732E+00 -0.2345799130204E+00
-0.6587800006190E+00 -0.2657251550059E+00
-0.7175780589304E+00 -0.2981557904143E+00
-0.7781659537701E+00 -0.3314986060602E+00
-0.8402306549912E+00 -0.3652938170918E+00
-0.9032294017129E+00 -0.3989960550754E+00
-0.9247013073262E-01  0.9741793696915E-02
-0.1098842188820E+00  0.2935493061943E-02
-0.1323640062477E+00 -0.6192811818940E-02
-0.1593841455409E+00 -0.1734277668557E-01
-0.1904656138236E+00 -0.3035966520728E-01
-0.2251924586464E+00 -0.4519574182548E-01
-0.2632177843865E+00 -0.6187655164223E-01
-0.3042510966501E+00 -0.8045982601084E-01
-0.3480482027365E+00 -0.1010001384925E+00
-0.3944013701799E+00 -0.1235206517426E+00
-0.4431192010115E+00 -0.1479876633358E+00
-0.4940134478295E+00 -0.1742997721121E+00
-0.5471988794626E+00 -0.2025493038163E+00
-0.6027980447659E+00 -0.2327909277178E+00
-0.6607647481022E+00 -0.2648631641166E+00
-0.7210064202039E+00 -0.2984717582112E+00
-0.7833082771262E+00 -0.3331525868306E+00
-0.8472630601589E+00 -0.3683158157817E+00
-0.9121805113994E+00 -0.4032776571638E+00
-0.9143322922958E-01  0.1100344754718E-01
-0.1082331829556E+00  0.4397434313279E-02
-0.1303894776188E+00 -0.4473388185093E-02
-0.1572924090734E+00 -0.1531106400493E-01
-0.1883960770110E+00 -0.2797528158448E-01
-0.2232339428178E+00 -0.4243982362570E-01
-0.2614239375942E+00 -0.5875630110605E-01
-0.3026534460340E+00 -0.7700911291729E-01
-0.3466698381984E+00 -0.9727917105787E-01
-0.3932722740895E+00 -0.1196157177317E+00
-0.4422890980348E+00 -0.1440061967992E+00
-0.4935593646882E+00 -0.1703585023057E+00
-0.5472930327958E+00 -0.1988667651336E+00
-0.6037056836268E+00 -0.2296880353681E+00
-0.6627976334685E+00 -0.2626822359540E+00
-0.7244982253314E+00 -0.2975271612698E+00
-0.7885608617418E+00 -0.3336532041882E+00
-0.8544728827613E+00 -0.3703166737150E+00
-0.9213715948869E+00 -0.4066800743795E+00
-0.9041607471991E-01  0.1230086512271E-01
-0.1066348046792E+00  0.5946758351677E-02
-0.1285058565125E+00 -0.2594400796307E-02
-0.1553279052101E+00 -0.1303233555519E-01
-0.1864841919763E+00 -0.2524554618145E-01
-0.2214557188207E+00 -0.3923218525416E-01
-0.2598245904786E+00 -0.5507131349637E-01
-0.3012561442111E+00 -0.7287406743805E-01
-0.3454896412289E+00 -0.9274735708919E-01
-0.3923316028859E+00 -0.1147670178931E+00
-0.4416313496886E+00 -0.1389432685732E+00
-0.4932582940723E+00 -0.1651949675976E+00
-0.5475175570016E+00 -0.1938391878613E+00
-0.6047218451180E+00 -0.2251627784898E+00
-0.6649300785782E+00 -0.2590632354760E+00
-0.7281091167608E+00 -0.2951981850853E+00
-0.7939869313844E+00 -0.3328798830575E+00
-0.8619291056383E+00 -0.3711851577638E+00
-0.9308691889590E+00 -0.4091043436642E+00
-0.8942891507319E-01  0.1363716592252E-01
-0.1051079096999E+00  0.7593078127692E-02
-0.1267379757945E+00 -0.5387189760204E-03
-0.1535191848235E+00 -0.1048241603297E-01
-0.1847606306138E+00 -0.2214047883933E-01
-0.2198897945338E+00 -0.3553837222045E-01
-0.2584530515035E+00 -0.5078352515506E-01
-0.3000943332874E+00 -0.6801301709792E-01
-0.3445454201639E+00 -0.8735836919756E-01
-0.3916206616445E+00 -0.1089215076421E+00
-0.4411913605358E+00 -0.1327362017965E+00
-0.4931601209743E+00 -0.1587333380371E+00
-0.5479263398827E+00 -0.1873750026147E+00
-0.6059033164533E+00 -0.2191076957395E+00
-0.6672216874764E+00 -0.2538859506528E+00
-0.7319040050451E+00 -0.2913590500582E+00
-0.7996593940454E+00 -0.3307093048222E+00
-0.8697098775365E+00 -0.3708054214434E+00
-0.9407483209926E+00 -0.4104441723776E+00
-0.8848355615482E-01  0.1501607934905E-01
-0.1036731543326E+00  0.9347757516519E-02
-0.1251120543796E+00  0.1713339000207E-02
-0.1518953718267E+00 -0.7634439290138E-02
-0.1832557527935E+00 -0.1862798275110E-01
-0.2185671478172E+00 -0.3132298738215E-01
-0.2573412175745E+00 -0.4585551008024E-01
-0.2992017955851E+00 -0.6238668571411E-01
-0.3438741539450E+00 -0.8106997220119E-01
-0.3911809447119E+00 -0.1020315976670E+00
-0.4410161890988E+00 -0.1253285237638E+00
-0.4933181622094E+00 -0.1509039156577E+00
-0.5485786624467E+00 -0.1793876126041E+00
-0.6073141220747E+00 -0.2114181089962E+00
-0.6697406517809E+00 -0.2470303945580E+00
-0.7359575383425E+00 -0.2858819405985E+00
-0.8056619277034E+00 -0.3270141112461E+00
-0.8779043549670E+00 -0.3690552025887E+00
-0.9510941897768E+00 -0.4105850587949E+00
-0.8759370423903E-01  0.1644213837264E-01
-0.1023532468023E+00  0.1122438081878E-01
-0.1236556600091E+00  0.4184587653550E-02
-0.1504858562809E+00 -0.4458358874206E-02
-0.1819990915015E+00 -0.1467360681611E-01
-0.2175170962970E+00 -0.2654978883717E-01
-0.2565189208779E+00 -0.4025092786608E-01
-0.2986103572627E+00 -0.5595897660060E-01
-0.3435115245445E+00 -0.7384513038744E-01
-0.3910538693455E+00 -0.9405658788898E-01
-0.4411545472093E+00 -0.1166717197861E+00
-0.4937894421404E+00 -0.1416451616710E+00
-0.5495397219116E+00 -0.1697974885028E+00
-0.6090262029452E+00 -0.2019938677738E+00
-0.6725645304591E+00 -0.2383776454671E+00
-0.7403552013050E+00 -0.2786367579818E+00
-0.8120906430520E+00 -0.3216618110704E+00
-0.8866145832441E+00 -0.3658045620577E+00
-0.9620035282392E+00 -0.4094033663873E+00
-0.8677539903030E-01  0.1792094887092E-01
-0.1011731963157E+00  0.1323937604787E-01
-0.1223976251761E+00  0.6901706209370E-02
-0.1493198895435E+00 -0.9203780342185E-03
-0.1810187264730E+00 -0.1024031802214E-01
-0.2167665738921E+00 -0.2118186266928E-01
-0.2560132131617E+00 -0.3393507198505E-01
-0.2983492518241E+00 -0.4869785796839E-01
-0.3434914125764E+00 -0.6565322976429E-01
-0.3912804609199E+00 -0.8496426398121E-01
-0.4416567410571E+00 -0.1067272288383E+00
-0.4946349226971E+00 -0.1309060290939E+00
-0.5508811778473E+00 -0.1585345380782E+00
-0.6111202915243E+00 -0.1907412005032E+00
-0.6757814113189E+00 -0.2278106647413E+00
-0.7451949134047E+00 -0.2694908224056E+00
-0.8190561411689E+00 -0.3145137237826E+00
-0.8959574862899E+00 -0.3609145276828E+00
-0.9735858510527E+00 -0.4067651389969E+00
-0.8604756521939E-01  0.1945956689584E-01
-0.1001605870582E+00  0.1541284574706E-01
-0.1213678867691E+00  0.9896157306406E-02
-0.1484260456090E+00  0.3017695475966E-02
-0.1803405249096E+00 -0.5288322516128E-02
-0.2163393153669E+00 -0.1518191555726E-01
-0.2558476038711E+00 -0.2687554175697E-01
-0.2984444588935E+00 -0.4057634253369E-01
-0.3438453561766E+00 -0.5647138342015E-01
-0.3919009704090E+00 -0.7473262327885E-01
-0.4425745272190E+00 -0.9546867453415E-01
-0.4959196765561E+00 -0.1186486546692E+00
-0.5526817507697E+00 -0.1455408931556E+00
-0.6136870224332E+00 -0.1775749141717E+00
-0.6794914766622E+00 -0.2152152670054E+00
-0.7505891282996E+00 -0.2583085225344E+00
-0.8266860277172E+00 -0.3054236781182E+00
-0.9060670856306E+00 -0.3542353388644E+00
-0.9859646806125E+00 -0.4025245067491E+00
-0.8543271980620E-01  0.2106703820020E-01
-0.9934586723992E-01  0.1776969021779E-01
-0.1205972028998E+00  0.1320533925630E-01
-0.1478314994449E+00  0.7399146676623E-02
-0.1799872279490E+00  0.2249961040517E-03
-0.2162549622335E+00 -0.8512749512739E-02
-0.2560412838604E+00 -0.1904305722060E-01
-0.2989180440324E+00 -0.3157353236871E-01
-0.3446019744220E+00 -0.4628576244537E-01
-0.3929543951556E+00 -0.6335167854728E-01
-0.4439608340087E+00 -0.8288433288212E-01
-0.4977129567665E+00 -0.1048515139644E+00
-0.5550278517847E+00 -0.1307743378341E+00
-0.6168283027877E+00 -0.1624211991502E+00
-0.6838090445981E+00 -0.2004813871578E+00
-0.7566675699040E+00 -0.2449508272326E+00
-0.8351280601340E+00 -0.2942362048743E+00
-0.9170970915561E+00 -0.3456040119476E+00
-0.9992787722779E+00 -0.3965215537967E+00
-0.8495788660770E-01  0.2275519403859E-01
-0.9876262875425E-01  0.2034115804753E-01
-0.1201166708548E+00  0.1687402782065E-01
-0.1475610551030E+00  0.1227304193349E-01
-0.1799773682951E+00  0.6344906904803E-02
-0.2165281257917E+00 -0.1137997405950E-02
-0.2566083873762E+00 -0.1041242028568E-01
-0.2997875351264E+00 -0.2167566989729E-01
-0.3457863537081E+00 -0.3509286511499E-01
-0.3944778569221E+00 -0.5082526515331E-01
-0.4458692631780E+00 -0.6897983663505E-01
-0.5000880646194E+00 -0.8951318643623E-01
-0.5580141775227E+00 -0.1142126868433E+00
-0.6206589655163E+00 -0.1452213902749E+00
-0.6888652322695E+00 -0.1835048250657E+00
-0.7635808687857E+00 -0.2292745508953E+00
-0.8445542150272E+00 -0.2807838964525E+00
-0.9292240293038E+00 -0.3348408933367E+00
-0.1013683299654E+01 -0.3885794884989E+00
-0.8465579079193E-01  0.2453987374711E-01
-0.9844782217435E-01  0.2316704427949E-01
-0.1199569186035E+00  0.2095616328616E-01
-0.1476358357122E+00  0.1769476799474E-01
-0.1803240275534E+00  0.1311874918095E-01
-0.2171674813123E+00  0.6976799044318E-02
-0.2575573682207E+00 -0.9635848632103E-03
-0.3010653744413E+00 -0.1087709952670E-01
-0.3474193883160E+00 -0.2290060972004E-01
-0.3965057712392E+00 -0.3717274769097E-01
-0.4483532411153E+00 -0.5378109200758E-01
-0.5031218462844E+00 -0.7265690979900E-01
-0.5617441388904E+00 -0.9585955744960E-01
-0.6253087240535E+00 -0.1259372268639E+00
-0.6948114837903E+00 -0.1641897701629E+00
-0.7715055396859E+00 -0.2111312188915E+00
-0.8551661151458E+00 -0.2648834475849E+00
-0.9426510912298E+00 -0.3217447263616E+00
-0.1029350869619E+01 -0.3785009293679E+00
-0.8456644033469E-01  0.2644289953216E-01
-0.9844178201361E-01  0.2629891691606E-01
-0.1201467519097E+00  0.2551699153700E-01
-0.1480715341012E+00  0.2372612027924E-01
-0.1810335031002E+00  0.2059466497524E-01
-0.2181750249694E+00  0.1586274347173E-01
-0.2588905781256E+00  0.9317273583982E-02
-0.3027584741730E+00  0.8189880251331E-03
-0.3495170586484E+00 -0.9729134449206E-02
-0.3990687305266E+00 -0.2243047814762E-01
-0.4514646348217E+00 -0.3733731507002E-01
-0.5068935390424E+00 -0.5433610547102E-01
-0.5663298689427E+00 -0.7575218677487E-01
-0.6309244100117E+00 -0.1045585197106E+00
-0.7018243477221E+00 -0.1424526551394E+00
-0.7806510382414E+00 -0.1903652864250E+00
-0.8672025094934E+00 -0.2463295538698E+00
-0.9576129208267E+00 -0.3060855194207E+00
-0.1046472060394E+01 -0.3660631208932E+00
-0.8473924839502E-01  0.2849551067481E-01
-0.9878777687392E-01  0.2980502322481E-01
-0.1207108719602E+00  0.3063541744983E-01
-0.1488761629585E+00  0.3043424966576E-01
-0.1821040942331E+00  0.2881937091405E-01
-0.2195456872424E+00  0.2554589652537E-01
-0.2606041056719E+00  0.2043693520172E-01
-0.3048678676156E+00  0.1340010093764E-01
-0.3520896416974E+00  0.4388794589154E-02
-0.4021920354806E+00 -0.6652806894792E-02
-0.4552515957838E+00 -0.1972393123688E-01
-0.5114825115185E+00 -0.3464097310319E-01
-0.5718913059665E+00 -0.5397223288404E-01
-0.6376723399033E+00 -0.8111484416368E-01
-0.7101121172795E+00 -0.1182284245372E+00
-0.7912702057882E+00 -0.1668112343872E+00
-0.8809499582574E+00 -0.2248851589139E+00
-0.9743814919125E+00 -0.2875940506174E+00
-0.1065254746740E+01 -0.3510120963974E+00
-0.8523596768447E-01  0.3074477678158E-01
-0.9953032055922E-01  0.3377834295863E-01
-0.1216660347461E+00  0.3640545593138E-01
-0.1500474629227E+00  0.3788836555482E-01
-0.1835255016925E+00  0.3783471554723E-01
-0.2212674796761E+00  0.3604614911387E-01
-0.2626877882155E+00  0.3239461851818E-01
-0.3073884498621E+00  0.2684428632194E-01
-0.3551408796647E+00  0.1940779937891E-01
-0.4058938607696E+00  0.1008763405512E-01
-0.4597553844654E+00 -0.1044854835943E-02
-0.5169641832045E+00 -0.1370580525142E-01
-0.5785533023178E+00 -0.3066086387914E-01
-0.6457402554853E+00 -0.5569428016960E-01
-0.7199242843395E+00 -0.9148158869728E-01
-0.8036756348181E+00 -0.1402886451236E+00
-0.8967588718822E+00 -0.2002647465563E+00
-0.9932728131769E+00 -0.2659462978096E+00
-0.1085920584406E+01 -0.3330562811710E+00
-0.8613442875621E-01  0.3326887452458E-01
-0.1007104363433E+00  0.3834865528737E-01
-0.1230145049109E+00  0.4293490859482E-01
-0.1515712006377E+00  0.4615014038794E-01
-0.1852796800321E+00  0.4767628522897E-01
-0.2233217547480E+00  0.4737669276005E-01
-0.2651253477298E+00  0.4518165448450E-01
-0.3103088324820E+00  0.4112014273288E-01
-0.3586671479507E+00  0.3527048409496E-01
-0.4101831505673E+00  0.2770038187209E-01
-0.4650060524105E+00  0.1856690248497E-01
-0.5234031497732E+00  0.8284081211985E-02
-0.5864386480023E+00 -0.6038689181836E-02
-0.6553367741662E+00 -0.2847557517715E-01
-0.7315652912127E+00 -0.6222811923530E-01
-0.8182674966192E+00 -0.1105929049601E+00
-0.9150692154892E+00 -0.1721035649355E+00
-0.1014653146627E+01 -0.2407388025986E+00
-0.1108693519112E+01 -0.3118638733924E+00
-0.8753538011353E-01  0.3620946365817E-01
-0.1023484237395E+00  0.4371580485736E-01
-0.1247366051166E+00  0.5030972450537E-01
-0.1534248586959E+00  0.5527288266583E-01
-0.1873412296376E+00  0.5837347161218E-01
-0.2256836201749E+00  0.5954367285407E-01
-0.2678945194354E+00  0.5878129516921E-01
-0.3136113533950E+00  0.5618671254187E-01
-0.3626569306696E+00  0.5190851248814E-01
-0.4150570259827E+00  0.4607957154745E-01
-0.4710174588919E+00  0.3894864273142E-01
-0.5308431131117E+00  0.3109182360571E-01
-0.5956524694263E+00  0.1957066351603E-01
-0.6666822421437E+00  0.2162307816825E-03
-0.7454122257817E+00 -0.3058826519093E-01
-0.8355875479271E+00 -0.7747833931432E-01
-0.9364586219463E+00 -0.1398868473327E+00
-0.1038934077432E+01 -0.2114550825629E+00
-0.1133771366372E+01 -0.2870713288945E+00
-0.1163439947267E+01 -0.3197230555220E+00
-0.1178431929718E+01 -0.3216643967365E+00
-0.1192636964314E+01 -0.3234809785829E+00
-0.1206068532251E+01 -0.3252054835267E+00
-0.1218735626204E+01 -0.3268778138461E+00
-0.1230651716307E+01 -0.3285373211569E+00
-0.1241834538198E+01 -0.3302215129925E+00
-0.1252306365362E+01 -0.3319661919141E+00
-0.1262093890057E+01 -0.3338055091034E+00
-0.1271228023676E+01 -0.3357717999116E+00
-0.1279743568121E+01 -0.3378952514880E+00
-0.1287678761509E+01 -0.3402034915012E+00
-0.1295074695900E+01 -0.3427211739978E+00
-0.1301974611872E+01 -0.3454696241538E+00
-0.1308423079229E+01 -0.3484665929490E+00
-0.1314465035668E+01 -0.3517261340503E+00
-0.1320144739515E+01 -0.3552586904336E+00
-0.1325503840191E+01 -0.3590709134567E+00
-0.1330581018920E+01 -0.3631674193394E+00
-0.1165322373526E+01 -0.3214482608764E+00
-0.1181043553178E+01 -0.3232271975072E+00
-0.1195927276895E+01 -0.3248587066680E+00
-0.1209975038512E+01 -0.3263473811518E+00
-0.1223195756291E+01 -0.3277236556297E+00
-0.1235601367560E+01 -0.3290258613381E+00
-0.1247207935332E+01 -0.3302946181161E+00
-0.1258036257241E+01 -0.3315707354394E+00
-0.1268112269842E+01 -0.3328944253099E+00
-0.1277467122536E+01 -0.3343047827160E+00
-0.1286137005009E+01 -0.3358392583691E+00
-0.1294162745689E+01 -0.3375330689582E+00
-0.1301589193520E+01 -0.3394185734414E+00
-0.1308464391807E+01 -0.3415246664909E+00
-0.1314838549316E+01 -0.3438762355454E+00
-0.1320762843964E+01 -0.3464937259106E+00
-0.1326287920831E+01 -0.3493927221467E+00
-0.1331462570273E+01 -0.3525836653130E+00
-0.1336328962617E+01 -0.3560696332206E+00
-0.1166965371196E+01 -0.3235756167860E+00
-0.1183370203499E+01 -0.3252233052149E+00
-0.1198908760390E+01 -0.3266804211164E+00
-0.1213562501255E+01 -0.3279483232465E+00
-0.1227330995537E+01 -0.3290483108560E+00
-0.1240221484765E+01 -0.3300148078591E+00
-0.1252246536794E+01 -0.3308885842131E+00
-0.1263424196454E+01 -0.3317134290658E+00
-0.1273778400497E+01 -0.3325344026880E+00
-0.1283339281455E+01 -0.3333967794807E+00
-0.1292143210616E+01 -0.3343451800164E+00
-0.1300232559204E+01 -0.3354227068432E+00
-0.1307655165519E+01 -0.3366700358529E+00
-0.1314463503840E+01 -0.3381244812965E+00
-0.1320713570702E+01 -0.3398190822066E+00
-0.1326463501422E+01 -0.3417817484908E+00
-0.1331772090301E+01 -0.3440345126880E+00
-0.1336696922242E+01 -0.3465926716050E+00
-0.1341294519633E+01 -0.3494636626231E+00
-0.1168370576313E+01 -0.3260813942130E+00
-0.1185428383900E+01 -0.3276480274079E+00
-0.1201596501618E+01 -0.3289679876132E+00
-0.1216841995101E+01 -0.3300456455803E+00
-0.1231152229867E+01 -0.3308994000953E+00
-0.1244526007170E+01 -0.3315601628125E+00
-0.1256969761547E+01 -0.3320675980552E+00
-0.1268496666247E+01 -0.3324668747238E+00
-0.1279126805107E+01 -0.3328065799988E+00
-0.1288887542386E+01 -0.3331372768297E+00
-0.1297813780441E+01 -0.3335103267684E+00
-0.1305947963766E+01 -0.3339767436540E+00
-0.1313339759291E+01 -0.3345859785024E+00
-0.1320045369982E+01 -0.3353846196351E+00
-0.1326126462698E+01 -0.3364150462073E+00
-0.1331648759983E+01 -0.3377141141664E+00
-0.1336680347293E+01 -0.3393119606809E+00
-0.1341290247390E+01 -0.3412310671316E+00
-0.1345547444396E+01 -0.3434861764916E+00
-0.1169531759704E+01 -0.3289508668997E+00
-0.1187222423431E+01 -0.3304947017031E+00
-0.1204002265684E+01 -0.3317292782343E+00
-0.1219828290754E+01 -0.3326628652666E+00
-0.1234676433569E+01 -0.3333132752590E+00
-0.1248535383919E+01 -0.3337093174124E+00
-0.1261403144439E+01 -0.3338892134797E+00
-0.1273285766461E+01 -0.3338984523164E+00
-0.1284197287945E+01 -0.3337879246694E+00
-0.1294160148872E+01 -0.3336124389236E+00
-0.1303205672346E+01 -0.3334294096378E+00
-0.1311374392957E+01 -0.3332975326066E+00
-0.1318716091154E+01 -0.3332753258080E+00
-0.1325289427314E+01 -0.3334194902749E+00
-0.1331161101687E+01 -0.3337831153993E+00
-0.1336404505034E+01 -0.3344138228596E+00
-0.1341097959933E+01 -0.3353520198552E+00
-0.1345322656093E+01 -0.3366295755194E+00
-0.1349160527316E+01 -0.3382693071748E+00
-0.1170442616565E+01 -0.3321727056875E+00
-0.1188755695456E+01 -0.3337565596157E+00
-0.1206138745094E+01 -0.3349669060033E+00
-0.1222541399183E+01 -0.3358144089258E+00
-0.1237929363571E+01 -0.3363166149850E+00
-0.1252280807133E+01 -0.3365006026114E+00
-0.1265583843407E+01 -0.3364029214161E+00
-0.1277835451944E+01 -0.3360684944035E+00
-0.1289041435475E+01 -0.3355493327998E+00
-0.1299216953784E+01 -0.3349033063057E+00
-0.1308387285004E+01 -0.3341929348711E+00
-0.1316588571317E+01 -0.3334840698075E+00
-0.1323868362841E+01 -0.3328443401519E+00
-0.1330285789963E+01 -0.3323412836320E+00
-0.1335911198114E+01 -0.3320401490070E+00
-0.1340825108842E+01 -0.3320014475826E+00
-0.1345116413278E+01 -0.3322784516315E+00
-0.1348879794206E+01 -0.3329149336778E+00
-0.1352212296211E+01 -0.3339434925145E+00
-0.1171099990988E+01 -0.3357363276268E+00
-0.1190036463914E+01 -0.3374264653825E+00
-0.1208025781905E+01 -0.3386801968059E+00
-0.1225011469702E+01 -0.3395084906935E+00
-0.1240949973576E+01 -0.3399278086056E+00
-0.1255808961380E+01 -0.3399630970457E+00
-0.1269565795794E+01 -0.3396486335628E+00
-0.1282206870428E+01 -0.3390278042084E+00
-0.1293727770723E+01 -0.3381524689454E+00
-0.1304134025692E+01 -0.3370821887980E+00
-0.1313442211905E+01 -0.3358833414361E+00
-0.1321681204902E+01 -0.3346280336683E+00
-0.1328893387406E+01 -0.3333926758363E+00
-0.1335135604299E+01 -0.3322560873664E+00
-0.1340479612001E+01 -0.3312970444818E+00
-0.1345011726603E+01 -0.3305912706794E+00
-0.1348831379780E+01 -0.3302080084008E+00
-0.1352048362276E+01 -0.3302064688676E+00
-0.1354778692144E+01 -0.3306325022668E+00
-0.1171504425642E+01 -0.3396304616543E+00
-0.1191079544626E+01 -0.3414960561400E+00
-0.1209692128462E+01 -0.3428654152832E+00
-0.1227279942539E+01 -0.3437478037083E+00
-0.1243790709622E+01 -0.3441573727651E+00
-0.1259181675538E+01 -0.3441160770314E+00
-0.1273418893604E+01 -0.3436550341713E+00
-0.1286477002952E+01 -0.3428149638745E+00
-0.1298339656981E+01 -0.3416461801186E+00
-0.1309000536891E+01 -0.3402083705142E+00
-0.1318464827711E+01 -0.3385702088300E+00
-0.1326751026785E+01 -0.3368087233482E+00
-0.1333892938963E+01 -0.3350082689315E+00
-0.1339941660749E+01 -0.3332589068319E+00
-0.1344967254243E+01 -0.3316539843292E+00
-0.1349059672456E+01 -0.3302867508112E+00
-0.1352328373487E+01 -0.3292459881498E+00
-0.1354900080927E+01 -0.3286108908369E+00
-0.1356914467741E+01 -0.3284457299383E+00
-0.1171649622824E+01 -0.3438412631795E+00
-0.1191886654657E+01 -0.3459533550274E+00
-0.1211147549971E+01 -0.3475137016666E+00
-0.1229364148260E+01 -0.3485281823510E+00
-0.1246475629990E+01 -0.3490073668082E+00
-0.1262428811930E+01 -0.3489691762261E+00
-0.1277178001464E+01 -0.3484405041548E+00
-0.1290685130125E+01 -0.3474581370872E+00
-0.1302920418094E+01 -0.3460692997233E+00
-0.1313863621087E+01 -0.3443320128447E+00
-0.1323505844785E+01 -0.3423153129474E+00
-0.1331851894558E+01 -0.3400992688330E+00
-0.1338923108935E+01 -0.3377746335984E+00
-0.1344760566878E+01 -0.3354418777111E+00
-0.1349428425564E+01 -0.3332092557957E+00
-0.1353016898094E+01 -0.3311894901112E+00
-0.1355644034455E+01 -0.3294947044918E+00
-0.1357455186603E+01 -0.3282295494187E+00
-0.1358619210058E+01 -0.3274831479963E+00
-0.1171493984710E+01 -0.3483490034353E+00
-0.1192392555844E+01 -0.3507782236257E+00
-0.1212306397862E+01 -0.3526070760053E+00
-0.1231161332439E+01 -0.3538367650267E+00
-0.1248888210783E+01 -0.3544730884373E+00
-0.1265423549851E+01 -0.3545287833473E+00
-0.1280709716247E+01 -0.3540252435752E+00
-0.1294695273780E+01 -0.3529937683452E+00
-0.1307335776592E+01 -0.3514765630709E+00
-0.1318595135902E+01 -0.3495276471509E+00
-0.1328447637972E+01 -0.3472137293453E+00
-0.1336880689087E+01 -0.3446150157808E+00
-0.1343898371104E+01 -0.3418258138624E+00
-0.1349525872599E+01 -0.3389546680963E+00
-0.1353814763666E+01 -0.3361235873036E+00
-0.1356848818315E+01 -0.3334656849435E+00
-0.1358749492869E+01 -0.3311203032154E+00
-0.1359679239856E+01 -0.3292247832258E+00
-0.1359840078289E+01 -0.3279028998984E+00
-0.1170997241066E+01 -0.3531308069739E+00
-0.1192534428457E+01 -0.3559470928874E+00
-0.1213085904924E+01 -0.3581238199676E+00
-0.1232571656038E+01 -0.3596567408704E+00
-0.1250914647097E+01 -0.3605460062559E+00
-0.1268041521927E+01 -0.3607981899975E+00
-0.1283882911157E+01 -0.3604279842853E+00
-0.1298373836382E+01 -0.3594596296355E+00
-0.1311454482668E+01 -0.3579282391351E+00
-0.1323071507055E+01 -0.3558811584812E+00
-0.1333180027214E+01 -0.3533794504309E+00
-0.1341746461947E+01 -0.3504995272385E+00
-0.1348752452832E+01 -0.3473348725088E+00
-0.1354200163795E+01 -0.3439976697855E+00
-0.1358119295593E+01 -0.3406199419975E+00
-0.1360576063638E+01 -0.3373534261365E+00
-0.1361683915969E+01 -0.3343667573443E+00
-0.1361614139299E+01 -0.3318376137403E+00
-0.1360601620099E+01 -0.3299377408646E+00
-0.1170130293151E+01 -0.3581607177518E+00
-0.1192270619292E+01 -0.3614327690687E+00
-0.1213432787282E+01 -0.3640373566225E+00
-0.1233531407409E+01 -0.3659646028012E+00
-0.1252482234797E+01 -0.3672086546812E+00
-0.1270202767813E+01 -0.3677694110911E+00
-0.1286612526566E+01 -0.3676541011715E+00
-0.1301633376264E+01 -0.3668787489909E+00
-0.1315190131267E+01 -0.3654696521963E+00
-0.1327211612006E+01 -0.3634650174067E+00
-0.1337632326803E+01 -0.3609168806429E+00
-0.1346395004933E+01 -0.3578934174571E+00
-0.1353454314698E+01 -0.3544817127666E+00
-0.1358782268898E+01 -0.3507909933511E+00
-0.1362376061737E+01 -0.3469561746024E+00
-0.1364269384930E+01 -0.3431412177170E+00
-0.1364548486809E+01 -0.3395409694302E+00
-0.1363373687342E+01 -0.3363782101188E+00
-0.1361001826097E+01 -0.3338888071689E+00
-0.1168870108364E+01 -0.3634090688352E+00
-0.1191570951432E+01 -0.3672030505567E+00
-0.1213309587015E+01 -0.3703141976294E+00
-0.1233995918513E+01 -0.3727273905497E+00
-0.1253539337761E+01 -0.3744310285988E+00
-0.1271849149915E+01 -0.3754184775442E+00
-0.1288834728670E+01 -0.3756894621779E+00
-0.1304405665891E+01 -0.3752514320089E+00
-0.1318472100410E+01 -0.3741210110514E+00
-0.1330945371623E+01 -0.3723256761248E+00
-0.1341739153411E+01 -0.3699058258931E+00
-0.1350771286027E+01 -0.3669174233354E+00
-0.1357966651561E+01 -0.3634354241586E+00
-0.1363261666810E+01 -0.3595582388048E+00
-0.1366611366161E+01 -0.3554134924912E+00
-0.1368000752853E+01 -0.3511652705219E+00
-0.1367463334084E+01 -0.3470226075095E+00
-0.1365111847956E+01 -0.3432474423081E+00
-0.1361187942951E+01 -0.3401538532440E+00
-0.1167196335088E+01 -0.3688422902341E+00
-0.1190410147112E+01 -0.3732201857876E+00
-0.1212685393843E+01 -0.3769130897137E+00
-0.1233928039315E+01 -0.3799015114260E+00
-0.1254042034161E+01 -0.3821689519270E+00
-0.1272929545714E+01 -0.3837030962520E+00
-0.1290490948241E+01 -0.3844969868255E+00
-0.1306624757095E+01 -0.3845502009420E+00
-0.1321227636316E+01 -0.3838701243614E+00
-0.1334194578628E+01 -0.3824734533892E+00
-0.1345419360350E+01 -0.3803880944702E+00
-0.1354795417905E+01 -0.3776556823047E+00
-0.1362217393866E+01 -0.3743350219106E+00
-0.1367583799566E+01 -0.3705068974812E+00
-0.1370801631624E+01 -0.3662809111006E+00
-0.1371794574197E+01 -0.3618053589964E+00
-0.1370518171962E+01 -0.3572816651635E+00
-0.1366989378940E+01 -0.3529854006295E+00
-0.1361349793657E+01 -0.3492955409539E+00
-0.1165089687553E+01 -0.3744229360008E+00
-0.1188764564924E+01 -0.3794407771659E+00
-0.1211531231371E+01 -0.3837847883624E+00
-0.1233292480925E+01 -0.3874323354322E+00
-0.1253947719874E+01 -0.3903633485144E+00
-0.1273393002703E+01 -0.3925613072031E+00
-0.1291520844958E+01 -0.3940142158679E+00
-0.1308219935012E+01 -0.3947155827554E+00
-0.1323374823086E+01 -0.3946654697513E+00
-0.1336865633983E+01 -0.3938717161172E+00
-0.1348567836967E+01 -0.3923514774340E+00
-0.1358352114165E+01 -0.3901332784834E+00
-0.1366084405076E+01 -0.3872598783103E+00
-0.1371626289809E+01 -0.3837924238593E+00
-0.1374836060668E+01 -0.3798166966514E+00
-0.1375571260569E+01 -0.3754528863471E+00
-0.1373694508342E+01 -0.3708716180304E+00
-0.1369087478584E+01 -0.3663218389407E+00
-0.1361686763169E+01 -0.3621836699554E+00
-0.1162531362794E+01 -0.3801097221583E+00
-0.1186610888775E+01 -0.3858156799397E+00
-0.1209818188937E+01 -0.3908718000528E+00
-0.1232053595688E+01 -0.3952537217097E+00
-0.1253212771216E+01 -0.3989394080178E+00
-0.1273186548526E+01 -0.4019099993096E+00
-0.1291860557064E+01 -0.4041506684145E+00
-0.1309114706886E+01 -0.4056514839809E+00
-0.1324822564717E+01 -0.4064083291164E+00
-0.1338850617412E+01 -0.4064239527559E+00
-0.1351057384668E+01 -0.4057092635136E+00
-0.1361292308105E+01 -0.4042850251326E+00
-0.1369394298632E+01 -0.4021841993443E+00
-0.1375189753495E+01 -0.3994553418330E+00
-0.1378489730715E+01 -0.3961677626073E+00
-0.1379085733229E+01 -0.3924197797041E+00
-0.1376743067712E+01 -0.3883527220487E+00
-0.1371189585392E+01 -0.3841766263555E+00
-0.1362094709875E+01 -0.3802222683538E+00
-0.1159502932756E+01 -0.3858578317924E+00
-0.1183925752909E+01 -0.3922904326687E+00
-0.1207516910745E+01 -0.3981089562044E+00
-0.1230174908746E+01 -0.4032887267174E+00
-0.1251792353149E+01 -0.4078073559876E+00
-0.1272255587470E+01 -0.4116455457974E+00
-0.1291444108502E+01 -0.4147879200054E+00
-0.1309229798574E+01 -0.4172238916748E+00
-0.1325475965745E+01 -0.4189486062372E+00
-0.1340036137296E+01 -0.4199640297329E+00
-0.1352752497308E+01 -0.4202802813873E+00
-0.1363453783563E+01 -0.4199173526498E+00
-0.1371952338586E+01 -0.4189074235346E+00
-0.1378039798690E+01 -0.4172981020427E+00
-0.1381480508185E+01 -0.4151571101093E+00
-0.1382000939762E+01 -0.4125792862868E+00
-0.1379271639427E+01 -0.4096974187237E+00
-0.1372873690612E+01 -0.4066995383616E+00
-0.1362229179167E+01 -0.4038578819782E+00
-0.1155986404777E+01 -0.3916191071785E+00
-0.1180685682446E+01 -0.3988054421459E+00
-0.1204597500651E+01 -0.4054236418481E+00
-0.1227619118686E+01 -0.4114499346568E+00
-0.1249640712698E+01 -0.4168629435632E+00
-0.1270544782322E+01 -0.4216444906709E+00
-0.1290205330269E+01 -0.4257804636818E+00
-0.1308486813502E+01 -0.4292617490992E+00
-0.1325242820194E+01 -0.4320852675745E+00
-0.1340314373123E+01 -0.4342551703853E+00
-0.1353527690614E+01 -0.4357842780487E+00
-0.1364691134561E+01 -0.4366958665188E+00
-0.1373590913145E+01 -0.4370259344586E+00
-0.1379984831051E+01 -0.4368261120905E+00
-0.1383592887262E+01 -0.4361673775993E+00
-0.1384082596203E+01 -0.4351446645824E+00
-0.1381045024699E+01 -0.4338820455070E+00
-0.1373953690793E+01 -0.4325366928709E+00
-0.1362088098883E+01 -0.4312938041985E+00
-0.1151964283198E+01 -0.3973423442228E+00
-0.1176867052824E+01 -0.4052963685975E+00
-0.1201029441766E+01 -0.4127363697139E+00
-0.1224348074305E+01 -0.4196403642469E+00
-0.1246711356405E+01 -0.4259889044214E+00
-0.1267998644086E+01 -0.4317658927251E+00
-0.1288079175457E+01 -0.4369594775082E+00
-0.1306810737959E+01 -0.4415630251682E+00
-0.1324037998164E+01 -0.4455761865954E+00
-0.1339590367487E+01 -0.4490060875857E+00
-0.1353279206471E+01 -0.4518686757150E+00
-0.1364894070276E+01 -0.4541902465539E+00
-0.1374197548153E+01 -0.4560091392591E+00
-0.1380918017332E+01 -0.4573775092977E+00
-0.1384739266418E+01 -0.4583628937627E+00
-0.1385285366565E+01 -0.4590488397913E+00
-0.1382098355246E+01 -0.4595328093261E+00
-0.1374605358127E+01 -0.4599170020194E+00
-0.1362074483561E+01 -0.4602806388919E+00
-0.1147419534918E+01 -0.4029735464933E+00
-0.1172445868979E+01 -0.4116944233248E+00
-0.1196781220948E+01 -0.4199612413067E+00
-0.1220322289960E+01 -0.4277542785201E+00
-0.1242956517796E+01 -0.4350564027368E+00
-0.1264561027796E+01 -0.4418538665273E+00
-0.1285001328905E+01 -0.4481371796253E+00
-0.1304129741689E+01 -0.4539020361232E+00
-0.1321783463902E+01 -0.4591502853357E+00
-0.1337782147908E+01 -0.4638909332146E+00
-0.1351924806898E+01 -0.4681411431893E+00
-0.1363985795965E+01 -0.4719271640827E+00
-0.1373709522902E+01 -0.4752850326336E+00
-0.1380803431924E+01 -0.4782607478841E+00
-0.1384928689559E+01 -0.4809093342232E+00
-0.1385687974772E+01 -0.4832916830251E+00
-0.1382610124243E+01 -0.4854670924205E+00
-0.1375133226587E+01 -0.4874776763084E+00
-0.1362594642209E+01 -0.4893192938186E+00
-0.1142337237399E+01 -0.4084568010571E+00
-0.1167400841213E+01 -0.4179278538508E+00
-0.1191824727443E+01 -0.4270081087523E+00
-0.1215506533748E+01 -0.4356801537957E+00
-0.1238333763098E+01 -0.4439290330611E+00
-0.1260182525618E+01 -0.4517429729304E+00
-0.1280916066819E+01 -0.4591141613482E+00
-0.1300383038065E+01 -0.4660395350167E+00
-0.1318415435134E+01 -0.4725215318147E+00
-0.1334826101618E+01 -0.4785687533462E+00
-0.1349405664784E+01 -0.4841964513868E+00
-0.1361918744634E+01 -0.4894266953443E+00
-0.1372099261472E+01 -0.4942879832251E+00
-0.1379644687911E+01 -0.4988139054804E+00
-0.1384209208527E+01 -0.5030402293283E+00
-0.1385396106171E+01 -0.5069994116840E+00
-0.1382750617290E+01 -0.5107110875261E+00
-0.1375756666800E+01 -0.5141668885374E+00
-0.1363844036837E+01 -0.5173095300707E+00
-0.1136710040468E+01 -0.4137369496368E+00
-0.1161723965149E+01 -0.4239269330375E+00
-0.1186150647696E+01 -0.4337898915444E+00
-0.1209889641640E+01 -0.4433103770760E+00
-0.1232829713093E+01 -0.4524750187478E+00
-0.1254847435232E+01 -0.4612731300280E+00
-0.1275805614247E+01 -0.4696973346197E+00
-0.1295551512753E+01 -0.4777441434622E+00
-0.1313914817904E+01 -0.4854144141254E+00
-0.1330705291413E+01 -0.4927136081366E+00
-0.1345710037753E+01 -0.4996517287757E+00
-0.1358690341668E+01 -0.5062427685227E+00
-0.1369378072729E+01 -0.5125034171291E+00
-0.1377471764110E+01 -0.5184506741937E+00
-0.1382632703212E+01 -0.5240978789986E+00
-0.1384481821121E+01 -0.5294485520107E+00
-0.1382598968591E+01 -0.5344874781024E+00
-0.1376527206903E+01 -0.5391690359905E+00
-0.1365785213643E+01 -0.5434042522345E+00
-0.1130533029230E+01 -0.4187587992839E+00
-0.1155410452683E+01 -0.4296222503464E+00
-0.1179753806296E+01 -0.4402203330429E+00
-0.1203465652670E+01 -0.4505389039888E+00
-0.1226437393896E+01 -0.4605652556670E+00
-0.1248547774591E+01 -0.4702885679019E+00
-0.1269661285325E+01 -0.4797003457443E+00
-0.1289626447260E+01 -0.4887947570842E+00
-0.1308273951550E+01 -0.4975687856358E+00
-0.1325414634494E+01 -0.5060221031594E+00
-0.1340837290907E+01 -0.5141565395047E+00
-0.1354306370723E+01 -0.5219749920965E+00
-0.1365559681685E+01 -0.5294795712909E+00
-0.1374306356710E+01 -0.5366687337087E+00
-0.1380225567651E+01 -0.5435331359085E+00
-0.1382966801034E+01 -0.5500500021197E+00
-0.1382152901640E+01 -0.5561760561950E+00
-0.1377387288133E+01 -0.5618396348817E+00
-0.1368266270943E+01 -0.5669334396467E+00
-0.1123802260193E+01 -0.4234670615825E+00
-0.1148455796443E+01 -0.4349443627897E+00
-0.1172628787832E+01 -0.4462134966153E+00
-0.1196228016033E+01 -0.4572607562135E+00
-0.1219149047572E+01 -0.4680729808176E+00
-0.1241274697898E+01 -0.4786378382725E+00
-0.1262473484503E+01 -0.4889440715947E+00
-0.1282598062288E+01 -0.4989816096595E+00
-0.1301483637573E+01 -0.5087414535255E+00
-0.1318946377764E+01 -0.5182152473118E+00
-0.1334781868227E+01 -0.5273944300739E+00
-0.1348763720486E+01 -0.5362688488891E+00
-0.1360642514349E+01 -0.5448247019390E+00
-0.1370145369365E+01 -0.5530416880235E+00
-0.1376976589655E+01 -0.5608892906195E+00
-0.1380819984174E+01 -0.5683222596955E+00
-0.1381343545693E+01 -0.5752756106584E+00
-0.1378207013993E+01 -0.5816598268185E+00
-0.1371072289880E+01 -0.5873572974946E+00
-0.1116514988196E+01 -0.4278068283603E+00
-0.1140856165730E+01 -0.4398244705044E+00
-0.1164770418170E+01 -0.4516846837651E+00
-0.1188170052935E+01 -0.4633732253859E+00
-0.1210956441927E+01 -0.4748752982607E+00
-0.1233018488945E+01 -0.4861756767398E+00
-0.1254231187631E+01 -0.4972587875743E+00
-0.1274454267402E+01 -0.5081086387374E+00
-0.1293530936519E+01 -0.5187085134722E+00
-0.1311286760842E+01 -0.5290403558248E+00
-0.1327528755747E+01 -0.5390837745555E+00
-0.1342044817118E+01 -0.5488145937424E+00
-0.1354603676699E+01 -0.5582028909037E+00
-0.1364955634878E+01 -0.5672105001072E+00
-0.1372834386684E+01 -0.5757880347546E+00
-0.1377960280648E+01 -0.5838716173597E+00
-0.1380045279760E+01 -0.5913796892979E+00
-0.1378799674057E+01 -0.5982104635845E+00
-0.1373940221992E+01 -0.6042406690230E+00
-0.1108669795046E+01 -0.4317240729312E+00
-0.1132608637536E+01 -0.4441951359128E+00
-0.1156174029867E+01 -0.4565514043619E+00
-0.1179285169801E+01 -0.4687771178323E+00
-0.1201850925210E+01 -0.4808547035572E+00
-0.1223768332133E+01 -0.4927647804069E+00
-0.1244921291770E+01 -0.5044861217428E+00
-0.1265179454510E+01 -0.5159954665521E+00
-0.1284397299092E+01 -0.5272671093165E+00
-0.1302413450513E+01 -0.5382722193933E+00
-0.1319050318399E+01 -0.5489778512937E+00
-0.1334114174818E+01 -0.5593456191879E+00
-0.1347395824379E+01 -0.5693300321493E+00
-0.1358672043019E+01 -0.5788765301575E+00
-0.1367707960157E+01 -0.5879193317531E+00
-0.1374260508612E+01 -0.5963793030126E+00
-0.1378082945989E+01 -0.6041621713027E+00
-0.1378930271103E+01 -0.6111575004918E+00
-0.1376565193153E+01 -0.6172388450858E+00
-0.1100266891233E+01 -0.4351661595999E+00
-0.1123711790990E+01 -0.4479910179141E+00
-0.1146836284632E+01 -0.4607343480614E+00
-0.1169567828641E+01 -0.4733779605360E+00
-0.1191824449172E+01 -0.4859004981104E+00
-0.1213513281786E+01 -0.4982773708321E+00
-0.1234529422081E+01 -0.5104806612027E+00
-0.1254755047668E+01 -0.5224788871131E+00
-0.1274058802929E+01 -0.5342365709191E+00
-0.1292295480579E+01 -0.5457135933597E+00
-0.1309306070437E+01 -0.5568643268656E+00
-0.1324918271689E+01 -0.5676365573124E+00
-0.1338947577062E+01 -0.5779702255280E+00
-0.1351199029693E+01 -0.5877960552646E+00
-0.1361469716256E+01 -0.5970341839035E+00
-0.1369551982155E+01 -0.6055929708013E+00
-0.1375237229492E+01 -0.6133682145608E+00
-0.1378320003720E+01 -0.6202430602298E+00
-0.1378601997152E+01 -0.6260889199401E+00
-0.1091308359561E+01 -0.4380825813061E+00
-0.1114166211942E+01 -0.4511500824088E+00
-0.1136755899831E+01 -0.4641590871368E+00
-0.1159014447315E+01 -0.4770881972376E+00
-0.1180870586932E+01 -0.4899114527240E+00
-0.1202243337799E+01 -0.5025982652952E+00
-0.1223041011245E+01 -0.5151133312623E+00
-0.1243160552689E+01 -0.5274164094115E+00
-0.1262487178822E+01 -0.5394619341362E+00
-0.1280894323410E+01 -0.5511984725310E+00
-0.1298243943001E+01 -0.5625680501181E+00
-0.1314387252631E+01 -0.5735053800447E+00
-0.1329165960547E+01 -0.5839370440721E+00
-0.1342414047729E+01 -0.5937806937650E+00
-0.1353960089513E+01 -0.6029443652379E+00
-0.1363630039974E+01 -0.6113260239621E+00
-0.1371250296294E+01 -0.6188134682519E+00
-0.1376650711496E+01 -0.6252847202090E+00
-0.1379667019206E+01 -0.6306091153911E+00
-0.1081799198497E+01 -0.4404259340220E+00
-0.1103976609489E+01 -0.4536152848945E+00
-0.1125936791475E+01 -0.4667584556994E+00
-0.1147627516020E+01 -0.4798302276884E+00
-0.1168989562051E+01 -0.4927994385394E+00
-0.1189955321198E+01 -0.5056289962523E+00
-0.1210447957502E+01 -0.5182758650563E+00
-0.1230380946720E+01 -0.5306909064166E+00
-0.1249657906393E+01 -0.5428185736346E+00
-0.1268172702893E+01 -0.5545965021749E+00
-0.1285809866812E+01 -0.5659550485290E+00
-0.1302445365925E+01 -0.5768168308235E+00
-0.1317947779369E+01 -0.5870963247029E+00
-0.1332179890388E+01 -0.5966995711374E+00
-0.1345000670068E+01 -0.6055240564529E+00
-0.1356267565746E+01 -0.6134588223624E+00
-0.1365838936703E+01 -0.6203848451549E+00
-0.1373576402147E+01 -0.6261756702702E+00
-0.1379346571073E+01 -0.6306981953964E+00
-0.1071749189336E+01 -0.4421536256090E+00
-0.1093155585498E+01 -0.4553377461547E+00
-0.1114393730758E+01 -0.4684771731269E+00
-0.1135423129929E+01 -0.4815424200329E+00
-0.1156197644435E+01 -0.4944967227918E+00
-0.1176664119064E+01 -0.5072962381257E+00
-0.1196761708812E+01 -0.5198901645528E+00
-0.1216421603761E+01 -0.5322206738660E+00
-0.1235567001719E+01 -0.5442226927748E+00
-0.1254113286635E+01 -0.5558236173425E+00
-0.1271968429442E+01 -0.5669430417649E+00
-0.1289033649939E+01 -0.5774925685862E+00
-0.1305204374500E+01 -0.5873757524963E+00
-0.1320371502020E+01 -0.5964882169414E+00
-0.1334422955532E+01 -0.6047179703630E+00
-0.1347245457300E+01 -0.6119459327976E+00
-0.1358726436961E+01 -0.6180466527212E+00
-0.1368755970203E+01 -0.6228891291520E+00
-0.1377228782284E+01 -0.6263373989310E+00
-0.1061176380919E+01 -0.4432306448096E+00
-0.1081730646149E+01 -0.4562820695697E+00
-0.1102162916769E+01 -0.4692796346640E+00
-0.1122445180970E+01 -0.4821892237911E+00
-0.1142545028474E+01 -0.4949681762661E+00
-0.1162424327010E+01 -0.5075658070203E+00
-0.1182038764387E+01 -0.5199237177838E+00
-0.1201337772559E+01 -0.5319758204603E+00
-0.1220264613445E+01 -0.5436481784853E+00
-0.1238756563094E+01 -0.5548588027427E+00
-0.1256745206755E+01 -0.5655175146247E+00
-0.1274156885459E+01 -0.5755259551123E+00
-0.1290913335127E+01 -0.5847777866360E+00
-0.1306932543136E+01 -0.5931591069651E+00
-0.1322129821926E+01 -0.6005490694215E+00
-0.1336419072253E+01 -0.6068206798439E+00
-0.1349714195622E+01 -0.6118417191896E+00
-0.1361930668668E+01 -0.6154757020065E+00
-0.1372987515216E+01 -0.6175827357966E+00
-0.1050112098087E+01 -0.4436331332416E+00
-0.1069754298846E+01 -0.4564333327691E+00
-0.1089317318650E+01 -0.4691601213357E+00
-0.1108786155701E+01 -0.4817742714015E+00
-0.1128142337726E+01 -0.4942268244410E+00
-0.1147362759133E+01 -0.5064601095401E+00
-0.1166419548899E+01 -0.5184082825479E+00
-0.1185280242812E+01 -0.5299974068268E+00
-0.1203907977966E+01 -0.5411452961654E+00
-0.1222261642908E+01 -0.5517613267119E+00
-0.1240296009181E+01 -0.5617463676426E+00
-0.1257961900825E+01 -0.5709929187921E+00
-0.1275206461219E+01 -0.5793854965189E+00
-0.1291973567609E+01 -0.5868012692740E+00
-0.1308204426622E+01 -0.5931109087986E+00
-0.1323838362577E+01 -0.5981795924966E+00
-0.1338813785952E+01 -0.6018680741395E+00
-0.1353069330879E+01 -0.6040337708641E+00
-0.1366545230364E+01 -0.6045319318186E+00
-0.1038591654900E+01 -0.4433422175483E+00
-0.1057285737625E+01 -0.4557847055361E+00
-0.1075939776088E+01 -0.4681240956731E+00
-0.1094552208769E+01 -0.4803152172503E+00
-0.1113118339855E+01 -0.4923021272756E+00
-0.1131629623209E+01 -0.5040198352657E+00
-0.1150074054077E+01 -0.5153950530694E+00
-0.1168436674428E+01 -0.5263462482330E+00
-0.1186699883722E+01 -0.5367833912261E+00
-0.1204843526457E+01 -0.5466077077164E+00
-0.1222844820684E+01 -0.5557116159340E+00
-0.1240678211902E+01 -0.5639789470944E+00
-0.1258315237584E+01 -0.5712854868713E+00
-0.1275724484186E+01 -0.5774998350281E+00
-0.1292871716269E+01 -0.5824845415622E+00
-0.1309720240754E+01 -0.5860974388063E+00
-0.1326231535860E+01 -0.5881930685503E+00
-0.1342366066147E+01 -0.5886241291082E+00
-0.1358084034012E+01 -0.5872430747253E+00
-0.1026618334038E+01 -0.4423209336683E+00
-0.1044318927383E+01 -0.4542913773334E+00
-0.1062015495372E+01 -0.4661197228314E+00
-0.1079720315258E+01 -0.4777537500495E+00
-0.1097441982101E+01 -0.4891298458600E+00
-0.1115185707060E+01 -0.5001755808043E+00
-0.1132954542140E+01 -0.5108105596033E+00
-0.1150750302513E+01 -0.5209462469148E+00
-0.1168573979861E+01 -0.5304854874427E+00
-0.1186425725318E+01 -0.5393221015005E+00
-0.1204304532464E+01 -0.5473407659253E+00
-0.1222207737059E+01 -0.5544172589133E+00
-0.1240130431930E+01 -0.5604191044994E+00
-0.1258064904150E+01 -0.5652066203235E+00
-0.1276000214033E+01 -0.5686343343017E+00
-0.1293922051026E+01 -0.5705526883563E+00
-0.1311812954515E+01 -0.5708098845459E+00
-0.1329652903919E+01 -0.5692536930775E+00
-0.1347419824455E+01 -0.5657330304220E+00
-0.1014190210153E+01 -0.4405319784883E+00
-0.1030836168837E+01 -0.4519060981603E+00
-0.1047511825503E+01 -0.4630909067836E+00
-0.1064243323300E+01 -0.4740256665581E+00
-0.1081051361983E+01 -0.4846385303404E+00
-0.1097953587768E+01 -0.4948500384453E+00
-0.1114966974379E+01 -0.5045735916243E+00
-0.1132109180037E+01 -0.5137147897553E+00
-0.1149398980225E+01 -0.5221705224501E+00
-0.1166856078097E+01 -0.5298283502478E+00
-0.1184500522109E+01 -0.5365662727358E+00
-0.1202351839483E+01 -0.5422529263462E+00
-0.1220427972332E+01 -0.5467482408519E+00
-0.1238744120858E+01 -0.5499045830858E+00
-0.1257311655224E+01 -0.5515683856443E+00
-0.1276137281339E+01 -0.5515821904555E+00
-0.1295222721963E+01 -0.5497869554901E+00
-0.1314565043841E+01 -0.5460242871502E+00
-0.1334157835191E+01 -0.5401380322422E+00
-0.1001310987634E+01 -0.4379453825021E+00
-0.1016830063499E+01 -0.4485944443427E+00
-0.1032411705462E+01 -0.4589998003913E+00
-0.1048094608965E+01 -0.4690899476760E+00
-0.1063909270237E+01 -0.4787848432412E+00
-0.1079883753917E+01 -0.4879991129322E+00
-0.1096047506611E+01 -0.4966416471474E+00
-0.1112432875629E+01 -0.5046137830393E+00
-0.1129075326010E+01 -0.5118079850985E+00
-0.1146013056913E+01 -0.5181070208896E+00
-0.1163286190268E+01 -0.5233836018842E+00
-0.1180935598107E+01 -0.5275004552189E+00
-0.1199001392416E+01 -0.5303108664248E+00
-0.1217521148024E+01 -0.5316597715272E+00
-0.1236528012144E+01 -0.5313854744469E+00
-0.1256049021469E+01 -0.5293219801291E+00
-0.1276103871396E+01 -0.5253017882243E+00
-0.1296704833886E+01 -0.5191589102541E+00
-0.1317858166925E+01 -0.5107313110301E+00
-0.9879894587863E+00 -0.4345395512741E+00
-0.1002304236921E+01 -0.4443372751368E+00
-0.1016715669846E+01 -0.4538291390210E+00
-0.1031271288059E+01 -0.4629309784992E+00
-0.1046007172015E+01 -0.4715552507249E+00
-0.1060959540832E+01 -0.4796136654282E+00
-0.1076168965559E+01 -0.4870127824433E+00
-0.1091681070863E+01 -0.4936515011382E+00
-0.1107546496260E+01 -0.4994195208003E+00
-0.1123820371555E+01 -0.5041964755261E+00
-0.1140561427756E+01 -0.5078514589108E+00
-0.1157830674851E+01 -0.5102428868902E+00
-0.1175689583000E+01 -0.5112187660481E+00
-0.1194197744658E+01 -0.5106175224509E+00
-0.1213410127345E+01 -0.5082695858981E+00
-0.1233374187527E+01 -0.5039999072552E+00
-0.1254127672695E+01 -0.4976312897133E+00
-0.1275696864275E+01 -0.4889881883456E+00
-0.1298097521767E+01 -0.4779012575992E+00
-0.9742377929630E+00 -0.4303031753870E+00
-0.9872710145300E+00 -0.4391315581207E+00
-0.1000441012070E+01 -0.4475826315604E+00
-0.1013791654009E+01 -0.4555550130166E+00
-0.1027360579947E+01 -0.4629616540617E+00
-0.1041191666912E+01 -0.4697147290537E+00
-0.1055335291804E+01 -0.4757205459777E+00
-0.1069848579233E+01 -0.4808770726239E+00
-0.1084795165346E+01 -0.4850727787890E+00
-0.1100244802713E+01 -0.4881858830316E+00
-0.1116272623046E+01 -0.4900837709718E+00
-0.1132957918220E+01 -0.4906225602369E+00
-0.1150382273217E+01 -0.4896469213265E+00
-0.1168626903930E+01 -0.4869903681194E+00
-0.1187769112651E+01 -0.4824763572797E+00
-0.1207878076924E+01 -0.4759205932523E+00
-0.1229010407742E+01 -0.4671350089895E+00
-0.1251208498018E+01 -0.4559323343977E+00
-0.1274495874376E+01 -0.4421306136898E+00
-0.9600630109579E+00 -0.4252367824708E+00
-0.9717574477930E+00 -0.4330006839024E+00
-0.9836232263937E+00 -0.4402785790026E+00
-0.9956896922320E+00 -0.4469836646655E+00
-0.1008001602403E+01 -0.4530353576676E+00
-0.1020609925505E+01 -0.4583482070060E+00
-0.1033573172206E+01 -0.4628288842807E+00
-0.1046957280817E+01 -0.4663752779827E+00
-0.1060835797778E+01 -0.4688758981624E+00
-0.1075289825086E+01 -0.4702092470220E+00
-0.1090407668277E+01 -0.4702430893791E+00
-0.1106284002470E+01 -0.4688336656989E+00
-0.1123018339073E+01 -0.4658249506271E+00
-0.1140712501654E+01 -0.4610481584224E+00
-0.1159466776865E+01 -0.4543218556097E+00
-0.1179374398356E+01 -0.4454533540313E+00
-0.1200514784138E+01 -0.4342421406123E+00
-0.1222946046189E+01 -0.4204869923673E+00
-0.1246712210137E+01 -0.4039879881370E+00
</DataArray>
</PointData>
   <DataArray type="Float64" Name="Load" NumberOfComponents="1"    ComponentName0="Load" format="ascii">
 0.1536815457532E+02
 0.1373067176890E+02
 0.1244390324007E+02
 0.1194343232480E+02
 0.1155877151592E+02
 0.1127652003954E+02
 0.1104118944197E+02
 0.1083631062289E+02
 0.1065044528707E+02
 0.1047786060062E+02
 0.1031540484721E+02
 0.1016183392890E+02
 0.1001738028864E+02
 0.9883877741051E+01
 0.9765847958815E+01
 0.9673488078015E+01
 0.9607665284845E+01
 0.9540700489021E+01
 0.9445555668549E+01
 0.9321473850991E+01
 0.9179905030310E+01
 0.9033154300870E+01
 0.8890987091343E+01
 0.8760607058952E+01
 0.8647231884826E+01
 0.8554084608635E+01
 0.8481489281580E+01
 0.8431375246151E+01
 0.8412190550632E+01
 0.8433715517676E+01
 0.8503242116792E+01
 0.8626822593910E+01
 0.8808924815730E+01
 0.9050549724533E+01
 0.9350254765550E+01
 0.9716419828004E+01
 0.1026003119493E+02
 0.1105268895320E+02
 0.1273045913532E+02
 0.1340335703145E+02
 0.2312679318163E+02
 0.1306165322630E+02
 0.1342810386642E+02
 0.1242977067599E+02
 0.1181616179822E+02
 0.1142823243444E+02
 0.1112426957899E+02
 0.1087807116875E+02
 0.1066507699629E+02
 0.1047425188200E+02
 0.1029875973929E+02
 0.1013495240374E+02
 0.9981111917329E+01
 0.9837029172608E+01
 0.9704012338971E+01
 0.9584769708019E+01
 0.9480917004375E+01
 0.9387956548897E+01
 0.9294248000429E+01
 0.9188312627718E+01
 0.9066320411937E+01
 0.8932133675444E+01
 0.8792890357094E+01
 0.8655598793364E+01
 0.8525974434847E+01
 0.8408198391801E+01
 0.8304982991626E+01
 0.8218313297131E+01
 0.8150901349497E+01
 0.8106918340748E+01
 0.8091072510051E+01
 0.8107078095665E+01
 0.8156683335117E+01
 0.8239092013239E+01
 0.8351253489656E+01
 0.8491159746177E+01
 0.8671751137040E+01
 0.8899303982466E+01
 0.9210020776660E+01
 0.9361938446431E+01
 0.8008747203038E+01
 0.1579493916601E+02
 0.1170529072008E+02
 0.1257325443502E+02
 0.1220116756293E+02
 0.1163943409871E+02
 0.1125481271432E+02
 0.1095209882517E+02
 0.1070153333885E+02
 0.1048536944681E+02
 0.1029207730094E+02
 0.1011512375947E+02
 0.9950619739986E+01
 0.9796576371717E+01
 0.9652369559839E+01
 0.9518472962783E+01
 0.9395226141328E+01
 0.9280377788936E+01
 0.9169292112768E+01
 0.9057700847867E+01
 0.8941770772169E+01
 0.8818346644702E+01
 0.8687461494250E+01
 0.8552381412835E+01
 0.8417546609650E+01
 0.8287095625403E+01
 0.8164237381342E+01
 0.8051371300562E+01
 0.7950772546079E+01
 0.7864682437576E+01
 0.7794837607205E+01
 0.7742501908953E+01
 0.7708084179383E+01
 0.7690001055335E+01
 0.7684103160367E+01
 0.7684480852849E+01
 0.7687426163593E+01
 0.7688570570672E+01
 0.7660102877122E+01
 0.7525710227724E+01
 0.6852053779293E+01
 0.6009893131041E+01
 0.1349466773976E+02
 0.1078160779351E+02
 0.1173182879905E+02
 0.1177533096234E+02
 0.1139545690603E+02
 0.1104418625823E+02
 0.1075651422251E+02
 0.1051087701328E+02
 0.1029612163377E+02
 0.1010324005122E+02
 0.9926415803113E+01
 0.9762033045733E+01
 0.9608009592453E+01
 0.9463364990011E+01
 0.9327647761918E+01
 0.9199490253841E+01
 0.9075304909363E+01
 0.8951501322851E+01
 0.8827428915247E+01
 0.8703029540178E+01
 0.8576389588129E+01
 0.8445955589959E+01
 0.8312406955537E+01
 0.8178024109103E+01
 0.8045456302630E+01
 0.7917000187990E+01
 0.7794609701091E+01
 0.7680215576712E+01
 0.7575234796447E+01
 0.7479753346848E+01
 0.7392709576716E+01
 0.7311985373673E+01
 0.7233636848671E+01
 0.7151475104900E+01
 0.7058065709307E+01
 0.6946044676918E+01
 0.6800538391625E+01
 0.6577764827014E+01
 0.6157220351340E+01
 0.5369425560493E+01
 0.5542531307672E+01
 0.1236555349448E+02
 0.1008968247714E+02
 0.1099398636210E+02
 0.1127008945007E+02
 0.1108116342566E+02
 0.1079889099341E+02
 0.1053802447431E+02
 0.1030547476376E+02
 0.1009690471606E+02
 0.9907275767583E+01
 0.9732288065002E+01
 0.9568949967747E+01
 0.9415311029315E+01
 0.9270126234673E+01
 0.9132201995909E+01
 0.8999228815844E+01
 0.8867471952994E+01
 0.8734473253850E+01
 0.8601389659311E+01
 0.8469984782743E+01
 0.8339379275588E+01
 0.8207528370691E+01
 0.8073542182389E+01
 0.7938029711828E+01
 0.7802335933657E+01
 0.7667890538846E+01
 0.7536072602311E+01
 0.7408207229172E+01
 0.7284845059765E+01
 0.7164882547022E+01
 0.7045719686561E+01
 0.6923549585796E+01
 0.6792989143486E+01
 0.6646952457887E+01
 0.6477409501343E+01
 0.6275064474462E+01
 0.6022420395448E+01
 0.5675789400027E+01
 0.5160408450754E+01
 0.4609099589019E+01
 0.5644611973077E+01
 0.1161998139730E+02
 0.9535719114394E+01
 0.1035818607049E+02
 0.1075198400679E+02
 0.1071903047704E+02
 0.1052131122931E+02
 0.1029860108348E+02
 0.1008561660301E+02
 0.9887652473877E+01
 0.9704012970476E+01
 0.9532563663768E+01
 0.9371261046261E+01
 0.9218488301950E+01
 0.9072887864585E+01
 0.8932814860859E+01
 0.8795601108951E+01
 0.8657872476767E+01
 0.8518112957392E+01
 0.8378359556126E+01
 0.8241188663976E+01
 0.8106430688019E+01
 0.7972026556940E+01
 0.7836212708782E+01
 0.7698391761560E+01
 0.7558828037018E+01
 0.7418146029561E+01
 0.7277091508314E+01
 0.7136315145981E+01
 0.6995586560440E+01
 0.6852956256443E+01
 0.6704880898524E+01
 0.6546613425545E+01
 0.6372179720468E+01
 0.6174547210736E+01
 0.5946228677715E+01
 0.5678819764583E+01
 0.5358537572391E+01
 0.4959603257851E+01
 0.4488881353955E+01
 0.4293538382078E+01
 0.5885585752720E+01
 0.1104577724253E+02
 0.9070342257665E+01
 0.9806569055811E+01
 0.1025115347593E+02
 0.1033240695239E+02
 0.1021807190864E+02
 0.1004065205323E+02
 0.9852387612430E+01
 0.9668687856814E+01
 0.9493532641620E+01
 0.9327239196410E+01
 0.9168979260000E+01
 0.9017647349093E+01
 0.8871952431041E+01
 0.8730088852461E+01
 0.8589414486860E+01
 0.8447098373951E+01
 0.8302343609815E+01
 0.8157576939055E+01
 0.8015661978408E+01
 0.7876865036901E+01
 0.7739290431090E+01
 0.7600739642910E+01
 0.7459795602930E+01
 0.7315869033370E+01
 0.7168867207929E+01
 0.7018912556146E+01
 0.6866015111182E+01
 0.6709303795512E+01
 0.6546273022995E+01
 0.6372907790657E+01
 0.6184151134413E+01
 0.5974167191916E+01
 0.5736797881869E+01
 0.5466319386965E+01
 0.5157741520439E+01
 0.4806174753077E+01
 0.4414167168892E+01
 0.4067955552354E+01
 0.4226877382788E+01
 0.6113250795481E+01
 0.1057027100104E+02
 0.8665254888935E+01
 0.9321412463628E+01
 0.9779045998860E+01
 0.9938432573202E+01
 0.9897476835323E+01
 0.9767413804955E+01
 0.9607319072480E+01
 0.9440702980348E+01
 0.9276139631502E+01
 0.9116469729682E+01
 0.8962229938893E+01
 0.8812974323546E+01
 0.8667650711551E+01
 0.8524534605913E+01
 0.8381243456911E+01
 0.8235524262253E+01
 0.8087111063582E+01
 0.7938559406796E+01
 0.7792749934231E+01
 0.7650188717221E+01
 0.7509187019257E+01
 0.7367374181654E+01
 0.7222810207184E+01
 0.7074262069244E+01
 0.6921029058762E+01
 0.6762670453730E+01
 0.6598644248243E+01
 0.6427600414771E+01
 0.6246732189721E+01
 0.6051934900169E+01
 0.5838353108971E+01
 0.5600885109909E+01
 0.5334942984911E+01
 0.5037611546233E+01
 0.4709203448112E+01
 0.4356940708324E+01
 0.4013856159887E+01
 0.3827243041900E+01
 0.4283731227183E+01
 0.6286861468082E+01
 0.1016129760403E+02
 0.8303154863887E+01
 0.8888312546179E+01
 0.9338306185035E+01
 0.9548016497035E+01
 0.9567277678341E+01
 0.9482652082383E+01
 0.9352269061031E+01
 0.9204658896449E+01
 0.9052335298775E+01
 0.8900547668743E+01
 0.8751236608170E+01
 0.8604717215437E+01
 0.8460320157870E+01
 0.8316582229267E+01
 0.8171511112725E+01
 0.8023404516100E+01
 0.7872385592833E+01
 0.7721002888175E+01
 0.7572021805087E+01
 0.7426059250393E+01
 0.7281623244871E+01
 0.7136322432988E+01
 0.6987911080639E+01
 0.6834695430121E+01
 0.6675487226146E+01
 0.6509374252875E+01
 0.6335378322154E+01
 0.6151835587631E+01
 0.5955862309778E+01
 0.5743572940337E+01
 0.5510713953552E+01
 0.5253380308547E+01
 0.4969091222424E+01
 0.4658487720073E+01
 0.4328314038096E+01
 0.3998963330761E+01
 0.3730726264230E+01
 0.3709443781444E+01
 0.4391038681993E+01
 0.6403875737757E+01
 0.9801241946758E+01
 0.7972897717920E+01
 0.8496196506831E+01
 0.8927702203737E+01
 0.9167439820239E+01
 0.9233728738202E+01
 0.9190150910180E+01
 0.9089292863925E+01
 0.8961698981265E+01
 0.8822774612363E+01
 0.8679880156481E+01
 0.8536304045058E+01
 0.8393170092441E+01
 0.8250295240160E+01
 0.8106598988563E+01
 0.7960543117118E+01
 0.7810926837602E+01
 0.7658161289584E+01
 0.7504722073567E+01
 0.7353202507855E+01
 0.7204251479397E+01
 0.7056547052078E+01
 0.6907761594769E+01
 0.6755498415362E+01
 0.6597756895039E+01
 0.6432983217836E+01
 0.6259901336233E+01
 0.6077222964772E+01
 0.5883128251831E+01
 0.5674849847921E+01
 0.5448965757105E+01
 0.5202123941238E+01
 0.4931948232582E+01
 0.4638423452241E+01
 0.4326163887064E+01
 0.4008728524565E+01
 0.3719041638262E+01
 0.3538792321373E+01
 0.3671016954658E+01
 0.4509848507780E+01
 0.6472651708887E+01
 0.9478826707602E+01
 0.7666988141207E+01
 0.8136679325186E+01
 0.8544494363964E+01
 0.8799910304449E+01
 0.8901442841852E+01
 0.8893333063636E+01
 0.8820484219023E+01
 0.8713071773487E+01
 0.8588220211039E+01
 0.8454963465563E+01
 0.8317800855669E+01
 0.8178660163168E+01
 0.8037904026235E+01
 0.7894905919948E+01
 0.7748603057440E+01
 0.7598242659291E+01
 0.7444454056042E+01
 0.7289613231957E+01
 0.7136125761621E+01
 0.6984628539370E+01
 0.6833942483104E+01
 0.6681849419612E+01
 0.6525910673224E+01
 0.6363945186296E+01
 0.6194149929530E+01
 0.6014997111542E+01
 0.5825013672317E+01
 0.5622367600451E+01
 0.5404569619795E+01
 0.5168847379083E+01
 0.4912959440847E+01
 0.4636267915562E+01
 0.4341405367265E+01
 0.4037067130674E+01
 0.3743399830700E+01
 0.3504150515116E+01
 0.3415638460773E+01
 0.3680587249578E+01
 0.4621101240042E+01
 0.6503099781557E+01
 0.9186132311013E+01
 0.7380196945629E+01
 0.7803408364565E+01
 0.8185541793662E+01
 0.8446716952656E+01
 0.8573595263024E+01
 0.8595071498631E+01
 0.8547833703509E+01
 0.8460057811761E+01
 0.8349498720032E+01
 0.8226356391280E+01
 0.8096142329385E+01
 0.7961537188334E+01
 0.7823467389165E+01
 0.7681791111793E+01
 0.7535915372079E+01
 0.7385484552330E+01
 0.7231298880565E+01
 0.7075629838812E+01
 0.6920701606188E+01
 0.6767118419532E+01
 0.6613822352923E+01
 0.6458729009767E+01
 0.6299434367034E+01
 0.6133679311505E+01
 0.5959517778892E+01
 0.5775278672617E+01
 0.5579421571931E+01
 0.5370228127050E+01
 0.5145616889098E+01
 0.4903598195576E+01
 0.4643170359602E+01
 0.4365533068062E+01
 0.4075991716703E+01
 0.3787176289405E+01
 0.3525168027280E+01
 0.3342273054768E+01
 0.3342765134912E+01
 0.3716593395018E+01
 0.4716510872323E+01
 0.6503872961999E+01
 0.8917300394965E+01
 0.7108759249507E+01
 0.7491535837357E+01
 0.7847794676298E+01
 0.8108007327165E+01
 0.8252226742063E+01
 0.8297644367134E+01
 0.8273131069970E+01
 0.8203905253753E+01
 0.8107460880882E+01
 0.7994654716089E+01
 0.7871774159352E+01
 0.7742164555559E+01
 0.7607298927212E+01
 0.7467519396038E+01
 0.7322679991432E+01
 0.7172776062668E+01
 0.7018746819992E+01
 0.6862765901494E+01
 0.6706893515413E+01
 0.6551695588198E+01
 0.6396220500654E+01
 0.6238530656892E+01
 0.6076310959502E+01
 0.5907306359174E+01
 0.5729521380362E+01
 0.5541241183047E+01
 0.5340963006186E+01
 0.5127187765487E+01
 0.4898340396349E+01
 0.4653299336351E+01
 0.4392362877496E+01
 0.4118574293935E+01
 0.3839809493457E+01
 0.3572301712571E+01
 0.3347157276534E+01
 0.3222766573986E+01
 0.3305406352062E+01
 0.3764820791919E+01
 0.4793335370331E+01
 0.6481826827913E+01
 0.8667862130466E+01
 0.6849889393353E+01
 0.7197324081204E+01
 0.7528490368955E+01
 0.7783285682609E+01
 0.7938535441591E+01
 0.8002773273042E+01
 0.7997913957105E+01
 0.7945779946299E+01
 0.7862946935377E+01
 0.7760468009468E+01
 0.7645157530974E+01
 0.7520911509602E+01
 0.7389704708271E+01
 0.7252338901966E+01
 0.7109081435793E+01
 0.6960237010750E+01
 0.6806861933331E+01
 0.6651044115953E+01
 0.6494702001743E+01
 0.6338366795775E+01
 0.6181184589219E+01
 0.6021371993097E+01
 0.5856741732781E+01
 0.5685108164771E+01
 0.5504506593867E+01
 0.5313266068485E+01
 0.5110011570581E+01
 0.4893547895361E+01
 0.4662875431906E+01
 0.4417784341780E+01
 0.4159875777829E+01
 0.3893968400094E+01
 0.3630312401489E+01
 0.3388294248978E+01
 0.3203006461607E+01
 0.3136463540010E+01
 0.3292112822843E+01
 0.3816240582139E+01
 0.4851547533228E+01
 0.6442193040954E+01
 0.8434336000070E+01
 0.6601476439511E+01
 0.6917857781130E+01
 0.7225209753840E+01
 0.7471722212909E+01
 0.7633119529668E+01
 0.7711699633910E+01
 0.7723453413958E+01
 0.7686732089859E+01
 0.7616758628061E+01
 0.7524399534997E+01
 0.7416755912025E+01
 0.7298146269863E+01
 0.7170982528295E+01
 0.7036485112602E+01
 0.6895294197219E+01
 0.6747986024992E+01
 0.6595718304912E+01
 0.6440507179203E+01
 0.6284152683637E+01
 0.6127160187356E+01
 0.5968769861738E+01
 0.5807357313980E+01
 0.5640891321446E+01
 0.5467307164088E+01
 0.5284737776860E+01
 0.5091630333561E+01
 0.4886811601499E+01
 0.4669454206032E+01
 0.4439176104445E+01
 0.4196687269083E+01
 0.3944848983850E+01
 0.3690132241797E+01
 0.3444903355416E+01
 0.3231187105033E+01
 0.3086980524466E+01
 0.3075635744840E+01
 0.3294232781635E+01
 0.3865330927168E+01
 0.4892354196857E+01
 0.6388917903924E+01
 0.8213963022770E+01
 0.6361886727862E+01
 0.6650835638950E+01
 0.6935870564943E+01
 0.7172339938283E+01
 0.7336164379888E+01
 0.7425271545574E+01
 0.7450764012582E+01
 0.7427678297388E+01
 0.7369638501878E+01
 0.7287029732500E+01
 0.7187023735715E+01
 0.7074229934888E+01
 0.6951420675884E+01
 0.6820183046788E+01
 0.6681485637418E+01
 0.6536141378605E+01
 0.6385397233395E+01
 0.6231211241575E+01
 0.6075287477116E+01
 0.5918116990485E+01
 0.5759033966584E+01
 0.5596576621209E+01
 0.5428890426136E+01
 0.5254071670776E+01
 0.5070405093650E+01
 0.4876516486450E+01
 0.4671492359297E+01
 0.4454917612811E+01
 0.4227046074267E+01
 0.3989486526436E+01
 0.3746283393010E+01
 0.3505400037896E+01
 0.3281025724107E+01
 0.3097282335636E+01
 0.2994005951770E+01
 0.3033889098398E+01
 0.3305375072133E+01
 0.3908868070370E+01
 0.4917439180966E+01
 0.6324989545723E+01
 0.8004522308897E+01
 0.6129832111198E+01
 0.6394419284794E+01
 0.6658695084198E+01
 0.6884124292801E+01
 0.7047580807974E+01
 0.7144026536679E+01
 0.7180627971281E+01
 0.7169396043217E+01
 0.7122256299543E+01
 0.7048903455884E+01
 0.6956397064385E+01
 0.6849511163344E+01
 0.6731296333530E+01
 0.6603648104401E+01
 0.6467817243704E+01
 0.6324820796399E+01
 0.6175984627974E+01
 0.6023220862338E+01
 0.5868158016186E+01
 0.5711285194297E+01
 0.5552032816771E+01
 0.5389104709775E+01
 0.5220838069130E+01
 0.5045520747910E+01
 0.4861631763880E+01
 0.4668022679174E+01
 0.4464082333473E+01
 0.4249834596212E+01
 0.4026167173101E+01
 0.3795543939798E+01
 0.3563091629037E+01
 0.3338084432682E+01
 0.3136226834979E+01
 0.2983196218851E+01
 0.2919661409482E+01
 0.3006023182642E+01
 0.3320914149771E+01
 0.3945093777808E+01
 0.4928581034815E+01
 0.6252711822233E+01
 0.7804197964617E+01
 0.5904279733091E+01
 0.6147123010557E+01
 0.6392170061212E+01
 0.6606084730753E+01
 0.6767104145048E+01
 0.6868263743460E+01
 0.6913625577675E+01
 0.6912527026022E+01
 0.6875201623206E+01
 0.6810520865814E+01
 0.6725286233515E+01
 0.6624321655387E+01
 0.6510873790633E+01
 0.6387086011997E+01
 0.6254444825750E+01
 0.6114140658409E+01
 0.5967568633274E+01
 0.5816605058298E+01
 0.5662820694870E+01
 0.5506714769100E+01
 0.5347817384443E+01
 0.5185000475503E+01
 0.5016803628619E+01
 0.4841728787937E+01
 0.4658481155699E+01
 0.4466172767500E+01
 0.4264523238559E+01
 0.4054006491123E+01
 0.3836125495571E+01
 0.3614138797377E+01
 0.3394139828970E+01
 0.3186522613790E+01
 0.3008198726628E+01
 0.2885876305377E+01
 0.2860143348596E+01
 0.2987873843978E+01
 0.3337572436977E+01
 0.3973158702882E+01
 0.4927448661817E+01
 0.6173928326372E+01
 0.7611475108702E+01
 0.5684388809710E+01
 0.5907732598575E+01
 0.6135007005543E+01
 0.6337287013046E+01
 0.6494363623410E+01
 0.6598103623222E+01
 0.6650166897178E+01
 0.6657586275773E+01
 0.6628981659483E+01
 0.6572331645839E+01
 0.6494070393529E+01
 0.6398972457781E+01
 0.6290402638446E+01
 0.6170692211585E+01
 0.6041518060334E+01
 0.5904214879660E+01
 0.5760237493031E+01
 0.5611434173501E+01
 0.5459332912464E+01
 0.5304454082238E+01
 0.5146431308781E+01
 0.4984306521943E+01
 0.4816828795581E+01
 0.4642729871516E+01
 0.4460963647868E+01
 0.4270926069184E+01
 0.4072683383361E+01
 0.3867157388885E+01
 0.3656434708127E+01
 0.3444496846639E+01
 0.3238281000895E+01
 0.3049109431896E+01
 0.2894801441314E+01
 0.2802600038560E+01
 0.2812217883172E+01
 0.2976154267244E+01
 0.3353078867941E+01
 0.3992793219201E+01
 0.4915428286414E+01
 0.6090225570594E+01
 0.7425052269875E+01
 0.5469465403123E+01
 0.5675244980356E+01
 0.5886106218508E+01
 0.6076867891141E+01
 0.6228929983712E+01
 0.6333535655547E+01
 0.6390521833112E+01
 0.6404974463735E+01
 0.6384022700790E+01
 0.6334732061730E+01
 0.6263093795375E+01
 0.6173751095764E+01
 0.6070116088759E+01
 0.5954650952929E+01
 0.5829179669898E+01
 0.5695153651679E+01
 0.5554077655801E+01
 0.5407777385253E+01
 0.5257750229150E+01
 0.5104547248245E+01
 0.4947909194432E+01
 0.4787049086209E+01
 0.4620929531421E+01
 0.4448521942868E+01
 0.4269043199949E+01
 0.4082186658712E+01
 0.3888370189167E+01
 0.3688950433535E+01
 0.3486556465824E+01
 0.3285814423996E+01
 0.3094380769898E+01
 0.2924319800677E+01
 0.2794073480533E+01
 0.2730962400823E+01
 0.2773164137672E+01
 0.2968308999947E+01
 0.3365889862998E+01
 0.4004127307556E+01
 0.4893593164565E+01
 0.6002761893000E+01
 0.7243907449092E+01
 0.5258929451937E+01
 0.5448822915749E+01
 0.5644525624855E+01
 0.5824039472736E+01
 0.5970347454044E+01
 0.6074455495998E+01
 0.6134847045385E+01
 0.6154991554112E+01
 0.6140674292874E+01
 0.6098064318999E+01
 0.6032663613177E+01
 0.5948919506642E+01
 0.5850229521419E+01
 0.5739134281373E+01
 0.5617564435514E+01
 0.5487062170311E+01
 0.5349172121914E+01
 0.5205700717994E+01
 0.5058124223807E+01
 0.4907032213689E+01
 0.4752275486572E+01
 0.4593238268863E+01
 0.4429098060680E+01
 0.4259070816727E+01
 0.4082643582825E+01
 0.3899812085016E+01
 0.3711341709771E+01
 0.3519002393622E+01
 0.3325917953806E+01
 0.3137278048622E+01
 0.2961336525815E+01
 0.2810722552575E+01
 0.2704233541704E+01
 0.2668856266255E+01
 0.2740717295740E+01
 0.2962371618742E+01
 0.3375021027946E+01
 0.4007405763916E+01
 0.4863344625065E+01
 0.5910394845059E+01
 0.7073992059149E+01
 0.5052290323600E+01
 0.5227760597255E+01
 0.5409454400600E+01
 0.5578087755064E+01
 0.5718154695052E+01
 0.5820693349615E+01
 0.5883209154851E+01
 0.5907850533395E+01
 0.5899215023447E+01
 0.5862617674522E+01
 0.5803049065423E+01
 0.5724712720587E+01
 0.5630939326707E+01
 0.5524301055270E+01
 0.5406798181269E+01
 0.5280039430754E+01
 0.5145599025561E+01
 0.5005265470792E+01
 0.4860500900886E+01
 0.4711939420982E+01
 0.4559543818577E+01
 0.4402868531518E+01
 0.4241304902071E+01
 0.4074314014347E+01
 0.3901654230169E+01
 0.3723621434651E+01
 0.3541317065829E+01
 0.3356896471317E+01
 0.3173926664966E+01
 0.2998079925249E+01
 0.2838091010557E+01
 0.2706987854008E+01
 0.2623676164155E+01
 0.2614449858809E+01
 0.2713008133796E+01
 0.2956857433347E+01
 0.3379850162005E+01
 0.4003117711151E+01
 0.4825390965767E+01
 0.5814979724777E+01
 0.6906747453255E+01
 0.4849128401482E+01
 0.5011457275923E+01
 0.5180190948925E+01
 0.5338368059842E+01
 0.5471898059190E+01
 0.5572035282344E+01
 0.5635604208388E+01
 0.5663690428714E+01
 0.5659859181127E+01
 0.5628630807997E+01
 0.5574481590305E+01
 0.5501338214691E+01
 0.5412422078288E+01
 0.5310296085668E+01
 0.5196996825550E+01
 0.5074177145402E+01
 0.4943430447221E+01
 0.4806526992421E+01
 0.4664919536813E+01
 0.4519290934247E+01
 0.4369716746032E+01
 0.4215919421867E+01
 0.4057500929054E+01
 0.3894164422496E+01
 0.3725935686951E+01
 0.3553402699640E+01
 0.3377985762033E+01
 0.3202193380580E+01
 0.3029982606133E+01
 0.2867429854970E+01
 0.2723641401825E+01
 0.2611889804886E+01
 0.2550963844046E+01
 0.2566161409990E+01
 0.2688509597213E+01
 0.2950653844710E+01
 0.3380054493562E+01
 0.3991714030093E+01
 0.4780784212882E+01
 0.5716634572170E+01
 0.6742421018982E+01
 0.4649081018260E+01
 0.4799396834064E+01
 0.4956124631655E+01
 0.5104299011431E+01
 0.5231139561990E+01
 0.5328238983989E+01
 0.5391973673398E+01
 0.5422588173144E+01
 0.5422763713899E+01
 0.5396295029011E+01
 0.5347155838625E+01
 0.5278975850307E+01
 0.5194834043558E+01
 0.5097249454061E+01
 0.4988265559565E+01
 0.4869558817414E+01
 0.4742731447387E+01
 0.4609533751943E+01
 0.4471411881555E+01
 0.4329099933754E+01
 0.4182785790994E+01
 0.4032356481071E+01
 0.3877619439693E+01
 0.3718513763003E+01
 0.3555324638004E+01
 0.3388919432136E+01
 0.3221015892634E+01
 0.3054440773844E+01
 0.2893488168408E+01
 0.2744564080657E+01
 0.2617044813630E+01
 0.2524305711202E+01
 0.2484816668591E+01
 0.2522634289893E+01
 0.2665983104505E+01
 0.2942947761572E+01
 0.3375489087942E+01
 0.3973728566564E+01
 0.4730279269466E+01
 0.5616002893926E+01
 0.6581092314092E+01
 0.4451831567979E+01
 0.4591131809235E+01
 0.4736720659198E+01
 0.4875356022286E+01
 0.4995461261369E+01
 0.5089045245134E+01
 0.5152217364554E+01
 0.5184569115613E+01
 0.5188035087725E+01
 0.5165757973621E+01
 0.5121231267547E+01
 0.5057778295576E+01
 0.4978311015930E+01
 0.4885276035423E+01
 0.4780698186918E+01
 0.4666258985858E+01
 0.4543559308586E+01
 0.4414326661525E+01
 0.4280001648006E+01
 0.4141370502485E+01
 0.3998731729435E+01
 0.3852132287294E+01
 0.3701578209374E+01
 0.3547235857253E+01
 0.3389638505861E+01
 0.3229916685669E+01
 0.3070061268715E+01
 0.2913181128295E+01
 0.2763855923764E+01
 0.2628751565880E+01
 0.2517421058280E+01
 0.2443213003866E+01
 0.2424100903802E+01
 0.2482711730368E+01
 0.2644433441323E+01
 0.2933153462701E+01
 0.3366148990512E+01
 0.3949667411227E+01
 0.4674588044480E+01
 0.5513505011324E+01
 0.6422357205727E+01
 0.4257100975965E+01
 0.4386270782072E+01
 0.4521507597573E+01
 0.4651064834063E+01
 0.4764467234852E+01
 0.4854186168044E+01
 0.4916203747657E+01
 0.4949616133072E+01
 0.4955735787003E+01
 0.4937127524462E+01
 0.4896834149811E+01
 0.4837871838484E+01
 0.4762968442732E+01
 0.4674475237304E+01
 0.4574376643494E+01
 0.4464342651059E+01
 0.4345962975082E+01
 0.4220938619875E+01
 0.4090704240087E+01
 0.3956097647673E+01
 0.3817525069689E+01
 0.3675187597799E+01
 0.3529281505099E+01
 0.3380189677190E+01
 0.3228679620697E+01
 0.3076126264555E+01
 0.2924767528489E+01
 0.2777958231592E+01
 0.2640514621524E+01
 0.2519298185444E+01
 0.2423953345741E+01
 0.2367684684347E+01
 0.2367816916469E+01
 0.2445413142458E+01
 0.2623067011990E+01
 0.2920862198756E+01
 0.3352116096998E+01
 0.3920015446665E+01
 0.4614315897790E+01
 0.5409374116044E+01
 0.6265872152533E+01
 0.4064640940434E+01
 0.4184468329472E+01
 0.4310067025241E+01
 0.4430995407672E+01
 0.4537783981085E+01
 0.4623390914853E+01
 0.4683778051262E+01
 0.4717677398248E+01
 0.4725890303090E+01
 0.4710475756240E+01
 0.4674059842770E+01
 0.4619357499850E+01
 0.4548901812264E+01
 0.4464930949949E+01
 0.4369370701917E+01
 0.4263864878840E+01
 0.4149982676370E+01
 0.4029394247872E+01
 0.3903526678252E+01
 0.3773267509263E+01
 0.3639126676225E+01
 0.3501452554193E+01
 0.3360622039617E+01
 0.3217222174831E+01
 0.3072238969705E+01
 0.2927271312450E+01
 0.2784777304491E+01
 0.2648322415443E+01
 0.2522913651744E+01
 0.2415549245423E+01
 0.2335887495177E+01
 0.2296883832070E+01
 0.2315087108285E+01
 0.2409911692531E+01
 0.2601256584379E+01
 0.2905799594732E+01
 0.3333528539133E+01
 0.3885224320577E+01
 0.4549958173597E+01
 0.5303776926064E+01
 0.6111355813249E+01
 0.3874228521242E+01
 0.3985416951419E+01
 0.4102024947950E+01
 0.4214756302361E+01
 0.4315059815401E+01
 0.4396389616224E+01
 0.4454768577194E+01
 0.4488672910762E+01
 0.4498490534486E+01
 0.4485842767461E+01
 0.4452975192816E+01
 0.4402312365170E+01
 0.4336187260102E+01
 0.4256711693491E+01
 0.4165737856120E+01
 0.4064870577135E+01
 0.3955649720238E+01
 0.3839709792449E+01
 0.3718467689320E+01
 0.3592857716854E+01
 0.3463488501517E+01
 0.3330847921343E+01
 0.3195482847820E+01
 0.3058170886864E+01
 0.2920099540211E+01
 0.2783070280859E+01
 0.2649734531602E+01
 0.2523834689921E+01
 0.2410526226295E+01
 0.2316890700290E+01
 0.2252530096859E+01
 0.2230057619195E+01
 0.2265144097176E+01
 0.2375513779294E+01
 0.2578511060626E+01
 0.2887792764988E+01
 0.3310558593992E+01
 0.3845705290682E+01
 0.4481928269867E+01
 0.5196853067262E+01
 0.5958574792726E+01
 0.3685661764065E+01
 0.3788840528822E+01
 0.3897044648326E+01
 0.4001989593301E+01
 0.4095963648639E+01
 0.4172915917920E+01
 0.4228991550616E+01
 0.4262499925086E+01
 0.4273500576271E+01
 0.4263240306670E+01
 0.4233620979364E+01
 0.4186791065402E+01
 0.4124882354492E+01
 0.4049870942715E+01
 0.3963523375508E+01
 0.3867394434822E+01
 0.3762986440916E+01
 0.3651893177964E+01
 0.3535517933553E+01
 0.3414837864110E+01
 0.3290554395797E+01
 0.3163286335973E+01
 0.3033739072030E+01
 0.2902866315128E+01
 0.2772039276214E+01
 0.2643240324649E+01
 0.2519287984643E+01
 0.2404069928208E+01
 0.2302851507181E+01
 0.2222749375311E+01
 0.2173245971527E+01
 0.2166531119751E+01
 0.2217319405124E+01
 0.2341640480877E+01
 0.2554450061921E+01
 0.2866744971450E+01
 0.3283396800648E+01
 0.3801830474412E+01
 0.4410579980333E+01
 0.5088727820268E+01
 0.5807333644823E+01
 0.3498756128321E+01
 0.3594488978235E+01
 0.3694820705862E+01
 0.3792366325292E+01
 0.3880183412118E+01
 0.3952708527621E+01
 0.4006254798279E+01
 0.4039037416211E+01
 0.4050860912356E+01
 0.4042655138540E+01
 0.4016014327773E+01
 0.3972827348662E+01
 0.3915027022951E+01
 0.3844447607349E+01
 0.3762760514689E+01
 0.3671461010396E+01
 0.3572006288007E+01
 0.3465944187046E+01
 0.3354660346827E+01
 0.3239170075856E+01
 0.3120260970736E+01
 0.2998673546340E+01
 0.2875259647285E+01
 0.2751134087939E+01
 0.2627833672291E+01
 0.2507500175476E+01
 0.2393094135003E+01
 0.2288619243817E+01
 0.2199415885841E+01
 0.2132592449744E+01
 0.2097455187474E+01
 0.2105701122268E+01
 0.2171032805131E+01
 0.2307811016001E+01
 0.2528782836282E+01
 0.2842616074048E+01
 0.3252241562972E+01
 0.3753936882298E+01
 0.4336222200849E+01
 0.4979516230578E+01
 0.5657467864735E+01
 0.3313341544517E+01
 0.3402133848898E+01
 0.3495073972063E+01
 0.3585582472017E+01
 0.3667424303851E+01
 0.3735512034847E+01
 0.3786360494809E+01
 0.3818149720321E+01
 0.3830492046724E+01
 0.3824052123219E+01
 0.3800151042090E+01
 0.3760435696673E+01
 0.3706644586245E+01
 0.3640466645501E+01
 0.3563470863186E+01
 0.3477084957343E+01
 0.3382714042707E+01
 0.3281854755520E+01
 0.3175870580113E+01
 0.3065809648566E+01
 0.2952538498887E+01
 0.2836909629661E+01
 0.2719908882260E+01
 0.2602796911086E+01
 0.2487258032110E+01
 0.2375572545824E+01
 0.2270819413715E+01
 0.2177091691444E+01
 0.2099773590702E+01
 0.2045926407635E+01
 0.2024629829841E+01
 0.2047030090314E+01
 0.2125782423717E+01
 0.2273628189862E+01
 0.2501290884134E+01
 0.2815407629363E+01
 0.3217292569103E+01
 0.3702330695100E+01
 0.4259128430405E+01
 0.4869324661180E+01
 0.5508839029978E+01
 0.3129259968405E+01
 0.3211564666394E+01
 0.3297547325825E+01
 0.3381355356478E+01
 0.3457406970250E+01
 0.3521077208154E+01
 0.3569107173651E+01
 0.3599689478121E+01
 0.3612297622991E+01
 0.3607377003006E+01
 0.3586007826377E+01
 0.3549612951019E+01
 0.3499742871108E+01
 0.3437939789396E+01
 0.3365664819698E+01
 0.3284271373456E+01
 0.3195106149260E+01
 0.3099609368864E+01
 0.2999117522639E+01
 0.2894705750099E+01
 0.2787311836186E+01
 0.2677890179205E+01
 0.2567547936013E+01
 0.2457676321079E+01
 0.2350089421289E+01
 0.2247186116634E+01
 0.2152141964082E+01
 0.2069115409996E+01
 0.2003506774196E+01
 0.1962295620870E+01
 0.1954290665151E+01
 0.1990040368930E+01
 0.2081135655517E+01
 0.2238765718221E+01
 0.2471813752528E+01
 0.2785151619499E+01
 0.3178746661233E+01
 0.3647291021261E+01
 0.4179543178045E+01
 0.4758251762306E+01
 0.5361331222433E+01
 0.2946363329913E+01
 0.3022585871124E+01
 0.3102002066691E+01
 0.3179420482850E+01
 0.3249865695727E+01
 0.3309160921495E+01
 0.3354291162289E+01
 0.3383499996063E+01
 0.3396167088256E+01
 0.3392558905378E+01
 0.3373544378084E+01
 0.3340339924825E+01
 0.3294315379080E+01
 0.3236866365487E+01
 0.3169342177158E+01
 0.3093016262996E+01
 0.3009171151953E+01
 0.2919185550954E+01
 0.2824363899481E+01
 0.2725802169802E+01
 0.2624501360496E+01
 0.2521507458372E+01
 0.2418036195437E+01
 0.2315594256725E+01
 0.2216108346176E+01
 0.2122077160562E+01
 0.2036752961348E+01
 0.1964338312917E+01
 0.1910225206151E+01
 0.1881280693692E+01
 0.1886003804664E+01
 0.1934308702764E+01
 0.2036720910517E+01
 0.2202957285039E+01
 0.2440237491442E+01
 0.2751901951221E+01
 0.3136795260958E+01
 0.3589073050954E+01
 0.4097686587462E+01
 0.4646389396157E+01
 0.5214848302754E+01
 0.2764511797505E+01
 0.2835014232742E+01
 0.2908214829888E+01
 0.2979528729553E+01
 0.3044546644018E+01
 0.3099525822229E+01
 0.3141707570696E+01
 0.3169417127755E+01
 0.3181977959764E+01
 0.3179512582142E+01
 0.3162705349112E+01
 0.3132582985310E+01
 0.3090342495558E+01
 0.3037234195391E+01
 0.2974492808024E+01
 0.2903307103681E+01
 0.2824890231509E+01
 0.2740554440216E+01
 0.2651566939582E+01
 0.2559038116015E+01
 0.2464023925365E+01
 0.2367651525075E+01
 0.2271232563454E+01
 0.2176374468874E+01
 0.2085100191716E+01
 0.1999990851275E+01
 0.1924357570436E+01
 0.1862428417595E+01
 0.1819565678465E+01
 0.1802496668645E+01
 0.1819377440631E+01
 0.1879461107841E+01
 0.1992220187322E+01
 0.2165987168742E+01
 0.2406485315828E+01
 0.2715728049130E+01
 0.3091622803822E+01
 0.3527910714885E+01
 0.4013758010080E+01
 0.4533823613296E+01
 0.5069311750647E+01
 0.2583572295599E+01
 0.2648676646608E+01
 0.2715974928092E+01
 0.2781443855485E+01
 0.2841206175800E+01
 0.2891939823933E+01
 0.2931150937083E+01
 0.2957270765684E+01
 0.2969597753340E+01
 0.2968140412592E+01
 0.2953422180731E+01
 0.2926295602360E+01
 0.2887792730835E+01
 0.2839020570068E+01
 0.2781097444376E+01
 0.2715123515474E+01
 0.2642237840084E+01
 0.2563681454319E+01
 0.2480679116958E+01
 0.2394349065450E+01
 0.2305793835883E+01
 0.2216211337038E+01
 0.2126996674187E+01
 0.2039843792455E+01
 0.1956856453159E+01
 0.1880682307203E+01
 0.1814675606035E+01
 0.1763073892851E+01
 0.1731191206736E+01
 0.1725591170440E+01
 0.1754058707724E+01
 0.1825168121285E+01
 0.1947362445967E+01
 0.2127682264895E+01
 0.2370510077847E+01
 0.2676710032556E+01
 0.3043405851364E+01
 0.3464018973422E+01
 0.3927938919981E+01
 0.4420635649897E+01
 0.4924658909810E+01
 0.2403417225417E+01
 0.2463408237265E+01
 0.2525082041579E+01
 0.2584940274862E+01
 0.2639609254428E+01
 0.2686175485651E+01
 0.2722415615714E+01
 0.2746886023225E+01
 0.2758885632457E+01
 0.2758334205484E+01
 0.2745614828583E+01
 0.2721419868513E+01
 0.2686623994183E+01
 0.2642193297963E+01
 0.2589128555171E+01
 0.2528438036012E+01
 0.2461182442437E+01
 0.2388527053593E+01
 0.2311648977638E+01
 0.2231667679240E+01
 0.2149723863875E+01
 0.2067075858355E+01
 0.1985190059525E+01
 0.1905833310669E+01
 0.1831175798754E+01
 0.1763917416362E+01
 0.1707441952717E+01
 0.1665982891725E+01
 0.1644790097944E+01
 0.1650242545618E+01
 0.1689730705834E+01
 0.1771140440215E+01
 0.1901917739764E+01
 0.2087905336250E+01
 0.2332288216847E+01
 0.2634935097306E+01
 0.2992312673297E+01
 0.3397595833239E+01
 0.3840395380340E+01
 0.4306902900360E+01
 0.4780841538922E+01
 0.2223923349361E+01
 0.2279050708341E+01
 0.2335344191836E+01
 0.2389801060154E+01
 0.2439527943650E+01
 0.2482009324120E+01
 0.2515295977422E+01
 0.2538084179708E+01
 0.2549693837990E+01
 0.2549976842387E+01
 0.2539193405261E+01
 0.2517888008303E+01
 0.2486784914562E+01
 0.2446711840077E+01
 0.2398551335268E+01
 0.2343217020151E+01
 0.2281687384152E+01
 0.2215047627499E+01
 0.2144422079859E+01
 0.2070924815956E+01
 0.1995726335109E+01
 0.1920135201963E+01
 0.1845677303495E+01
 0.1774179449621E+01
 0.1707865004449E+01
 0.1649473487726E+01
 0.1602406796632E+01
 0.1570883226112E+01
 0.1560074939418E+01
 0.1576158041475E+01
 0.1626109708725E+01
 0.1717124951352E+01
 0.1855692056844E+01
 0.2046549331597E+01
 0.2291814913553E+01
 0.2590494821414E+01
 0.2938503164121E+01
 0.3328824156803E+01
 0.3751280176820E+01
 0.4192699829821E+01
 0.4637824613673E+01
 0.2044970806318E+01
 0.2095450889389E+01
 0.2146575944228E+01
 0.2195816136778E+01
 0.2240739996779E+01
 0.2279221096028E+01
 0.2309586485001E+01
 0.2330683458672E+01
 0.2341868963572E+01
 0.2342943816192E+01
 0.2334059783435E+01
 0.2315623912511E+01
 0.2288216240213E+01
 0.2252528564286E+01
 0.2209324840978E+01
 0.2159421702241E+01
 0.2103711930123E+01
 0.2043196552069E+01
 0.1978942099686E+01
 0.1912050696999E+01
 0.1843714345741E+01
 0.1775281865286E+01
 0.1708327239730E+01
 0.1644725055174E+01
 0.1586739808643E+01
 0.1537139775075E+01
 0.1499335715084E+01
 0.1477521930475E+01
 0.1476781552823E+01
 0.1503072056724E+01
 0.1562942574636E+01
 0.1662901145840E+01
 0.1808522817373E+01
 0.2003532629402E+01
 0.2249100225979E+01
 0.2543483185488E+01
 0.2882129001134E+01
 0.3257873306636E+01
 0.3660734684782E+01
 0.4078098809517E+01
 0.4495585324375E+01
 0.1866442230940E+01
 0.1912459438549E+01
 0.1958596793704E+01
 0.2002780637490E+01
 0.2043027535690E+01
 0.2077593083647E+01
 0.2105081704214E+01
 0.2124499714295E+01
 0.2135253154077E+01
 0.2137104738295E+01
 0.2130109227505E+01
 0.2114544761531E+01
 0.2090852380500E+01
 0.2059590184352E+01
 0.2021403341887E+01
 0.1977009496797E+01
 0.1927212555642E+01
 0.1872925507295E+01
 0.1815152196682E+01
 0.1754976322719E+01
 0.1693603206891E+01
 0.1632412154272E+01
 0.1573014278913E+01
 0.1517320526587E+01
 0.1467625747725E+01
 0.1426717922410E+01
 0.1398009666294E+01
 0.1385664753768E+01
 0.1394667947617E+01
 0.1430744488120E+01
 0.1500004368924E+01
 0.1608277908873E+01
 0.1760274971161E+01
 0.1958795078475E+01
 0.2204166027386E+01
 0.2493995150136E+01
 0.2823333977746E+01
 0.3184900651272E+01
 0.3568890513881E+01
 0.3963170865650E+01
 0.4354112237646E+01
 0.1688221954151E+01
 0.1729929666357E+01
 0.1771229694086E+01
 0.1810493388948E+01
 0.1846175820724E+01
 0.1876909421148E+01
 0.1901576320681E+01
 0.1919347119439E+01
 0.1929685333409E+01
 0.1932324926028E+01
 0.1927232167596E+01
 0.1914562853890E+01
 0.1894623209972E+01
 0.1867839509740E+01
 0.1834738023367E+01
 0.1795935681676E+01
 0.1752144644477E+01
 0.1704186218588E+01
 0.1652996811506E+01
 0.1599635314864E+01
 0.1545312290542E+01
 0.1491427958307E+01
 0.1439620008685E+01
 0.1391825121656E+01
 0.1350359056344E+01
 0.1318022388170E+01
 0.1298224919576E+01
 0.1295095611948E+01
 0.1313513300983E+01
 0.1358959191433E+01
 0.1437096204827E+01
 0.1553090670577E+01
 0.1710837641532E+01
 0.1912294724209E+01
 0.2157043601544E+01
 0.2442125670969E+01
 0.2762254464156E+01
 0.3110052951569E+01
 0.3475870960910E+01
 0.3847986340601E+01
 0.4213404591979E+01
 0.1510195265354E+01
 0.1547716450847E+01
 0.1584299696616E+01
 0.1618755508588E+01
 0.1649972121621E+01
 0.1676955516196E+01
 0.1698865263383E+01
 0.1715038995425E+01
 0.1725002631154E+01
 0.1728467260669E+01
 0.1725316321407E+01
 0.1715587858316E+01
 0.1699456365941E+01
 0.1677217751701E+01
 0.1649279300823E+01
 0.1616155741466E+01
 0.1578464888249E+01
 0.1536932931385E+01
 0.1492424214986E+01
 0.1445966507593E+01
 0.1398767589563E+01
 0.1352239163541E+01
 0.1308035310986E+01
 0.1268108621671E+01
 0.1234787759410E+01
 0.1210880922683E+01
 0.1199792967026E+01
 0.1205616027936E+01
 0.1233116985523E+01
 0.1287522571134E+01
 0.1374043305976E+01
 0.1497198902967E+01
 0.1660121264202E+01
 0.1864005124398E+01
 0.2107771778908E+01
 0.2387969059997E+01
 0.2699019960613E+01
 0.3033467641823E+01
 0.3381792295542E+01
 0.3732615468449E+01
 0.4073471700229E+01
 0.1332247719213E+01
 0.1365675217651E+01
 0.1397632667637E+01
 0.1427369098832E+01
 0.1454204721855E+01
 0.1477517666943E+01
 0.1496744111836E+01
 0.1511389034155E+01
 0.1521042321496E+01
 0.1525394679705E+01
 0.1524249567683E+01
 0.1517529926608E+01
 0.1505280507057E+01
 0.1487667882380E+01
 0.1464980271864E+01
 0.1437628926433E+01
 0.1406134969611E+01
 0.1371126223935E+01
 0.1333390426949E+01
 0.1293917902712E+01
 0.1253905581223E+01
 0.1214767237159E+01
 0.1178163440086E+01
 0.1146053685301E+01
 0.1120773164847E+01
 0.1105135207469E+01
 0.1102540463550E+01
 0.1117044581609E+01
 0.1153297661661E+01
 0.1216262311009E+01
 0.1310693293201E+01
 0.1440483947468E+01
 0.1608055173938E+01
 0.1813913172769E+01
 0.2056395520113E+01
 0.2331618623444E+01
 0.2633753718333E+01
 0.2955274018502E+01
 0.3286764900143E+01
 0.3617128867920E+01
 0.3934332433305E+01
 0.1154264471751E+01
 0.1183660961524E+01
 0.1211054059111E+01
 0.1236136043627E+01
 0.1258662143800E+01
 0.1278383090006E+01
 0.1295010155492E+01
 0.1308213435134E+01
 0.1317644935113E+01
 0.1322974079374E+01
 0.1323924440494E+01
 0.1320304612535E+01
 0.1312030543014E+01
 0.1299140115614E+01
 0.1281802429779E+01
 0.1260324201147E+01
 0.1235127747501E+01
 0.1206739408787E+01
 0.1175865767250E+01
 0.1143453230128E+01
 0.1110679565306E+01
 0.1078951023212E+01
 0.1049924909565E+01
 0.1025559503321E+01
 0.1008192128511E+01
 0.1000641833126E+01
 0.1006309256783E+01
 0.1029216389538E+01
 0.1073892448747E+01
 0.1145026257433E+01
 0.1246914698545E+01
 0.1382847158286E+01
 0.1554585596544E+01
 0.1762017361022E+01
 0.2002964871604E+01
 0.2273166522277E+01
 0.2566573410874E+01
 0.2875594349310E+01
 0.3190894283113E+01
 0.3501597955772E+01
 0.3796014760340E+01
 0.9761296323652E+00
 0.1001527288053E+01
 0.1024387710741E+01
 0.1044856957225E+01
 0.1063132829887E+01
 0.1079340887814E+01
 0.1093464990514E+01
 0.1105335207714E+01
 0.1114660125010E+01
 0.1121083483422E+01
 0.1124246317914E+01
 0.1123841840466E+01
 0.1119657215048E+01
 0.1111602002693E+01
 0.1099726229825E+01
 0.1084231257952E+01
 0.1065438683539E+01
 0.1043770296453E+01
 0.1019846799628E+01
 0.9945637875596E+00
 0.9690709603390E+00
 0.9447569174319E+00
 0.9232659174545E+00
 0.9065479680600E+00
 0.8969408001857E+00
 0.8972739315436E+00
 0.9109566003465E+00
 0.9419826330104E+00
 0.9947561872237E+00
 0.1073681468742E+01
 0.1182595711308E+01
 0.1324208348932E+01
 0.1499674008918E+01
 0.1708326421447E+01
 0.1947534232982E+01
 0.2212703814007E+01
 0.2497591844679E+01
 0.2794544916096E+01
 0.3094281984768E+01
 0.3386095283188E+01
 0.3658555319525E+01
 0.7977256215225E+00
 0.8191254578546E+00
 0.8374546740211E+00
 0.8533304690138E+00
 0.8674059656446E+00
 0.8801854414328E+00
 0.8919211170708E+00
 0.9025940972830E+00
 0.9119596325052E+00
 0.9196275396978E+00
 0.9251509035922E+00
 0.9281049089686E+00
 0.9281472891242E+00
 0.9250596068572E+00
 0.9187731214256E+00
 0.9093833103129E+00
 0.8971092699119E+00
 0.8822650498058E+00
 0.8653802500904E+00
 0.8472918208025E+00
 0.8291112627130E+00
 0.8121982954373E+00
 0.7981741053997E+00
 0.7889749457613E+00
 0.7869413067818E+00
 0.7949240761857E+00
 0.8163557121358E+00
 0.8552101541934E+00
 0.9157608041935E+00
 0.1002113448631E+01
 0.1117643165013E+01
 0.1264504532402E+01
 0.1443295835585E+01
 0.1652858302096E+01
 0.1890161887537E+01
 0.2150320643623E+01
 0.2426917701934E+01
 0.2712237006391E+01
 0.2997026395576E+01
 0.3270694797666E+01
 0.3521998991628E+01
 0.6189325341109E+00
 0.6363034264249E+00
 0.6500720879672E+00
 0.6613535137856E+00
 0.6712757767833E+00
 0.6807272188640E+00
 0.6902207543354E+00
 0.6998735812323E+00
 0.7094715748376E+00
 0.7185776682313E+00
 0.7266487476100E+00
 0.7331381391199E+00
 0.7375734323891E+00
 0.7396090209148E+00
 0.7390583237201E+00
 0.7359108053454E+00
 0.7302812948248E+00
 0.7223724550986E+00
 0.7126164207036E+00
 0.7017817283651E+00
 0.6909291470888E+00
 0.6813762437151E+00
 0.6747107636464E+00
 0.6728526577658E+00
 0.6781546157767E+00
 0.6935097456204E+00
 0.7223969893267E+00
 0.7687811462472E+00
 0.8367947969992E+00
 0.9302255907657E+00
 0.1051981781279E+01
 0.1203688950266E+01
 0.1385439455989E+01
 0.1595639435396E+01
 0.1830909757041E+01
 0.2086106558258E+01
 0.2354656311729E+01
 0.2628777869948E+01
 0.2899223509210E+01
 0.3155472033509E+01
 0.3386398446022E+01
 0.4396275568210E+00
 0.4529049243784E+00
 0.4620523220970E+00
 0.4687255933564E+00
 0.4745594688359E+00
 0.4808326893816E+00
 0.4883023610816E+00
 0.4971937447547E+00
 0.5072955707245E+00
 0.5181035573327E+00
 0.5289673298595E+00
 0.5392149135839E+00
 0.5482449963603E+00
 0.5555878781269E+00
 0.5609418047216E+00
 0.5641908860292E+00
 0.5653437155125E+00
 0.5644868112607E+00
 0.5619460043622E+00
 0.5584076162061E+00
 0.5548644625550E+00
 0.5525751640682E+00
 0.5530839374921E+00
 0.5582986299842E+00
 0.5706075295388E+00
 0.5929843412144E+00
 0.6289905424207E+00
 0.6825929785333E+00
 0.7577628557484E+00
 0.8579388791061E+00
 0.9855536987327E+00
 0.1141730392774E+01
 0.1326105503336E+01
 0.1536704269137E+01
 0.1769843349691E+01
 0.2020150924705E+01
 0.2280910446444E+01
 0.2544271657936E+01
 0.2800967637568E+01
 0.3040504236842E+01
 0.3251813624506E+01
 0.2596848448596E+00
 0.2687690023482E+00
 0.2732039598099E+00
 0.2752769026758E+00
 0.2771973574303E+00
 0.2806395478214E+00
 0.2865511231714E+00
 0.2951868213223E+00
 0.3062710196945E+00
 0.3191947697965E+00
 0.3331914728878E+00
 0.3474725103197E+00
 0.3613228917151E+00
 0.3741632302701E+00
 0.3855863397636E+00
 0.3953743756234E+00
 0.4034273340876E+00
 0.4097083524364E+00
 0.4144224384233E+00
 0.4181508439484E+00
 0.4217917181160E+00
 0.4265225757906E+00
 0.4338382210672E+00
 0.4456566133895E+00
 0.4644557810894E+00
 0.4933614478486E+00
 0.5360716039897E+00
 0.5965582358754E+00
 0.6785856602248E+00
 0.7851919214821E+00
 0.9183183356701E+00
 0.1078612822064E+01
 0.1265306442957E+01
 0.1476095036463E+01
 0.1707031876740E+01
 0.1952543431521E+01
 0.2205781138771E+01
 0.2458820362582E+01
 0.2702352122982E+01
 0.2925870437453E+01
 0.3118311121946E+01
 0.7898402768698E-01
 0.8373847197901E-01
 0.8336556045420E-01
 0.8132371444002E-01
 0.8086240526792E-01
 0.8393457784629E-01
 0.9094019407747E-01
 0.1013870818214E+00
 0.1146133975232E+00
 0.1300165735285E+00
 0.1469988228352E+00
 0.1649195552753E+00
 0.1831258090912E+00
 0.2010197611248E+00
 0.2181211700854E+00
 0.2341065197710E+00
 0.2487470476467E+00
 0.2618556994412E+00
 0.2734759550117E+00
 0.2840292218322E+00
 0.2942659867814E+00
 0.3052517940101E+00
 0.3184453424840E+00
 0.3358480787823E+00
 0.3601541968262E+00
 0.3947749925016E+00
 0.4436129185504E+00
 0.5106051480075E+00
 0.5991999197438E+00
 0.7119414588186E+00
 0.8502526713796E+00
 0.1014335325703E+01
 0.1203066426591E+01
 0.1413861749026E+01
 0.1642548519488E+01
 0.1883374658516E+01
 0.2129368509697E+01
 0.2372524772445E+01
 0.2603470093459E+01
 0.2811651496007E+01
 0.2985963406559E+01
 0.1026805479455E+00
 0.1024375528011E+00
 0.1079368294590E+00
 0.1165479146472E+00
 0.1254372083014E+00
 0.1320401052822E+00
 0.1346706091013E+00
 0.1327566866681E+00
 0.1267635034899E+00
 0.1179951924102E+00
 0.1083947101439E+00
 0.1003239837600E+00
 0.9612634615283E-01
 0.9730581456765E-01
 0.1038283872189E+00
 0.1144032288873E+00
 0.1273789249619E+00
 0.1413054001018E+00
 0.1552072592858E+00
 0.1687144172257E+00
 0.1820184073964E+00
 0.1958643171695E+00
 0.2116601268690E+00
 0.2316528658015E+00
 0.2590171857354E+00
 0.2976554948307E+00
 0.3516566996105E+00
 0.4246788616345E+00
 0.5195588047050E+00
 0.6381636267112E+00
 0.7813520967691E+00
 0.9489124515324E+00
 0.1139421429440E+01
 0.1350062405483E+01
 0.1576470834805E+01
 0.1812736696826E+01
 0.2051772588145E+01
 0.2285485449007E+01
 0.2504415322846E+01
 0.2697930176727E+01
 0.2854847829928E+01
 0.2853461669976E+00
 0.2898292826479E+00
 0.3005244525761E+00
 0.3137721048564E+00
 0.3259932961805E+00
 0.3342393321550E+00
 0.3366211512094E+00
 0.3324122261329E+00
 0.3218762468360E+00
 0.3059657265569E+00
 0.2860158691066E+00
 0.2635013453747E+00
 0.2398751895395E+00
 0.2164787151251E+00
 0.1944957907673E+00
 0.1749229795083E+00
 0.1586026267385E+00
 0.1461354125058E+00
 0.1375457228390E+00
 0.1322770999924E+00
 0.1296800961434E+00
 0.1296663930471E+00
 0.1334132966016E+00
 0.1439042080061E+00
 0.1656768390670E+00
 0.2033912894989E+00
 0.2604135790253E+00
 0.3387449168601E+00
 0.4396331317365E+00
 0.5638565429592E+00
 0.7116321103542E+00
 0.8823750141762E+00
 0.1074419690532E+01
 0.1284763416212E+01
 0.1508881295412E+01
 0.1740723804241E+01
 0.1973094087482E+01
 0.2197803708149E+01
 0.2405283272733E+01
 0.2584791350407E+01
 0.2725045330450E+01
 0.4692241183767E+00
 0.4787015617313E+00
 0.4948646601009E+00
 0.5132411990661E+00
 0.5295707380601E+00
 0.5404740006757E+00
 0.5438749981372E+00
 0.5390409596648E+00
 0.5263333810463E+00
 0.5068380477137E+00
 0.4820077947956E+00
 0.4533860248113E+00
 0.4224258368923E+00
 0.3903891795743E+00
 0.3582982058043E+00
 0.3269154855163E+00
 0.2968431142051E+00
 0.2685694450449E+00
 0.2421654106912E+00
 0.2170996100477E+00
 0.1924354556693E+00
 0.1671856428852E+00
 0.1410180415766E+00
 0.1161467356601E+00
 0.1021866687206E+00
 0.1179680758455E+00
 0.1706730707428E+00
 0.2527999843995E+00
 0.3594143094806E+00
 0.4890455066191E+00
 0.6411313880503E+00
 0.8147715319713E+00
 0.1008122496223E+01
 0.1218040254741E+01
 0.1439867971833E+01
 0.1667433086751E+01
 0.1893435083900E+01
 0.2109582543370E+01
 0.2306172400871E+01
 0.2472322520644E+01
 0.2596638718856E+01
 0.6544679843215E+00
 0.6692581368760E+00
 0.6911868296312E+00
 0.7149391588103E+00
 0.7355503279991E+00
 0.7492022432348E+00
 0.7536539038625E+00
 0.7482155919126E+00
 0.7334110457096E+00
 0.7105301731582E+00
 0.6812204616016E+00
 0.6471846608433E+00
 0.6099924443814E+00
 0.5709824534638E+00
 0.5312205307798E+00
 0.4914871741012E+00
 0.4523967455521E+00
 0.4144667024368E+00
 0.3777887762369E+00
 0.3417883327615E+00
 0.3053472362405E+00
 0.2669693775589E+00
 0.2249685297693E+00
 0.1778428916482E+00
 0.1255997278400E+00
 0.7776855547435E-01
 0.8670227824889E-01
 0.1669157214529E+00
 0.2789223824622E+00
 0.4137939821057E+00
 0.5699172961022E+00
 0.7461705783044E+00
 0.9406053759152E+00
 0.1149978356769E+01
 0.1369525376698E+01
 0.1592965214633E+01
 0.1812899522274E+01
 0.2020927340335E+01
 0.2207185792289E+01
 0.2360615029021E+01
 0.2469710396092E+01
 0.8412485842283E+00
 0.8617263831202E+00
 0.8897643918377E+00
 0.9191298614485E+00
 0.9441096074515E+00
 0.9604451309609E+00
 0.9657669919243E+00
 0.9594851481748E+00
 0.9423431925037E+00
 0.9158824253278E+00
 0.8819793777028E+00
 0.8425209506557E+00
 0.7992143596211E+00
 0.7534980160887E+00
 0.7065116464075E+00
 0.6590946273150E+00
 0.6119245708274E+00
 0.5656019999409E+00
 0.5202991460146E+00
 0.4754938382722E+00
 0.4300881441774E+00
 0.3825524705469E+00
 0.3310367412162E+00
 0.2734858732226E+00
 0.2078346202001E+00
 0.1326557749512E+00
 0.5398302539838E-01
 0.8155877277839E-01
 0.1982334056293E+00
 0.3382292354686E+00
 0.4980961649942E+00
 0.6766645730896E+00
 0.8719598271585E+00
 0.1080674298534E+01
 0.1297955506557E+01
 0.1517425218596E+01
 0.1731593477044E+01
 0.1931946081846E+01
 0.2108433044853E+01
 0.2249766560778E+01
 0.2344339317750E+01
 0.1029750198463E+01
 0.1056353630599E+01
 0.1090896380047E+01
 0.1126126711621E+01
 0.1155528608869E+01
 0.1174408959804E+01
 0.1180321656959E+01
 0.1172846153661E+01
 0.1153009784456E+01
 0.1122651145468E+01
 0.1083902363990E+01
 0.1038846232015E+01
 0.9893307008895E+00
 0.9368942762525E+00
 0.8827522353450E+00
 0.8278084220244E+00
 0.7728133502836E+00
 0.7184616776184E+00
 0.6650177489382E+00
 0.6120288214984E+00
 0.5584510587075E+00
 0.5028000576998E+00
 0.4432581332551E+00
 0.3777639033188E+00
 0.3041065171537E+00
 0.2200472269624E+00
 0.1235527652617E+00
 0.1810808882862E-01
 0.1176185873059E+00
 0.2626118587786E+00
 0.4258337932281E+00
 0.6063760342764E+00
 0.8022957717967E+00
 0.1010237299240E+01
 0.1225269122797E+01
 0.1440923475363E+01
 0.1649625166443E+01
 0.1842748525394E+01
 0.2010031954634E+01
 0.2139886049705E+01
 0.2220596801516E+01
 0.1220172438850E+01
 0.1253410224987E+01
 0.1294909617240E+01
 0.1336274761608E+01
 0.1370125286014E+01
 0.1391349728614E+01
 0.1397495063315E+01
 0.1388395580564E+01
 0.1365434650480E+01
 0.1330795431717E+01
 0.1286888684176E+01
 0.1235998613872E+01
 0.1180109549488E+01
 0.1120852103035E+01
 0.1059509807896E+01
 0.9970468508200E+00
 0.9342861629079E+00
 0.8720181169994E+00
 0.8106011315469E+00
 0.7496541596890E+00
 0.6881916996848E+00
 0.6247857128253E+00
 0.5576805712593E+00
 0.4848860586554E+00
 0.4042692158292E+00
 0.3136601669114E+00
 0.2109839552343E+00
 0.9447624453768E-01
 0.3941510141193E-01
 0.1875710809071E+00
 0.3534005299499E+00
 0.5354683877662E+00
 0.7317451007595E+00
 0.9387911164385E+00
 0.1151587294593E+01
 0.1363577062340E+01
 0.1567104967603E+01
 0.1753443606832E+01
 0.1912108601293E+01
 0.2031102699999E+01
 0.2098540634417E+01
 0.1412733029446E+01
 0.1453193822214E+01
 0.1502163162219E+01
 0.1549949767011E+01
 0.1588242439633E+01
 0.1611542674280E+01
 0.1617482481234E+01
 0.1606254113183E+01
 0.1579678104788E+01
 0.1540330465791E+01
 0.1490920027856E+01
 0.1433932495355E+01
 0.1371478522334E+01
 0.1305267518622E+01
 0.1236639176067E+01
 0.1166609600083E+01
 0.1096069973004E+01
 0.1025905219200E+01
 0.9565676460638E+00
 0.8877473122694E+00
 0.8185157443554E+00
 0.7475002921600E+00
 0.6730091197022E+00
 0.5931315436613E+00
 0.5058353195494E+00
 0.4090808355680E+00
 0.3009824424894E+00
 0.1801614924729E+00
 0.5066940218912E-01
 0.1152345083671E+00
 0.2812840535211E+00
 0.4641659780283E+00
 0.6604669604213E+00
 0.8664764629902E+00
 0.1077043180239E+01
 0.1285511617201E+01
 0.1484146283623E+01
 0.1664134467729E+01
 0.1814792099891E+01
 0.1923581858530E+01
 0.1978205746161E+01
 0.1607671329030E+01
 0.1656034774757E+01
 0.1713053970074E+01
 0.1767560661518E+01
 0.1810243958192E+01
 0.1835270976030E+01
 0.1840478405123E+01
 0.1826539697965E+01
 0.1795802146863E+01
 0.1751282422336E+01
 0.1696001915551E+01
 0.1632641828224E+01
 0.1563423499578E+01
 0.1490117213277E+01
 0.1414103085820E+01
 0.1336437982806E+01
 0.1258075331713E+01
 0.1179992507058E+01
 0.1102735131996E+01
 0.1026063317171E+01
 0.9491032865263E+00
 0.8705345814802E+00
 0.7887260921588E+00
 0.7018443132435E+00
 0.6079549329404E+00
 0.5051393654573E+00
 0.3916585417876E+00
 0.2662701738911E+00
 0.1301657572538E+00
 0.5857495139671E-01
 0.2105245148697E+00
 0.3927944858797E+00
 0.5886560528695E+00
 0.7934541239093E+00
 0.1001784173736E+01
 0.1206863186316E+01
 0.1400869242011E+01
 0.1574912358209E+01
 0.1718195087144E+01
 0.1817551088198E+01
 0.1859585536823E+01
 0.1805252745829E+01
 0.1862302843041E+01
 0.1928023780024E+01
 0.1989553174556E+01
 0.2036513042123E+01
 0.2062818744736E+01
 0.2066665722023E+01
 0.2049354148030E+01
 0.2013854876123E+01
 0.1963670157197E+01
 0.1902141458118E+01
 0.1832132267601E+01
 0.1755953032475E+01
 0.1675412503360E+01
 0.1591912247944E+01
 0.1506536571232E+01
 0.1420293986027E+01
 0.1334251932454E+01
 0.1249048918329E+01
 0.1164514114524E+01
 0.1079825945667E+01
 0.9937126518614E+00
 0.9046004324240E+00
 0.8107300700040E+00
 0.7102614963527E+00
 0.6013878064447E+00
 0.4824879420631E+00
 0.3523811435658E+00
 0.2113933838630E+00
 0.7584264214734E-01
 0.1439679265438E+00
 0.3218718267984E+00
 0.5165566687531E+00
 0.7199089125907E+00
 0.9259748266005E+00
 0.1127779675409E+01
 0.1317404929082E+01
 0.1485867267069E+01
 0.1622347670167E+01
 0.1713352567961E+01
 0.1742579451442E+01
 0.2005774307350E+01
 0.2072415607651E+01
 0.2147567438452E+01
 0.2216413951026E+01
 0.2267450297226E+01
 0.2294464284114E+01
 0.2296206604074E+01
 0.2274773579215E+01
 0.2233861168481E+01
 0.2177495845047E+01
 0.2109337180824E+01
 0.2032409243632E+01
 0.1949083667132E+01
 0.1861180811004E+01
 0.1770101671272E+01
 0.1676942772630E+01
 0.1582759729163E+01
 0.1488707707822E+01
 0.1395518037397E+01
 0.1303088111713E+01
 0.1210645947947E+01
 0.1116964952942E+01
 0.1020525679720E+01
 0.9196416252935E+00
 0.8125659922173E+00
 0.6976003198846E+00
 0.5732309559780E+00
 0.4383256555035E+00
 0.2927932025086E+00
 0.1423835415344E+00
 0.9215569916418E-01
 0.2523418228840E+00
 0.4444882187790E+00
 0.6460556341217E+00
 0.8497986125438E+00
 0.1048427780330E+01
 0.1233885239812E+01
 0.1397134565279E+01
 0.1527146519510E+01
 0.1611250223494E+01
 0.1627252606389E+01
 0.2209571760945E+01
 0.2286849102556E+01
 0.2372242946232E+01
 0.2448674811117E+01
 0.2503470620714E+01
 0.2530471981315E+01
 0.2529232953164E+01
 0.2502839795629E+01
 0.2455815698843E+01
 0.2392739226075E+01
 0.2317573691082E+01
 0.2233472273523E+01
 0.2142833264652E+01
 0.2047457442485E+01
 0.1948720328825E+01
 0.1847713705974E+01
 0.1745531676323E+01
 0.1643415062663E+01
 0.1542188458411E+01
 0.1441816771989E+01
 0.1341574745192E+01
 0.1240277258595E+01
 0.1136456770570E+01
 0.1028499482816E+01
 0.9147538645104E+00
 0.7936319916841E+00
 0.6637277632749E+00
 0.5239644106917E+00
 0.3740286274401E+00
 0.2166184877097E+00
 0.8758368313849E-01
 0.1862806861191E+00
 0.3728970322251E+00
 0.5721470412971E+00
 0.7734630888997E+00
 0.9689882476738E+00
 0.1150479353686E+01
 0.1308771452400E+01
 0.1432910622278E+01
 0.1509601369729E+01
 0.1520308097925E+01
 0.2417028734157E+01
 0.2506151380465E+01
 0.2602683575860E+01
 0.2686916731616E+01
 0.2744997917343E+01
 0.2771081764811E+01
 0.2765835422481E+01
 0.2733551611878E+01
 0.2679677013597E+01
 0.2609353658590E+01
 0.2526818697314E+01
 0.2435312149708E+01
 0.2337217852965E+01
 0.2234281790041E+01
 0.2127826450322E+01
 0.2018920280941E+01
 0.1908686754903E+01
 0.1798450723970E+01
 0.1689131106055E+01
 0.1580759669065E+01
 0.1472654533906E+01
 0.1363667997619E+01
 0.1252382401774E+01
 0.1137258203944E+01
 0.1016743931747E+01
 0.8893685794498E+00
 0.7538403314552E+00
 0.6091520407103E+00
 0.4548764821303E+00
 0.2924238621951E+00
 0.1348807753743E+00
 0.1294071563866E+00
 0.3024732795246E+00
 0.4984879040846E+00
 0.6972015383143E+00
 0.8896685893453E+00
 0.1067354128309E+01
 0.1220966761651E+01
 0.1339465495534E+01
 0.1409490822816E+01
 0.1416720295622E+01
 0.2628588707144E+01
 0.2730959986315E+01
 0.2839612439321E+01
 0.2931772896008E+01
 0.2992456475882E+01
 0.3016495156946E+01
 0.3006050474365E+01
 0.2966855809323E+01
 0.2905362300574E+01
 0.2827263383906E+01
 0.2737021452034E+01
 0.2637909688722E+01
 0.2532250242809E+01
 0.2421695645245E+01
 0.2307485451860E+01
 0.2190644627737E+01
 0.2072316453082E+01
 0.1953908766286E+01
 0.1836436570193E+01
 0.1719997768432E+01
 0.1603949773449E+01
 0.1487177668216E+01
 0.1368312037805E+01
 0.1245890755400E+01
 0.1118469911600E+01
 0.9847054734534E+00
 0.8434312218939E+00
 0.6937269646254E+00
 0.5351209849407E+00
 0.3683780620347E+00
 0.1996160128133E+00
 0.9873700393531E-01
 0.2344546013522E+00
 0.4254586281175E+00
 0.6212799291983E+00
 0.8106963016274E+00
 0.9847187517956E+00
 0.1133864145811E+01
 0.1246979751966E+01
 0.1311242245194E+01
 0.1314342048698E+01
 0.2844770883898E+01
 0.2962024690225E+01
 0.3083859882589E+01
 0.3183929739164E+01
 0.3246257437684E+01
 0.3266856889524E+01
 0.3249845181585E+01
 0.3202637812594E+01
 0.3132742940772E+01
 0.3046361900867E+01
 0.2948112288254E+01
 0.2841235484490E+01
 0.2727939624325E+01
 0.2609742596560E+01
 0.2487769196510E+01
 0.2362979231765E+01
 0.2236525751643E+01
 0.2109899214187E+01
 0.1984213215316E+01
 0.1859630816179E+01
 0.1735543574780E+01
 0.1610863968872E+01
 0.1484269622236E+01
 0.1354380765487E+01
 0.1219871338523E+01
 0.1079537725599E+01
 0.9323542509521E+00
 0.7775070087244E+00
 0.6145297831098E+00
 0.4438403817246E+00
 0.2687999342249E+00
 0.1161227207658E+00
 0.1715426791204E+00
 0.3535638235671E+00
 0.5460015950129E+00
 0.7323278302694E+00
 0.9028001988669E+00
 0.1047659578006E+01
 0.1155685571999E+01
 0.1214722481734E+01
 0.1213803311152E+01
 0.3066191560201E+01
 0.3200237366242E+01
 0.3336383984462E+01
 0.3444124217519E+01
 0.3506778209848E+01
 0.3522230970343E+01
 0.3497099737982E+01
 0.3440712492829E+01
 0.3361641190167E+01
 0.3266511575753E+01
 0.3160003165296E+01
 0.3045250414741E+01
 0.2924291751329E+01
 0.2798467990005E+01
 0.2668755941761E+01
 0.2536026995051E+01
 0.2401433294458E+01
 0.2266548236511E+01
 0.2132587249321E+01
 0.1999777039155E+01
 0.1867536726509E+01
 0.1734799894113E+01
 0.1600290630056E+01
 0.1462718575497E+01
 0.1320888789555E+01
 0.1173754815913E+01
 0.1020449653339E+01
 0.8602867374523E+00
 0.6928451416906E+00
 0.5183587606123E+00
 0.3388849891478E+00
 0.1659645015598E+00
 0.1209640627162E+00
 0.2835410230555E+00
 0.4717179254412E+00
 0.6548466452656E+00
 0.8218519488977E+00
 0.9625907222776E+00
 0.1065763416649E+01
 0.1119877328145E+01
 0.1115128760630E+01
 0.3293593384787E+01
 0.3446671669486E+01
 0.3598294141564E+01
 0.3713134415996E+01
 0.3774331900580E+01
 0.3782570085938E+01
 0.3747588024443E+01
 0.3680815845515E+01
 0.3591828531167E+01
 0.3487544721373E+01
 0.3372589238632E+01
 0.3249906771035E+01
 0.3121309476360E+01
 0.2987919134176E+01
 0.2850530599412E+01
 0.2709901809861E+01
 0.2567172336925E+01
 0.2423999399501E+01
 0.2281704103590E+01
 0.2140574337185E+01
 0.2000048315559E+01
 0.1859073496970E+01
 0.1716420891912E+01
 0.1570899228500E+01
 0.1421461239063E+01
 0.1267237649688E+01
 0.1107541185752E+01
 0.9418353854878E+00
 0.7697791222258E+00
 0.5915238178846E+00
 0.4084453338095E+00
 0.2265173052101E+00
 0.1007995129612E+00
 0.2166465442524E+00
 0.3988445928484E+00
 0.5785647061388E+00
 0.7421528556708E+00
 0.8789135425122E+00
 0.9773764216549E+00
 0.1026613326474E+01
 0.1018192747469E+01
 0.3527886186522E+01
 0.3702636264470E+01
 0.3870877024963E+01
 0.3991758820830E+01
 0.4049122890574E+01
 0.4047677445966E+01
 0.4000957179939E+01
 0.3922598688577E+01
 0.3823026377632E+01
 0.3709266418774E+01
 0.3585751499816E+01
 0.3455149930681E+01
 0.3318993461644E+01
 0.3178145508396E+01
 0.3033185041336E+01
 0.2884729389876E+01
 0.2733892241328E+01
 0.2582415754454E+01
 0.2431730862673E+01
 0.2282182607340E+01
 0.2133217435287E+01
 0.1983788652645E+01
 0.1832716386152E+01
 0.1678921477331E+01
 0.1521524525338E+01
 0.1359856699419E+01
 0.1193434173922E+01
 0.1021895044369E+01
 0.8450100352857E+00
 0.6629191857090E+00
 0.4766292179416E+00
 0.2897034417056E+00
 0.1239741106631E+00
 0.1555375529072E+00
 0.3278943941023E+00
 0.5038235106673E+00
 0.6639995082709E+00
 0.7968960680574E+00
 0.8906813894648E+00
 0.9348319337171E+00
 0.9227583834175E+00
 0.3770205131498E+01
 0.3969746928276E+01
 0.4155622694899E+01
 0.4280776771542E+01
 0.4331183574412E+01
 0.4317160847095E+01
 0.4256708048377E+01
 0.4165623958928E+01
 0.4054909888598E+01
 0.3931459330836E+01
 0.3799360522186E+01
 0.3660920500110E+01
 0.3517342907183E+01
 0.3369198745377E+01
 0.3216818207244E+01
 0.3060648163541E+01
 0.2901760403800E+01
 0.2741982710176E+01
 0.2582859700168E+01
 0.2424787079496E+01
 0.2267205726295E+01
 0.2109066438975E+01
 0.1949243531612E+01
 0.1786787309629E+01
 0.1621010418658E+01
 0.1451470795042E+01
 0.1277914096484E+01
 0.1100179004486E+01
 0.9181793545180E+00
 0.7320996441431E+00
 0.5427570031340E+00
 0.3525363971456E+00
 0.1713924605013E+00
 0.1073098199461E+00
 0.2595520203526E+00
 0.4309951894565E+00
 0.5876970772020E+00
 0.7168124890880E+00
 0.8058531565702E+00
 0.8444411048573E+00
 0.8284680226379E+00
 0.4021995494680E+01
 0.4250025059450E+01
 0.4454245570978E+01
 0.4580878211194E+01
 0.4620286371583E+01
 0.4590380243058E+01
 0.4514179687017E+01
 0.4409369575064E+01
 0.4287115598484E+01
 0.4153890671761E+01
 0.4013281313896E+01
 0.3867156857933E+01
 0.3716356135643E+01
 0.3561132136958E+01
 0.3401535740476E+01
 0.3237810036333E+01
 0.3070964562794E+01
 0.2902911768592E+01
 0.2735312435007E+01
 0.2568602687756E+01
 0.2402200614079E+01
 0.2235046864355E+01
 0.2066079658056E+01
 0.1894501679932E+01
 0.1719846021687E+01
 0.1541926339875E+01
 0.1360745554950E+01
 0.1176370254252E+01
 0.9888888319129E+00
 0.7985789255581E+00
 0.6061861550725E+00
 0.4134825596578E+00
 0.2258930322245E+00
 0.8958167462260E-01
 0.1948726224613E+00
 0.3604868794349E+00
 0.5135466712844E+00
 0.6389351582562E+00
 0.7231023353340E+00
 0.7553647743000E+00
 0.7348206023237E+00
 0.4285139439328E+01
 0.4546033104306E+01
 0.4768688714950E+01
 0.4892544138585E+01
 0.4915824997192E+01
 0.4866393045176E+01
 0.4772542809175E+01
 0.4653239007296E+01
 0.4519253350819E+01
 0.4376321357374E+01
 0.4227379233582E+01
 0.4073798026588E+01
 0.3916030872101E+01
 0.3753999365384E+01
 0.3587448800237E+01
 0.3416380783524E+01
 0.3241715481139E+01
 0.3065445329308E+01
 0.2889346473679E+01
 0.2713879607112E+01
 0.2538419150727E+01
 0.2361890695437E+01
 0.2183313377384E+01
 0.2002072228407E+01
 0.1817953360698E+01
 0.1631056876067E+01
 0.1441671609677E+01
 0.1250120190791E+01
 0.1056697749760E+01
 0.8618213263767E+00
 0.6662545725463E+00
 0.4714577693164E+00
 0.2808693522769E+00
 0.1121946072165E+00
 0.1359193511254E+00
 0.2927544615164E+00
 0.4418282133178E+00
 0.5635144893036E+00
 0.6426831200025E+00
 0.6675607300983E+00
 0.6411432049903E+00
 0.4562151156920E+01
 0.4861061064197E+01
 0.5101087368626E+01
 0.5215849297989E+01
 0.5216661274711E+01
 0.5143906551708E+01
 0.5030808799842E+01
 0.4896581369841E+01
 0.4750922604854E+01
 0.4598517191821E+01
 0.4441526872513E+01
 0.4280786817077E+01
 0.4116364073328E+01
 0.3947852100702E+01
 0.3774671563906E+01
 0.3596539732858E+01
 0.3414250026721E+01
 0.3229862933646E+01
 0.3045262587216E+01
 0.2860910171964E+01
 0.2676112351034E+01
 0.2489781091889E+01
 0.2301044569279E+01
 0.2109508807489E+01
 0.1915249106212E+01
 0.1718683019380E+01
 0.1520413544430E+01
 0.1321047631597E+01
 0.1121120325538E+01
 0.9212349576968E+00
 0.7222512205949E+00
 0.5255056799404E+00
 0.3334809810981E+00
 0.1542801578443E+00
 0.8822904968041E-01
 0.2283420412380E+00
 0.3727780183126E+00
 0.4907363981584E+00
 0.5648846616682E+00
 0.5810534527306E+00
 0.5465642306948E+00
 0.4856487140661E+01
 0.5199381537562E+01
 0.5453642575157E+01
 0.5550145292012E+01
 0.5520941868349E+01
 0.5421255098603E+01
 0.5287861891608E+01
 0.5138721674731E+01
 0.4981732646996E+01
 0.4820261777763E+01
 0.4655611747374E+01
 0.4488073236710E+01
 0.4317351222472E+01
 0.4142736037717E+01
 0.3963316716070E+01
 0.3778478205383E+01
 0.3588834708581E+01
 0.3396489567815E+01
 0.3203415225876E+01
 0.3010037465862E+01
 0.2815569827705E+01
 0.2618924650065E+01
 0.2419383652249E+01
 0.2216822659415E+01
 0.2011644425623E+01
 0.1804612864577E+01
 0.1596671190259E+01
 0.1388738243581E+01
 0.1181623319789E+01
 0.9761657677159E+00
 0.7733975282194E+00
 0.5746712571610E+00
 0.3820092478980E+00
 0.1999654580150E+00
 0.6786273683616E-01
 0.1679980306367E+00
 0.3065643631704E+00
 0.4206449756374E+00
 0.4899886166623E+00
 0.4959857631692E+00
 0.4500141631143E+00
 0.5173058104409E+01
 0.5566589536280E+01
 0.5828305050021E+01
 0.5893567780412E+01
 0.5825910060021E+01
 0.5696430473415E+01
 0.5542520250103E+01
 0.5378999753658E+01
 0.5211325824132E+01
 0.5041370662897E+01
 0.4869544569121E+01
 0.4695618242398E+01
 0.4518985150323E+01
 0.4338684898804E+01
 0.4153487877192E+01
 0.3962395834209E+01
 0.3765769762770E+01
 0.3565707057020E+01
 0.3364226449351E+01
 0.3161665911062E+01
 0.2957124342731E+01
 0.2749551290052E+01
 0.2538449752620E+01
 0.2324025106130E+01
 0.2107045034498E+01
 0.1888643050555E+01
 0.1670124010914E+01
 0.1452744525446E+01
 0.1237623899851E+01
 0.1025891987637E+01
 0.8188334748238E+00
 0.6179395740786E+00
 0.4250607214766E+00
 0.2432485342820E+00
 0.8606328653933E-01
 0.1130691610527E+00
 0.2432752959323E+00
 0.3530173266068E+00
 0.4181552290606E+00
 0.4126853432258E+00
 0.3503648163365E+00
 0.5519110454197E+01
 0.5970023345533E+01
 0.6226066662440E+01
 0.6242307611359E+01
 0.6127783491660E+01
 0.5967203354270E+01
 0.5793623934789E+01
 0.5616814153935E+01
 0.5439402901644E+01
 0.5261705945113E+01
 0.5083267769306E+01
 0.4903398064487E+01
 0.4721254736706E+01
 0.4535711967581E+01
 0.4345267379373E+01
 0.4148493234220E+01
 0.3945393935357E+01
 0.3737970305095E+01
 0.3528205115732E+01
 0.3316274130093E+01
 0.3101155541942E+01
 0.2881912195547E+01
 0.2658367333784E+01
 0.2431125637327E+01
 0.2201351583516E+01
 0.1970560786162E+01
 0.1740433243392E+01
 0.1512586485394E+01
 0.1288487777352E+01
 0.1069618882400E+01
 0.8576060233864E+00
 0.6541995754160E+00
 0.4612861843895E+00
 0.2812642116221E+00
 0.1201007372198E+00
 0.6724860568423E-01
 0.1829612961668E+00
 0.2871873489061E+00
 0.3491659283653E+00
 0.3317161384405E+00
 0.2472864958696E+00
 0.5905822606614E+01
 0.6419175996125E+01
 0.6645448484891E+01
 0.6589635597399E+01
 0.6421856646298E+01
 0.6231364419374E+01
 0.6040132143196E+01
 0.5851668002895E+01
 0.5665749601271E+01
 0.5481190070187E+01
 0.5296763950783E+01
 0.5111409446712E+01
 0.4924144391141E+01
 0.4733799006695E+01
 0.4538696932891E+01
 0.4336958251922E+01
 0.4128090201206E+01
 0.3913831468965E+01
 0.3695973817447E+01
 0.3474430045253E+01
 0.3248091535988E+01
 0.3016274764790E+01
 0.2779260843153E+01
 0.2538129311717E+01
 0.2294460589003E+01
 0.2050147296981E+01
 0.1807245523899E+01
 0.1567753132059E+01
 0.1333527536500E+01
 0.1106473807557E+01
 0.8886591514325E+00
 0.6822187796564E+00
 0.4892572183971E+00
 0.3119755601646E+00
 0.1538281380145E+00
 0.4462610855409E-01
 0.1258650089368E+00
 0.2218649768016E+00
 0.2819031509125E+00
 0.2538129228341E+00
 0.1472625493157E+00
 0.6351379230092E+01
 0.6925685519812E+01
 0.7079364444772E+01
 0.6924912875476E+01
 0.6703114722685E+01
 0.6487044504788E+01
 0.6281200121990E+01
 0.6083220501994E+01
 0.5890260981841E+01
 0.5699817632881E+01
 0.5510063877355E+01
 0.5319676075505E+01
 0.5127636154696E+01
 0.4932883345582E+01
 0.4733747394300E+01
 0.4527940508703E+01
 0.4314292852689E+01
 0.4093977755879E+01
 0.3868307243861E+01
 0.3636807268591E+01
 0.3398406037054E+01
 0.3152913350260E+01
 0.2901247026075E+01
 0.2645033401960E+01
 0.2386266158007E+01
 0.2127183401866E+01
 0.1870198665104E+01
 0.1617704800771E+01
 0.1372000841309E+01
 0.1135501677802E+01
 0.9108256592999E+00
 0.7006239613208E+00
 0.5073983461854E+00
 0.3334825152931E+00
 0.1814840371133E+00
 0.5972585886336E-01
 0.7343997219086E-01
 0.1551985895927E+00
 0.2134513653956E+00
 0.1794529963487E+00
 0.1117778225157E+00
 0.6887374297007E+01
 0.7501296106934E+01
 0.7508845777370E+01
 0.7233663400750E+01
 0.6967659107679E+01
 0.6732891689331E+01
 0.6516248966104E+01
 0.6311346750827E+01
 0.6112955771846E+01
 0.5917666294859E+01
 0.5723252670423E+01
 0.5528256211518E+01
 0.5331717483844E+01
 0.5132846534830E+01
 0.4930271954327E+01
 0.4721503516920E+01
 0.4504496913241E+01
 0.4279293903171E+01
 0.4046187005627E+01
 0.3804199541504E+01
 0.3552607490125E+01
 0.3292094649961E+01
 0.3024424795242E+01
 0.2751823180236E+01
 0.2476662681844E+01
 0.2201458349904E+01
 0.1928930720300E+01
 0.1661876048202E+01
 0.1403107743982E+01
 0.1155661127738E+01
 0.9228218924003E+00
 0.7078864890891E+00
 0.5139426158476E+00
 0.3437609753559E+00
 0.1999118715287E+00
 0.8607551446912E-01
 0.3566999193108E-01
 0.8645621719050E-01
 0.1383909459119E+00
 0.1079989140432E+00
 0.2234515775981E+00
 0.7573630539235E+01
 0.8147340654048E+01
 0.7891848268321E+01
 0.7502183171205E+01
 0.7214310712175E+01
 0.6967802076881E+01
 0.6745183127182E+01
 0.6536145367968E+01
 0.6333991812298E+01
 0.6134903891633E+01
 0.5936473550982E+01
 0.5737250140711E+01
 0.5536398424793E+01
 0.5333514737870E+01
 0.5127935260962E+01
 0.4917530813221E+01
 0.4699272512690E+01
 0.4470972310182E+01
 0.4230878021403E+01
 0.3977524882143E+01
 0.3711215672939E+01
 0.3434057140246E+01
 0.3148862974969E+01
 0.2858466666941E+01
 0.2565548177320E+01
 0.2272783827612E+01
 0.1983094554195E+01
 0.1699677991359E+01
 0.1425985387181E+01
 0.1165822279472E+01
 0.9232475541812E+00
 0.7023139219177E+00
 0.5068984091095E+00
 0.3405389476662E+00
 0.2063545601960E+00
 0.1072456507650E+00
 0.4818811773741E-01
 0.3918288889663E-01
 0.6270311423956E-01
 0.5028639123259E-01
 0.4125348675447E+00
 0.8538045993859E+01
 0.8806567709037E+01
 0.8154107607228E+01
 0.7733353100739E+01
 0.7441698660640E+01
 0.7191575907539E+01
 0.6968457872087E+01
 0.6757917223420E+01
 0.6553689405775E+01
 0.6351784539385E+01
 0.6149932014324E+01
 0.5946803025258E+01
 0.5741737927382E+01
 0.5534697188494E+01
 0.5326114658980E+01
 0.5115528018973E+01
 0.4899293425887E+01
 0.4670722426184E+01
 0.4424023031215E+01
 0.4157802223859E+01
 0.3874722595400E+01
 0.3578984405102E+01
 0.3274587073856E+01
 0.2964908340225E+01
 0.2652826063944E+01
 0.2341016567873E+01
 0.2032383083445E+01
 0.1730496202465E+01
 0.1439696657533E+01
 0.1164769393704E+01
 0.9105934696071E+00
 0.6820532778759E+00
 0.4840250346827E+00
 0.3212278131471E+00
 0.1978376047743E+00
 0.1175602670459E+00
 0.8212797193055E-01
 0.9265315770111E-01
 0.1347236532249E+00
 0.1354971389067E+00
 0.6905209806030E+00
 0.1010996378582E+02
 0.9117608715779E+01
 0.8287521945970E+01
 0.7939186572618E+01
 0.7646355807851E+01
 0.7406532264870E+01
 0.7186523830108E+01
 0.6977340148335E+01
 0.6772479836483E+01
 0.6568658731202E+01
 0.6363892684787E+01
 0.6157107473550E+01
 0.5947853448435E+01
 0.5736319212158E+01
 0.5523813401493E+01
 0.5314150142176E+01
 0.5105420457320E+01
 0.4881206055146E+01
 0.4627699351395E+01
 0.4346084671790E+01
 0.4043536190951E+01
 0.3726973104173E+01
 0.3401566546989E+01
 0.3071064783201E+01
 0.2738396278107E+01
 0.2406095682468E+01
 0.2076580479474E+01
 0.1753669077238E+01
 0.1443208864769E+01
 0.1151216862171E+01
 0.8832630414479E+00
 0.6451071576167E+00
 0.4428571910788E+00
 0.2828205683244E+00
 0.1711385808247E+00
 0.1124410187304E+00
 0.1109895648322E+00
 0.1628144901629E+00
 0.3032812601463E+00
 0.4173449932775E+00
 0.1201946310418E+01
 0.3828081089475E+00
 0.5512080721073E+00
 0.7437715169327E+00
 0.9332843285913E+00
 0.1103082972689E+01
 0.1244749995610E+01
 0.1355406325887E+01
 0.1435665162127E+01
 0.1488000428242E+01
 0.1515459174160E+01
 0.1520707801650E+01
 0.1505359104296E+01
 0.1470314321891E+01
 0.1416496193306E+01
 0.1344869759387E+01
 0.1256489538230E+01
 0.1152507290731E+01
 0.1034060916992E+01
 0.9036121350493E+00
 0.7541333187408E+00
 0.3762496439437E+00
 0.5409563225572E+00
 0.7287268070758E+00
 0.9150132514910E+00
 0.1084051563487E+01
 0.1227287140171E+01
 0.1341295175435E+01
 0.1426007361950E+01
 0.1483263866916E+01
 0.1515624259755E+01
 0.1525436108300E+01
 0.1514161757220E+01
 0.1482662810916E+01
 0.1431777961651E+01
 0.1362380221322E+01
 0.1275567402875E+01
 0.1172510734155E+01
 0.1054616349287E+01
 0.9188900613499E+00
 0.7582624472854E+00
 0.3710078929844E+00
 0.5332478215850E+00
 0.7171630735378E+00
 0.9006539425933E+00
 0.1068903830576E+01
 0.1213393891400E+01
 0.1330293050732E+01
 0.1418973392409E+01
 0.1480723505835E+01
 0.1517649393788E+01
 0.1531771944278E+01
 0.1524403686666E+01
 0.1496339262783E+01
 0.1448329817529E+01
 0.1381195705866E+01
 0.1295962519527E+01
 0.1193692150994E+01
 0.1074307638032E+01
 0.9338891542093E+00
 0.7737014229336E+00
 0.3667422377570E+00
 0.5277456323414E+00
 0.7086907970396E+00
 0.8898291438700E+00
 0.1057329678034E+01
 0.1202834313043E+01
 0.1322239723744E+01
 0.1414464599687E+01
 0.1480318821209E+01
 0.1521490572356E+01
 0.1539690527067E+01
 0.1536071226239E+01
 0.1511345386650E+01
 0.1466179257930E+01
 0.1401310301125E+01
 0.1317617802505E+01
 0.1215658208710E+01
 0.1094629047789E+01
 0.9525406786994E+00
 0.7937586576170E+00
 0.3632751037994E+00
 0.5240972883721E+00
 0.7029387173702E+00
 0.8821809406550E+00
 0.1049022031259E+01
 0.1195369303258E+01
 0.1316962145061E+01
 0.1412362676150E+01
 0.1481969437984E+01
 0.1527093276693E+01
 0.1549154368136E+01
 0.1549141547768E+01
 0.1527674658563E+01
 0.1485323688900E+01
 0.1422708869939E+01
 0.1340460399275E+01
 0.1238741591484E+01
 0.1116908999358E+01
 0.9744792302783E+00
 0.8169135584537E+00
 0.3604744143419E+00
 0.5220247902451E+00
 0.6995606950703E+00
 0.8773700363957E+00
 0.1043682074921E+01
 0.1190757207114E+01
 0.1314277087794E+01
 0.1412534209346E+01
 0.1485580088918E+01
 0.1534389603280E+01
 0.1560114807480E+01
 0.1563581414173E+01
 0.1545305862380E+01
 0.1505747352432E+01
 0.1445374456036E+01
 0.1364580389128E+01
 0.1263386330787E+01
 0.1141492849459E+01
 0.9994027491246E+00
 0.8427109437752E+00
 0.3582357910072E+00
 0.5212968609244E+00
 0.6982497304784E+00
 0.8750777166129E+00
 0.1041020644298E+01
 0.1188756147231E+01
 0.1313993582026E+01
 0.1414833945751E+01
 0.1491042350410E+01
 0.1543299033184E+01
 0.1572511553308E+01
 0.1579345739452E+01
 0.1564206017730E+01
 0.1527428266189E+01
 0.1469325300855E+01
 0.1390124600866E+01
 0.1289833140894E+01
 0.1168471664646E+01
 0.1027114247358E+01
 0.8710596272004E+00
 0.3564724365289E+00
 0.5217173908049E+00
 0.6987329129367E+00
 0.8750084268691E+00
 0.1040759517471E+01
 0.1189125770545E+01
 0.1315915178659E+01
 0.1419106884706E+01
 0.1498236192367E+01
 0.1553729052879E+01
 0.1586272549812E+01
 0.1596378148962E+01
 0.1584333101156E+01
 0.1550347083191E+01
 0.1494595764955E+01
 0.1417199149713E+01
 0.1318197200013E+01
 0.1197845498652E+01
 0.1057505755135E+01
 0.9019907724169E+00
 0.3551098542806E+00
 0.5231164496921E+00
 0.7007662387745E+00
 0.8768885103358E+00
 0.1042632390646E+01
 0.1191628628508E+01
 0.1319841655102E+01
 0.1425189931210E+01
 0.1507031186443E+01
 0.1565575811400E+01
 0.1601314413445E+01
 0.1614611943132E+01
 0.1605638407430E+01
 0.1574483406725E+01
 0.1521207810369E+01
 0.1445859849058E+01
 0.1348516485897E+01
 0.1229581501314E+01
 0.1090519941933E+01
 0.9355826402172E+00
 0.3540825483466E+00
 0.5253441191854E+00
 0.7041296168281E+00
 0.8804640839968E+00
 0.1046384827150E+01
 0.1196031168991E+01
 0.1325570338656E+01
 0.1432913205519E+01
 0.1517287538881E+01
 0.1578724846239E+01
 0.1617543050414E+01
 0.1633970849531E+01
 0.1628065715305E+01
 0.1599807312061E+01
 0.1549160136832E+01
 0.1476117979810E+01
 0.1380780665767E+01
 0.1263629425974E+01
 0.1126119064831E+01
 0.9719288569454E+00
 0.3533318319506E+00
 0.5282660120982E+00
 0.7086226592097E+00
 0.8854986324118E+00
 0.1051773658006E+01
 0.1202104246511E+01
 0.1332897100056E+01
 0.1442101103941E+01
 0.1528857007856E+01
 0.1593051811626E+01
 0.1634854198786E+01
 0.1654368917529E+01
 0.1651548686755E+01
 0.1626273950436E+01
 0.1578425550685E+01
 0.1507948487936E+01
 0.1414945918697E+01
 0.1299923839493E+01
 0.1164261861394E+01
 0.1011094037610E+01
 0.3528043022885E+00
 0.5317599728976E+00
 0.7140612234428E+00
 0.8917707044549E+00
 0.1058566101216E+01
 0.1209623292532E+01
 0.1341617067188E+01
 0.1452573171009E+01
 0.1541583713553E+01
 0.1608423117602E+01
 0.1653133689591E+01
 0.1675709793629E+01
 0.1676008624911E+01
 0.1653820996800E+01
 0.1608951833291E+01
 0.1541296489032E+01
 0.1450942243118E+01
 0.1338382597798E+01
 0.1204887043823E+01
 0.1053094149776E+01
 0.3524507401058E+00
 0.5357136029170E+00
 0.7202746090193E+00
 0.8990718395121E+00
 0.1066538786342E+01
 0.1218368264982E+01
 0.1351525130138E+01
 0.1464144823507E+01
 0.1555304851613E+01
 0.1624696455653E+01
 0.1672257511321E+01
 0.1697886009384E+01
 0.1701353143484E+01
 0.1682368015855E+01
 0.1640663719121E+01
 0.1576081885218E+01
 0.1488677114970E+01
 0.1378904630582E+01
 0.1247908003589E+01
 0.1097896412874E+01
 0.3522252985794E+00
 0.5400223829140E+00
 0.7271032966407E+00
 0.9072047632644E+00
 0.1075476789389E+01
 0.1228123471550E+01
 0.1362416293327E+01
 0.1476627947985E+01
 0.1569851304377E+01
 0.1641721220707E+01
 0.1692091832975E+01
 0.1720778536504E+01
 0.1727475650596E+01
 0.1711816832318E+01
 0.1673464975171E+01
 0.1612202543376E+01
 0.1528037404809E+01
 0.1421369056995E+01
 0.1293212742379E+01
 0.1145422120975E+01
 0.3520848968670E+00
 0.5445882378557E+00
 0.7343971329100E+00
 0.9159818532133E+00
 0.1085172739568E+01
 0.1238677338336E+01
 0.1374085928887E+01
 0.1489831404883E+01
 0.1585048178882E+01
 0.1659338898826E+01
 0.1712493115402E+01
 0.1744256686795E+01
 0.1754255429385E+01
 0.1742052386175E+01
 0.1707240298507E+01
 0.1649536578487E+01
 0.1568890774221E+01
 0.1465635405779E+01
 0.1340663931225E+01
 0.1195548791879E+01
 0.3519887636016E+00
 0.5493184367953E+00
 0.7420138803619E+00
 0.9252238578760E+00
 0.1095426031838E+01
 0.1249822175864E+01
 0.1386329978776E+01
 0.1503561478075E+01
 0.1600715315535E+01
 0.1677383486435E+01
 0.1733308377687E+01
 0.1768178334041E+01
 0.1781558120916E+01
 0.1772943810411E+01
 0.1741857015745E+01
 0.1687944183618E+01
 0.1611086984820E+01
 0.1511544125519E+01
 0.1390098999687E+01
 0.1248112510979E+01
 0.3518980901736E+00
 0.5541247487378E+00
 0.7498180640986E+00
 0.9347588423197E+00
 0.1106042156035E+01
 0.1261353972191E+01
 0.1398945137828E+01
 0.1517622299839E+01
 0.1616667799707E+01
 0.1695681974152E+01
 0.1754375623831E+01
 0.1792390385868E+01
 0.1809236451904E+01
 0.1804345588820E+01
 0.1777166620945E+01
 0.1727269220799E+01
 0.1654459127979E+01
 0.1558917233667E+01
 0.1441330729268E+01
 0.1302911050941E+01
 0.3517757692979E+00
 0.5589227980005E+00
 0.7576800617577E+00
 0.9444213339791E+00
 0.1116832145590E+01
 0.1273072233893E+01
 0.1411729044665E+01
 0.1531816278540E+01
 0.1632716501624E+01
 0.1714054910116E+01
 0.1775524412445E+01
 0.1816729436370E+01
 0.1837131103716E+01
 0.1836098727091E+01
 0.1813006188840E+01
 0.1767340655841E+01
 0.1698824805993E+01
 0.1607559164506E+01
 0.1494148492377E+01
 0.1359707542877E+01
 0.3515861988557E+00
 0.5636315760622E+00
 0.7654753928942E+00
 0.9540516437751E+00
 0.1127612143822E+01
 0.1284779889620E+01
 0.1424480503554E+01
 0.1545944554452E+01
 0.1648668666962E+01
 0.1732317053233E+01
 0.1796576555474E+01
 0.1841022557555E+01
 0.1865071674648E+01
 0.1868031925280E+01
 0.1849199706319E+01
 0.1807973911969E+01
 0.1743987359753E+01
 0.1657257908070E+01
 0.1548320024738E+01
 0.1418234753183E+01
 0.3512951365791E+00
 0.5681730767966E+00
 0.7730841713262E+00
 0.9634953382746E+00
 0.1138203080677E+01
 0.1296283262885E+01
 0.1436999751302E+01
 0.1559807498982E+01
 0.1664328568315E+01
 0.1750278114049E+01
 0.1817346924803E+01
 0.1865088192253E+01
 0.1892877699258E+01
 0.1899962738595E+01
 0.1885559337996E+01
 0.1848972172061E+01
 0.1789737195694E+01
 0.1707786485386E+01
 0.1603593582524E+01
 0.1478199577196E+01
 0.3508695943808E+00
 0.5724720288213E+00
 0.7803906900257E+00
 0.9726028406742E+00
 0.1148430450844E+01
 0.1307392116494E+01
 0.1449088778301E+01
 0.1573205267615E+01
 0.1679498223566E+01
 0.1767743579790E+01
 0.1837644351318E+01
 0.1888737125436E+01
 0.1920359705872E+01
 0.1931698724066E+01
 0.1921886642548E+01
 0.1890127648346E+01
 0.1835853199620E+01
 0.1758904820271E+01
 0.1659700516752E+01
 0.1539286661606E+01
 0.3502777633988E+00
 0.5764557036128E+00
 0.7872831126445E+00
 0.9812291400853E+00
 0.1158124182773E+01
 0.1317919767511E+01
 0.1460551708397E+01
 0.1585938412543E+01
 0.1693978184083E+01
 0.1784515620345E+01
 0.1857272606405E+01
 0.1911773520847E+01
 0.1947320303531E+01
 0.1963038575483E+01
 0.1957973754153E+01
 0.1931222834123E+01
 0.1882104188159E+01
 0.1810361853822E+01
 0.1716358670558E+01
 0.1601161586420E+01
 0.3494889621225E+00
 0.5800537812960E+00
 0.7936532488947E+00
 0.9892335897667E+00
 0.1167118586850E+01
 0.1327683268551E+01
 0.1471195238284E+01
 0.1597808557230E+01
 0.1707568393598E+01
 0.1800394072808E+01
 0.1876031460458E+01
 0.1933996017096E+01
 0.1973555296063E+01
 0.1993773250548E+01
 0.1993604538327E+01
 0.1972031744168E+01
 0.1928250380056E+01
 0.1861897616358E+01
 0.1773276401889E+01
 0.1663479025647E+01
 0.3484736009558E+00
 0.5831982582189E+00
 0.7993963932783E+00
 0.9964797758829E+00
 0.1175252370066E+01
 0.1336503648692E+01
 0.1480829133845E+01
 0.1608619132091E+01
 0.1720069116925E+01
 0.1815177503064E+01
 0.1893717816694E+01
 0.1955198882601E+01
 0.1998854824964E+01
 0.2023687093633E+01
 0.2028555723955E+01
 0.2012321139780E+01
 0.1974044875996E+01
 0.1913245260029E+01
 0.1830156135305E+01
 0.1725891490241E+01
 0.3472031571667E+00
 0.5858233817864E+00
 0.8044112082834E+00
 0.1002835439228E+01
 0.1182368704095E+01
 0.1344206205636E+01
 0.1489266778471E+01
 0.1618176168366E+01
 0.1731281936994E+01
 0.1828664344596E+01
 0.1910126922884E+01
 0.1975173234869E+01
 0.2023004548332E+01
 0.2052558959819E+01
 0.2062598010086E+01
 0.2051851726039E+01
 0.2019235132354E+01
 0.1964133108756E+01
 0.1886697139454E+01
 0.1788053221055E+01
 0.3456501540715E+00
 0.5878655984789E+00
 0.8085996339736E+00
 0.1008172432840E+01
 0.1188315333241E+01
 0.1350620839172E+01
 0.1496325766034E+01
 0.1626289144822E+01
 0.1741010817226E+01
 0.1840654115203E+01
 0.1925053666644E+01
 0.1993708334378E+01
 0.2045786868034E+01
 0.2080163348234E+01
 0.2095497143879E+01
 0.2090379299369E+01
 0.2063564397678E+01
 0.2014286615627E+01
 0.1942598091883E+01
 0.1849623158480E+01
 0.3437881379841E+00
 0.5892635008356E+00
 0.8118668062871E+00
 0.1012366698992E+01
 0.1192944708710E+01
 0.1355582414876E+01
 0.1501828528895E+01
 0.1632771879082E+01
 0.1749063223903E+01
 0.1850948711592E+01
 0.1938293961532E+01
 0.2010592967294E+01
 0.2066982222083E+01
 0.2106271556390E+01
 0.2127014964734E+01
 0.2127655816537E+01
 0.2106773039507E+01
 0.2063430196890E+01
 0.1997559532455E+01
 0.1910267586855E+01
 0.3415916454931E+00
 0.5899577579046E+00
 0.8141209663101E+00
 0.1015298249905E+01
 0.1196114136319E+01
 0.1358931146435E+01
 0.1505602989236E+01
 0.1637443452135E+01
 0.1755251299817E+01
 0.1859353779573E+01
 0.1949646231362E+01
 0.2025616934111E+01
 0.2086370464113E+01
 0.2130652871773E+01
 0.2156910411387E+01
 0.2163430343450E+01
 0.2148599689907E+01
 0.2111288872622E+01
 0.2051286113664E+01
 0.1969662443821E+01
 0.3390361533278E+00
 0.5898910120915E+00
 0.8152733431216E+00
 0.1016851138339E+01
 0.1197685926765E+01
 0.1360512985564E+01
 0.1507483220483E+01
 0.1640129151492E+01
 0.1759393077316E+01
 0.1865680156440E+01
 0.1958913003273E+01
 0.2038572670934E+01
 0.2103732368708E+01
 0.2153075839658E+01
 0.2184940514573E+01
 0.2197449872688E+01
 0.2188782150260E+01
 0.2157589637154E+01
 0.2103488572281E+01
 0.2027495256790E+01
 0.3360979953868E+00
 0.5890077201377E+00
 0.8152379901464E+00
 0.1016913405066E+01
 0.1197527539067E+01
 0.1360180007979E+01
 0.1507310101542E+01
 0.1640661410894E+01
 0.1761313708775E+01
 0.1869745370893E+01
 0.1965902609406E+01
 0.2049257021528E+01
 0.2118851296465E+01
 0.2173309642620E+01
 0.2210861388528E+01
 0.2229459986170E+01
 0.2227057964082E+01
 0.2202062360779E+01
 0.2153885329045E+01
 0.2083466372641E+01
 0.3327542332812E+00
 0.5872539124981E+00
 0.8139315583474E+00
 0.1015376998592E+01
 0.1195511717085E+01
 0.1357790790007E+01
 0.1504931948029E+01
 0.1638880721643E+01
 0.1760846687173E+01
 0.1871375180414E+01
 0.1970430993812E+01
 0.2057473179854E+01
 0.2131515062805E+01
 0.2191125649894E+01
 0.2234429258822E+01
 0.2259205345576E+01
 0.2263164610174E+01
 0.2244440015384E+01
 0.2202203247858E+01
 0.2137289066517E+01
 0.3289824537783E+00
 0.5845768331923E+00
 0.8112729875774E+00
 0.1012137669374E+01
 0.1191516626868E+01
 0.1353210773864E+01
 0.1500205101968E+01
 0.1634636482951E+01
 0.1757835019028E+01
 0.1870405116712E+01
 0.1972323617281E+01
 0.2063032826769E+01
 0.2141518072796E+01
 0.2206299238589E+01
 0.2255401641987E+01
 0.2286430047445E+01
 0.2296839284671E+01
 0.2284458334211E+01
 0.2248176787309E+01
 0.2188685321366E+01
 0.3247604500021E+00
 0.5809244067980E+00
 0.8071831007728E+00
 0.1007094855844E+01
 0.1185426016058E+01
 0.1346312622730E+01
 0.1492994455483E+01
 0.1627787744454E+01
 0.1752132290383E+01
 0.1866681984935E+01
 0.1971417430457E+01
 0.2065758465463E+01
 0.2148663765464E+01
 0.2218611991139E+01
 0.2273538836530E+01
 0.2310877971854E+01
 0.2327818095897E+01
 0.2321854875825E+01
 0.2291546275779E+01
 0.2237376489216E+01
 0.3200657081041E+00
 0.5762444541423E+00
 0.8015841000096E+00
 0.1000151620439E+01
 0.1177129448004E+01
 0.1336976586702E+01
 0.1483173895323E+01
 0.1618203802083E+01
 0.1743603562480E+01
 0.1860065246991E+01
 0.1967562874511E+01
 0.2065485951764E+01
 0.2152767385320E+01
 0.2227854325953E+01
 0.2288605908113E+01
 0.2332293330624E+01
 0.2355834650676E+01
 0.2356366374247E+01
 0.2332057302112E+01
 0.2283086155800E+01
 0.3148745830980E+00
 0.5704835303353E+00
 0.7943990146435E+00
 0.9912147457809E+00
 0.1166522691424E+01
 0.1325090878754E+01
 0.1470626638380E+01
 0.1605764586595E+01
 0.1732126001834E+01
 0.1850428165455E+01
 0.1960625824957E+01
 0.2062067240249E+01
 0.2153659119557E+01
 0.2233828606710E+01
 0.2300375394785E+01
 0.2350422044237E+01
 0.2380618395926E+01
 0.2387724341052E+01
 0.2369458482305E+01
 0.2325550855439E+01
 0.3091608503385E+00
 0.5635852301337E+00
 0.7855512097148E+00
 0.9801952928933E+00
 0.1153508333564E+01
 0.1310552074426E+01
 0.1455245433773E+01
 0.1590360843520E+01
 0.1717589162593E+01
 0.1837658556985E+01
 0.1950489321366E+01
 0.2055373342583E+01
 0.2151187788580E+01
 0.2236352554971E+01
 0.2308630696093E+01
 0.2365014622075E+01
 0.2401894061605E+01
 0.2415648335457E+01
 0.2403495346098E+01
 0.2364518686835E+01
 0.3028931556259E+00
 0.5554873672657E+00
 0.7749648432188E+00
 0.9670098870352E+00
 0.1137996817533E+01
 0.1293265256546E+01
 0.1436932678926E+01
 0.1571894103452E+01
 0.1699894812788E+01
 0.1821658883242E+01
 0.1937054803514E+01
 0.2045297289499E+01
 0.2145225408332E+01
 0.2235263481685E+01
 0.2313168534686E+01
 0.2375831686463E+01
 0.2419384831276E+01
 0.2439838301883E+01
 0.2433894085237E+01
 0.2399748773538E+01
 0.2960288632186E+00
 0.5461198700936E+00
 0.7625662852396E+00
 0.9515853138979E+00
 0.1119906316949E+01
 0.1273143985806E+01
 0.1415600659278E+01
 0.1550276618863E+01
 0.1678956237292E+01
 0.1802345523069E+01
 0.1920242338625E+01
 0.2031756937941E+01
 0.2135672401065E+01
 0.2230425037433E+01
 0.2313800987866E+01
 0.2382643333429E+01
 0.2432832806978E+01
 0.2459966948994E+01
 0.2460330319476E+01
 0.2431024472958E+01
 0.2885039734815E+00
 0.5353884697078E+00
 0.7483095274083E+00
 0.9338573435121E+00
 0.1099160602423E+01
 0.1250111707320E+01
 0.1391171627252E+01
 0.1525430950155E+01
 0.1654698328257E+01
 0.1779645985258E+01
 0.1899989667310E+01
 0.2014696885734E+01
 0.2122463794570E+01
 0.2221735191558E+01
 0.2310365628773E+01
 0.2385216097689E+01
 0.2441999511310E+01
 0.2475775073925E+01
 0.2482301148671E+01
 0.2458136582650E+01
 0.2801092392244E+00
 0.5233293513924E+00
 0.7321810134103E+00
 0.9137527162398E+00
 0.1075693100910E+01
 0.1224103457366E+01
 0.1363578591313E+01
 0.1497287595068E+01
 0.1627056816548E+01
 0.1753502419612E+01
 0.1876237421082E+01
 0.1994095359190E+01
 0.2105576423371E+01
 0.2209131395321E+01
 0.2302740682952E+01
 0.2383333274911E+01
 0.2446569604204E+01
 0.2487162932021E+01
 0.2499526009664E+01
 0.2481249992803E+01
 0.3219081863850E+01
 0.3716289987107E+01
 0.2537343973456E+01
 0.1923217266393E+01
 0.1526039642276E+01
 0.1242089312262E+01
 0.1019123384395E+01
 0.8340245764252E+00
 0.6741706862764E+00
 0.5330799344655E+00
 0.4066850312261E+00
 0.2918547895785E+00
 0.1973959005189E+00
 0.1279315568067E+00
 0.7946721473567E-01
 0.4824175232001E-01
 0.2766037825048E-01
 0.1341226968601E-01
 0.3765944212963E-02
 0.1903556485515E-02
 0.2470967000994E+01
 0.3691415591158E+01
 0.2891467126030E+01
 0.2184898613477E+01
 0.1729211009774E+01
 0.1407938146554E+01
 0.1162298804923E+01
 0.9617922912711E+00
 0.7908923558590E+00
 0.6410656231207E+00
 0.5071229671116E+00
 0.3866611812314E+00
 0.2861490250769E+00
 0.2070768575765E+00
 0.1458100632698E+00
 0.1001330023380E+00
 0.6521903942865E-01
 0.3721364307671E-01
 0.1465694790957E-01
 0.3955438327304E-02
 0.1971816630179E+01
 0.3211814253250E+01
 0.2955950405603E+01
 0.2382667349323E+01
 0.1908599681571E+01
 0.1563247391152E+01
 0.1299166500664E+01
 0.1085696780532E+01
 0.9050913531687E+00
 0.7474513163014E+00
 0.6069398020352E+00
 0.4806787743453E+00
 0.3726100221798E+00
 0.2840733961069E+00
 0.2117861060539E+00
 0.1533501884648E+00
 0.1052031839437E+00
 0.6424275580388E-01
 0.2939315263305E-01
 0.4852036605138E-02
 0.1619385300288E+01
 0.2762444531694E+01
 0.2816696797310E+01
 0.2461805636650E+01
 0.2045295110988E+01
 0.1699267433247E+01
 0.1425821440943E+01
 0.1203301943745E+01
 0.1015211083143E+01
 0.8511996593865E+00
 0.7050070870614E+00
 0.5731681144095E+00
 0.4577438934629E+00
 0.3601312180011E+00
 0.2776679623942E+00
 0.2077673269964E+00
 0.1475370172104E+00
 0.9448023429811E-01
 0.4792157396396E-01
 0.1036550422712E-01
 0.1358309617234E+01
 0.2376024026653E+01
 0.2608763284575E+01
 0.2438225783373E+01
 0.2121563087825E+01
 0.1806403916769E+01
 0.1537101449976E+01
 0.1311784540404E+01
 0.1119449993645E+01
 0.9510319377480E+00
 0.8003722259350E+00
 0.6636816364957E+00
 0.5416333997342E+00
 0.4356920596877E+00
 0.3438438249081E+00
 0.2634946092418E+00
 0.1922154848867E+00
 0.1279127567403E+00
 0.7011261396066E-01
 0.2073334008427E-01
 0.1159392816262E+01
 0.2052638596617E+01
 0.2383193867885E+01
 0.2352778619731E+01
 0.2139917804944E+01
 0.1877475232351E+01
 0.1627866087193E+01
 0.1407940966509E+01
 0.1215790911957E+01
 0.1045566151724E+01
 0.8920946774162E+00
 0.7516908731079E+00
 0.6241039619914E+00
 0.5108358093799E+00
 0.4105061633375E+00
 0.3206776497105E+00
 0.2393053528889E+00
 0.1645641801609E+00
 0.9605976538700E-01
 0.3546896366764E-01
 0.1004759782401E+01
 0.1783694818796E+01
 0.2163025353609E+01
 0.2233586322405E+01
 0.2113831051194E+01
 0.1912388323365E+01
 0.1694614614483E+01
 0.1488820196209E+01
 0.1302152021150E+01
 0.1133365801442E+01
 0.9791930772909E+00
 0.8365860259685E+00
 0.7048207489679E+00
 0.5854457768716E+00
 0.4776898680580E+00
 0.3794013963378E+00
 0.2888910131567E+00
 0.2045328040990E+00
 0.1259328227708E+00
 0.5466618595154E-01
 0.8827459181558E+00
 0.1560267623476E+01
 0.1958113606367E+01
 0.2098878439433E+01
 0.2056818456229E+01
 0.1916042949408E+01
 0.1736848693160E+01
 0.1552479949966E+01
 0.1376730296617E+01
 0.1213048159338E+01
 0.1060676450648E+01
 0.9176980990160E+00
 0.7833479815281E+00
 0.6592770961489E+00
 0.5453087074857E+00
 0.4396750601532E+00
 0.3410391369657E+00
 0.2479399441783E+00
 0.1599321055564E+00
 0.7854049096724E-01
 0.7853459148437E+00
 0.1374516364159E+01
 0.1772258318749E+01
 0.1959970090503E+01
 0.1980037996160E+01
 0.1894945985613E+01
 0.1756546787287E+01
 0.1598469678669E+01
 0.1438359851552E+01
 0.1283469561948E+01
 0.1135624599500E+01
 0.9943474233133E+00
 0.8591935513548E+00
 0.7320001568064E+00
 0.6131819083044E+00
 0.5014307357227E+00
 0.3957705230944E+00
 0.2948898914561E+00
 0.1982475443237E+00
 0.1073088443159E+00
 0.7068659965283E+00
 0.1219904477837E+01
 0.1606312858766E+01
 0.1823747678428E+01
 0.1891966637151E+01
 0.1855540023425E+01
 0.1757008935725E+01
 0.1627686426866E+01
 0.1486713071189E+01
 0.1343903448338E+01
 0.1203298228737E+01
 0.1065910619488E+01
 0.9318565305623E+00
 0.8032365655924E+00
 0.6810558819843E+00
 0.5645237841373E+00
 0.4530398323902E+00
 0.3454371934267E+00
 0.2410293025431E+00
 0.1411482720076E+00
 0.6431424033895E+00
 0.1091064503019E+01
 0.1459694281581E+01
 0.1694275062385E+01
 0.1798789979686E+01
 0.1803485909982E+01
 0.1741992387003E+01
 0.1641934646263E+01
 0.1522257290701E+01
 0.1394135757598E+01
 0.1263236728864E+01
 0.1131894182558E+01
 0.1000879326434E+01
 0.8725957838023E+00
 0.7486255046681E+00
 0.6287352785379E+00
 0.5127195899982E+00
 0.3995600752716E+00
 0.2883650053913E+00
 0.1801789619785E+00
 0.5910622327241E+00
 0.9836034539526E+00
 0.1331140493518E+01
 0.1573816038942E+01
 0.1704898318156E+01
 0.1743459071031E+01
 0.1715182723368E+01
 0.1643495365473E+01
 0.1546066321863E+01
 0.1434450818030E+01
 0.1315310126133E+01
 0.1191995266488E+01
 0.1065899213044E+01
 0.9397140475091E+00
 0.8155585113396E+00
 0.6937780031336E+00
 0.5745875280376E+00
 0.4571363430430E+00
 0.3402608403003E+00
 0.2244594023496E+00
 0.5482558994549E+00
 0.8939199478428E+00
 0.1219103465719E+01
 0.1463481757277E+01
 0.1613327685399E+01
 0.1679173881665E+01
 0.1679919913680E+01
 0.1634797483188E+01
 0.1559598282210E+01
 0.1465541085221E+01
 0.1359714916650E+01
 0.1246134575544E+01
 0.1126690385606E+01
 0.1004293799783E+01
 0.8815251724074E+00
 0.7593086816525E+00
 0.6383173252133E+00
 0.5179183343863E+00
 0.3966218462032E+00
 0.2739907912138E+00
 0.5128922546863E+00
 0.8190507188530E+00
 0.1121956474527E+01
 0.1363645142051E+01
 0.1526110303586E+01
 0.1613496667731E+01
 0.1639083534590E+01
 0.1618200094506E+01
 0.1564497487869E+01
 0.1488385365680E+01
 0.1396926010056E+01
 0.1294456230432E+01
 0.1183189009300E+01
 0.1066140304443E+01
 0.9462354944527E+00
 0.8249511537004E+00
 0.7034752179868E+00
 0.5815030613471E+00
 0.4572234975908E+00
 0.3287285011903E+00
 0.4835375122189E+00
 0.7565464160959E+00
 0.1038103225899E+01
 0.1274209792082E+01
 0.1444541490273E+01
 0.1548581642083E+01
 0.1595068717730E+01
 0.1595863822598E+01
 0.1562441208187E+01
 0.1504126781594E+01
 0.1427624160205E+01
 0.1337298278412E+01
 0.1235496143551E+01
 0.1125191139423E+01
 0.1009486687608E+01
 0.8903407562695E+00
 0.7695306777537E+00
 0.6472949612555E+00
 0.5216598078210E+00
 0.3885959336035E+00
 0.4590549062646E+00
 0.7043721305100E+00
 0.9660339727074E+00
 0.1194787380943E+01
 0.1369379590137E+01
 0.1486001696055E+01
 0.1549809454264E+01
 0.1569685147335E+01
 0.1555032094111E+01
 0.1513967194515E+01
 0.1452615941627E+01
 0.1375142209755E+01
 0.1283854237987E+01
 0.1181528129152E+01
 0.1071221942566E+01
 0.9552078347881E+00
 0.8359082143287E+00
 0.7144636917764E+00
 0.5892424154880E+00
 0.4534849279149E+00
 0.4385306042570E+00
 0.6608270351260E+00
 0.9043537312545E+00
 0.1124816933422E+01
 0.1300995303473E+01
 0.1426863369347E+01
 0.1504823955556E+01
 0.1541272059529E+01
 0.1543729038654E+01
 0.1519084246808E+01
 0.1472758793562E+01
 0.1408552193271E+01
 0.1328598251301E+01
 0.1235346417561E+01
 0.1131573771258E+01
 0.1019533846781E+01
 0.9021387724623E+00
 0.7819454467321E+00
 0.6587929369806E+00
 0.5232009561567E+00
 0.4212138651782E+00
 0.6244813815368E+00
 0.8517961702416E+00
 0.1063649779630E+01
 0.1239481193505E+01
 0.1371903818739E+01
 0.1461268332994E+01
 0.1511945302980E+01
 0.1529807188911E+01
 0.1520570648833E+01
 0.1488898376895E+01
 0.1438117562427E+01
 0.1370092565197E+01
 0.1286873670629E+01
 0.1190781291185E+01
 0.1083711220401E+01
 0.9683397646877E+00
 0.8485965839215E+00
 0.7283156529957E+00
 0.5971672172522E+00
 0.4064650887201E+00
 0.5941100346420E+00
 0.8072608817431E+00
 0.1010600647506E+01
 0.1184730231227E+01
 0.1321571834075E+01
 0.1419991742901E+01
 0.1482755223486E+01
 0.1514337974271E+01
 0.1519391782298E+01
 0.1501819722252E+01
 0.1464408482937E+01
 0.1408684312449E+01
 0.1336269599362E+01
 0.1248982235895E+01
 0.1148194581469E+01
 0.1035843029125E+01
 0.9148517104598E+00
 0.7941780758704E+00
 0.6734491385203E+00
 0.3935670333062E+00
 0.5688674504251E+00
 0.7698194520535E+00
 0.9649613036139E+00
 0.1136497296766E+01
 0.1276093994220E+01
 0.1381590675909E+01
 0.1454509595784E+01
 0.1498182915711E+01
 0.1516351570501E+01
 0.1512211561902E+01
 0.1487945156129E+01
 0.1444688194176E+01
 0.1383613896384E+01
 0.1306017087703E+01
 0.1212901894348E+01
 0.1105465798343E+01
 0.9852484253830E+00
 0.8573028067613E+00
 0.7418707869861E+00
 0.2715597968457E+00
 0.5128353761658E+00
 0.7181070316557E+00
 0.8960777221337E+00
 0.1054851037931E+01
 0.1200868893371E+01
 0.1338926812166E+01
 0.1472317000635E+01
 0.1602888589783E+01
 0.1731211423847E+01
 0.1856832601098E+01
 0.1978545493342E+01
 0.2094526964476E+01
 0.2203288300005E+01
 0.2302677051464E+01
 0.2389288473922E+01
 0.2458345992420E+01
 0.2504011256020E+01
 0.2520800297115E+01
 0.2506316603877E+01
 0.2644760446905E+00
 0.5042046966976E+00
 0.7062985700939E+00
 0.8806511257433E+00
 0.1036086345738E+01
 0.1179475028561E+01
 0.1315897679681E+01
 0.1448839383425E+01
 0.1580276068890E+01
 0.1710849438103E+01
 0.1840100480941E+01
 0.1966644766882E+01
 0.2088292084183E+01
 0.2203496857804E+01
 0.2309768077919E+01
 0.2402888058571E+01
 0.2476964056161E+01
 0.2525052480701E+01
 0.2541693913935E+01
 0.2519049733278E+01
 0.2565180164331E+00
 0.4934832669656E+00
 0.6913650824870E+00
 0.8611979487513E+00
 0.1012564345463E+01
 0.1152763315903E+01
 0.1287121765064E+01
 0.1419275131134E+01
 0.1551286497261E+01
 0.1683842278156E+01
 0.1816466924395E+01
 0.1947654551243E+01
 0.2074986291593E+01
 0.2196952469188E+01
 0.2310797321399E+01
 0.2411443199727E+01
 0.2491556704378E+01
 0.2542396129123E+01
 0.2555689171964E+01
 0.2522514959959E+01
 0.2476145847617E+00
 0.4805165859022E+00
 0.6730426361370E+00
 0.8374633748821E+00
 0.9840804022212E+00
 0.1120580874530E+01
 0.1252482303709E+01
 0.1383512766688E+01
 0.1515778166716E+01
 0.1649989933657E+01
 0.1785676901961E+01
 0.1921272966474E+01
 0.2054209267636E+01
 0.2183144983462E+01
 0.2305127510245E+01
 0.2414071840583E+01
 0.2500672538157E+01
 0.2553290937502E+01
 0.2561472207085E+01
 0.2517724058289E+01
 0.2376821018578E+00
 0.4650931104557E+00
 0.6510765765611E+00
 0.8092067078230E+00
 0.9504561955700E+00
 0.1082818910825E+01
 0.1211921172782E+01
 0.1341510500595E+01
 0.1473685471183E+01
 0.1609169101459E+01
 0.1747522918035E+01
 0.1887176105147E+01
 0.2025494502781E+01
 0.2161434617277E+01
 0.2291904090237E+01
 0.2409639846698E+01
 0.2502809055511E+01
 0.2556523523751E+01
 0.2558924960994E+01
 0.2504311160105E+01
 0.2266117785219E+00
 0.4469684261784E+00
 0.6251943882019E+00
 0.7762008379345E+00
 0.9115487920680E+00
 0.1039425001115E+01
 0.1165453301245E+01
 0.1293309513455E+01
 0.1425027403894E+01
 0.1561327966211E+01
 0.1701834936558E+01
 0.1845032197871E+01
 0.1988315634945E+01
 0.2131075739339E+01
 0.2270160099965E+01
 0.2397015838086E+01
 0.2496881634754E+01
 0.2551299776634E+01
 0.2547313072055E+01
 0.2481281279447E+01
 0.2142682859876E+00
 0.4258556692673E+00
 0.5951032833277E+00
 0.7382308634315E+00
 0.8672598894225E+00
 0.9904167538374E+00
 0.1113181278740E+01
 0.1239046735803E+01
 0.1369915210274E+01
 0.1506489116871E+01
 0.1648485251714E+01
 0.1794508980155E+01
 0.1942104333702E+01
 0.2091257976660E+01
 0.2238891804493E+01
 0.2375151160278E+01
 0.2481927593303E+01
 0.2536680407276E+01
 0.2525538924940E+01
 0.2447379370318E+01
 0.2004842372238E+00
 0.4014173438389E+00
 0.5604867486870E+00
 0.6950988342532E+00
 0.8175468501646E+00
 0.9358970208531E+00
 0.1055310602946E+01
 0.1178967546601E+01
 0.1308561808695E+01
 0.1444757452362E+01
 0.1587396940988E+01
 0.1735285421214E+01
 0.1886268048506E+01
 0.2041128923373E+01
 0.2197067018422E+01
 0.2342989186008E+01
 0.2456916319383E+01
 0.2511522176031E+01
 0.2492242195038E+01
 0.2401190995654E+01
 0.1850522383888E+00
 0.3732543100290E+00
 0.5210029241194E+00
 0.6466318392046E+00
 0.7624377143105E+00
 0.8760712290185E+00
 0.9921656011563E+00
 0.1113438552579E+01
 0.1241292267353E+01
 0.1376330416708E+01
 0.1518555633464E+01
 0.1667064802368E+01
 0.1820201547450E+01
 0.1979793768632E+01
 0.2143587400361E+01
 0.2299385117078E+01
 0.2420676293810E+01
 0.2474462813132E+01
 0.2445842638171E+01
 0.2341164348803E+01
 0.1677139869365E+00
 0.3408921433779E+00
 0.4762846389488E+00
 0.5926947990200E+00
 0.7020509003144E+00
 0.8112674277849E+00
 0.9242055980347E+00
 0.1042959484095E+01
 0.1168553983138E+01
 0.1301509706577E+01
 0.1442023931980E+01
 0.1589588885992E+01
 0.1743293644970E+01
 0.1906301907069E+01
 0.2077245714135E+01
 0.2243048547047E+01
 0.2371847625063E+01
 0.2423900206547E+01
 0.2384535783218E+01
 0.2265607447997E+01
 0.1481456920237E+00
 0.3037643713491E+00
 0.4259424139614E+00
 0.5332098495558E+00
 0.6366210262360E+00
 0.7419589998310E+00
 0.8520400737018E+00
 0.9681723854213E+00
 0.1090925131249E+01
 0.1220713969697E+01
 0.1357959412967E+01
 0.1502655947506E+01
 0.1654935119120E+01
 0.1819632997652E+01
 0.1996684940139E+01
 0.2172489527468E+01
 0.2308829562574E+01
 0.2357946667558E+01
 0.2306260341483E+01
 0.2172677705987E+01
 0.1259386928050E+00
 0.2611921811404E+00
 0.3695728665626E+00
 0.4681856323439E+00
 0.5665325514631E+00
 0.6687892243632E+00
 0.7764403187216E+00
 0.8898655025314E+00
 0.1009119842457E+01
 0.1134492717086E+01
 0.1266638746361E+01
 0.1406147976490E+01
 0.1554535643796E+01
 0.1718688724948E+01
 0.1900356091579E+01
 0.2085954067620E+01
 0.2229704864268E+01
 0.2274351774415E+01
 0.2208643190744E+01
 0.2060371663892E+01
 0.1005743324001E+00
 0.2123604930076E+00
 0.3067771541492E+00
 0.3977617765149E+00
 0.4923629735063E+00
 0.5925952507568E+00
 0.6983434667389E+00
 0.8089686138277E+00
 0.9239887976143E+00
 0.1043542384308E+01
 0.1168491838045E+01
 0.1300074437365E+01
 0.1441558614139E+01
 0.1602295503917E+01
 0.1786471087119E+01
 0.1981336119418E+01
 0.2132125415482E+01
 0.2170384430636E+01
 0.2088922774541E+01
 0.1926521013180E+01
 0.7139701334780E-01
 0.1562918339977E+00
 0.2371983667278E+00
 0.3222768800561E+00
 0.4149361849859E+00
 0.5144258401460E+00
 0.6188427623902E+00
 0.7265367210824E+00
 0.8365146993793E+00
 0.9487258512787E+00
 0.1064150523018E+01
 0.1184642234475E+01
 0.1315586487122E+01
 0.1469227034014E+01
 0.1652948186314E+01
 0.1856050312147E+01
 0.2013136869988E+01
 0.2042658286947E+01
 0.1943850206856E+01
 0.1768805739423E+01
 0.3765430146817E-01
 0.9182824876044E-01
 0.1605961441177E+00
 0.2423723132770E+00
 0.3353823916427E+00
 0.4355409132090E+00
 0.5391567983533E+00
 0.6437211833688E+00
 0.7478036631557E+00
 0.8510956850271E+00
 0.9545154698778E+00
 0.1060364529451E+01
 0.1176437559515E+01
 0.1318265001379E+01
 0.1497350314569E+01
 0.1706840814188E+01
 0.1868903506149E+01
 0.1886874136077E+01
 0.1769571479170E+01
 0.1584809419212E+01
 0.7301145454996E-02
 0.1790912127072E-01
 0.7699967076387E-01
 0.1591494544054E+00
 0.2551859088171E+00
 0.3573724252131E+00
 0.4605726605597E+00
 0.5617346370417E+00
 0.6590739897417E+00
 0.7519178206172E+00
 0.8408409765631E+00
 0.9282244726094E+00
 0.1024370471193E+01
 0.1148337882433E+01
 0.1316824952219E+01
 0.1529481300701E+01
 0.1694259028871E+01
 0.1697433906354E+01
 0.1561514845440E+01
 0.1372173783178E+01
 0.5099264710006E-01
 0.6837697542649E-01
 0.1321746550491E-01
 0.7438340217843E-01
 0.1761724786277E+00
 0.2814108454795E+00
 0.3843829537259E+00
 0.4818209123350E+00
 0.5716407051276E+00
 0.6526865343283E+00
 0.7248293909624E+00
 0.7899061878826E+00
 0.8604418411062E+00
 0.9588279792434E+00
 0.1108081974856E+01
 0.1318280587523E+01
 0.1481917182030E+01
 0.1466854745417E+01
 0.1314372511461E+01
 0.1129020988976E+01
 0.1083611511655E+00
 0.1668634057704E+00
 0.1076908725515E+00
 0.9334171789920E-02
 0.1002282418153E+00
 0.2090756238930E+00
 0.3118580804618E+00
 0.4052281452353E+00
 0.4868893228500E+00
 0.5551250040420E+00
 0.6087032439109E+00
 0.6480894405910E+00
 0.6871010813013E+00
 0.7502789012834E+00
 0.8675549416513E+00
 0.1065197094038E+01
 0.1220961619021E+01
 0.1184820788601E+01
 0.1022571389782E+01
 0.8550808875163E+00
 0.1794746704121E+00
 0.2788924955828E+00
 0.2019094278584E+00
 0.8892426634328E-01
 0.2893353974843E-01
 0.1417237207038E+00
 0.2442310870264E+00
 0.3331922758148E+00
 0.4062198260099E+00
 0.4611526930284E+00
 0.4952803920092E+00
 0.5066219947543E+00
 0.5091347627116E+00
 0.5259998696381E+00
 0.5923873148293E+00
 0.7582441892362E+00
 0.8932619737257E+00
 0.8368644098921E+00
 0.6827350987678E+00
 0.5558262747134E+00
 0.2697350773523E+00
 0.3920474211261E+00
 0.2901658931189E+00
 0.1631708040042E+00
 0.3620268690971E-01
 0.8064685792276E-01
 0.1826737961078E+00
 0.2669368794476E+00
 0.3310201990605E+00
 0.3726441319336E+00
 0.3881171129496E+00
 0.3709057711994E+00
 0.3332334238997E+00
 0.2961151673903E+00
 0.2856463544131E+00
 0.3783379296575E+00
 0.4635263994596E+00
 0.4032483563914E+00
 0.3123249226043E+00
 0.2649635736050E+00
 0.6422760061030E+00
 0.5610068843451E+00
 0.4928590390842E+00
 0.4295783238409E+00
 0.3693379577811E+00
 0.3124589358084E+00
 0.2595039144284E+00
 0.2110077072737E+00
 0.1673910813610E+00
 0.1289546830702E+00
 0.9588461826224E-01
 0.6826327904959E-01
 0.4608512720296E-01
 0.2927743275570E-01
 0.1769422694451E-01
 0.1087541937536E-01
 0.7297342378663E-02
 0.5053296274324E-02
 0.6332749563671E-02
 0.1304755894491E-01
 0.6570735899683E+00
 0.5823466106404E+00
 0.5050385665951E+00
 0.4324358264143E+00
 0.3647437586234E+00
 0.3018173462559E+00
 0.2438422217695E+00
 0.1911721536777E+00
 0.1442098554250E+00
 0.1033459905935E+00
 0.6896869114989E-01
 0.4161874703198E-01
 0.2271907348717E-01
 0.1602126583661E-01
 0.1879693124083E-01
 0.2116466427250E-01
 0.1987081164698E-01
 0.1469526477229E-01
 0.6249120540736E-02
 0.3072073405880E-02
 0.6692979115317E+00
 0.5958153238312E+00
 0.5168821864060E+00
 0.4387367414239E+00
 0.3646280791632E+00
 0.2955630206845E+00
 0.2320578348971E+00
 0.1745904316140E+00
 0.1236995074458E+00
 0.8007298298326E-01
 0.4502613904438E-01
 0.2352993446781E-01
 0.2566327835839E-01
 0.3644165121514E-01
 0.4349141781504E-01
 0.4488269134096E-01
 0.4069380536858E-01
 0.3155985370258E-01
 0.1863999417271E-01
 0.3144916861247E-02
 0.6840005282445E+00
 0.6080578437317E+00
 0.5274843622035E+00
 0.4460535528352E+00
 0.3670719975346E+00
 0.2925191188256E+00
 0.2235381024817E+00
 0.1610060626216E+00
 0.1058635196853E+00
 0.5974160455428E-01
 0.2908006521426E-01
 0.3285084839712E-01
 0.5126159085290E-01
 0.6522975341067E-01
 0.7198745853471E-01
 0.7135675648498E-01
 0.6382539626893E-01
 0.5024480957903E-01
 0.3162243769271E-01
 0.8835363163943E-02
 0.7019995822422E+00
 0.6221079960010E+00
 0.5389550857812E+00
 0.4545291998576E+00
 0.3715183454209E+00
 0.2920994905551E+00
 0.2178875514539E+00
 0.1502368493528E+00
 0.9078354946573E-01
 0.4389468062489E-01
 0.3268940994947E-01
 0.5732559322120E-01
 0.8088278482196E-01
 0.9637128330517E-01
 0.1027842555277E+00
 0.1002020523735E+00
 0.8920477591587E-01
 0.7070186517978E-01
 0.4577365191713E-01
 0.1545684059326E-01
 0.7234025421237E+00
 0.6391888635301E+00
 0.5527873580620E+00
 0.4651557565295E+00
 0.3783274269531E+00
 0.2943666226505E+00
 0.2151057762245E+00
 0.1423303643260E+00
 0.7871167088919E-01
 0.3570096619667E-01
 0.5042490041275E-01
 0.8448834951712E-01
 0.1119182806179E+00
 0.1293013690700E+00
 0.1358799464219E+00
 0.1316743477535E+00
 0.1172171270448E+00
 0.9346685068989E-01
 0.6171321109913E-01
 0.2340760594519E-01
 0.7481818422544E+00
 0.6598191496432E+00
 0.5698783704736E+00
 0.4788070401264E+00
 0.3881391044351E+00
 0.2997297103639E+00
 0.2154809793546E+00
 0.1375344745605E+00
 0.6999428211306E-01
 0.3730861677885E-01
 0.7117852048022E-01
 0.1119604676947E+00
 0.1437132908358E+00
 0.1638208750473E+00
 0.1713503136955E+00
 0.1660687987460E+00
 0.1483321468961E+00
 0.1190796344636E+00
 0.7982063203403E-01
 0.3259995721963E-01
 0.7763025863485E+00
 0.6841946218783E+00
 0.5907060952449E+00
 0.4960794386103E+00
 0.4015127877880E+00
 0.3086553635713E+00
 0.2194018461915E+00
 0.1361807343276E+00
 0.6486020068770E-01
 0.4505649126813E-01
 0.9142035044517E-01
 0.1387682358559E+00
 0.1756993075216E+00
 0.1995788882076E+00
 0.2090656243777E+00
 0.2034886091739E+00
 0.1828540751661E+00
 0.1479418553380E+00
 0.1003757094567E+00
 0.4270835435870E-01
 0.8077408211947E+00
 0.7123856841965E+00
 0.6155312192774E+00
 0.5173764972628E+00
 0.4189100793465E+00
 0.3216073021268E+00
 0.2273167888717E+00
 0.1386742760589E+00
 0.6331364139460E-01
 0.5397320067387E-01
 0.1097093328174E+00
 0.1640709138308E+00
 0.2071719707427E+00
 0.2360113532708E+00
 0.2486586985870E+00
 0.2437994431602E+00
 0.2208551424214E+00
 0.1802227849408E+00
 0.1234805764439E+00
 0.5342587748383E-01
 0.8425295890405E+00
 0.7445637024373E+00
 0.6447381753958E+00
 0.5432964314813E+00
 0.4410970952282E+00
 0.3394694634523E+00
 0.2401851169074E+00
 0.1459716864679E+00
 0.6560750652337E-01
 0.6100814828946E-01
 0.1246479949927E+00
 0.1866888539529E+00
 0.2371209266838E+00
 0.2723615241717E+00
 0.2897157107282E+00
 0.2869594296285E+00
 0.2625549558786E+00
 0.2160830264843E+00
 0.1487138716152E+00
 0.6338696842009E-01
 0.8807516972707E+00
 0.7809567367910E+00
 0.6788168713981E+00
 0.5746338799508E+00
 0.4691761513903E+00
 0.3636386168888E+00
 0.2596760115532E+00
 0.1599413099246E+00
 0.7304152898009E-01
 0.6375065325082E-01
 0.1336028872134E+00
 0.2038742128293E+00
 0.2628587646944E+00
 0.3062339921621E+00
 0.3304133279238E+00
 0.3319976092383E+00
 0.3080037985366E+00
 0.2565032936891E+00
 0.1775581357633E+00
 0.7413518216543E-01
 0.9224782888243E+00
 0.8217108638484E+00
 0.7180966943955E+00
 0.6119660738685E+00
 0.5040099066009E+00
 0.3952898900156E+00
 0.2873026797257E+00
 0.1824578200671E+00
 0.8791454900471E-01
 0.6135537066345E-01
 0.1336753394415E+00
 0.2121923138201E+00
 0.2806831584733E+00
 0.3339399031595E+00
 0.3674800268949E+00
 0.3765936690558E+00
 0.3563931830422E+00
 0.3024715731808E+00
 0.2124280147002E+00
 0.8812937658642E-01
 0.9677284003542E+00
 0.8668772032768E+00
 0.7627259237627E+00
 0.6556030715880E+00
 0.5461239590651E+00
 0.4352178049806E+00
 0.3241958443166E+00
 0.2151165853919E+00
 0.1132127092723E+00
 0.5777624080263E-01
 0.1223948208785E+00
 0.2079583138626E+00
 0.2861357018181E+00
 0.3504775096369E+00
 0.3957612357797E+00
 0.4161157787229E+00
 0.4046143474947E+00
 0.3534392279597E+00
 0.2553580200907E+00
 0.1078949947229E+00
 0.1016453351606E+01
 0.9164159752234E+00
 0.8127095183738E+00
 0.7056458588955E+00
 0.5957701673266E+00
 0.4838887952902E+00
 0.3711257179553E+00
 0.2591675906535E+00
 0.1515779375933E+00
 0.6727985476613E-01
 0.9902552487312E-01
 0.1875582185213E+00
 0.2741007777618E+00
 0.3493544017685E+00
 0.4075566077377E+00
 0.4421853748739E+00
 0.4448104731170E+00
 0.4042270954915E+00
 0.3060410673759E+00
 0.1362203448696E+00
 0.1068534860904E+01
 0.9701965487173E+00
 0.8679237129761E+00
 0.7620123488742E+00
 0.6529522388380E+00
 0.5414500655426E+00
 0.4284695651256E+00
 0.3153786880871E+00
 0.2045866731431E+00
 0.1039327511118E+00
 0.7148640615084E-01
 0.1486998715802E+00
 0.2395312076917E+00
 0.3230753157325E+00
 0.3926229373437E+00
 0.4416242848096E+00
 0.4613409017686E+00
 0.4388751236945E+00
 0.3538687814485E+00
 0.1734998438534E+00
 0.1123787725111E+01
 0.1027998323604E+01
 0.9281198644118E+00
 0.8244433748343E+00
 0.7174257275129E+00
 0.6077084663907E+00
 0.4961447463996E+00
 0.3838812360229E+00
 0.2726451891089E+00
 0.1660839087662E+00
 0.8077341975176E-01
 0.9617877809709E-01
 0.1796522743875E+00
 0.2649856798310E+00
 0.3397472485775E+00
 0.3969623066432E+00
 0.4282349054624E+00
 0.4208645047349E+00
 0.3531012217979E+00
 0.1803097830919E+00
 0.1181965498650E+01
 0.1089516463819E+01
 0.9929313016543E+00
 0.8925100963002E+00
 0.7887005586301E+00
 0.6821157511140E+00
 0.5735540404543E+00
 0.4640452149932E+00
 0.3549779477125E+00
 0.2485177572290E+00
 0.1495302228638E+00
 0.7966682361466E-01
 0.1039949873525E+00
 0.1764963423157E+00
 0.2465233540450E+00
 0.3015301139211E+00
 0.3327034266360E+00
 0.3286586297391E+00
 0.2714935096001E+00
 0.1289143649789E+00
 0.1242767120275E+01
 0.1154370479954E+01
 0.1061885349356E+01
 0.9656308721015E+00
 0.8660626318055E+00
 0.7637920715062E+00
 0.6596044068375E+00
 0.5544881985218E+00
 0.4496969302743E+00
 0.3468924811660E+00
 0.2485443545921E+00
 0.1593984362423E+00
 0.9371129542075E-01
 0.8931822467157E-01
 0.1324534865773E+00
 0.1750277735146E+00
 0.1990713418647E+00
 0.1944237909573E+00
 0.1519378721164E+00
 0.7291010385217E-01
 0.1305845186696E+01
 0.1222117042553E+01
 0.1134422915634E+01
 0.1043101881777E+01
 0.9486220621437E+00
 0.8516023506230E+00
 0.7528298837176E+00
 0.6532815285569E+00
 0.5541575648307E+00
 0.4569390814442E+00
 0.3634922057996E+00
 0.2762762577806E+00
 0.1988093876917E+00
 0.1367331519397E+00
 0.9889992179212E-01
 0.8965290083361E-01
 0.9376060769407E-01
 0.9326187277963E-01
 0.8508300321600E-01
 0.8091280228065E-01
 0.1370815270881E+01
 0.1292265686000E+01
 0.1209923410489E+01
 0.1124137195614E+01
 0.1035378405454E+01
 0.9442632673231E+00
 0.8515688090054E+00
 0.7582477003161E+00
 0.6654454752522E+00
 0.5745219415073E+00
 0.4870766068594E+00
 0.4049740279673E+00
 0.3303542629283E+00
 0.2655829233687E+00
 0.2130192959542E+00
 0.1743713274648E+00
 0.1495436166261E+00
 0.1356671548375E+00
 0.1269872822689E+00
 0.1157323056928E+00
 0.1437265531831E+01
 0.1364293314949E+01
 0.1287726392799E+01
 0.1207903472159E+01
 0.1125277703526E+01
 0.1040437080584E+01
 0.9541167650853E+00
 0.8672059946283E+00
 0.7807508110136E+00
 0.6959513291060E+00
 0.6141489618901E+00
 0.5367941374052E+00
 0.4653772629926E+00
 0.4012937047703E+00
 0.3455980180534E+00
 0.2985913976127E+00
 0.2592020541082E+00
 0.2242356669224E+00
 0.1882893172298E+00
 0.1490698205806E+00
 0.1504761740739E+01
 0.1437648851311E+01
 0.1367136874861E+01
 0.1293529665883E+01
 0.1217232798190E+01
 0.1138771566441E+01
 0.1058798101575E+01
 0.9780891838591E+00
 0.8975349725196E+00
 0.8181163209852E+00
 0.7408652475124E+00
 0.6667993126489E+00
 0.5968158447405E+00
 0.5315264382000E+00
 0.4710083017948E+00
 0.4144561005669E+00
 0.3597694443248E+00
 0.3033458113028E+00
 0.2413196297912E+00
 0.1782463404850E+00
 0.1572846944083E+01
 0.1511756668975E+01
 0.1447437043099E+01
 0.1380129725481E+01
 0.1310160292366E+01
 0.1237954663478E+01
 0.1164040698509E+01
 0.1089037086151E+01
 0.1013629852323E+01
 0.9385343255538E+00
 0.8644378602919E+00
 0.7919162016940E+00
 0.7213144077009E+00
 0.6525830736495E+00
 0.5850664985112E+00
 0.5172639051445E+00
 0.4466669538866E+00
 0.3700439553264E+00
 0.2855628443055E+00
 0.2036417126739E+00
 0.1641066331933E+01
 0.1586053757831E+01
 0.1527940168934E+01
 0.1466875850633E+01
 0.1403074374259E+01
 0.1336828387209E+01
 0.1268506443442E+01
 0.1198534460873E+01
 0.1127363244091E+01
 0.1055420998332E+01
 0.9830478605610E+00
 0.9104085217750E+00
 0.8373796742213E+00
 0.7634131449315E+00
 0.6873878955033E+00
 0.6074967205660E+00
 0.5213001045187E+00
 0.4263416944150E+00
 0.3228082570811E+00
 0.2258949901370E+00
 0.1708979501792E+01
 0.1660007133114E+01
 0.1608012301484E+01
 0.1553024692776E+01
 0.1495116709683E+01
 0.1434419844859E+01
 0.1371117982001E+01
 0.1305423620084E+01
 0.1237540315457E+01
 0.1167611898120E+01
 0.1095657571942E+01
 0.1021492203699E+01
 0.9446335927578E+00
 0.8642050228137E+00
 0.7788560369805E+00
 0.6867572514800E+00
 0.5858068564845E+00
 0.4744482941045E+00
 0.3546726698385E+00
 0.2455126995239E+00
 0.1776165553834E+01
 0.1733120386469E+01
 0.1687078907207E+01
 0.1637922745725E+01
 0.1585558622965E+01
 0.1529936803896E+01
 0.1471042076213E+01
 0.1408866875687E+01
 0.1343372294137E+01
 0.1274439281976E+01
 0.1201810987686E+01
 0.1125027971475E+01
 0.1043361344179E+01
 0.9557559951841E+00
 0.8608102530274E+00
 0.7568486439924E+00
 0.6422230888894E+00
 0.5162491124255E+00
 0.3824437579519E+00
 0.2628820086177E+00
 0.1842227250152E+01
 0.1804937832332E+01
 0.1764627798063E+01
 0.1721006285073E+01
 0.1673795612873E+01
 0.1622753329452E+01
 0.1567661450452E+01
 0.1508297871564E+01
 0.1444398621746E+01
 0.1375614812836E+01
 0.1301466370639E+01
 0.1221295487511E+01
 0.1134226089525E+01
 0.1039142248530E+01
 0.9347111710114E+00
 0.8195043558897E+00
 0.6923489603151E+00
 0.5533275319306E+00
 0.4071809729598E+00
 0.2783224874283E+00
 0.1906793100552E+01
 0.1875045177276E+01
 0.1840207526913E+01
 0.1801795693617E+01
 0.1759335178837E+01
 0.1712388055901E+01
 0.1660539731319E+01
 0.1603368679214E+01
 0.1540411246992E+01
 0.1471126445792E+01
 0.1394863007266E+01
 0.1310831547818E+01
 0.1218087682338E+01
 0.1115537749944E+01
 0.1001990061865E+01
 0.8763009810861E+00
 0.7377441722624E+00
 0.5870296778908E+00
 0.4297995395636E+00
 0.2921223096819E+00
 0.1969520188192E+01
 0.1943070646159E+01
 0.1913425578581E+01
 0.1879888663098E+01
 0.1841782491424E+01
 0.1798479652339E+01
 0.1749383958388E+01
 0.1693896635418E+01
 0.1631383491915E+01
 0.1561148219489E+01
 0.1482413164146E+01
 0.1394309126650E+01
 0.1295878410073E+01
 0.1186100490483E+01
 0.1063959938829E+01
 0.9286015461713E+00
 0.7796965621044E+00
 0.6184442176467E+00
 0.4510601807265E+00
 0.3045402090046E+00
 0.2030093018917E+01
 0.2008680435708E+01
 0.1983939620309E+01
 0.1954944249088E+01
 0.1920814188579E+01
 0.1880747828922E+01
 0.1833990745668E+01
 0.1779794094602E+01
 0.1717382655915E+01
 0.1645936401130E+01
 0.1564584586043E+01
 0.1472411592455E+01
 0.1368476431619E+01
 0.1251852721961E+01
 0.1121705750575E+01
 0.9774480495400E+00
 0.8190924573579E+00
 0.6482178149511E+00
 0.4713598030553E+00
 0.3157144821627E+00
 0.2088221971107E+01
 0.2071576773904E+01
 0.2051452451746E+01
 0.2026669010178E+01
 0.1996151138101E+01
 0.1958949389686E+01
 0.1914182905577E+01
 0.1860983333687E+01
 0.1798461636963E+01
 0.1725697602735E+01
 0.1641746812789E+01
 0.1545661058913E+01
 0.1436521475076E+01
 0.1313488788205E+01
 0.1175884894271E+01
 0.1023344822641E+01
 0.8561553834910E+00
 0.6761868925536E+00
 0.4901975936569E+00
 0.3252742579066E+00
 0.2143641860175E+01
 0.2131503183532E+01
 0.2115712789195E+01
 0.2094803026514E+01
 0.2067522837733E+01
 0.2032815774006E+01
 0.1989715004002E+01
 0.1937264620420E+01
 0.1874484198455E+01
 0.1800367055038E+01
 0.1713900495749E+01
 0.1614099892857E+01
 0.1500053349772E+01
 0.1370979228748E+01
 0.1226308767977E+01
 0.1065831274073E+01
 0.8900181910213E+00
 0.7009368842489E+00
 0.5055605777980E+00
 0.3315149217980E+00
 0.2196107848054E+01
 0.2188240917455E+01
 0.2176492235456E+01
 0.2159064266871E+01
 0.2134572318420E+01
 0.2101913511149E+01
 0.2060083093365E+01
 0.2008067460680E+01
 0.1944809286938E+01
 0.1869218896159E+01
 0.1780210047923E+01
 0.1676748278330E+01
 0.1557906713702E+01
 0.1422930415198E+01
 0.1271319680707E+01
 0.1102968115516E+01
 0.9184725046659E+00
 0.7200413263073E+00
 0.5149080124458E+00
 0.3322966153591E+00
 0.2245390541522E+01
 0.2241584857106E+01
 0.2233532236247E+01
 0.2219070706333E+01
 0.2196770481487E+01
 0.2165570392594E+01
 0.2124481752096E+01
 0.2072455185824E+01
 0.2008360340475E+01
 0.1931019342237E+01
 0.1839263231655E+01
 0.1731996662508E+01
 0.1608267612369E+01
 0.1467343786466E+01
 0.1308805463956E+01
 0.1132688438688E+01
 0.9397933277932E+00
 0.7325954194797E+00
 0.5187588687867E+00
 0.3292358916047E+00
 0.2291365872295E+01
 0.2291501943237E+01
 0.2286758695370E+01
 0.2274652126809E+01
 0.2253884148034E+01
 0.2223563311324E+01
 0.2182765437830E+01
 0.2130411799285E+01
 0.2065287437578E+01
 0.1986112539805E+01
 0.1891620451920E+01
 0.1780637150736E+01
 0.1652164860816E+01
 0.1505474222411E+01
 0.1340213458513E+01
 0.1156565696392E+01
 0.9555639077449E+00
 0.7399979468990E+00
 0.5179918087082E+00
 0.3224805536691E+00
 0.2334013551524E+01
 0.2338075711062E+01
 0.2336126494485E+01
 0.2325595680747E+01
 0.2305654003628E+01
 0.2275712578513E+01
 0.2234929296006E+01
 0.2182158368703E+01
 0.2116073322015E+01
 0.2035275241055E+01
 0.1938382816300E+01
 0.1824118012029E+01
 0.1691399646457E+01
 0.1539452558444E+01
 0.1367940515593E+01
 0.1177145043321E+01
 0.9682985603543E+00
 0.7444928970509E+00
 0.5143276297608E+00
 0.3131182151606E+00
 0.2373493961678E+01
 0.2381489919723E+01
 0.2381432702360E+01
 0.2371432489175E+01
 0.2351580420349E+01
 0.2321696402771E+01
 0.2280871355478E+01
 0.2227817264563E+01
 0.2161073260704E+01
 0.2079118401122E+01
 0.1980449742045E+01
 0.1863660292269E+01
 0.1727535614037E+01
 0.1571179791219E+01
 0.1394179137417E+01
 0.1196824273982E+01
 0.9804619141143E+00
 0.7484446725762E+00
 0.5098783293477E+00
 0.3024558226490E+00
 0.2410245911793E+01
 0.2421889428457E+01
 0.2422036476362E+01
 0.2411116110762E+01
 0.2390958770587E+01
 0.2361137622307E+01
 0.2320439289739E+01
 0.2267396841763E+01
 0.2200443802314E+01
 0.2117972479327E+01
 0.2018375187677E+01
 0.1900102982907E+01
 0.1761756974447E+01
 0.1602225625868E+01
 0.1420884300487E+01
 0.1217878096873E+01
 0.9945634208849E+00
 0.7543779967655E+00
 0.5067830391409E+00
 0.2914506868861E+00
 0.2445785303077E+01
 0.2458976841797E+01
 0.2455303940391E+01
 0.2443301636751E+01
 0.2423285698946E+01
 0.2393857957430E+01
 0.2353535393049E+01
 0.2300801267756E+01
 0.2234098982482E+01
 0.2151812884899E+01
 0.2052276819935E+01
 0.1933811273036E+01
 0.1794799024783E+01
 0.1633817378331E+01
 0.1449857187461E+01
 0.1242677248260E+01
 0.1013372479930E+01
 0.7654450854361E+00
 0.5077964782974E+00
 0.2808392318888E+00
 0.2479060941707E+01
 0.2482871476967E+01
 0.2478461986666E+01
 0.2468021534748E+01
 0.2448976687913E+01
 0.2420086338098E+01
 0.2380108687793E+01
 0.2327752663514E+01
 0.2261608503792E+01
 0.2180141873077E+01
 0.2081697332176E+01
 0.1964516726646E+01
 0.1826782569148E+01
 0.1666710427252E+01
 0.1482734699389E+01
 0.1273869501559E+01
 0.1040406429954E+01
 0.7852893261639E+00
 0.5175902422231E+00
 0.2726030124286E+00
</DataArray>
<CellData Tensors="'E_Centroid','S_Centroid'">
<DataArray type="Float64" Name="E_Centroid" NumberOfComponents="4" ComponentName0="E11" ComponentName1="E22" ComponentName2="E33" ComponentName3="E12" format="ascii">
 0.4500180628791E-02 -0.3442700193379E-01  0.0000000000000E+00 -0.1091495608114E-01
 0.7708356177526E-02 -0.2841618756136E-01  0.0000000000000E+00 -0.4337974164926E-03
 0.6418408993969E-02 -0.2613433340024E-01  0.0000000000000E+00 -0.6843606422451E-03
 0.6271741082027E-02 -0.2500906626735E-01  0.0000000000000E+00 -0.3792300966483E-03
 0.6048553232126E-02 -0.2421773510600E-01  0.0000000000000E+00 -0.2904050882890E-03
 0.5906121806811E-02 -0.2362285574579E-01  0.0000000000000E+00 -0.2351507639039E-03
 0.5781973858564E-02 -0.2313046355954E-01  0.0000000000000E+00 -0.2039909595673E-03
 0.5675063657711E-02 -0.2270100492474E-01  0.0000000000000E+00 -0.1844523786514E-03
 0.5577723165568E-02 -0.2231163620080E-01  0.0000000000000E+00 -0.1714774190997E-03
 0.5487380969894E-02 -0.2195006038935E-01  0.0000000000000E+00 -0.1620031099178E-03
 0.5402298399177E-02 -0.2160973368238E-01  0.0000000000000E+00 -0.1541200203085E-03
 0.5321850811863E-02 -0.2128803188215E-01  0.0000000000000E+00 -0.1464061664241E-03
 0.5246146074167E-02 -0.2098545117765E-01  0.0000000000000E+00 -0.1375069260605E-03
 0.5176140016875E-02 -0.2070583626513E-01  0.0000000000000E+00 -0.1256658018342E-03
 0.5114069536336E-02 -0.2045874702856E-01  0.0000000000000E+00 -0.1071631348807E-03
 0.5062505069353E-02 -0.2026739183038E-01  0.0000000000000E+00 -0.5731107932583E-04
 0.5019312619233E-02 -0.2013531081077E-01  0.0000000000000E+00  0.8499400666262E-04
 0.4974613644150E-02 -0.2000143969819E-01  0.0000000000000E+00  0.3595350865642E-03
 0.4918193052823E-02 -0.1980650971835E-01  0.0000000000000E+00  0.7300030183869E-03
 0.4847712691079E-02 -0.1955022935379E-01  0.0000000000000E+00  0.1132781366753E-02
 0.4767225966266E-02 -0.1925787842842E-01  0.0000000000000E+00  0.1529925677754E-02
 0.4682310094163E-02 -0.1895581071853E-01  0.0000000000000E+00  0.1909252764277E-02
 0.4597716367009E-02 -0.1866472328099E-01  0.0000000000000E+00  0.2272900686201E-02
 0.4516891642517E-02 -0.1839992074561E-01  0.0000000000000E+00  0.2629709410092E-02
 0.4442044743493E-02 -0.1817267734181E-01  0.0000000000000E+00  0.2991868508774E-02
 0.4374004683104E-02 -0.1799030863092E-01  0.0000000000000E+00  0.3373461148103E-02
 0.4312893246862E-02 -0.1785351639593E-01  0.0000000000000E+00  0.3783519853261E-02
 0.4260393835862E-02 -0.1776588750350E-01  0.0000000000000E+00  0.4220638857458E-02
 0.4219978231679E-02 -0.1774573930223E-01  0.0000000000000E+00  0.4686575307553E-02
 0.4194539721834E-02 -0.1781501554888E-01  0.0000000000000E+00  0.5198168849984E-02
 0.4185401762975E-02 -0.1799060909849E-01  0.0000000000000E+00  0.5781901838252E-02
 0.4192261007709E-02 -0.1828743701821E-01  0.0000000000000E+00  0.6469522125627E-02
 0.4212920211390E-02 -0.1871775898186E-01  0.0000000000000E+00  0.7297673091146E-02
 0.4242485032365E-02 -0.1928709013089E-01  0.0000000000000E+00  0.8301654127780E-02
 0.4281834747121E-02 -0.1999119645637E-01  0.0000000000000E+00  0.9488055217118E-02
 0.4344011920481E-02 -0.2084194509657E-01  0.0000000000000E+00  0.1078612395304E-01
 0.4549370011122E-02 -0.2203215539966E-01  0.0000000000000E+00  0.1213218266228E-01
 0.4699746188271E-02 -0.2386247184969E-01  0.0000000000000E+00  0.1386589347560E-01
 0.6074119468987E-02 -0.2705979801460E-01  0.0000000000000E+00  0.1596251760660E-01
 0.1964696020204E-02 -0.3114067901796E-01  0.0000000000000E+00  0.2572363256226E-01
 0.2816000773861E-01 -0.3577968135364E-01  0.0000000000000E+00  0.1280745438666E-01
 0.3123214314267E-02 -0.2966945487675E-01  0.0000000000000E+00 -0.1184979926922E-01
 0.6528922210146E-02 -0.2846310377621E-01  0.0000000000000E+00 -0.5120306697244E-02
 0.6504093376181E-02 -0.2604279872896E-01  0.0000000000000E+00 -0.1863553921040E-02
 0.6128574413427E-02 -0.2479341030178E-01  0.0000000000000E+00 -0.1331215706758E-02
 0.5969692465126E-02 -0.2395126304320E-01  0.0000000000000E+00 -0.9384623906600E-03
 0.5813773468377E-02 -0.2331231280357E-01  0.0000000000000E+00 -0.7541359276410E-03
 0.5690494861470E-02 -0.2279278125537E-01  0.0000000000000E+00 -0.6416010913710E-03
 0.5581109174885E-02 -0.2234513904528E-01  0.0000000000000E+00 -0.5721162922504E-03
 0.5482572415491E-02 -0.2194444609350E-01  0.0000000000000E+00 -0.5255723362649E-03
 0.5391344994063E-02 -0.2157635454825E-01  0.0000000000000E+00 -0.4918151029862E-03
 0.5305817154044E-02 -0.2123302138366E-01  0.0000000000000E+00 -0.4642988341926E-03
 0.5225151422481E-02 -0.2091080616980E-01  0.0000000000000E+00 -0.4383430828083E-03
 0.5149196957561E-02 -0.2060929839249E-01  0.0000000000000E+00 -0.4097012349797E-03
 0.5078525962323E-02 -0.2033131376642E-01  0.0000000000000E+00 -0.3731613057870E-03
 0.5012884786490E-02 -0.2008364016228E-01  0.0000000000000E+00 -0.3169537364718E-03
 0.4948007045963E-02 -0.1987306735445E-01  0.0000000000000E+00 -0.2183706263033E-03
 0.4879694012923E-02 -0.1969139146998E-01  0.0000000000000E+00 -0.5395386324791E-04
 0.4810006931367E-02 -0.1950878721069E-01  0.0000000000000E+00  0.1870852685693E-03
 0.4741146361122E-02 -0.1929575237602E-01  0.0000000000000E+00  0.4962646308682E-03
 0.4670290326267E-02 -0.1904481574959E-01  0.0000000000000E+00  0.8479718202543E-03
 0.4594958022130E-02 -0.1876706280595E-01  0.0000000000000E+00  0.1216018571222E-02
 0.4515835010184E-02 -0.1847947316549E-01  0.0000000000000E+00  0.1586578625841E-02
 0.4434962623309E-02 -0.1819780759538E-01  0.0000000000000E+00  0.1956992974278E-02
 0.4354372362288E-02 -0.1793467315220E-01  0.0000000000000E+00  0.2331601025905E-02
 0.4275382118010E-02 -0.1769939950286E-01  0.0000000000000E+00  0.2718549361600E-02
 0.4198882338255E-02 -0.1749800864085E-01  0.0000000000000E+00  0.3126481200442E-02
 0.4126525977717E-02 -0.1733423990506E-01  0.0000000000000E+00  0.3562022783625E-02
 0.4060164042482E-02 -0.1721347621114E-01  0.0000000000000E+00  0.4031038524549E-02
 0.4000041152119E-02 -0.1714571510768E-01  0.0000000000000E+00  0.4541459811250E-02
 0.3945244991258E-02 -0.1714300724740E-01  0.0000000000000E+00  0.5105918601393E-02
 0.3894397832845E-02 -0.1721525423696E-01  0.0000000000000E+00  0.5743303579790E-02
 0.3844706897223E-02 -0.1736844787763E-01  0.0000000000000E+00  0.6476694413172E-02
 0.3791520578959E-02 -0.1760352869765E-01  0.0000000000000E+00  0.7328959728163E-02
 0.3731436678829E-02 -0.1791506708373E-01  0.0000000000000E+00  0.8314335991498E-02
 0.3668677436161E-02 -0.1829525191251E-01  0.0000000000000E+00  0.9426733703550E-02
 0.3632986089735E-02 -0.1875651946264E-01  0.0000000000000E+00  0.1064673429618E-01
 0.3589128039923E-02 -0.1933638162157E-01  0.0000000000000E+00  0.1204812205434E-01
 0.3633339454276E-02 -0.2006227348600E-01  0.0000000000000E+00  0.1355887085043E-01
 0.3083763249735E-02 -0.2076749175421E-01  0.0000000000000E+00  0.1642843953189E-01
 0.1493135026210E-02 -0.1843088006550E-01  0.0000000000000E+00  0.1489401003007E-01
 0.2339433043560E-01 -0.2034240999016E-01  0.0000000000000E+00 -0.3633106230144E-02
 0.2253832434943E-02 -0.2689789152646E-01  0.0000000000000E+00 -0.1136124001810E-01
 0.5368938616839E-02 -0.2713097008369E-01  0.0000000000000E+00 -0.7315367677235E-02
 0.6144988735204E-02 -0.2572267608091E-01  0.0000000000000E+00 -0.3579373907027E-02
 0.5977977350550E-02 -0.2446173187137E-01  0.0000000000000E+00 -0.2229196893353E-02
 0.5830455884028E-02 -0.2362018618614E-01  0.0000000000000E+00 -0.1640529793853E-02
 0.5701451067256E-02 -0.2296638652026E-01  0.0000000000000E+00 -0.1295580104229E-02
 0.5583160865321E-02 -0.2243286521761E-01  0.0000000000000E+00 -0.1097513812341E-02
 0.5477691581249E-02 -0.2197486893588E-01  0.0000000000000E+00 -0.9712664997458E-03
 0.5380609645005E-02 -0.2156717791349E-01  0.0000000000000E+00 -0.8867703179923E-03
 0.5290181902526E-02 -0.2119498206963E-01  0.0000000000000E+00 -0.8253538024781E-03
 0.5204943081381E-02 -0.2084975367912E-01  0.0000000000000E+00 -0.7757817477606E-03
 0.5124135114204E-02 -0.2052713740582E-01  0.0000000000000E+00 -0.7299580998127E-03
 0.5047392673996E-02 -0.2022585145259E-01  0.0000000000000E+00 -0.6808751248780E-03
 0.4974397488061E-02 -0.1994726528933E-01  0.0000000000000E+00 -0.6200411940759E-03
 0.4902639237183E-02 -0.1969388028046E-01  0.0000000000000E+00 -0.5337320687707E-03
 0.4825901083160E-02 -0.1946432954738E-01  0.0000000000000E+00 -0.4067126314662E-03
 0.4741264638893E-02 -0.1924921033575E-01  0.0000000000000E+00 -0.2328027158343E-03
 0.4655440604939E-02 -0.1903361762633E-01  0.0000000000000E+00 -0.1133951465293E-04
 0.4575693338337E-02 -0.1880337422732E-01  0.0000000000000E+00  0.2591411466837E-03
 0.4500904379725E-02 -0.1855153438147E-01  0.0000000000000E+00  0.5725956135968E-03
 0.4426312338187E-02 -0.1828134230796E-01  0.0000000000000E+00  0.9149197963099E-03
 0.4349278427019E-02 -0.1800252181747E-01  0.0000000000000E+00  0.1274340533831E-02
 0.4269444256863E-02 -0.1772614920346E-01  0.0000000000000E+00  0.1645982414276E-02
 0.4187356238595E-02 -0.1746196127842E-01  0.0000000000000E+00  0.2030893622803E-02
 0.4103584957012E-02 -0.1721740396585E-01  0.0000000000000E+00  0.2433598554989E-02
 0.4018990148917E-02 -0.1699775012973E-01  0.0000000000000E+00  0.2859390291563E-02
 0.3935352497851E-02 -0.1680735793599E-01  0.0000000000000E+00  0.3313959377159E-02
 0.3853896428452E-02 -0.1665086698051E-01  0.0000000000000E+00  0.3805146760706E-02
 0.3773249927622E-02 -0.1653338106265E-01  0.0000000000000E+00  0.4342217735860E-02
 0.3690320517269E-02 -0.1645994959740E-01  0.0000000000000E+00  0.4934985904011E-02
 0.3601653882770E-02 -0.1643372663605E-01  0.0000000000000E+00  0.5595355841517E-02
 0.3502936375544E-02 -0.1645350664727E-01  0.0000000000000E+00  0.6336279786633E-02
 0.3389312402385E-02 -0.1651210532063E-01  0.0000000000000E+00  0.7166416527067E-02
 0.3258502632104E-02 -0.1659632957919E-01  0.0000000000000E+00  0.8083110850322E-02
 0.3119240628395E-02 -0.1669137188340E-01  0.0000000000000E+00  0.9068564281955E-02
 0.2978420221150E-02 -0.1678219043156E-01  0.0000000000000E+00  0.1011902473877E-01
 0.2820154460889E-02 -0.1681121752483E-01  0.0000000000000E+00  0.1120355418317E-01
 0.2573147110438E-02 -0.1663713583229E-01  0.0000000000000E+00  0.1229148662071E-01
 0.1823144862431E-02 -0.1545738601392E-01  0.0000000000000E+00  0.1265357344253E-01
 0.3150421763802E-02 -0.1258814006475E-01  0.0000000000000E+00  0.5648386106056E-02
 0.2216590307140E-01 -0.1500220615300E-01  0.0000000000000E+00 -0.8707136581320E-02
 0.1702920625810E-02 -0.2498233756940E-01  0.0000000000000E+00 -0.1064680572530E-01
 0.4424153712464E-02 -0.2568241005484E-01  0.0000000000000E+00 -0.8254979402002E-02
 0.5602654700296E-02 -0.2503983272284E-01  0.0000000000000E+00 -0.4967005520062E-02
 0.5732192644868E-02 -0.2402869058446E-01  0.0000000000000E+00 -0.3173371851697E-02
 0.5656639597807E-02 -0.2322110156603E-01  0.0000000000000E+00 -0.2329562366132E-02
 0.5560996152908E-02 -0.2258194384842E-01  0.0000000000000E+00 -0.1851279364232E-02
 0.5460480843341E-02 -0.2204865644380E-01  0.0000000000000E+00 -0.1561608920421E-02
 0.5363436994235E-02 -0.2158849897115E-01  0.0000000000000E+00 -0.1377277221615E-02
 0.5271189283575E-02 -0.2117859382813E-01  0.0000000000000E+00 -0.1252176921125E-02
 0.5183310234231E-02 -0.2080501693024E-01  0.0000000000000E+00 -0.1161114340090E-02
 0.5099289101768E-02 -0.2045927385981E-01  0.0000000000000E+00 -0.1087971591355E-02
 0.5018596874928E-02 -0.2013662907875E-01  0.0000000000000E+00 -0.1021446566363E-02
 0.4940712483684E-02 -0.1983503364083E-01  0.0000000000000E+00 -0.9519650723313E-03
 0.4864441208683E-02 -0.1955417939298E-01  0.0000000000000E+00 -0.8690270317756E-03
 0.4786069191008E-02 -0.1929319456623E-01  0.0000000000000E+00 -0.7599624671666E-03
 0.4699608819979E-02 -0.1904728737933E-01  0.0000000000000E+00 -0.6159329543363E-03
 0.4603873264546E-02 -0.1880845111617E-01  0.0000000000000E+00 -0.4382859882931E-03
 0.4507145949825E-02 -0.1856957750697E-01  0.0000000000000E+00 -0.2293954005574E-03
 0.4418387882183E-02 -0.1832459465380E-01  0.0000000000000E+00  0.1598262883606E-04
 0.4338107650226E-02 -0.1806851764015E-01  0.0000000000000E+00  0.3013994207555E-03
 0.4261307599144E-02 -0.1780087249338E-01  0.0000000000000E+00  0.6217540187683E-03
 0.4183532339013E-02 -0.1752626469410E-01  0.0000000000000E+00  0.9688756928142E-03
 0.4102553985749E-02 -0.1725172902133E-01  0.0000000000000E+00  0.1337450554943E-02
 0.4017589685369E-02 -0.1698424036207E-01  0.0000000000000E+00  0.1726338146888E-02
 0.3928508574077E-02 -0.1672947554053E-01  0.0000000000000E+00  0.2137295310079E-02
 0.3835887874365E-02 -0.1649180053578E-01  0.0000000000000E+00  0.2573350648922E-02
 0.3741071346540E-02 -0.1627501440624E-01  0.0000000000000E+00  0.3039188170700E-02
 0.3644507215435E-02 -0.1608224489417E-01  0.0000000000000E+00  0.3542191973805E-02
 0.3543933725858E-02 -0.1591513160623E-01  0.0000000000000E+00  0.4090456758062E-02
 0.3435167961807E-02 -0.1577373185041E-01  0.0000000000000E+00  0.4690538399975E-02
 0.3313622200414E-02 -0.1565573007283E-01  0.0000000000000E+00  0.5347699821309E-02
 0.3174584868567E-02 -0.1555436447332E-01  0.0000000000000E+00  0.6064626974399E-02
 0.3014061618562E-02 -0.1545686290227E-01  0.0000000000000E+00  0.6836481679445E-02
 0.2832454400244E-02 -0.1534458251617E-01  0.0000000000000E+00  0.7644718780143E-02
 0.2637868663543E-02 -0.1519430427219E-01  0.0000000000000E+00  0.8458606182000E-02
 0.2436531813969E-02 -0.1496604943160E-01  0.0000000000000E+00  0.9237182729578E-02
 0.2216226069194E-02 -0.1456141538313E-01  0.0000000000000E+00  0.9878801949177E-02
 0.1920176913475E-02 -0.1372337636908E-01  0.0000000000000E+00  0.1004902166135E-01
 0.1773601059248E-02 -0.1190795484049E-01  0.0000000000000E+00  0.8072813110097E-02
 0.5179466154805E-02 -0.9933247862864E-02  0.0000000000000E+00 -0.4129459915529E-03
 0.2118563220867E-01 -0.1273357593322E-01  0.0000000000000E+00 -0.9832060226312E-02
 0.1338471104801E-02 -0.2351824308798E-01  0.0000000000000E+00 -0.9950417733607E-02
 0.3685378201999E-02 -0.2434913508516E-01  0.0000000000000E+00 -0.8576187055995E-02
 0.5025487164324E-02 -0.2418302911857E-01  0.0000000000000E+00 -0.5932511737866E-02
 0.5408336062594E-02 -0.2347493437116E-01  0.0000000000000E+00 -0.4040970345728E-02
 0.5444802706341E-02 -0.2276237890631E-01  0.0000000000000E+00 -0.2999456420392E-02
 0.5396114303816E-02 -0.2215771148562E-01  0.0000000000000E+00 -0.2399355229513E-02
 0.5321320584977E-02 -0.2163935719055E-01  0.0000000000000E+00 -0.2026587696000E-02
 0.5238214697856E-02 -0.2118505921304E-01  0.0000000000000E+00 -0.1784600128134E-02
 0.5153833573505E-02 -0.2077787274533E-01  0.0000000000000E+00 -0.1618805737433E-02
 0.5070413823306E-02 -0.2040581710431E-01  0.0000000000000E+00 -0.1497355674383E-02
 0.4988630230435E-02 -0.2006113759610E-01  0.0000000000000E+00 -0.1400087510749E-02
 0.4908470460147E-02 -0.1973907776930E-01  0.0000000000000E+00 -0.1312751834327E-02
 0.4829361814181E-02 -0.1943697659417E-01  0.0000000000000E+00 -0.1223687970219E-02
 0.4749562741999E-02 -0.1915307535650E-01  0.0000000000000E+00 -0.1121514986196E-02
 0.4665056929167E-02 -0.1888439832171E-01  0.0000000000000E+00 -0.9955083831210E-03
 0.4570912449446E-02 -0.1862508491333E-01  0.0000000000000E+00 -0.8411200129211E-03
 0.4467391249065E-02 -0.1836892814919E-01  0.0000000000000E+00 -0.6625001769254E-03
 0.4362998720168E-02 -0.1811309280614E-01  0.0000000000000E+00 -0.4622867371569E-03
 0.4266860686959E-02 -0.1785585494008E-01  0.0000000000000E+00 -0.2337919307180E-03
 0.4180598694091E-02 -0.1759402357535E-01  0.0000000000000E+00  0.3097471381786E-04
 0.4099789741682E-02 -0.1732554529055E-01  0.0000000000000E+00  0.3328124172582E-03
 0.4019236240682E-02 -0.1705168055294E-01  0.0000000000000E+00  0.6671818008340E-03
 0.3935442550241E-02 -0.1677621532365E-01  0.0000000000000E+00  0.1029376923707E-02
 0.3846544670400E-02 -0.1650364822685E-01  0.0000000000000E+00  0.1416996043098E-02
 0.3751744613209E-02 -0.1623797355695E-01  0.0000000000000E+00  0.1829821222137E-02
 0.3651169592779E-02 -0.1598244401137E-01  0.0000000000000E+00  0.2269146508204E-02
 0.3545548594317E-02 -0.1573977701047E-01  0.0000000000000E+00  0.2738326756717E-02
 0.3434638635330E-02 -0.1551142694142E-01  0.0000000000000E+00  0.3243060390138E-02
 0.3315731781324E-02 -0.1529640097497E-01  0.0000000000000E+00  0.3788933847252E-02
 0.3184311739909E-02 -0.1509118900063E-01  0.0000000000000E+00  0.4378628713432E-02
 0.3035591763468E-02 -0.1488944618479E-01  0.0000000000000E+00  0.5010924747885E-02
 0.2865419808291E-02 -0.1468049924153E-01  0.0000000000000E+00  0.5678816558493E-02
 0.2671788263225E-02 -0.1444809615162E-01  0.0000000000000E+00  0.6364834361338E-02
 0.2458107309105E-02 -0.1417028547114E-01  0.0000000000000E+00  0.7035937028490E-02
 0.2235221323000E-02 -0.1381761953787E-01  0.0000000000000E+00  0.7641134290208E-02
 0.2016774184684E-02 -0.1333950685033E-01  0.0000000000000E+00  0.8097707130019E-02
 0.1813780466347E-02 -0.1262413569401E-01  0.0000000000000E+00  0.8213778779956E-02
 0.1697282039390E-02 -0.1144880434923E-01  0.0000000000000E+00  0.7405935096051E-02
 0.2354412765998E-02 -0.9695090447344E-02  0.0000000000000E+00  0.3989035190355E-02
 0.6903726062090E-02 -0.8704493210754E-02  0.0000000000000E+00 -0.4024182224646E-02
 0.2030079339986E-01 -0.1149784568059E-01  0.0000000000000E+00 -0.9812941998469E-02
 0.1085996925412E-02 -0.2232339411275E-01  0.0000000000000E+00 -0.9322028748451E-02
 0.3109752893558E-02 -0.2315846222528E-01  0.0000000000000E+00 -0.8589664959372E-02
 0.4479218239779E-02 -0.2327192118215E-01  0.0000000000000E+00 -0.6554327994510E-02
 0.5043029842310E-02 -0.2283072658827E-01  0.0000000000000E+00 -0.4767010159922E-02
 0.5199058534897E-02 -0.2224695475420E-01  0.0000000000000E+00 -0.3624895024894E-02
 0.5209344571437E-02 -0.2169675712326E-01  0.0000000000000E+00 -0.2927507318839E-02
 0.5166640092236E-02 -0.2120500965906E-01  0.0000000000000E+00 -0.2483226399884E-02
 0.5102078054618E-02 -0.2076433937320E-01  0.0000000000000E+00 -0.2188307842793E-02
 0.5028506281303E-02 -0.2036461296455E-01  0.0000000000000E+00 -0.1983449140598E-02
 0.4951372384876E-02 -0.1999702640421E-01  0.0000000000000E+00 -0.1832247086859E-02
 0.4872911707300E-02 -0.1965511096837E-01  0.0000000000000E+00 -0.1711178811945E-02
 0.4793826952641E-02 -0.1933445217000E-01  0.0000000000000E+00 -0.1603613206149E-02
 0.4713692842472E-02 -0.1903201614334E-01  0.0000000000000E+00 -0.1496354822351E-02
 0.4630615969492E-02 -0.1874504086325E-01  0.0000000000000E+00 -0.1377857538485E-02
 0.4540873184354E-02 -0.1846947480432E-01  0.0000000000000E+00 -0.1239261913772E-02
 0.4440797351264E-02 -0.1819949174656E-01  0.0000000000000E+00 -0.1078522049038E-02
 0.4331705517794E-02 -0.1793048417300E-01  0.0000000000000E+00 -0.9003131812479E-03
 0.4221741942413E-02 -0.1766201117134E-01  0.0000000000000E+00 -0.7065012265430E-03
 0.4119532885566E-02 -0.1739467023308E-01  0.0000000000000E+00 -0.4898979319963E-03
 0.4027339542974E-02 -0.1712658369058E-01  0.0000000000000E+00 -0.2407123432899E-03
 0.3941538743254E-02 -0.1685513514410E-01  0.0000000000000E+00  0.4540338455006E-04
 0.3856850790966E-02 -0.1657950292820E-01  0.0000000000000E+00  0.3669090496696E-03
 0.3769048199486E-02 -0.1630100493197E-01  0.0000000000000E+00  0.7201600394608E-03
 0.3675463523912E-02 -0.1602202478165E-01  0.0000000000000E+00  0.1102175856686E-02
 0.3574697867473E-02 -0.1574498012755E-01  0.0000000000000E+00  0.1511370318280E-02
 0.3466372880059E-02 -0.1547190310152E-01  0.0000000000000E+00  0.1947576170970E-02
 0.3350612871051E-02 -0.1520425313064E-01  0.0000000000000E+00  0.2412550878476E-02
 0.3226659867369E-02 -0.1494190227263E-01  0.0000000000000E+00  0.2909681194540E-02
 0.3091697389525E-02 -0.1468184341564E-01  0.0000000000000E+00  0.3441364316579E-02
 0.2941444029121E-02 -0.1441808524234E-01  0.0000000000000E+00  0.4006011470608E-02
 0.2771692708560E-02 -0.1414158806264E-01  0.0000000000000E+00  0.4596156343997E-02
 0.2579717552366E-02 -0.1383930903504E-01  0.0000000000000E+00  0.5195936523112E-02
 0.2366306340456E-02 -0.1349338042534E-01  0.0000000000000E+00  0.5776633298929E-02
 0.2138970439243E-02 -0.1308072981463E-01  0.0000000000000E+00  0.6291393883673E-02
 0.1914699001855E-02 -0.1257057168797E-01  0.0000000000000E+00  0.6668342029546E-02
 0.1721149996251E-02 -0.1191324355187E-01  0.0000000000000E+00  0.6786314232763E-02
 0.1612560601338E-02 -0.1101456079934E-01  0.0000000000000E+00  0.6378943541921E-02
 0.1799710453362E-02 -0.9760121497237E-02  0.0000000000000E+00  0.4785139123413E-02
 0.3173035743377E-02 -0.8344818465627E-02  0.0000000000000E+00  0.7366524771756E-03
 0.8217796461321E-02 -0.8092657251342E-02  0.0000000000000E+00 -0.6117749890617E-02
 0.1949237392431E-01 -0.1069417715305E-01  0.0000000000000E+00 -0.9497591391216E-02
 0.9036024824718E-03 -0.2130295031365E-01  0.0000000000000E+00 -0.8765533384845E-02
 0.2657281147985E-02 -0.2209434843489E-01  0.0000000000000E+00 -0.8450267333587E-02
 0.3987674288340E-02 -0.2236535113120E-01  0.0000000000000E+00 -0.6927112302080E-02
 0.4666298016360E-02 -0.2213313347868E-01  0.0000000000000E+00 -0.5339534384088E-02
 0.4929569895394E-02 -0.2168413451479E-01  0.0000000000000E+00 -0.4184051381564E-02
 0.5003994097321E-02 -0.2120270017861E-01  0.0000000000000E+00 -0.3424818793281E-02
 0.4998141173578E-02 -0.2074710117068E-01  0.0000000000000E+00 -0.2923935219855E-02
 0.4955660312240E-02 -0.2032669086697E-01  0.0000000000000E+00 -0.2583500542104E-02
 0.4895450665799E-02 -0.1993884157414E-01  0.0000000000000E+00 -0.2343054350677E-02
 0.4826291785082E-02 -0.1957856062398E-01  0.0000000000000E+00 -0.2163891168420E-02
 0.4752227804170E-02 -0.1924115908132E-01  0.0000000000000E+00 -0.2020186247476E-02
 0.4674859784233E-02 -0.1892287908516E-01  0.0000000000000E+00 -0.1893570494368E-02
 0.4594125281167E-02 -0.1862060888314E-01  0.0000000000000E+00 -0.1769869857383E-02
 0.4508330196084E-02 -0.1833105924406E-01  0.0000000000000E+00 -0.1637745473907E-02
 0.4414384594322E-02 -0.1804981700996E-01  0.0000000000000E+00 -0.1489798001492E-02
 0.4309838185755E-02 -0.1777156995464E-01  0.0000000000000E+00 -0.1325224772965E-02
 0.4196727768558E-02 -0.1749298949502E-01  0.0000000000000E+00 -0.1148172753176E-02
 0.4082611894524E-02 -0.1721497942476E-01  0.0000000000000E+00 -0.9594309945590E-03
 0.3975369024344E-02 -0.1693933726946E-01  0.0000000000000E+00 -0.7517139384315E-03
 0.3877560655601E-02 -0.1666505289226E-01  0.0000000000000E+00 -0.5147713437116E-03
 0.3786342035154E-02 -0.1638939506431E-01  0.0000000000000E+00 -0.2423178251746E-03
 0.3696714314131E-02 -0.1611029227656E-01  0.0000000000000E+00  0.6631262585477E-04
 0.3604134095844E-02 -0.1582726405613E-01  0.0000000000000E+00  0.4086034229058E-03
 0.3505398507532E-02 -0.1554095594860E-01  0.0000000000000E+00  0.7814238077257E-03
 0.3398612027479E-02 -0.1525235417823E-01  0.0000000000000E+00  0.1182241535865E-02
 0.3282923891061E-02 -0.1496227191904E-01  0.0000000000000E+00  0.1609589102563E-02
 0.3157957490099E-02 -0.1467092407057E-01  0.0000000000000E+00  0.2063471108758E-02
 0.3022647938063E-02 -0.1437680693462E-01  0.0000000000000E+00  0.2544682471644E-02
 0.2874357665222E-02 -0.1407542280177E-01  0.0000000000000E+00  0.3052156159746E-02
 0.2709480393485E-02 -0.1375917430346E-01  0.0000000000000E+00  0.3579927113271E-02
 0.2525011345198E-02 -0.1341748400154E-01  0.0000000000000E+00  0.4114677865968E-02
 0.2320342580110E-02 -0.1303631732168E-01  0.0000000000000E+00  0.4632751043853E-02
 0.2099756413315E-02 -0.1259782357183E-01  0.0000000000000E+00  0.5095749295686E-02
 0.1876029274681E-02 -0.1208016176657E-01  0.0000000000000E+00  0.5444710148864E-02
 0.1674851658612E-02 -0.1145588083857E-01  0.0000000000000E+00  0.5590143080143E-02
 0.1542734113535E-02 -0.1068581575634E-01  0.0000000000000E+00  0.5382522038250E-02
 0.1582738320862E-02 -0.9713585225572E-02  0.0000000000000E+00  0.4521471231902E-02
 0.2106071235789E-02 -0.8538175969862E-02  0.0000000000000E+00  0.2406065352514E-02
 0.4021986044375E-02 -0.7516793603354E-02  0.0000000000000E+00 -0.1734787246883E-02
 0.9171373213949E-02 -0.7750285481130E-02  0.0000000000000E+00 -0.7321024362266E-02
 0.1876182133178E-01 -0.1010149092314E-01  0.0000000000000E+00 -0.9151177652714E-02
 0.7669508385856E-03 -0.2040252711963E-01  0.0000000000000E+00 -0.8273765279420E-02
 0.2296906169705E-02 -0.2113432626710E-01  0.0000000000000E+00 -0.8237507594560E-02
 0.3555513310009E-02 -0.2148908783870E-01  0.0000000000000E+00 -0.7127408724059E-02
 0.4297704220705E-02 -0.2141121097613E-01  0.0000000000000E+00 -0.5772264489400E-02
 0.4647606278388E-02 -0.2108665808007E-01  0.0000000000000E+00 -0.4666275233075E-02
 0.4784582014387E-02 -0.2068038762314E-01  0.0000000000000E+00 -0.3882330740334E-02
 0.4817993503651E-02 -0.2026789778887E-01  0.0000000000000E+00 -0.3342572143848E-02
 0.4800037816915E-02 -0.1987307062539E-01  0.0000000000000E+00 -0.2965830275615E-02
 0.4755189425110E-02 -0.1950094517104E-01  0.0000000000000E+00 -0.2694747886854E-02
 0.4695469256259E-02 -0.1915059427993E-01  0.0000000000000E+00 -0.2490434075122E-02
 0.4626811783008E-02 -0.1881942825331E-01  0.0000000000000E+00 -0.2325979076143E-02
 0.4551857123813E-02 -0.1850461773476E-01  0.0000000000000E+00 -0.2181990616978E-02
 0.4471100050590E-02 -0.1820326606130E-01  0.0000000000000E+00 -0.2043812513172E-02
 0.4383310493514E-02 -0.1791197228019E-01  0.0000000000000E+00 -0.1900488161492E-02
 0.4286198352722E-02 -0.1762642213860E-01  0.0000000000000E+00 -0.1745642654016E-02
 0.4178391701596E-02 -0.1734199600422E-01  0.0000000000000E+00 -0.1578912588001E-02
 0.4062400250775E-02 -0.1705634933666E-01  0.0000000000000E+00 -0.1403487167086E-02
 0.3945143170015E-02 -0.1677112774173E-01  0.0000000000000E+00 -0.1219083289576E-02
 0.3833701983836E-02 -0.1648869951377E-01  0.0000000000000E+00 -0.1018503115064E-02
 0.3730722267132E-02 -0.1620858466349E-01  0.0000000000000E+00 -0.7917082720310E-03
 0.3634031224279E-02 -0.1592811355122E-01  0.0000000000000E+00 -0.5315262955203E-03
 0.3539086154230E-02 -0.1564449146066E-01  0.0000000000000E+00 -0.2358168197824E-03
 0.3441323553864E-02 -0.1535596954852E-01  0.0000000000000E+00  0.9388830817103E-04
 0.3337241815115E-02 -0.1506181163499E-01  0.0000000000000E+00  0.4545262293563E-03
 0.3224579698863E-02 -0.1476175273975E-01  0.0000000000000E+00  0.8428905299638E-03
 0.3102105939248E-02 -0.1445547334184E-01  0.0000000000000E+00  0.1256327004480E-02
 0.2969091297353E-02 -0.1414206319542E-01  0.0000000000000E+00  0.1693037983716E-02
 0.2824376202963E-02 -0.1381890137793E-01  0.0000000000000E+00  0.2151164704733E-02
 0.2665752533231E-02 -0.1348046578907E-01  0.0000000000000E+00  0.2626171307353E-02
 0.2490633486444E-02 -0.1311827737669E-01  0.0000000000000E+00  0.3107865258505E-02
 0.2297687435640E-02 -0.1272119411109E-01  0.0000000000000E+00  0.3577655981530E-02
 0.2088943301612E-02 -0.1227536102579E-01  0.0000000000000E+00  0.4005304750468E-02
 0.1872729641968E-02 -0.1176436647675E-01  0.0000000000000E+00  0.4344571819223E-02
 0.1667939622328E-02 -0.1116969867438E-01  0.0000000000000E+00  0.4527115361477E-02
 0.1510450550395E-02 -0.1047090960605E-01  0.0000000000000E+00  0.4451385887399E-02
 0.1467099014923E-02 -0.9645631874417E-02  0.0000000000000E+00  0.3954144676777E-02
 0.1682704900724E-02 -0.8681040964741E-02  0.0000000000000E+00  0.2742657917831E-02
 0.2519716819424E-02 -0.7662559264870E-02  0.0000000000000E+00  0.3471630685572E-03
 0.4805669186332E-02 -0.6998079876433E-02  0.0000000000000E+00 -0.3578033688852E-02
 0.9843868230964E-02 -0.7527385023489E-02  0.0000000000000E+00 -0.8010870895064E-02
 0.1810286172703E-01 -0.9628669306154E-02  0.0000000000000E+00 -0.8845131037381E-02
 0.6613465232360E-03 -0.1958866609365E-01  0.0000000000000E+00 -0.7837784905563E-02
 0.2005734340454E-02 -0.2025824451538E-01  0.0000000000000E+00 -0.7993195599995E-02
 0.3179340828686E-02 -0.2065248932503E-01  0.0000000000000E+00 -0.7210839967744E-02
 0.3948353517521E-02 -0.2068451002099E-01  0.0000000000000E+00 -0.6087653274421E-02
 0.4362869833015E-02 -0.2046703011446E-01  0.0000000000000E+00 -0.5070499545934E-02
 0.4556162909558E-02 -0.2013562449935E-01  0.0000000000000E+00 -0.4294392706220E-02
 0.4628744522875E-02 -0.1977021694386E-01  0.0000000000000E+00 -0.3734390940146E-02
 0.4636587267236E-02 -0.1940489305280E-01  0.0000000000000E+00 -0.3331691274285E-02
 0.4608481925413E-02 -0.1905163231431E-01  0.0000000000000E+00 -0.3035956193010E-02
 0.4559367325143E-02 -0.1871352672962E-01  0.0000000000000E+00 -0.2810125463642E-02
 0.4497014899248E-02 -0.1839022564739E-01  0.0000000000000E+00 -0.2627404004607E-02
 0.4425177975446E-02 -0.1808003095581E-01  0.0000000000000E+00 -0.2468109095796E-02
 0.4345056654969E-02 -0.1778051612611E-01  0.0000000000000E+00 -0.2317536453163E-02
 0.4256060630430E-02 -0.1748849264820E-01  0.0000000000000E+00 -0.2165194509353E-02
 0.4156757723136E-02 -0.1720002684270E-01  0.0000000000000E+00 -0.2005380556586E-02
 0.4046698594081E-02 -0.1691122991865E-01  0.0000000000000E+00 -0.1837700685388E-02
 0.3928697126019E-02 -0.1662050726894E-01  0.0000000000000E+00 -0.1664276088871E-02
 0.3809059915989E-02 -0.1632989571638E-01  0.0000000000000E+00 -0.1483881428737E-02
 0.3694114682213E-02 -0.1604198123185E-01  0.0000000000000E+00 -0.1289501624021E-02
 0.3586466369796E-02 -0.1575658038437E-01  0.0000000000000E+00 -0.1071634339428E-02
 0.3484493828037E-02 -0.1547113921919E-01  0.0000000000000E+00 -0.8228837154294E-03
 0.3384176872568E-02 -0.1518246623475E-01  0.0000000000000E+00 -0.5402324075977E-03
 0.3281129381794E-02 -0.1488794507866E-01  0.0000000000000E+00 -0.2244605459442E-03
 0.3171748182790E-02 -0.1458577537243E-01  0.0000000000000E+00  0.1215068139231E-03
 0.3053548501851E-02 -0.1427464181043E-01  0.0000000000000E+00  0.4939502321468E-03
 0.2925043348794E-02 -0.1395323463182E-01  0.0000000000000E+00  0.8891231465729E-03
 0.2785315849488E-02 -0.1361969496662E-01  0.0000000000000E+00  0.1303460942778E-02
 0.2633313026739E-02 -0.1327056101021E-01  0.0000000000000E+00  0.1732535619049E-02
 0.2467470974600E-02 -0.1289970412839E-01  0.0000000000000E+00  0.2168523639784E-02
 0.2286485039612E-02 -0.1249836662513E-01  0.0000000000000E+00  0.2597353828262E-02
 0.2091029484611E-02 -0.1205563768488E-01  0.0000000000000E+00  0.2995896445068E-02
 0.1886119420129E-02 -0.1155879706470E-01  0.0000000000000E+00  0.3328661190728E-02
 0.1684468071537E-02 -0.1099402734338E-01  0.0000000000000E+00  0.3543640187228E-02
 0.1511477092013E-02 -0.1034774124721E-01  0.0000000000000E+00  0.3566486483522E-02
 0.1413478569108E-02 -0.9608838313540E-02  0.0000000000000E+00  0.3290256259524E-02
 0.1475727980341E-02 -0.8774176123560E-02  0.0000000000000E+00  0.2553141314167E-02
 0.1871646140260E-02 -0.7869982984064E-02  0.0000000000000E+00  0.1100040176203E-02
 0.2974281687074E-02 -0.7034753439664E-02  0.0000000000000E+00 -0.1388765619807E-02
 0.5488171247950E-02 -0.6661753737158E-02  0.0000000000000E+00 -0.4946743642450E-02
 0.1030624111994E-01 -0.7358932971437E-02  0.0000000000000E+00 -0.8404533963798E-02
 0.1750564812815E-01 -0.9233138105459E-02  0.0000000000000E+00 -0.8590141113993E-02
 0.5775696112979E-03 -0.1883963113568E-01  0.0000000000000E+00 -0.7449367189922E-02
 0.1767116931590E-02 -0.1944980379071E-01  0.0000000000000E+00 -0.7739619200045E-02
 0.2852897287461E-02 -0.1985711325082E-01  0.0000000000000E+00 -0.7216256463913E-02
 0.3623617293266E-02 -0.1996509882777E-01  0.0000000000000E+00 -0.6308805646325E-02
 0.4082669677740E-02 -0.1983574261658E-01  0.0000000000000E+00 -0.5401661110118E-02
 0.4323590953800E-02 -0.1957441937701E-01  0.0000000000000E+00 -0.4658807876719E-02
 0.4433132766770E-02 -0.1925723888306E-01  0.0000000000000E+00 -0.4096172090493E-02
 0.4466880306623E-02 -0.1892389043577E-01  0.0000000000000E+00 -0.3678274667583E-02
 0.4456262724452E-02 -0.1859187057922E-01  0.0000000000000E+00 -0.3364495518459E-02
 0.4418583573230E-02 -0.1826794757952E-01  0.0000000000000E+00 -0.3121373572608E-02
 0.4363283535262E-02 -0.1795399339384E-01  0.0000000000000E+00 -0.2923328879832E-02
 0.4295232235501E-02 -0.1764956017695E-01  0.0000000000000E+00 -0.2751080773374E-02
 0.4216424626119E-02 -0.1735288695197E-01  0.0000000000000E+00 -0.2590257182194E-02
 0.4127008813553E-02 -0.1706123000234E-01  0.0000000000000E+00 -0.2430885323861E-02
 0.4026403980886E-02 -0.1677119781776E-01  0.0000000000000E+00 -0.2267693875893E-02
 0.3914939191054E-02 -0.1647960907037E-01  0.0000000000000E+00 -0.2100018198854E-02
 0.3795622934387E-02 -0.1618544483154E-01  0.0000000000000E+00 -0.1928962245868E-02
 0.3674211431041E-02 -0.1589092984891E-01  0.0000000000000E+00 -0.1752531265654E-02
 0.3556360688291E-02 -0.1559867343777E-01  0.0000000000000E+00 -0.1563950523232E-02
 0.3444572545558E-02 -0.1530863649401E-01  0.0000000000000E+00 -0.1354398548451E-02
 0.3337671223950E-02 -0.1501838515132E-01  0.0000000000000E+00 -0.1116664149849E-02
 0.3232167106355E-02 -0.1472453222021E-01  0.0000000000000E+00 -0.8473092528315E-03
 0.3123976480587E-02 -0.1442389022901E-01  0.0000000000000E+00 -0.5466136088861E-03
 0.3009552397256E-02 -0.1411386741235E-01  0.0000000000000E+00 -0.2173851066365E-03
 0.2886327047294E-02 -0.1379230467600E-01  0.0000000000000E+00  0.1362304354967E-03
 0.2752695570897E-02 -0.1345707603848E-01  0.0000000000000E+00  0.5094819934734E-03
 0.2607718221948E-02 -0.1310557723272E-01  0.0000000000000E+00  0.8971365747390E-03
 0.2450630001835E-02 -0.1273377920588E-01  0.0000000000000E+00  0.1292381460661E-02
 0.2280688168833E-02 -0.1233531659758E-01  0.0000000000000E+00  0.1684414339000E-02
 0.2098058813154E-02 -0.1190164953382E-01  0.0000000000000E+00  0.2055778155431E-02
 0.1905630853905E-02 -0.1142272850537E-01  0.0000000000000E+00  0.2379650629783E-02
 0.1711587936541E-02 -0.1088770396685E-01  0.0000000000000E+00  0.2616694090854E-02
 0.1533121125140E-02 -0.1028619451260E-01  0.0000000000000E+00  0.2711329146104E-02
 0.1402039127458E-02 -0.9610532819935E-02  0.0000000000000E+00  0.2586805185743E-02
 0.1374258204523E-02 -0.8859923348634E-02  0.0000000000000E+00  0.2137427610051E-02
 0.1549301505746E-02 -0.8049626458434E-02  0.0000000000000E+00  0.1215262589216E-02
 0.2115213641847E-02 -0.7235593893856E-02  0.0000000000000E+00 -0.3811751174830E-03
 0.3428142005446E-02 -0.6581093091568E-02  0.0000000000000E+00 -0.2832643838730E-02
 0.6062755497768E-02 -0.6433470519114E-02  0.0000000000000E+00 -0.5966437876678E-02
 0.1061342700560E-01 -0.7216578581512E-02  0.0000000000000E+00 -0.8625900211230E-02
 0.1695984321587E-01 -0.8892417563185E-02  0.0000000000000E+00 -0.8379904119721E-02
 0.5096241734668E-03 -0.1814066581708E-01  0.0000000000000E+00 -0.7101531247748E-02
 0.1568929898432E-02 -0.1869623875122E-01  0.0000000000000E+00 -0.7488660123749E-02
 0.2569383101402E-02 -0.1910101413779E-01  0.0000000000000E+00 -0.7170375230204E-02
 0.3325306614980E-02 -0.1925987190394E-01  0.0000000000000E+00 -0.6456257562262E-02
 0.3812009096161E-02 -0.1920084234897E-01  0.0000000000000E+00 -0.5667691511600E-02
 0.4091065746270E-02 -0.1900235767264E-01  0.0000000000000E+00 -0.4976188286626E-02
 0.4233866128790E-02 -0.1873226861171E-01  0.0000000000000E+00 -0.4426227328202E-02
 0.4292584434457E-02 -0.1843199199140E-01  0.0000000000000E+00 -0.4003587155320E-02
 0.4299580856351E-02 -0.1812281565689E-01  0.0000000000000E+00 -0.3678616419682E-02
 0.4273815929140E-02 -0.1781459775788E-01  0.0000000000000E+00 -0.3422789617066E-02
 0.4226136261084E-02 -0.1751128161655E-01  0.0000000000000E+00 -0.3212682093947E-02
 0.4162464740506E-02 -0.1721370463583E-01  0.0000000000000E+00 -0.3030029033359E-02
 0.4085621507649E-02 -0.1692089893226E-01  0.0000000000000E+00 -0.2861121783856E-02
 0.3996529679982E-02 -0.1663071693851E-01  0.0000000000000E+00 -0.2696561890255E-02
 0.3895416124972E-02 -0.1634039172498E-01  0.0000000000000E+00 -0.2531371708638E-02
 0.3783264364970E-02 -0.1604740189979E-01  0.0000000000000E+00 -0.2364526785978E-02
 0.3663209478894E-02 -0.1575117876857E-01  0.0000000000000E+00 -0.2196241914064E-02
 0.3540531957390E-02 -0.1545401956197E-01  0.0000000000000E+00 -0.2023932011379E-02
 0.3420310511583E-02 -0.1515845535569E-01  0.0000000000000E+00 -0.1841104523770E-02
 0.3304921441124E-02 -0.1486449809439E-01  0.0000000000000E+00 -0.1639671971836E-02
 0.3193550241262E-02 -0.1456982264717E-01  0.0000000000000E+00 -0.1412850751363E-02
 0.3083217962405E-02 -0.1427097112841E-01  0.0000000000000E+00 -0.1157115481458E-02
 0.2970218316325E-02 -0.1396440254432E-01  0.0000000000000E+00 -0.8724775300593E-03
 0.2851183230053E-02 -0.1364696308566E-01  0.0000000000000E+00 -0.5616942178629E-03
 0.2723591825725E-02 -0.1331585030395E-01  0.0000000000000E+00 -0.2292959669663E-03
 0.2585858288294E-02 -0.1296830851499E-01  0.0000000000000E+00  0.1190495045666E-03
 0.2437173835022E-02 -0.1260119803785E-01  0.0000000000000E+00  0.4765845239530E-03
 0.2277217507619E-02 -0.1221018039146E-01  0.0000000000000E+00  0.8343637147726E-03
 0.2106204987878E-02 -0.1178897340650E-01  0.0000000000000E+00  0.1178999435692E-02
 0.1925893200874E-02 -0.1132965384427E-01  0.0000000000000E+00  0.1490234956790E-02
 0.1741483404648E-02 -0.1082351027231E-01  0.0000000000000E+00  0.1738467475675E-02
 0.1564351803182E-02 -0.1026208455607E-01  0.0000000000000E+00  0.1881933703415E-02
 0.1416018278745E-02 -0.9638946981021E-02  0.0000000000000E+00  0.1863660437718E-02
 0.1334149162050E-02 -0.8952748828869E-02  0.0000000000000E+00  0.1607945098508E-02
 0.1382532095279E-02 -0.8212754266791E-02  0.0000000000000E+00  0.1016062428463E-02
 0.1669885260851E-02 -0.7449745701596E-02  0.0000000000000E+00 -0.3767099439556E-04
 0.2386930155486E-02 -0.6739154890713E-02  0.0000000000000E+00 -0.1696488499399E-02
 0.3857175857963E-02 -0.6248866919456E-02  0.0000000000000E+00 -0.4026359401539E-02
 0.6535650708555E-02 -0.6269800901565E-02  0.0000000000000E+00 -0.6731755466515E-02
 0.1080573622134E-01 -0.7087897147508E-02  0.0000000000000E+00 -0.8745787523114E-02
 0.1645615537176E-01 -0.8593157993213E-02  0.0000000000000E+00 -0.8205179830976E-02
 0.4534804871043E-03 -0.1748137812663E-01  0.0000000000000E+00 -0.6788502365539E-02
 0.1402273365651E-02 -0.1798762873167E-01  0.0000000000000E+00 -0.7246523535022E-02
 0.2322428981915E-02 -0.1838085726974E-01  0.0000000000000E+00 -0.7091469616084E-02
 0.3053163991051E-02 -0.1857236129503E-01  0.0000000000000E+00 -0.6547070296577E-02
 0.3554003562551E-02 -0.1856813134534E-01  0.0000000000000E+00 -0.5877525930251E-02
 0.3861951543994E-02 -0.1842425606753E-01  0.0000000000000E+00 -0.5249084977981E-02
 0.4033441004049E-02 -0.1819851070695E-01  0.0000000000000E+00 -0.4724227311560E-02
 0.4115367490792E-02 -0.1793120979994E-01  0.0000000000000E+00 -0.4306427680174E-02
 0.4139543320517E-02 -0.1764574304625E-01  0.0000000000000E+00 -0.3977016845032E-02
 0.4125827471159E-02 -0.1735432844962E-01  0.0000000000000E+00 -0.3713216280927E-02
 0.4086141464615E-02 -0.1706272175535E-01  0.0000000000000E+00 -0.3494485896724E-02
 0.4027342344627E-02 -0.1677300430777E-01  0.0000000000000E+00 -0.3304088329897E-02
 0.3953053163676E-02 -0.1648506293867E-01  0.0000000000000E+00 -0.3129261214159E-02
 0.3864960958197E-02 -0.1619743038303E-01  0.0000000000000E+00 -0.2961247452437E-02
 0.3764035984904E-02 -0.1590799450066E-01  0.0000000000000E+00 -0.2795307522026E-02
 0.3651812570527E-02 -0.1561483914065E-01  0.0000000000000E+00 -0.2630063647322E-02
 0.3531511971374E-02 -0.1531775699770E-01  0.0000000000000E+00 -0.2465001969040E-02
 0.3408014354271E-02 -0.1501905524339E-01  0.0000000000000E+00 -0.2297116628508E-02
 0.3285914749545E-02 -0.1472113967708E-01  0.0000000000000E+00 -0.2120232101472E-02
 0.3167465982754E-02 -0.1442402097228E-01  0.0000000000000E+00 -0.1927002254176E-02
 0.3052152638407E-02 -0.1412547044409E-01  0.0000000000000E+00 -0.1711208697913E-02
 0.2937475743949E-02 -0.1382203933562E-01  0.0000000000000E+00 -0.1469473678156E-02
 0.2820148483147E-02 -0.1350999356993E-01  0.0000000000000E+00 -0.1201736002299E-02
 0.2697074791735E-02 -0.1318580771753E-01  0.0000000000000E+00 -0.9107843758357E-03
 0.2565895077231E-02 -0.1284622251059E-01  0.0000000000000E+00 -0.6015147310895E-03
 0.2425169302141E-02 -0.1248803782842E-01  0.0000000000000E+00 -0.2804204325847E-03
 0.2274355876663E-02 -0.1210778199161E-01  0.0000000000000E+00  0.4439058685879E-04
 0.2113705557163E-02 -0.1170104063001E-01  0.0000000000000E+00  0.3621354435206E-03
 0.1944489460894E-02 -0.1126188338583E-01  0.0000000000000E+00  0.6572853499831E-03
 0.1770112345039E-02 -0.1078331187623E-01  0.0000000000000E+00  0.9074203055829E-03
 0.1598087254022E-02 -0.1025828909638E-01  0.0000000000000E+00  0.1081087823372E-02
 0.1442865138034E-02 -0.9681066580129E-02  0.0000000000000E+00  0.1135475818700E-02
 0.1329933005030E-02 -0.9049374439660E-02  0.0000000000000E+00  0.1014243827954E-02
 0.1301919892803E-02 -0.8368060528006E-02  0.0000000000000E+00  0.6457444098149E-03
 0.1428308949079E-02 -0.7655336186752E-02  0.0000000000000E+00 -0.5748842582809E-04
 0.1822029719587E-02 -0.6953710293041E-02  0.0000000000000E+00 -0.1194537235162E-02
 0.2667573154007E-02 -0.6349034129253E-02  0.0000000000000E+00 -0.2853210208068E-02
 0.4248743781381E-02 -0.6001167810607E-02  0.0000000000000E+00 -0.5011807643203E-02
 0.6917914628777E-02 -0.6145248973822E-02  0.0000000000000E+00 -0.7311549311276E-02
 0.1091218752289E-01 -0.6967400819503E-02  0.0000000000000E+00 -0.8805066591784E-02
 0.1598677688189E-01 -0.8326609256833E-02  0.0000000000000E+00 -0.8057756304758E-02
 0.4063483505806E-03 -0.1685421837685E-01  0.0000000000000E+00 -0.6505531835251E-02
 0.1260541859301E-02 -0.1731624367005E-01  0.0000000000000E+00 -0.7016266010373E-02
 0.2106436906108E-02 -0.1769293823606E-01  0.0000000000000E+00 -0.6992023551022E-02
 0.2805818058421E-02 -0.1790399879354E-01  0.0000000000000E+00 -0.6594919038108E-02
 0.3310351008471E-02 -0.1794158040650E-01  0.0000000000000E+00 -0.6039951311308E-02
 0.3638775286444E-02 -0.1784404754880E-01  0.0000000000000E+00 -0.5481197063084E-02
 0.3834029996001E-02 -0.1765890442377E-01  0.0000000000000E+00 -0.4990924472421E-02
 0.3936816017085E-02 -0.1742353633434E-01  0.0000000000000E+00 -0.4586315564162E-02
 0.3977264025495E-02 -0.1716198521960E-01  0.0000000000000E+00 -0.4258830828272E-02
 0.3975413347117E-02 -0.1688806116720E-01  0.0000000000000E+00 -0.3991740908352E-02
 0.3943896364490E-02 -0.1660900105475E-01  0.0000000000000E+00 -0.3767881402181E-02
 0.3890342999756E-02 -0.1632802554864E-01  0.0000000000000E+00 -0.3572438019910E-02
 0.3819114331190E-02 -0.1604587985179E-01  0.0000000000000E+00 -0.3393827870239E-02
 0.3732615090175E-02 -0.1576180757238E-01  0.0000000000000E+00 -0.3224011938711E-02
 0.3632483712151E-02 -0.1547434684109E-01  0.0000000000000E+00 -0.3058492274345E-02
 0.3520718861115E-02 -0.1518213189221E-01  0.0000000000000E+00 -0.2895601437449E-02
 0.3400604931867E-02 -0.1488525401734E-01  0.0000000000000E+00 -0.2734265613082E-02
 0.3276692107835E-02 -0.1458599952568E-01  0.0000000000000E+00 -0.2571211974744E-02
 0.3153178387055E-02 -0.1428663379689E-01  0.0000000000000E+00 -0.2400613143676E-02
 0.3032209223137E-02 -0.1398714151663E-01  0.0000000000000E+00 -0.2215849865764E-02
 0.2913524658059E-02 -0.1368538279880E-01  0.0000000000000E+00 -0.2011340009289E-02
 0.2795073237276E-02 -0.1337797150502E-01  0.0000000000000E+00 -0.1784012672598E-02
 0.2674008663024E-02 -0.1306110024506E-01  0.0000000000000E+00 -0.1533888785629E-02
 0.2547576001775E-02 -0.1273102900936E-01  0.0000000000000E+00 -0.1263866738853E-02
 0.2413673415661E-02 -0.1238420991300E-01  0.0000000000000E+00 -0.9791962445849E-03
 0.2271117641781E-02 -0.1201717312118E-01  0.0000000000000E+00 -0.6871002657619E-03
 0.2119749051545E-02 -0.1162630303824E-01  0.0000000000000E+00 -0.3968431521976E-03
 0.1960488146315E-02 -0.1120731346175E-01  0.0000000000000E+00 -0.1207261141503E-03
 0.1795719188620E-02 -0.1075484308322E-01  0.0000000000000E+00  0.1240487833896E-03
 0.1630494745116E-02 -0.1026304298900E-01  0.0000000000000E+00  0.3135487824285E-03
 0.1474554669189E-02 -0.9726760721426E-02  0.0000000000000E+00  0.4153789576391E-03
 0.1345188024632E-02 -0.9143094483432E-02  0.0000000000000E+00  0.3869525390301E-03
 0.1271321684926E-02 -0.8513876583609E-02  0.0000000000000E+00  0.1743323233643E-03
 0.1299436672478E-02 -0.7849629537772E-02  0.0000000000000E+00 -0.2876937505367E-03
 0.1502417399857E-02 -0.7175896506324E-02  0.0000000000000E+00 -0.1072599527797E-02
 0.1993102362444E-02 -0.6543031699513E-02  0.0000000000000E+00 -0.2251776769017E-02
 0.2943850249281E-02 -0.6040225421769E-02  0.0000000000000E+00 -0.3864494368917E-02
 0.4597367345113E-02 -0.5812400345921E-02  0.0000000000000E+00 -0.5826348696267E-02
 0.7221581825619E-02 -0.6044709907484E-02  0.0000000000000E+00 -0.7755154553887E-02
 0.1095361259819E-01 -0.6852624940202E-02  0.0000000000000E+00 -0.8827633922550E-02
 0.1554534021314E-01 -0.8086591027868E-02  0.0000000000000E+00 -0.7931177308794E-02
 0.3662433708175E-03 -0.1625355293466E-01  0.0000000000000E+00 -0.6248705754264E-02
 0.1138772136373E-02 -0.1667601592290E-01  0.0000000000000E+00 -0.6799181419090E-02
 0.1916638675665E-02 -0.1703365434595E-01  0.0000000000000E+00 -0.6880567597029E-02
 0.2581368138240E-02 -0.1725494973221E-01  0.0000000000000E+00 -0.6610543671415E-02
 0.3081744643194E-02 -0.1732375930013E-01  0.0000000000000E+00 -0.6163021147056E-02
 0.3423317502381E-02 -0.1726480835770E-01  0.0000000000000E+00 -0.5676763617680E-02
 0.3637433328938E-02 -0.1711602881217E-01  0.0000000000000E+00 -0.5227850624651E-02
 0.3758375265401E-02 -0.1691086230099E-01  0.0000000000000E+00 -0.4843381676755E-02
 0.3813820315249E-02 -0.1667287631829E-01  0.0000000000000E+00 -0.4523596523822E-02
 0.3823371235855E-02 -0.1641675106061E-01  0.0000000000000E+00 -0.4257695420146E-02
 0.3800008041775E-02 -0.1615083900078E-01  0.0000000000000E+00 -0.4032144518031E-02
 0.3751946198142E-02 -0.1587934862823E-01  0.0000000000000E+00 -0.3834327130988E-02
 0.3684188541708E-02 -0.1560384007342E-01  0.0000000000000E+00 -0.3654021446025E-02
 0.3599786701776E-02 -0.1532425713558E-01  0.0000000000000E+00 -0.3483986204196E-02
 0.3500966921317E-02 -0.1503976038050E-01  0.0000000000000E+00 -0.3320006525200E-02
 0.3390119165569E-02 -0.1474948176304E-01  0.0000000000000E+00 -0.3160219899060E-02
 0.3270578116918E-02 -0.1445376616666E-01  0.0000000000000E+00 -0.3003156334395E-02
 0.3146626562813E-02 -0.1415486687828E-01  0.0000000000000E+00 -0.2845412222266E-02
 0.3022142574469E-02 -0.1385491190514E-01  0.0000000000000E+00 -0.2681536618807E-02
 0.2899187498034E-02 -0.1355385326797E-01  0.0000000000000E+00 -0.2505613128204E-02
 0.2777727667357E-02 -0.1324963814232E-01  0.0000000000000E+00 -0.2312725018771E-02
 0.2656129143006E-02 -0.1293898129061E-01  0.0000000000000E+00 -0.2100210618078E-02
 0.2531994126444E-02 -0.1261809296610E-01  0.0000000000000E+00 -0.1868287787898E-02
 0.2402958694463E-02 -0.1228314756519E-01  0.0000000000000E+00 -0.1620028784632E-02
 0.2267256931428E-02 -0.1193045646747E-01  0.0000000000000E+00 -0.1361023105778E-02
 0.2124054761380E-02 -0.1155643849704E-01  0.0000000000000E+00 -0.1099121788011E-02
 0.1973666046259E-02 -0.1115750144315E-01  0.0000000000000E+00 -0.8445412469705E-03
 0.1817749606856E-02 -0.1072965911818E-01  0.0000000000000E+00 -0.6107729120776E-03
 0.1659823577059E-02 -0.1026828652932E-01  0.0000000000000E+00 -0.4162222576214E-03
 0.1506538292610E-02 -0.9768832917597E-02  0.0000000000000E+00 -0.2856995362124E-03
 0.1369705954693E-02 -0.9228130057961E-02  0.0000000000000E+00 -0.2516940995753E-03
 0.1269125484101E-02 -0.8646106018463E-02  0.0000000000000E+00 -0.3554421954007E-03
 0.1236526208910E-02 -0.8028427651014E-02  0.0000000000000E+00 -0.6470312719394E-03
 0.1321042246258E-02 -0.7390505784779E-02  0.0000000000000E+00 -0.1183553011351E-02
 0.1596800037909E-02 -0.6763408943651E-02  0.0000000000000E+00 -0.2023176833192E-02
 0.2173174200918E-02 -0.6201857869397E-02  0.0000000000000E+00 -0.3210803889155E-02
 0.3207001837623E-02 -0.5793341252612E-02  0.0000000000000E+00 -0.4745670827246E-02
 0.4901841361515E-02 -0.5664855981263E-02  0.0000000000000E+00 -0.6501466202915E-02
 0.7457989480701E-02 -0.5959135777123E-02  0.0000000000000E+00 -0.8097756112546E-02
 0.1094505514418E-01 -0.6742421870478E-02  0.0000000000000E+00 -0.8827658526172E-02
 0.1512670526748E-01 -0.7868501101894E-02  0.0000000000000E+00 -0.7820554569212E-02
 0.3317200187142E-03 -0.1567507878301E-01  0.0000000000000E+00 -0.6014779320478E-02
 0.1033187344494E-02 -0.1606213699313E-01  0.0000000000000E+00 -0.6595576824377E-02
 0.1749036883905E-02 -0.1639970259584E-01  0.0000000000000E+00 -0.6762929541670E-02
 0.2377728831083E-02 -0.1662464761562E-01  0.0000000000000E+00 -0.6602278296838E-02
 0.2868198596468E-02 -0.1671620864680E-01  0.0000000000000E+00 -0.6253815684866E-02
 0.3216738797909E-02 -0.1668885547517E-01  0.0000000000000E+00 -0.5840142515619E-02
 0.3445076966249E-02 -0.1657206632872E-01  0.0000000000000E+00 -0.5437040584637E-02
 0.3581312482680E-02 -0.1639491907651E-01  0.0000000000000E+00 -0.5078241875994E-02
 0.3650218943179E-02 -0.1617970646802E-01  0.0000000000000E+00 -0.4771208484006E-02
 0.3670476257320E-02 -0.1594135472880E-01  0.0000000000000E+00 -0.4510645124760E-02
 0.3655076872753E-02 -0.1568896625302E-01  0.0000000000000E+00 -0.4286693207507E-02
 0.3612624485250E-02 -0.1542755668672E-01  0.0000000000000E+00 -0.4089090653655E-02
 0.3548647195532E-02 -0.1515942240269E-01  0.0000000000000E+00 -0.3909105685064E-02
 0.3466756889944E-02 -0.1488516619340E-01  0.0000000000000E+00 -0.3740369579664E-02
 0.3369685639486E-02 -0.1460452758184E-01  0.0000000000000E+00 -0.3579012841640E-02
 0.3260151734437E-02 -0.1431708613643E-01  0.0000000000000E+00 -0.3423085657806E-02
 0.3141532626776E-02 -0.1402340697562E-01  0.0000000000000E+00 -0.3270873738894E-02
 0.3017897557271E-02 -0.1372570863252E-01  0.0000000000000E+00 -0.3118961261791E-02
 0.2892871504331E-02 -0.1342599457020E-01  0.0000000000000E+00 -0.2962299124344E-02
 0.2768457705114E-02 -0.1312418878079E-01  0.0000000000000E+00 -0.2795646250161E-02
 0.2644830252217E-02 -0.1281832906992E-01  0.0000000000000E+00 -0.2614754158036E-02
 0.2520746696426E-02 -0.1250526053165E-01  0.0000000000000E+00 -0.2417430649407E-02
 0.2394257670176E-02 -0.1218128141401E-01  0.0000000000000E+00 -0.2204169643309E-02
 0.2263424756042E-02 -0.1184258607947E-01  0.0000000000000E+00 -0.1978262664578E-02
 0.2126878528691E-02 -0.1148547236194E-01  0.0000000000000E+00 -0.1745617462448E-02
 0.1984206980196E-02 -0.1110638656401E-01  0.0000000000000E+00 -0.1514606669721E-02
 0.1836265519044E-02 -0.1070190340786E-01  0.0000000000000E+00 -0.1296191037063E-02
 0.1685491742262E-02 -0.1026847555982E-01  0.0000000000000E+00 -0.1104727155293E-02
 0.1536524839645E-02 -0.9802334430290E-02  0.0000000000000E+00 -0.9593691849510E-03
 0.1397520689273E-02 -0.9300308736273E-02  0.0000000000000E+00 -0.8852078382586E-03
 0.1282155542608E-02 -0.8761220847100E-02  0.0000000000000E+00 -0.9140654575869E-03
 0.1212347021131E-02 -0.8187689062597E-02  0.0000000000000E+00 -0.1084882545002E-02
 0.1221934526848E-02 -0.7588797728744E-02  0.0000000000000E+00 -0.1442803901245E-02
 0.1361524418158E-02 -0.6983921252311E-02  0.0000000000000E+00 -0.2035787822561E-02
 0.1704614180137E-02 -0.6407881818897E-02  0.0000000000000E+00 -0.2906536128947E-02
 0.2354693238440E-02 -0.5916910779444E-02  0.0000000000000E+00 -0.4076057843194E-02
 0.3451585198563E-02 -0.5593515088756E-02  0.0000000000000E+00 -0.5512156975060E-02
 0.5163383364189E-02 -0.5546254903608E-02  0.0000000000000E+00 -0.7062883544504E-02
 0.7637167975670E-02 -0.5883044540013E-02  0.0000000000000E+00 -0.8364463385537E-02
 0.1089750166740E-01 -0.6636222929078E-02  0.0000000000000E+00 -0.8813650186818E-02
 0.1472671821669E-01 -0.7668784978318E-02  0.0000000000000E+00 -0.7722220273278E-02
 0.3017025244926E-03 -0.1511544116977E-01  0.0000000000000E+00 -0.5801042591279E-02
 0.9408771475922E-03 -0.1547075600381E-01  0.0000000000000E+00 -0.6405214187202E-02
 0.1600305287494E-02 -0.1578814321387E-01  0.0000000000000E+00 -0.6643082433922E-02
 0.2192824411825E-02 -0.1601212990006E-01  0.0000000000000E+00 -0.6576543790122E-02
 0.2669289812502E-02 -0.1611973515838E-01  0.0000000000000E+00 -0.6318397020401E-02
 0.3019709446355E-02 -0.1611786903995E-01  0.0000000000000E+00 -0.5975543086049E-02
 0.3258039708575E-02 -0.1602880726315E-01  0.0000000000000E+00 -0.5620805115935E-02
 0.3406700656035E-02 -0.1587724484740E-01  0.0000000000000E+00 -0.5291870094842E-02
 0.3487372168053E-02 -0.1568368694720E-01  0.0000000000000E+00 -0.5001860414598E-02
 0.3517460875480E-02 -0.1546280331039E-01  0.0000000000000E+00 -0.4750368843906E-02
 0.3509682569701E-02 -0.1522410639445E-01  0.0000000000000E+00 -0.4531087153084E-02
 0.3472835959848E-02 -0.1497322591986E-01  0.0000000000000E+00 -0.4336158448142E-02
 0.3412847899225E-02 -0.1471309217951E-01  0.0000000000000E+00 -0.4158418131048E-02
 0.3333795194734E-02 -0.1444490441391E-01  0.0000000000000E+00 -0.3992433032033E-02
 0.3238834509341E-02 -0.1416892738318E-01  0.0000000000000E+00 -0.3834748905761E-02
 0.3130956903960E-02 -0.1388514040323E-01  0.0000000000000E+00 -0.3683437702399E-02
 0.3013577270998E-02 -0.1359430273834E-01  0.0000000000000E+00 -0.3536677245917E-02
 0.2890596361371E-02 -0.1329860168982E-01  0.0000000000000E+00 -0.3391141215322E-02
 0.2765442828399E-02 -0.1299993358419E-01  0.0000000000000E+00 -0.3242204467086E-02
 0.2640087741322E-02 -0.1269820565372E-01  0.0000000000000E+00 -0.3085272925670E-02
 0.2514901810648E-02 -0.1239155391722E-01  0.0000000000000E+00 -0.2916752719996E-02
 0.2389012120191E-02 -0.1207697785110E-01  0.0000000000000E+00 -0.2734950387546E-02
 0.2260912641892E-02 -0.1175091897885E-01  0.0000000000000E+00 -0.2540684612431E-02
 0.2129112586152E-02 -0.1140967757627E-01  0.0000000000000E+00 -0.2337491849630E-02
 0.1992683301140E-02 -0.1104964505408E-01  0.0000000000000E+00 -0.2131566871599E-02
 0.1851688534276E-02 -0.1066741312606E-01  0.0000000000000E+00 -0.1931693767218E-02
 0.1707570714099E-02 -0.1025984211949E-01  0.0000000000000E+00 -0.1749372276592E-02
 0.1563560773421E-02 -0.9823930086681E-02  0.0000000000000E+00 -0.1599511525569E-02
 0.1425376871951E-02 -0.9356841678751E-02  0.0000000000000E+00 -0.1501587935159E-02
 0.1302554371267E-02 -0.8856808339158E-02  0.0000000000000E+00 -0.1480430824337E-02
 0.1210387074116E-02 -0.8324573811061E-02  0.0000000000000E+00 -0.1566539198733E-02
 0.1172484991709E-02 -0.7765215882874E-02  0.0000000000000E+00 -0.1795807831014E-02
 0.1224098844761E-02 -0.7190727934604E-02  0.0000000000000E+00 -0.2207695669167E-02
 0.1416220900126E-02 -0.6623487490212E-02  0.0000000000000E+00 -0.2840603637567E-02
 0.1820206515775E-02 -0.6100473685446E-02  0.0000000000000E+00 -0.3722442464797E-02
 0.2532088265074E-02 -0.5677241794191E-02  0.0000000000000E+00 -0.4853626179756E-02
 0.3674507832142E-02 -0.5429409665856E-02  0.0000000000000E+00 -0.6178378018910E-02
 0.5384479981828E-02 -0.5448030863210E-02  0.0000000000000E+00 -0.7531253344141E-02
 0.7767724716264E-02 -0.5813075245485E-02  0.0000000000000E+00 -0.8573236725415E-02
 0.1081910114006E-01 -0.6533729017072E-02  0.0000000000000E+00 -0.8790761718577E-02
 0.1434199217756E-01 -0.7484628800813E-02  0.0000000000000E+00 -0.7633441137843E-02
 0.2753748442919E-03 -0.1457197660714E-01  0.0000000000000E+00 -0.5605214484656E-02
 0.8595715016173E-03 -0.1489875554365E-01  0.0000000000000E+00 -0.6227564861253E-02
 0.1467683225723E-02 -0.1519639941552E-01  0.0000000000000E+00 -0.6523720327858E-02
 0.2024691556165E-02 -0.1541624493927E-01  0.0000000000000E+00 -0.6538265061675E-02
 0.2484330688217E-02 -0.1553463511979E-01  0.0000000000000E+00 -0.6361864997320E-02
 0.2832526278583E-02 -0.1555301442117E-01  0.0000000000000E+00 -0.6086872407202E-02
 0.3077095187150E-02 -0.1548767874754E-01  0.0000000000000E+00 -0.5781558112912E-02
 0.3235417949237E-02 -0.1535917044205E-01  0.0000000000000E+00 -0.5485482825754E-02
 0.3326083403325E-02 -0.1518592618287E-01  0.0000000000000E+00 -0.5215984602846E-02
 0.3364999940393E-02 -0.1498198120899E-01  0.0000000000000E+00 -0.4976833023855E-02
 0.3364372911691E-02 -0.1475696065840E-01  0.0000000000000E+00 -0.4765021230644E-02
 0.3333017779655E-02 -0.1451691695271E-01  0.0000000000000E+00 -0.4575058049438E-02
 0.3277132309675E-02 -0.1426529884914E-01  0.0000000000000E+00 -0.4401374537328E-02
 0.3201159974398E-02 -0.1400382585516E-01  0.0000000000000E+00 -0.4239519364531E-02
 0.3108603227367E-02 -0.1373322800003E-01  0.0000000000000E+00 -0.4086521346669E-02
 0.3002675888868E-02 -0.1345383831558E-01  0.0000000000000E+00 -0.3940576817923E-02
 0.2886825232944E-02 -0.1316658838377E-01  0.0000000000000E+00 -0.3799875048581E-02
 0.2764820235068E-02 -0.1287363981519E-01  0.0000000000000E+00 -0.3661265106048E-02
 0.2639940581339E-02 -0.1257680057372E-01  0.0000000000000E+00 -0.3520564149787E-02
 0.2514149351908E-02 -0.1227597580341E-01  0.0000000000000E+00 -0.3373797031038E-02
 0.2388007538759E-02 -0.1196940991604E-01  0.0000000000000E+00 -0.3218000487823E-02
 0.2260993275561E-02 -0.1165427721344E-01  0.0000000000000E+00 -0.3051986396595E-02
 0.2132035492966E-02 -0.1132720637407E-01  0.0000000000000E+00 -0.2876921865610E-02
 0.2000103090335E-02 -0.1098467298428E-01  0.0000000000000E+00 -0.2696595428339E-02
 0.1864737793855E-02 -0.1062325028267E-01  0.0000000000000E+00 -0.2517447889785E-02
 0.1726514764191E-02 -0.1023977240819E-01  0.0000000000000E+00 -0.2348562802103E-02
 0.1587488019039E-02 -0.9831479326164E-02  0.0000000000000E+00 -0.2201780606894E-02
 0.1451673339809E-02 -0.9395990531284E-02  0.0000000000000E+00 -0.2092269932817E-02
 0.1325801294801E-02 -0.8931442268505E-02  0.0000000000000E+00 -0.2039440920156E-02
 0.1220635317190E-02 -0.8437443576145E-02  0.0000000000000E+00 -0.2067386218548E-02
 0.1152816912826E-02 -0.7916532301016E-02  0.0000000000000E+00 -0.2204740309165E-02
 0.1147211759579E-02 -0.7375953946890E-02  0.0000000000000E+00 -0.2483798451530E-02
 0.1239815264319E-02 -0.6830061221758E-02  0.0000000000000E+00 -0.2937911198054E-02
 0.1481060523214E-02 -0.6303313348759E-02  0.0000000000000E+00 -0.3595975150913E-02
 0.1939015388371E-02 -0.5833494566119E-02  0.0000000000000E+00 -0.4472336780379E-02
 0.2701380856492E-02 -0.5473917730267E-02  0.0000000000000E+00 -0.5550318622456E-02
 0.3874299142090E-02 -0.5292397211774E-02  0.0000000000000E+00 -0.6757296459466E-02
 0.5568181490033E-02 -0.5364148483815E-02  0.0000000000000E+00 -0.7923007024592E-02
 0.7856931795734E-02 -0.5747127893692E-02  0.0000000000000E+00 -0.8736927012047E-02
 0.1071602791847E-01 -0.6434795456520E-02  0.0000000000000E+00 -0.8762085978143E-02
 0.1396972174483E-01 -0.7313770927098E-02  0.0000000000000E+00 -0.7552248844290E-02
 0.2521072680193E-03 -0.1404253566913E-01  0.0000000000000E+00 -0.5425359786896E-02
 0.7874790805340E-03 -0.1434358475325E-01  0.0000000000000E+00 -0.6061957203697E-02
 0.1348878443808E-02 -0.1462222916646E-01  0.0000000000000E+00 -0.6406650813118E-02
 0.1871527417550E-02 -0.1483577672325E-01  0.0000000000000E+00 -0.6491208322731E-02
 0.2312488512557E-02 -0.1496085853507E-01  0.0000000000000E+00 -0.6388458390099E-02
 0.2655210924948E-02 -0.1499505187057E-01  0.0000000000000E+00 -0.6177659859200E-02
 0.2902759056496E-02 -0.1494978607244E-01  0.0000000000000E+00 -0.5921693282279E-02
 0.3068157856498E-02 -0.1484181979619E-01  0.0000000000000E+00 -0.5660441105501E-02
 0.3167041013739E-02 -0.1468741550054E-01  0.0000000000000E+00 -0.5414193058248E-02
 0.3213700627607E-02 -0.1449971038813E-01  0.0000000000000E+00 -0.5190162499025E-02
 0.3219655132788E-02 -0.1428819565878E-01  0.0000000000000E+00 -0.4988314340559E-02
 0.3193580721868E-02 -0.1405916742755E-01  0.0000000000000E+00 -0.4805412669696E-02
 0.3141823754076E-02 -0.1381647319443E-01  0.0000000000000E+00 -0.4637469252669E-02
 0.3069097752110E-02 -0.1356226928216E-01  0.0000000000000E+00 -0.4481041370962E-02
 0.2979175891274E-02 -0.1329768785578E-01  0.0000000000000E+00 -0.4333700179712E-02
 0.2875449055723E-02 -0.1302337120250E-01  0.0000000000000E+00 -0.4193857754989E-02
 0.2761391052162E-02 -0.1274040368306E-01  0.0000000000000E+00 -0.4059816614862E-02
 0.2640668165525E-02 -0.1245092680599E-01  0.0000000000000E+00 -0.3928672345479E-02
 0.2516449915679E-02 -0.1215667835691E-01  0.0000000000000E+00 -0.3796698547664E-02
 0.2390712824285E-02 -0.1185757726153E-01  0.0000000000000E+00 -0.3660511344416E-02
 0.2264204643093E-02 -0.1155198780335E-01  0.0000000000000E+00 -0.3517747548689E-02
 0.2136738696280E-02 -0.1123727675352E-01  0.0000000000000E+00 -0.3367714501790E-02
 0.2007668139388E-02 -0.1091029483740E-01  0.0000000000000E+00 -0.3211931345086E-02
 0.1876425339305E-02 -0.1056774824321E-01  0.0000000000000E+00 -0.3054429721686E-02
 0.1743039032063E-02 -0.1020646291245E-01  0.0000000000000E+00 -0.2901846940000E-02
 0.1608615082965E-02 -0.9823592346848E-02  0.0000000000000E+00 -0.2763454256282E-02
 0.1475824955003E-02 -0.9416826747693E-02  0.0000000000000E+00 -0.2651245328139E-02
 0.1349440993225E-02 -0.8984455272248E-02  0.0000000000000E+00 -0.2580380081138E-02
 0.1237120163281E-02 -0.8525590917090E-02  0.0000000000000E+00 -0.2569858138335E-02
 0.1150685416309E-02 -0.8041156484630E-02  0.0000000000000E+00 -0.2642633195588E-02
 0.1107846134223E-02 -0.7535315133454E-02  0.0000000000000E+00 -0.2825051683723E-02
 0.1134297054077E-02 -0.7017153933712E-02  0.0000000000000E+00 -0.3145441148673E-02
 0.1266170856785E-02 -0.6502833850465E-02  0.0000000000000E+00 -0.3630897623363E-02
 0.1552559909665E-02 -0.6018061303972E-02  0.0000000000000E+00 -0.4301223891497E-02
 0.2057438627436E-02 -0.5600340122433E-02  0.0000000000000E+00 -0.5158743021757E-02
 0.2859840693180E-02 -0.5299697078049E-02  0.0000000000000E+00 -0.6173068754926E-02
 0.4050584372843E-02 -0.5175920217380E-02  0.0000000000000E+00 -0.7260284815589E-02
 0.5717679905307E-02 -0.5290295319135E-02  0.0000000000000E+00 -0.8251200086183E-02
 0.7910863040760E-02 -0.5683813624905E-02  0.0000000000000E+00 -0.8864686325705E-02
 0.1059311883616E-01 -0.6339399851480E-02  0.0000000000000E+00 -0.8729312365219E-02
 0.1360750526736E-01 -0.7154394777054E-02  0.0000000000000E+00 -0.7477435730460E-02
 0.2314063377693E-03 -0.1352535800028E-01  0.0000000000000E+00 -0.5259824204016E-02
 0.7231706184379E-03 -0.1380313434417E-01  0.0000000000000E+00 -0.5907662185942E-02
 0.1241983147034E-02 -0.1406368685647E-01  0.0000000000000E+00 -0.6293064196886E-02
 0.1731706009850E-02 -0.1426951773320E-01  0.0000000000000E+00 -0.6438246753404E-02
 0.2152865782045E-02 -0.1439812716763E-01  0.0000000000000E+00 -0.6401670264696E-02
 0.2487588715978E-02 -0.1444442936000E-01  0.0000000000000E+00 -0.6251032574543E-02
 0.2735335410820E-02 -0.1441595805762E-01  0.0000000000000E+00 -0.6043501718224E-02
 0.2905445790399E-02 -0.1432612024202E-01  0.0000000000000E+00 -0.5818171855786E-02
 0.3010818485460E-02 -0.1418902295030E-01  0.0000000000000E+00 -0.5597223817795E-02
 0.3064096732983E-02 -0.1401673981260E-01  0.0000000000000E+00 -0.5390610273961E-02
 0.3075989824509E-02 -0.1381843402636E-01  0.0000000000000E+00 -0.5200895123282E-02
 0.3054904835528E-02 -0.1360048584080E-01  0.0000000000000E+00 -0.5026935618644E-02
 0.3007224867691E-02 -0.1336702448984E-01  0.0000000000000E+00 -0.4866272637162E-02
 0.2937841970211E-02 -0.1312055750317E-01  0.0000000000000E+00 -0.4716478558329E-02
 0.2850729723570E-02 -0.1286255532287E-01  0.0000000000000E+00 -0.4575713707121E-02
 0.2749413969461E-02 -0.1259392653413E-01  0.0000000000000E+00 -0.4442683278039E-02
 0.2637387931668E-02 -0.1231588981385E-01  0.0000000000000E+00 -0.4315887566325E-02
 0.2518237495038E-02 -0.1203057106470E-01  0.0000000000000E+00 -0.4192726108580E-02
 0.2395053172934E-02 -0.1173965434168E-01  0.0000000000000E+00 -0.4069938549988E-02
 0.2269843100092E-02 -0.1144308794063E-01  0.0000000000000E+00 -0.3944704843966E-02
 0.2143539598950E-02 -0.1113936771071E-01  0.0000000000000E+00 -0.3815227207277E-02
 0.2016277074575E-02 -0.1082606802871E-01  0.0000000000000E+00 -0.3681286692915E-02
 0.1887820293291E-02 -0.1050028916696E-01  0.0000000000000E+00 -0.3544742465944E-02
 0.1758061975136E-02 -0.1015901106645E-01  0.0000000000000E+00 -0.3409847094804E-02
 0.1627523222603E-02 -0.9799367498185E-02  0.0000000000000E+00 -0.3283378249574E-02
 0.1497845460856E-02 -0.9418889591148E-02  0.0000000000000E+00 -0.3174685513822E-02
 0.1372307227155E-02 -0.9015766804104E-02  0.0000000000000E+00 -0.3095741995958E-02
 0.1256392787131E-02 -0.8588981505269E-02  0.0000000000000E+00 -0.3061459084408E-02
 0.1158585039722E-02 -0.8138600919189E-02  0.0000000000000E+00 -0.3090129603646E-02
 0.1091588348515E-02 -0.7666768374067E-02  0.0000000000000E+00 -0.3203241152313E-02
 0.1073901603263E-02 -0.7179076902612E-02  0.0000000000000E+00 -0.3424542590175E-02
 0.1131647742746E-02 -0.6686116825653E-02  0.0000000000000E+00 -0.3778192483896E-02
 0.1300565374579E-02 -0.6205333968787E-02  0.0000000000000E+00 -0.4285110958484E-02
 0.1627790571973E-02 -0.5762960299901E-02  0.0000000000000E+00 -0.4956665075402E-02
 0.2172694367971E-02 -0.5395389426448E-02  0.0000000000000E+00 -0.5784823544001E-02
 0.3005689973328E-02 -0.5148736615692E-02  0.0000000000000E+00 -0.6728587020569E-02
 0.4203722228521E-02 -0.5074977616255E-02  0.0000000000000E+00 -0.7697124471623E-02
 0.5836079118725E-02 -0.5223418943139E-02  0.0000000000000E+00 -0.8526342078563E-02
 0.7934484989238E-02 -0.5621961259286E-02  0.0000000000000E+00 -0.8962982119438E-02
 0.1045436058624E-01 -0.6247707123097E-02  0.0000000000000E+00 -0.8692884466565E-02
 0.1325323344782E-01 -0.7004990845712E-02  0.0000000000000E+00 -0.7408715399060E-02
 0.2128799498864E-03 -0.1301898233429E-01  0.0000000000000E+00 -0.5107183357827E-02
 0.6654937278753E-03 -0.1327564230145E-01  0.0000000000000E+00 -0.5763942586606E-02
 0.1145403821539E-02 -0.1351908356550E-01  0.0000000000000E+00 -0.6183719322733E-02
 0.1603776911711E-02 -0.1371630937859E-01  0.0000000000000E+00 -0.6381566748057E-02
 0.2004552570258E-02 -0.1384601802125E-01  0.0000000000000E+00 -0.6404361167508E-02
 0.2329350026290E-02 -0.1390135827878E-01  0.0000000000000E+00 -0.6309722104634E-02
 0.2574959162479E-02 -0.1388679144959E-01  0.0000000000000E+00 -0.6149121137461E-02
 0.2747658813390E-02 -0.1381281865180E-01  0.0000000000000E+00 -0.5960107768263E-02
 0.2857879185814E-02 -0.1369149334230E-01  0.0000000000000E+00 -0.5765894347827E-02
 0.2916646604810E-02 -0.1353373936682E-01  0.0000000000000E+00 -0.5578528197049E-02
 0.2933787114941E-02 -0.1334824774459E-01  0.0000000000000E+00 -0.5402785945313E-02
 0.2917336187280E-02 -0.1314134663926E-01  0.0000000000000E+00 -0.5239422234976E-02
 0.2873615440766E-02 -0.1291733779667E-01  0.0000000000000E+00 -0.5087426358985E-02
 0.2807611476144E-02 -0.1267899614500E-01  0.0000000000000E+00 -0.4945372874509E-02
 0.2723433495245E-02 -0.1242806775627E-01  0.0000000000000E+00 -0.4812043752218E-02
 0.2624703405008E-02 -0.1216568616005E-01  0.0000000000000E+00 -0.4686499491628E-02
 0.2514925369981E-02 -0.1189318628928E-01  0.0000000000000E+00 -0.4567506140385E-02
 0.2397621244000E-02 -0.1161268125465E-01  0.0000000000000E+00 -0.4452811947715E-02
 0.2275826961021E-02 -0.1132581547045E-01  0.0000000000000E+00 -0.4339627466607E-02
 0.2151596984338E-02 -0.1103258094479E-01  0.0000000000000E+00 -0.4225668919764E-02
 0.2026046282243E-02 -0.1073161615219E-01  0.0000000000000E+00 -0.4109666634806E-02
 0.1899617199955E-02 -0.1042071574587E-01  0.0000000000000E+00 -0.3991845183242E-02
 0.1772471846194E-02 -0.1009725073400E-01  0.0000000000000E+00 -0.3874379939617E-02
 0.1644954403438E-02 -0.9758507430484E-02  0.0000000000000E+00 -0.3761711992481E-02
 0.1518074053099E-02 -0.9401968474593E-02  0.0000000000000E+00 -0.3660698832758E-02
 0.1394000236930E-02 -0.9025583950637E-02  0.0000000000000E+00 -0.3580663416242E-02
 0.1276594575905E-02 -0.8628072284995E-02  0.0000000000000E+00 -0.3533400417518E-02
 0.1171995709957E-02 -0.8209111380580E-02  0.0000000000000E+00 -0.3533363305911E-02
 0.1089402303332E-02 -0.7769677960013E-02  0.0000000000000E+00 -0.3597891077559E-02
 0.1042219196575E-02 -0.7313021808531E-02  0.0000000000000E+00 -0.3746751888191E-02
 0.1049467075309E-02 -0.6845956548641E-02  0.0000000000000E+00 -0.4000893259636E-02
 0.1137332960562E-02 -0.6380242658273E-02  0.0000000000000E+00 -0.4380246912940E-02
 0.1340713610552E-02 -0.5934134241309E-02  0.0000000000000E+00 -0.4899808458578E-02
 0.1704330966485E-02 -0.5533789311213E-02  0.0000000000000E+00 -0.5563319442008E-02
 0.2282681526453E-02 -0.5213889726156E-02  0.0000000000000E+00 -0.6354065712890E-02
 0.3137882024339E-02 -0.5016331683132E-02  0.0000000000000E+00 -0.7223141214066E-02
 0.4334492682056E-02 -0.4985753458936E-02  0.0000000000000E+00 -0.8076211077888E-02
 0.5926447997223E-02 -0.5161318789309E-02  0.0000000000000E+00 -0.8756645475317E-02
 0.7931466155866E-02 -0.5560812336647E-02  0.0000000000000E+00 -0.9037506825225E-02
 0.1030359541037E-01 -0.6158723424593E-02  0.0000000000000E+00 -0.8650250405308E-02
 0.1290388095699E-01 -0.6866045767247E-02  0.0000000000000E+00 -0.7348715576199E-02
 0.1962125659721E-03 -0.1252218051211E-01  0.0000000000000E+00 -0.4966202516787E-02
 0.6135099941589E-03 -0.1275962211702E-01  0.0000000000000E+00 -0.5630080603844E-02
 0.1057803594105E-02 -0.1298694986200E-01  0.0000000000000E+00 -0.6079072730712E-02
 0.1486454721249E-02 -0.1317506241702E-01  0.0000000000000E+00 -0.6322826756219E-02
 0.1866659367984E-02 -0.1330402150088E-01  0.0000000000000E+00 -0.6398862382244E-02
 0.2180096769397E-02 -0.1336587357664E-01  0.0000000000000E+00 -0.6356088828390E-02
 0.2421632922931E-02 -0.1336269161324E-01  0.0000000000000E+00 -0.6240508448028E-02
 0.2595046194188E-02 -0.1330250045292E-01  0.0000000000000E+00 -0.6087643522670E-02
 0.2708584129845E-02 -0.1319545272079E-01  0.0000000000000E+00 -0.5921062766039E-02
 0.2771733935761E-02 -0.1305129745982E-01  0.0000000000000E+00 -0.5754339844892E-02
 0.2793404820935E-02 -0.1287815389441E-01  0.0000000000000E+00 -0.5594086318957E-02
 0.2781184659487E-02 -0.1268218654714E-01  0.0000000000000E+00 -0.5442740267976E-02
 0.2741250609448E-02 -0.1246777156819E-01  0.0000000000000E+00 -0.5300637261304E-02
 0.2678608973282E-02 -0.1223787218100E-01  0.0000000000000E+00 -0.5167323768852E-02
 0.2597445873093E-02 -0.1199445016031E-01  0.0000000000000E+00 -0.5042221132664E-02
 0.2501443450034E-02 -0.1173882444195E-01  0.0000000000000E+00 -0.4924792025453E-02
 0.2394107113370E-02 -0.1147242825322E-01  0.0000000000000E+00 -0.4814120689873E-02
 0.2278905993266E-02 -0.1119736281544E-01  0.0000000000000E+00 -0.4708337189532E-02
 0.2158840005024E-02 -0.1091524435828E-01  0.0000000000000E+00 -0.4605123033756E-02
 0.2036021209079E-02 -0.1062612110023E-01  0.0000000000000E+00 -0.4502702702504E-02
 0.1911744819682E-02 -0.1032878393867E-01  0.0000000000000E+00 -0.4400295698237E-02
 0.1786748313068E-02 -0.1002125795589E-01  0.0000000000000E+00 -0.4298534071443E-02
 0.1661575331698E-02 -0.9701200541479E-02  0.0000000000000E+00 -0.4199877003332E-02
 0.1537007782693E-02 -0.9366227824100E-02  0.0000000000000E+00 -0.4108914319805E-02
 0.1414530530063E-02 -0.9014199896555E-02  0.0000000000000E+00 -0.4032520615698E-02
 0.1296823125865E-02 -0.8643512098467E-02  0.0000000000000E+00 -0.3979893490910E-02
 0.1188295262550E-02 -0.8253424699152E-02  0.0000000000000E+00 -0.3962508644360E-02
 0.1095672831223E-02 -0.7844295764846E-02  0.0000000000000E+00 -0.3994183523893E-02
 0.1028754729130E-02 -0.7417949800470E-02  0.0000000000000E+00 -0.4091104881185E-02
 0.1001468183769E-02 -0.6978615777083E-02  0.0000000000000E+00 -0.4271137858973E-02
 0.1033105599212E-02 -0.6534115297582E-02  0.0000000000000E+00 -0.4552319272557E-02
 0.1149597243241E-02 -0.6097063844053E-02  0.0000000000000E+00 -0.4950414098893E-02
 0.1384635079734E-02 -0.5686104898176E-02  0.0000000000000E+00 -0.5474869034502E-02
 0.1780208757335E-02 -0.5326843015658E-02  0.0000000000000E+00 -0.6122687003568E-02
 0.2385861460655E-02 -0.5051840626015E-02  0.0000000000000E+00 -0.6870057767494E-02
 0.3255894162330E-02 -0.4898697068258E-02  0.0000000000000E+00 -0.7662471516315E-02
 0.4444004505331E-02 -0.4905334968374E-02  0.0000000000000E+00 -0.8404648823507E-02
 0.5991399387718E-02 -0.5102381807492E-02  0.0000000000000E+00 -0.8948788967313E-02
 0.7905908703245E-02 -0.5500017296777E-02  0.0000000000000E+00 -0.9092094751340E-02
 0.1013920952352E-01 -0.6070864837467E-02  0.0000000000000E+00 -0.8602962619578E-02
 0.1257427780876E-01 -0.6737987170381E-02  0.0000000000000E+00 -0.7287564961428E-02
 0.1811472920904E-03 -0.1203390828328E-01  0.0000000000000E+00 -0.4835804603599E-02
 0.5664479999565E-03 -0.1225380766808E-01  0.0000000000000E+00 -0.5505392622492E-02
 0.9780553315858E-03 -0.1246600266522E-01  0.0000000000000E+00 -0.5979369052134E-02
 0.1378604237899E-02 -0.1264476521083E-01  0.0000000000000E+00 -0.6263279139730E-02
 0.1738336527630E-02 -0.1277158130776E-01  0.0000000000000E+00 -0.6387066305154E-02
 0.2039376869561E-02 -0.1283788064576E-01  0.0000000000000E+00 -0.6392155243225E-02
 0.2275258032031E-02 -0.1284390828945E-01  0.0000000000000E+00 -0.6319428791446E-02
 0.2447749282781E-02 -0.1279560943017E-01  0.0000000000000E+00 -0.6202105590064E-02
 0.2563201463339E-02 -0.1270141575092E-01  0.0000000000000E+00 -0.6063596766511E-02
 0.2629670664964E-02 -0.1256992150640E-01  0.0000000000000E+00 -0.5918516419949E-02
 0.2655148235232E-02 -0.1240861246218E-01  0.0000000000000E+00 -0.5774956662065E-02
 0.2646722719382E-02 -0.1222340205067E-01  0.0000000000000E+00 -0.5636819485615E-02
 0.2610359470909E-02 -0.1201865567481E-01  0.0000000000000E+00 -0.5505670357661E-02
 0.2551019595560E-02 -0.1179745243425E-01  0.0000000000000E+00 -0.5381982844743E-02
 0.2472913840613E-02 -0.1156191372401E-01  0.0000000000000E+00 -0.5265821314780E-02
 0.2379751778996E-02 -0.1131350642524E-01  0.0000000000000E+00 -0.5157082791755E-02
 0.2275029419074E-02 -0.1105374413300E-01  0.0000000000000E+00 -0.5055207846373E-02
 0.2162170227535E-02 -0.1078471517369E-01  0.0000000000000E+00 -0.4958730797746E-02
 0.2044151602168E-02 -0.1050801636375E-01  0.0000000000000E+00 -0.4865799392337E-02
 0.1923151165336E-02 -0.1022376245103E-01  0.0000000000000E+00 -0.4775117638112E-02
 0.1800641020404E-02 -0.9930904857809E-02  0.0000000000000E+00 -0.4686354289567E-02
 0.1677640815998E-02 -0.9627706668619E-02  0.0000000000000E+00 -0.4600508964939E-02
 0.1555058460628E-02 -0.9312122344013E-02  0.0000000000000E+00 -0.4520286332028E-02
 0.1434095802605E-02 -0.8982113258132E-02  0.0000000000000E+00 -0.4450380353047E-02
 0.1316694309656E-02 -0.8635934663681E-02  0.0000000000000E+00 -0.4397619890478E-02
 0.1206017334466E-02 -0.8272440391192E-02  0.0000000000000E+00 -0.4370986179034E-02
 0.1106979097033E-02 -0.7891431132440E-02  0.0000000000000E+00 -0.4381513568801E-02
 0.1026819130657E-02 -0.7493915503091E-02  0.0000000000000E+00 -0.4442236444699E-02
 0.9758194822352E-03 -0.7082491891252E-02  0.0000000000000E+00 -0.4568037356357E-02
 0.9682591016829E-03 -0.6662234520704E-02  0.0000000000000E+00 -0.4774758707532E-02
 0.1023474474014E-02 -0.6241765276226E-02  0.0000000000000E+00 -0.5077498569360E-02
 0.1166864680598E-02 -0.5834265985035E-02  0.0000000000000E+00 -0.5488007991456E-02
 0.1430634500752E-02 -0.5458412674845E-02  0.0000000000000E+00 -0.6010642276968E-02
 0.1853844182486E-02 -0.5138887941705E-02  0.0000000000000E+00 -0.6636571630373E-02
 0.2481143735590E-02 -0.4905884362032E-02  0.0000000000000E+00 -0.7336341670230E-02
 0.3359610151109E-02 -0.4792789369483E-02  0.0000000000000E+00 -0.8051750661437E-02
 0.4533453472985E-02 -0.4831481476179E-02  0.0000000000000E+00 -0.8688439512394E-02
 0.6033597339925E-02 -0.5045489958644E-02  0.0000000000000E+00 -0.9108153833036E-02
 0.7860106178626E-02 -0.5439161452650E-02  0.0000000000000E+00 -0.9129470523292E-02
 0.9965756676627E-02 -0.5984407066637E-02  0.0000000000000E+00 -0.8553857022583E-02
 0.1224743324866E-01 -0.6614826827959E-02  0.0000000000000E+00 -0.7215564703248E-02
 0.1674727122933E-03 -0.1155326805926E-01  0.0000000000000E+00 -0.4715044614191E-02
 0.5236678638087E-03 -0.1175711048507E-01  0.0000000000000E+00 -0.5389236345164E-02
 0.9052036445915E-03 -0.1195511651585E-01  0.0000000000000E+00 -0.5884704693504E-02
 0.1279224236770E-02 -0.1212448477224E-01  0.0000000000000E+00 -0.6203863542769E-02
 0.1618784684533E-02 -0.1224812130994E-01  0.0000000000000E+00 -0.6370503554167E-02
 0.1906709284271E-02 -0.1231719132509E-01  0.0000000000000E+00 -0.6419642538035E-02
 0.2135660005479E-02 -0.1233056611678E-01  0.0000000000000E+00 -0.6387455717568E-02
 0.2305819818736E-02 -0.1229246696705E-01  0.0000000000000E+00 -0.6304732854976E-02
 0.2421916680756E-02 -0.1220979480105E-01  0.0000000000000E+00 -0.6194349614878E-02
 0.2490701325068E-02 -0.1209004053455E-01  0.0000000000000E+00 -0.6071556035753E-02
 0.2519271208369E-02 -0.1194002585082E-01  0.0000000000000E+00 -0.5945603045212E-02
 0.2514185050076E-02 -0.1176534793804E-01  0.0000000000000E+00 -0.5821641119820E-02
 0.2481144158684E-02 -0.1157028991532E-01  0.0000000000000E+00 -0.5702341399242E-02
 0.2425009709276E-02 -0.1135798221468E-01  0.0000000000000E+00 -0.5589048310213E-02
 0.2349971291745E-02 -0.1113065439259E-01  0.0000000000000E+00 -0.5482460216906E-02
 0.2259736149435E-02 -0.1088988615183E-01  0.0000000000000E+00 -0.5382927118687E-02
 0.2157779619620E-02 -0.1063725364494E-01  0.0000000000000E+00 -0.5290271088094E-02
 0.2047483068850E-02 -0.1037482953529E-01  0.0000000000000E+00 -0.5203443476892E-02
 0.1931810558617E-02 -0.1010419740667E-01  0.0000000000000E+00 -0.5121048939257E-02
 0.1813010161984E-02 -0.9825546528899E-02  0.0000000000000E+00 -0.5042241387488E-02
 0.1692726274202E-02 -0.9537994986748E-02  0.0000000000000E+00 -0.4967098383138E-02
 0.1572247275687E-02 -0.9240048834214E-02  0.0000000000000E+00 -0.4896944846616E-02
 0.1452826705419E-02 -0.8929965824821E-02  0.0000000000000E+00 -0.4834688884704E-02
 0.1336065236585E-02 -0.8606061031295E-02  0.0000000000000E+00 -0.4785081390033E-02
 0.1224336490640E-02 -0.8266993187881E-02  0.0000000000000E+00 -0.4754844326627E-02
 0.1121254743239E-02 -0.7912076724931E-02  0.0000000000000E+00 -0.4752660411957E-02
 0.1032188979690E-02 -0.7541639530093E-02  0.0000000000000E+00 -0.4789018701112E-02
 0.9648150600340E-03 -0.7157300167984E-02  0.0000000000000E+00 -0.4876053471895E-02
 0.9297827760208E-03 -0.6762349102876E-02  0.0000000000000E+00 -0.5027234295078E-02
 0.9415630361828E-03 -0.6362570617381E-02  0.0000000000000E+00 -0.5256317816042E-02
 0.1019334165048E-02 -0.5967190189723E-02  0.0000000000000E+00 -0.5575502998062E-02
 0.1187736146865E-02 -0.5589698861742E-02  0.0000000000000E+00 -0.5992748957969E-02
 0.1477278106684E-02 -0.5248510223777E-02  0.0000000000000E+00 -0.6507823957588E-02
 0.1923992394517E-02 -0.4967114375062E-02  0.0000000000000E+00 -0.7106948850545E-02
 0.2567801070682E-02 -0.4773207805581E-02  0.0000000000000E+00 -0.7756318446994E-02
 0.3449180480345E-02 -0.4696156482809E-02  0.0000000000000E+00 -0.8395585432298E-02
 0.4604159896608E-02 -0.4762475942009E-02  0.0000000000000E+00 -0.8932664610497E-02
 0.6055227909432E-02 -0.4989819528151E-02  0.0000000000000E+00 -0.9238920985888E-02
 0.7796987967212E-02 -0.5378100506211E-02  0.0000000000000E+00 -0.9152397376646E-02
 0.9783422200247E-02 -0.5899478587048E-02  0.0000000000000E+00 -0.8501061093830E-02
 0.1192530978250E-01 -0.6494922342716E-02  0.0000000000000E+00 -0.7146153171451E-02
 0.1550130709420E-03 -0.1107948031941E-01  0.0000000000000E+00 -0.4603089031921E-02
 0.4846341893345E-03 -0.1126858631766E-01  0.0000000000000E+00 -0.5281013423376E-02
 0.8384341417054E-03 -0.1145329904431E-01  0.0000000000000E+00 -0.5795072981408E-02
 0.1187431421862E-02 -0.1161336369744E-01  0.0000000000000E+00 -0.6145278472372E-02
 0.1507259221490E-02 -0.1173306321187E-01  0.0000000000000E+00 -0.6350407690291E-02
 0.1781601759568E-02 -0.1180355120498E-01  0.0000000000000E+00 -0.6440007066585E-02
 0.2002608978562E-02 -0.1182269013548E-01  0.0000000000000E+00 -0.6445978500379E-02
 0.2169236228348E-02 -0.1179328992458E-01  0.0000000000000E+00 -0.6396665546092E-02
 0.2284842874779E-02 -0.1172090979869E-01  0.0000000000000E+00 -0.6314142317114E-02
 0.2355008277712E-02 -0.1161200926366E-01  0.0000000000000E+00 -0.6213966444528E-02
 0.2385978203806E-02 -0.1147273973881E-01  0.0000000000000E+00 -0.6106263343373E-02
 0.2383768915487E-02 -0.1130833676580E-01  0.0000000000000E+00 -0.5997227607238E-02
 0.2353779376973E-02 -0.1112294303471E-01  0.0000000000000E+00 -0.5890509360985E-02
 0.2300725999916E-02 -0.1091968418929E-01  0.0000000000000E+00 -0.5788259394554E-02
 0.2228737856688E-02 -0.1070085158389E-01  0.0000000000000E+00 -0.5691790153095E-02
 0.2141493147986E-02 -0.1046810517653E-01  0.0000000000000E+00 -0.5601911131677E-02
 0.2042434974568E-02 -0.1022306613983E-01  0.0000000000000E+00 -0.5518839538156E-02
 0.1934903344609E-02 -0.9967787169006E-02  0.0000000000000E+00 -0.5441947863799E-02
 0.1821854514892E-02 -0.9703842388784E-02  0.0000000000000E+00 -0.5370283982768E-02
 0.1705609100349E-02 -0.9431501243395E-02  0.0000000000000E+00 -0.5303421108879E-02
 0.1587977817811E-02 -0.9150052518231E-02  0.0000000000000E+00 -0.5241804995110E-02
 0.1470503655526E-02 -0.8858247624856E-02  0.0000000000000E+00 -0.5187042418894E-02
 0.1354765900034E-02 -0.8554649803239E-02  0.0000000000000E+00 -0.5142200922584E-02
 0.1242740248339E-02 -0.8237930233674E-02  0.0000000000000E+00 -0.5112040368902E-02
 0.1137203849725E-02 -0.7907151470370E-02  0.0000000000000E+00 -0.5103117801443E-02
 0.1042184138204E-02 -0.7562081380725E-02  0.0000000000000E+00 -0.5123744902127E-02
 0.9634509751513E-03 -0.7203552375519E-02  0.0000000000000E+00 -0.5183779678885E-02
 0.9090379492521E-03 -0.6833744357042E-02  0.0000000000000E+00 -0.5294367538487E-02
 0.8898514925566E-03 -0.6456553838373E-02  0.0000000000000E+00 -0.5467495435711E-02
 0.9204080724124E-03 -0.6078342991186E-02  0.0000000000000E+00 -0.5714820202826E-02
 0.1019552332062E-02 -0.5708759406217E-02  0.0000000000000E+00 -0.6045735611052E-02
 0.1210981989461E-02 -0.5361379998695E-02  0.0000000000000E+00 -0.6464679153374E-02
 0.1523366958795E-02 -0.5054119383232E-02  0.0000000000000E+00 -0.6967355168462E-02
 0.1989693098833E-02 -0.4809088294476E-02  0.0000000000000E+00 -0.7535868975242E-02
 0.2645386777176E-02 -0.4651455125176E-02  0.0000000000000E+00 -0.8133188541682E-02
 0.3524962307019E-02 -0.4606820534733E-02  0.0000000000000E+00 -0.8698057880322E-02
 0.4657410519365E-02 -0.4696991352297E-02  0.0000000000000E+00 -0.9141565659565E-02
 0.6058415800356E-02 -0.4934778964180E-02  0.0000000000000E+00 -0.9344575729786E-02
 0.7718567409994E-02 -0.5316821690208E-02  0.0000000000000E+00 -0.9162281895432E-02
 0.9593981493185E-02 -0.5815930341406E-02  0.0000000000000E+00 -0.8445498577195E-02
 0.1160658869578E-01 -0.6380112211971E-02  0.0000000000000E+00 -0.7075320605290E-02
 0.1436208513428E-03 -0.1061186137661E-01  0.0000000000000E+00 -0.4499199161738E-02
 0.4488952220243E-03 -0.1078740873757E-01  0.0000000000000E+00 -0.5180169491132E-02
 0.7770485284911E-03 -0.1095967019677E-01  0.0000000000000E+00 -0.5710396349012E-02
 0.1102445378666E-02 -0.1111061491295E-01  0.0000000000000E+00 -0.6088036269725E-02
 0.1403070897524E-02 -0.1122583777706E-01  0.0000000000000E+00 -0.6327768964129E-02
 0.1663563090286E-02 -0.1129666009444E-01  0.0000000000000E+00 -0.6454474808341E-02
 0.1875835840001E-02 -0.1132022675242E-01  0.0000000000000E+00 -0.6496213709515E-02
 0.2037917761612E-02 -0.1129820674261E-01  0.0000000000000E+00 -0.6478940338083E-02
 0.2152030545255E-02 -0.1123499819747E-01  0.0000000000000E+00 -0.6423750977691E-02
 0.2222717394751E-02 -0.1113611310896E-01  0.0000000000000E+00 -0.6346251045485E-02
 0.2255427038307E-02 -0.1100704495614E-01  0.0000000000000E+00 -0.6257195019579E-02
 0.2255635123809E-02 -0.1085263910666E-01  0.0000000000000E+00 -0.6163632949924E-02
 0.2228412365129E-02 -0.1067685223253E-01  0.0000000000000E+00 -0.6070069111203E-02
 0.2178294867401E-02 -0.1048275753797E-01  0.0000000000000E+00 -0.5979390868196E-02
 0.2109317989309E-02 -0.1027266711340E-01  0.0000000000000E+00 -0.5893495925729E-02
 0.2025107195961E-02 -0.1004829131973E-01  0.0000000000000E+00 -0.5813649304908E-02
 0.1929061792473E-02 -0.9811279268170E-02  0.0000000000000E+00 -0.5740466881264E-02
 0.1824478944196E-02 -0.9563658106255E-02  0.0000000000000E+00 -0.5673738707362E-02
 0.1714309586627E-02 -0.9306994101746E-02  0.0000000000000E+00 -0.5612938159792E-02
 0.1600946475308E-02 -0.9041640264936E-02  0.0000000000000E+00 -0.5558026171928E-02
 0.1486359284959E-02 -0.8767057992399E-02  0.0000000000000E+00 -0.5509776186124E-02
 0.1372330712672E-02 -0.8482243945750E-02  0.0000000000000E+00 -0.5470033125982E-02
 0.1260744817548E-02 -0.8186065432771E-02  0.0000000000000E+00 -0.5441979423105E-02
 0.1153926431514E-02 -0.7877546961089E-02  0.0000000000000E+00 -0.5430336692895E-02
 0.1055024509315E-02 -0.7556148561252E-02  0.0000000000000E+00 -0.5441443327049E-02
 0.9684385013312E-03 -0.7222076837428E-02  0.0000000000000E+00 -0.5483177517328E-02
 0.9002829724879E-03 -0.6876638780166E-02  0.0000000000000E+00 -0.5564698023309E-02
 0.8588714071014E-03 -0.6522521651120E-02  0.0000000000000E+00 -0.5696098704598E-02
 0.8552621070738E-03 -0.6164140845770E-02  0.0000000000000E+00 -0.5887848913674E-02
 0.9038856085246E-03 -0.5808310523088E-02  0.0000000000000E+00 -0.6149532710667E-02
 0.1023104161348E-02 -0.5464936703496E-02  0.0000000000000E+00 -0.6487874369655E-02
 0.1235531476218E-02 -0.5147492781251E-02  0.0000000000000E+00 -0.6904090513387E-02
 0.1567910492986E-02 -0.4873211021831E-02  0.0000000000000E+00 -0.7390342367223E-02
 0.2050222957416E-02 -0.4662705233616E-02  0.0000000000000E+00 -0.7925386376605E-02
 0.2713676120385E-02 -0.4538652946899E-02  0.0000000000000E+00 -0.8469924743437E-02
 0.3587438608089E-02 -0.4523181472363E-02  0.0000000000000E+00 -0.8962753074811E-02
 0.4694485050701E-02 -0.4633995323154E-02  0.0000000000000E+00 -0.9318729235862E-02
 0.6045001663161E-02 -0.4879950252306E-02  0.0000000000000E+00 -0.9427808957007E-02
 0.7626765573115E-02 -0.5255274804056E-02  0.0000000000000E+00 -0.9160415299855E-02
 0.9398374807800E-02 -0.5733915785266E-02  0.0000000000000E+00 -0.8386390139067E-02
 0.1129071601415E-01 -0.6269784932271E-02  0.0000000000000E+00 -0.7002217635842E-02
 0.1331710946813E-03 -0.1014980588202E-01  0.0000000000000E+00 -0.4402717562117E-02
 0.4160666339871E-03 -0.1031284811375E-01  0.0000000000000E+00 -0.5086192758533E-02
 0.7204443943635E-03 -0.1047344471625E-01  0.0000000000000E+00 -0.5630549402629E-02
 0.1023574897163E-02 -0.1061551541436E-01  0.0000000000000E+00 -0.6032505433284E-02
 0.1305584091247E-02 -0.1072589157548E-01  0.0000000000000E+00 -0.6303378639064E-02
 0.1552111285179E-02 -0.1079618718722E-01  0.0000000000000E+00 -0.6464072845845E-02
 0.1755044756759E-02 -0.1082306075322E-01  0.0000000000000E+00 -0.6539219011569E-02
 0.1911736507924E-02 -0.1080727161451E-01  0.0000000000000E+00 -0.6552489879700E-02
 0.2023476678259E-02 -0.1075222461218E-01  0.0000000000000E+00 -0.6523898381637E-02
 0.2093903852027E-02 -0.1066257368700E-01  0.0000000000000E+00 -0.6468897876225E-02
 0.2127732063812E-02 -0.1054318009117E-01  0.0000000000000E+00 -0.6398664616743E-02
 0.2129909458854E-02 -0.1039848443837E-01  0.0000000000000E+00 -0.6320933901728E-02
 0.2105163248176E-02 -0.1023222312960E-01  0.0000000000000E+00 -0.6240944452950E-02
 0.2057822130985E-02 -0.1004737742161E-01  0.0000000000000E+00 -0.6162247769566E-02
 0.1991800326901E-02 -0.9846244368369E-02  0.0000000000000E+00 -0.6087291079625E-02
 0.1910649814709E-02 -0.9630557677358E-02  0.0000000000000E+00 -0.6017782133070E-02
 0.1817714806209E-02 -0.9401977950259E-02  0.0000000000000E+00 -0.5954730323196E-02
 0.1716246428192E-02 -0.9162500203371E-02  0.0000000000000E+00 -0.5898332968163E-02
 0.1609190264897E-02 -0.8913682538689E-02  0.0000000000000E+00 -0.5848467585991E-02
 0.1499008633922E-02 -0.8655962806386E-02  0.0000000000000E+00 -0.5805450340023E-02
 0.1387821472158E-02 -0.8388974851464E-02  0.0000000000000E+00 -0.5770342216107E-02
 0.1277635507665E-02 -0.8111958118155E-02  0.0000000000000E+00 -0.5745183018765E-02
 0.1170617692040E-02 -0.7824079358120E-02  0.0000000000000E+00 -0.5733226086914E-02
 0.1069414567542E-02 -0.7524709225549E-02  0.0000000000000E+00 -0.5739109483808E-02
 0.9775130410390E-03 -0.7213693397882E-02  0.0000000000000E+00 -0.5768904338840E-02
 0.8996413907042E-03 -0.6891656567353E-02  0.0000000000000E+00 -0.5830003077883E-02
 0.8422020149305E-03 -0.6560345047654E-02  0.0000000000000E+00 -0.5930813591606E-02
 0.8137128995506E-03 -0.6222896401024E-02  0.0000000000000E+00 -0.6080339096846E-02
 0.8252872634880E-03 -0.5884159089158E-02  0.0000000000000E+00 -0.6287526332936E-02
 0.8911539091692E-03 -0.5551281939368E-02  0.0000000000000E+00 -0.6559947103260E-02
 0.1029069893714E-02 -0.5234284802457E-02  0.0000000000000E+00 -0.6901822399060E-02
 0.1260460545357E-02 -0.4946380774729E-02  0.0000000000000E+00 -0.7311464523689E-02
 0.1610100459593E-02 -0.4703983312890E-02  0.0000000000000E+00 -0.7777994557658E-02
 0.2105055416557E-02 -0.4526147596836E-02  0.0000000000000E+00 -0.8277511343871E-02
 0.2772612700009E-02 -0.4433146568710E-02  0.0000000000000E+00 -0.8769257943199E-02
 0.3637179087989E-02 -0.4443939316142E-02  0.0000000000000E+00 -0.9192816653871E-02
 0.4716602891945E-02 -0.4572682134958E-02  0.0000000000000E+00 -0.9467155046171E-02
 0.6016647117362E-02 -0.4825010985849E-02  0.0000000000000E+00 -0.9490804517523E-02
 0.7523181972045E-02 -0.5193447199784E-02  0.0000000000000E+00 -0.9147589103881E-02
 0.9197322289338E-02 -0.5653275210581E-02  0.0000000000000E+00 -0.8323145025569E-02
 0.1097730282491E-01 -0.6163316842416E-02  0.0000000000000E+00 -0.6926406433080E-02
 0.1235569999672E-03 -0.9692772906282E-02  0.0000000000000E+00 -0.4313056943234E-02
 0.3858187922687E-03 -0.9844254722761E-02  0.0000000000000E+00 -0.4998611869267E-02
 0.6680987514282E-03 -0.9993917388599E-02  0.0000000000000E+00 -0.5555375528408E-02
 0.9502057777831E-03 -0.1012739970440E-01  0.0000000000000E+00 -0.5978943304087E-02
 0.1214213637159E-02 -0.1023269065395E-01  0.0000000000000E+00 -0.6277865382279E-02
 0.1446778719415E-02 -0.1030178215693E-01  0.0000000000000E+00 -0.6469657475285E-02
 0.1639922737759E-02 -0.1033102895706E-01  0.0000000000000E+00 -0.6575907822569E-02
 0.1790527436911E-02 -0.1032047674999E-01  0.0000000000000E+00 -0.6618145371471E-02
 0.1899132940118E-02 -0.1027268984225E-01  0.0000000000000E+00 -0.6615248919062E-02
 0.1968597795564E-02 -0.1019155449831E-01  0.0000000000000E+00 -0.6582371222456E-02
 0.2002967590702E-02 -0.1008133458408E-01  0.0000000000000E+00 -0.6530938927501E-02
 0.2006684457200E-02 -0.9946062536280E-02  0.0000000000000E+00 -0.6469222094365E-02
 0.1984125718423E-02 -0.9789230142113E-02  0.0000000000000E+00 -0.6403081665573E-02
 0.1939393027211E-02 -0.9613694762288E-02  0.0000000000000E+00 -0.6336660418141E-02
 0.1876257317007E-02 -0.9421707745211E-02  0.0000000000000E+00 -0.6272914335655E-02
 0.1798179141049E-02 -0.9215001891069E-02  0.0000000000000E+00 -0.6213973898083E-02
 0.1708436781926E-02 -0.8995233629732E-02  0.0000000000000E+00 -0.6161229549512E-02
 0.1610230857854E-02 -0.8764358517451E-02  0.0000000000000E+00 -0.6115269799009E-02
 0.1506499529803E-02 -0.8523924538259E-02  0.0000000000000E+00 -0.6076351727584E-02
 0.1399770234676E-02 -0.8274453722182E-02  0.0000000000000E+00 -0.6045113459053E-02
 0.1292303262412E-02 -0.8015750242476E-02  0.0000000000000E+00 -0.6022863947427E-02
 0.1186312978553E-02 -0.7747291677737E-02  0.0000000000000E+00 -0.6011795609572E-02
 0.1084226653746E-02 -0.7468536795694E-02  0.0000000000000E+00 -0.6015190122736E-02
 0.9889840899659E-03 -0.7179191544826E-02  0.0000000000000E+00 -0.6037559481372E-02
 0.9043750160722E-03 -0.6879471023003E-02  0.0000000000000E+00 -0.6084664604577E-02
 0.8354124546834E-03 -0.6570392843753E-02  0.0000000000000E+00 -0.6163369897769E-02
 0.7887303997706E-03 -0.6254103796080E-02  0.0000000000000E+00 -0.6281296126149E-02
 0.7729796997438E-03 -0.5934133528993E-02  0.0000000000000E+00 -0.6446337665835E-02
 0.7992403491813E-03 -0.5615681040196E-02  0.0000000000000E+00 -0.6665938957730E-02
 0.8814394438842E-03 -0.5306122605084E-02  0.0000000000000E+00 -0.6945746416077E-02
 0.1036630399278E-02 -0.5015466659514E-02  0.0000000000000E+00 -0.7287664692493E-02
 0.1284978629691E-02 -0.4756539536614E-02  0.0000000000000E+00 -0.7687422419560E-02
 0.1649286753038E-02 -0.4544839762030E-02  0.0000000000000E+00 -0.8131575226056E-02
 0.2153825116133E-02 -0.4397846116066E-02  0.0000000000000E+00 -0.8594177073078E-02
 0.2822268306112E-02 -0.4333545795403E-02  0.0000000000000E+00 -0.9033679455481E-02
 0.3674801838339E-02 -0.4368033830177E-02  0.0000000000000E+00 -0.9390997864752E-02
 0.4724917492199E-02 -0.4512413067909E-02  0.0000000000000E+00 -0.9589367547948E-02
 0.5974831405285E-02 -0.4769713823982E-02  0.0000000000000E+00 -0.9535303658218E-02
 0.7409162716455E-02 -0.5131279613431E-02  0.0000000000000E+00 -0.9124354659450E-02
 0.8991439344308E-02 -0.5573768937412E-02  0.0000000000000E+00 -0.8255348901361E-02
 0.1066607603952E-01 -0.6060137832232E-02  0.0000000000000E+00 -0.6847572403729E-02
 0.1146864787070E-03 -0.9240274751541E-02  0.0000000000000E+00 -0.4229691043039E-02
 0.3578666734300E-03 -0.9381045068649E-02  0.0000000000000E+00 -0.4916993447250E-02
 0.6195545758852E-03 -0.9520450610584E-02  0.0000000000000E+00 -0.5484698896148E-02
 0.8817900907077E-03 -0.9645653340975E-02  0.0000000000000E+00 -0.5927521394111E-02
 0.1128420905474E-02 -0.9745722117372E-02  0.0000000000000E+00 -0.6251725063983E-02
 0.1347115099113E-02 -0.9813083151035E-02  0.0000000000000E+00 -0.6471938918083E-02
 0.1530146806464E-02 -0.9843931071767E-02  0.0000000000000E+00 -0.6607063905613E-02
 0.1674096665684E-02 -0.9837762839297E-02  0.0000000000000E+00 -0.6676641134964E-02
 0.1778912927190E-02 -0.9796439128675E-02  0.0000000000000E+00 -0.6698406082714E-02
 0.1846789717903E-02 -0.9723166553314E-02  0.0000000000000E+00 -0.6687105459006E-02
 0.1881171395390E-02 -0.9621652108467E-02  0.0000000000000E+00 -0.6654277739112E-02
 0.1886021423217E-02 -0.9495525244766E-02  0.0000000000000E+00 -0.6608597144327E-02
 0.1865367989824E-02 -0.9348017205578E-02  0.0000000000000E+00 -0.6556443623753E-02
 0.1823072473860E-02 -0.9181836319740E-02  0.0000000000000E+00 -0.6502479768768E-02
 0.1762745095976E-02 -0.8999162349187E-02  0.0000000000000E+00 -0.6450126221079E-02
 0.1687739677231E-02 -0.8801705672373E-02  0.0000000000000E+00 -0.6401910519351E-02
 0.1601258340956E-02 -0.8591103788188E-02  0.0000000000000E+00 -0.6359585659678E-02
 0.1506445816457E-02 -0.8369264954471E-02  0.0000000000000E+00 -0.6324110386033E-02
 0.1406229139222E-02 -0.8137723703490E-02  0.0000000000000E+00 -0.6296093994899E-02
 0.1303194861158E-02 -0.7897083859445E-02  0.0000000000000E+00 -0.6276462689774E-02
 0.1199732659241E-02 -0.7647316006171E-02  0.0000000000000E+00 -0.6266734580467E-02
 0.1098247539382E-02 -0.7388129239679E-02  0.0000000000000E+00 -0.6269213846342E-02
 0.1001404051969E-02 -0.7119264507313E-02  0.0000000000000E+00 -0.6287169977780E-02
 0.9124062491773E-03 -0.6840749200383E-02  0.0000000000000E+00 -0.6324949790542E-02
 0.8353110214359E-03 -0.6553148194564E-02  0.0000000000000E+00 -0.6387966994887E-02
 0.7753721356687E-03 -0.6257843605868E-02  0.0000000000000E+00 -0.6482525358704E-02
 0.7394006602460E-03 -0.5957341742226E-02  0.0000000000000E+00 -0.6615436241697E-02
 0.7361134098460E-03 -0.5655506547033E-02  0.0000000000000E+00 -0.6793485138197E-02
 0.7764783946494E-03 -0.5357809746437E-02  0.0000000000000E+00 -0.7022655364447E-02
 0.8740365107975E-03 -0.5071758794488E-02  0.0000000000000E+00 -0.7306774713993E-02
 0.1045061422419E-02 -0.4807244339888E-02  0.0000000000000E+00 -0.7645630883814E-02
 0.1308415362437E-02 -0.4576606911651E-02  0.0000000000000E+00 -0.8032684636870E-02
 0.1684955169544E-02 -0.4394367908715E-02  0.0000000000000E+00 -0.8452365941050E-02
 0.2196297905615E-02 -0.4276445479868E-02  0.0000000000000E+00 -0.8877219411854E-02
 0.2862809889151E-02 -0.4238679971300E-02  0.0000000000000E+00 -0.9265449260410E-02
 0.3700948223200E-02 -0.4294595127534E-02  0.0000000000000E+00 -0.9559698087493E-02
 0.4720508996254E-02 -0.4452676888751E-02  0.0000000000000E+00 -0.9687493074635E-02
 0.5920868296453E-02 -0.4713855179001E-02  0.0000000000000E+00 -0.9562707904599E-02
 0.7285862585188E-02 -0.5068681532854E-02  0.0000000000000E+00 -0.9091129631511E-02
 0.8781279569175E-02 -0.5495147528635E-02  0.0000000000000E+00 -0.8182700040089E-02
 0.1035683102555E-01 -0.5959744723799E-02  0.0000000000000E+00 -0.6765432216249E-02
 0.1064794292654E-03 -0.8791867870252E-02  0.0000000000000E+00 -0.4152147101154E-02
 0.3319618057031E-03 -0.8922690712667E-02  0.0000000000000E+00 -0.4840939585566E-02
 0.5744097549222E-03 -0.9052463894933E-02  0.0000000000000E+00 -0.5418333165799E-02
 0.8178367859943E-03 -0.9169706819527E-02  0.0000000000000E+00 -0.5878345084377E-02
 0.1047709549983E-02 -0.9264494314582E-02  0.0000000000000E+00 -0.6225345123912E-02
 0.1252688858374E-02 -0.9329722438434E-02  0.0000000000000E+00 -0.6471502799241E-02
 0.1425389267074E-02 -0.9361538246057E-02  0.0000000000000E+00 -0.6633355345199E-02
 0.1562228173733E-02 -0.9359027884089E-02  0.0000000000000E+00 -0.6728620379576E-02
 0.1662698477029E-02 -0.9323469577378E-02  0.0000000000000E+00 -0.6773911889359E-02
 0.1728435443804E-02 -0.9257473781151E-02  0.0000000000000E+00 -0.6783500743808E-02
 0.1762348193898E-02 -0.9164234085082E-02  0.0000000000000E+00 -0.6768928006408E-02
 0.1767952589917E-02 -0.9046988518254E-02  0.0000000000000E+00 -0.6739160728499E-02
 0.1748933967524E-02 -0.8908698788875E-02  0.0000000000000E+00 -0.6701004530759E-02
 0.1708905566800E-02 -0.8751905037925E-02  0.0000000000000E+00 -0.6659573141680E-02
 0.1651303597316E-02 -0.8578693944092E-02  0.0000000000000E+00 -0.6618705911081E-02
 0.1579362255793E-02 -0.8390734567057E-02  0.0000000000000E+00 -0.6581297484982E-02
 0.1496197973267E-02 -0.8189631697478E-02  0.0000000000000E+00 -0.6549440066683E-02
 0.1404893596766E-02 -0.7977238153243E-02  0.0000000000000E+00 -0.6524437643653E-02
 0.1308360060561E-02 -0.7755070547410E-02  0.0000000000000E+00 -0.6507222066474E-02
 0.1209235752160E-02 -0.7523810606795E-02  0.0000000000000E+00 -0.6498973321449E-02
 0.1110027891857E-02 -0.7283589799882E-02  0.0000000000000E+00 -0.6501380797491E-02
 0.1013314670006E-02 -0.7034340389083E-02  0.0000000000000E+00 -0.6516821322031E-02
 0.9219746458657E-03 -0.6776073641911E-02  0.0000000000000E+00 -0.6548514166007E-02
 0.8394469769960E-03 -0.6509122158455E-02  0.0000000000000E+00 -0.6600605662455E-02
 0.7700201679819E-03 -0.6234378407330E-02  0.0000000000000E+00 -0.6678131334971E-02
 0.7191456262657E-03 -0.5953558438460E-02  0.0000000000000E+00 -0.6786810772729E-02
 0.6937595467323E-03 -0.5669486262669E-02  0.0000000000000E+00 -0.6932636136353E-02
 0.7025832502568E-03 -0.5386303997888E-02  0.0000000000000E+00 -0.7121299449882E-02
 0.7564036010089E-03 -0.5109684014212E-02  0.0000000000000E+00 -0.7357380768965E-02
 0.8683055652002E-03 -0.4847179945945E-02  0.0000000000000E+00 -0.7643010240597E-02
 0.1053727029542E-02 -0.4608476145799E-02  0.0000000000000E+00 -0.7976063623101E-02
 0.1330207602278E-02 -0.4405352567892E-02  0.0000000000000E+00 -0.8348038169975E-02
 0.1716707447434E-02 -0.4251319218753E-02  0.0000000000000E+00 -0.8741639551559E-02
 0.2232345462199E-02 -0.4160774215384E-02  0.0000000000000E+00 -0.9128365340098E-02
 0.2894473683935E-02 -0.4147560369818E-02  0.0000000000000E+00 -0.9466609773495E-02
 0.3716264740426E-02 -0.4222905246173E-02  0.0000000000000E+00 -0.9701014586092E-02
 0.4704382128832E-02 -0.4393058560972E-02  0.0000000000000E+00 -0.9763328204304E-02
 0.5855928117345E-02 -0.4657260392485E-02  0.0000000000000E+00 -0.9574160094821E-02
 0.7154289840813E-02 -0.5005548480045E-02  0.0000000000000E+00 -0.9048244397846E-02
 0.8567348606253E-02 -0.5417174778722E-02  0.0000000000000E+00 -0.8104959000885E-02
 0.1004941389979E-01 -0.5861691709290E-02  0.0000000000000E+00 -0.6679719710944E-02
 0.9886555938824E-04 -0.8347145425561E-02  0.0000000000000E+00 -0.4079999632892E-02
 0.3078857771865E-03 -0.8468709080215E-02  0.0000000000000E+00 -0.4770085424377E-02
 0.5323079642949E-03 -0.8589424984983E-02  0.0000000000000E+00 -0.5356087820877E-02
 0.7579035196436E-03 -0.8699029899724E-02  0.0000000000000E+00 -0.5831469000686E-02
 0.9716211938463E-03 -0.8788536113102E-02  0.0000000000000E+00 -0.6199024483361E-02
 0.1163087450677E-02 -0.8851330292186E-02  0.0000000000000E+00 -0.6468828658870E-02
 0.1325321466982E-02 -0.8883599747261E-02  0.0000000000000E+00 -0.6655347565359E-02
 0.1454689185118E-02 -0.8884134581594E-02  0.0000000000000E+00 -0.6774641584214E-02
 0.1550345087763E-02 -0.8853736742592E-02  0.0000000000000E+00 -0.6842247691329E-02
 0.1613460671436E-02 -0.8794498119134E-02  0.0000000000000E+00 -0.6871920213966E-02
 0.1646472996431E-02 -0.8709143209461E-02  0.0000000000000E+00 -0.6875119283458E-02
 0.1652483350097E-02 -0.8600534638959E-02  0.0000000000000E+00 -0.6861011579176E-02
 0.1634844578887E-02 -0.8471361140134E-02  0.0000000000000E+00 -0.6836745271462E-02
 0.1596918274128E-02 -0.8323980629726E-02  0.0000000000000E+00 -0.6807820345257E-02
 0.1541956864061E-02 -0.8160369132402E-02  0.0000000000000E+00 -0.6778448291966E-02
 0.1473064197142E-02 -0.7982137941402E-02  0.0000000000000E+00 -0.6751857866392E-02
 0.1393262220705E-02 -0.7790846385436E-02  0.0000000000000E+00 -0.6730453361470E-02
 0.1305565530961E-02 -0.7588283572525E-02  0.0000000000000E+00 -0.6715855766284E-02
 0.1212863017975E-02 -0.7375942824624E-02  0.0000000000000E+00 -0.6709287959005E-02
 0.1117836616758E-02 -0.7154578595653E-02  0.0000000000000E+00 -0.6712149204928E-02
 0.1023098559530E-02 -0.6924476311136E-02  0.0000000000000E+00 -0.6726263384425E-02
 0.9313824706804E-03 -0.6685781562158E-02  0.0000000000000E+00 -0.6754042823614E-02
 0.8457576487325E-03 -0.6438762425555E-02  0.0000000000000E+00 -0.6798621332007E-02
 0.7698694555041E-03 -0.6184038654506E-02  0.0000000000000E+00 -0.6863913477453E-02
 0.7082031207417E-03 -0.5922806353048E-02  0.0000000000000E+00 -0.6954551534424E-02
 0.6663661450005E-03 -0.5657083730352E-02  0.0000000000000E+00 -0.7075655754675E-02
 0.6513711250097E-03 -0.5389970852251E-02  0.0000000000000E+00 -0.7232400258873E-02
 0.6718883027034E-03 -0.5125834520477E-02  0.0000000000000E+00 -0.7429411870153E-02
 0.7384637659852E-03 -0.4870482017991E-02  0.0000000000000E+00 -0.7669938139818E-02
 0.8636706114423E-03 -0.4631439340487E-02  0.0000000000000E+00 -0.7954541840806E-02
 0.1062072654338E-02 -0.4418112547243E-02  0.0000000000000E+00 -0.8279391994157E-02
 0.1349887117975E-02 -0.4241667313292E-02  0.0000000000000E+00 -0.8634310665386E-02
 0.1744243569702E-02 -0.4114590512036E-02  0.0000000000000E+00 -0.9000640930187E-02
 0.2261924084558E-02 -0.4049818481740E-02  0.0000000000000E+00 -0.9349227996436E-02
 0.2917544978097E-02 -0.4059349132034E-02  0.0000000000000E+00 -0.9639002154265E-02
 0.3721390373844E-02 -0.4152367717060E-02  0.0000000000000E+00 -0.9816780345270E-02
 0.4677468097132E-02 -0.4333216379325E-02  0.0000000000000E+00 -0.9818397671369E-02
 0.5781058726462E-02 -0.4599776571364E-02  0.0000000000000E+00 -0.9570602891714E-02
 0.7015336598336E-02 -0.4941772521605E-02  0.0000000000000E+00 -0.8995963894611E-02
 0.8350111044682E-02 -0.5339632415542E-02  0.0000000000000E+00 -0.8021921851936E-02
 0.9743711899509E-02 -0.5765580270482E-02  0.0000000000000E+00 -0.6590186866708E-02
 0.9178263015609E-04 -0.7905731141607E-02  0.0000000000000E+00 -0.4012865268849E-02
 0.2854449625096E-03 -0.8018655835664E-02  0.0000000000000E+00 -0.4704096898654E-02
 0.4929310988891E-03 -0.8130842304072E-02  0.0000000000000E+00 -0.5297772787262E-02
 0.7015895515740E-03 -0.8233126415965E-02  0.0000000000000E+00 -0.5786909059182E-02
 0.8997312183226E-03 -0.8317395598700E-02  0.0000000000000E+00 -0.6172989815262E-02
 0.1077916875052E-02 -0.8377537552660E-02  0.0000000000000E+00 -0.6464305803751E-02
 0.1229616384119E-02 -0.8409848126041E-02  0.0000000000000E+00 -0.6673515219278E-02
 0.1351234423673E-02 -0.8412916450873E-02  0.0000000000000E+00 -0.6815185076278E-02
 0.1441686516658E-02 -0.8387160402948E-02  0.0000000000000E+00 -0.6903835949053E-02
 0.1501765049637E-02 -0.8334224224848E-02  0.0000000000000E+00 -0.6952688370261E-02
 0.1533494285693E-02 -0.8256406907701E-02  0.0000000000000E+00 -0.6973060238089E-02
 0.1539594497889E-02 -0.8156214535334E-02  0.0000000000000E+00 -0.6974241325467E-02
 0.1523099217961E-02 -0.8036063710745E-02  0.0000000000000E+00 -0.6963649367612E-02
 0.1487118292031E-02 -0.7898120365229E-02  0.0000000000000E+00 -0.6947110194436E-02
 0.1434713537629E-02 -0.7744235741841E-02  0.0000000000000E+00 -0.6929161252018E-02
 0.1368849636494E-02 -0.7575949168549E-02  0.0000000000000E+00 -0.6913330421120E-02
 0.1292446008350E-02 -0.7394762790592E-02  0.0000000000000E+00 -0.6902304147368E-02
 0.1208442441140E-02 -0.7202393751570E-02  0.0000000000000E+00 -0.6897989646218E-02
 0.1119699131127E-02 -0.7000306013799E-02  0.0000000000000E+00 -0.6901867862953E-02
 0.1028932508182E-02 -0.6789320516089E-02  0.0000000000000E+00 -0.6915522843647E-02
 0.9388467891930E-03 -0.6569868525952E-02  0.0000000000000E+00 -0.6940877395035E-02
 0.8523131607655E-03 -0.6342297890113E-02  0.0000000000000E+00 -0.6980344314987E-02
 0.7725686165903E-03 -0.6107118685456E-02  0.0000000000000E+00 -0.7036939674358E-02
 0.7034363989709E-03 -0.5865218446319E-02  0.0000000000000E+00 -0.7114319080974E-02
 0.6495646859129E-03 -0.5618071851073E-02  0.0000000000000E+00 -0.7216692168482E-02
 0.6166776004106E-03 -0.5367967080933E-02  0.0000000000000E+00 -0.7348572292232E-02
 0.6118191063755E-03 -0.5118239601033E-02  0.0000000000000E+00 -0.7514326116677E-02
 0.6435588800211E-03 -0.4873430732194E-02  0.0000000000000E+00 -0.7717553959310E-02
 0.7221518470191E-03 -0.4639423617542E-02  0.0000000000000E+00 -0.7960251128684E-02
 0.8596159516217E-03 -0.4423653578232E-02  0.0000000000000E+00 -0.8241548460313E-02
 0.1069618043055E-02 -0.4235191346245E-02  0.0000000000000E+00 -0.8556109403474E-02
 0.1367069127692E-02 -0.4084552582810E-02  0.0000000000000E+00 -0.8892350149403E-02
 0.1767346255070E-02 -0.3983207064034E-02  0.0000000000000E+00 -0.9230573656389E-02
 0.2285057113975E-02 -0.3942699469045E-02  0.0000000000000E+00 -0.9541306306524E-02
 0.2932342413878E-02 -0.3973333661727E-02  0.0000000000000E+00 -0.9784283664510E-02
 0.3716948178001E-02 -0.4082483602861E-02  0.0000000000000E+00 -0.9908599752409E-02
 0.4640628710415E-02 -0.4272865444584E-02  0.0000000000000E+00 -0.9854001828707E-02
 0.5697203410944E-02 -0.4541268401641E-02  0.0000000000000E+00 -0.9552820861105E-02
 0.6869800152475E-02 -0.4877247230029E-02  0.0000000000000E+00 -0.8934500764752E-02
 0.8129995497771E-02 -0.5262319072229E-02  0.0000000000000E+00 -0.7933407519390E-02
 0.9439647993266E-02 -0.5671050660968E-02  0.0000000000000E+00 -0.6496607519629E-02
 0.8517502662942E-04 -0.7467274175325E-02  0.0000000000000E+00 -0.3950398474200E-02
 0.2644662037972E-03 -0.7572118507966E-02  0.0000000000000E+00 -0.4642668696178E-02
 0.4559929552252E-03 -0.7676258510569E-02  0.0000000000000E+00 -0.5243201809406E-02
 0.6485295749502E-03 -0.7771529570053E-02  0.0000000000000E+00 -0.5744651936024E-02
 0.8316447489975E-03 -0.7850638430362E-02  0.0000000000000E+00 -0.6147408839897E-02
 0.9968006854571E-03 -0.7907977209769E-02  0.0000000000000E+00 -0.6458246810413E-02
 0.1137950303852E-02 -0.7940003168171E-02  0.0000000000000E+00 -0.6688252884514E-02
 0.1251609426820E-02 -0.7945182881073E-02  0.0000000000000E+00 -0.6850659516378E-02
 0.1336538640764E-02 -0.7923629586958E-02  0.0000000000000E+00 -0.6959042625745E-02
 0.1393225796216E-02 -0.7876603785946E-02  0.0000000000000E+00 -0.7026090377543E-02
 0.1423336984021E-02 -0.7806020661390E-02  0.0000000000000E+00 -0.7062936077662E-02
 0.1429244435307E-02 -0.7714050140811E-02  0.0000000000000E+00 -0.7078931094762E-02
 0.1413677262053E-02 -0.7602840709562E-02  0.0000000000000E+00 -0.7081699501959E-02
 0.1379496028619E-02 -0.7474360028985E-02  0.0000000000000E+00 -0.7077337416653E-02
 0.1329567495551E-02 -0.7330323392135E-02  0.0000000000000E+00 -0.7070663201663E-02
 0.1266709996506E-02 -0.7172185991652E-02  0.0000000000000E+00 -0.7065467789404E-02
 0.1193733102784E-02 -0.7001382081587E-02  0.0000000000000E+00 -0.7064687853250E-02
 0.1113495190046E-02 -0.6819548716879E-02  0.0000000000000E+00 -0.7070484171303E-02
 0.1028820624555E-02 -0.6628113920604E-02  0.0000000000000E+00 -0.7084561766590E-02
 0.9424507346057E-03 -0.6427958015256E-02  0.0000000000000E+00 -0.7108655180697E-02
 0.8571683854701E-03 -0.6219649022115E-02  0.0000000000000E+00 -0.7144751917352E-02
 0.7759645059675E-03 -0.6003724983406E-02  0.0000000000000E+00 -0.7195232438970E-02
 0.7022211763424E-03 -0.5780922198654E-02  0.0000000000000E+00 -0.7262965839220E-02
 0.6399120613370E-03 -0.5552375745336E-02  0.0000000000000E+00 -0.7351325605627E-02
 0.5938159910420E-03 -0.5319813285064E-02  0.0000000000000E+00 -0.7464084660752E-02
 0.5697367120155E-03 -0.5085761025564E-02  0.0000000000000E+00 -0.7605148669594E-02
 0.5747085187111E-03 -0.4853750808111E-02  0.0000000000000E+00 -0.7778095365696E-02
 0.6171571797567E-03 -0.4628452107232E-02  0.0000000000000E+00 -0.7985545448412E-02
 0.7070048672201E-03 -0.4415771632117E-02  0.0000000000000E+00 -0.8228328789098E-02
 0.8556825287775E-03 -0.4223001165199E-02  0.0000000000000E+00 -0.8504281481460E-02
 0.1075950319371E-02 -0.4058832410182E-02  0.0000000000000E+00 -0.8806755376143E-02
 0.1381441798709E-02 -0.3933110357289E-02  0.0000000000000E+00 -0.9123009422183E-02
 0.1785867495624E-02 -0.3856307417043E-02  0.0000000000000E+00 -0.9432591304596E-02
 0.2301820458972E-02 -0.3838654025538E-02  0.0000000000000E+00 -0.9705987766420E-02
 0.2939205927475E-02 -0.3888905574123E-02  0.0000000000000E+00 -0.9903945089285E-02
 0.3703539972266E-02 -0.4012832689960E-02  0.0000000000000E+00 -0.9977879982329E-02
 0.4594661427621E-02 -0.4211765521483E-02  0.0000000000000E+00 -0.9871255057610E-02
 0.5605215686341E-02 -0.4481615062873E-02  0.0000000000000E+00 -0.9521471669570E-02
 0.6718398743726E-02 -0.4811869519068E-02  0.0000000000000E+00 -0.8864025261394E-02
 0.7907399347423E-02 -0.5185047831221E-02  0.0000000000000E+00 -0.7839252674765E-02
 0.9137177213143E-02 -0.5577775309606E-02  0.0000000000000E+00 -0.6398780161540E-02
 0.7899258355214E-04 -0.7031444802524E-02  0.0000000000000E+00 -0.3892287999735E-02
 0.2447932432844E-03 -0.7128711119162E-02  0.0000000000000E+00 -0.4585522441843E-02
 0.4212339251827E-03 -0.7225244968201E-02  0.0000000000000E+00 -0.5192194924171E-02
 0.5983883461533E-03 -0.7313797680628E-02  0.0000000000000E+00 -0.5704662536008E-02
 0.7669928872899E-03 -0.7387846007130E-02  0.0000000000000E+00 -0.6122401190487E-02
 0.9193786626377E-03 -0.7442285260792E-02  0.0000000000000E+00 -0.6450898975446E-02
 0.1050003796230E-02 -0.7473774879802E-02  0.0000000000000E+00 -0.6699884565864E-02
 0.1155553081119E-02 -0.7480723266578E-02  0.0000000000000E+00 -0.6881408091689E-02
 0.1234702666436E-02 -0.7463006917398E-02  0.0000000000000E+00 -0.7008179941283E-02
 0.1287700878716E-02 -0.7421559426290E-02  0.0000000000000E+00 -0.7092372049364E-02
 0.1315905191857E-02 -0.7357951164381E-02  0.0000000000000E+00 -0.7144906725686E-02
 0.1321371310903E-02 -0.7274036746644E-02  0.0000000000000E+00 -0.7175148782550E-02
 0.1306539625964E-02 -0.7171702746065E-02  0.0000000000000E+00 -0.7190874567702E-02
 0.1274025684883E-02 -0.7052715013292E-02  0.0000000000000E+00 -0.7198399929221E-02
 0.1226498611404E-02 -0.6918644215147E-02  0.0000000000000E+00 -0.7202780820714E-02
 0.1166624582472E-02 -0.6770851039870E-02  0.0000000000000E+00 -0.7208034789796E-02
 0.1097096676780E-02 -0.6610692117530E-02  0.0000000000000E+00 -0.7217315535984E-02
 0.1020685313167E-02 -0.6439716510100E-02  0.0000000000000E+00 -0.7233003418582E-02
 0.9401715891982E-03 -0.6259309374413E-02  0.0000000000000E+00 -0.7256992892917E-02
 0.8583117885847E-03 -0.6070402651380E-02  0.0000000000000E+00 -0.7291135119451E-02
 0.7779539565829E-03 -0.5873691263099E-02  0.0000000000000E+00 -0.7337449497871E-02
 0.7021911629265E-03 -0.5669890639136E-02  0.0000000000000E+00 -0.7398253615251E-02
 0.6345285927045E-03 -0.5459946860472E-02  0.0000000000000E+00 -0.7476243382405E-02
 0.5790639845719E-03 -0.5245221839420E-02  0.0000000000000E+00 -0.7574490895937E-02
 0.5406762960737E-03 -0.5027670583660E-02  0.0000000000000E+00 -0.7696323195169E-02
 0.5252146547461E-03 -0.4810026150600E-02  0.0000000000000E+00 -0.7845043371175E-02
 0.5396668201014E-03 -0.4595979845139E-02  0.0000000000000E+00 -0.8023465285569E-02
 0.5922773617711E-03 -0.4390287014587E-02  0.0000000000000E+00 -0.8233283084847E-02
 0.6926023387748E-03 -0.4198832288802E-02  0.0000000000000E+00 -0.8474252011131E-02
 0.8514640529376E-03 -0.4028720467978E-02  0.0000000000000E+00 -0.8743049631692E-02
 0.1080717323048E-02 -0.3888232228980E-02  0.0000000000000E+00 -0.9031900725167E-02
 0.1392756746969E-02 -0.3786533682041E-02  0.0000000000000E+00 -0.9327134277083E-02
 0.1799716962855E-02 -0.3733129859454E-02  0.0000000000000E+00 -0.9607792255783E-02
 0.2312330749260E-02 -0.3737018131500E-02  0.0000000000000E+00 -0.9844553310292E-02
 0.2938487577248E-02 -0.3805543426369E-02  0.0000000000000E+00 -0.9999327565404E-02
 0.3681743236621E-02 -0.3943058699595E-02  0.0000000000000E+00 -0.1002585826421E-01
 0.4540304621543E-02 -0.4149711902125E-02  0.0000000000000E+00 -0.9871116895041E-02
 0.5505871509104E-02 -0.4420707661827E-02  0.0000000000000E+00 -0.9477110058381E-02
 0.6561783831066E-02 -0.4745539976783E-02  0.0000000000000E+00 -0.8784673672551E-02
 0.7682693304544E-02 -0.5107643825554E-02  0.0000000000000E+00 -0.7739310178808E-02
 0.8836283909570E-02 -0.5485453777453E-02  0.0000000000000E+00 -0.6296529498191E-02
 0.7318961134578E-04 -0.6597930756541E-02  0.0000000000000E+00 -0.3838253946389E-02
 0.2262837506769E-03 -0.6688069620359E-02  0.0000000000000E+00 -0.4532405109903E-02
 0.3884165076193E-03 -0.6777396973532E-02  0.0000000000000E+00 -0.5144580278776E-02
 0.5508559971841E-03 -0.6859510351534E-02  0.0000000000000E+00 -0.5666889899211E-02
 0.7054292044554E-03 -0.6928613550981E-02  0.0000000000000E+00 -0.6098047289919E-02
 0.8453052761928E-03 -0.6980101037120E-02  0.0000000000000E+00 -0.6442453982574E-02
 0.9654621600203E-03 -0.7010865706835E-02  0.0000000000000E+00 -0.6708672048995E-02
 0.1062799520296E-02 -0.7019310376472E-02  0.0000000000000E+00 -0.6907714290220E-02
 0.1135967773042E-02 -0.7005132349575E-02  0.0000000000000E+00 -0.7051509284573E-02
 0.1185031789550E-02 -0.6968988223464E-02  0.0000000000000E+00 -0.7151740323707E-02
 0.1211084693331E-02 -0.6912139291120E-02  0.0000000000000E+00 -0.7219105604048E-02
 0.1215895068485E-02 -0.6836145315014E-02  0.0000000000000E+00 -0.7262946899321E-02
 0.1201630326246E-02 -0.6742638528026E-02  0.0000000000000E+00 -0.7291147194289E-02
 0.1170666405478E-02 -0.6633181517153E-02  0.0000000000000E+00 -0.7310196466567E-02
 0.1125473612046E-02 -0.6509193702182E-02  0.0000000000000E+00 -0.7325347027374E-02
 0.1068561277964E-02 -0.6371932473435E-02  0.0000000000000E+00 -0.7340806818364E-02
 0.1002499960968E-02 -0.6222668026389E-02  0.0000000000000E+00 -0.7359912683534E-02
 0.9299657146997E-03 -0.6062853813949E-02  0.0000000000000E+00 -0.7385229761352E-02
 0.8536887797493E-03 -0.5893824995224E-02  0.0000000000000E+00 -0.7418806974555E-02
 0.7764302797886E-03 -0.5716556880347E-02  0.0000000000000E+00 -0.7462578813920E-02
 0.7010900031630E-03 -0.5531860872786E-02  0.0000000000000E+00 -0.7518565274799E-02
 0.6308459336321E-03 -0.5340616458694E-02  0.0000000000000E+00 -0.7588992803208E-02
 0.5693051762317E-03 -0.5143962671583E-02  0.0000000000000E+00 -0.7676360886422E-02
 0.5206645052411E-03 -0.4943467422996E-02  0.0000000000000E+00 -0.7783424636253E-02
 0.4898744730276E-03 -0.4741287784239E-02  0.0000000000000E+00 -0.7913060464052E-02
 0.4827982902251E-03 -0.4540333667008E-02  0.0000000000000E+00 -0.8067979065395E-02
 0.5063445480729E-03 -0.4344421375272E-02  0.0000000000000E+00 -0.8250260711511E-02
 0.5685451730454E-03 -0.4158354062919E-02  0.0000000000000E+00 -0.8460730452620E-02
 0.6785643496044E-03 -0.3987955031524E-02  0.0000000000000E+00 -0.8698161570377E-02
 0.8466030562007E-03 -0.3840107245055E-02  0.0000000000000E+00 -0.8958206194048E-02
 0.1083621325195E-02 -0.3722658485619E-02  0.0000000000000E+00 -0.9232135603392E-02
 0.1400820529482E-02 -0.3644097883036E-02  0.0000000000000E+00 -0.9505554825484E-02
 0.1808852090266E-02 -0.3613000483645E-02  0.0000000000000E+00 -0.9757217168961E-02
 0.2316735697634E-02 -0.3637212857000E-02  0.0000000000000E+00 -0.9958183474413E-02
 0.2930544640787E-02 -0.3722798565849E-02  0.0000000000000E+00 -0.1007163842720E-01
 0.3652109535791E-02 -0.3872857607732E-02  0.0000000000000E+00 -0.1005362542950E-01
 0.4478242710857E-02 -0.4086528392421E-02  0.0000000000000E+00 -0.9854417457707E-02
 0.5399879454351E-02 -0.4358447048514E-02  0.0000000000000E+00 -0.9420206849018E-02
 0.6400550030538E-02 -0.4678162603606E-02  0.0000000000000E+00 -0.8696555730842E-02
 0.7456225705648E-02 -0.5029942297907E-02  0.0000000000000E+00 -0.7633449038679E-02
 0.8536979498727E-02 -0.5393808894095E-02  0.0000000000000E+00 -0.6189706991509E-02
 0.6772408004826E-04 -0.6166434091907E-02  0.0000000000000E+00 -0.3788045348488E-02
 0.2088068225885E-03 -0.6249847979608E-02  0.0000000000000E+00 -0.4483087657734E-02
 0.3573214817649E-03 -0.6332329608962E-02  0.0000000000000E+00 -0.5100195472201E-02
 0.5056439253578E-03 -0.6408265015668E-02  0.0000000000000E+00 -0.5631271881834E-02
 0.6466264957140E-03 -0.6472548173232E-02  0.0000000000000E+00 -0.6074395594634E-02
 0.7742480263384E-03 -0.6521067145101E-02  0.0000000000000E+00 -0.6433056025283E-02
 0.8840154639430E-03 -0.6550972150767E-02  0.0000000000000E+00 -0.6714822170579E-02
 0.9730795055577E-03 -0.6560703087860E-02  0.0000000000000E+00 -0.6929807178309E-02
 0.1040113271641E-02 -0.6549826378967E-02  0.0000000000000E+00 -0.7089244133667E-02
 0.1085045953448E-02 -0.6518764863485E-02  0.0000000000000E+00 -0.7204364071381E-02
 0.1108745234563E-02 -0.6468502869324E-02  0.0000000000000E+00 -0.7285638892658E-02
 0.1112719392707E-02 -0.6400324729117E-02  0.0000000000000E+00 -0.7342360907625E-02
 0.1098878034096E-02 -0.6315616585807E-02  0.0000000000000E+00 -0.7382481698874E-02
 0.1069363475846E-02 -0.6215737823872E-02  0.0000000000000E+00 -0.7412624532644E-02
 0.1026447009426E-02 -0.6101951653645E-02  0.0000000000000E+00 -0.7438199161425E-02
 0.9724773202405E-03 -0.5975404734852E-02  0.0000000000000E+00 -0.7463568355047E-02
 0.9098969641732E-03 -0.5837272879584E-02  0.0000000000000E+00 -0.7492218030070E-02
 0.8412814112794E-03 -0.5688906654830E-02  0.0000000000000E+00 -0.7526862907454E-02
 0.7693024333789E-03 -0.5531584009949E-02  0.0000000000000E+00 -0.7569671391567E-02
 0.6967158582207E-03 -0.5366315055382E-02  0.0000000000000E+00 -0.7622628763351E-02
 0.6264599599816E-03 -0.5194016874956E-02  0.0000000000000E+00 -0.7687725867375E-02
 0.5617809251564E-03 -0.5015719366494E-02  0.0000000000000E+00 -0.7767071991082E-02
 0.5063675372700E-03 -0.4832737545628E-02  0.0000000000000E+00 -0.7862949807893E-02
 0.4644920379512E-03 -0.4646824652508E-02  0.0000000000000E+00 -0.7977785267312E-02
 0.4411501913578E-03 -0.4460315218982E-02  0.0000000000000E+00 -0.8114003339915E-02
 0.4421910442816E-03 -0.4276267508511E-02  0.0000000000000E+00 -0.8273736744986E-02
 0.4744155883606E-03 -0.4098591024833E-02  0.0000000000000E+00 -0.8458366467298E-02
 0.5456172263516E-03 -0.3932102882705E-02  0.0000000000000E+00 -0.8667908749460E-02
 0.6645494331871E-03 -0.3782531848841E-02  0.0000000000000E+00 -0.8900247671222E-02
 0.8407869878324E-03 -0.3656511921716E-02  0.0000000000000E+00 -0.9150138253983E-02
 0.1084413183415E-02 -0.3561444777084E-02  0.0000000000000E+00 -0.9408059995838E-02
 0.1405487091904E-02 -0.3505152527608E-02  0.0000000000000E+00 -0.9659079319722E-02
 0.1813269640831E-02 -0.3495322706921E-02  0.0000000000000E+00 -0.9881848430043E-02
 0.2315206301592E-02 -0.3538732468656E-02  0.0000000000000E+00 -0.1004796528761E-01
 0.2915734480305E-02 -0.3640283536264E-02  0.0000000000000E+00 -0.1012196587764E-01
 0.3615163993145E-02 -0.3801968376559E-02  0.0000000000000E+00 -0.1006214621790E-01
 0.4409111008822E-02 -0.4022061860045E-02  0.0000000000000E+00 -0.9821878417448E-02
 0.5287889307872E-02 -0.4294741997432E-02  0.0000000000000E+00 -0.9351164363447E-02
 0.6235243385905E-02 -0.4609644404236E-02  0.0000000000000E+00 -0.8599761112358E-02
 0.7228326442576E-02 -0.4951787151659E-02  0.0000000000000E+00 -0.7521554879518E-02
 0.8239300547485E-02 -0.5302583757376E-02  0.0000000000000E+00 -0.6078190760429E-02
 0.6255692807247E-04 -0.5736668471283E-02  0.0000000000000E+00 -0.3741438199678E-02
 0.1922408571722E-03 -0.5813714796643E-02  0.0000000000000E+00 -0.4437363870621E-02
 0.3277446154668E-03 -0.5889674111260E-02  0.0000000000000E+00 -0.5058888550928E-02
 0.4624811676247E-03 -0.5959673809238E-02  0.0000000000000E+00 -0.5597738868856E-02
 0.5902737799514E-03 -0.6019266966318E-02  0.0000000000000E+00 -0.6051468491745E-02
 0.7058857266789E-03 -0.6064829129560E-02  0.0000000000000E+00 -0.6422808592168E-02
 0.8053582866230E-03 -0.6093785911968E-02  0.0000000000000E+00 -0.6718493080730E-02
 0.8861213891848E-03 -0.6104648595551E-02  0.0000000000000E+00 -0.6947866138830E-02
 0.9469103531628E-03 -0.6096892791299E-02  0.0000000000000E+00 -0.7121552872511E-02
 0.9875588081150E-03 -0.6070744465313E-02  0.0000000000000E+00 -0.7250375109154E-02
 0.1008742587271E-02 -0.6026939259606E-02  0.0000000000000E+00 -0.7344585155948E-02
 0.1011733545621E-02 -0.5966503965692E-02  0.0000000000000E+00 -0.7413407969451E-02
 0.9981976011444E-03 -0.5890587001434E-02  0.0000000000000E+00 -0.7464832413743E-02
 0.9700495459826E-03 -0.5800345633722E-02  0.0000000000000E+00 -0.7505578652624E-02
 0.9293620867031E-03 -0.5696883208102E-02  0.0000000000000E+00 -0.7541177372595E-02
 0.8783201363543E-03 -0.5581229384485E-02  0.0000000000000E+00 -0.7576111579893E-02
 0.8192332454564E-03 -0.5454458442159E-02  0.0000000000000E+00 -0.7613982394112E-02
 0.7545703086481E-03 -0.5317811162518E-02  0.0000000000000E+00 -0.7657618886383E-02
 0.6869370969733E-03 -0.5172501099488E-02  0.0000000000000E+00 -0.7709274196421E-02
 0.6190741171607E-03 -0.5019564423156E-02  0.0000000000000E+00 -0.7770952743518E-02
 0.5539451830089E-03 -0.4860012884682E-02  0.0000000000000E+00 -0.7844588064044E-02
 0.4948486126073E-03 -0.4695013023634E-02  0.0000000000000E+00 -0.7932148465884E-02
 0.4455356925409E-03 -0.4526038941756E-02  0.0000000000000E+00 -0.8035682120397E-02
 0.4103321549690E-03 -0.4355008946379E-02  0.0000000000000E+00 -0.8157276763153E-02
 0.3942548446355E-03 -0.4184411361747E-02  0.0000000000000E+00 -0.8298908541384E-02
 0.4031134855412E-03 -0.4017426016308E-02  0.0000000000000E+00 -0.8462150079796E-02
 0.4435771379361E-03 -0.3858026596155E-02  0.0000000000000E+00 -0.8647720321700E-02
 0.5231800240055E-03 -0.3711014459936E-02  0.0000000000000E+00 -0.8854888483082E-02
 0.6502523186841E-03 -0.3581996252971E-02  0.0000000000000E+00 -0.9080740854610E-02
 0.8337444313510E-03 -0.3477336740102E-02  0.0000000000000E+00 -0.9319257729450E-02
 0.1082886970380E-02 -0.3403985581740E-02  0.0000000000000E+00 -0.9560276260687E-02
 0.1406651114646E-02 -0.3369114140775E-02  0.0000000000000E+00 -0.9788489967443E-02
 0.1812998576263E-02 -0.3379568128159E-02  0.0000000000000E+00 -0.9982611043979E-02
 0.2307930568710E-02 -0.3441134384284E-02  0.0000000000000E+00 -0.1011489948649E-01
 0.2894410780357E-02 -0.3557662579295E-02  0.0000000000000E+00 -0.1015129242549E-01
 0.3571405480520E-02 -0.3730165573880E-02  0.0000000000000E+00 -0.1005227681020E-01
 0.4333500234632E-02 -0.3956177974683E-02  0.0000000000000E+00 -0.9774130480775E-02
 0.5170499407718E-02 -0.4229507747845E-02  0.0000000000000E+00 -0.9270329140277E-02
 0.6066368367786E-02 -0.4539895031536E-02  0.0000000000000E+00 -0.8494365066116E-02
 0.6999310478147E-02 -0.4873029915045E-02  0.0000000000000E+00 -0.7403530491663E-02
 0.7943307118815E-02 -0.5211539381553E-02  0.0000000000000E+00 -0.5961885131538E-02
 0.5765146954812E-04 -0.5308356793510E-02  0.0000000000000E+00 -0.3698233860613E-02
 0.1764717265497E-03 -0.5379350342862E-02  0.0000000000000E+00 -0.4395049405440E-02
 0.2994938042409E-03 -0.5449074663118E-02  0.0000000000000E+00 -0.5020518754759E-02
 0.4211111781613E-03 -0.5513360732118E-02  0.0000000000000E+00 -0.5566216716025E-02
 0.5360735231738E-03 -0.5568395144945E-02  0.0000000000000E+00 -0.6029267078038E-02
 0.6399067686632E-03 -0.5611034940856E-02  0.0000000000000E+00 -0.6411780091562E-02
 0.7291892338599E-03 -0.5638994665837E-02  0.0000000000000E+00 -0.6719799575460E-02
 0.8016517460681E-03 -0.5650884195180E-02  0.0000000000000E+00 -0.6962025051607E-02
 0.8561234937879E-03 -0.5646121023918E-02  0.0000000000000E+00 -0.7148561424037E-02
 0.8923755997967E-03 -0.5624765111526E-02  0.0000000000000E+00 -0.7289869315994E-02
 0.9109204151344E-03 -0.5587327751853E-02  0.0000000000000E+00 -0.7395995242671E-02
 0.9128140939810E-03 -0.5534594182564E-02  0.0000000000000E+00 -0.7476086032676E-02
 0.8994915473132E-03 -0.5467483126024E-02  0.0000000000000E+00 -0.7538142343077E-02
 0.8726458647607E-03 -0.5386951431646E-02  0.0000000000000E+00 -0.7588948898256E-02
 0.8341519208679E-03 -0.5293939929921E-02  0.0000000000000E+00 -0.7634123204549E-02
 0.7860282226532E-03 -0.5189356000221E-02  0.0000000000000E+00 -0.7678235101209E-02
 0.7304467221795E-03 -0.5074165979261E-02  0.0000000000000E+00 -0.7724967550071E-02
 0.6697639977066E-03 -0.4949494368830E-02  0.0000000000000E+00 -0.7777229002107E-02
 0.6065124514802E-03 -0.4816483260031E-02  0.0000000000000E+00 -0.7837323049168E-02
 0.5434074668175E-03 -0.4676186102077E-02  0.0000000000000E+00 -0.7907242604815E-02
 0.4834258762031E-03 -0.4529698241349E-02  0.0000000000000E+00 -0.7988837348060E-02
 0.4299028050961E-03 -0.4378309132792E-02  0.0000000000000E+00 -0.8083912911659E-02
 0.3866340323434E-03 -0.4223635328261E-02  0.0000000000000E+00 -0.8194267808159E-02
 0.3579784814314E-03 -0.4067740549282E-02  0.0000000000000E+00 -0.8321645327444E-02
 0.3489522522974E-03 -0.3913244372928E-02  0.0000000000000E+00 -0.8467578348062E-02
 0.3653036550021E-03 -0.3763423267961E-02  0.0000000000000E+00 -0.8633100020491E-02
 0.4135494279934E-03 -0.3622288901004E-02  0.0000000000000E+00 -0.8818306472951E-02
 0.5009488037111E-03 -0.3494601120308E-02  0.0000000000000E+00 -0.9021782034920E-02
 0.6354016388673E-03 -0.3385822019869E-02  0.0000000000000E+00 -0.9239904137202E-02
 0.8252415022448E-03 -0.3302032886478E-02  0.0000000000000E+00 -0.9465993948614E-02
 0.1078875087574E-02 -0.3249731537320E-02  0.0000000000000E+00 -0.9689383376507E-02
 0.1404242190488E-02 -0.3235459663912E-02  0.0000000000000E+00 -0.9894540318759E-02
 0.1808094058854E-02 -0.3265268590782E-02  0.0000000000000E+00 -0.1006037455664E-01
 0.2295108498883E-02 -0.3344030710632E-02  0.0000000000000E+00 -0.1015990778042E-01
 0.2866920848849E-02 -0.3474643856201E-02  0.0000000000000E+00 -0.1016050711037E-01
 0.3521307291888E-02 -0.3657253487530E-02  0.0000000000000E+00 -0.1002478000977E-01
 0.4251960678504E-02 -0.3888757885204E-02  0.0000000000000E+00 -0.9711728089980E-02
 0.5048262978729E-02 -0.4162664883163E-02  0.0000000000000E+00 -0.9178002541414E-02
 0.5894393856611E-02 -0.4468826553210E-02  0.0000000000000E+00 -0.8380433235406E-02
 0.6769480938276E-02 -0.4793529024065E-02  0.0000000000000E+00 -0.7279296291700E-02
 0.7649081360870E-02 -0.5120452843001E-02  0.0000000000000E+00 -0.5840720008378E-02
 0.5297287917204E-04 -0.4881229095535E-02  0.0000000000000E+00 -0.3658257799794E-02
 0.1613911844166E-03 -0.4946443942925E-02  0.0000000000000E+00 -0.4355981021030E-02
 0.2723865549647E-03 -0.5010185529322E-02  0.0000000000000E+00 -0.4984957082695E-02
 0.3812889377558E-03 -0.5068959051830E-02  0.0000000000000E+00 -0.5536629072179E-02
 0.4837390598537E-03 -0.5119564248286E-02  0.0000000000000E+00 -0.6007775002385E-02
 0.5760073933994E-03 -0.5159334265559E-02  0.0000000000000E+00 -0.6400008463403E-02
 0.6552102938601E-03 -0.5186282556889E-02  0.0000000000000E+00 -0.6718817573366E-02
 0.7193957439459E-03 -0.5199138723304E-02  0.0000000000000E+00 -0.6972375913276E-02
 0.7675115783739E-03 -0.5197288202463E-02  0.0000000000000E+00 -0.7170355643033E-02
 0.7992929349026E-03 -0.5180650123324E-02  0.0000000000000E+00 -0.7322907773030E-02
 0.8151119635497E-03 -0.5149531793262E-02  0.0000000000000E+00 -0.7439892381679E-02
 0.8158265315593E-03 -0.5104490719448E-02  0.0000000000000E+00 -0.7530373194818E-02
 0.8026515040720E-03 -0.5046223273813E-02  0.0000000000000E+00 -0.7602342106918E-02
 0.7770635120015E-03 -0.4975487873209E-02  0.0000000000000E+00 -0.7662619662899E-02
 0.7407404264954E-03 -0.4893060936879E-02  0.0000000000000E+00 -0.7716878365079E-02
 0.6955320521052E-03 -0.4799723122482E-02  0.0000000000000E+00 -0.7769742797185E-02
 0.6434684998047E-03 -0.4696327100979E-02  0.0000000000000E+00 -0.7824945142898E-02
 0.5867885575792E-03 -0.4583875028639E-02  0.0000000000000E+00 -0.7885438767550E-02
 0.5279441232097E-03 -0.4463430663724E-02  0.0000000000000E+00 -0.7953544084376E-02
 0.4696159711254E-03 -0.4336056030510E-02  0.0000000000000E+00 -0.8031212964717E-02
 0.4147819539718E-03 -0.4202919075166E-02  0.0000000000000E+00 -0.8120186294838E-02
 0.3667995158932E-03 -0.4065418632560E-02  0.0000000000000E+00 -0.8222087377359E-02
 0.3294921571837E-03 -0.3925297484790E-02  0.0000000000000E+00 -0.8338452257109E-02
 0.3072334251729E-03 -0.3784745880576E-02  0.0000000000000E+00 -0.8470676056808E-02
 0.3050191679637E-03 -0.3646493377524E-02  0.0000000000000E+00 -0.8619856405563E-02
 0.3285171915995E-03 -0.3513890103244E-02  0.0000000000000E+00 -0.8786509676732E-02
 0.3840752640819E-03 -0.3390962285117E-02  0.0000000000000E+00 -0.8970149551844E-02
 0.4786662707945E-03 -0.3282406248823E-02  0.0000000000000E+00 -0.9168737030327E-02
 0.6197576566829E-03 -0.3193521780359E-02  0.0000000000000E+00 -0.9378026250242E-02
 0.8150784664377E-03 -0.3130097673698E-02  0.0000000000000E+00 -0.9590787559602E-02
 0.1072243860529E-02 -0.3098185069597E-02  0.0000000000000E+00 -0.9795972599791E-02
 0.1398219762382E-02 -0.3103720626889E-02  0.0000000000000E+00 -0.9977953883379E-02
 0.1798632433045E-02 -0.3152009327049E-02  0.0000000000000E+00 -0.1011595568973E-01
 0.2276948100925E-02 -0.3247081135291E-02  0.0000000000000E+00 -0.1018383998428E-01
 0.2833603741700E-02 -0.3390973086615E-02  0.0000000000000E+00 -0.1015041658202E-01
 0.3465318138871E-02 -0.3583061437701E-02  0.0000000000000E+00 -0.9980338436898E-02
 0.4165006031153E-02 -0.3819695647978E-02  0.0000000000000E+00 -0.9635161890764E-02
 0.4921693638446E-02 -0.4094138516952E-02  0.0000000000000E+00 -0.9074449677308E-02
 0.5719758284837E-02 -0.4396353352901E-02  0.0000000000000E+00 -0.8258025760097E-02
 0.6539131806363E-02 -0.4713149343847E-02  0.0000000000000E+00 -0.7148790660467E-02
 0.7356726293732E-02 -0.5029115806992E-02  0.0000000000000E+00 -0.5714650162382E-02
 0.4848773736184E-04 -0.4455020672338E-02  0.0000000000000E+00 -0.3621358629106E-02
 0.1468954573695E-03 -0.4514691628143E-02  0.0000000000000E+00 -0.4320015983873E-02
 0.2462477419455E-03 -0.4572668470339E-02  0.0000000000000E+00 -0.4952086729792E-02
 0.3427783319120E-03 -0.4626108911157E-02  0.0000000000000E+00 -0.5508899196661E-02
 0.4329921843120E-03 -0.4672410406481E-02  0.0000000000000E+00 -0.5986961514224E-02
 0.5138899856997E-03 -0.4709377765254E-02  0.0000000000000E+00 -0.6387504900132E-02
 0.5831260771400E-03 -0.4735330479633E-02  0.0000000000000E+00 -0.6715587804004E-02
 0.6390773116014E-03 -0.4749133726496E-02  0.0000000000000E+00 -0.6978971903483E-02
 0.6808287964496E-03 -0.4750160911815E-02  0.0000000000000E+00 -0.7186983430302E-02
 0.7081001275186E-03 -0.4738210118459E-02  0.0000000000000E+00 -0.7349517866645E-02
 0.7211415953930E-03 -0.4713401066525E-02  0.0000000000000E+00 -0.7476272411182E-02
 0.7206268041169E-03 -0.4676075014682E-02  0.0000000000000E+00 -0.7576227292141E-02
 0.7075596098757E-03 -0.4626712384966E-02  0.0000000000000E+00 -0.7657349135632E-02
 0.6832046184069E-03 -0.4565875175073E-02  0.0000000000000E+00 -0.7726468664687E-02
 0.6490434074679E-03 -0.4494174051232E-02  0.0000000000000E+00 -0.7789283673847E-02
 0.6067549955421E-03 -0.4412259227404E-02  0.0000000000000E+00 -0.7850442772433E-02
 0.5582237103887E-03 -0.4320864628937E-02  0.0000000000000E+00 -0.7913695654836E-02
 0.5055653544195E-03 -0.4220864447958E-02  0.0000000000000E+00 -0.7982006835562E-02
 0.4511444730199E-03 -0.4113237505346E-02  0.0000000000000E+00 -0.8057680729696E-02
 0.3975981412849E-03 -0.3999045874336E-02  0.0000000000000E+00 -0.8142599819551E-02
 0.3478938364585E-03 -0.3879519300695E-02  0.0000000000000E+00 -0.8238372871323E-02
 0.3053977389644E-03 -0.3756152780884E-02  0.0000000000000E+00 -0.8346423149523E-02
 0.2739455930124E-03 -0.3630799651325E-02  0.0000000000000E+00 -0.8468013581654E-02
 0.2579087594504E-03 -0.3505758686368E-02  0.0000000000000E+00 -0.8604189608504E-02
 0.2622456233083E-03 -0.3383849509464E-02  0.0000000000000E+00 -0.8755623650077E-02
 0.2925272938071E-03 -0.3268474894851E-02  0.0000000000000E+00 -0.8922339480998E-02
 0.3549194326096E-03 -0.3163654905943E-02  0.0000000000000E+00 -0.9103309123281E-02
 0.4561012698870E-03 -0.3074003816953E-02  0.0000000000000E+00 -0.9295930448636E-02
 0.6031100573707E-03 -0.3004645535429E-02  0.0000000000000E+00 -0.9495415851046E-02
 0.8030866051957E-03 -0.2961071837294E-02  0.0000000000000E+00 -0.9694085577762E-02
 0.1062889601384E-02 -0.2948896393924E-02  0.0000000000000E+00 -0.9880624279372E-02
 0.1388568750116E-02 -0.2973477995509E-02  0.0000000000000E+00 -0.1003942369916E-01
 0.1784707051446E-02 -0.3039423066968E-02  0.0000000000000E+00 -0.1015012144885E-01
 0.2253662259702E-02 -0.3149986977416E-02  0.0000000000000E+00 -0.1018748090392E-01
 0.2794789025984E-02 -0.3306428361177E-02  0.0000000000000E+00 -0.1012175512299E-01
 0.3403863354466E-02 -0.3507440059869E-02  0.0000000000000E+00 -0.9919566044035E-02
 0.4073116896453E-02 -0.3748896265824E-02  0.0000000000000E+00 -0.9544869387802E-02
 0.4791270207973E-02 -0.4023857747372E-02  0.0000000000000E+00 -0.8959906977076E-02
 0.5542874070676E-02 -0.4322392153632E-02  0.0000000000000E+00 -0.8127200766071E-02
 0.6308550250807E-02 -0.4631761865050E-02  0.0000000000000E+00 -0.7011970171743E-02
 0.7066364783119E-02 -0.4937333352107E-02  0.0000000000000E+00 -0.5583654524417E-02
 0.4416362138730E-04 -0.4029470367590E-02  0.0000000000000E+00 -0.3587407404194E-02
 0.1328839768940E-03 -0.4083794002344E-02  0.0000000000000E+00 -0.4287031639095E-02
 0.2209075737813E-03 -0.4136190374905E-02  0.0000000000000E+00 -0.4921803431679E-02
 0.3053497415308E-03 -0.4184455101819E-02  0.0000000000000E+00 -0.5482951357895E-02
 0.3835608835545E-03 -0.4226572668997E-02  0.0000000000000E+00 -0.5966783828334E-02
 0.4532613975679E-03 -0.4260816256559E-02  0.0000000000000E+00 -0.6374256774550E-02
 0.5126429772159E-03 -0.4285816202648E-02  0.0000000000000E+00 -0.6710118766665E-02
 0.5604191549761E-03 -0.4300584421947E-02  0.0000000000000E+00 -0.6981829909549E-02
 0.5958253596771E-03 -0.4304496755589E-02  0.0000000000000E+00 -0.7198456543194E-02
 0.6185803809460E-03 -0.4297244890347E-02  0.0000000000000E+00 -0.7369694309790E-02
 0.6288261965097E-03 -0.4278773438936E-02  0.0000000000000E+00 -0.7505104092660E-02
 0.6270627471378E-03 -0.4249216443924E-02  0.0000000000000E+00 -0.7613585671918E-02
 0.6140898573491E-03 -0.4208843652630E-02  0.0000000000000E+00 -0.7703067084254E-02
 0.5909635659448E-03 -0.4158022498860E-02  0.0000000000000E+00 -0.7780366159531E-02
 0.5589696055352E-03 -0.4097196959739E-02  0.0000000000000E+00 -0.7851178180324E-02
 0.5196142444762E-03 -0.4026883712523E-02  0.0000000000000E+00 -0.7920146430955E-02
 0.4746323479498E-03 -0.3947693469303E-02  0.0000000000000E+00 -0.7991007432618E-02
 0.4260118256977E-03 -0.3860367305000E-02  0.0000000000000E+00 -0.8066703940020E-02
 0.3760233552760E-03 -0.3765792822886E-02  0.0000000000000E+00 -0.8149492494114E-02
 0.3272516806082E-03 -0.3665023884597E-02  0.0000000000000E+00 -0.8241159097749E-02
 0.2826431757065E-03 -0.3559341532247E-02  0.0000000000000E+00 -0.8343158663572E-02
 0.2455601346948E-03 -0.3450324128249E-02  0.0000000000000E+00 -0.8456698559339E-02
 0.2198363942911E-03 -0.3339920532547E-02  0.0000000000000E+00 -0.8582759918035E-02
 0.2098260758252E-03 -0.3230521013881E-02  0.0000000000000E+00 -0.8722038900633E-02
 0.2204351338716E-03 -0.3125016752683E-02  0.0000000000000E+00 -0.8874794371508E-02
 0.2571245526153E-03 -0.3026844106960E-02  0.0000000000000E+00 -0.9040582639026E-02
 0.3258680157169E-03 -0.2939998817758E-02  0.0000000000000E+00 -0.9217874658039E-02
 0.4330474393704E-03 -0.2868997778275E-02  0.0000000000000E+00 -0.9403563403657E-02
 0.5852758416032E-03 -0.2818779154487E-02  0.0000000000000E+00 -0.9592396586829E-02
 0.7891253412158E-03 -0.2794536988143E-02  0.0000000000000E+00 -0.9776337396750E-02
 0.1050735117955E-02 -0.2801459898844E-02  0.0000000000000E+00 -0.9943905612415E-02
 0.1375295797287E-02 -0.2844357651498E-02  0.0000000000000E+00 -0.1007961262741E-01
 0.1766424827065E-02 -0.2927185005508E-02  0.0000000000000E+00 -0.1016359252510E-01
 0.2225466302881E-02 -0.3052486231997E-02  0.0000000000000E+00 -0.1017155690676E-01
 0.2750796038438E-02 -0.3220815932429E-02  0.0000000000000E+00 -0.1007519371186E-01
 0.3337346224873E-02 -0.3430258382367E-02  0.0000000000000E+00 -0.9843018212199E-02
 0.3976744009105E-02 -0.3676274228657E-02  0.0000000000000E+00 -0.9441244120646E-02
 0.4657440931704E-02 -0.3951755342166E-02  0.0000000000000E+00 -0.8834588663575E-02
 0.5364131446173E-02 -0.4246862144436E-02  0.0000000000000E+00 -0.7988017351989E-02
 0.6078018624235E-02 -0.4549243527658E-02  0.0000000000000E+00 -0.6868809751236E-02
 0.6778138674933E-02 -0.4844923031874E-02  0.0000000000000E+00 -0.5447735507275E-02
 0.3996873026725E-04 -0.3604318994164E-02  0.0000000000000E+00 -0.3556297167079E-02
 0.1192582151441E-03 -0.3653454268751E-02  0.0000000000000E+00 -0.4256925138446E-02
 0.1961997174913E-03 -0.3700421060013E-02  0.0000000000000E+00 -0.4894015742457E-02
 0.2687777955840E-03 -0.3743644968970E-02  0.0000000000000E+00 -0.5458711876029E-02
 0.3351771829968E-03 -0.3781691388718E-02  0.0000000000000E+00 -0.5947188888766E-02
 0.3938313030382E-03 -0.3813299857157E-02  0.0000000000000E+00 -0.6360229850958E-02
 0.4434682803200E-03 -0.3837414382702E-02  0.0000000000000E+00 -0.6702389008420E-02
 0.4831426638713E-03 -0.3853200504502E-02  0.0000000000000E+00 -0.6980932523926E-02
 0.5122480849688E-03 -0.3860045754311E-02  0.0000000000000E+00 -0.7204752087826E-02
 0.5305118396387E-03 -0.3857545145794E-02  0.0000000000000E+00 -0.7383400049847E-02
 0.5379764751771E-03 -0.3845476804749E-02  0.0000000000000E+00 -0.7526329472927E-02
 0.5349754482293E-03 -0.3823774089343E-02  0.0000000000000E+00 -0.7642365115278E-02
 0.5221093939416E-03 -0.3792500112217E-02  0.0000000000000E+00 -0.7739385442479E-02
 0.5002281633214E-03 -0.3751829319474E-02  0.0000000000000E+00 -0.7824174349318E-02
 0.4704217362775E-03 -0.3702038369867E-02  0.0000000000000E+00 -0.7902398446276E-02
 0.4340217244847E-03 -0.3643507880675E-02  0.0000000000000E+00 -0.7978667667395E-02
 0.3926100899397E-03 -0.3576721477998E-02  0.0000000000000E+00 -0.8056675782929E-02
 0.3480422405617E-03 -0.3502282451188E-02  0.0000000000000E+00 -0.8139311859486E-02
 0.3024888392400E-03 -0.3420981281002E-02  0.0000000000000E+00 -0.8228753742078E-02
 0.2584741759546E-03 -0.3333855697052E-02  0.0000000000000E+00 -0.8326665174096E-02
 0.2189135113715E-03 -0.3242227916959E-02  0.0000000000000E+00 -0.8434327054935E-02
 0.1871536279592E-03 -0.3147747381957E-02  0.0000000000000E+00 -0.8552716748353E-02
 0.1670136438421E-03 -0.3052444166184E-02  0.0000000000000E+00 -0.8682526708346E-02
 0.1628171231997E-03 -0.2958784025740E-02  0.0000000000000E+00 -0.8824105864945E-02
 0.1794047905255E-03 -0.2869712606831E-02  0.0000000000000E+00 -0.8977312425468E-02
 0.2221166867552E-03 -0.2788682679958E-02  0.0000000000000E+00 -0.9141260859550E-02
 0.2967276500293E-03 -0.2719649911097E-02  0.0000000000000E+00 -0.9313960940610E-02
 0.4093218835558E-03 -0.2667021383547E-02  0.0000000000000E+00 -0.9491856524559E-02
 0.5660973458645E-03 -0.2635542903440E-02  0.0000000000000E+00 -0.9669302898528E-02
 0.7730796324721E-03 -0.2630113252450E-02  0.0000000000000E+00 -0.9837991609774E-02
 0.1035726644692E-02 -0.2655510911919E-02  0.0000000000000E+00 -0.9986369160238E-02
 0.1358426074660E-02 -0.2716026460991E-02  0.0000000000000E+00 -0.1009915419489E-01
 0.1743903409747E-02 -0.2815008533079E-02  0.0000000000000E+00 -0.1015704685750E-01
 0.2192576144032E-02 -0.2954349468751E-02  0.0000000000000E+00 -0.1013674214329E-01
 0.2701933528786E-02 -0.3133966826433E-02  0.0000000000000E+00 -0.1001134822542E-01
 0.3266149393176E-02 -0.3351401561025E-02  0.0000000000000E+00 -0.9751200647366E-02
 0.3876311180383E-02 -0.3601752470444E-02  0.0000000000000E+00 -0.9324643627175E-02
 0.4520627189412E-02 -0.3877767620446E-02  0.0000000000000E+00 -0.8698692346514E-02
 0.5183901764064E-02 -0.4169685191617E-02  0.0000000000000E+00 -0.7840538182046E-02
 0.5847816169554E-02 -0.4465477137911E-02  0.0000000000000E+00 -0.6719302809215E-02
 0.6492208065039E-02 -0.4751714123334E-02  0.0000000000000E+00 -0.5306918378551E-02
 0.3587153271143E-04 -0.3179307848267E-02  0.0000000000000E+00 -0.3527942714905E-02
 0.1059205920674E-03 -0.3223376372123E-02  0.0000000000000E+00 -0.4229613318793E-02
 0.1719595322513E-03 -0.3265031191711E-02  0.0000000000000E+00 -0.4868645263163E-02
 0.2328392394555E-03 -0.3303326413224E-02  0.0000000000000E+00 -0.5436109853393E-02
 0.2875750769065E-03 -0.3337406653303E-02  0.0000000000000E+00 -0.5928114591134E-02
 0.3353105827749E-03 -0.3366477116936E-02  0.0000000000000E+00 -0.6345369836047E-02
 0.3753092467869E-03 -0.3389796508939E-02  0.0000000000000E+00 -0.6692348759957E-02
 0.4069677464758E-03 -0.3406686849280E-02  0.0000000000000E+00 -0.6976229528802E-02
 0.4298408836963E-03 -0.3416551629007E-02  0.0000000000000E+00 -0.7205813686008E-02
 0.4436685462978E-03 -0.3418894137849E-02  0.0000000000000E+00 -0.7390567042667E-02
 0.4483981799145E-03 -0.3413330843863E-02  0.0000000000000E+00 -0.7539864269193E-02
 0.4442005472597E-03 -0.3399598449538E-02  0.0000000000000E+00 -0.7662461887282E-02
 0.4314797793862E-03 -0.3377556192902E-02  0.0000000000000E+00 -0.7766179322611E-02
 0.4108807927942E-03 -0.3347186770744E-02  0.0000000000000E+00 -0.7857746974701E-02
 0.3832975044646E-03 -0.3308599150866E-02  0.0000000000000E+00 -0.7942777989116E-02
 0.3498849893386E-03 -0.3262035908998E-02  0.0000000000000E+00 -0.8025822178991E-02
 0.3120690949982E-03 -0.3207850304936E-02  0.0000000000000E+00 -0.8110502143457E-02
 0.2715684276497E-03 -0.3146503680026E-02  0.0000000000000E+00 -0.8199622414621E-02
 0.2304478862043E-03 -0.3078683907227E-02  0.0000000000000E+00 -0.8295252467807E-02
 0.1911637316058E-03 -0.3005405066303E-02  0.0000000000000E+00 -0.8398909361774E-02
 0.1565908550536E-03 -0.2928020882049E-02  0.0000000000000E+00 -0.8511681373473E-02
 0.1300499217508E-03 -0.2848240163129E-02  0.0000000000000E+00 -0.8634303412182E-02
 0.1153338579222E-03 -0.2768160663619E-02  0.0000000000000E+00 -0.8767173993117E-02
 0.1167240476226E-03 -0.2690308670498E-02  0.0000000000000E+00 -0.8910298265151E-02
 0.1389852576760E-03 -0.2617668602817E-02  0.0000000000000E+00 -0.9063147596848E-02
 0.1873282068742E-03 -0.2553694275102E-02  0.0000000000000E+00 -0.9224420349300E-02
 0.2673247590278E-03 -0.2502287746831E-02  0.0000000000000E+00 -0.9391703874900E-02
 0.3847638905231E-03 -0.2467736457661E-02  0.0000000000000E+00 -0.9561045867924E-02
 0.5454404089213E-03 -0.2454590039629E-02  0.0000000000000E+00 -0.9726476460894E-02
 0.7548576345721E-03 -0.2467457120471E-02  0.0000000000000E+00 -0.9879493505892E-02
 0.1017831169311E-02 -0.2510722841906E-02  0.0000000000000E+00 -0.1000855197138E-01
 0.1338000581545E-02 -0.2588188888411E-02  0.0000000000000E+00 -0.1009865383940E-01
 0.1717268899607E-02 -0.2702641645533E-02  0.0000000000000E+00 -0.1013112325986E-01
 0.2155206901755E-02 -0.2855376469308E-02  0.0000000000000E+00 -0.1008366440802E-01
 0.2648499602381E-02 -0.3045734147926E-02  0.0000000000000E+00 -0.9930786874712E-02
 0.3190636295581E-02 -0.3270769162507E-02  0.0000000000000E+00 -0.9644577262351E-02
 0.3772217995401E-02 -0.3525261675439E-02  0.0000000000000E+00 -0.9195396412538E-02
 0.4381226770371E-02 -0.3801834503660E-02  0.0000000000000E+00 -0.8552403911656E-02
 0.5002540353927E-02 -0.4090786120225E-02  0.0000000000000E+00 -0.7684831786996E-02
 0.5618220463192E-02 -0.4380351353119E-02  0.0000000000000E+00 -0.6563461391670E-02
 0.6208750674647E-02 -0.4657547021567E-02  0.0000000000000E+00 -0.5161250695424E-02
 0.3184042836801E-04 -0.2754177284093E-02  0.0000000000000E+00 -0.3502280584482E-02
 0.9277342435308E-04 -0.2793263214252E-02  0.0000000000000E+00 -0.4205032726549E-02
 0.1480223690440E-03 -0.2829690283607E-02  0.0000000000000E+00 -0.4845626830883E-02
 0.1973108756692E-03 -0.2863145958478E-02  0.0000000000000E+00 -0.5415077620013E-02
 0.2404885159573E-03 -0.2893356754078E-02  0.0000000000000E+00 -0.5909490501498E-02
 0.2774097347616E-03 -0.2919994149682E-02  0.0000000000000E+00 -0.6329603307632E-02
 0.3078721831050E-03 -0.2942630812525E-02  0.0000000000000E+00 -0.6679920957191E-02
 0.3316126252062E-03 -0.2960744154958E-02  0.0000000000000E+00 -0.6967638880929E-02
 0.3483451946818E-03 -0.2973753014366E-02  0.0000000000000E+00 -0.7201552315897E-02
 0.3578213375315E-03 -0.2981069229356E-02  0.0000000000000E+00 -0.7391096882162E-02
 0.3598932599014E-03 -0.2982148720332E-02  0.0000000000000E+00 -0.7545598262360E-02
 0.3545694880285E-03 -0.2976533101551E-02  0.0000000000000E+00 -0.7673751899892E-02
 0.3420582043918E-03 -0.2963879232616E-02  0.0000000000000E+00 -0.7783309414406E-02
 0.3227995257497E-03 -0.2943978962548E-02  0.0000000000000E+00 -0.7880929086050E-02
 0.2974905918847E-03 -0.2916773449585E-02  0.0000000000000E+00 -0.7972146884661E-02
 0.2671080869728E-03 -0.2882365790950E-02  0.0000000000000E+00 -0.8061426901285E-02
 0.2329187679175E-03 -0.2840976204953E-02  0.0000000000000E+00 -0.8152293336473E-02
 0.1965004623396E-03 -0.2792920452487E-02  0.0000000000000E+00 -0.8247436509430E-02
 0.1598069761811E-03 -0.2738778771451E-02  0.0000000000000E+00 -0.8348789082242E-02
 0.1252195417879E-03 -0.2679534527760E-02  0.0000000000000E+00 -0.8457698396431E-02
 0.9556420250567E-04 -0.2616563793183E-02  0.0000000000000E+00 -0.8575043023818E-02
 0.7412592946388E-04 -0.2551623658185E-02  0.0000000000000E+00 -0.8701304537077E-02
 0.6466130430027E-04 -0.2486866830563E-02  0.0000000000000E+00 -0.8836583724807E-02
 0.7139954597635E-04 -0.2424866224311E-02  0.0000000000000E+00 -0.8980546587340E-02
 0.9902069675383E-04 -0.2368630690711E-02  0.0000000000000E+00 -0.9132292111361E-02
 0.1526000316198E-03 -0.2321601408737E-02  0.0000000000000E+00 -0.9290128053861E-02
 0.2375047837924E-03 -0.2287615319425E-02  0.0000000000000E+00 -0.9451256646774E-02
 0.3592337176981E-03 -0.2270832673576E-02  0.0000000000000E+00 -0.9611379293622E-02
 0.5231926974683E-03 -0.2275605502693E-02  0.0000000000000E+00 -0.9764263163682E-02
 0.7343886283425E-03 -0.2306259518318E-02  0.0000000000000E+00 -0.9901283123181E-02
 0.9970341288092E-03 -0.2366804687677E-02  0.0000000000000E+00 -0.1001097518439E-01
 0.1314073892919E-02 -0.2460584115118E-02  0.0000000000000E+00 -0.1007869044558E-01
 0.1686654023531E-02 -0.2589863960819E-02  0.0000000000000E+00 -0.1008642504371E-01
 0.2113571913388E-02 -0.2755393505761E-02  0.0000000000000E+00 -0.1001291064495E-01
 0.2590781896102E-02 -0.2955990976068E-02  0.0000000000000E+00 -0.9834036964832E-02
 0.3111152603426E-02 -0.3188273910443E-02  0.0000000000000E+00 -0.9523577201689E-02
 0.3664842285477E-02 -0.3446739881345E-02  0.0000000000000E+00 -0.9053808103135E-02
 0.4239616769569E-02 -0.3723899715030E-02  0.0000000000000E+00 -0.8395901856033E-02
 0.4820388987911E-02 -0.4010093056694E-02  0.0000000000000E+00 -0.7520974668509E-02
 0.5389508619482E-02 -0.4293760716061E-02  0.0000000000000E+00 -0.6401316395907E-02
 0.5927961299319E-02 -0.4562272745447E-02  0.0000000000000E+00 -0.5010801809853E-02
 0.2784341316626E-04 -0.2328665317713E-02  0.0000000000000E+00 -0.3479269247723E-02
 0.7971788830162E-04 -0.2362814903173E-02  0.0000000000000E+00 -0.4183139785395E-02
 0.1242218948136E-03 -0.2394064732079E-02  0.0000000000000E+00 -0.4824908672440E-02
 0.1619675356240E-03 -0.2422746854878E-02  0.0000000000000E+00 -0.5395550906594E-02
 0.1936494248915E-03 -0.2449176682303E-02  0.0000000000000E+00 -0.5891238090753E-02
 0.2198373064921E-03 -0.2473493778883E-02  0.0000000000000E+00 -0.6312838041966E-02
 0.2408615216869E-03 -0.2495582174541E-02  0.0000000000000E+00 -0.6665001666130E-02
 0.2567936251831E-03 -0.2515069570368E-02  0.0000000000000E+00 -0.6955047207713E-02
 0.2675003969136E-03 -0.2531384643889E-02  0.0000000000000E+00 -0.7191846830324E-02
 0.2727387104829E-03 -0.2543843421982E-02  0.0000000000000E+00 -0.7384861283773E-02
 0.2722609920136E-03 -0.2551738744188E-02  0.0000000000000E+00 -0.7543395693609E-02
 0.2659107355414E-03 -0.2554416326877E-02  0.0000000000000E+00 -0.7676090982072E-02
 0.2536986756171E-03 -0.2551330958700E-02  0.0000000000000E+00 -0.7790622102224E-02
 0.2358592052372E-03 -0.2542084264489E-02  0.0000000000000E+00 -0.7893556990404E-02
 0.2128916114951E-03 -0.2526449771743E-02  0.0000000000000E+00 -0.7990331530057E-02
 0.1855923890900E-03 -0.2504390240005E-02  0.0000000000000E+00 -0.8085299571441E-02
 0.1550664833498E-03 -0.2475990803807E-02  0.0000000000000E+00 -0.8181860911561E-02
 0.1227473059019E-03 -0.2441418568203E-02  0.0000000000000E+00 -0.8282563225243E-02
 0.9047267831652E-04 -0.2401141599785E-02  0.0000000000000E+00 -0.8389175223331E-02
 0.6054239829029E-04 -0.2356105981091E-02  0.0000000000000E+00 -0.8502852924011E-02
 0.3572597298751E-04 -0.2307701521053E-02  0.0000000000000E+00 -0.8624249615318E-02
 0.1926412858166E-04 -0.2257723166332E-02  0.0000000000000E+00 -0.8753584139947E-02
 0.1486824028551E-04 -0.2208366674811E-02  0.0000000000000E+00 -0.8890657109552E-02
 0.2670694514506E-04 -0.2162238717102E-02  0.0000000000000E+00 -0.9034801003582E-02
 0.5936863107736E-04 -0.2122359519913E-02  0.0000000000000E+00 -0.9184757285992E-02
 0.1177890750934E-03 -0.2092145501775E-02  0.0000000000000E+00 -0.9338468120750E-02
 0.2071314324983E-03 -0.2075358778687E-02  0.0000000000000E+00 -0.9492786200782E-02
 0.3326114624332E-03 -0.2076026852194E-02  0.0000000000000E+00 -0.9643113239709E-02
 0.4992621996922E-03 -0.2098304724046E-02  0.0000000000000E+00 -0.9783010547186E-02
 0.7116212068485E-03 -0.2146244112056E-02  0.0000000000000E+00 -0.9903793755707E-02
 0.9733374496232E-03 -0.2223498902361E-02  0.0000000000000E+00 -0.9994144004103E-02
 0.1286712306278E-02 -0.2332983625646E-02  0.0000000000000E+00 -0.1003981808226E-01
 0.1652196712674E-02 -0.2476484279653E-02  0.0000000000000E+00 -0.1002352359067E-01
 0.2067882077555E-02 -0.2654251180025E-02  0.0000000000000E+00 -0.9925032113185E-02
 0.2529057936459E-02 -0.2864628767264E-02  0.0000000000000E+00 -0.9721591062300E-02
 0.3028027652996E-02 -0.3103840825856E-02  0.0000000000000E+00 -0.9388601143930E-02
 0.3554542399071E-02 -0.3366132338842E-02  0.0000000000000E+00 -0.8900166933997E-02
 0.4096156159533E-02 -0.3643911113854E-02  0.0000000000000E+00 -0.8229361195323E-02
 0.4637778009063E-02 -0.3927537829680E-02  0.0000000000000E+00 -0.7349053294800E-02
 0.5161958273995E-02 -0.4205605726402E-02  0.0000000000000E+00 -0.6232917900007E-02
 0.5650051294485E-02 -0.4465752523167E-02  0.0000000000000E+00 -0.4855662452318E-02
 0.2384773965996E-04 -0.1902506229562E-02  0.0000000000000E+00 -0.3458889518365E-02
 0.6665296912254E-04 -0.1931726997139E-02  0.0000000000000E+00 -0.4163911106570E-02
 0.1003884004281E-03 -0.1957815847980E-02  0.0000000000000E+00 -0.4806452520767E-02
 0.1265800417601E-03 -0.1981767186937E-02  0.0000000000000E+00 -0.5377468743227E-02
 0.1467857238696E-03 -0.2004496642869E-02  0.0000000000000E+00 -0.5873270484981E-02
 0.1622983442130E-03 -0.2026614710996E-02  0.0000000000000E+00 -0.6294962743538E-02
 0.1739789250657E-03 -0.2048312064294E-02  0.0000000000000E+00 -0.6647459918167E-02
 0.1822249859779E-03 -0.2069357346144E-02  0.0000000000000E+00 -0.6938309823368E-02
 0.1870442371699E-03 -0.2089178548616E-02  0.0000000000000E+00 -0.7176544161253E-02
 0.1881876922150E-03 -0.2106986884890E-02  0.0000000000000E+00 -0.7371702428458E-02
 0.1852990981236E-03 -0.2121906019785E-02  0.0000000000000E+00 -0.7533095668711E-02
 0.1780509729225E-03 -0.2133082713412E-02  0.0000000000000E+00 -0.7669315259697E-02
 0.1662531721736E-03 -0.2139768936622E-02  0.0000000000000E+00 -0.7787949746334E-02
 0.1499324940002E-03 -0.2141376551632E-02  0.0000000000000E+00 -0.7895458376455E-02
 0.1293890221757E-03 -0.2137512019895E-02  0.0000000000000E+00 -0.7997154570011E-02
 0.1052373766663E-03 -0.2127997544251E-02  0.0000000000000E+00 -0.8097258423820E-02
 0.7841826021560E-04 -0.2112781808123E-02  0.0000000000000E+00 -0.8199020583835E-02
 0.5021738937638E-04 -0.2091880772203E-02  0.0000000000000E+00 -0.8304818975330E-02
 0.2235215944985E-04 -0.2065646314244E-02  0.0000000000000E+00 -0.8416232598599E-02
-0.2964870307265E-05 -0.2034981189072E-02  0.0000000000000E+00 -0.8534206001727E-02
-0.2302762511053E-04 -0.2001280913284E-02  0.0000000000000E+00 -0.8659153095286E-02
-0.3464716192814E-04 -0.1966368544299E-02  0.0000000000000E+00 -0.8791022018647E-02
-0.3416492330000E-04 -0.1932471807270E-02  0.0000000000000E+00 -0.8929311979946E-02
-0.1747978331179E-04 -0.1902219254975E-02  0.0000000000000E+00 -0.9073028404906E-02
 0.1989976591932E-04 -0.1878630629024E-02  0.0000000000000E+00 -0.9220570304723E-02
 0.8276782214345E-04 -0.1865086866657E-02  0.0000000000000E+00 -0.9369538557658E-02
 0.1760859654063E-03 -0.1865267134862E-02  0.0000000000000E+00 -0.9516469987378E-02
 0.3047960309979E-03 -0.1883062311964E-02  0.0000000000000E+00 -0.9656509834330E-02
 0.4735758922291E-03 -0.1922432572633E-02  0.0000000000000E+00 -0.9783065613131E-02
 0.6865217146380E-03 -0.1987165849628E-02  0.0000000000000E+00 -0.9887450824552E-02
 0.9467579085525E-03 -0.2080579600565E-02  0.0000000000000E+00 -0.9958547963073E-02
 0.1255992348347E-02 -0.2205189228375E-02  0.0000000000000E+00 -0.9982567872119E-02
 0.1614039029340E-02 -0.2362338637064E-02  0.0000000000000E+00 -0.9942961843957E-02
 0.2018345472674E-02 -0.2551822757577E-02  0.0000000000000E+00 -0.9820549236709E-02
 0.2463595640437E-02 -0.2771556197159E-02  0.0000000000000E+00 -0.9593912648668E-02
 0.2941575851441E-02 -0.3017406706690E-02  0.0000000000000E+00 -0.9240026996695E-02
 0.3441659294215E-02 -0.3283391595955E-02  0.0000000000000E+00 -0.8734748691596E-02
 0.3951188086998E-02 -0.3561821157697E-02  0.0000000000000E+00 -0.8052957047954E-02
 0.4455028170709E-02 -0.3843056433016E-02  0.0000000000000E+00 -0.7169166069083E-02
 0.4935848358237E-02 -0.4115792942008E-02  0.0000000000000E+00 -0.6058335662110E-02
 0.5375248053479E-02 -0.4367857427738E-02  0.0000000000000E+00 -0.4695944409301E-02
 0.1981956297817E-04 -0.1475429134284E-02  0.0000000000000E+00 -0.3441145175669E-02
 0.5347436837799E-04 -0.1499688703725E-02  0.0000000000000E+00 -0.4147343942862E-02
 0.7634705091319E-04 -0.1520597844111E-02  0.0000000000000E+00 -0.4790233686047E-02
 0.9091311931054E-04 -0.1539837956956E-02  0.0000000000000E+00 -0.5360773067757E-02
 0.9961932766151E-04 -0.1558940576448E-02  0.0000000000000E+00 -0.5855491713670E-02
 0.1044928559223E-03 -0.1578990750810E-02  0.0000000000000E+00 -0.6275846164704E-02
 0.1069224324182E-03 -0.1600478541302E-02  0.0000000000000E+00 -0.6627136952940E-02
 0.1076187280551E-03 -0.1623299553770E-02  0.0000000000000E+00 -0.6917250271972E-02
 0.1067133079385E-03 -0.1646865310989E-02  0.0000000000000E+00 -0.7155459223458E-02
 0.1039347433863E-03 -0.1670268516804E-02  0.0000000000000E+00 -0.7351433182248E-02
 0.9880487586988E-04 -0.1692454103324E-02  0.0000000000000E+00 -0.7514512583755E-02
 0.9081629156224E-04 -0.1712364744843E-02  0.0000000000000E+00 -0.7653241656135E-02
 0.7957277864235E-04 -0.1729047988985E-02  0.0000000000000E+00 -0.7775111136426E-02
 0.6489088650896E-04 -0.1741726407858E-02  0.0000000000000E+00 -0.7886452623711E-02
 0.4686999850739E-04 -0.1749840479574E-02  0.0000000000000E+00 -0.7992434991615E-02
 0.2594137384171E-04 -0.1753072361439E-02  0.0000000000000E+00 -0.8097122023230E-02
 0.2879379021603E-05 -0.1751233648527E-02  0.0000000000000E+00 -0.8203591773726E-02
-0.2118086479280E-04 -0.1744187287243E-02  0.0000000000000E+00 -0.8314026726976E-02
-0.4464637466017E-04 -0.1732165489900E-02  0.0000000000000E+00 -0.8429791867367E-02
-0.6539703132519E-04 -0.1716022185754E-02  0.0000000000000E+00 -0.8551601619358E-02
-0.8079630354507E-04 -0.1697151168588E-02  0.0000000000000E+00 -0.8679617893268E-02
-0.8771357884607E-04 -0.1677394548957E-02  0.0000000000000E+00 -0.8813511515780E-02
-0.8254952721576E-04 -0.1659001741399E-02  0.0000000000000E+00 -0.8952480197599E-02
-0.6127606447692E-04 -0.1644612249038E-02  0.0000000000000E+00 -0.9095209495553E-02
-0.1950222453462E-04 -0.1637234560443E-02  0.0000000000000E+00 -0.9239771101950E-02
 0.4742390521817E-04 -0.1640204650814E-02  0.0000000000000E+00 -0.9383448056104E-02
 0.1442665289744E-03 -0.1657111968000E-02  0.0000000000000E+00 -0.9522492936563E-02
 0.2757042163375E-03 -0.1691708287796E-02  0.0000000000000E+00 -0.9651834285589E-02
 0.4460785837361E-03 -0.1747762450785E-02  0.0000000000000E+00 -0.9764772939113E-02
 0.6590729315217E-03 -0.1828809743799E-02  0.0000000000000E+00 -0.9852671034693E-02
 0.9173257934090E-03 -0.1937851096938E-02  0.0000000000000E+00 -0.9904661394745E-02
 0.1221999607710E-02 -0.2077031481886E-02  0.0000000000000E+00 -0.9907449940387E-02
 0.1572326400953E-02 -0.2247288800484E-02  0.0000000000000E+00 -0.9845257701945E-02
 0.1965167209368E-02 -0.2448002941248E-02  0.0000000000000E+00 -0.9699956167662E-02
 0.2394653928561E-02 -0.2676698386576E-02  0.0000000000000E+00 -0.9451441334311E-02
 0.2852098050965E-02 -0.2928919901195E-02  0.0000000000000E+00 -0.9078215084387E-02
 0.3326518474159E-02 -0.3198477782188E-02  0.0000000000000E+00 -0.8557821210959E-02
 0.3805041941079E-02 -0.3477587491505E-02  0.0000000000000E+00 -0.7866867979029E-02
 0.4272452234366E-02 -0.3756589562768E-02  0.0000000000000E+00 -0.6981425345693E-02
 0.4711459673919E-02 -0.4024235109274E-02  0.0000000000000E+00 -0.5877659857259E-02
 0.5103794427172E-02 -0.4268468033879E-02  0.0000000000000E+00 -0.4531780319913E-02
 0.1572356225701E-04 -0.1047156484935E-02  0.0000000000000E+00 -0.3426063816384E-02
 0.4007333924596E-04 -0.1066380992103E-02  0.0000000000000E+00 -0.4133456789230E-02
 0.5191603398958E-04 -0.1082055735941E-02  0.0000000000000E+00 -0.4776241067037E-02
 0.5472321546292E-04 -0.1096581113722E-02  0.0000000000000E+00 -0.5345408012321E-02
 0.5186409745970E-04 -0.1112124682848E-02  0.0000000000000E+00 -0.5837795418325E-02
 0.4611428709574E-04 -0.1130250076595E-02  0.0000000000000E+00 -0.6255335585619E-02
 0.3938566911377E-04 -0.1151736357349E-02  0.0000000000000E+00 -0.6603844856336E-02
 0.3268460755636E-04 -0.1176586916493E-02  0.0000000000000E+00 -0.6891659403054E-02
 0.2624361214534E-04 -0.1204175416212E-02  0.0000000000000E+00 -0.7128374535829E-02
 0.1974672782828E-04 -0.1233457574891E-02  0.0000000000000E+00 -0.7323837215125E-02
 0.1257636551746E-04 -0.1263186691343E-02  0.0000000000000E+00 -0.7487436595324E-02
 0.4033387330404E-05 -0.1292094388050E-02  0.0000000000000E+00 -0.7627668532390E-02
-0.6491201067882E-05 -0.1319021586326E-02  0.0000000000000E+00 -0.7751912131357E-02
-0.1939431693038E-04 -0.1343002281997E-02  0.0000000000000E+00 -0.7866351305839E-02
-0.3477875018981E-04 -0.1363312744987E-02  0.0000000000000E+00 -0.7975988395179E-02
-0.5239777731614E-04 -0.1379496444137E-02  0.0000000000000E+00 -0.8084709241988E-02
-0.7164506560592E-04 -0.1391228045405E-02  0.0000000000000E+00 -0.8195397254136E-02
-0.9153859023464E-04 -0.1398216261949E-02  0.0000000000000E+00 -0.8310015296937E-02
-0.1106133109163E-03 -0.1400570721245E-02  0.0000000000000E+00 -0.8429691568448E-02
-0.1268461562978E-03 -0.1399091587779E-02  0.0000000000000E+00 -0.8554893245952E-02
-0.1376754799552E-03 -0.1395164109721E-02  0.0000000000000E+00 -0.8685519079613E-02
-0.1400345855631E-03 -0.1390641077844E-02  0.0000000000000E+00 -0.8820957296004E-02
-0.1303886340449E-03 -0.1387784095165E-02  0.0000000000000E+00 -0.8960105080459E-02
-0.1047868103927E-03 -0.1389233559137E-02  0.0000000000000E+00 -0.9101335936561E-02
-0.5894093362724E-04 -0.1397976912544E-02  0.0000000000000E+00 -0.9242409332621E-02
 0.1165969414951E-04 -0.1417296752817E-02  0.0000000000000E+00 -0.9380312948530E-02
 0.1115875501404E-03 -0.1450687159243E-02  0.0000000000000E+00 -0.9511044613686E-02
 0.2452698925821E-03 -0.1501759435437E-02  0.0000000000000E+00 -0.9629352493114E-02
 0.4167319367968E-03 -0.1574095551087E-02  0.0000000000000E+00 -0.9728473031161E-02
 0.6292729933935E-03 -0.1670989897850E-02  0.0000000000000E+00 -0.9799861749404E-02
 0.8850838450944E-03 -0.1795146765436E-02  0.0000000000000E+00 -0.9832944057308E-02
 0.1184827865209E-02 -0.1948368502752E-02  0.0000000000000E+00 -0.9814955401670E-02
 0.1527207127157E-02 -0.2131221178236E-02  0.0000000000000E+00 -0.9730907306341E-02
 0.1908549483923E-02 -0.2342707041465E-02  0.0000000000000E+00 -0.9563725097195E-02
 0.2322483426578E-02 -0.2579996466573E-02  0.0000000000000E+00 -0.9294597703631E-02
 0.2759882885280E-02 -0.2838340336815E-02  0.0000000000000E+00 -0.8903512916786E-02
 0.3209431785186E-02 -0.3111359070518E-02  0.0000000000000E+00 -0.8369648505183E-02
 0.3658035238168E-02 -0.3391173667070E-02  0.0000000000000E+00 -0.7671279163073E-02
 0.4090356376568E-02 -0.3668083250647E-02  0.0000000000000E+00 -0.6785959560057E-02
 0.4489075274128E-02 -0.3930851329958E-02  0.0000000000000E+00 -0.5691002136952E-02
 0.4835948021089E-02 -0.4167474068592E-02  0.0000000000000E+00 -0.4363323633557E-02
 0.1152252620049E-04 -0.6174024753301E-03  0.0000000000000E+00 -0.3413697952391E-02
 0.2633541582875E-04 -0.6314745725959E-03  0.0000000000000E+00 -0.4122290134617E-02
 0.2690455877486E-04 -0.6418231098427E-03  0.0000000000000E+00 -0.4764477079943E-02
 0.1775618134846E-04 -0.6516074958540E-03  0.0000000000000E+00 -0.5331318819119E-02
 0.3223720929750E-05 -0.6636559410422E-03  0.0000000000000E+00 -0.5820062962843E-02
-0.1315198831439E-04 -0.6800145975738E-03  0.0000000000000E+00 -0.6233254607536E-02
-0.2894285548048E-04 -0.7017372000189E-03  0.0000000000000E+00 -0.6577364572254E-02
-0.4286980319809E-04 -0.7289098001585E-03  0.0000000000000E+00 -0.6861293985479E-02
-0.5462874680609E-04 -0.7608407449314E-03  0.0000000000000E+00 -0.7095039585412E-02
-0.6460802005764E-04 -0.7963254036168E-03  0.0000000000000E+00 -0.7288669052668E-02
-0.7358642524455E-04 -0.8339093606813E-03  0.0000000000000E+00 -0.7451634167740E-02
-0.8246922550673E-04 -0.8721046875859E-03  0.0000000000000E+00 -0.7592376493659E-02
-0.9208614580450E-04 -0.9095432100267E-03  0.0000000000000E+00 -0.7718146504858E-02
-0.1030510767088E-03 -0.9450715911808E-03  0.0000000000000E+00 -0.7834958901726E-02
-0.1156702177757E-03 -0.9778045753205E-03  0.0000000000000E+00 -0.7947627450289E-02
-0.1298821088639E-03 -0.1007149284582E-02  0.0000000000000E+00 -0.8059839387509E-02
-0.1452496848992E-03 -0.1032644486746E-02  0.0000000000000E+00 -0.8174262910504E-02
-0.1609461001286E-03 -0.1053844125043E-02  0.0000000000000E+00 -0.8292618725260E-02
-0.1756373388409E-03 -0.1070732889400E-02  0.0000000000000E+00 -0.8415777097771E-02
-0.1874014088880E-03 -0.1084052802407E-02  0.0000000000000E+00 -0.8543942405160E-02
-0.1937561421664E-03 -0.1095174351310E-02  0.0000000000000E+00 -0.8676740539164E-02
-0.1917034164295E-03 -0.1105953306777E-02  0.0000000000000E+00 -0.8813273133864E-02
-0.1777770608185E-03 -0.1118654698395E-02  0.0000000000000E+00 -0.8952138846528E-02
-0.1481065538573E-03 -0.1135910559459E-02  0.0000000000000E+00 -0.9091407523290E-02
-0.9850747411655E-04 -0.1160678340184E-02  0.0000000000000E+00 -0.9228541405114E-02
-0.2460809179428E-04 -0.1196179724883E-02  0.0000000000000E+00 -0.9360254265011E-02
 0.7797919976849E-04 -0.1245808658849E-02  0.0000000000000E+00 -0.9482316513219E-02
 0.2134433325834E-03 -0.1313035434711E-02  0.0000000000000E+00 -0.9589328827681E-02
 0.3855136690442E-03 -0.1401260283141E-02  0.0000000000000E+00 -0.9674500854508E-02
 0.5971345433022E-03 -0.1513548775142E-02  0.0000000000000E+00 -0.9729420522183E-02
 0.8500864656884E-03 -0.1652328210298E-02  0.0000000000000E+00 -0.9743841857152E-02
 0.1144578499294E-02 -0.1819085135145E-02  0.0000000000000E+00 -0.9705558353978E-02
 0.1478832133651E-02 -0.2014046109961E-02  0.0000000000000E+00 -0.9600388224885E-02
 0.1848691808042E-02 -0.2235870509126E-02  0.0000000000000E+00 -0.9412310351501E-02
 0.2247327237739E-02 -0.2481407446829E-02  0.0000000000000E+00 -0.9123787862361E-02
 0.2665208062035E-02 -0.2745639770669E-02  0.0000000000000E+00 -0.8716259619991E-02
 0.3090699090656E-02 -0.3022012294585E-02  0.0000000000000E+00 -0.8170494586958E-02
 0.3510475367058E-02 -0.3302549997909E-02  0.0000000000000E+00 -0.7466385395795E-02
 0.3909041464518E-02 -0.3577489628431E-02  0.0000000000000E+00 -0.6582915521402E-02
 0.4268980660655E-02 -0.3835567287375E-02  0.0000000000000E+00 -0.5498497126195E-02
 0.4571980292932E-02 -0.4064774022334E-02  0.0000000000000E+00 -0.4190748789079E-02
 0.7176889606534E-05 -0.1858712996202E-03  0.0000000000000E+00 -0.3404126378257E-02
 0.1213899764061E-04 -0.1946276917023E-03  0.0000000000000E+00 -0.4113907370969E-02
 0.1110650371176E-05 -0.1995197083867E-03  0.0000000000000E+00 -0.4754957472179E-02
-0.2025523121409E-04 -0.2045146584114E-03  0.0000000000000E+00 -0.5318450315753E-02
-0.4661050263868E-04 -0.2131306253440E-03  0.0000000000000E+00 -0.5802160863176E-02
-0.7363015386339E-04 -0.2278994234296E-03  0.0000000000000E+00 -0.6209400194217E-02
-0.9838033019884E-04 -0.2501301264472E-03  0.0000000000000E+00 -0.6547443258848E-02
-0.1193388668613E-03 -0.2799594171144E-03  0.0000000000000E+00 -0.6825874867544E-02
-0.1361667084038E-03 -0.3165962531719E-03  0.0000000000000E+00 -0.7055169967845E-02
-0.1493584977665E-03 -0.3586472962772E-03  0.0000000000000E+00 -0.7245654104693E-02
-0.1598802178322E-03 -0.4044313786411E-03  0.0000000000000E+00 -0.7406848740087E-02
-0.1688599726901E-03 -0.4522313742405E-03  0.0000000000000E+00 -0.7547129396923E-02
-0.1773570335382E-03 -0.5004676858993E-03  0.0000000000000E+00 -0.7673597022162E-02
-0.1862057249641E-03 -0.5478017646999E-03  0.0000000000000E+00 -0.7792073730950E-02
-0.1959164031000E-03 -0.5931906720965E-03  0.0000000000000E+00 -0.7907162547860E-02
-0.2066129939359E-03 -0.6359086685675E-03  0.0000000000000E+00 -0.8022332487566E-02
-0.2180283963547E-03 -0.6753606074925E-03  0.0000000000000E+00 -0.8140017618975E-02
-0.2294925936950E-03 -0.7109458358115E-03  0.0000000000000E+00 -0.8261675731640E-02
-0.2398052446969E-03 -0.7425223216082E-03  0.0000000000000E+00 -0.8387899739064E-02
-0.2471489167713E-03 -0.7707701254097E-03  0.0000000000000E+00 -0.8518617280655E-02
-0.2491247937680E-03 -0.7970393579386E-03  0.0000000000000E+00 -0.8653173158629E-02
-0.2428070953028E-03 -0.8231817228163E-03  0.0000000000000E+00 -0.8790379706369E-02
-0.2248014723975E-03 -0.8514576072375E-03  0.0000000000000E+00 -0.8928540062454E-02
-0.1913196215773E-03 -0.8844821313856E-03  0.0000000000000E+00 -0.9065429378347E-02
-0.1382807392326E-03 -0.9251745123994E-03  0.0000000000000E+00 -0.9198227550214E-02
-0.6144874202563E-04 -0.9766886732120E-03  0.0000000000000E+00 -0.9323394854131E-02
 0.4338693257067E-04 -0.1042314303451E-02  0.0000000000000E+00 -0.9436499446365E-02
 0.1801906534667E-03 -0.1125380702924E-02  0.0000000000000E+00 -0.9532024027513E-02
 0.3524169340228E-03 -0.1229111877658E-02  0.0000000000000E+00 -0.9603184487430E-02
 0.5626841071269E-03 -0.1356356713644E-02  0.0000000000000E+00 -0.9641734733090E-02
 0.8123991801862E-03 -0.1509284741765E-02  0.0000000000000E+00 -0.9637787628940E-02
 0.1101360148696E-02 -0.1689092467158E-02  0.0000000000000E+00 -0.9579717856400E-02
 0.1427354953335E-02 -0.1895697517774E-02  0.0000000000000E+00 -0.9454162533896E-02
 0.1785791397708E-02 -0.2127448806556E-02  0.0000000000000E+00 -0.9246152313542E-02
 0.2169421772633E-02 -0.2380904360132E-02  0.0000000000000E+00 -0.8939407759747E-02
 0.2568341603030E-02 -0.2650802230170E-02  0.0000000000000E+00 -0.8516790110827E-02
 0.2970609826098E-02 -0.2930423692295E-02  0.0000000000000E+00 -0.7960627027531E-02
 0.3362661234469E-02 -0.3211694550479E-02  0.0000000000000E+00 -0.7252393946794E-02
 0.3728804274553E-02 -0.3484767873490E-02  0.0000000000000E+00 -0.6372460887389E-02
 0.4051463827132E-02 -0.3738315578157E-02  0.0000000000000E+00 -0.5300304498381E-02
 0.4312175323481E-02 -0.3960274691810E-02  0.0000000000000E+00 -0.4014251753523E-02
 0.2644205158233E-05  0.2477447785080E-03  0.0000000000000E+00 -0.3397455840963E-02
-0.2646256698586E-05  0.2445163174356E-03  0.0000000000000E+00 -0.4108395866487E-02
-0.2568132238579E-04  0.2452512242254E-03  0.0000000000000E+00 -0.4747710975243E-02
-0.5959411089018E-04  0.2451154494772E-03  0.0000000000000E+00 -0.5306744855170E-02
-0.9796199317903E-04  0.2398671769444E-03  0.0000000000000E+00 -0.5783937426195E-02
-0.1356553985348E-03  0.2264875145696E-03  0.0000000000000E+00 -0.6183538876795E-02
-0.1692500637429E-03  0.2034377541425E-03  0.0000000000000E+00 -0.6513790953550E-02
-0.1970184143490E-03  0.1705706970456E-03  0.0000000000000E+00 -0.6785084696193E-02
-0.2186311870937E-03  0.1288181121487E-03  0.0000000000000E+00 -0.7008446349230E-02
-0.2347296744000E-03  0.7979547892176E-04  0.0000000000000E+00 -0.7194488727755E-02
-0.2464970614855E-03  0.2543240046077E-04  0.0000000000000E+00 -0.7352801566333E-02
-0.2553029429434E-03 -0.3231449189966E-04  0.0000000000000E+00 -0.7491675601727E-02
-0.2624453723854E-03 -0.9165248483225E-04  0.0000000000000E+00 -0.7618036777235E-02
-0.2689821265169E-03 -0.1510612202306E-03  0.0000000000000E+00 -0.7737489132890E-02
-0.2756276835817E-03 -0.2093453672716E-03  0.0000000000000E+00 -0.7854402660083E-02
-0.2826906971845E-03 -0.2656511273811E-03  0.0000000000000E+00 -0.7972009740578E-02
-0.2900741127462E-03 -0.3192524595982E-03  0.0000000000000E+00 -0.8092493247521E-02
-0.2972659529095E-03 -0.3693950208056E-03  0.0000000000000E+00 -0.8217029257699E-02
-0.3032017958352E-03 -0.4158088341167E-03  0.0000000000000E+00 -0.8345915749670E-02
-0.3061717323486E-03 -0.4591087214106E-03  0.0000000000000E+00 -0.8478791351538E-02
-0.3038634844408E-03 -0.5006193871131E-03  0.0000000000000E+00 -0.8614713024097E-02
-0.2934265300065E-03 -0.5421820498368E-03  0.0000000000000E+00 -0.8752202381943E-02
-0.2715405351643E-03 -0.5860450261547E-03  0.0000000000000E+00 -0.8889271082543E-02
-0.2345003439337E-03 -0.6347985874842E-03  0.0000000000000E+00 -0.9023409138412E-02
-0.1783276680608E-03 -0.6913160344404E-03  0.0000000000000E+00 -0.9151528897049E-02
-0.9891787682437E-04 -0.7586771657026E-03  0.0000000000000E+00 -0.9269856531098E-02
 0.7771109508004E-05 -0.8400636931070E-03  0.0000000000000E+00 -0.9373780978336E-02
 0.1454933944538E-03 -0.9386642281037E-03  0.0000000000000E+00 -0.9457693161735E-02
 0.3174498824956E-03 -0.1057532174542E-02  0.0000000000000E+00 -0.9514843846843E-02
 0.5259616896477E-03 -0.1199311687022E-02  0.0000000000000E+00 -0.9537181281983E-02
 0.7720983425603E-03 -0.1365933151830E-02  0.0000000000000E+00 -0.9515201935672E-02
 0.1055288619529E-02 -0.1558327683134E-02  0.0000000000000E+00 -0.9437879872514E-02
 0.1372931921698E-02 -0.1776132903685E-02  0.0000000000000E+00 -0.9292679809100E-02
 0.1720043711364E-02 -0.2017417601178E-02  0.0000000000000E+00 -0.9065681212652E-02
 0.2088997629061E-02 -0.2278476665076E-02  0.0000000000000E+00 -0.8741847363227E-02
 0.2469543020934E-02 -0.2553824614387E-02  0.0000000000000E+00 -0.8305439105033E-02
 0.2849444425475E-02 -0.2836589734302E-02  0.0000000000000E+00 -0.7740320293405E-02
 0.3214884840238E-02 -0.3118594257284E-02  0.0000000000000E+00 -0.7029527196153E-02
 0.3549938754597E-02 -0.3389885402655E-02  0.0000000000000E+00 -0.6154786776854E-02
 0.3836815197299E-02 -0.3639036234472E-02  0.0000000000000E+00 -0.5096611812416E-02
 0.4056828142558E-02 -0.3853890631817E-02  0.0000000000000E+00 -0.3834051110401E-02
-0.2121468685143E-05  0.6837676036911E-03  0.0000000000000E+00 -0.3393823053448E-02
-0.1816128217836E-04  0.6863318002847E-03  0.0000000000000E+00 -0.4105868210635E-02
-0.5370345997351E-04  0.6929059019755E-03  0.0000000000000E+00 -0.4742778733517E-02
-0.1005624242679E-03  0.6977189887639E-03  0.0000000000000E+00 -0.5296139593503E-02
-0.1511713544637E-03  0.6957670327285E-03  0.0000000000000E+00 -0.5765218455118E-02
-0.1995753014814E-03  0.6835456378112E-03  0.0000000000000E+00 -0.6155402016862E-02
-0.2418816937352E-03  0.6593202778220E-03  0.0000000000000E+00 -0.6476076507182E-02
-0.2762050021930E-03  0.6229828660536E-03  0.0000000000000E+00 -0.6738565217222E-02
-0.3022797444476E-03  0.5756552112168E-03  0.0000000000000E+00 -0.6954513309275E-02
-0.3209409350941E-03  0.5192134579508E-03  0.0000000000000E+00 -0.7134840392942E-02
-0.3336228173470E-03  0.4558595396316E-03  0.0000000000000E+00 -0.7289192793029E-02
-0.3419565706796E-03  0.3877999566630E-03  0.0000000000000E+00 -0.7425749513491E-02
-0.3474881491810E-03  0.3170410158985E-03  0.0000000000000E+00 -0.7551230824238E-02
-0.3515008968572E-03  0.2452797374263E-03  0.0000000000000E+00 -0.7670994910601E-02
-0.3549122695400E-03  0.1738567891406E-03  0.0000000000000E+00 -0.7789156420829E-02
-0.3582140179171E-03  0.1037477236502E-03  0.0000000000000E+00 -0.7908694138296E-02
-0.3614785282612E-03  0.3580533821360E-04  0.0000000000000E+00 -0.8031524784488E-02
-0.3643526369200E-03 -0.2906398646673E-04  0.0000000000000E+00 -0.8158526097942E-02
-0.3659097217113E-03 -0.9046164906196E-04  0.0000000000000E+00 -0.8289685502517E-02
-0.3645498877338E-03 -0.1489344785701E-03  0.0000000000000E+00 -0.8424342056214E-02
-0.3580499293179E-03 -0.2057773107554E-03  0.0000000000000E+00 -0.8561259623243E-02
-0.3436366854590E-03 -0.2628150628056E-03  0.0000000000000E+00 -0.8698668994911E-02
-0.3180651318154E-03 -0.3222771366041E-03  0.0000000000000E+00 -0.8834295460925E-02
-0.2777132998887E-03 -0.3867215291077E-03  0.0000000000000E+00 -0.8965354110696E-02
-0.2187035117530E-03 -0.4589683396710E-03  0.0000000000000E+00 -0.9088504524518E-02
-0.1370577287394E-03 -0.5420171549301E-03  0.0000000000000E+00 -0.9199757214704E-02
-0.2889329228306E-04 -0.6389381371299E-03  0.0000000000000E+00 -0.9294342871009E-02
 0.1093482307075E-03 -0.7527795305713E-03  0.0000000000000E+00 -0.9366583612904E-02
 0.2806354052584E-03 -0.8864296011968E-03  0.0000000000000E+00 -0.9409789437449E-02
 0.4870205884382E-03 -0.1042339314756E-02  0.0000000000000E+00 -0.9416126295527E-02
 0.7292710798926E-03 -0.1222217787844E-02  0.0000000000000E+00 -0.9376493857090E-02
 0.1006487028386E-02 -0.1426754245558E-02  0.0000000000000E+00 -0.9280479165728E-02
 0.1315722579318E-02 -0.1655333685049E-02  0.0000000000000E+00 -0.9116380034706E-02
 0.1651643135249E-02 -0.1905773275655E-02  0.0000000000000E+00 -0.8871320823699E-02
 0.2006280521849E-02 -0.2174130900696E-02  0.0000000000000E+00 -0.8531494769197E-02
 0.2369064419160E-02 -0.2454717431344E-02  0.0000000000000E+00 -0.8082545071347E-02
 0.2727475585349E-02 -0.2740517975608E-02  0.0000000000000E+00 -0.7509858915475E-02
 0.3067432786464E-02 -0.3023246101393E-02  0.0000000000000E+00 -0.6798024938622E-02
 0.3372737462062E-02 -0.3292819393329E-02  0.0000000000000E+00 -0.5930110356614E-02
 0.3625327585575E-02 -0.3537677593226E-02  0.0000000000000E+00 -0.4887638330827E-02
 0.3806242365653E-02 -0.3745543484880E-02  0.0000000000000E+00 -0.3650390032755E-02
-0.7170287548795E-05  0.1122535622638E-02  0.0000000000000E+00 -0.3393397105092E-02
-0.3455977505118E-04  0.1131213947805E-02  0.0000000000000E+00 -0.4106463637829E-02
-0.8320757462664E-04  0.1143883338266E-02  0.0000000000000E+00 -0.4740213422278E-02
-0.1434844146070E-03  0.1153752949073E-02  0.0000000000000E+00 -0.5286562938668E-02
-0.2065989848630E-03  0.1155013589549E-02  0.0000000000000E+00 -0.5745801840005E-02
-0.2657511147280E-03  0.1143681619054E-02  0.0000000000000E+00 -0.6124680001024E-02
-0.3166111162903E-03  0.1117870815861E-02  0.0000000000000E+00 -0.6433922747112E-02
-0.3571948256150E-03  0.1077573037577E-02  0.0000000000000E+00 -0.6685914192683E-02
-0.3873649487890E-03  0.1024158169764E-02  0.0000000000000E+00 -0.6892978144867E-02
-0.4082042984734E-03  0.9598065376694E-03  0.0000000000000E+00 -0.7066348047366E-02
-0.4214355143669E-03  0.8870179164255E-03  0.0000000000000E+00 -0.7215702850688E-02
-0.4289722773034E-03  0.8082583489045E-03  0.0000000000000E+00 -0.7349073475116E-02
-0.4326168015131E-03  0.7257463202628E-03  0.0000000000000E+00 -0.7472938139748E-02
-0.4338786863884E-03  0.6413481068417E-03  0.0000000000000E+00 -0.7592379061542E-02
-0.4338757494899E-03  0.5565405540712E-03  0.0000000000000E+00 -0.7711233439234E-02
-0.4332800358229E-03  0.4724129718339E-03  0.0000000000000E+00 -0.7832211268064E-02
-0.4323320106782E-03  0.3899395822987E-03  0.0000000000000E+00 -0.7956950598667E-02
-0.4308376819881E-03  0.3101764030230E-03  0.0000000000000E+00 -0.8086016621606E-02
-0.4280097984858E-03  0.2336508246307E-03  0.0000000000000E+00 -0.8219072684572E-02
-0.4223605501714E-03  0.1598862714068E-03  0.0000000000000E+00 -0.8355149482042E-02
-0.4117577226591E-03  0.8762169219727E-04  0.0000000000000E+00 -0.8492714044906E-02
-0.3935068393928E-03  0.1505371434254E-04  0.0000000000000E+00 -0.8629707592266E-02
-0.3644386392443E-03 -0.6002183025838E-04  0.0000000000000E+00 -0.8763575316840E-02
-0.3210135968132E-03 -0.1401236387002E-03  0.0000000000000E+00 -0.8891268371990E-02
-0.2594520982264E-03 -0.2280115554965E-03  0.0000000000000E+00 -0.9009208454431E-02
-0.1758973793757E-03 -0.3265989228667E-03  0.0000000000000E+00 -0.9113208013299E-02
-0.6661687771425E-04 -0.4388406764145E-03  0.0000000000000E+00 -0.9198358486354E-02
 0.7176682686239E-04 -0.5676447604905E-03  0.0000000000000E+00 -0.9258933031469E-02
 0.2420110593515E-03 -0.7157393473385E-03  0.0000000000000E+00 -0.9288321078426E-02
 0.4459274249266E-03 -0.8853931249640E-03  0.0000000000000E+00 -0.9278924808162E-02
 0.6840154714147E-03 -0.1078110924388E-02  0.0000000000000E+00 -0.9222061738461E-02
 0.9550861770664E-03 -0.1294362404095E-02  0.0000000000000E+00 -0.9107941135633E-02
 0.1255890279316E-02 -0.1533305865197E-02  0.0000000000000E+00 -0.8925696440601E-02
 0.1580783821278E-02 -0.1792533756765E-02  0.0000000000000E+00 -0.8663492113417E-02
 0.1921492273642E-02 -0.2067891601936E-02  0.0000000000000E+00 -0.8308740336838E-02
 0.2267151504545E-02 -0.2353505659191E-02  0.0000000000000E+00 -0.7848454280421E-02
 0.2604969302147E-02 -0.2642227843559E-02  0.0000000000000E+00 -0.7269540598222E-02
 0.2920587668486E-02 -0.2925658249665E-02  0.0000000000000E+00 -0.6558146183433E-02
 0.3197493344217E-02 -0.3193558698844E-02  0.0000000000000E+00 -0.5698677017459E-02
 0.3417296429383E-02 -0.3434197788409E-02  0.0000000000000E+00 -0.4673640017782E-02
 0.3560726825790E-02 -0.3635161172207E-02  0.0000000000000E+00 -0.3463539805510E-02
-0.1255747891988E-04  0.1564406778827E-02  0.0000000000000E+00 -0.3396382336256E-02
-0.5201076117545E-04  0.1579582470356E-02  0.0000000000000E+00 -0.4110349634607E-02
-0.1144689696742E-03  0.1598649158300E-02  0.0000000000000E+00 -0.4740077936017E-02
-0.1887104344456E-03  0.1613698112794E-02  0.0000000000000E+00 -0.5277929950414E-02
-0.2646278380494E-03  0.1618067918658E-02  0.0000000000000E+00 -0.5725450805077E-02
-0.3345588863530E-03  0.1607308911072E-02  0.0000000000000E+00 -0.6091015218308E-02
-0.3937800505315E-03  0.1579440349781E-02  0.0000000000000E+00 -0.6386900834546E-02
-0.4402822070571E-03  0.1534628042040E-02  0.0000000000000E+00 -0.6626681993213E-02
-0.4741323658920E-03  0.1474557443626E-02  0.0000000000000E+00 -0.6823409738012E-02
-0.4967223775400E-03  0.1401761287145E-02  0.0000000000000E+00 -0.6988622777315E-02
-0.5101035681103E-03  0.1319063511374E-02  0.0000000000000E+00 -0.7131994246670E-02
-0.5164930746015E-03  0.1229197775885E-02  0.0000000000000E+00 -0.7261360067987E-02
-0.5179562226338E-03  0.1134590663343E-02  0.0000000000000E+00 -0.7382913953814E-02
-0.5162275423655E-03  0.1037267483417E-02  0.0000000000000E+00 -0.7501429817248E-02
-0.5126207378585E-03  0.9388296420260E-03  0.0000000000000E+00 -0.7620445858738E-02
-0.5079839698190E-03  0.8404703312069E-03  0.0000000000000E+00 -0.7742390301438E-02
-0.5027236088733E-03  0.7432786091253E-03  0.0000000000000E+00 -0.7868612834724E-02
-0.4968048151264E-03  0.6484569938233E-03  0.0000000000000E+00 -0.7999354587345E-02
-0.4895810446494E-03  0.5566613571159E-03  0.0000000000000E+00 -0.8133943551511E-02
-0.4796782848812E-03  0.4674871780188E-03  0.0000000000000E+00 -0.8271095076963E-02
-0.4650566521844E-03  0.3797105808035E-03  0.0000000000000E+00 -0.8408977167022E-02
-0.4431009257865E-03  0.2915544336791E-03  0.0000000000000E+00 -0.8545244137055E-02
-0.4107172727650E-03  0.2008456566818E-03  0.0000000000000E+00 -0.8677068630240E-02
-0.3644471861601E-03  0.1051115933352E-03  0.0000000000000E+00 -0.8801149780566E-02
-0.3006060940295E-03  0.1659653785187E-05  0.0000000000000E+00 -0.8913686550351E-02
-0.2154529485585E-03 -0.1123310526071E-03  0.0000000000000E+00 -0.9010310218471E-02
-0.1053959362679E-03 -0.2396961889468E-03  0.0000000000000E+00 -0.9085990105421E-02
 0.3277583397820E-04 -0.3832029385118E-03  0.0000000000000E+00 -0.9134967215466E-02
 0.2016291804546E-03 -0.5454237428533E-03  0.0000000000000E+00 -0.9150726563114E-02
 0.4027623939450E-03 -0.7284550751030E-03  0.0000000000000E+00 -0.9125920379469E-02
 0.6364409623417E-03 -0.9336134366899E-03  0.0000000000000E+00 -0.9052293874456E-02
 0.9012251584180E-03 -0.1161170033368E-02  0.0000000000000E+00 -0.8920683586724E-02
 0.1193603001741E-02 -0.1410081040940E-02  0.0000000000000E+00 -0.8721058277097E-02
 0.1507660689369E-02 -0.1677739671849E-02  0.0000000000000E+00 -0.8442616863109E-02
 0.1834851893472E-02 -0.1959802503208E-02  0.0000000000000E+00 -0.8073980924676E-02
 0.2164044518874E-02 -0.2250229749493E-02  0.0000000000000E+00 -0.7603525144411E-02
 0.2482185581241E-02 -0.2541751257676E-02  0.0000000000000E+00 -0.7019679499748E-02
 0.2774629186042E-02 -0.2825850880909E-02  0.0000000000000E+00 -0.6310170267415E-02
 0.3024502030563E-02 -0.3092106147298E-02  0.0000000000000E+00 -0.5460761374049E-02
 0.3213020807284E-02 -0.3328567328692E-02  0.0000000000000E+00 -0.4454915739804E-02
 0.3320590687018E-02 -0.3522676995712E-02  0.0000000000000E+00 -0.3273806118362E-02
-0.1834437654163E-04  0.2009761914819E-02  0.0000000000000E+00 -0.3403021761502E-02
-0.7070167375267E-04  0.2031885909650E-02  0.0000000000000E+00 -0.4117723730375E-02
-0.1477908874863E-03  0.2057699989075E-02  0.0000000000000E+00 -0.4742443483759E-02
-0.2366212925105E-03  0.2078062291528E-02  0.0000000000000E+00 -0.5270136404614E-02
-0.3256663240865E-03  0.2085408708085E-02  0.0000000000000E+00 -0.5703885528478E-02
-0.4063903415575E-03  0.2074846779609E-02  0.0000000000000E+00 -0.6053993650877E-02
-0.4737351291872E-03  0.2044374899835E-02  0.0000000000000E+00 -0.6334523794406E-02
-0.5257575665513E-03  0.1994422246663E-02  0.0000000000000E+00 -0.6560367954047E-02
-0.5628181215874E-03  0.1927067435679E-02  0.0000000000000E+00 -0.6745337623457E-02
-0.5866860583847E-03  0.1845247997566E-02  0.0000000000000E+00 -0.6901248903097E-02
-0.5997838598409E-03  0.1752138094244E-02  0.0000000000000E+00 -0.7037713858746E-02
-0.6046521393935E-03  0.1650744385834E-02  0.0000000000000E+00 -0.7162314887036E-02
-0.6036238125873E-03  0.1543693940744E-02  0.0000000000000E+00 -0.7280912487666E-02
-0.5986543622263E-03  0.1433157471408E-02  0.0000000000000E+00 -0.7397938012664E-02
-0.5912466377526E-03  0.1320846514985E-02  0.0000000000000E+00 -0.7516610172831E-02
-0.5824191611591E-03  0.1208046216420E-02  0.0000000000000E+00 -0.7639065175460E-02
-0.5727411853131E-03  0.1095952575311E-02  0.0000000000000E+00 -0.7766357947701E-02
-0.5623366900240E-03  0.9859107681866E-03  0.0000000000000E+00 -0.7898397052682E-02
-0.5507010357978E-03  0.8787044220247E-03  0.0000000000000E+00 -0.8034166238129E-02
-0.5365754333018E-03  0.7740024528816E-03  0.0000000000000E+00 -0.8172060378471E-02
-0.5180131216754E-03  0.6706210449109E-03  0.0000000000000E+00 -0.8309947822139E-02
-0.4924779725037E-03  0.5668134789754E-03  0.0000000000000E+00 -0.8445200150249E-02
-0.4569505011660E-03  0.4604432128000E-03  0.0000000000000E+00 -0.8574726441999E-02
-0.4080512169913E-03  0.3490902084931E-03  0.0000000000000E+00 -0.8694986868379E-02
-0.3421872629485E-03  0.2301362653681E-03  0.0000000000000E+00 -0.8801973283832E-02
-0.2557277335008E-03  0.1008595686449E-03  0.0000000000000E+00 -0.8891152163533E-02
-0.1452124452725E-03 -0.4145158435644E-04  0.0000000000000E+00 -0.8957386116964E-02
-0.7582966067621E-05 -0.1994223462485E-03  0.0000000000000E+00 -0.8994897868701E-02
 0.1595571854232E-03 -0.3754728457899E-03  0.0000000000000E+00 -0.8997280207707E-02
 0.3576197352971E-03 -0.5715363374776E-03  0.0000000000000E+00 -0.8957444611693E-02
 0.5866690155441E-03 -0.7887557817789E-03  0.0000000000000E+00 -0.8867569104580E-02
 0.8450521965286E-03 -0.1027223805040E-02  0.0000000000000E+00 -0.8719118422197E-02
 0.1129034380033E-02 -0.1285717752824E-02  0.0000000000000E+00 -0.8502893537002E-02
 0.1432470609420E-02 -0.1561455844209E-02  0.0000000000000E+00 -0.8209121286494E-02
 0.1746576788636E-02 -0.1849928073754E-02  0.0000000000000E+00 -0.7827624279649E-02
 0.2059979137589E-02 -0.2144946850099E-02  0.0000000000000E+00 -0.7348133077578E-02
 0.2359378697524E-02 -0.2439133000116E-02  0.0000000000000E+00 -0.6760610145984E-02
 0.2629834608946E-02 -0.2723856243745E-02  0.0000000000000E+00 -0.6054397252984E-02
 0.2854064722136E-02 -0.2988480961213E-02  0.0000000000000E+00 -0.5216665695595E-02
 0.3012806198359E-02 -0.3220773523542E-02  0.0000000000000E+00 -0.4231814163965E-02
 0.3086136341994E-02 -0.3408028737353E-02  0.0000000000000E+00 -0.3081540235854E-02
-0.2459968171384E-04  0.2459008817809E-02  0.0000000000000E+00 -0.3413601148115E-02
-0.9084207986827E-04  0.2488606753580E-02  0.0000000000000E+00 -0.4128815462989E-02
-0.1835097886766E-03  0.2521568553927E-02  0.0000000000000E+00 -0.4747386866348E-02
-0.2876332028798E-03  0.2547383853106E-02  0.0000000000000E+00 -0.5263051145700E-02
-0.3901513208547E-03  0.2557533204993E-02  0.0000000000000E+00 -0.5680772782720E-02
-0.4816534053636E-03  0.2546718674406E-02  0.0000000000000E+00 -0.6013134890761E-02
-0.5568263777612E-03  0.2513012146072E-02  0.0000000000000E+00 -0.6276239221587E-02
-0.6139047660068E-03  0.2457213494792E-02  0.0000000000000E+00 -0.6486416626902E-02
-0.6536459762649E-03  0.2381882615011E-02  0.0000000000000E+00 -0.6658251430314E-02
-0.6782718778043E-03  0.2290417465149E-02  0.0000000000000E+00 -0.6803785659958E-02
-0.6906196816766E-03  0.2186366825472E-02  0.0000000000000E+00 -0.6932495838519E-02
-0.6935713753990E-03  0.2073011761556E-02  0.0000000000000E+00 -0.7051639855555E-02
-0.6897285931310E-03  0.1953167739031E-02  0.0000000000000E+00 -0.7166690133265E-02
-0.6812604541859E-03  0.1829133231712E-02  0.0000000000000E+00 -0.7281699803156E-02
-0.6698495323456E-03  0.1702712325457E-02  0.0000000000000E+00 -0.7399549307117E-02
-0.6566771923188E-03  0.1575267978690E-02  0.0000000000000E+00 -0.7522075972409E-02
-0.6424716834737E-03  0.1448093904649E-02  0.0000000000000E+00 -0.7650037380535E-02
-0.6275152542914E-03  0.1322673440300E-02  0.0000000000000E+00 -0.7783004380573E-02
-0.6114463474535E-03  0.1199916892382E-02  0.0000000000000E+00 -0.7919610124077E-02
-0.5931226159042E-03  0.1079567619823E-02  0.0000000000000E+00 -0.8057925754548E-02
-0.5706906908872E-03  0.9604842576161E-03  0.0000000000000E+00 -0.8195520927933E-02
-0.5416926410380E-03  0.8409541615051E-03  0.0000000000000E+00 -0.8329490270218E-02
-0.5031815383324E-03  0.7188824303433E-03  0.0000000000000E+00 -0.8456489929949E-02
-0.4518544303367E-03  0.5919081890111E-03  0.0000000000000E+00 -0.8572755578138E-02
-0.3842067216362E-03  0.4574950965994E-03  0.0000000000000E+00 -0.8674088327458E-02
-0.2967122961167E-03  0.3130277119170E-03  0.0000000000000E+00 -0.8755805902415E-02
-0.1860339705563E-03  0.1559239073369E-03  0.0000000000000E+00 -0.8812678028734E-02
-0.4925236435482E-04 -0.1629707309047E-04  0.0000000000000E+00 -0.8838920190074E-02
 0.1158780701553E-03 -0.2059052482002E-03  0.0000000000000E+00 -0.8828241244702E-02
 0.3106084332476E-03 -0.4146783584498E-03  0.0000000000000E+00 -0.8773816531265E-02
 0.5348340072286E-03 -0.6435992968891E-03  0.0000000000000E+00 -0.8668257297800E-02
 0.7867257281229E-03 -0.8926007034373E-03  0.0000000000000E+00 -0.8503653256241E-02
 0.1062364948101E-02 -0.1160303188778E-02  0.0000000000000E+00 -0.8271631635774E-02
 0.1355413775719E-02 -0.1443773137997E-02  0.0000000000000E+00 -0.7963439658271E-02
 0.1656884167096E-02 -0.1738355427685E-02  0.0000000000000E+00 -0.7570093567533E-02
 0.1955187467232E-02 -0.2037732417177E-02  0.0000000000000E+00 -0.7082676065435E-02
 0.2236796938895E-02 -0.2334430898114E-02  0.0000000000000E+00 -0.6492692806831E-02
 0.2486477909769E-02 -0.2619717200276E-02  0.0000000000000E+00 -0.5791148158393E-02
 0.2686491366110E-02 -0.2882720377183E-02  0.0000000000000E+00 -0.4966713519230E-02
 0.2816970870681E-02 -0.3110827935878E-02  0.0000000000000E+00 -0.4004739255667E-02
 0.2857648646072E-02 -0.3291157900980E-02  0.0000000000000E+00 -0.2887159308261E-02
-0.3140101765628E-04  0.2912587083010E-02  0.0000000000000E+00 -0.3428453884510E-02
-0.1126682365221E-03  0.2950267563508E-02  0.0000000000000E+00 -0.4143888495177E-02
-0.2220016645810E-03  0.2990829623192E-02  0.0000000000000E+00 -0.4754986624166E-02
-0.3422034300331E-03  0.3022235541565E-02  0.0000000000000E+00 -0.5256506234138E-02
-0.4585512348004E-03  0.3034957758434E-02  0.0000000000000E+00 -0.5655713164111E-02
-0.5607722057816E-03  0.3023349719330E-02  0.0000000000000E+00 -0.5967880384708E-02
-0.6434049101508E-03  0.2985677046967E-02  0.0000000000000E+00 -0.6211421210046E-02
-0.7049977051612E-03  0.2923238211282E-02  0.0000000000000E+00 -0.6404214119172E-02
-0.7468238536927E-03  0.2839173096474E-02  0.0000000000000E+00 -0.6561600919537E-02
-0.7716390913057E-03  0.2737397516331E-02  0.0000000000000E+00 -0.6695769645182E-02
-0.7827385645873E-03  0.2621855803601E-02  0.0000000000000E+00 -0.6815965241311E-02
-0.7833599862054E-03  0.2496099364127E-02  0.0000000000000E+00 -0.6929037142790E-02
-0.7763704083913E-03  0.2363114492789E-02  0.0000000000000E+00 -0.7040009104428E-02
-0.7641412227869E-03  0.2225305183557E-02  0.0000000000000E+00 -0.7152519742792E-02
-0.7485222190083E-03  0.2084547026177E-02  0.0000000000000E+00 -0.7269094975227E-02
-0.7308481533512E-03  0.1942264315617E-02  0.0000000000000E+00 -0.7391270503631E-02
-0.7120015403206E-03  0.1799837914182E-02  0.0000000000000E+00 -0.7519508389330E-02
-0.6924222575554E-03  0.1658884235490E-02  0.0000000000000E+00 -0.7653040346462E-02
-0.6718931358202E-03  0.1520438922619E-02  0.0000000000000E+00 -0.7790145255044E-02
-0.6493893701787E-03  0.1384320449175E-02  0.0000000000000E+00 -0.7928569150578E-02
-0.6231507434716E-03  0.1249431801246E-02  0.0000000000000E+00 -0.8065585568182E-02
-0.5907958778325E-03  0.1114097566950E-02  0.0000000000000E+00 -0.8198019705899E-02
-0.5494479183620E-03  0.9762693007209E-03  0.0000000000000E+00 -0.8322287328510E-02
-0.4958775981792E-03  0.8336519387333E-03  0.0000000000000E+00 -0.8434415806775E-02
-0.4266651931002E-03  0.6837990236140E-03  0.0000000000000E+00 -0.8530032931837E-02
-0.3383844969630E-03  0.5242097314290E-03  0.0000000000000E+00 -0.8604323662940E-02
-0.2278134612032E-03  0.3524383482773E-03  0.0000000000000E+00 -0.8651977253397E-02
-0.9215927202355E-04  0.1661522743939E-03  0.0000000000000E+00 -0.8667210245532E-02
 0.7069110924163E-04 -0.3676910833568E-04  0.0000000000000E+00 -0.8643852015791E-02
 0.2618531523740E-03 -0.2579542022171E-03  0.0000000000000E+00 -0.8575341796920E-02
 0.4810843765394E-03 -0.4982378288377E-03  0.0000000000000E+00 -0.8454719704527E-02
 0.7264157348128E-03 -0.7574098972735E-03  0.0000000000000E+00 -0.8274692940212E-02
 0.9937836215699E-03 -0.1033955255764E-02  0.0000000000000E+00 -0.8027706056509E-02
 0.1276695282728E-02 -0.1324810668824E-02  0.0000000000000E+00 -0.7706017984818E-02
 0.1565992665303E-02 -0.1625196611905E-02  0.0000000000000E+00 -0.7301831976405E-02
 0.1849899395193E-02 -0.1928682457466E-02  0.0000000000000E+00 -0.6807580859870E-02
 0.2114682014712E-02 -0.2227716315522E-02  0.0000000000000E+00 -0.6216321576523E-02
 0.2344826461392E-02 -0.2513483289245E-02  0.0000000000000E+00 -0.5520767077160E-02
 0.2522102693626E-02 -0.2774878061983E-02  0.0000000000000E+00 -0.4711235473741E-02
 0.2625859292828E-02 -0.2998778327659E-02  0.0000000000000E+00 -0.3774148296939E-02
 0.2635378350619E-02 -0.3172009381717E-02  0.0000000000000E+00 -0.2691183893667E-02
-0.3883686501326E-04  0.3370974022427E-02  0.0000000000000E+00 -0.3447966809084E-02
-0.1364487126926E-03  0.3417438383101E-02  0.0000000000000E+00 -0.4163242832149E-02
-0.2636896350128E-03  0.3466107001597E-02  0.0000000000000E+00 -0.4765317621771E-02
-0.4008367248507E-03  0.3503228564999E-02  0.0000000000000E+00 -0.5250284241527E-02
-0.5313690037305E-03  0.3518217745761E-02  0.0000000000000E+00 -0.5628225386147E-02
-0.6441863367946E-03  0.3505163034580E-02  0.0000000000000E+00 -0.5917579712084E-02
-0.7338196275703E-03  0.3462676221884E-02  0.0000000000000E+00 -0.6139361618537E-02
-0.7992960341133E-03  0.3392705549219E-02  0.0000000000000E+00 -0.6313084791219E-02
-0.8425397741453E-03  0.3299079653908E-02  0.0000000000000E+00 -0.6454796895668E-02
-0.8669264382785E-03  0.3186289305190E-02  0.0000000000000E+00 -0.6576718237179E-02
-0.8762500199416E-03  0.3058689606250E-02  0.0000000000000E+00 -0.6687742502146E-02
-0.8741130921703E-03  0.2920091084943E-02  0.0000000000000E+00 -0.6794213739791E-02
-0.8636392373768E-03  0.2773626797487E-02  0.0000000000000E+00 -0.6900641580132E-02
-0.8473859982827E-03  0.2621778878310E-02  0.0000000000000E+00 -0.7010214231343E-02
-0.8273544002431E-03  0.2466469658691E-02  0.0000000000000E+00 -0.7125090313665E-02
-0.8050210671390E-03  0.2309165865618E-02  0.0000000000000E+00 -0.7246506103280E-02
-0.7814172540400E-03  0.2151323631321E-02  0.0000000000000E+00 -0.7374635022720E-02
-0.7571399105180E-03  0.1994686867174E-02  0.0000000000000E+00 -0.7508372351019E-02
-0.7321178675804E-03  0.1840415033283E-02  0.0000000000000E+00 -0.7645641820562E-02
-0.7054449361870E-03  0.1688402093759E-02  0.0000000000000E+00 -0.7783864835705E-02
-0.6754532955638E-03  0.1537596783028E-02  0.0000000000000E+00 -0.7920023007265E-02
-0.6398356882940E-03  0.1386363566062E-02  0.0000000000000E+00 -0.8050681556099E-02
-0.5957821622424E-03  0.1232705034609E-02  0.0000000000000E+00 -0.8172030655860E-02
-0.5401340115051E-03  0.1074398839501E-02  0.0000000000000E+00 -0.8279907713633E-02
-0.4695532592350E-03  0.9090972200606E-03  0.0000000000000E+00 -0.8369786041491E-02
-0.3807094745397E-03  0.7344234500549E-03  0.0000000000000E+00 -0.8436734027130E-02
-0.2704889352287E-03  0.5480766028110E-03  0.0000000000000E+00 -0.8475371619712E-02
-0.1362141056171E-03  0.3478776945241E-03  0.0000000000000E+00 -0.8479922072677E-02
 0.2411276544489E-04  0.1318565817759E-03  0.0000000000000E+00 -0.8444335916027E-02
 0.2114954200938E-03 -0.1014701928732E-03  0.0000000000000E+00 -0.8362311696397E-02
 0.4255840446008E-03 -0.3527997103897E-03  0.0000000000000E+00 -0.8227309147948E-02
 0.6643053373536E-03 -0.6217949912879E-03  0.0000000000000E+00 -0.8032641011997E-02
 0.9234894288386E-03 -0.9068250200308E-03  0.0000000000000E+00 -0.7771556948565E-02
 0.1196526926581E-02 -0.1204718433965E-02  0.0000000000000E+00 -0.7437317761286E-02
 0.1474124154279E-02 -0.1510591211562E-02  0.0000000000000E+00 -0.7023307414393E-02
 0.1744344578804E-02 -0.1817916485994E-02  0.0000000000000E+00 -0.6523309094170E-02
 0.1993269082065E-02 -0.2119076347215E-02  0.0000000000000E+00 -0.5931936098488E-02
 0.2205133872997E-02 -0.2405204042991E-02  0.0000000000000E+00 -0.5243631118060E-02
 0.2361227069806E-02 -0.2665013129894E-02  0.0000000000000E+00 -0.4450544346643E-02
 0.2439868206058E-02 -0.2884727312667E-02  0.0000000000000E+00 -0.3540528515901E-02
 0.2419516572081E-02 -0.3050529393343E-02  0.0000000000000E+00 -0.2494305753321E-02
-0.4700899719172E-04  0.3834691919184E-02  0.0000000000000E+00 -0.3472587216529E-02
-0.1624913901448E-03  0.3890745777568E-02  0.0000000000000E+00 -0.4187217048681E-02
-0.3090531464457E-03  0.3948081766324E-02  0.0000000000000E+00 -0.4778443462550E-02
-0.4640926396316E-03  0.3991016880341E-02  0.0000000000000E+00 -0.5244101841887E-02
-0.6091448659229E-03  0.4007866570301E-02  0.0000000000000E+00 -0.5597727006032E-02
-0.7323490823362E-03  0.3992574516991E-02  0.0000000000000E+00 -0.5861474727014E-02
-0.8284126604569E-03  0.3944290821419E-02  0.0000000000000E+00 -0.6059260888715E-02
-0.8970398386045E-03  0.3865790455078E-02  0.0000000000000E+00 -0.6212288686294E-02
-0.9409571570320E-03  0.3761708165196E-02  0.0000000000000E+00 -0.6337213336296E-02
-0.9642486326798E-03  0.3637163440756E-02  0.0000000000000E+00 -0.6446134215353E-02
-0.9712432425209E-03  0.3496928892052E-02  0.0000000000000E+00 -0.6547448873558E-02
-0.9659104338413E-03  0.3345053958328E-02  0.0000000000000E+00 -0.6646886734923E-02
-0.9516146480577E-03  0.3184786909966E-02  0.0000000000000E+00 -0.6748374347312E-02
-0.9310780288980E-03  0.3018655062120E-02  0.0000000000000E+00 -0.6854615329479E-02
-0.9064330445602E-03  0.2848598830523E-02  0.0000000000000E+00 -0.6967392798186E-02
-0.8792844842651E-03  0.2676105996022E-02  0.0000000000000E+00 -0.7087651639047E-02
-0.8508061171512E-03  0.2502694813846E-02  0.0000000000000E+00 -0.7215289264522E-02
-0.8217517058536E-03  0.2330230727370E-02  0.0000000000000E+00 -0.7348871746658E-02
-0.7921982114710E-03  0.2159995417753E-02  0.0000000000000E+00 -0.7485969691205E-02
-0.7613592042980E-03  0.1991958447218E-02  0.0000000000000E+00 -0.7623682141497E-02
-0.7276579599830E-03  0.1825115159327E-02  0.0000000000000E+00 -0.7758704618247E-02
-0.6888580463770E-03  0.1657872003416E-02  0.0000000000000E+00 -0.7887353962925E-02
-0.6422125451028E-03  0.1488287015285E-02  0.0000000000000E+00 -0.8005612208102E-02
-0.5846300221881E-03  0.1314217886654E-02  0.0000000000000E+00 -0.8109147748378E-02
-0.5128516137146E-03  0.1133425416155E-02  0.0000000000000E+00 -0.8193300102675E-02
-0.4236395688338E-03  0.9436680036832E-03  0.0000000000000E+00 -0.8253037790034E-02
-0.3139830531957E-03  0.7427997419994E-03  0.0000000000000E+00 -0.8282921558551E-02
-0.1813100051273E-03  0.5288027387409E-03  0.0000000000000E+00 -0.8277184465527E-02
-0.2372218272628E-04  0.2998604836710E-03  0.0000000000000E+00 -0.8229895039026E-02
 0.1596950719384E-03  0.5463212995614E-04  0.0000000000000E+00 -0.8135001884976E-02
 0.3685141141093E-03 -0.2074501079102E-03  0.0000000000000E+00 -0.7986370040268E-02
 0.6005926934746E-03 -0.4859366745071E-03  0.0000000000000E+00 -0.7777901027599E-02
 0.8516934483149E-03 -0.7790995718686E-03  0.0000000000000E+00 -0.7503633831812E-02
 0.1115129370699E-02 -0.1083680237335E-02  0.0000000000000E+00 -0.7157819459335E-02
 0.1381505545528E-02 -0.1394709733870E-02  0.0000000000000E+00 -0.6735018174605E-02
 0.1638754987123E-02 -0.1705579855304E-02  0.0000000000000E+00 -0.6230361564765E-02
 0.1872789671989E-02 -0.2008620898569E-02  0.0000000000000E+00 -0.5640035297094E-02
 0.2067629500041E-02 -0.2294922417506E-02  0.0000000000000E+00 -0.4960179936700E-02
 0.2204179469631E-02 -0.2553157757877E-02  0.0000000000000E+00 -0.4184907479411E-02
 0.2259499866887E-02 -0.2768853539269E-02  0.0000000000000E+00 -0.3304307764740E-02
 0.2210138959757E-02 -0.2926664717327E-02  0.0000000000000E+00 -0.2297530832339E-02
-0.5603557749007E-04  0.4304317028349E-02  0.0000000000000E+00 -0.3502831319330E-02
-0.1911522604108E-03  0.4370883959553E-02  0.0000000000000E+00 -0.4216190365512E-02
-0.3586391650245E-03  0.4437502005901E-02  0.0000000000000E+00 -0.4794405878360E-02
-0.5325937879064E-03  0.4486301529239E-02  0.0000000000000E+00 -0.5237588578204E-02
-0.6924586194104E-03  0.4504473283674E-02  0.0000000000000E+00 -0.5563510838977E-02
-0.8257242007715E-03  0.4485985594743E-02  0.0000000000000E+00 -0.5798681461281E-02
-0.9275132409741E-03  0.4430767567113E-02  0.0000000000000E+00 -0.5970218780966E-02
-0.9984431534300E-03  0.4342625543413E-02  0.0000000000000E+00 -0.6101020200467E-02
-0.1042209484251E-02  0.4227123525433E-02  0.0000000000000E+00 -0.6208191154434E-02
-0.1063692636816E-02  0.4090056037982E-02  0.0000000000000E+00 -0.6303511826081E-02
-0.1067784843500E-02  0.3936608154165E-02  0.0000000000000E+00 -0.6394712927133E-02
-0.1058815214492E-02  0.3771037096861E-02  0.0000000000000E+00 -0.6486789308201E-02
-0.1040365425109E-02  0.3596666469273E-02  0.0000000000000E+00 -0.6583013932288E-02
-0.1015294653647E-02  0.3416029940738E-02  0.0000000000000E+00 -0.6685574931825E-02
-0.9858429283116E-03  0.3231053386554E-02  0.0000000000000E+00 -0.6795877442245E-02
-0.9537272568346E-03  0.3043221791237E-02  0.0000000000000E+00 -0.6914589749659E-02
-0.9202571248983E-03  0.2854101184358E-02  0.0000000000000E+00 -0.7041352353537E-02
-0.8863434128045E-03  0.2665672308628E-02  0.0000000000000E+00 -0.7174414290351E-02
-0.8522141065265E-03  0.2479337493839E-02  0.0000000000000E+00 -0.7310998020385E-02
-0.8172038426137E-03  0.2295141749339E-02  0.0000000000000E+00 -0.7447884184893E-02
-0.7798250837050E-03  0.2112127290481E-02  0.0000000000000E+00 -0.7581489700602E-02
-0.7379079544191E-03  0.1928744080173E-02  0.0000000000000E+00 -0.7707897061660E-02
-0.6887639737641E-03  0.1743109893972E-02  0.0000000000000E+00 -0.7822900774677E-02
-0.6293656434698E-03  0.1553170406769E-02  0.0000000000000E+00 -0.7922024350212E-02
-0.5565313163547E-03  0.1356806178076E-02  0.0000000000000E+00 -0.8000496514612E-02
-0.4671141880987E-03  0.1151923643366E-02  0.0000000000000E+00 -0.8053203448047E-02
-0.3582025770433E-03  0.9365443407044E-03  0.0000000000000E+00 -0.8074655912131E-02
-0.2273218798903E-03  0.7088212816911E-03  0.0000000000000E+00 -0.8059097384824E-02
-0.7265928408684E-04  0.4670971450806E-03  0.0000000000000E+00 -0.8000707465882E-02
 0.1066319711946E-03  0.2101737233184E-03  0.0000000000000E+00 -0.7893670821764E-02
 0.3100748911803E-03 -0.6239376628609E-04  0.0000000000000E+00 -0.7732238171713E-02
 0.5354931625283E-03 -0.3500558074124E-03  0.0000000000000E+00 -0.7510877856398E-02
 0.7786211836966E-03 -0.6510053019887E-03  0.0000000000000E+00 -0.7224398137030E-02
 0.1032734005185E-02 -0.9619171051189E-03  0.0000000000000E+00 -0.6868026886743E-02
 0.1288372508489E-02 -0.1277756892669E-02  0.0000000000000E+00 -0.6437495771154E-02
 0.1533363315583E-02 -0.1591848995326E-02  0.0000000000000E+00 -0.5929292145449E-02
 0.1753485252462E-02 -0.1896480815072E-02  0.0000000000000E+00 -0.5341161087108E-02
 0.1932507686755E-02 -0.2182713834647E-02  0.0000000000000E+00 -0.4671012844867E-02
 0.2051203869921E-02 -0.2439194017849E-02  0.0000000000000E+00 -0.3914518257593E-02
 0.2085437817183E-02 -0.2651484058829E-02  0.0000000000000E+00 -0.3065667611854E-02
 0.2007161458323E-02 -0.2800258930954E-02  0.0000000000000E+00 -0.2102361683188E-02
-0.6605514191635E-04  0.4780490866593E-02  0.0000000000000E+00 -0.3539294521954E-02
-0.2228465806212E-03  0.4858628603868E-02  0.0000000000000E+00 -0.4250584304006E-02
-0.4130758571243E-03  0.4935194346040E-02  0.0000000000000E+00 -0.4813209881382E-02
-0.6070350658704E-03  0.4989834758704E-02  0.0000000000000E+00 -0.5230259328014E-02
-0.7819309491089E-03  0.5008618198144E-02  0.0000000000000E+00 -0.5524716201725E-02
-0.9247807390474E-03  0.4985773336838E-02  0.0000000000000E+00 -0.5728169812568E-02
-0.1031429640145E-02  0.4922307604579E-02  0.0000000000000E+00 -0.5871225607521E-02
-0.1103686172420E-02  0.4823291705775E-02  0.0000000000000E+00 -0.5978408665394E-02
-0.1146394356356E-02  0.4695343120143E-02  0.0000000000000E+00 -0.6067044082921E-02
-0.1165313814059E-02  0.4544964831716E-02  0.0000000000000E+00 -0.6148344544441E-02
-0.1165916705580E-02  0.4377733741697E-02  0.0000000000000E+00 -0.6229178193107E-02
-0.1152873143964E-02  0.4198070920437E-02  0.0000000000000E+00 -0.6313677431378E-02
-0.1129949403882E-02  0.4009326468961E-02  0.0000000000000E+00 -0.6404392186310E-02
-0.1100107669970E-02  0.3813995653708E-02  0.0000000000000E+00 -0.6502969276175E-02
-0.1065667365867E-02  0.3613953273987E-02  0.0000000000000E+00 -0.6610440276916E-02
-0.1028439498448E-02  0.3410655243689E-02  0.0000000000000E+00 -0.6727219323926E-02
-0.9898620685324E-03  0.3205699890418E-02  0.0000000000000E+00 -0.6852716301519E-02
-0.9510042587949E-03  0.3001176878041E-02  0.0000000000000E+00 -0.6984880741627E-02
-0.9122490248366E-03  0.2798607728057E-02  0.0000000000000E+00 -0.7120594919148E-02
-0.8730536252856E-03  0.2598112468224E-02  0.0000000000000E+00 -0.7256326566017E-02
-0.8320170795177E-03  0.2398779752006E-02  0.0000000000000E+00 -0.7388223158004E-02
-0.7870306696923E-03  0.2199103948149E-02  0.0000000000000E+00 -0.7512149682096E-02
-0.7354589845235E-03  0.1997266835443E-02  0.0000000000000E+00 -0.7623737523119E-02
-0.6743352131678E-03  0.1791310859525E-02  0.0000000000000E+00 -0.7718393266628E-02
-0.6005540495951E-03  0.1579249207066E-02  0.0000000000000E+00 -0.7791260674921E-02
-0.5110596179456E-03  0.1359151494693E-02  0.0000000000000E+00 -0.7837162267952E-02
-0.4030377123039E-03  0.1129221666888E-02  0.0000000000000E+00 -0.7850567314455E-02
-0.2741052772073E-03  0.8877961105404E-03  0.0000000000000E+00 -0.7825727935413E-02
-0.1225228204218E-03  0.6333849686443E-03  0.0000000000000E+00 -0.7756924137110E-02
 0.5250803108248E-04  0.3649354004551E-03  0.0000000000000E+00 -0.7638557838688E-02
 0.2504882258304E-03  0.8212181449970E-04  0.0000000000000E+00 -0.7465240261770E-02
 0.4692418986891E-03 -0.2144169897294E-03  0.0000000000000E+00 -0.7231978824014E-02
 0.7045149319671E-03 -0.5228116467367E-03  0.0000000000000E+00 -0.6934326105819E-02
 0.9495862252609E-03 -0.8396910885105E-03  0.0000000000000E+00 -0.6568470577758E-02
 0.1194968947133E-02 -0.1159975392217E-02  0.0000000000000E+00 -0.6131312617922E-02
 0.1428417542186E-02 -0.1476935723047E-02  0.0000000000000E+00 -0.5620701364931E-02
 0.1635569610667E-02 -0.1782816533165E-02  0.0000000000000E+00 -0.5035959893363E-02
 0.1800072961062E-02 -0.2068673107746E-02  0.0000000000000E+00 -0.4376688237291E-02
 0.1902116266578E-02 -0.2323052729566E-02  0.0000000000000E+00 -0.3640383198050E-02
 0.1919014394429E-02 -0.2532158743015E-02  0.0000000000000E+00 -0.2822751760450E-02
 0.1809413410771E-02 -0.2672542996081E-02  0.0000000000000E+00 -0.1912982441492E-02
-0.7723178153554E-04  0.5263934534376E-02  0.0000000000000E+00 -0.3582663970915E-02
-0.2580631541866E-03  0.5354854152647E-02  0.0000000000000E+00 -0.4290863468100E-02
-0.4730893698446E-03  0.5442077576663E-02  0.0000000000000E+00 -0.4834802945686E-02
-0.6881937580549E-03  0.5502423468096E-02  0.0000000000000E+00 -0.5221478526155E-02
-0.8782231882114E-03  0.5520885592139E-02  0.0000000000000E+00 -0.5480294035164E-02
-0.1029985181692E-02  0.5492277133336E-02  0.0000000000000E+00 -0.5648741269186E-02
-0.1140438755111E-02  0.5419052791591E-02  0.0000000000000E+00 -0.5761154842092E-02
-0.1212906058724E-02  0.5307807441233E-02  0.0000000000000E+00 -0.5843521716043E-02
-0.1253567033885E-02  0.5166330027786E-02  0.0000000000000E+00 -0.5913067238145E-02
-0.1269132104348E-02  0.5001845547693E-02  0.0000000000000E+00 -0.5980134766050E-02
-0.1265654078301E-02  0.4820282291823E-02  0.0000000000000E+00 -0.6050511967119E-02
-0.1248111753874E-02  0.4626166755913E-02  0.0000000000000E+00 -0.6127337217241E-02
-0.1220413540650E-02  0.4422817506219E-02  0.0000000000000E+00 -0.6212372261674E-02
-0.1185583904064E-02  0.4212640954852E-02  0.0000000000000E+00 -0.6306703754709E-02
-0.1145989129681E-02  0.3997420590668E-02  0.0000000000000E+00 -0.6411002112690E-02
-0.1103513734239E-02  0.3778554644363E-02  0.0000000000000E+00 -0.6525458244881E-02
-0.1059716822570E-02  0.3557657200611E-02  0.0000000000000E+00 -0.6649285641472E-02
-0.1015828313353E-02  0.3336920427330E-02  0.0000000000000E+00 -0.6780157634169E-02
-0.9723914506455E-03  0.3117983766282E-02  0.0000000000000E+00 -0.6914627217057E-02
-0.9289879876838E-03  0.2901041495126E-02  0.0000000000000E+00 -0.7048856029516E-02
-0.8842999764868E-03  0.2685227431504E-02  0.0000000000000E+00 -0.7178732999254E-02
-0.8362731156065E-03  0.2469080532660E-02  0.0000000000000E+00 -0.7299925747270E-02
-0.7823188705266E-03  0.2250850919728E-02  0.0000000000000E+00 -0.7407931494647E-02
-0.7195281222762E-03  0.2028687722644E-02  0.0000000000000E+00 -0.7498072437713E-02
-0.6448723765883E-03  0.1800751655813E-02  0.0000000000000E+00 -0.7565436571233E-02
-0.5553887718763E-03  0.1565293273882E-02  0.0000000000000E+00 -0.7604802890324E-02
-0.4483613325593E-03  0.1320716764347E-02  0.0000000000000E+00 -0.7610607091575E-02
-0.3214950711061E-03  0.1065557332921E-02  0.0000000000000E+00 -0.7577105850246E-02
-0.1731139612798E-03  0.7985039081036E-03  0.0000000000000E+00 -0.7498665236533E-02
-0.2450450630964E-05  0.5186548151792E-03  0.0000000000000E+00 -0.7369880779812E-02
 0.1900002576606E-03  0.2258027271465E-03  0.0000000000000E+00 -0.7185693194987E-02
 0.4020967221173E-03 -0.7933265844974E-04  0.0000000000000E+00 -0.6941614821734E-02
 0.6296369685506E-03 -0.3948353908735E-03  0.0000000000000E+00 -0.6633911590559E-02
 0.8659470311272E-03 -0.7173093618930E-03  0.0000000000000E+00 -0.6259712629350E-02
 0.1101554291968E-02 -0.1041650462062E-02  0.0000000000000E+00 -0.5817084731871E-02
 0.1324164580604E-02 -0.1361089803331E-02  0.0000000000000E+00 -0.5305252613628E-02
 0.1519315278406E-02 -0.1667833380890E-02  0.0000000000000E+00 -0.4725136218770E-02
 0.1670411112873E-02 -0.1952894068880E-02  0.0000000000000E+00 -0.4077984127507E-02
 0.1757728206357E-02 -0.2204869826242E-02  0.0000000000000E+00 -0.3363193618143E-02
 0.1756876327966E-02 -0.2409643632960E-02  0.0000000000000E+00 -0.2576852750246E-02
 0.1634354564060E-02 -0.2545851620611E-02  0.0000000000000E+00 -0.1727031364948E-02
-0.8976197082034E-04  0.5755467105231E-02  0.0000000000000E+00 -0.3633733984250E-02
-0.2973827897153E-03  0.5860555687746E-02  0.0000000000000E+00 -0.4337534709312E-02
-0.5395244650410E-03  0.5959178700959E-02  0.0000000000000E+00 -0.4859045725326E-02
-0.7769402805473E-03  0.6024931221507E-02  0.0000000000000E+00 -0.5210413598227E-02
-0.9820345779680E-03  0.6041852250717E-02  0.0000000000000E+00 -0.5428964924418E-02
-0.1141790039916E-02  0.6005780974533E-02  0.0000000000000E+00 -0.5559005299237E-02
-0.1254772901356E-02  0.5921069054910E-02  0.0000000000000E+00 -0.5638758393401E-02
-0.1326186329178E-02  0.5796117004484E-02  0.0000000000000E+00 -0.5695372542943E-02
-0.1363733641692E-02  0.5639986227841E-02  0.0000000000000E+00 -0.5745548967719E-02
-0.1375128425006E-02  0.5460608791382E-02  0.0000000000000E+00 -0.5798405616799E-02
-0.1366984058879E-02  0.5264199744630E-02  0.0000000000000E+00 -0.5858415244154E-02
-0.1344540060019E-02  0.5055316889895E-02  0.0000000000000E+00 -0.5927592803494E-02
-0.1311794243624E-02  0.4837180326783E-02  0.0000000000000E+00 -0.6006854877764E-02
-0.1271785982728E-02  0.4612052085438E-02  0.0000000000000E+00 -0.6096717977495E-02
-0.1226891554388E-02  0.4381580797747E-02  0.0000000000000E+00 -0.6197512584910E-02
-0.1179046241343E-02  0.4147076166558E-02  0.0000000000000E+00 -0.6309246433399E-02
-0.1129922835566E-02  0.3910150450397E-02  0.0000000000000E+00 -0.6430979451731E-02
-0.1080916093558E-02  0.3673091932665E-02  0.0000000000000E+00 -0.6560138259594E-02
-0.1032736604148E-02  0.3437656917584E-02  0.0000000000000E+00 -0.6692960324931E-02
-0.9850928415529E-03  0.3204112700399E-02  0.0000000000000E+00 -0.6825309070996E-02
-0.9367452190964E-03  0.2971635949312E-02  0.0000000000000E+00 -0.6952827610919E-02
-0.8856854973502E-03  0.2738809605301E-02  0.0000000000000E+00 -0.7071010299741E-02
-0.8293649471249E-03  0.2503956706195E-02  0.0000000000000E+00 -0.7175254640428E-02
-0.7649296098685E-03  0.2265344458816E-02  0.0000000000000E+00 -0.7260836386422E-02
-0.6894299997453E-03  0.2021298461452E-02  0.0000000000000E+00 -0.7322820869852E-02
-0.6000008834383E-03  0.1770270964494E-02  0.0000000000000E+00 -0.7355965420498E-02
-0.4940280881234E-03  0.1510887436528E-02  0.0000000000000E+00 -0.7354679627288E-02
-0.3693039701768E-03  0.1241900609787E-02  0.0000000000000E+00 -0.7313218411440E-02
-0.2242086634928E-03  0.9621928892048E-03  0.0000000000000E+00 -0.7226016003628E-02
-0.5799010561214E-04  0.6710230488369E-03  0.0000000000000E+00 -0.7087833116516E-02
 0.1288845474918E-03  0.3683044864700E-03  0.0000000000000E+00 -0.6893902889417E-02
 0.3343415850243E-03  0.5483219404145E-04  0.0000000000000E+00 -0.6640201275509E-02
 0.5542725553156E-03 -0.2674455270652E-03  0.0000000000000E+00 -0.6323669227102E-02
 0.7820972930312E-03 -0.5951290112478E-03  0.0000000000000E+00 -0.5942351389916E-02
 0.1008400575076E-02 -0.9231134613653E-03  0.0000000000000E+00 -0.5495477798295E-02
 0.1220877315084E-02 -0.1244606545211E-02  0.0000000000000E+00 -0.4983673975815E-02
 0.1404952118701E-02 -0.1551771584892E-02  0.0000000000000E+00 -0.4409467701120E-02
 0.1543881832372E-02 -0.1835567156056E-02  0.0000000000000E+00 -0.3775850411060E-02
 0.1617636263277E-02 -0.2084596174713E-02  0.0000000000000E+00 -0.3083464156072E-02
 0.1601888197746E-02 -0.2284287259517E-02  0.0000000000000E+00 -0.2332178161185E-02
 0.1469555789975E-02 -0.2418185732086E-02  0.0000000000000E+00 -0.1531497224254E-02
-0.1038836871180E-03  0.6256029543374E-02  0.0000000000000E+00 -0.3693425153362E-02
-0.3415024013059E-03  0.6376876827091E-02  0.0000000000000E+00 -0.4391143449819E-02
-0.6133699169540E-03  0.6487651680179E-02  0.0000000000000E+00 -0.4885670695240E-02
-0.8742490208826E-03  0.6558277583815E-02  0.0000000000000E+00 -0.5195974288123E-02
-0.1094095659957E-02  0.6572070082321E-02  0.0000000000000E+00 -0.5369169135970E-02
-0.1260617750885E-02  0.6526490149860E-02  0.0000000000000E+00 -0.5457355637122E-02
-0.1374603370708E-02  0.6428326515723E-02  0.0000000000000E+00 -0.5502666373779E-02
-0.1443544904913E-02  0.6288077629959E-02  0.0000000000000E+00 -0.5532932373156E-02
-0.1476844326937E-02  0.6116146220402E-02  0.0000000000000E+00 -0.5563786596327E-02
-0.1483241564408E-02  0.5921117780029E-02  0.0000000000000E+00 -0.5602714983586E-02
-0.1469864627444E-02  0.5709401129506E-02  0.0000000000000E+00 -0.5652633649046E-02
-0.1442148646891E-02  0.5485495148350E-02  0.0000000000000E+00 -0.5714314589790E-02
-0.1404117976774E-02  0.5252446663390E-02  0.0000000000000E+00 -0.5787784738155E-02
-0.1358773289938E-02  0.5012313800885E-02  0.0000000000000E+00 -0.5872991027410E-02
-0.1308459806234E-02  0.4766564054477E-02  0.0000000000000E+00 -0.5969954495265E-02
-0.1255138573009E-02  0.4516385620664E-02  0.0000000000000E+00 -0.6078549249008E-02
-0.1200588832521E-02  0.4263370245182E-02  0.0000000000000E+00 -0.6197733727682E-02
-0.1146376413720E-02  0.4009895959673E-02  0.0000000000000E+00 -0.6324723923751E-02
-0.1093388445305E-02  0.3757835044176E-02  0.0000000000000E+00 -0.6455458225905E-02
-0.1041462690655E-02  0.3507525903840E-02  0.0000000000000E+00 -0.6585510467455E-02
-0.9894317490007E-03  0.3258184439719E-02  0.0000000000000E+00 -0.6710292738530E-02
-0.9353231408322E-03  0.3008436119659E-02  0.0000000000000E+00 -0.6825155073725E-02
-0.8766199591370E-03  0.2756681954058E-02  0.0000000000000E+00 -0.6925436324193E-02
-0.8105216201413E-03  0.2501320551660E-02  0.0000000000000E+00 -0.7006410060664E-02
-0.7341620153023E-03  0.2240862686111E-02  0.0000000000000E+00 -0.7063156463849E-02
-0.6447811397331E-03  0.1973986454307E-02  0.0000000000000E+00 -0.7090434972929E-02
-0.5398734020025E-03  0.1699563137752E-02  0.0000000000000E+00 -0.7082636149074E-02
-0.4173208476221E-03  0.1416585219381E-02  0.0000000000000E+00 -0.7034004742251E-02
-0.2755553038781E-03  0.1124146950709E-02  0.0000000000000E+00 -0.6939021885093E-02
-0.1138274479420E-03  0.8216807742494E-03  0.0000000000000E+00 -0.6792580438758E-02
 0.6744571888451E-04  0.5092272760411E-03  0.0000000000000E+00 -0.6590162705225E-02
 0.2662904249361E-03  0.1876546072463E-03  0.0000000000000E+00 -0.6328158973348E-02
 0.4787340571077E-03 -0.1410688906821E-03  0.0000000000000E+00 -0.6004137968871E-02
 0.6983397054658E-03 -0.4735621217440E-03  0.0000000000000E+00 -0.5617026750082E-02
 0.9158004381273E-03 -0.8047467552063E-03  0.0000000000000E+00 -0.5167214977637E-02
 0.1118833459329E-02 -0.1127828038862E-02  0.0000000000000E+00 -0.4656754491061E-02
 0.1292774532885E-02 -0.1434923764874E-02  0.0000000000000E+00 -0.4089850854667E-02
 0.1420669096391E-02 -0.1716928609428E-02  0.0000000000000E+00 -0.3471143193088E-02
 0.1482298217255E-02 -0.1962303315825E-02  0.0000000000000E+00 -0.2802927197952E-02
 0.1454061264882E-02 -0.2157024028452E-02  0.0000000000000E+00 -0.2087511255249E-02
 0.1312071273023E-02 -0.2286620153948E-02  0.0000000000000E+00 -0.1334792430412E-02
-0.1198887696317E-03  0.6766716248563E-02  0.0000000000000E+00 -0.3762808161073E-02
-0.3912668037816E-03  0.6905145632589E-02  0.0000000000000E+00 -0.4452265140229E-02
-0.6957897378975E-03  0.7028798996130E-02  0.0000000000000E+00 -0.4914223436374E-02
-0.9812082372525E-03  0.7103432787385E-02  0.0000000000000E+00 -0.5176733607612E-02
-0.1215155833596E-02  0.7112040381568E-02  0.0000000000000E+00 -0.5299008146723E-02
-0.1386838502849E-02  0.7054500998913E-02  0.0000000000000E+00 -0.5341948635479E-02
-0.1500020394804E-02  0.6940676257664E-02  0.0000000000000E+00 -0.5351393886610E-02
-0.1564921109675E-02  0.6783446339624E-02  0.0000000000000E+00 -0.5355149748324E-02
-0.1592786807276E-02  0.6594571629328E-02  0.0000000000000E+00 -0.5367106618871E-02
-0.1593365906686E-02  0.6383187314840E-02  0.0000000000000E+00 -0.5392671726490E-02
-0.1574224425354E-02  0.6155771328918E-02  0.0000000000000E+00 -0.5432969110822E-02
-0.1540910243970E-02  0.5916658069604E-02  0.0000000000000E+00 -0.5487427562725E-02
-0.1497402132065E-02  0.5668640347301E-02  0.0000000000000E+00 -0.5555156910718E-02
-0.1446603072373E-02  0.5413510489534E-02  0.0000000000000E+00 -0.5635546828457E-02
-0.1390782284333E-02  0.5152506614109E-02  0.0000000000000E+00 -0.5728348471783E-02
-0.1331899252571E-02  0.4886660349219E-02  0.0000000000000E+00 -0.5833361331822E-02
-0.1271832738160E-02  0.4617522932865E-02  0.0000000000000E+00 -0.5949504202542E-02
-0.1212328510098E-02  0.4347555665644E-02  0.0000000000000E+00 -0.6073825557507E-02
-0.1154462005639E-02  0.4078745932655E-02  0.0000000000000E+00 -0.6201983626002E-02
-0.1098203099775E-02  0.3811500331983E-02  0.0000000000000E+00 -0.6329271695446E-02
-0.1042448410123E-02  0.3545068739392E-02  0.0000000000000E+00 -0.6450888085925E-02
-0.9852485732452E-03  0.3278116822747E-02  0.0000000000000E+00 -0.6562073506039E-02
-0.9241096288540E-03  0.3009129488174E-02  0.0000000000000E+00 -0.6658157203453E-02
-0.8562837124606E-03  0.2736652593799E-02  0.0000000000000E+00 -0.6734462072457E-02
-0.7789951577946E-03  0.2459405856842E-02  0.0000000000000E+00 -0.6786125449400E-02
-0.6896002581207E-03  0.2176321138164E-02  0.0000000000000E+00 -0.6807934640696E-02
-0.5857123618785E-03  0.1886543787977E-02  0.0000000000000E+00 -0.6794267889048E-02
-0.4653089008706E-03  0.1589331969217E-02  0.0000000000000E+00 -0.6739349394819E-02
-0.3268720469720E-03  0.1284014110515E-02  0.0000000000000E+00 -0.6637682916662E-02
-0.1696454230420E-03  0.9702139735736E-03  0.0000000000000E+00 -0.6484256193819E-02
 0.6023600473970E-05  0.6481105523421E-03  0.0000000000000E+00 -0.6274751258168E-02
 0.1982917948480E-03  0.3186474109023E-03  0.0000000000000E+00 -0.6005914739208E-02
 0.4033650949102E-03 -0.1619664332347E-04  0.0000000000000E+00 -0.5675884833322E-02
 0.6150035121464E-03 -0.3530817035019E-03  0.0000000000000E+00 -0.5284427534635E-02
 0.8240649183080E-03 -0.6869879950950E-03  0.0000000000000E+00 -0.4833081286818E-02
 0.1018335803278E-02 -0.1011146372730E-02  0.0000000000000E+00 -0.4325365747722E-02
 0.1183068535251E-02 -0.1317638139639E-02  0.0000000000000E+00 -0.3767218243161E-02
 0.1301075360537E-02 -0.1597244341515E-02  0.0000000000000E+00 -0.3165010825655E-02
 0.1352012926298E-02 -0.1838383020920E-02  0.0000000000000E+00 -0.2522565881092E-02
 0.1313219697403E-02 -0.2027745313703E-02  0.0000000000000E+00 -0.1843752684051E-02
 0.1162429218331E-02 -0.2152442869499E-02  0.0000000000000E+00 -0.1137913288850E-02
-0.1381399372562E-03  0.7288817297853E-02  0.0000000000000E+00 -0.3843133700176E-02
-0.4477111138779E-03  0.7446921258715E-02  0.0000000000000E+00 -0.4521488492157E-02
-0.7881614031000E-03  0.7584095789922E-02  0.0000000000000E+00 -0.4943978803165E-02
-0.1099027153029E-02  0.7661404556746E-02  0.0000000000000E+00 -0.5150825016538E-02
-0.1345962282986E-02  0.7662176419145E-02  0.0000000000000E+00 -0.5216177968688E-02
-0.1520740362615E-02  0.7589762232355E-02  0.0000000000000E+00 -0.5210687262811E-02
-0.1631009355914E-02  0.7457823950616E-02  0.0000000000000E+00 -0.5183358199842E-02
-0.1690162178024E-02  0.7281867191711E-02  0.0000000000000E+00 -0.5160978316845E-02
-0.1711380920240E-02  0.7074947548471E-02  0.0000000000000E+00 -0.5154889714821E-02
-0.1705350391752E-02  0.6846584449933E-02  0.0000000000000E+00 -0.5167953827146E-02
-0.1679963474694E-02  0.6603167028829E-02  0.0000000000000E+00 -0.5199291882687E-02
-0.1640780850138E-02  0.6348746721501E-02  0.0000000000000E+00 -0.5246919351094E-02
-0.1591656142714E-02  0.6085778647228E-02  0.0000000000000E+00 -0.5309022928374E-02
-0.1535331632362E-02  0.5815727291685E-02  0.0000000000000E+00 -0.5384459531802E-02
-0.1473952099735E-02  0.5539552192979E-02  0.0000000000000E+00 -0.5472757986661E-02
-0.1409445613736E-02  0.5258091218195E-02  0.0000000000000E+00 -0.5573711008554E-02
-0.1343783832082E-02  0.4972833363599E-02  0.0000000000000E+00 -0.5686269762071E-02
-0.1278904483156E-02  0.4686316273084E-02  0.0000000000000E+00 -0.5807365795133E-02
-0.1216086113791E-02  0.4400641251241E-02  0.0000000000000E+00 -0.5932398300590E-02
-0.1155433586215E-02  0.4116278658932E-02  0.0000000000000E+00 -0.6056389177299E-02
-0.1095896725026E-02  0.3832505039024E-02  0.0000000000000E+00 -0.6174343403761E-02
-0.1035533860243E-02  0.3548023150364E-02  0.0000000000000E+00 -0.6281435045885E-02
-0.9718643348506E-03  0.3261409188653E-02  0.0000000000000E+00 -0.6373042387330E-02
-0.9021940078088E-03  0.2971375402936E-02  0.0000000000000E+00 -0.6444597282960E-02
-0.8238480261077E-03  0.2676878297212E-02  0.0000000000000E+00 -0.6491341510702E-02
-0.7343140114251E-03  0.2377135500175E-02  0.0000000000000E+00 -0.6508117871247E-02
-0.6313385234055E-03  0.2071598539077E-02  0.0000000000000E+00 -0.6489298575622E-02
-0.5130036585008E-03  0.1759820985880E-02  0.0000000000000E+00 -0.6429075147353E-02
-0.3778439486481E-03  0.1441391972462E-02  0.0000000000000E+00 -0.6321947204777E-02
-0.2250895452518E-03  0.1116149194659E-02  0.0000000000000E+00 -0.6162956500004E-02
-0.5500199954445E-04  0.7844269372577E-03  0.0000000000000E+00 -0.5947929491226E-02
 0.1307341332051E-03  0.4472520276585E-03  0.0000000000000E+00 -0.5673901721952E-02
 0.3285459690401E-03  0.1066081440230E-03  0.0000000000000E+00 -0.5339509453127E-02
 0.5324478145223E-03 -0.2342285316567E-03  0.0000000000000E+00 -0.4945298883980E-02
 0.7335287724679E-03 -0.5703344325410E-03  0.0000000000000E+00 -0.4493937428544E-02
 0.9197010382702E-03 -0.8950072204083E-03  0.0000000000000E+00 -0.3990451985920E-02
 0.1076149616134E-02 -0.1200305048961E-02  0.0000000000000E+00 -0.3442610672269E-02
 0.1185417188012E-02 -0.1476879667051E-02  0.0000000000000E+00 -0.2858589563253E-02
 0.1227035136665E-02 -0.1713131132197E-02  0.0000000000000E+00 -0.2243512454195E-02
 0.1179188710013E-02 -0.1896546600540E-02  0.0000000000000E+00 -0.1601721341579E-02
 0.1020854785655E-02 -0.2015641027777E-02  0.0000000000000E+00 -0.9420834754325E-03
-0.1590946318472E-03  0.7823875962479E-02  0.0000000000000E+00 -0.3935870325544E-02
-0.5121179245639E-03  0.8004055104936E-02  0.0000000000000E+00 -0.4599384850734E-02
-0.8921222063280E-03  0.8155215560649E-02  0.0000000000000E+00 -0.4973820483605E-02
-0.1229037023207E-02  0.8233212068199E-02  0.0000000000000E+00 -0.5115809259304E-02
-0.1487226364250E-02  0.8222749903159E-02  0.0000000000000E+00 -0.5117896234443E-02
-0.1662489934666E-02  0.8132026411087E-02  0.0000000000000E+00 -0.5061216391347E-02
-0.1767423488348E-02  0.7979301131079E-02  0.0000000000000E+00 -0.4996910614889E-02
-0.1819010226536E-02  0.7782860283835E-02  0.0000000000000E+00 -0.4949414828622E-02
-0.1832374974338E-02  0.7556881572543E-02  0.0000000000000E+00 -0.4926600624003E-02
-0.1818999162030E-02  0.7311031339905E-02  0.0000000000000E+00 -0.4928327956565E-02
-0.1786955029291E-02  0.7051420042385E-02  0.0000000000000E+00 -0.4951552349622E-02
-0.1741701439072E-02  0.6781689181218E-02  0.0000000000000E+00 -0.4992847558271E-02
-0.1686882778287E-02  0.6503873749594E-02  0.0000000000000E+00 -0.5049496310226E-02
-0.1625015511020E-02  0.6219051078120E-02  0.0000000000000E+00 -0.5119858806785E-02
-0.1558068548308E-02  0.5927853177795E-02  0.0000000000000E+00 -0.5203294799885E-02
-0.1487905747936E-02  0.5630884630784E-02  0.0000000000000E+00 -0.5299665446558E-02
-0.1416585147658E-02  0.5329547951488E-02  0.0000000000000E+00 -0.5408036666565E-02
-0.1346252115429E-02  0.5026449109855E-02  0.0000000000000E+00 -0.5525281683425E-02
-0.1278406604332E-02  0.4723801228371E-02  0.0000000000000E+00 -0.5646563684265E-02
-0.1213291022784E-02  0.4422131747683E-02  0.0000000000000E+00 -0.5766642266002E-02
-0.1149894095846E-02  0.4120734052260E-02  0.0000000000000E+00 -0.5880353890825E-02
-0.1086263205156E-02  0.3818344393508E-02  0.0000000000000E+00 -0.5982858589603E-02
-0.1019920895920E-02  0.3513640055969E-02  0.0000000000000E+00 -0.6069653764883E-02
-0.9482301428615E-03  0.3205523121608E-02  0.0000000000000E+00 -0.6136348702872E-02
-0.8686312787745E-03  0.2893219434193E-02  0.0000000000000E+00 -0.6178341723714E-02
-0.7787627101365E-03  0.2576268689872E-02  0.0000000000000E+00 -0.6190560254855E-02
-0.6765226481307E-03  0.2254464527058E-02  0.0000000000000E+00 -0.6167376225209E-02
-0.5601108590978E-03  0.1927689419897E-02  0.0000000000000E+00 -0.6102934925555E-02
-0.4281198106078E-03  0.1595824095007E-02  0.0000000000000E+00 -0.5991703361325E-02
-0.2797635896066E-03  0.1258948330944E-02  0.0000000000000E+00 -0.5828733849256E-02
-0.1152058652080E-03  0.9175753248100E-03  0.0000000000000E+00 -0.5609936754660E-02
 0.6405203389681E-04  0.5728301589875E-03  0.0000000000000E+00 -0.5332559280774E-02
 0.2546997545148E-03  0.2267015124852E-03  0.0000000000000E+00 -0.4995648746732E-02
 0.4510669779030E-03 -0.1176191217239E-03  0.0000000000000E+00 -0.4600453183403E-02
 0.6445509702058E-03 -0.4553485325972E-03  0.0000000000000E+00 -0.4150730238196E-02
 0.8232631040843E-03 -0.7799070382681E-03  0.0000000000000E+00 -0.3653052373516E-02
 0.9723495489657E-03 -0.1083365808658E-02  0.0000000000000E+00 -0.3117142002940E-02
 0.1074027458743E-02 -0.1356233616623E-02  0.0000000000000E+00 -0.2553079723892E-02
 0.1107568488733E-02 -0.1586844998717E-02  0.0000000000000E+00 -0.1966981073508E-02
 0.1051811357592E-02 -0.1763403132274E-02  0.0000000000000E+00 -0.1362647082984E-02
 0.8873188208871E-03 -0.1876035803413E-02  0.0000000000000E+00 -0.7484676133809E-03
-0.1833390639972E-03  0.8373768477360E-02  0.0000000000000E+00 -0.4042752657902E-02
-0.5860952716952E-03  0.8578771670796E-02  0.0000000000000E+00 -0.4686454143439E-02
-0.1009624485237E-02  0.8744054852109E-02  0.0000000000000E+00 -0.5002066856102E-02
-0.1372680736442E-02  0.8819839138747E-02  0.0000000000000E+00 -0.5068503339399E-02
-0.1639572111033E-02  0.8793815504385E-02  0.0000000000000E+00 -0.5000828104328E-02
-0.1812081878299E-02  0.8680790649464E-02  0.0000000000000E+00 -0.4890937930232E-02
-0.1908954022515E-02  0.8504435901534E-02  0.0000000000000E+00 -0.4790388234372E-02
-0.1951091153138E-02  0.8285814390569E-02  0.0000000000000E+00 -0.4719548658074E-02
-0.1955444882691E-02  0.8039906606330E-02  0.0000000000000E+00 -0.4681822383050E-02
-0.1934074360754E-02  0.7776210734094E-02  0.0000000000000E+00 -0.4673669615514E-02
-0.1895048722002E-02  0.7500342157711E-02  0.0000000000000E+00 -0.4689791901734E-02
-0.1843600249376E-02  0.7215403666689E-02  0.0000000000000E+00 -0.4725345819560E-02
-0.1783079526699E-02  0.6922934258187E-02  0.0000000000000E+00 -0.4776757131506E-02
-0.1715712520937E-02  0.6623571096923E-02  0.0000000000000E+00 -0.4841934895123E-02
-0.1643238454797E-02  0.6317571483728E-02  0.0000000000000E+00 -0.4920124927910E-02
-0.1567420499735E-02  0.6005264459987E-02  0.0000000000000E+00 -0.5011336819399E-02
-0.1490396131028E-02  0.5687938062186E-02  0.0000000000000E+00 -0.5114843885097E-02
-0.1414538149355E-02  0.5368256356181E-02  0.0000000000000E+00 -0.5227528247397E-02
-0.1341590136659E-02  0.5048540245474E-02  0.0000000000000E+00 -0.5344341753664E-02
-0.1271933670283E-02  0.4729364248165E-02  0.0000000000000E+00 -0.5459790821510E-02
-0.1204577489064E-02  0.4410025760945E-02  0.0000000000000E+00 -0.5568574653551E-02
-0.1137535800729E-02  0.4089291101936E-02  0.0000000000000E+00 -0.5665904814060E-02
-0.1068324413271E-02  0.3765952277309E-02  0.0000000000000E+00 -0.5747481389422E-02
-0.9943701891844E-03  0.3439130242059E-02  0.0000000000000E+00 -0.5809168701154E-02
-0.9132477846764E-03  0.3108358066214E-02  0.0000000000000E+00 -0.5846577820231E-02
-0.8227706583604E-03  0.2773538121254E-02  0.0000000000000E+00 -0.5854750753218E-02
-0.7210114119663E-03  0.2434845664225E-02  0.0000000000000E+00 -0.5828064207244E-02
-0.6063042420670E-03  0.2092529122171E-02  0.0000000000000E+00 -0.5760602748235E-02
-0.4773088067042E-03  0.1746796159059E-02  0.0000000000000E+00 -0.5646771718735E-02
-0.3332248344501E-03  0.1398002921225E-02  0.0000000000000E+00 -0.5481589450583E-02
-0.1741111766891E-03  0.1046873135056E-02  0.0000000000000E+00 -0.5260985650068E-02
-0.1266462638094E-05  0.6946541654307E-03  0.0000000000000E+00 -0.4982332039440E-02
 0.1822999200858E-03  0.3433479700528E-03  0.0000000000000E+00 -0.4644982269172E-02
 0.3712965412739E-03 -0.3955733591188E-05  0.0000000000000E+00 -0.4250782138783E-02
 0.5575174935770E-03 -0.3426634545858E-03  0.0000000000000E+00 -0.3804512497117E-02
 0.7293693722128E-03 -0.6663938146157E-03  0.0000000000000E+00 -0.3314314503484E-02
 0.8720097260726E-03 -0.9672971320695E-03  0.0000000000000E+00 -0.2792010993205E-02
 0.9672464818300E-03 -0.1235729939218E-02  0.0000000000000E+00 -0.2249746592720E-02
 0.9938115426145E-03 -0.1459810562310E-02  0.0000000000000E+00 -0.1694375898763E-02
 0.9309345388839E-03 -0.1628272584358E-02  0.0000000000000E+00 -0.1128134866864E-02
 0.7615480095073E-03 -0.1733363117828E-02  0.0000000000000E+00 -0.5582424886273E-03
-0.2116378449575E-03  0.8940816952751E-02  0.0000000000000E+00 -0.4165843079040E-02
-0.6716841538640E-03  0.9173776266323E-02  0.0000000000000E+00 -0.4783030932902E-02
-0.1142999284801E-02  0.9352751305086E-02  0.0000000000000E+00 -0.5026217623889E-02
-0.1531481947487E-02  0.9422154268654E-02  0.0000000000000E+00 -0.5004764130619E-02
-0.1803459795745E-02  0.9375106228329E-02  0.0000000000000E+00 -0.4861021552258E-02
-0.1969276224661E-02  0.9235226852898E-02  0.0000000000000E+00 -0.4697058254279E-02
-0.2055099870691E-02  0.9032326263994E-02  0.0000000000000E+00 -0.4562191354821E-02
-0.2085907536927E-02  0.8789985725811E-02  0.0000000000000E+00 -0.4470623270359E-02
-0.2080197179104E-02  0.8523488596292E-02  0.0000000000000E+00 -0.4420293652656E-02
-0.2050301503703E-02  0.8241774502916E-02  0.0000000000000E+00 -0.4403982649323E-02
-0.2004075125481E-02  0.7949731600739E-02  0.0000000000000E+00 -0.4414152009961E-02
-0.1946395629389E-02  0.7649802274292E-02  0.0000000000000E+00 -0.4444627940680E-02
-0.1880239927729E-02  0.7342966550499E-02  0.0000000000000E+00 -0.4491055186484E-02
-0.1807482431980E-02  0.7029379030094E-02  0.0000000000000E+00 -0.4550943242696E-02
-0.1729577210411E-02  0.6708878797111E-02  0.0000000000000E+00 -0.4623475275913E-02
-0.1648145420846E-02  0.6381473745906E-02  0.0000000000000E+00 -0.4708889862517E-02
-0.1565395582274E-02  0.6048303758027E-02  0.0000000000000E+00 -0.4806769984326E-02
-0.1483952148696E-02  0.5712076700764E-02  0.0000000000000E+00 -0.4914083230610E-02
-0.1405828804812E-02  0.5375213614399E-02  0.0000000000000E+00 -0.5025596250172E-02
-0.1331545995170E-02  0.5038321253847E-02  0.0000000000000E+00 -0.5135572142059E-02
-0.1260107664759E-02  0.4700684789120E-02  0.0000000000000E+00 -0.5238613860600E-02
-0.1189468896824E-02  0.4361098650106E-02  0.0000000000000E+00 -0.5330067121175E-02
-0.1117130092332E-02  0.4018489177520E-02  0.0000000000000E+00 -0.5405933808779E-02
-0.1040593476906E-02  0.3672232475370E-02  0.0000000000000E+00 -0.5462419559997E-02
-0.9575927150036E-03  0.3322212579231E-02  0.0000000000000E+00 -0.5495407003527E-02
-0.8661456119400E-03  0.2968739139904E-02  0.0000000000000E+00 -0.5500082427493E-02
-0.7645261368731E-03  0.2612411546456E-02  0.0000000000000E+00 -0.5470831563589E-02
-0.6512233054654E-03  0.2253884367589E-02  0.0000000000000E+00 -0.5401663585318E-02
-0.5249769197228E-03  0.1893731986504E-02  0.0000000000000E+00 -0.5286894120097E-02
-0.3849788438373E-03  0.1532627977872E-02  0.0000000000000E+00 -0.5121463939107E-02
-0.2311824989004E-03  0.1171547649355E-02  0.0000000000000E+00 -0.4901255258497E-02
-0.6467128762888E-04  0.8118959779177E-03  0.0000000000000E+00 -0.4623667853733E-02
 0.1118795424813E-03  0.4557076911608E-03  0.0000000000000E+00 -0.4288237467758E-02
 0.2936211332867E-03  0.1059613041453E-03  0.0000000000000E+00 -0.3897272075193E-02
 0.4728444644029E-03 -0.2329911821788E-03  0.0000000000000E+00 -0.3456467410294E-02
 0.6383756820720E-03 -0.5550643233458E-03  0.0000000000000E+00 -0.2975521534271E-02
 0.7754691719830E-03 -0.8525959040707E-03  0.0000000000000E+00 -0.2468516358324E-02
 0.8654233608265E-03 -0.1115799169402E-02  0.0000000000000E+00 -0.1949934638855E-02
 0.8859990688947E-03 -0.1332329810028E-02  0.0000000000000E+00 -0.1427304228567E-02
 0.8163991441372E-03 -0.1491133110435E-02  0.0000000000000E+00 -0.9001409514982E-03
 0.6429759060025E-03 -0.1587272344044E-02  0.0000000000000E+00 -0.3726885509733E-03
-0.2450079955768E-03  0.9527952875725E-02  0.0000000000000E+00 -0.4307610841457E-02
-0.7715084231568E-03  0.9792399279886E-02  0.0000000000000E+00 -0.4889121711412E-02
-0.1295025218637E-02  0.9983683541812E-02  0.0000000000000E+00 -0.5042583144701E-02
-0.1706979046251E-02  0.1004077831700E-01  0.0000000000000E+00 -0.4919221710343E-02
-0.1979075706062E-02  0.9965891439257E-02  0.0000000000000E+00 -0.4693871983542E-02
-0.2133524045859E-02  0.9794104417235E-02  0.0000000000000E+00 -0.4476685160781E-02
-0.2205140671171E-02  0.9561821332444E-02  0.0000000000000E+00 -0.4310891737087E-02
-0.2222838223895E-02  0.9294505830804E-02  0.0000000000000E+00 -0.4202108335814E-02
-0.2206177000343E-02  0.9007040198299E-02  0.0000000000000E+00 -0.4141946907504E-02
-0.2167377730385E-02  0.8707355422859E-02  0.0000000000000E+00 -0.4119416627944E-02
-0.2113851778392E-02  0.8399381129126E-02  0.0000000000000E+00 -0.4124880546255E-02
-0.2049999375121E-02  0.8084795250482E-02  0.0000000000000E+00 -0.4150989394997E-02
-0.1978354682961E-02  0.7763975794138E-02  0.0000000000000E+00 -0.4192711180951E-02
-0.1900387044317E-02  0.7436568120583E-02  0.0000000000000E+00 -0.4247208446329E-02
-0.1817209247928E-02  0.7101955825273E-02  0.0000000000000E+00 -0.4313641111653E-02
-0.1730252546623E-02  0.6759775926871E-02  0.0000000000000E+00 -0.4392551360200E-02
-0.1641784909700E-02  0.6410977944647E-02  0.0000000000000E+00 -0.4483942218143E-02
-0.1554711128448E-02  0.6058292204794E-02  0.0000000000000E+00 -0.4584953460144E-02
-0.1471345799784E-02  0.5704225925531E-02  0.0000000000000E+00 -0.4690194270469E-02
-0.1392344477903E-02  0.5349396277819E-02  0.0000000000000E+00 -0.4793696869480E-02
-0.1316674004139E-02  0.4993056437803E-02  0.0000000000000E+00 -0.4890024073322E-02
-0.1242201003012E-02  0.4634030827260E-02  0.0000000000000E+00 -0.4974760833639E-02
-0.1166404920812E-02  0.4271408881034E-02  0.0000000000000E+00 -0.5044327253335E-02
-0.1086881240885E-02  0.3904867359315E-02  0.0000000000000E+00 -0.5095363483959E-02
-0.1001553566048E-02  0.3534691104849E-02  0.0000000000000E+00 -0.5124082474413E-02
-0.9086782855893E-03  0.3161644828764E-02  0.0000000000000E+00 -0.5125842762823E-02
-0.8067616203598E-03  0.2786796579737E-02  0.0000000000000E+00 -0.5095042568113E-02
-0.6944711063996E-03  0.2411249724609E-02  0.0000000000000E+00 -0.5025601995458E-02
-0.5706432395615E-03  0.2035989477396E-02  0.0000000000000E+00 -0.4911722047834E-02
-0.4344738010548E-03  0.1662055363966E-02  0.0000000000000E+00 -0.4748226116440E-02
-0.2858178805213E-03  0.1290726384848E-02  0.0000000000000E+00 -0.4530882355149E-02
-0.1255403268805E-03  0.9236143503117E-03  0.0000000000000E+00 -0.4257014102093E-02
 0.4404263811231E-04  0.5628212073186E-03  0.0000000000000E+00 -0.3926194575486E-02
 0.2185849237444E-03  0.2112177373916E-03  0.0000000000000E+00 -0.3541021572235E-02
 0.3909831499356E-03 -0.1271337278056E-03  0.0000000000000E+00 -0.3107941368112E-02
 0.5506398375104E-03 -0.4465619154376E-03  0.0000000000000E+00 -0.2638133484460E-02
 0.6830478256623E-03 -0.7397577876992E-03  0.0000000000000E+00 -0.2148086566955E-02
 0.7689143230354E-03 -0.9968573394337E-03  0.0000000000000E+00 -0.1655062583007E-02
 0.7844371011905E-03 -0.1204736454372E-02  0.0000000000000E+00 -0.1167532741495E-02
 0.7080447429335E-03 -0.1352002811585E-02  0.0000000000000E+00 -0.6809794544155E-03
 0.5306695732277E-03 -0.1437301274868E-02  0.0000000000000E+00 -0.1932988030132E-03
-0.2848320576334E-03  0.1013895998964E-01  0.0000000000000E+00 -0.4471033046303E-02
-0.8889858167998E-03  0.1043878971178E-01  0.0000000000000E+00 -0.5004121864873E-02
-0.1468993102883E-02  0.1063942991942E-01  0.0000000000000E+00 -0.5045739990656E-02
-0.1900600355654E-02  0.1067587034963E-01  0.0000000000000E+00 -0.4804966094328E-02
-0.2166178144935E-02  0.1056478999611E-01  0.0000000000000E+00 -0.4494151617344E-02
-0.2303885405492E-02  0.1035571321939E-01  0.0000000000000E+00 -0.4226996505362E-02
-0.2358119346187E-02  0.1009151817980E-01  0.0000000000000E+00 -0.4035374463177E-02
-0.2361147695533E-02  0.9798401712885E-02  0.0000000000000E+00 -0.3913778501829E-02
-0.2332881875659E-02  0.9489941003975E-02  0.0000000000000E+00 -0.3846944271759E-02
-0.2284983049210E-02  0.9172582220409E-02  0.0000000000000E+00 -0.3820280394077E-02
-0.2224190654194E-02  0.8849087691224E-02  0.0000000000000E+00 -0.3822334367300E-02
-0.2154320479536E-02  0.8520295715341E-02  0.0000000000000E+00 -0.3844805402990E-02
-0.2077412336461E-02  0.8185966411573E-02  0.0000000000000E+00 -0.3882115248525E-02
-0.1994489297778E-02  0.7845230934868E-02  0.0000000000000E+00 -0.3931127114561E-02
-0.1906267583774E-02  0.7496990013347E-02  0.0000000000000E+00 -0.3990994586321E-02
-0.1813931784091E-02  0.7140455251164E-02  0.0000000000000E+00 -0.4062622337907E-02
-0.1719791740813E-02  0.6776330980481E-02  0.0000000000000E+00 -0.4146548775195E-02
-0.1627065235269E-02  0.6407336824114E-02  0.0000000000000E+00 -0.4240183478501E-02
-0.1538402507590E-02  0.6036041524482E-02  0.0000000000000E+00 -0.4338008200241E-02
-0.1454584681264E-02  0.5663040881557E-02  0.0000000000000E+00 -0.4433843254017E-02
-0.1374499964980E-02  0.5287533364995E-02  0.0000000000000E+00 -0.4522291012916E-02
-0.1295895073982E-02  0.4908383215668E-02  0.0000000000000E+00 -0.4599310204273E-02
-0.1216229018787E-02  0.4524885435769E-02  0.0000000000000E+00 -0.4661873647099E-02
-0.1133216984119E-02  0.4137074473612E-02  0.0000000000000E+00 -0.4707152277019E-02
-0.1045010113152E-02  0.3745691630663E-02  0.0000000000000E+00 -0.4731743916871E-02
-0.9501419835137E-03  0.3352006060561E-02  0.0000000000000E+00 -0.4731203730162E-02
-0.8473851667086E-03  0.2957599468149E-02  0.0000000000000E+00 -0.4699945509978E-02
-0.7356122018208E-03  0.2564068195800E-02  0.0000000000000E+00 -0.4631789380116E-02
-0.6137761909306E-03  0.2172856547916E-02  0.0000000000000E+00 -0.4520802811803E-02
-0.4810944131144E-03  0.1785426756115E-02  0.0000000000000E+00 -0.4361659354004E-02
-0.3373400236121E-03  0.1403426483127E-02  0.0000000000000E+00 -0.4149950114647E-02
-0.1831677937020E-03  0.1028740325232E-02  0.0000000000000E+00 -0.3882811679711E-02
-0.2052197813973E-04  0.6635911271440E-03  0.0000000000000E+00 -0.3559690223422E-02
 0.1468056264466E-03  0.3107650460035E-03  0.0000000000000E+00 -0.3183260936589E-02
 0.3124285056080E-03 -0.2599981210569E-04  0.0000000000000E+00 -0.2760485875803E-02
 0.4665149886038E-03 -0.3415769453391E-03  0.0000000000000E+00 -0.2303848913785E-02
 0.5950215384449E-03 -0.6292492492596E-03  0.0000000000000E+00 -0.1832329964202E-02
 0.6780656556877E-03 -0.8792651869419E-03  0.0000000000000E+00 -0.1366601209758E-02
 0.6895344566418E-03 -0.1077388269789E-02  0.0000000000000E+00 -0.9168929198725E-03
 0.6057425463566E-03 -0.1210957647079E-02  0.0000000000000E+00 -0.4733366053539E-03
 0.4232250518637E-03 -0.1282841413795E-02  0.0000000000000E+00 -0.2191417604214E-04
-0.3330356485134E-03  0.1077884564832E-01  0.0000000000000E+00 -0.4659721221236E-02
-0.1028627424670E-02  0.1111817326983E-01  0.0000000000000E+00 -0.5126318090848E-02
-0.1668743848431E-02  0.1132264099478E-01  0.0000000000000E+00 -0.5027730508014E-02
-0.2113443374541E-02  0.1132678758375E-01  0.0000000000000E+00 -0.4653212825069E-02
-0.2363890828984E-02  0.1116953594830E-01  0.0000000000000E+00 -0.4256163391123E-02
-0.2478949803157E-02  0.1091780310097E-01  0.0000000000000E+00 -0.3945505432034E-02
-0.2512843060128E-02  0.1061978450135E-01  0.0000000000000E+00 -0.3735009865173E-02
-0.2500008150271E-02  0.1030063065221E-01  0.0000000000000E+00 -0.3605791280191E-02
-0.2459781627533E-02  0.9971564281216E-02  0.0000000000000E+00 -0.3535707087266E-02
-0.2402794449229E-02  0.9637097616675E-02  0.0000000000000E+00 -0.3507050081132E-02
-0.2334906974091E-02  0.9298663498563E-02  0.0000000000000E+00 -0.3506977246546E-02
-0.2259269214408E-02  0.8956224778137E-02  0.0000000000000E+00 -0.3526524809961E-02
-0.2177399314786E-02  0.8608941808121E-02  0.0000000000000E+00 -0.3559721892350E-02
-0.2089850965687E-02  0.8255455219888E-02  0.0000000000000E+00 -0.3603168991494E-02
-0.1996891884571E-02  0.7894170944836E-02  0.0000000000000E+00 -0.3655994494394E-02
-0.1899391576110E-02  0.7523815813912E-02  0.0000000000000E+00 -0.3719494071629E-02
-0.1799673951444E-02  0.7144775835089E-02  0.0000000000000E+00 -0.3794855627298E-02
-0.1701304917445E-02  0.6759707283490E-02  0.0000000000000E+00 -0.3879867368702E-02
-0.1607307611367E-02  0.6371197933809E-02  0.0000000000000E+00 -0.3968917844702E-02
-0.1518569925817E-02  0.5979776370753E-02  0.0000000000000E+00 -0.4055648786591E-02
-0.1433849137508E-02  0.5584562797694E-02  0.0000000000000E+00 -0.4134818721620E-02
-0.1350741415720E-02  0.5184485974594E-02  0.0000000000000E+00 -0.4202932734446E-02
-0.1266696397031E-02  0.4779109055107E-02  0.0000000000000E+00 -0.4257667512793E-02
-0.1179586430764E-02  0.4368895108327E-02  0.0000000000000E+00 -0.4296817054420E-02
-0.1087834317995E-02  0.3955102102703E-02  0.0000000000000E+00 -0.4317408309988E-02
-0.9902924688533E-03  0.3539551959202E-02  0.0000000000000E+00 -0.4315211774751E-02
-0.8860359620521E-03  0.3124383255877E-02  0.0000000000000E+00 -0.4284660668802E-02
-0.7741708526363E-03  0.2711729781956E-02  0.0000000000000E+00 -0.4219469641255E-02
-0.6537897709202E-03  0.2303547160149E-02  0.0000000000000E+00 -0.4113563472090E-02
-0.5241554220548E-03  0.1901786241437E-02  0.0000000000000E+00 -0.3961445253646E-02
-0.3849865061122E-03  0.1508543129053E-02  0.0000000000000E+00 -0.3758473770380E-02
-0.2367508692573E-03  0.1126060824290E-02  0.0000000000000E+00 -0.3501485900498E-02
-0.8102391663689E-04  0.7567605420635E-03  0.0000000000000E+00 -0.3189618610511E-02
 0.7899316234461E-04  0.4033945001410E-03  0.0000000000000E+00 -0.2825371996576E-02
 0.2377337787725E-03  0.6937010523925E-04  0.0000000000000E+00 -0.2415908559472E-02
 0.3863456532267E-03 -0.2408544586759E-03  0.0000000000000E+00 -0.1974693252813E-02
 0.5115848914445E-03 -0.5214720880805E-03  0.0000000000000E+00 -0.1523121234099E-02
 0.5931672728909E-03 -0.7632514406013E-03  0.0000000000000E+00 -0.1086049873009E-02
 0.6018275274495E-03 -0.9506205314598E-03  0.0000000000000E+00 -0.6771178971720E-03
 0.5094726719481E-03 -0.1068153436101E-02  0.0000000000000E+00 -0.2802500263778E-03
 0.3186227074961E-03 -0.1123092110810E-02  0.0000000000000E+00  0.1390886703593E-03
-0.3923743244468E-03  0.1145442760216E-01  0.0000000000000E+00 -0.4878072278060E-02
-0.1196464397382E-02  0.1183718935878E-01  0.0000000000000E+00 -0.5251999809778E-02
-0.1898629895515E-02  0.1203573707775E-01  0.0000000000000E+00 -0.4976891545307E-02
-0.2345901287353E-02  0.1199155659190E-01  0.0000000000000E+00 -0.4453022517782E-02
-0.2570442148310E-02  0.1177670926323E-01  0.0000000000000E+00 -0.3974114552445E-02
-0.2656779893354E-02  0.1147756885037E-01  0.0000000000000E+00 -0.3630442177888E-02
-0.2667913669246E-02  0.1114481804860E-01  0.0000000000000E+00 -0.3409840285108E-02
-0.2638535942640E-02  0.1080013007516E-01  0.0000000000000E+00 -0.3278753039682E-02
-0.2586343903477E-02  0.1045130939810E-01  0.0000000000000E+00 -0.3208935327467E-02
-0.2520502510352E-02  0.1010057886228E-01  0.0000000000000E+00 -0.3180370060598E-02
-0.2445829187403E-02  0.9747948261391E-02  0.0000000000000E+00 -0.3179372418969E-02
-0.2364761508963E-02  0.9392517059127E-02  0.0000000000000E+00 -0.3196659060682E-02
-0.2278299162332E-02  0.9032903285330E-02  0.0000000000000E+00 -0.3226040194486E-02
-0.2186528369305E-02  0.8667317210793E-02  0.0000000000000E+00 -0.3263875246905E-02
-0.2089224251994E-02  0.8293682272087E-02  0.0000000000000E+00 -0.3309197348282E-02
-0.1986858292322E-02  0.7910178318389E-02  0.0000000000000E+00 -0.3363669523241E-02
-0.1881724199385E-02  0.7516773917182E-02  0.0000000000000E+00 -0.3429230205425E-02
-0.1777770284018E-02  0.7115977399998E-02  0.0000000000000E+00 -0.3504165123492E-02
-0.1678429049751E-02  0.6710323428356E-02  0.0000000000000E+00 -0.3582812347306E-02
-0.1584662004513E-02  0.6300208046079E-02  0.0000000000000E+00 -0.3658697594839E-02
-0.1495031755027E-02  0.5884653975889E-02  0.0000000000000E+00 -0.3726909672478E-02
-0.1406959885908E-02  0.5462705435760E-02  0.0000000000000E+00 -0.3784720274706E-02
-0.1317914762090E-02  0.5034285023452E-02  0.0000000000000E+00 -0.3830672027627E-02
-0.1225976924792E-02  0.4600371216974E-02  0.0000000000000E+00 -0.3863258567172E-02
-0.1129890249514E-02  0.4162800608023E-02  0.0000000000000E+00 -0.3879961582460E-02
-0.1028868246622E-02  0.3723991010584E-02  0.0000000000000E+00 -0.3876777972736E-02
-0.9223249859325E-03  0.3286676183318E-02  0.0000000000000E+00 -0.3848167410374E-02
-0.8096296388141E-03  0.2853570648588E-02  0.0000000000000E+00 -0.3787742949789E-02
-0.6900398817473E-03  0.2427197528877E-02  0.0000000000000E+00 -0.3689292116523E-02
-0.5628947701064E-03  0.2010072605370E-02  0.0000000000000E+00 -0.3547144152358E-02
-0.4278990807328E-03  0.1604837066903E-02  0.0000000000000E+00 -0.3356382658948E-02
-0.2853745508722E-03  0.1214200363119E-02  0.0000000000000E+00 -0.3113433384161E-02
-0.1365512302673E-03  0.8408878808735E-03  0.0000000000000E+00 -0.2816928751294E-02
 0.1597402814246E-04  0.4877046873978E-03  0.0000000000000E+00 -0.2468905727510E-02
 0.1675344626624E-03  0.1577670627514E-03  0.0000000000000E+00 -0.2076330576176E-02
 0.3104718930451E-03 -0.1452167654382E-03  0.0000000000000E+00 -0.1653139355555E-02
 0.4328007623695E-03 -0.4167246224683E-03  0.0000000000000E+00 -0.1222752898510E-02
 0.5143572376509E-03 -0.6487819351539E-03  0.0000000000000E+00 -0.8149469634892E-03
 0.5219805896766E-03 -0.8246265569798E-03  0.0000000000000E+00 -0.4495792227097E-03
 0.4194703224136E-03 -0.9238451432067E-03  0.0000000000000E+00 -0.1049784974568E-03
 0.2140288724668E-03 -0.9569955072573E-03  0.0000000000000E+00  0.2865219763074E-03
-0.4669115710528E-03  0.1217529715856E-01  0.0000000000000E+00 -0.5131424657282E-02
-0.1400653953272E-02  0.1260430684323E-01  0.0000000000000E+00 -0.5373839678878E-02
-0.2163294279466E-02  0.1278025620585E-01  0.0000000000000E+00 -0.4876167549415E-02
-0.2597054846250E-02  0.1266607546411E-01  0.0000000000000E+00 -0.4191256541228E-02
-0.2782870164532E-02  0.1238148035510E-01  0.0000000000000E+00 -0.3642848932198E-02
-0.2834914871475E-02  0.1203172574316E-01  0.0000000000000E+00 -0.3281248178845E-02
-0.2821798115060E-02  0.1166474966024E-01  0.0000000000000E+00 -0.3060748790304E-02
-0.2775841173664E-02  0.1129587959517E-01  0.0000000000000E+00 -0.2933761092936E-02
-0.2712064124636E-02  0.1092863858624E-01  0.0000000000000E+00 -0.2867613873180E-02
-0.2637829933888E-02  0.1056275996813E-01  0.0000000000000E+00 -0.2841045431875E-02
-0.2556809839695E-02  0.1019682221039E-01  0.0000000000000E+00 -0.2840169371412E-02
-0.2470723697661E-02  0.9829126781262E-02  0.0000000000000E+00 -0.2855765808791E-02
-0.2380090956145E-02  0.9457848312171E-02  0.0000000000000E+00 -0.2881617808808E-02
-0.2284565445767E-02  0.9080871692069E-02  0.0000000000000E+00 -0.2913852053680E-02
-0.2183401507801E-02  0.8695688448039E-02  0.0000000000000E+00 -0.2951269489615E-02
-0.2076573417350E-02  0.8299873050262E-02  0.0000000000000E+00 -0.2995792555859E-02
-0.1966275084435E-02  0.7892841744861E-02  0.0000000000000E+00 -0.3050175438258E-02
-0.1856863798417E-02  0.7476817642138E-02  0.0000000000000E+00 -0.3113325549376E-02
-0.1752210122598E-02  0.7054160571010E-02  0.0000000000000E+00 -0.3179590937232E-02
-0.1653294436663E-02  0.6625042515837E-02  0.0000000000000E+00 -0.3242501009152E-02
-0.1558411285809E-02  0.6188385186630E-02  0.0000000000000E+00 -0.3297737885044E-02
-0.1464800726494E-02  0.5743443625655E-02  0.0000000000000E+00 -0.3343616471196E-02
-0.1370003898188E-02  0.5290630698404E-02  0.0000000000000E+00 -0.3379704784775E-02
-0.1272376126952E-02  0.4831543487651E-02  0.0000000000000E+00 -0.3405238990398E-02
-0.1171034138056E-02  0.4368655795386E-02  0.0000000000000E+00 -0.3418151814326E-02
-0.1065591520615E-02  0.3905013175702E-02  0.0000000000000E+00 -0.3414668654980E-02
-0.9558357200142E-03  0.3443973711314E-02  0.0000000000000E+00 -0.3389290249990E-02
-0.8414286535670E-03  0.2988873091935E-02  0.0000000000000E+00 -0.3335547198027E-02
-0.7218208302580E-03  0.2542862555555E-02  0.0000000000000E+00 -0.3247116051308E-02
-0.5964664704518E-03  0.2109111363132E-02  0.0000000000000E+00 -0.3118172096363E-02
-0.4651121355768E-03  0.1690921361209E-02  0.0000000000000E+00 -0.2943498100223E-02
-0.3279947406077E-03  0.1291601017188E-02  0.0000000000000E+00 -0.2719003861278E-02
-0.1860470694517E-03  0.9143181077756E-03  0.0000000000000E+00 -0.2442616062661E-02
-0.4127795300946E-04  0.5620620037229E-03  0.0000000000000E+00 -0.2115594418047E-02
 0.1025851340490E-03  0.2377621361937E-03  0.0000000000000E+00 -0.1744243877866E-02
 0.2392516830572E-03 -0.5561249082184E-04  0.0000000000000E+00 -0.1342260517938E-02
 0.3585434830649E-03 -0.3151756861241E-03  0.0000000000000E+00 -0.9341930521653E-03
 0.4414498097172E-03 -0.5353570047956E-03  0.0000000000000E+00 -0.5549899624541E-03
 0.4507150415511E-03 -0.6991963343863E-03  0.0000000000000E+00 -0.2348962302059E-03
 0.3364757762621E-03 -0.7783713199065E-03  0.0000000000000E+00  0.4938228664325E-04
 0.1055266947712E-03 -0.7831312614633E-03  0.0000000000000E+00  0.4159829666411E-03
-0.5628417230943E-03  0.1295547264682E-01  0.0000000000000E+00 -0.5426142759973E-02
-0.1652324089374E-02  0.1343025964610E-01  0.0000000000000E+00 -0.5477867582990E-02
-0.2467045237439E-02  0.1355550595001E-01  0.0000000000000E+00 -0.4700776370979E-02
-0.2863725543411E-02  0.1334297384253E-01  0.0000000000000E+00 -0.3853172636491E-02
-0.2996764385454E-02  0.1297749433641E-01  0.0000000000000E+00 -0.3259107493955E-02
-0.3010487662329E-02  0.1257673101128E-01  0.0000000000000E+00 -0.2899114174486E-02
-0.2972941257432E-02  0.1217778299764E-01  0.0000000000000E+00 -0.2689559436952E-02
-0.2911085342040E-02  0.1178696957714E-01  0.0000000000000E+00 -0.2572414996026E-02
-0.2836498512369E-02  0.1140311676326E-01  0.0000000000000E+00 -0.2513003433271E-02
-0.2754551112620E-02  0.1102345433214E-01  0.0000000000000E+00 -0.2490024757809E-02
-0.2667736910258E-02  0.1064521941365E-01  0.0000000000000E+00 -0.2490085200277E-02
-0.2577097908040E-02  0.1026603480833E-01  0.0000000000000E+00 -0.2504427164858E-02
-0.2482747207796E-02  0.9883768821628E-02  0.0000000000000E+00 -0.2527016935444E-02
-0.2383983469226E-02  0.9496138227494E-02  0.0000000000000E+00 -0.2553756222779E-02
-0.2279542107672E-02  0.9100313628459E-02  0.0000000000000E+00 -0.2582999070496E-02
-0.2168786907973E-02  0.8693226431345E-02  0.0000000000000E+00 -0.2616688420233E-02
-0.2053705110379E-02  0.8273558713821E-02  0.0000000000000E+00 -0.2658379961925E-02
-0.1939068240972E-02  0.7843022937350E-02  0.0000000000000E+00 -0.2707718659171E-02
-0.1829191714577E-02  0.7403598425151E-02  0.0000000000000E+00 -0.2759160396293E-02
-0.1724988747232E-02  0.6955108425913E-02  0.0000000000000E+00 -0.2806467112655E-02
-0.1624410314826E-02  0.6496409145381E-02  0.0000000000000E+00 -0.2846312581342E-02
-0.1524543051662E-02  0.6027134465913E-02  0.0000000000000E+00 -0.2878390445874E-02
-0.1423092057472E-02  0.5548369959966E-02  0.0000000000000E+00 -0.2903424250687E-02
-0.1318769878781E-02  0.5062448386874E-02  0.0000000000000E+00 -0.2921376350852E-02
-0.1211114765227E-02  0.4572527781093E-02  0.0000000000000E+00 -0.2930584932380E-02
-0.1100170209980E-02  0.4082293523726E-02  0.0000000000000E+00 -0.2927496871420E-02
-0.9861260109361E-03  0.3595742206678E-02  0.0000000000000E+00 -0.2906683574669E-02
-0.8689654511898E-03  0.3116866498787E-02  0.0000000000000E+00 -0.2861636479260E-02
-0.7483620149672E-03  0.2649512446250E-02  0.0000000000000E+00 -0.2785976401722E-02
-0.6239332275041E-03  0.2197606568505E-02  0.0000000000000E+00 -0.2673774038151E-02
-0.4955404968163E-03  0.1765247669848E-02  0.0000000000000E+00 -0.2519506664544E-02
-0.3634197508260E-03  0.1356500962655E-02  0.0000000000000E+00 -0.2318475661950E-02
-0.2282829141667E-03  0.9751502698320E-03  0.0000000000000E+00 -0.2067706225213E-02
-0.9160443985312E-04  0.6245540428410E-03  0.0000000000000E+00 -0.1767355054516E-02
 0.4381147428134E-04  0.3076394139075E-03  0.0000000000000E+00 -0.1422557672349E-02
 0.1731167793548E-03  0.2679372230921E-04  0.0000000000000E+00 -0.1045901097945E-02
 0.2884603623112E-03 -0.2168903253855E-03  0.0000000000000E+00 -0.6614945775975E-03
 0.3736567846888E-03 -0.4217359184911E-03  0.0000000000000E+00 -0.3084197384524E-03
 0.3885636162626E-03 -0.5731846542210E-03  0.0000000000000E+00 -0.3244401008218E-04
 0.2621259942790E-03 -0.6320048316552E-03  0.0000000000000E+00  0.1808193034495E-03
-0.1224233394970E-04 -0.5995140513957E-03  0.0000000000000E+00  0.5213003841260E-03
-0.6899556028771E-03  0.1381639636047E-01  0.0000000000000E+00 -0.5769369608276E-02
-0.1966687702945E-02  0.1432824103354E-01  0.0000000000000E+00 -0.5537646985311E-02
-0.2812363495754E-02  0.1435582944346E-01  0.0000000000000E+00 -0.4415295613662E-02
-0.3139102594448E-02  0.1401017013495E-01  0.0000000000000E+00 -0.3424500368151E-02
-0.3206222752881E-02  0.1355716241295E-01  0.0000000000000E+00 -0.2823422671150E-02
-0.3180514596265E-02  0.1310918095113E-01  0.0000000000000E+00 -0.2487366883711E-02
-0.3119902758864E-02  0.1268234010948E-01  0.0000000000000E+00 -0.2299024563811E-02
-0.3043540490716E-02  0.1227267331056E-01  0.0000000000000E+00 -0.2196801858590E-02
-0.2959299454187E-02  0.1187445263094E-01  0.0000000000000E+00 -0.2146611771268E-02
-0.2870511135549E-02  0.1148257575322E-01  0.0000000000000E+00 -0.2128372682878E-02
-0.2778545135620E-02  0.1109314090465E-01  0.0000000000000E+00 -0.2129881715287E-02
-0.2683848600487E-02  0.1070325713835E-01  0.0000000000000E+00 -0.2143223401931E-02
-0.2586232185098E-02  0.1031065111469E-01  0.0000000000000E+00 -0.2162780458459E-02
-0.2484766926246E-02  0.9913083542741E-02  0.0000000000000E+00 -0.2184267368766E-02
-0.2377724766966E-02  0.9507608698930E-02  0.0000000000000E+00 -0.2205304653595E-02
-0.2263743758843E-02  0.9090536364551E-02  0.0000000000000E+00 -0.2227420764187E-02
-0.2144445715417E-02  0.8659576373847E-02  0.0000000000000E+00 -0.2254794450121E-02
-0.2024973328103E-02  0.8215554020958E-02  0.0000000000000E+00 -0.2287881924238E-02
-0.1910043649462E-02  0.7759717511529E-02  0.0000000000000E+00 -0.2321424718498E-02
-0.1800373998588E-02  0.7291380365197E-02  0.0000000000000E+00 -0.2349852580602E-02
-0.1693514191609E-02  0.6809454477202E-02  0.0000000000000E+00 -0.2371429598438E-02
-0.1586489642528E-02  0.6314235022644E-02  0.0000000000000E+00 -0.2387607348873E-02
-0.1477309743781E-02  0.5807724460776E-02  0.0000000000000E+00 -0.2400318464653E-02
-0.1365139137070E-02  0.5293114062473E-02  0.0000000000000E+00 -0.2410143102134E-02
-0.1249974492506E-02  0.4774269877550E-02  0.0000000000000E+00 -0.2415724177202E-02
-0.1132301599616E-02  0.4255498153234E-02  0.0000000000000E+00 -0.2413715197753E-02
-0.1012731591733E-02  0.3741425007083E-02  0.0000000000000E+00 -0.2398814424025E-02
-0.8915958952689E-03  0.3236729440794E-02  0.0000000000000E+00 -0.2364555525503E-02
-0.7688246969889E-03  0.2746029260565E-02  0.0000000000000E+00 -0.2304598586996E-02
-0.6442588316972E-03  0.2274132405576E-02  0.0000000000000E+00 -0.2212993313738E-02
-0.5179668933348E-03  0.1826092487014E-02  0.0000000000000E+00 -0.2083928571780E-02
-0.3902906505541E-03  0.1406912198061E-02  0.0000000000000E+00 -0.1912023520254E-02
-0.2618283593885E-03  0.1021201597411E-02  0.0000000000000E+00 -0.1693228556167E-02
-0.1336191938235E-03  0.6729356544231E-03  0.0000000000000E+00 -0.1426281441408E-02
-0.7624167499110E-05  0.3653164005870E-03  0.0000000000000E+00 -0.1114623164151E-02
 0.1126788887753E-03  0.1004821784196E-03  0.0000000000000E+00 -0.7688209937057E-03
 0.2220116472957E-03 -0.1219813960360E-03  0.0000000000000E+00 -0.4103699670086E-03
 0.3091949665461E-03 -0.3056518917278E-03  0.0000000000000E+00 -0.7895768777366E-04
 0.3352366681109E-03 -0.4434920902927E-03  0.0000000000000E+00  0.1600191110679E-03
 0.1994889426864E-03 -0.4843942809978E-03  0.0000000000000E+00  0.2903774986044E-03
-0.1465388944386E-03 -0.4031294379659E-03  0.0000000000000E+00  0.5939366752492E-03
-0.8643395840198E-03  0.1479275035108E-01  0.0000000000000E+00 -0.6167580988826E-02
-0.2364283322318E-02  0.1531290957812E-01  0.0000000000000E+00 -0.5502677968284E-02
-0.3196582861046E-02  0.1516513973283E-01  0.0000000000000E+00 -0.3971109841107E-02
-0.3411035315771E-02  0.1464963686678E-01  0.0000000000000E+00 -0.2896605787776E-02
-0.3404393964534E-02  0.1411280982211E-01  0.0000000000000E+00 -0.2342347010260E-02
-0.3342359636965E-02  0.1362628188442E-01  0.0000000000000E+00 -0.2051345373897E-02
-0.3261469127227E-02  0.1317717316568E-01  0.0000000000000E+00 -0.1892734206431E-02
-0.3172651843915E-02  0.1275253052198E-01  0.0000000000000E+00 -0.1809459798315E-02
-0.3080251066376E-02  0.1234253436179E-01  0.0000000000000E+00 -0.1770136495883E-02
-0.2985641788825E-02  0.1194015656772E-01  0.0000000000000E+00 -0.1757235831100E-02
-0.2889227022780E-02  0.1154066688328E-01  0.0000000000000E+00 -0.1760339178690E-02
-0.2790970778024E-02  0.1114085517891E-01  0.0000000000000E+00 -0.1772704658092E-02
-0.2690502752601E-02  0.1073848047926E-01  0.0000000000000E+00 -0.1789387368625E-02
-0.2586845874964E-02  0.1033160177101E-01  0.0000000000000E+00 -0.1806037358609E-02
-0.2477954222294E-02  0.9917500231597E-02  0.0000000000000E+00 -0.1819232353104E-02
-0.2361658161305E-02  0.9492027204124E-02  0.0000000000000E+00 -0.1829373162312E-02
-0.2238989820905E-02  0.9051629973502E-02  0.0000000000000E+00 -0.1840751992420E-02
-0.2115317176141E-02  0.8595602087930E-02  0.0000000000000E+00 -0.1854586683948E-02
-0.1995609730413E-02  0.8123853435484E-02  0.0000000000000E+00 -0.1866257279701E-02
-0.1880208916989E-02  0.7635004039180E-02  0.0000000000000E+00 -0.1871686373004E-02
-0.1766269714389E-02  0.7128319511165E-02  0.0000000000000E+00 -0.1871608257684E-02
-0.1650956370988E-02  0.6605209947047E-02  0.0000000000000E+00 -0.1869597831469E-02
-0.1532780349147E-02  0.6068901197865E-02  0.0000000000000E+00 -0.1868698093801E-02
-0.1411455911891E-02  0.5523554999120E-02  0.0000000000000E+00 -0.1869870605216E-02
-0.1287451323902E-02  0.4973731517058E-02  0.0000000000000E+00 -0.1871895123135E-02
-0.1161678498250E-02  0.4424293572938E-02  0.0000000000000E+00 -0.1871610676596E-02
-0.1035172015774E-02  0.3880451989204E-02  0.0000000000000E+00 -0.1863942173278E-02
-0.9086359459891E-03  0.3347592866353E-02  0.0000000000000E+00 -0.1842608265373E-02
-0.7822984770787E-03  0.2831202699206E-02  0.0000000000000E+00 -0.1801458207755E-02
-0.6563003507590E-03  0.2337124559306E-02  0.0000000000000E+00 -0.1734638139154E-02
-0.5310296224901E-03  0.1871544185836E-02  0.0000000000000E+00 -0.1636081158360E-02
-0.4070611911624E-03  0.1440598283385E-02  0.0000000000000E+00 -0.1499677299160E-02
-0.2850177610063E-03  0.1049968966234E-02  0.0000000000000E+00 -0.1320175195209E-02
-0.1656575422040E-03  0.7045664118465E-03  0.0000000000000E+00 -0.1094621808805E-02
-0.5025125111779E-04  0.4082565322998E-03  0.0000000000000E+00 -0.8242372541951E-03
 0.5888815138255E-04  0.1634070774934E-03  0.0000000000000E+00 -0.5167373589327E-03
 0.1587042501259E-03 -0.3099222190131E-04  0.0000000000000E+00 -0.1888145760702E-03
 0.2448805741511E-03 -0.1837687228021E-03  0.0000000000000E+00  0.1262508879116E-03
 0.2882014662002E-03 -0.3032683464142E-03  0.0000000000000E+00  0.3458033830592E-03
 0.1535661824643E-03 -0.3328564189708E-03  0.0000000000000E+00  0.3860483116909E-03
-0.3070943079821E-03 -0.1887164149119E-03  0.0000000000000E+00  0.6229386969788E-03
-0.1113483341199E-02  0.1594480503892E-01  0.0000000000000E+00 -0.6620887433355E-02
-0.2871484857515E-02  0.1639479110112E-01  0.0000000000000E+00 -0.5274426971127E-02
-0.3604798098174E-02  0.1594636993608E-01  0.0000000000000E+00 -0.3308381630888E-02
-0.3660818520631E-02  0.1523844869215E-01  0.0000000000000E+00 -0.2277263322130E-02
-0.3585194597174E-02  0.1463901373574E-01  0.0000000000000E+00 -0.1829366331674E-02
-0.3494150667074E-02  0.1412600024479E-01  0.0000000000000E+00 -0.1597512816938E-02
-0.3396702600908E-02  0.1366150069050E-01  0.0000000000000E+00 -0.1475147928163E-02
-0.3298124027753E-02  0.1322643555574E-01  0.0000000000000E+00 -0.1413255525560E-02
-0.3199292532639E-02  0.1280744890807E-01  0.0000000000000E+00 -0.1385389274325E-02
-0.3099974919249E-02  0.1239636539839E-01  0.0000000000000E+00 -0.1377805694409E-02
-0.2999842596753E-02  0.1198796537594E-01  0.0000000000000E+00 -0.1382225915224E-02
-0.2898499934059E-02  0.1157894779387E-01  0.0000000000000E+00 -0.1393366404973E-02
-0.2795515739931E-02  0.1116725533618E-01  0.0000000000000E+00 -0.1407199846673E-02
-0.2690077539226E-02  0.1075149903784E-01  0.0000000000000E+00 -0.1419602654916E-02
-0.2580107050832E-02  0.1032971222487E-01  0.0000000000000E+00 -0.1425921954684E-02
-0.2462664036010E-02  0.9897765648623E-02  0.0000000000000E+00 -0.1424367423098E-02
-0.2337902806669E-02  0.9450553994418E-02  0.0000000000000E+00 -0.1418166911403E-02
-0.2211054476930E-02  0.8984695823636E-02  0.0000000000000E+00 -0.1408932931592E-02
-0.2086973062292E-02  0.8497687019580E-02  0.0000000000000E+00 -0.1393434632724E-02
-0.1965403587500E-02  0.7987316750313E-02  0.0000000000000E+00 -0.1370650066483E-02
-0.1843274347346E-02  0.7453852674678E-02  0.0000000000000E+00 -0.1345013963419E-02
-0.1718254538087E-02  0.6900507483857E-02  0.0000000000000E+00 -0.1322430638776E-02
-0.1589607376646E-02  0.6332076324918E-02  0.0000000000000E+00 -0.1306696303130E-02
-0.1457678106449E-02  0.5753765254935E-02  0.0000000000000E+00 -0.1298761243129E-02
-0.1323382400657E-02  0.5170762550027E-02  0.0000000000000E+00 -0.1297298862796E-02
-0.1187999291868E-02  0.4588361405824E-02  0.0000000000000E+00 -0.1299303456142E-02
-0.1052960229298E-02  0.4012254601294E-02  0.0000000000000E+00 -0.1300092823634E-02
-0.9193641206271E-03  0.3448543829643E-02  0.0000000000000E+00 -0.1293817173857E-02
-0.7877965375179E-03  0.2903723577871E-02  0.0000000000000E+00 -0.1274742306294E-02
-0.6588001959558E-03  0.2384871440286E-02  0.0000000000000E+00 -0.1237247280492E-02
-0.5332114833387E-03  0.1899492495168E-02  0.0000000000000E+00 -0.1175037511881E-02
-0.4119779966769E-03  0.1455052997847E-02  0.0000000000000E+00 -0.1081269442643E-02
-0.2959154438926E-03  0.1058588893995E-02  0.0000000000000E+00 -0.9494439357772E-03
-0.1857152962506E-03  0.7163400026610E-03  0.0000000000000E+00 -0.7747301541811E-03
-0.8221872385628E-04  0.4333662001053E-03  0.0000000000000E+00 -0.5556482713381E-03
 0.1319053086890E-04  0.2128604204520E-03  0.0000000000000E+00 -0.2962167320617E-03
 0.9867510971540E-04  0.5445061917636E-04  0.0000000000000E+00 -0.7313218614358E-05
 0.1761487328673E-03 -0.5257719059049E-04  0.0000000000000E+00  0.2932630806123E-03
 0.2398540830713E-03 -0.1392415236826E-03  0.0000000000000E+00  0.5254819394214E-03
 0.1309451798415E-03 -0.1676010232225E-03  0.0000000000000E+00  0.4894998696565E-03
-0.5067752603289E-03  0.5480780693112E-04  0.0000000000000E+00  0.5977988908721E-03
-0.1485941537415E-02  0.1738813209708E-01  0.0000000000000E+00 -0.7101076898056E-02
-0.3516630354697E-02  0.1755667757888E-01  0.0000000000000E+00 -0.4655145160123E-02
-0.3995400344459E-02  0.1662399936909E-01  0.0000000000000E+00 -0.2378282445458E-02
-0.3865771231170E-02  0.1575836970017E-01  0.0000000000000E+00 -0.1607897723025E-02
-0.3746445270058E-02  0.1513441328847E-01  0.0000000000000E+00 -0.1299838666661E-02
-0.3634467857910E-02  0.1460660590341E-01  0.0000000000000E+00 -0.1133097474249E-02
-0.3525109536536E-02  0.1413542551172E-01  0.0000000000000E+00 -0.1051712896391E-02
-0.3420002497791E-02  0.1369460127538E-01  0.0000000000000E+00 -0.1011050113836E-02
-0.3316514196501E-02  0.1326952225633E-01  0.0000000000000E+00 -0.9942833065328E-03
-0.3213661572571E-02  0.1285151175789E-01  0.0000000000000E+00 -0.9912490527439E-03
-0.3110522277521E-02  0.1243529947670E-01  0.0000000000000E+00 -0.9962750029258E-03
-0.3006524112388E-02  0.1201772149431E-01  0.0000000000000E+00 -0.1005631320261E-02
-0.2901247206208E-02  0.1159701640064E-01  0.0000000000000E+00 -0.1016416158616E-02
-0.2794236794598E-02  0.1117250081133E-01  0.0000000000000E+00 -0.1025240057978E-02
-0.2683847088405E-02  0.1074364933385E-01  0.0000000000000E+00 -0.1026494433257E-02
-0.2566718089766E-02  0.1030749592530E-01  0.0000000000000E+00 -0.1014836925110E-02
-0.2441838167130E-02  0.9857306603856E-02  0.0000000000000E+00 -0.9898835747141E-03
-0.2313475488329E-02  0.9384890779003E-02  0.0000000000000E+00 -0.9524792640015E-03
-0.2185549932284E-02  0.8883367735549E-02  0.0000000000000E+00 -0.9024863547654E-03
-0.2057032046741E-02  0.8349848489961E-02  0.0000000000000E+00 -0.8448966625995E-03
-0.1925149530149E-02  0.7786912720506E-02  0.0000000000000E+00 -0.7893734992491E-03
-0.1788665063580E-02  0.7200526289325E-02  0.0000000000000E+00 -0.7438947602468E-03
-0.1647858508993E-02  0.6597375827280E-02  0.0000000000000E+00 -0.7122779533933E-03
-0.1503742986938E-02  0.5983710034292E-02  0.0000000000000E+00 -0.6949090581232E-03
-0.1357608984655E-02  0.5365218115568E-02  0.0000000000000E+00 -0.6900373549420E-03
-0.1210984233200E-02  0.4747421564922E-02  0.0000000000000E+00 -0.6947529081173E-03
-0.1065618047543E-02  0.4136290294913E-02  0.0000000000000E+00 -0.7050230883173E-03
-0.9230234517787E-03  0.3538627677092E-02  0.0000000000000E+00 -0.7158668543183E-03
-0.7842477461429E-03  0.2962171637394E-02  0.0000000000000E+00 -0.7223080244776E-03
-0.6503781991285E-03  0.2415506383407E-02  0.0000000000000E+00 -0.7190587638311E-03
-0.5228324956601E-03  0.1907622315035E-02  0.0000000000000E+00 -0.6995820728848E-03
-0.4030609776413E-03  0.1447483370149E-02  0.0000000000000E+00 -0.6563635675280E-03
-0.2922813420676E-03  0.1043791118519E-02  0.0000000000000E+00 -0.5817701357825E-03
-0.1913814444898E-03  0.7046207693892E-03  0.0000000000000E+00 -0.4689726694820E-03
-0.1011880268464E-03  0.4368423789751E-03  0.0000000000000E+00 -0.3135519815126E-03
-0.2246208828360E-04  0.2454223754996E-03  0.0000000000000E+00 -0.1146421039036E-03
 0.4359123158948E-04  0.1311122150988E-03  0.0000000000000E+00  0.1223593239361E-03
 0.9883437435576E-04  0.8836774383847E-04  0.0000000000000E+00  0.3974668379727E-03
 0.1727623013987E-03  0.7021419651504E-04  0.0000000000000E+00  0.6836570543454E-03
 0.1358723143359E-03  0.4111322845157E-04  0.0000000000000E+00  0.6446587093328E-03
-0.7631397489070E-03  0.3556404043496E-03  0.0000000000000E+00  0.5221728054958E-03
-0.2067293288699E-02  0.1937930334419E-01  0.0000000000000E+00 -0.7457775558995E-02
-0.4306695322624E-02  0.1865073223411E-01  0.0000000000000E+00 -0.3239603135265E-02
-0.4274259535441E-02  0.1707946158410E-01  0.0000000000000E+00 -0.1243168689240E-02
-0.4016069821173E-02  0.1622322259255E-01  0.0000000000000E+00 -0.9659112649496E-03
-0.3890719478849E-02  0.1559399802596E-01  0.0000000000000E+00 -0.7564215181699E-03
-0.3761087026171E-02  0.1506910989343E-01  0.0000000000000E+00 -0.6713898895607E-03
-0.3647501056531E-02  0.1459952493322E-01  0.0000000000000E+00 -0.6265668028834E-03
-0.3538411332634E-02  0.1415768164983E-01  0.0000000000000E+00 -0.6060930559375E-03
-0.3432259034217E-02  0.1372930883459E-01  0.0000000000000E+00 -0.5985934833888E-03
-0.3326949278894E-02  0.1330605168887E-01  0.0000000000000E+00 -0.5986951922273E-03
-0.3221477312670E-02  0.1288303060506E-01  0.0000000000000E+00 -0.6031446099289E-03
-0.3115188711925E-02  0.1245743421742E-01  0.0000000000000E+00 -0.6098430231086E-03
-0.3007729804204E-02  0.1202788611208E-01  0.0000000000000E+00 -0.6170641376720E-03
-0.2899041882350E-02  0.1159432880870E-01  0.0000000000000E+00 -0.6227576555918E-03
-0.2788498537748E-02  0.1115824022674E-01  0.0000000000000E+00 -0.6217395361515E-03
-0.2673400078637E-02  0.1072028925244E-01  0.0000000000000E+00 -0.6040783805216E-03
-0.2551564787714E-02  0.1027302086524E-01  0.0000000000000E+00 -0.5603412852928E-03
-0.2424428199701E-02  0.9799132045443E-02  0.0000000000000E+00 -0.4873930496292E-03
-0.2293217071522E-02  0.9283658512311E-02  0.0000000000000E+00 -0.3923617580202E-03
-0.2156315173168E-02  0.8724275198524E-02  0.0000000000000E+00 -0.2918019340454E-03
-0.2012491767847E-02  0.8128305292501E-02  0.0000000000000E+00 -0.2019005256723E-03
-0.1862404741785E-02  0.7505572604317E-02  0.0000000000000E+00 -0.1314980915258E-03
-0.1707547678679E-02  0.6864855126036E-02  0.0000000000000E+00 -0.8326163248079E-04
-0.1549558813768E-02  0.6213315906383E-02  0.0000000000000E+00 -0.5632633891506E-04
-0.1389981412791E-02  0.5556959712357E-02  0.0000000000000E+00 -0.4815692264831E-04
-0.1230402309738E-02  0.4901269468928E-02  0.0000000000000E+00 -0.5578202241158E-04
-0.1072702269459E-02  0.4252085880284E-02  0.0000000000000E+00 -0.7616284026457E-04
-0.9188193247650E-03  0.3616841422481E-02  0.0000000000000E+00 -0.1060183694483E-03
-0.7704813428729E-03  0.3004991382129E-02  0.0000000000000E+00 -0.1416468227559E-03
-0.6295266716944E-03  0.2427004989773E-02  0.0000000000000E+00 -0.1779907401467E-03
-0.4980457712355E-03  0.1893415519642E-02  0.0000000000000E+00 -0.2081564043643E-03
-0.3780960252403E-03  0.1414795932882E-02  0.0000000000000E+00 -0.2241776823168E-03
-0.2715087573537E-03  0.1001859967973E-02  0.0000000000000E+00 -0.2175865164066E-03
-0.1798332036209E-03  0.6651356552148E-03  0.0000000000000E+00 -0.1797475225803E-03
-0.1040635928207E-03  0.4141471954980E-03  0.0000000000000E+00 -0.1026524265332E-03
-0.4581784214919E-04  0.2564316287840E-03  0.0000000000000E+00  0.1880497058498E-04
-0.3193629379838E-05  0.1954909131788E-03  0.0000000000000E+00  0.1903101288388E-03
 0.1546217627513E-04  0.2296951190851E-03  0.0000000000000E+00  0.4059961154531E-03
 0.5580377550363E-04  0.3476066263330E-03  0.0000000000000E+00  0.7545948234806E-03
 0.1526780648133E-03  0.3734377212525E-03  0.0000000000000E+00  0.9098134236133E-03
-0.1102311545436E-02  0.8035252562480E-03  0.0000000000000E+00  0.4716515155134E-03
-0.2979665284038E-02  0.2263647410526E-01  0.0000000000000E+00 -0.6933606099261E-02
-0.5117876731133E-02  0.1886975381524E-01  0.0000000000000E+00 -0.2432581742085E-03
-0.4275978605299E-02  0.1740430335760E-01  0.0000000000000E+00 -0.4592310137235E-03
-0.4169334622040E-02  0.1662413342540E-01  0.0000000000000E+00 -0.2831841914369E-03
-0.4001524399197E-02  0.1602031919588E-01  0.0000000000000E+00 -0.2411431539491E-03
-0.3879401584818E-02  0.1551559617942E-01  0.0000000000000E+00 -0.2166316414665E-03
-0.3763553779586E-02  0.1505511855508E-01  0.0000000000000E+00 -0.2056559395573E-03
-0.3654237455627E-02  0.1461674274079E-01  0.0000000000000E+00 -0.2010257200785E-03
-0.3546941268629E-02  0.1418758665838E-01  0.0000000000000E+00 -0.2000475913449E-03
-0.3440225093179E-02  0.1376058376434E-01  0.0000000000000E+00 -0.2011427986164E-03
-0.3332991061425E-02  0.1333161663359E-01  0.0000000000000E+00 -0.2034069814039E-03
-0.3224694453888E-02  0.1289842296637E-01  0.0000000000000E+00 -0.2062339977676E-03
-0.3115092394479E-02  0.1246006571964E-01  0.0000000000000E+00 -0.2090960743063E-03
-0.3004284289224E-02  0.1201693957536E-01  0.0000000000000E+00 -0.2113158528980E-03
-0.2892881091348E-02  0.1157183559231E-01  0.0000000000000E+00 -0.2112739423261E-03
-0.2781466092260E-02  0.1113368669998E-01  0.0000000000000E+00 -0.1965846038812E-03
-0.2668031542837E-02  0.1069916495753E-01  0.0000000000000E+00 -0.1370063786936E-03
-0.2546766696666E-02  0.1023201708496E-01  0.0000000000000E+00 -0.1647491445156E-04
-0.2412446560949E-02  0.9701981898114E-02  0.0000000000000E+00  0.1392846866161E-03
-0.2264534894896E-02  0.9112311372352E-02  0.0000000000000E+00  0.2922837174623E-03
-0.2105803779880E-02  0.8478690761913E-02  0.0000000000000E+00  0.4207595475635E-03
-0.1939583368958E-02  0.7815810453923E-02  0.0000000000000E+00  0.5175060796931E-03
-0.1768618996272E-02  0.7134478634334E-02  0.0000000000000E+00  0.5826390715443E-03
-0.1594994652060E-02  0.6442466927599E-02  0.0000000000000E+00  0.6190351459210E-03
-0.1420356749253E-02  0.5745835093192E-02  0.0000000000000E+00  0.6302858513766E-03
-0.1246117579976E-02  0.5049836489626E-02  0.0000000000000E+00  0.6198433031961E-03
-0.1073853307908E-02  0.4359329425698E-02  0.0000000000000E+00  0.5894967858386E-03
-0.9059008115054E-03  0.3682089378427E-02  0.0000000000000E+00  0.5390357172557E-03
-0.7451983009297E-03  0.3030448925060E-02  0.0000000000000E+00  0.4701120304045E-03
-0.5946130337533E-03  0.2417201921528E-02  0.0000000000000E+00  0.3883616310587E-03
-0.4568476288742E-03  0.1854159303604E-02  0.0000000000000E+00  0.3012038608974E-03
-0.3346108780102E-03  0.1353591326801E-02  0.0000000000000E+00  0.2165312634567E-03
-0.2306445521023E-03  0.9285972015359E-03  0.0000000000000E+00  0.1430701719201E-03
-0.1475301594249E-03  0.5928712460375E-03  0.0000000000000E+00  0.9087577715872E-04
-0.8766083910161E-04  0.3598253094571E-03  0.0000000000000E+00  0.7147811980190E-04
-0.5171810868054E-04  0.2402565382130E-03  0.0000000000000E+00  0.9683839919539E-04
-0.4404059938912E-04  0.2416100030514E-03  0.0000000000000E+00  0.1760308681821E-03
-0.4796241578742E-04  0.3645596535798E-03  0.0000000000000E+00  0.3274037511245E-03
-0.1467316854542E-03  0.6433310339707E-03  0.0000000000000E+00  0.5350979472453E-03
 0.1034963458224E-03  0.1049357817435E-02  0.0000000000000E+00  0.1276141038530E-02
-0.1641406629429E-02  0.1689409404625E-02  0.0000000000000E+00  0.7494155613633E-03
 0.2509905432478E-01 -0.7868486622903E-01  0.0000000000000E+00 -0.6575643236423E+00
 0.5059462465416E-01 -0.1024428693752E+00  0.0000000000000E+00 -0.6774772878976E+00
 0.7933691954215E-01 -0.1291060463312E+00  0.0000000000000E+00 -0.6864657631938E+00
 0.1075550734168E+00 -0.1550450753874E+00  0.0000000000000E+00 -0.6855186288888E+00
 0.1329142991362E+00 -0.1780592796850E+00  0.0000000000000E+00 -0.6773273948503E+00
 0.1542248438555E+00 -0.1970479529636E+00  0.0000000000000E+00 -0.6648115027303E+00
 0.1710688568088E+00 -0.2116609469748E+00  0.0000000000000E+00 -0.6505580319774E+00
 0.1835214222419E+00 -0.2220218749307E+00  0.0000000000000E+00 -0.6365642046650E+00
 0.1919240290836E+00 -0.2285036156542E+00  0.0000000000000E+00 -0.6241370406200E+00
 0.1967047841974E+00 -0.2315488455577E+00  0.0000000000000E+00 -0.6139077977008E+00
 0.1982442657750E+00 -0.2315368379204E+00  0.0000000000000E+00 -0.6059256507450E+00
 0.1967747670742E+00 -0.2286948426472E+00  0.0000000000000E+00 -0.5998068959062E+00
 0.1924334568247E+00 -0.2231428200985E+00  0.0000000000000E+00 -0.5951393711202E+00
 0.1853626002671E+00 -0.2150009695816E+00  0.0000000000000E+00 -0.5914470906167E+00
 0.1757091616497E+00 -0.2043960218397E+00  0.0000000000000E+00 -0.5880653313756E+00
 0.1636368789672E+00 -0.1914628358676E+00  0.0000000000000E+00 -0.5842902004358E+00
 0.1493272154044E+00 -0.1763456093857E+00  0.0000000000000E+00 -0.5792881853836E+00
 0.1329296245598E+00 -0.1592140235338E+00  0.0000000000000E+00 -0.5722969791807E+00
 0.1148815619317E+00 -0.1403292275678E+00  0.0000000000000E+00 -0.5621629770475E+00
 0.9329541687250E-01 -0.1195125019339E+00  0.0000000000000E+00 -0.5430359637487E+00
 0.2451089391479E-01 -0.7744839250765E-01  0.0000000000000E+00 -0.6499637735879E+00
 0.4942285942452E-01 -0.1007213256377E+00  0.0000000000000E+00 -0.6686734227236E+00
 0.7743305546807E-01 -0.1267492784587E+00  0.0000000000000E+00 -0.6784281973157E+00
 0.1051349970824E+00 -0.1522882079093E+00  0.0000000000000E+00 -0.6795569865441E+00
 0.1303312045231E+00 -0.1752502446870E+00  0.0000000000000E+00 -0.6740548783916E+00
 0.1518119722219E+00 -0.1945131755249E+00  0.0000000000000E+00 -0.6643647433430E+00
 0.1690835178490E+00 -0.2096476604911E+00  0.0000000000000E+00 -0.6527653965116E+00
 0.1821249181376E+00 -0.2206802916922E+00  0.0000000000000E+00 -0.6410913374325E+00
 0.1911878884036E+00 -0.2278943817205E+00  0.0000000000000E+00 -0.6306018592768E+00
 0.1966307423120E+00 -0.2316644841195E+00  0.0000000000000E+00 -0.6219578309839E+00
 0.1987865214527E+00 -0.2323271517498E+00  0.0000000000000E+00 -0.6152731887141E+00
 0.1978665812867E+00 -0.2300881046359E+00  0.0000000000000E+00 -0.6102587794374E+00
 0.1940009013363E+00 -0.2250632625537E+00  0.0000000000000E+00 -0.6065547506720E+00
 0.1873187229856E+00 -0.2173620355302E+00  0.0000000000000E+00 -0.6037056648344E+00
 0.1779548572779E+00 -0.2070973008489E+00  0.0000000000000E+00 -0.6010976286686E+00
 0.1660785736732E+00 -0.1944105989595E+00  0.0000000000000E+00 -0.5980493674069E+00
 0.1518624444774E+00 -0.1794598566426E+00  0.0000000000000E+00 -0.5936953121980E+00
 0.1355250123788E+00 -0.1624232279440E+00  0.0000000000000E+00 -0.5869233257919E+00
 0.1164628253726E+00 -0.1430394329719E+00  0.0000000000000E+00 -0.5751214566824E+00
 0.9393926895987E-01 -0.1200442890138E+00  0.0000000000000E+00 -0.5603110945865E+00
 0.2405873670016E-01 -0.7644738254367E-01  0.0000000000000E+00 -0.6423224986449E+00
 0.4859092703694E-01 -0.9938757700883E-01  0.0000000000000E+00 -0.6598635272536E+00
 0.7600482278119E-01 -0.1249076271278E+00  0.0000000000000E+00 -0.6702714533652E+00
 0.1032604902495E+00 -0.1500970068338E+00  0.0000000000000E+00 -0.6732519557070E+00
 0.1282943841540E+00 -0.1729968589992E+00  0.0000000000000E+00 -0.6702344388918E+00
 0.1499047842812E+00 -0.1924849067791E+00  0.0000000000000E+00 -0.6632156743960E+00
 0.1675412269569E+00 -0.2080726163891E+00  0.0000000000000E+00 -0.6541807673377E+00
 0.1811042702829E+00 -0.2197064645895E+00  0.0000000000000E+00 -0.6447971215314E+00
 0.1907675647154E+00 -0.2275916680599E+00  0.0000000000000E+00 -0.6362602849818E+00
 0.1968244062354E+00 -0.2320394227647E+00  0.0000000000000E+00 -0.6292394291825E+00
 0.1995606419249E+00 -0.2333410351623E+00  0.0000000000000E+00 -0.6239044592679E+00
 0.1991655308718E+00 -0.2316819465672E+00  0.0000000000000E+00 -0.6200501694430E+00
 0.1957587536810E+00 -0.2271694344025E+00  0.0000000000000E+00 -0.6173648597677E+00
 0.1894563711750E+00 -0.2199012940607E+00  0.0000000000000E+00 -0.6154260069157E+00
 0.1803854408231E+00 -0.2099832389558E+00  0.0000000000000E+00 -0.6136560153373E+00
 0.1687013197366E+00 -0.1975500628486E+00  0.0000000000000E+00 -0.6113671181846E+00
 0.1545645901233E+00 -0.1827408194412E+00  0.0000000000000E+00 -0.6076111235051E+00
 0.1379339109684E+00 -0.1655703433233E+00  0.0000000000000E+00 -0.6009364325539E+00
 0.1182779103877E+00 -0.1454545264121E+00  0.0000000000000E+00 -0.5903849617654E+00
 0.9586640160115E-01 -0.1224752015246E+00  0.0000000000000E+00 -0.5783281701844E+00
 0.2371119252314E-01 -0.7561833775753E-01  0.0000000000000E+00 -0.6346173173038E+00
 0.4804766275229E-01 -0.9839535251493E-01  0.0000000000000E+00 -0.6510715305247E+00
 0.7500074266609E-01 -0.1235222395495E+00  0.0000000000000E+00 -0.6620085977653E+00
 0.1018781783170E+00 -0.1484178187341E+00  0.0000000000000E+00 -0.6666526436762E+00
 0.1267603903549E+00 -0.1712547638617E+00  0.0000000000000E+00 -0.6659279809444E+00
 0.1484699072163E+00 -0.1909297276470E+00  0.0000000000000E+00 -0.6614311396749E+00
 0.1664192072772E+00 -0.2069132437669E+00  0.0000000000000E+00 -0.6548656921126E+00
 0.1804453402232E+00 -0.2190866139031E+00  0.0000000000000E+00 -0.6477302216953E+00
 0.1906543135794E+00 -0.2275870913673E+00  0.0000000000000E+00 -0.6411444701751E+00
 0.1972798525897E+00 -0.2326671542836E+00  0.0000000000000E+00 -0.6357725174860E+00
 0.2005630915663E+00 -0.2345750142790E+00  0.0000000000000E+00 -0.6318289555391E+00
 0.2006699125527E+00 -0.2334742197695E+00  0.0000000000000E+00 -0.6291810515800E+00
 0.1977075809490E+00 -0.2294612729798E+00  0.0000000000000E+00 -0.6275651139775E+00
 0.1917793586281E+00 -0.2226227176461E+00  0.0000000000000E+00 -0.6265917546021E+00
 0.1829991251390E+00 -0.2130539061745E+00  0.0000000000000E+00 -0.6257083423475E+00
 0.1715009068998E+00 -0.2008694732055E+00  0.0000000000000E+00 -0.6242111467323E+00
 0.1573638288051E+00 -0.1861461568818E+00  0.0000000000000E+00 -0.6210850115449E+00
 0.1404793381489E+00 -0.1687621865731E+00  0.0000000000000E+00 -0.6152304137368E+00
 0.1205922457833E+00 -0.1484042379671E+00  0.0000000000000E+00 -0.6062890087886E+00
 0.9837878138305E-01 -0.1256251715781E+00  0.0000000000000E+00 -0.5959105218409E+00
 0.2344823704190E-01 -0.7493072787743E-01  0.0000000000000E+00 -0.6267912505263E+00
 0.4774708729604E-01 -0.9769004762934E-01  0.0000000000000E+00 -0.6422717383546E+00
 0.7436889649034E-01 -0.1225392941092E+00  0.0000000000000E+00 -0.6536519101511E+00
 0.1009385558912E+00 -0.1471986372020E+00  0.0000000000000E+00 -0.6597924263025E+00
 0.1256860611207E+00 -0.1699800888402E+00  0.0000000000000E+00 -0.6611866607408E+00
 0.1474736865348E+00 -0.1898135744145E+00  0.0000000000000E+00 -0.6590671794453E+00
 0.1656929712591E+00 -0.2061450307015E+00  0.0000000000000E+00 -0.6548724992117E+00
 0.1801313314948E+00 -0.2188040419181E+00  0.0000000000000E+00 -0.6499326831661E+00
 0.1908368046636E+00 -0.2278692343293E+00  0.0000000000000E+00 -0.6452839205768E+00
 0.1979894698790E+00 -0.2335398648031E+00  0.0000000000000E+00 -0.6415745619328E+00
 0.2017887534033E+00 -0.2360236049744E+00  0.0000000000000E+00 -0.6390533972580E+00
 0.2023767065656E+00 -0.2354614934954E+00  0.0000000000000E+00 -0.6376498923025E+00
 0.1998466703960E+00 -0.2319376560513E+00  0.0000000000000E+00 -0.6371459719624E+00
 0.1942872354078E+00 -0.2255260194072E+00  0.0000000000000E+00 -0.6371836589242E+00
 0.1857947668674E+00 -0.2163062104748E+00  0.0000000000000E+00 -0.6372318593322E+00
 0.1744654482412E+00 -0.2043600074864E+00  0.0000000000000E+00 -0.6365821727732E+00
 0.1603288413158E+00 -0.1897025885873E+00  0.0000000000000E+00 -0.6343165763242E+00
 0.1433069490900E+00 -0.1722269645005E+00  0.0000000000000E+00 -0.6296039639719E+00
 0.1233569874010E+00 -0.1518340741051E+00  0.0000000000000E+00 -0.6222188170827E+00
 0.1012925622179E+00 -0.1292492774179E+00  0.0000000000000E+00 -0.6130941971370E+00
 0.2325564954784E-01 -0.7436134785393E-01  0.0000000000000E+00 -0.6187975684031E+00
 0.4765259798461E-01 -0.9722876305521E-01  0.0000000000000E+00 -0.6334294269821E+00
 0.7406202012431E-01 -0.1219075234282E+00  0.0000000000000E+00 -0.6451990937140E+00
 0.1003944090825E+00 -0.1463903260760E+00  0.0000000000000E+00 -0.6526958294408E+00
 0.1250296703856E+00 -0.1691298372128E+00  0.0000000000000E+00 -0.6560506626427E+00
 0.1468821655766E+00 -0.1891019290868E+00  0.0000000000000E+00 -0.6561704890556E+00
 0.1653367077246E+00 -0.2057418896408E+00  0.0000000000000E+00 -0.6542455813663E+00
 0.1801434341529E+00 -0.2188397783898E+00  0.0000000000000E+00 -0.6514409888345E+00
 0.1913016522173E+00 -0.2284245106878E+00  0.0000000000000E+00 -0.6487045035793E+00
 0.1989438094289E+00 -0.2346477839509E+00  0.0000000000000E+00 -0.6466604064943E+00
 0.2032309478210E+00 -0.2376797188866E+00  0.0000000000000E+00 -0.6455823713376E+00
 0.2042814489470E+00 -0.2376388319597E+00  0.0000000000000E+00 -0.6454526105393E+00
 0.2021732126496E+00 -0.2345953943637E+00  0.0000000000000E+00 -0.6460953992530E+00
 0.1969782149524E+00 -0.2286085448289E+00  0.0000000000000E+00 -0.6471840238019E+00
 0.1887702074494E+00 -0.2197375206656E+00  0.0000000000000E+00 -0.6482129714329E+00
 0.1776124554411E+00 -0.2080299086701E+00  0.0000000000000E+00 -0.6485141020468E+00
 0.1635175478537E+00 -0.1934776941823E+00  0.0000000000000E+00 -0.6472871916589E+00
 0.1464588783815E+00 -0.1760199905992E+00  0.0000000000000E+00 -0.6438507805670E+00
 0.1265300805584E+00 -0.1557005400799E+00  0.0000000000000E+00 -0.6379371579827E+00
 0.1045563721347E+00 -0.1332708151272E+00  0.0000000000000E+00 -0.6299037130920E+00
 0.2312238181689E-01 -0.7389170735373E-01  0.0000000000000E+00 -0.6105962105330E+00
 0.4773402086768E-01 -0.9697551604340E-01  0.0000000000000E+00 -0.6245093449757E+00
 0.7403830913400E-01 -0.1215812758294E+00  0.0000000000000E+00 -0.6366403115865E+00
 0.1002016578963E+00 -0.1459464239619E+00  0.0000000000000E+00 -0.6453779482655E+00
 0.1247508878552E+00 -0.1686623103243E+00  0.0000000000000E+00 -0.6505513867429E+00
 0.1466614758872E+00 -0.1887601006306E+00  0.0000000000000E+00 -0.6527793677245E+00
 0.1653236004947E+00 -0.2056765299589E+00  0.0000000000000E+00 -0.6530224802630E+00
 0.1804612488326E+00 -0.2191730804384E+00  0.0000000000000E+00 -0.6522864582142E+00
 0.1920336757007E+00 -0.2292373980275E+00  0.0000000000000E+00 -0.6514284426172E+00
 0.2001316779142E+00 -0.2359793098501E+00  0.0000000000000E+00 -0.6510422386915E+00
 0.2048813843138E+00 -0.2395345824791E+00  0.0000000000000E+00 -0.6514182862260E+00
 0.2063780217099E+00 -0.2399995963002E+00  0.0000000000000E+00 -0.6525831166754E+00
 0.2046828884355E+00 -0.2374294824577E+00  0.0000000000000E+00 -0.6544005363700E+00
 0.1998496054789E+00 -0.2318667788208E+00  0.0000000000000E+00 -0.6565769267227E+00
 0.1919294439087E+00 -0.2233490727921E+00  0.0000000000000E+00 -0.6586448958737E+00
 0.1809628528643E+00 -0.2118998390926E+00  0.0000000000000E+00 -0.6599947122126E+00
 0.1669619272572E+00 -0.1975075585430E+00  0.0000000000000E+00 -0.6599237792785E+00
 0.1499455040578E+00 -0.1801565372389E+00  0.0000000000000E+00 -0.6578206665346E+00
 0.1300859928036E+00 -0.1599734929361E+00  0.0000000000000E+00 -0.6533202073281E+00
 0.1081629311943E+00 -0.1376716210348E+00  0.0000000000000E+00 -0.6463418697497E+00
 0.2303946846471E-01 -0.7350626092511E-01  0.0000000000000E+00 -0.6021532492468E+00
 0.4796593133172E-01 -0.9689961755069E-01  0.0000000000000E+00 -0.6154783558275E+00
 0.7426076372796E-01 -0.1215197706406E+00  0.0000000000000E+00 -0.6279619181332E+00
 0.1003195496279E+00 -0.1458236854997E+00  0.0000000000000E+00 -0.6378468963811E+00
 0.1248110303699E+00 -0.1685372414016E+00  0.0000000000000E+00 -0.6447125383429E+00
 0.1467780415706E+00 -0.1887535189516E+00  0.0000000000000E+00 -0.6489249743330E+00
 0.1656261449031E+00 -0.2059207862996E+00  0.0000000000000E+00 -0.6512346595404E+00
 0.1810630701246E+00 -0.2197817435832E+00  0.0000000000000E+00 -0.6524957165854E+00
 0.1930161108419E+00 -0.2302906663901E+00  0.0000000000000E+00 -0.6534744980631E+00
 0.2015402289984E+00 -0.2375210941824E+00  0.0000000000000E+00 -0.6547296819586E+00
 0.2067301427896E+00 -0.2415777187226E+00  0.0000000000000E+00 -0.6565615927186E+00
 0.2086587744362E+00 -0.2425354840053E+00  0.0000000000000E+00 -0.6590339448260E+00
 0.2073701513136E+00 -0.2404335816741E+00  0.0000000000000E+00 -0.6620480416060E+00
 0.2028993447565E+00 -0.2352973332393E+00  0.0000000000000E+00 -0.6653471088623E+00
 0.1952779522668E+00 -0.2271451464023E+00  0.0000000000000E+00 -0.6685095841023E+00
 0.1845315357129E+00 -0.2159849437123E+00  0.0000000000000E+00 -0.6709856455471E+00
 0.1706772359590E+00 -0.2018094853726E+00  0.0000000000000E+00 -0.6721444708322E+00
 0.1537665387394E+00 -0.1846368822397E+00  0.0000000000000E+00 -0.6714006631133E+00
 0.1340111556756E+00 -0.1646360004597E+00  0.0000000000000E+00 -0.6682849309640E+00
 0.1121197816818E+00 -0.1424531987347E+00  0.0000000000000E+00 -0.6623883807616E+00
 0.2299938076971E-01 -0.7319153963648E-01  0.0000000000000E+00 -0.5934399121099E+00
 0.4832645211257E-01 -0.9697432369533E-01  0.0000000000000E+00 -0.6063063778178E+00
 0.7469642341146E-01 -0.1216864050189E+00  0.0000000000000E+00 -0.6191486669748E+00
 0.1007104627455E+00 -0.1459819348881E+00  0.0000000000000E+00 -0.6301058417310E+00
 0.1251731646878E+00 -0.1687159775312E+00  0.0000000000000E+00 -0.6385515875915E+00
 0.1471987725915E+00 -0.1890479392929E+00  0.0000000000000E+00 -0.6446323324329E+00
 0.1662163725655E+00 -0.2064458797760E+00  0.0000000000000E+00 -0.6489082680308E+00
 0.1819261117337E+00 -0.2206423464678E+00  0.0000000000000E+00 -0.6520911518632E+00
 0.1942307749346E+00 -0.2315655561842E+00  0.0000000000000E+00 -0.6548582344273E+00
 0.2031550547705E+00 -0.2392581375874E+00  0.0000000000000E+00 -0.6577300011342E+00
 0.2087657449113E+00 -0.2437970003152E+00  0.0000000000000E+00 -0.6610110730735E+00
 0.2111146426372E+00 -0.2452366829087E+00  0.0000000000000E+00 -0.6647965035347E+00
 0.2102285926292E+00 -0.2436003255070E+00  0.0000000000000E+00 -0.6690237841873E+00
 0.2061251015387E+00 -0.2388967837699E+00  0.0000000000000E+00 -0.6734756095350E+00
 0.1988192399172E+00 -0.2311284657797E+00  0.0000000000000E+00 -0.6777784698075E+00
 0.1883263656241E+00 -0.2202931571769E+00  0.0000000000000E+00 -0.6814368030964E+00
 0.1746686511829E+00 -0.2063890335841E+00  0.0000000000000E+00 -0.6838706599084E+00
 0.1579177497147E+00 -0.1894559625971E+00  0.0000000000000E+00 -0.6844990044349E+00
 0.1382989569432E+00 -0.1696785019543E+00  0.0000000000000E+00 -0.6827604675052E+00
 0.1164398347878E+00 -0.1476249247644E+00  0.0000000000000E+00 -0.6780069054890E+00
 0.2299563216727E-01 -0.7293560199005E-01  0.0000000000000E+00 -0.5844318761519E+00
 0.4879641361323E-01 -0.9717592186329E-01  0.0000000000000E+00 -0.5969666469769E+00
 0.7531566698944E-01 -0.1220480483061E+00  0.0000000000000E+00 -0.6101850337237E+00
 0.1013395873589E+00 -0.1463837943811E+00  0.0000000000000E+00 -0.6221546036829E+00
 0.1258020855372E+00 -0.1691614957178E+00  0.0000000000000E+00 -0.6320811085576E+00
 0.1478911912749E+00 -0.1896096020235E+00  0.0000000000000E+00 -0.6399213290035E+00
 0.1670660304567E+00 -0.2072226170663E+00  0.0000000000000E+00 -0.6460648465164E+00
 0.1830266837373E+00 -0.2217304463534E+00  0.0000000000000E+00 -0.6510913983352E+00
 0.1956582087838E+00 -0.2330419299295E+00  0.0000000000000E+00 -0.6555923455669E+00
 0.2049602887216E+00 -0.2411738931597E+00  0.0000000000000E+00 -0.6600483692543E+00
 0.2109752379024E+00 -0.2461787411457E+00  0.0000000000000E+00 -0.6647640535658E+00
 0.2137352538151E+00 -0.2480919784605E+00  0.0000000000000E+00 -0.6698610834157E+00
 0.2132507440922E+00 -0.2469212772103E+00  0.0000000000000E+00 -0.6753117999648E+00
 0.2095231348865E+00 -0.2426604129217E+00  0.0000000000000E+00 -0.6809390736986E+00
 0.2025534858229E+00 -0.2352984923680E+00  0.0000000000000E+00 -0.6864160430732E+00
 0.1923491323766E+00 -0.2248258836085E+00  0.0000000000000E+00 -0.6912939587146E+00
 0.1789349760542E+00 -0.2112444742746E+00  0.0000000000000E+00 -0.6950290543263E+00
 0.1623927783612E+00 -0.1946059268920E+00  0.0000000000000E+00 -0.6970354050797E+00
 0.1429454273242E+00 -0.1750943278827E+00  0.0000000000000E+00 -0.6966773540490E+00
 0.1211380592558E+00 -0.1531984519455E+00  0.0000000000000E+00 -0.6931392130091E+00
 0.2302251308300E-01 -0.7272767150911E-01  0.0000000000000E+00 -0.5751087172656E+00
 0.4935874464102E-01 -0.9748306509462E-01  0.0000000000000E+00 -0.5874357098243E+00
 0.7609162199695E-01 -0.1225744454702E+00  0.0000000000000E+00 -0.6010560233450E+00
 0.1021745766870E+00 -0.1469943594906E+00  0.0000000000000E+00 -0.6139908470895E+00
 0.1266642170796E+00 -0.1698383384133E+00  0.0000000000000E+00 -0.6253099306586E+00
 0.1488234929076E+00 -0.1904053212793E+00  0.0000000000000E+00 -0.6348076356766E+00
 0.1681467119140E+00 -0.2082215437738E+00  0.0000000000000E+00 -0.6427220073283E+00
 0.1843403357970E+00 -0.2230207381812E+00  0.0000000000000E+00 -0.6495118200142E+00
 0.1972778021349E+00 -0.2346984078001E+00  0.0000000000000E+00 -0.6556870070417E+00
 0.2069387056196E+00 -0.2432503735739E+00  0.0000000000000E+00 -0.6616881318042E+00
 0.2133442680833E+00 -0.2487077767305E+00  0.0000000000000E+00 -0.6678165525294E+00
 0.2165088928053E+00 -0.2510887580214E+00  0.0000000000000E+00 -0.6742166945432E+00
 0.2164277068898E+00 -0.2503865644470E+00  0.0000000000000E+00 -0.6808940090430E+00
 0.2130875793904E+00 -0.2465813995235E+00  0.0000000000000E+00 -0.6877105918753E+00
 0.2064772618470E+00 -0.2396509633140E+00  0.0000000000000E+00 -0.6943830131103E+00
 0.1965966842424E+00 -0.2295791865987E+00  0.0000000000000E+00 -0.7005023166286E+00
 0.1834705570831E+00 -0.2163690622050E+00  0.0000000000000E+00 -0.7055511862131E+00
 0.1671832701843E+00 -0.2000766215424E+00  0.0000000000000E+00 -0.7089359210670E+00
 0.1479461072192E+00 -0.1808762949141E+00  0.0000000000000E+00 -0.7099638313942E+00
 0.1262251128770E+00 -0.1591814887181E+00  0.0000000000000E+00 -0.7077057144480E+00
 0.2307490841624E-01 -0.7255788308092E-01  0.0000000000000E+00 -0.5654534915436E+00
 0.4999802340276E-01 -0.9787628100476E-01  0.0000000000000E+00 -0.5776933098407E+00
 0.7699968147004E-01 -0.1232377234724E+00  0.0000000000000E+00 -0.5917476761613E+00
 0.1031852171206E+00 -0.1477808823621E+00  0.0000000000000E+00 -0.6056109775785E+00
 0.1277274793864E+00 -0.1707125030115E+00  0.0000000000000E+00 -0.6182441004023E+00
 0.1499645602338E+00 -0.1914025226888E+00  0.0000000000000E+00 -0.6293035421485E+00
 0.1694299496352E+00 -0.2094130562451E+00  0.0000000000000E+00 -0.6388940832212E+00
 0.1858419745053E+00 -0.2244871859676E+00  0.0000000000000E+00 -0.6473649954153E+00
 0.1990679039195E+00 -0.2365124879153E+00  0.0000000000000E+00 -0.6551502375235E+00
 0.2090718084186E+00 -0.2454682458788E+00  0.0000000000000E+00 -0.6626510659823E+00
 0.2158571110685E+00 -0.2513675082479E+00  0.0000000000000E+00 -0.6701634003319E+00
 0.2194223936368E+00 -0.2542129140005E+00  0.0000000000000E+00 -0.6778510851218E+00
 0.2197488440416E+00 -0.2539845529305E+00  0.0000000000000E+00 -0.6857505049745E+00
 0.2168101206732E+00 -0.2506504226720E+00  0.0000000000000E+00 -0.6937609297935E+00
 0.2105836807014E+00 -0.2441779910735E+00  0.0000000000000E+00 -0.7016384928083E+00
 0.2010618079747E+00 -0.2345447497045E+00  0.0000000000000E+00 -0.7090081088748E+00
 0.1882662119979E+00 -0.2217521726492E+00  0.0000000000000E+00 -0.7153725620465E+00
 0.1722786137659E+00 -0.2058554184798E+00  0.0000000000000E+00 -0.7201303653557E+00
 0.1532936487129E+00 -0.1870144240836E+00  0.0000000000000E+00 -0.7225460982781E+00
 0.1317051513325E+00 -0.1655744694389E+00  0.0000000000000E+00 -0.7216184872705E+00
 0.2314816615555E-01 -0.7241709967854E-01  0.0000000000000E+00 -0.5554524116832E+00
 0.5070014027855E-01 -0.9833760261549E-01  0.0000000000000E+00 -0.5677222340754E+00
 0.7801711168920E-01 -0.1240119897745E+00  0.0000000000000E+00 -0.5822473848467E+00
 0.1043431322621E+00 -0.1487124839928E+00  0.0000000000000E+00 -0.5970108118389E+00
 0.1289611435807E+00 -0.1717513144250E+00  0.0000000000000E+00 -0.6108876704680E+00
 0.1512839482503E+00 -0.1925692474603E+00  0.0000000000000E+00 -0.6234186895909E+00
 0.1708872797821E+00 -0.2107674827509E+00  0.0000000000000E+00 -0.6345927312896E+00
 0.1875059598860E+00 -0.2261031328648E+00  0.0000000000000E+00 -0.6446611879723E+00
 0.2010059185137E+00 -0.2384606531309E+00  0.0000000000000E+00 -0.6539882578987E+00
 0.2113398980900E+00 -0.2478069111518E+00  0.0000000000000E+00 -0.6629376412180E+00
 0.2184966765700E+00 -0.2541399164144E+00  0.0000000000000E+00 -0.6717984196390E+00
 0.2224610386505E+00 -0.2574487435925E+00  0.0000000000000E+00 -0.6807509697959E+00
 0.2232016031417E+00 -0.2577016478903E+00  0.0000000000000E+00 -0.6898601256414E+00
 0.2206799230329E+00 -0.2548555558464E+00  0.0000000000000E+00 -0.6990596818295E+00
 0.2148626771276E+00 -0.2488683429003E+00  0.0000000000000E+00 -0.7081414306478E+00
 0.2057338452321E+00 -0.2397105661950E+00  0.0000000000000E+00 -0.7167593442330E+00
 0.1933096965982E+00 -0.2273798687175E+00  0.0000000000000E+00 -0.7244320747220E+00
 0.1776655918963E+00 -0.2119269356832E+00  0.0000000000000E+00 -0.7305513342494E+00
 0.1589772020319E+00 -0.1934950647205E+00  0.0000000000000E+00 -0.7343506963166E+00
 0.1375755672133E+00 -0.1723707716626E+00  0.0000000000000E+00 -0.7347883764675E+00
 0.2323800137813E-01 -0.7229677661754E-01  0.0000000000000E+00 -0.5450945955650E+00
 0.5145204175781E-01 -0.9885028733442E-01  0.0000000000000E+00 -0.5575081548811E+00
 0.7912273550058E-01 -0.1248730073449E+00  0.0000000000000E+00 -0.5725440958389E+00
 0.1056215257924E+00 -0.1497599021772E+00  0.0000000000000E+00 -0.5881860872944E+00
 0.1303356900016E+00 -0.1729232962670E+00  0.0000000000000E+00 -0.6032433492081E+00
 0.1527518525164E+00 -0.1938741364275E+00  0.0000000000000E+00 -0.6171607131569E+00
 0.1724902852871E+00 -0.2122551417178E+00  0.0000000000000E+00 -0.6298274904493E+00
 0.1893061843195E+00 -0.2278413927237E+00  0.0000000000000E+00 -0.6414087988173E+00
 0.2030683874779E+00 -0.2405184632667E+00  0.0000000000000E+00 -0.6522058486853E+00
 0.2137221293124E+00 -0.2502445689097E+00  0.0000000000000E+00 -0.6625473016095E+00
 0.2212445092185E+00 -0.2570055676776E+00  0.0000000000000E+00 -0.6727146837261E+00
 0.2256084973610E+00 -0.2607788845327E+00  0.0000000000000E+00 -0.6829023945429E+00
 0.2267714503873E+00 -0.2615222146844E+00  0.0000000000000E+00 -0.6932010946233E+00
 0.2246836880149E+00 -0.2591823139364E+00  0.0000000000000E+00 -0.7035762160330E+00
 0.2193012945929E+00 -0.2537077431155E+00  0.0000000000000E+00 -0.7138515471607E+00
 0.2105991171177E+00 -0.2450614139066E+00  0.0000000000000E+00 -0.7237062133109E+00
 0.1985859454007E+00 -0.2332352029137E+00  0.0000000000000E+00 -0.7326717466897E+00
 0.1833282684317E+00 -0.2182729018408E+00  0.0000000000000E+00 -0.7401342733113E+00
 0.1649824137296E+00 -0.2003008793226E+00  0.0000000000000E+00 -0.7453057190425E+00
 0.1438272025854E+00 -0.1795572948934E+00  0.0000000000000E+00 -0.7471264557075E+00
 0.2334042513806E-01 -0.7218885953523E-01  0.0000000000000E+00 -0.5343718688672E+00
 0.5224153451993E-01 -0.9939860121256E-01  0.0000000000000E+00 -0.5470394805885E+00
 0.8029667754677E-01 -0.1257979327636E+00  0.0000000000000E+00 -0.5626284370385E+00
 0.1069949627033E+00 -0.1508952760524E+00  0.0000000000000E+00 -0.5791328535646E+00
 0.1318226774775E+00 -0.1741980501682E+00  0.0000000000000E+00 -0.5953130360662E+00
 0.1543390707391E+00 -0.1952864046140E+00  0.0000000000000E+00 -0.6105358016246E+00
 0.1742106258756E+00 -0.2138463848339E+00  0.0000000000000E+00 -0.6246062911683E+00
 0.1912161385762E+00 -0.2296743278437E+00  0.0000000000000E+00 -0.6376147993296E+00
 0.2052310611625E+00 -0.2426606365833E+00  0.0000000000000E+00 -0.6498067094610E+00
 0.2161965618711E+00 -0.2527582760470E+00  0.0000000000000E+00 -0.6614787783049E+00
 0.2240808027453E+00 -0.2599436320616E+00  0.0000000000000E+00 -0.6729048393891E+00
 0.2288468135794E+00 -0.2641843001976E+00  0.0000000000000E+00 -0.6842911681498E+00
 0.2304418850833E+00 -0.2654285877277E+00  0.0000000000000E+00 -0.6957516387406E+00
 0.2288057753445E+00 -0.2636137749432E+00  0.0000000000000E+00 -0.7072804239309E+00
 0.2238839447513E+00 -0.2586791510441E+00  0.0000000000000E+00 -0.7187299845670E+00
 0.2156412292553E+00 -0.2505791965025E+00  0.0000000000000E+00 -0.7298013822298E+00
 0.2040772563423E+00 -0.2392984281031E+00  0.0000000000000E+00 -0.7400367650568E+00
 0.1892480156082E+00 -0.2248721924410E+00  0.0000000000000E+00 -0.7488177059725E+00
 0.1712913998227E+00 -0.2074108870625E+00  0.0000000000000E+00 -0.7553413714159E+00
 0.1504446554785E+00 -0.1871147690236E+00  0.0000000000000E+00 -0.7585452029161E+00
 0.2345169167256E-01 -0.7208570701033E-01  0.0000000000000E+00 -0.5232786084391E+00
 0.5305713517755E-01 -0.9996765268878E-01  0.0000000000000E+00 -0.5363072202965E+00
 0.8152016037596E-01 -0.1267651061858E+00  0.0000000000000E+00 -0.5524927974840E+00
 0.1084391864821E+00 -0.1520919654599E+00  0.0000000000000E+00 -0.5698477755569E+00
 0.1333946282126E+00 -0.1755461485190E+00  0.0000000000000E+00 -0.5870982637316E+00
 0.1560169647770E+00 -0.1967758139931E+00  0.0000000000000E+00 -0.6035491829395E+00
 0.1760200614625E+00 -0.2155116318537E+00  0.0000000000000E+00 -0.6189359181561E+00
 0.1932089705323E+00 -0.2315739183321E+00  0.0000000000000E+00 -0.6332851421269E+00
 0.2074689664917E+00 -0.2448611266362E+00  0.0000000000000E+00 -0.6467938198986E+00
 0.2187402168768E+00 -0.2553240098093E+00  0.0000000000000E+00 -0.6597304264671E+00
 0.2269844361187E+00 -0.2629319229111E+00  0.0000000000000E+00 -0.6723614687999E+00
 0.2321564368172E+00 -0.2676443114913E+00  0.0000000000000E+00 -0.6849033112532E+00
 0.2341945080192E+00 -0.2694011392945E+00  0.0000000000000E+00 -0.6974905478528E+00
 0.2330283523130E+00 -0.2681307360601E+00  0.0000000000000E+00 -0.7101433209797E+00
 0.2285926390847E+00 -0.2637630106775E+00  0.0000000000000E+00 -0.7227397965179E+00
 0.2208413185372E+00 -0.2562432149439E+00  0.0000000000000E+00 -0.7350002675875E+00
 0.2097634654970E+00 -0.2455471937767E+00  0.0000000000000E+00 -0.7464756311315E+00
 0.1954035718141E+00 -0.2317009168957E+00  0.0000000000000E+00 -0.7565434681215E+00
 0.1778827443653E+00 -0.2148004916939E+00  0.0000000000000E+00 -0.7643905992727E+00
 0.1574066301567E+00 -0.1950180751347E+00  0.0000000000000E+00 -0.7689599544585E+00
 0.2356825853647E-01 -0.7198003155744E-01  0.0000000000000E+00 -0.5118116166299E+00
 0.5388795473410E-01 -0.1005432643742E+00  0.0000000000000E+00 -0.5253048643337E+00
 0.8277534168602E-01 -0.1277538837348E+00  0.0000000000000E+00 -0.5421313757056E+00
 0.1099309681116E+00 -0.1533244018064E+00  0.0000000000000E+00 -0.5603283703056E+00
 0.1350249294090E+00 -0.1769390427491E+00  0.0000000000000E+00 -0.5786005648334E+00
 0.1577574268922E+00 -0.1983126491110E+00  0.0000000000000E+00 -0.5962055453222E+00
 0.1778904732218E+00 -0.2172214019518E+00  0.0000000000000E+00 -0.6128224289362E+00
 0.1952575406607E+00 -0.2335118274849E+00  0.0000000000000E+00 -0.6284251496152E+00
 0.2097564753199E+00 -0.2470931992316E+00  0.0000000000000E+00 -0.6431697981133E+00
 0.2213291421357E+00 -0.2579167398162E+00  0.0000000000000E+00 -0.6573005744824E+00
 0.2299330319115E+00 -0.2659469597087E+00  0.0000000000000E+00 -0.6710774647253E+00
 0.2355162877485E+00 -0.2711366653540E+00  0.0000000000000E+00 -0.6847254918455E+00
 0.2380091225146E+00 -0.2734183848461E+00  0.0000000000000E+00 -0.6983976676595E+00
 0.2373315531497E+00 -0.2727118823447E+00  0.0000000000000E+00 -0.7121375344869E+00
 0.2334071987231E+00 -0.2689374764158E+00  0.0000000000000E+00 -0.7258463407028E+00
 0.2261782685257E+00 -0.2620304026662E+00  0.0000000000000E+00 -0.7392612920514E+00
 0.2156221103868E+00 -0.2519567311800E+00  0.0000000000000E+00 -0.7519403440700E+00
 0.2017711226116E+00 -0.2387325218148E+00  0.0000000000000E+00 -0.7632570008131E+00
 0.1847315774545E+00 -0.2224415732275E+00  0.0000000000000E+00 -0.7723898346865E+00
 0.1646864043490E+00 -0.2032366690204E+00  0.0000000000000E+00 -0.7782904674142E+00
 0.2368675712102E-01 -0.7186485465150E-01  0.0000000000000E+00 -0.4999700196531E+00
 0.5472361028924E-01 -0.1011118744248E+00  0.0000000000000E+00 -0.5140282809282E+00
 0.8404518556431E-01 -0.1287445046568E+00  0.0000000000000E+00 -0.5315402086138E+00
 0.1114479833888E+00 -0.1545679668252E+00  0.0000000000000E+00 -0.5505731945960E+00
 0.1366877521073E+00 -0.1783489877119E+00  0.0000000000000E+00 -0.5698217783454E+00
 0.1595328532127E+00 -0.1998676986125E+00  0.0000000000000E+00 -0.5885094037663E+00
 0.1797938861832E+00 -0.2189463454541E+00  0.0000000000000E+00 -0.6062715328475E+00
 0.1973344782160E+00 -0.2354594670256E+00  0.0000000000000E+00 -0.6230398806130E+00
 0.2120673769499E+00 -0.2493295130888E+00  0.0000000000000E+00 -0.6389372526640E+00
 0.2239384886710E+00 -0.2605105113322E+00  0.0000000000000E+00 -0.6541878757363E+00
 0.2329030343777E+00 -0.2689640515822E+00  0.0000000000000E+00 -0.6690464039113E+00
 0.2389038482052E+00 -0.2746376298161E+00  0.0000000000000E+00 -0.6837454356834E+00
 0.2418638542346E+00 -0.2774571094841E+00  0.0000000000000E+00 -0.6984543331260E+00
 0.2416936397506E+00 -0.2773339577255E+00  0.0000000000000E+00 -0.7132377116326E+00
 0.2383054473498E+00 -0.2741786204039E+00  0.0000000000000E+00 -0.7280176071891E+00
 0.2316289037810E+00 -0.2679155376178E+00  0.0000000000000E+00 -0.7425461196576E+00
 0.2216285878051E+00 -0.2585000301497E+00  0.0000000000000E+00 -0.7563866116333E+00
 0.2083244128963E+00 -0.2459379195115E+00  0.0000000000000E+00 -0.7689077056060E+00
 0.1918097513449E+00 -0.2303026645204E+00  0.0000000000000E+00 -0.7792797726585E+00
 0.1722523587647E+00 -0.2117350966160E+00  0.0000000000000E+00 -0.7864622383696E+00
 0.2380397089725E-01 -0.7173347264204E-01  0.0000000000000E+00 -0.4877551840749E+00
 0.5555415808040E-01 -0.1016604612445E+00  0.0000000000000E+00 -0.5024756268593E+00
 0.8531336156210E-01 -0.1297179871351E+00  0.0000000000000E+00 -0.5207171867072E+00
 0.1129687149760E+00 -0.1557988959536E+00  0.0000000000000E+00 -0.5405819933639E+00
 0.1383579868213E+00 -0.1797489821781E+00  0.0000000000000E+00 -0.5607643049269E+00
 0.1613161263266E+00 -0.2014122450047E+00  0.0000000000000E+00 -0.5804654174028E+00
 0.1817024964844E+00 -0.2206572794082E+00  0.0000000000000E+00 -0.5992889315737E+00
 0.1994122415844E+00 -0.2373880659532E+00  0.0000000000000E+00 -0.6171344721783E+00
 0.2143749578397E+00 -0.2515422075272E+00  0.0000000000000E+00 -0.6340991215193E+00
 0.2265425997281E+00 -0.2630785414058E+00  0.0000000000000E+00 -0.6503916526969E+00
 0.2358698052160E+00 -0.2719573995603E+00  0.0000000000000E+00 -0.6662629075584E+00
 0.2422952699649E+00 -0.2781221094654E+00  0.0000000000000E+00 -0.6819523069490E+00
 0.2457352833956E+00 -0.2814925083361E+00  0.0000000000000E+00 -0.6976437520079E+00
 0.2460911623015E+00 -0.2819719364356E+00  0.0000000000000E+00 -0.7134208693355E+00
 0.2432633929181E+00 -0.2794606278709E+00  0.0000000000000E+00 -0.7292245011247E+00
 0.2371681736894E+00 -0.2738714417781E+00  0.0000000000000E+00 -0.7448198743581E+00
 0.2277563192319E+00 -0.2651480214690E+00  0.0000000000000E+00 -0.7597740824507E+00
 0.2150349023185E+00 -0.2532856556003E+00  0.0000000000000E+00 -0.7734493450984E+00
 0.1990860923093E+00 -0.2383492028926E+00  0.0000000000000E+00 -0.7850061073813E+00
 0.1800685982457E+00 -0.2204735887031E+00  0.0000000000000E+00 -0.7934077016863E+00
 0.2391681968365E-01 -0.7157943114071E-01  0.0000000000000E+00 -0.4751706472239E+00
 0.5637004337940E-01 -0.1021764866383E+00  0.0000000000000E+00 -0.4906472705315E+00
 0.8656416658670E-01 -0.1306560475891E+00  0.0000000000000E+00 -0.5096620600436E+00
 0.1144723758007E+00 -0.1569942030058E+00  0.0000000000000E+00 -0.5303558170602E+00
 0.1400111949396E+00 -0.1811127245831E+00  0.0000000000000E+00 -0.5514313193607E+00
 0.1630806078935E+00 -0.2029180637433E+00  0.0000000000000E+00 -0.5720786632401E+00
 0.1835887052107E+00 -0.2223252290988E+00  0.0000000000000E+00 -0.5918806230522E+00
 0.2014631848966E+00 -0.2392687452431E+00  0.0000000000000E+00 -0.6107144548239E+00
 0.2166520898814E+00 -0.2537029986886E+00  0.0000000000000E+00 -0.6286589929534E+00
 0.2291151119092E+00 -0.2655933275785E+00  0.0000000000000E+00 -0.6459122262658E+00
 0.2388077340928E+00 -0.2749002145113E+00  0.0000000000000E+00 -0.6627229828500E+00
 0.2456654972549E+00 -0.2815637758351E+00  0.0000000000000E+00 -0.6793370589256E+00
 0.2495985845012E+00 -0.2854983354820E+00  0.0000000000000E+00 -0.6959513470199E+00
 0.2504991180605E+00 -0.2865991929163E+00  0.0000000000000E+00 -0.7126667000468E+00
 0.2482554003343E+00 -0.2847559827846E+00  0.0000000000000E+00 -0.7294410915113E+00
 0.2427693299156E+00 -0.2798691724595E+00  0.0000000000000E+00 -0.7460513416999E+00
 0.2339769319004E+00 -0.2718697716528E+00  0.0000000000000E+00 -0.7620665759580E+00
 0.2218719669225E+00 -0.2607421253690E+00  0.0000000000000E+00 -0.7768404586837E+00
 0.2065267081813E+00 -0.2465438347145E+00  0.0000000000000E+00 -0.7895202355877E+00
 0.1880956040390E+00 -0.2294086847669E+00  0.0000000000000E+00 -0.7990670370204E+00
 0.2402234858321E-01 -0.7139650603155E-01  0.0000000000000E+00 -0.4622220581616E+00
 0.5716206368239E-01 -0.1026478535360E+00  0.0000000000000E+00 -0.4785457256071E+00
 0.8778246539922E-01 -0.1315410391391E+00  0.0000000000000E+00 -0.4983764375010E+00
 0.1159388506973E+00 -0.1581316230767E+00  0.0000000000000E+00 -0.5198971134488E+00
 0.1416235745960E+00 -0.1824145828703E+00  0.0000000000000E+00 -0.5418269457708E+00
 0.1648001415724E+00 -0.2043574321092E+00  0.0000000000000E+00 -0.5633548700254E+00
 0.1854251600570E+00 -0.2239214769049E+00  0.0000000000000E+00 -0.5840531695680E+00
 0.2034596323130E+00 -0.2410725999475E+00  0.0000000000000E+00 -0.6037860389610E+00
 0.2188713280608E+00 -0.2557832851971E+00  0.0000000000000E+00 -0.6226214039657E+00
 0.2316290679467E+00 -0.2680267686829E+00  0.0000000000000E+00 -0.6407512253299E+00
 0.2416903618115E+00 -0.2777648485237E+00  0.0000000000000E+00 -0.6584243424374E+00
 0.2489883998463E+00 -0.2849352093130E+00  0.0000000000000E+00 -0.6758927565111E+00
 0.2534276710775E+00 -0.2894470586133E+00  0.0000000000000E+00 -0.6933650642714E+00
 0.2548911080037E+00 -0.2911876697928E+00  0.0000000000000E+00 -0.7109578440756E+00
 0.2532543573834E+00 -0.2900356462701E+00  0.0000000000000E+00 -0.7286448345057E+00
 0.2484040998268E+00 -0.2858782083653E+00  0.0000000000000E+00 -0.7462131555090E+00
 0.2402604536996E+00 -0.2786326884525E+00  0.0000000000000E+00 -0.7632322858396E+00
 0.2288031584504E+00 -0.2682718446909E+00  0.0000000000000E+00 -0.7790447264409E+00
 0.2140953415882E+00 -0.2548467913464E+00  0.0000000000000E+00 -0.7927799655620E+00
 0.1962907668826E+00 -0.2384937283362E+00  0.0000000000000E+00 -0.8033887150236E+00
 0.2411772053645E-01 -0.7117868961064E-01  0.0000000000000E+00 -0.4489171265979E+00
 0.5792134230315E-01 -0.1030628751200E+00  0.0000000000000E+00 -0.4661755933803E+00
 0.8895364613313E-01 -0.1323559055336E+00  0.0000000000000E+00 -0.4868637806645E+00
 0.1173486534239E+00 -0.1591895708199E+00  0.0000000000000E+00 -0.5092097974635E+00
 0.1431719395232E+00 -0.1836295770285E+00  0.0000000000000E+00 -0.5319563995214E+00
 0.1664490660802E+00 -0.2057031478080E+00  0.0000000000000E+00 -0.5543006146750E+00
 0.1871848054389E+00 -0.2254176192364E+00  0.0000000000000E+00 -0.5758139301477E+00
 0.2053739607939E+00 -0.2427707895909E+00  0.0000000000000E+00 -0.5963563703599E+00
 0.2210050179048E+00 -0.2577542637043E+00  0.0000000000000E+00 -0.6159921125082E+00
 0.2340570406788E+00 -0.2703502972628E+00  0.0000000000000E+00 -0.6349118728784E+00
 0.2444905147690E+00 -0.2805229382487E+00  0.0000000000000E+00 -0.6533667004144E+00
 0.2522369149786E+00 -0.2882080506373E+00  0.0000000000000E+00 -0.6716148730822E+00
 0.2571953442499E+00 -0.2933100181162E+00  0.0000000000000E+00 -0.6898756544552E+00
 0.2592394916908E+00 -0.2957080442495E+00  0.0000000000000E+00 -0.7082801363978E+00
 0.2582318358332E+00 -0.2952692299104E+00  0.0000000000000E+00 -0.7268167766686E+00
 0.2540428576806E+00 -0.2918666327302E+00  0.0000000000000E+00 -0.7452819696663E+00
 0.2465755136870E+00 -0.2854027313040E+00  0.0000000000000E+00 -0.7632439562076E+00
 0.2357945025181E+00 -0.2758377508364E+00  0.0000000000000E+00 -0.7800312006257E+00
 0.2217538374484E+00 -0.2632163834519E+00  0.0000000000000E+00 -0.7947500837856E+00
 0.2046088013899E+00 -0.2476793518650E+00  0.0000000000000E+00 -0.8063306493635E+00
 0.2420021156359E-01 -0.7092018059695E-01  0.0000000000000E+00 -0.4352655777316E+00
 0.5863930990664E-01 -0.1034102526748E+00  0.0000000000000E+00 -0.4535435122172E+00
 0.9006358766234E-01 -0.1330841472790E+00  0.0000000000000E+00 -0.4751293928708E+00
 0.1186828963362E+00 -0.1601471113912E+00  0.0000000000000E+00 -0.4982993013823E+00
 0.1446337092224E+00 -0.1847333727296E+00  0.0000000000000E+00 -0.5218260983221E+00
 0.1680022377638E+00 -0.2069285567702E+00  0.0000000000000E+00 -0.5449234827011E+00
 0.1888409411245E+00 -0.2267856317154E+00  0.0000000000000E+00 -0.5671712568317E+00
 0.2071786916516E+00 -0.2443346372275E+00  0.0000000000000E+00 -0.5884337523892E+00
 0.2230254128281E+00 -0.2595870544525E+00  0.0000000000000E+00 -0.6087783402614E+00
 0.2363712679100E+00 -0.2725350232656E+00  0.0000000000000E+00 -0.6283992458157E+00
 0.2471804499805E+00 -0.2831455594039E+00  0.0000000000000E+00 -0.6475520439617E+00
 0.2553831973372E+00 -0.2913531610977E+00  0.0000000000000E+00 -0.6665015641224E+00
 0.2608734448711E+00 -0.2970575902184E+00  0.0000000000000E+00 -0.6854769321020E+00
 0.2635155408991E+00 -0.3001298933727E+00  0.0000000000000E+00 -0.7046228338857E+00
 0.2631582489639E+00 -0.3004251653179E+00  0.0000000000000E+00 -0.7239417412126E+00
 0.2596547942892E+00 -0.2978013147116E+00  0.0000000000000E+00 -0.7432386123840E+00
 0.2528895452938E+00 -0.2921446245887E+00  0.0000000000000E+00 -0.7620790318450E+00
 0.2428107895319E+00 -0.2834014982387E+00  0.0000000000000E+00 -0.7797744510088E+00
 0.2294627267212E+00 -0.2716095574048E+00  0.0000000000000E+00 -0.7954025069021E+00
 0.2130028731952E+00 -0.2569146595323E+00  0.0000000000000E+00 -0.8078623460125E+00
 0.2426720790330E-01 -0.7061537691011E-01  0.0000000000000E+00 -0.4212791115367E+00
 0.5930769182226E-01 -0.1036790597930E+00  0.0000000000000E+00 -0.4406581126717E+00
 0.9109863596247E-01 -0.1337097970231E+00  0.0000000000000E+00 -0.4631804035056E+00
 0.1199232701299E+00 -0.1609839414637E+00  0.0000000000000E+00 -0.4871726066959E+00
 0.1459869086565E+00 -0.1857022843211E+00  0.0000000000000E+00 -0.5114437441684E+00
 0.1694350617229E+00 -0.2080075892571E+00  0.0000000000000E+00 -0.5352321934512E+00
 0.1903672890076E+00 -0.2279979422787E+00  0.0000000000000E+00 -0.5581346541954E+00
 0.2088465907661E+00 -0.2457357370690E+00  0.0000000000000E+00 -0.5800278329636E+00
 0.2249048012739E+00 -0.2612528367482E+00  0.0000000000000E+00 -0.6009889831421E+00
 0.2385437979693E+00 -0.2745518887796E+00  0.0000000000000E+00 -0.6212205061351E+00
 0.2497320104597E+00 -0.2856033921676E+00  0.0000000000000E+00 -0.6409848801877E+00
 0.2583987770289E+00 -0.2943407913371E+00  0.0000000000000E+00 -0.6605539199225E+00
 0.2644330094415E+00 -0.3006593544370E+00  0.0000000000000E+00 -0.6801660176117E+00
 0.2676895924765E+00 -0.3044218589771E+00  0.0000000000000E+00 -0.6999788281274E+00
 0.2680030057137E+00 -0.3054708702968E+00  0.0000000000000E+00 -0.7200084996662E+00
 0.2652080845143E+00 -0.3036480885372E+00  0.0000000000000E+00 -0.7400682203546E+00
 0.2591689904228E+00 -0.2988220723143E+00  0.0000000000000E+00 -0.7597197743473E+00
 0.2498158586830E+00 -0.2909237498191E+00  0.0000000000000E+00 -0.7782546895039E+00
 0.2371817392045E+00 -0.2799823886296E+00  0.0000000000000E+00 -0.7947162182993E+00
 0.2214258725064E+00 -0.2661484316921E+00  0.0000000000000E+00 -0.8079628207672E+00
 0.2431620434549E-01 -0.7025887019663E-01  0.0000000000000E+00 -0.4069713654379E+00
 0.5991849916941E-01 -0.1038587307628E+00  0.0000000000000E+00 -0.4275299770120E+00
 0.9204558683986E-01 -0.1342174014590E+00  0.0000000000000E+00 -0.4510257471563E+00
 0.1210520311870E+00 -0.1616803778213E+00  0.0000000000000E+00 -0.4758382581502E+00
 0.1472101756170E+00 -0.1865132853397E+00  0.0000000000000E+00 -0.5008183768181E+00
 0.1707235302979E+00 -0.2089148031169E+00  0.0000000000000E+00 -0.5252366902710E+00
 0.1917380673253E+00 -0.2290275115233E+00  0.0000000000000E+00 -0.5487149010637E+00
 0.2103507770635E+00 -0.2469460702740E+00  0.0000000000000E+00 -0.5711497539177E+00
 0.2266156434579E+00 -0.2627229941141E+00  0.0000000000000E+00 -0.5926347865857E+00
 0.2405466460193E+00 -0.2763718338182E+00  0.0000000000000E+00 -0.6133851008891E+00
 0.2521167913558E+00 -0.2878668978176E+00  0.0000000000000E+00 -0.6336724572531E+00
 0.2612547263343E+00 -0.2971407595270E+00  0.0000000000000E+00 -0.6537761990175E+00
 0.2678444308275E+00 -0.3040842663842E+00  0.0000000000000E+00 -0.6739435661433E+00
 0.2717312011663E+00 -0.3085518127722E+00  0.0000000000000E+00 -0.6943448487483E+00
 0.2727346611580E+00 -0.3103729114795E+00  0.0000000000000E+00 -0.7150099321440E+00
 0.2706700508394E+00 -0.3093719286530E+00  0.0000000000000E+00 -0.7357603508508E+00
 0.2653795023391E+00 -0.3053979721846E+00  0.0000000000000E+00 -0.7561533399093E+00
 0.2567728839369E+00 -0.2983644710789E+00  0.0000000000000E+00 -0.7754578229661E+00
 0.2448701841006E+00 -0.2882904863731E+00  0.0000000000000E+00 -0.7926771554987E+00
 0.2298309914675E+00 -0.2753296501003E+00  0.0000000000000E+00 -0.8066198961951E+00
 0.2434480300597E-01 -0.6984544109620E-01  0.0000000000000E+00 -0.3923578797354E+00
 0.6046402187412E-01 -0.1039390510398E+00  0.0000000000000E+00 -0.4141716020151E+00
 0.9289167249690E-01 -0.1345920071430E+00  0.0000000000000E+00 -0.4386761368087E+00
 0.1220519941148E+00 -0.1622173511126E+00  0.0000000000000E+00 -0.4643063597301E+00
 0.1482827738448E+00 -0.1871440246575E+00  0.0000000000000E+00 -0.4899603988149E+00
 0.1718442675128E+00 -0.2096254328099E+00  0.0000000000000E+00 -0.5149481952181E+00
 0.1929280712884E+00 -0.2298479192694E+00  0.0000000000000E+00 -0.5389241330828E+00
 0.2116648385215E+00 -0.2479381281372E+00  0.0000000000000E+00 -0.5618122602926E+00
 0.2281307173257E+00 -0.2639692686833E+00  0.0000000000000E+00 -0.5837284822616E+00
 0.2423519612494E+00 -0.2779659732303E+00  0.0000000000000E+00 -0.6049049277032E+00
 0.2543063176569E+00 -0.2899065074029E+00  0.0000000000000E+00 -0.6256249578642E+00
 0.2639218366835E+00 -0.2997226403924E+00  0.0000000000000E+00 -0.6461760428970E+00
 0.2710776254493E+00 -0.3073008377033E+00  0.0000000000000E+00 -0.6668139865888E+00
 0.2756092934537E+00 -0.3124870230931E+00  0.0000000000000E+00 -0.6877216621515E+00
 0.2773210627651E+00 -0.3150971629764E+00  0.0000000000000E+00 -0.7089431804001E+00
 0.2760073198076E+00 -0.3149371178897E+00  0.0000000000000E+00 -0.7303090727785E+00
 0.2714861434231E+00 -0.3118346242082E+00  0.0000000000000E+00 -0.7513718078896E+00
 0.2636446431877E+00 -0.3056832145445E+00  0.0000000000000E+00 -0.7713754091504E+00
 0.2524873069033E+00 -0.2964893621752E+00  0.0000000000000E+00 -0.7892780772537E+00
 0.2381721321854E+00 -0.2844079284145E+00  0.0000000000000E+00 -0.8038298773470E+00
 0.2435071176965E-01 -0.6937005417570E-01  0.0000000000000E+00 -0.3774560655523E+00
 0.6093682163589E-01 -0.1039101476828E+00  0.0000000000000E+00 -0.4005973640348E+00
 0.9362454946298E-01 -0.1348191476630E+00  0.0000000000000E+00 -0.4261440299677E+00
 0.1229065271390E+00 -0.1625764024175E+00  0.0000000000000E+00 -0.4525885518369E+00
 0.1491846099779E+00 -0.1875728463566E+00  0.0000000000000E+00 -0.4788815717028E+00
 0.1727745779018E+00 -0.2101154426515E+00  0.0000000000000E+00 -0.5043792278644E+00
 0.1939127587793E+00 -0.2304334559790E+00  0.0000000000000E+00 -0.5287758849016E+00
 0.2127629545734E+00 -0.2486850414937E+00  0.0000000000000E+00 -0.5520297670490E+00
 0.2294232730141E+00 -0.2649639240423E+00  0.0000000000000E+00 -0.5742848826004E+00
 0.2439322049872E+00 -0.2793057846965E+00  0.0000000000000E+00 -0.5957944618455E+00
 0.2562722345101E+00 -0.2916928234629E+00  0.0000000000000E+00 -0.6168556620979E+00
 0.2663708078400E+00 -0.3020559671196E+00  0.0000000000000E+00 -0.6377646713763E+00
 0.2741022092729E+00 -0.3102773256137E+00  0.0000000000000E+00 -0.6587856532569E+00
 0.2792923239946E+00 -0.3161943249482E+00  0.0000000000000E+00 -0.6801142712306E+00
 0.2817294915951E+00 -0.3196089604685E+00  0.0000000000000E+00 -0.7018098003688E+00
 0.2811859673653E+00 -0.3203074044463E+00  0.0000000000000E+00 -0.7237130402747E+00
 0.2774535667997E+00 -0.3180939243030E+00  0.0000000000000E+00 -0.7453721561435E+00
 0.2703937710830E+00 -0.3128393855970E+00  0.0000000000000E+00 -0.7660045325686E+00
 0.2599926262423E+00 -0.3045347865489E+00  0.0000000000000E+00 -0.7845183307394E+00
 0.2464042642001E+00 -0.2933339009658E+00  0.0000000000000E+00 -0.7995969770789E+00
 0.2433174141631E-01 -0.6882785136910E-01  0.0000000000000E+00 -0.3622851757150E+00
 0.6132972271568E-01 -0.1037624774555E+00  0.0000000000000E+00 -0.3868234856417E+00
 0.9423228536757E-01 -0.1348848296271E+00  0.0000000000000E+00 -0.4134435863193E+00
 0.1235995480972E+00 -0.1627396804384E+00  0.0000000000000E+00 -0.4406979686867E+00
 0.1498962524532E+00 -0.1877788115584E+00  0.0000000000000E+00 -0.4675949832008E+00
 0.1734924980455E+00 -0.2103615826700E+00  0.0000000000000E+00 -0.4935435882928E+00
 0.1946683394577E+00 -0.2307592173878E+00  0.0000000000000E+00 -0.5182850915122E+00
 0.2136200233181E+00 -0.2491607147076E+00  0.0000000000000E+00 -0.5418183814040E+00
 0.2304671946215E+00 -0.2656799152629E+00  0.0000000000000E+00 -0.5643209297521E+00
 0.2452603394409E+00 -0.2803633074664E+00  0.0000000000000E+00 -0.5860708404762E+00
 0.2579865112061E+00 -0.2931968358429E+00  0.0000000000000E+00 -0.6073810756034E+00
 0.2685724516725E+00 -0.3041104486230E+00  0.0000000000000E+00 -0.6285570570606E+00
 0.2768876856043E+00 -0.3129819352622E+00  0.0000000000000E+00 -0.6498711126832E+00
 0.2827484367781E+00 -0.3196402958335E+00  0.0000000000000E+00 -0.6715321229392E+00
 0.2859267978694E+00 -0.3238732504087E+00  0.0000000000000E+00 -0.6936159245377E+00
 0.2861716470019E+00 -0.3254461420173E+00  0.0000000000000E+00 -0.7159755588556E+00
 0.2832461728727E+00 -0.3241375316703E+00  0.0000000000000E+00 -0.7381561923714E+00
 0.2769829840583E+00 -0.3197924812991E+00  0.0000000000000E+00 -0.7593475922853E+00
 0.2673462418213E+00 -0.3123831170271E+00  0.0000000000000E+00 -0.7784034869613E+00
 0.2544837264804E+00 -0.3020595718254E+00  0.0000000000000E+00 -0.7939328013060E+00
 0.2428580082942E-01 -0.6821414240665E-01  0.0000000000000E+00 -0.3468662788212E+00
 0.6163579834770E-01 -0.1034868099453E+00  0.0000000000000E+00 -0.3728680015790E+00
 0.9470334226826E-01 -0.1347755148201E+00  0.0000000000000E+00 -0.4005906133877E+00
 0.1241155191821E+00 -0.1626899372411E+00  0.0000000000000E+00 -0.4286491724850E+00
 0.1503989509166E+00 -0.1877417205771E+00  0.0000000000000E+00 -0.4561149828839E+00
 0.1739768493674E+00 -0.2103414454200E+00  0.0000000000000E+00 -0.4824563024539E+00
 0.1951718655453E+00 -0.2308012003449E+00  0.0000000000000E+00 -0.5074680463425E+00
 0.2142117916539E+00 -0.2493399620264E+00  0.0000000000000E+00 -0.5311958765695E+00
 0.2312371677921E+00 -0.2660910642694E+00  0.0000000000000E+00 -0.5538556923321E+00
 0.2463100267594E+00 -0.2811113511978E+00  0.0000000000000E+00 -0.5757538954226E+00
 0.2594216604492E+00 -0.2943901529873E+00  0.0000000000000E+00 -0.5972210140224E+00
 0.2704979143345E+00 -0.3058562059119E+00  0.0000000000000E+00 -0.6185720717595E+00
 0.2794036500963E+00 -0.3153830404438E+00  0.0000000000000E+00 -0.6400872831808E+00
 0.2859456364012E+00 -0.3227914429707E+00  0.0000000000000E+00 -0.6619893277469E+00
 0.2898795338921E+00 -0.3278547377468E+00  0.0000000000000E+00 -0.6843724441750E+00
 0.2909296990106E+00 -0.3303164116141E+00  0.0000000000000E+00 -0.7071046600090E+00
 0.2888282321696E+00 -0.3299270016989E+00  0.0000000000000E+00 -0.7297304535540E+00
 0.2833752684393E+00 -0.3265022896808E+00  0.0000000000000E+00 -0.7514119937071E+00
 0.2745090998615E+00 -0.3199915896556E+00  0.0000000000000E+00 -0.7709448497910E+00
 0.2623684808429E+00 -0.3105386072995E+00  0.0000000000000E+00 -0.7868555093220E+00
 0.2421088768375E-01 -0.6752439022754E-01  0.0000000000000E+00 -0.3312222381475E+00
 0.6184834946320E-01 -0.1030742026205E+00  0.0000000000000E+00 -0.3587507226907E+00
 0.9502655341401E-01 -0.1344780959022E+00  0.0000000000000E+00 -0.3876024969316E+00
 0.1244394382866E+00 -0.1624105209725E+00  0.0000000000000E+00 -0.4164580619934E+00
 0.1506746545179E+00 -0.1874421343424E+00  0.0000000000000E+00 -0.4444570863056E+00
 0.1742072903222E+00 -0.2100335223333E+00  0.0000000000000E+00 -0.4711335316013E+00
 0.1954013216948E+00 -0.2305363975645E+00  0.0000000000000E+00 -0.4963423177026E+00
 0.2145149851248E+00 -0.2491986432580E+00  0.0000000000000E+00 -0.5201816163509E+00
 0.2317088499617E+00 -0.2661722374758E+00  0.0000000000000E+00 -0.5429103060405E+00
 0.2470558363050E+00 -0.2815237128562E+00  0.0000000000000E+00 -0.5648661272044E+00
 0.2605509728439E+00 -0.2952452487287E+00  0.0000000000000E+00 -0.5863986344066E+00
 0.2721189193317E+00 -0.3072640302067E+00  0.0000000000000E+00 -0.6078325965122E+00
 0.2816200176000E+00 -0.3174494276446E+00  0.0000000000000E+00 -0.6294556433636E+00
 0.2888519741702E+00 -0.3256144072812E+00  0.0000000000000E+00 -0.6515048956932E+00
 0.2935540861024E+00 -0.3315180341581E+00  0.0000000000000E+00 -0.6740952244432E+00
 0.2954252374123E+00 -0.3348811218590E+00  0.0000000000000E+00 -0.6971132034025E+00
 0.2941639612619E+00 -0.3354238718108E+00  0.0000000000000E+00 -0.7201061008334E+00
 0.2895340047700E+00 -0.3329290202077E+00  0.0000000000000E+00 -0.7422097495989E+00
 0.2814432097388E+00 -0.3273185542069E+00  0.0000000000000E+00 -0.7621587864941E+00
 0.2700182469112E+00 -0.3187265459460E+00  0.0000000000000E+00 -0.7783890079316E+00
 0.2410507354563E-01 -0.6675418871256E-01  0.0000000000000E+00 -0.3153776975238E+00
 0.6196087247120E-01 -0.1025159637982E+00  0.0000000000000E+00 -0.3444931952692E+00
 0.9519109131914E-01 -0.1339798630570E+00  0.0000000000000E+00 -0.3744981109156E+00
 0.1245568263789E+00 -0.1618853648142E+00  0.0000000000000E+00 -0.4041417522140E+00
 0.1507060291311E+00 -0.1868613950240E+00  0.0000000000000E+00 -0.4326378484253E+00
 0.1741643673078E+00 -0.2094172587606E+00  0.0000000000000E+00 -0.4595924499641E+00
 0.1953357118577E+00 -0.2299428889048E+00  0.0000000000000E+00 -0.4849266284067E+00
 0.2145074341592E+00 -0.2487137950521E+00  0.0000000000000E+00 -0.5087964333434E+00
 0.2318590396174E+00 -0.2658995216208E+00  0.0000000000000E+00 -0.5315078570859E+00
 0.2474734574927E+00 -0.2815753986508E+00  0.0000000000000E+00 -0.5534326153032E+00
 0.2613487662714E+00 -0.2957357239659E+00  0.0000000000000E+00 -0.5749404062192E+00
 0.2734080343438E+00 -0.3083056655334E+00  0.0000000000000E+00 -0.5963655885116E+00
 0.2835072770115E+00 -0.3191505697178E+00  0.0000000000000E+00 -0.6180024081588E+00
 0.2914357569824E+00 -0.3280761926034E+00  0.0000000000000E+00 -0.6401029993007E+00
 0.2969168108838E+00 -0.3348278127441E+00  0.0000000000000E+00 -0.6628053802792E+00
 0.2996232126080E+00 -0.3391030848044E+00  0.0000000000000E+00 -0.6860190398871E+00
 0.2992175442477E+00 -0.3405896942427E+00  0.0000000000000E+00 -0.7092988530758E+00
 0.2954229965896E+00 -0.3390333384093E+00  0.0000000000000E+00 -0.7317570712814E+00
 0.2881117532114E+00 -0.3343235794175E+00  0.0000000000000E+00 -0.7520658268335E+00
 0.2773944675682E+00 -0.3265808603943E+00  0.0000000000000E+00 -0.7685615066373E+00
 0.2396647987510E-01 -0.6589922857284E-01  0.0000000000000E+00 -0.2993590763434E+00
 0.6196701092627E-01 -0.1018035979036E+00  0.0000000000000E+00 -0.3301186480049E+00
 0.9518642440253E-01 -0.1332684590060E+00  0.0000000000000E+00 -0.3612976949096E+00
 0.1244537110103E+00 -0.1610989726800E+00  0.0000000000000E+00 -0.3917184161561E+00
 0.1504764744170E+00 -0.1859816471229E+00  0.0000000000000E+00 -0.4206747035176E+00
 0.1738295639610E+00 -0.2084731074744E+00  0.0000000000000E+00 -0.4478510922533E+00
 0.1949551406022E+00 -0.2289999264845E+00  0.0000000000000E+00 -0.4732407005126E+00
 0.2141681922417E+00 -0.2478637530179E+00  0.0000000000000E+00 -0.4970624591486E+00
 0.2316658394457E+00 -0.2652503922585E+00  0.0000000000000E+00 -0.5196732007160E+00
 0.2475399142429E+00 -0.2812428466536E+00  0.0000000000000E+00 -0.5414808501289E+00
 0.2617906492624E+00 -0.2958365820488E+00  0.0000000000000E+00 -0.5628760022145E+00
 0.2743389652622E+00 -0.3089541190317E+00  0.0000000000000E+00 -0.5842020832693E+00
 0.2850367829727E+00 -0.3204569379602E+00  0.0000000000000E+00 -0.6057586725922E+00
 0.2936657930969E+00 -0.3301444349043E+00  0.0000000000000E+00 -0.6278132539435E+00
 0.2999341898692E+00 -0.3377489861313E+00  0.0000000000000E+00 -0.6505296266669E+00
 0.3034884531837E+00 -0.3429450742321E+00  0.0000000000000E+00 -0.6738452777444E+00
 0.3039531006239E+00 -0.3453860062764E+00  0.0000000000000E+00 -0.6973289608935E+00
 0.3010064115787E+00 -0.3447763276309E+00  0.0000000000000E+00 -0.7200740172408E+00
 0.2944789655938E+00 -0.3409673310807E+00  0.0000000000000E+00 -0.7406897184234E+00
 0.2844596832789E+00 -0.3340603857630E+00  0.0000000000000E+00 -0.7574028108339E+00
 0.2379323979535E-01 -0.6495524424135E-01  0.0000000000000E+00 -0.2831945760558E+00
 0.6186048387784E-01 -0.1009287250748E+00  0.0000000000000E+00 -0.3156519122200E+00
 0.9500225998565E-01 -0.1323318202391E+00  0.0000000000000E+00 -0.3480226795418E+00
 0.1241166081606E+00 -0.1600364043360E+00  0.0000000000000E+00 -0.3792070763395E+00
 0.1499701435617E+00 -0.1847858621920E+00  0.0000000000000E+00 -0.4085857700544E+00
 0.1731853490749E+00 -0.2071825807210E+00  0.0000000000000E+00 -0.4359281759451E+00
 0.1942408855887E+00 -0.2276880100122E+00  0.0000000000000E+00 -0.4613050704855E+00
 0.2134776396764E+00 -0.2466282577793E+00  0.0000000000000E+00 -0.4850029078568E+00
 0.2311088053436E+00 -0.2642038661516E+00  0.0000000000000E+00 -0.5074327082258E+00
 0.2472337737432E+00 -0.2805041420479E+00  0.0000000000000E+00 -0.5290404703364E+00
 0.2618537944636E+00 -0.2955245134107E+00  0.0000000000000E+00 -0.5502380851081E+00
 0.2748868782678E+00 -0.3091839994663E+00  0.0000000000000E+00 -0.5713771050714E+00
 0.2861810909182E+00 -0.3213403584133E+00  0.0000000000000E+00 -0.5927604950484E+00
 0.2955116897077E+00 -0.3317877261260E+00  0.0000000000000E+00 -0.6146709914551E+00
 0.3025730262200E+00 -0.3402469316254E+00  0.0000000000000E+00 -0.6373007050858E+00
 0.3069857043540E+00 -0.3463698854268E+00  0.0000000000000E+00 -0.6606207049862E+00
 0.3083345686339E+00 -0.3497742187305E+00  0.0000000000000E+00 -0.6842213122994E+00
 0.3062486632259E+00 -0.3501193427581E+00  0.0000000000000E+00 -0.7071840035777E+00
 0.3005098277186E+00 -0.3472113882384E+00  0.0000000000000E+00 -0.7280569069216E+00
 0.2911762839732E+00 -0.3411239267564E+00  0.0000000000000E+00 -0.7449433379671E+00
 0.2358343437084E-01 -0.6391793021286E-01  0.0000000000000E+00 -0.2669142037561E+00
 0.6163497964024E-01 -0.9988296400003E-01  0.0000000000000E+00 -0.3011192962546E+00
 0.9462847249232E-01 -0.1311581052323E+00  0.0000000000000E+00 -0.3346954356458E+00
 0.1235325091842E+00 -0.1586832695562E+00  0.0000000000000E+00 -0.3666273402609E+00
 0.1491719723228E+00 -0.1832578754196E+00  0.0000000000000E+00 -0.3963896349577E+00
 0.1722152254109E+00 -0.2055283044784E+00  0.0000000000000E+00 -0.4238429218996E+00
 0.1931754589269E+00 -0.2259889508518E+00  0.0000000000000E+00 -0.4491408995270E+00
 0.2124175669093E+00 -0.2449885399827E+00  0.0000000000000E+00 -0.4726418348549E+00
 0.2301690720712E+00 -0.2627406288497E+00  0.0000000000000E+00 -0.4948139582046E+00
 0.2465353396081E+00 -0.2793392152069E+00  0.0000000000000E+00 -0.5161429082818E+00
 0.2615172160497E+00 -0.2947781840462E+00  0.0000000000000E+00 -0.5370619826588E+00
 0.2750287489273E+00 -0.3089718838397E+00  0.0000000000000E+00 -0.5579294782490E+00
 0.2869143376040E+00 -0.3217744152613E+00  0.0000000000000E+00 -0.5790489151135E+00
 0.2969442110849E+00 -0.3329760000481E+00  0.0000000000000E+00 -0.6007175138487E+00
 0.3048007068246E+00 -0.3422877901828E+00  0.0000000000000E+00 -0.6231578887367E+00
 0.3100796878518E+00 -0.3493404297424E+00  0.0000000000000E+00 -0.6463804492953E+00
 0.3123255027251E+00 -0.3537154181273E+00  0.0000000000000E+00 -0.6700058630936E+00
 0.3111140483087E+00 -0.3550236228657E+00  0.0000000000000E+00 -0.6931133821744E+00
 0.3061700509765E+00 -0.3530180887935E+00  0.0000000000000E+00 -0.7141955742047E+00
 0.2975067982022E+00 -0.3477307738676E+00  0.0000000000000E+00 -0.7312209236310E+00
 0.2333499277651E-01 -0.6278280521881E-01  0.0000000000000E+00 -0.2505498107882E+00
 0.6128400013620E-01 -0.9865775729162E-01  0.0000000000000E+00 -0.2865483514586E+00
 0.9405502362885E-01 -0.1297356171154E+00  0.0000000000000E+00 -0.3213388844485E+00
 0.1226888894587E+00 -0.1570257460223E+00  0.0000000000000E+00 -0.3539990543276E+00
 0.1480677291126E+00 -0.1813824452601E+00  0.0000000000000E+00 -0.3841051200621E+00
 0.1709037815508E+00 -0.2034940726524E+00  0.0000000000000E+00 -0.4116148808153E+00
 0.1917426539882E+00 -0.2238859198498E+00  0.0000000000000E+00 -0.4367697795011E+00
 0.2109712302636E+00 -0.2429273742948E+00  0.0000000000000E+00 -0.4600038713461E+00
 0.2288294432328E+00 -0.2608431228400E+00  0.0000000000000E+00 -0.4818453659696E+00
 0.2454268137065E+00 -0.2777300034339E+00  0.0000000000000E+00 -0.5028209204577E+00
 0.2607620411576E+00 -0.2935785139456E+00  0.0000000000000E+00 -0.5233851998142E+00
 0.2747437407603E+00 -0.3082967155691E+00  0.0000000000000E+00 -0.5439014905772E+00
 0.2872126737718E+00 -0.3217349055933E+00  0.0000000000000E+00 -0.5646698723338E+00
 0.2979357048753E+00 -0.3336809854767E+00  0.0000000000000E+00 -0.5860002774718E+00
 0.3065855666595E+00 -0.3438388670525E+00  0.0000000000000E+00 -0.6081474693546E+00
 0.3127352653929E+00 -0.3518199596883E+00  0.0000000000000E+00 -0.6311668785056E+00
 0.3158888264165E+00 -0.3571701438344E+00  0.0000000000000E+00 -0.6547185981147E+00
 0.3155661564345E+00 -0.3594496378295E+00  0.0000000000000E+00 -0.6778915608411E+00
 0.3114258363731E+00 -0.3583501412550E+00  0.0000000000000E+00 -0.6991343525990E+00
 0.3034155844197E+00 -0.3538420553477E+00  0.0000000000000E+00 -0.7162751430746E+00
 0.2304551602517E-01 -0.6154497445361E-01  0.0000000000000E+00 -0.2341351223570E+00
 0.6080062808926E-01 -0.9724412215343E-01  0.0000000000000E+00 -0.2719674234756E+00
 0.9327188935482E-01 -0.1280527366523E+00  0.0000000000000E+00 -0.3079758795405E+00
 0.1215737712207E+00 -0.1550506732684E+00  0.0000000000000E+00 -0.3413418839787E+00
 0.1466440988637E+00 -0.1791453428089E+00  0.0000000000000E+00 -0.3717510922998E+00
 0.1692367443644E+00 -0.2010649072653E+00  0.0000000000000E+00 -0.3992638001630E+00
 0.1899275747414E+00 -0.2213634749563E+00  0.0000000000000E+00 -0.4242135650788E+00
 0.2091233760220E+00 -0.2404291059256E+00  0.0000000000000E+00 -0.4471139662945E+00
 0.2270744336392E+00 -0.2584955849655E+00  0.0000000000000E+00 -0.4685557924314E+00
 0.2438924043188E+00 -0.2756605559017E+00  0.0000000000000E+00 -0.4891080166941E+00
 0.2595717526981E+00 -0.2919089236084E+00  0.0000000000000E+00 -0.5092467428828E+00
 0.2740136147879E+00 -0.3071402317781E+00  0.0000000000000E+00 -0.5293383362119E+00
 0.2870547640406E+00 -0.3212003831362E+00  0.0000000000000E+00 -0.5496740470753E+00
 0.2984605816016E+00 -0.3338766924459E+00  0.0000000000000E+00 -0.5705730228177E+00
 0.3078973481468E+00 -0.3448691309246E+00  0.0000000000000E+00 -0.5923230970146E+00
 0.3149178126600E+00 -0.3537725089990E+00  0.0000000000000E+00 -0.6150305379365E+00
 0.3189866898504E+00 -0.3600983703470E+00  0.0000000000000E+00 -0.6384033702975E+00
 0.3195669777234E+00 -0.3633560778423E+00  0.0000000000000E+00 -0.6615521010022E+00
 0.3162431030411E+00 -0.3631696691436E+00  0.0000000000000E+00 -0.6829008240354E+00
 0.3088686192657E+00 -0.3594205554987E+00  0.0000000000000E+00 -0.7001445464883E+00
 0.2271195762717E-01 -0.6019871814419E-01  0.0000000000000E+00 -0.2177058019353E+00
 0.6017716996537E-01 -0.9563220963008E-01  0.0000000000000E+00 -0.2574046445089E+00
 0.9226907755611E-01 -0.1260980298405E+00  0.0000000000000E+00 -0.2946281658683E+00
 0.1201759086899E+00 -0.1527457322213E+00  0.0000000000000E+00 -0.3286749003407E+00
 0.1448888107762E+00 -0.1765335164838E+00  0.0000000000000E+00 -0.3593463693855E+00
 0.1672010163576E+00 -0.1982270627521E+00  0.0000000000000E+00 -0.3868095558047E+00
 0.1877166431797E+00 -0.2184075859600E+00  0.0000000000000E+00 -0.4114941703545E+00
 0.2068602406924E+00 -0.2374796419075E+00  0.0000000000000E+00 -0.4339971673596E+00
 0.2248902476368E+00 -0.2556840187918E+00  0.0000000000000E+00 -0.4549741580423E+00
 0.2419183479168E+00 -0.2731170377362E+00  0.0000000000000E+00 -0.4750377978404E+00
 0.2579323665614E+00 -0.2897555066118E+00  0.0000000000000E+00 -0.4946862030986E+00
 0.2728231421590E+00 -0.3054873886279E+00  0.0000000000000E+00 -0.5142872323764E+00
 0.2864224163828E+00 -0.3201528193847E+00  0.0000000000000E+00 -0.5341164179438E+00
 0.2984958579379E+00 -0.3335400644951E+00  0.0000000000000E+00 -0.5544962053045E+00
 0.3087076321615E+00 -0.3453494826590E+00  0.0000000000000E+00 -0.5757457757467E+00
 0.3165938939735E+00 -0.3551637776298E+00  0.0000000000000E+00 -0.5980305166347E+00
 0.3215808602642E+00 -0.3624600122437E+00  0.0000000000000E+00 -0.6211145023455E+00
 0.3230757067411E+00 -0.3666988756057E+00  0.0000000000000E+00 -0.6441364580722E+00
 0.3205855776476E+00 -0.3674355371887E+00  0.0000000000000E+00 -0.6655198077544E+00
 0.3138334306846E+00 -0.3644306287557E+00  0.0000000000000E+00 -0.6828615103194E+00
 0.2233003721206E-01 -0.5873636313108E-01  0.0000000000000E+00 -0.2012984683079E+00
 0.5940471638892E-01 -0.9381112547233E-01  0.0000000000000E+00 -0.2428855744585E+00
 0.9103691272469E-01 -0.1238603746086E+00  0.0000000000000E+00 -0.2813147199934E+00
 0.1184852651887E+00 -0.1501002579095E+00  0.0000000000000E+00 -0.3160163824175E+00
 0.1427907422976E+00 -0.1735349599495E+00  0.0000000000000E+00 -0.3469102321944E+00
 0.1647846193769E+00 -0.1949680707928E+00  0.0000000000000E+00 -0.3742718072617E+00
 0.1850976473585E+00 -0.2150056548042E+00  0.0000000000000E+00 -0.3986334567603E+00
 0.2041695287559E+00 -0.2340664546459E+00  0.0000000000000E+00 -0.4206784878695E+00
 0.2222646941279E+00 -0.2523960826213E+00  0.0000000000000E+00 -0.4411291710460E+00
 0.2394928081941E+00 -0.2700876248273E+00  0.0000000000000E+00 -0.4606432916781E+00
 0.2558324827561E+00 -0.2871070433002E+00  0.0000000000000E+00 -0.4797426007935E+00
 0.2711604889641E+00 -0.3033267704031E+00  0.0000000000000E+00 -0.4987961000964E+00
 0.2853012995949E+00 -0.3185783601191E+00  0.0000000000000E+00 -0.5180553934112E+00
 0.2980220931852E+00 -0.3326519520365E+00  0.0000000000000E+00 -0.5378371626297E+00
 0.3089899247950E+00 -0.3452532360209E+00  0.0000000000000E+00 -0.5584859116474E+00
 0.3177317980672E+00 -0.3559604384933E+00  0.0000000000000E+00 -0.5802312903163E+00
 0.3236346558813E+00 -0.3642187463427E+00  0.0000000000000E+00 -0.6029190989979E+00
 0.3260480292044E+00 -0.3694297775180E+00  0.0000000000000E+00 -0.6257031893079E+00
 0.3244102236611E+00 -0.3710990715272E+00  0.0000000000000E+00 -0.6470163490095E+00
 0.3182830264166E+00 -0.3688381095358E+00  0.0000000000000E+00 -0.6644502840724E+00
 0.2189236481783E-01 -0.5714711161005E-01  0.0000000000000E+00 -0.1849530577048E+00
 0.5847197481562E-01 -0.9176560730511E-01  0.0000000000000E+00 -0.2284253711336E+00
 0.8956816023283E-01 -0.1213339097498E+00  0.0000000000000E+00 -0.2680483700601E+00
 0.1164937159653E+00 -0.1471042682399E+00  0.0000000000000E+00 -0.3033882960630E+00
 0.1403393320267E+00 -0.1701386764198E+00  0.0000000000000E+00 -0.3344609149209E+00
 0.1619769518808E+00 -0.1912768844547E+00  0.0000000000000E+00 -0.3616700032696E+00
 0.1820597250578E+00 -0.2111465527422E+00  0.0000000000000E+00 -0.3856532633245E+00
 0.2010403973125E+00 -0.2301784818232E+00  0.0000000000000E+00 -0.4071826665260E+00
 0.2191871234836E+00 -0.2486211748670E+00  0.0000000000000E+00 -0.4270493996191E+00
 0.2366055826182E+00 -0.2665620120485E+00  0.0000000000000E+00 -0.4459565688009E+00
 0.2532631140203E+00 -0.2839549005448E+00  0.0000000000000E+00 -0.4644528783235E+00
 0.2690175270373E+00 -0.3006508219057E+00  0.0000000000000E+00 -0.4829117865819E+00
 0.2836817691102E+00 -0.3164682522041E+00  0.0000000000000E+00 -0.5015513935035E+00
 0.2970244905064E+00 -0.3311982684058E+00  0.0000000000000E+00 -0.5206697483103E+00
 0.3087211184025E+00 -0.3445575280835E+00  0.0000000000000E+00 -0.5406252105895E+00
 0.3182987611004E+00 -0.3561291895592E+00  0.0000000000000E+00 -0.5617096529421E+00
 0.3251168718667E+00 -0.3653383768765E+00  0.0000000000000E+00 -0.5838732142604E+00
 0.3284419398417E+00 -0.3715172012725E+00  0.0000000000000E+00 -0.6063571946335E+00
 0.3276563210060E+00 -0.3740790674789E+00  0.0000000000000E+00 -0.6274391305309E+00
 0.3221906222106E+00 -0.3726106847909E+00  0.0000000000000E+00 -0.6448793267055E+00
 0.2138481756964E-01 -0.5538822271244E-01  0.0000000000000E+00 -0.1686492902089E+00
 0.5737557612311E-01 -0.8950821806267E-01  0.0000000000000E+00 -0.2139853120357E+00
 0.8786451426956E-01 -0.1185134713617E+00  0.0000000000000E+00 -0.2548658354630E+00
 0.1141908220370E+00 -0.1437474559880E+00  0.0000000000000E+00 -0.2908091387442E+00
 0.1375255492803E+00 -0.1663348839841E+00  0.0000000000000E+00 -0.3220153365072E+00
 0.1587688791213E+00 -0.1871442630458E+00  0.0000000000000E+00 -0.3490230449713E+00
 0.1785935140474E+00 -0.2068206952140E+00  0.0000000000000E+00 -0.3725759516223E+00
 0.1974631114613E+00 -0.2258057992610E+00  0.0000000000000E+00 -0.3935342568317E+00
 0.2156484961833E+00 -0.2443501550332E+00  0.0000000000000E+00 -0.4127616961883E+00
 0.2332480729606E+00 -0.2625324159892E+00  0.0000000000000E+00 -0.4310108499226E+00
 0.2502164424102E+00 -0.2802901222864E+00  0.0000000000000E+00 -0.4488500535742E+00
 0.2663901787630E+00 -0.2974574301827E+00  0.0000000000000E+00 -0.4666751852251E+00
 0.2815600523903E+00 -0.3138197021629E+00  0.0000000000000E+00 -0.4846671857662E+00
 0.2954937807408E+00 -0.3291705726440E+00  0.0000000000000E+00 -0.5030720731589E+00
 0.3078832915819E+00 -0.3432457968289E+00  0.0000000000000E+00 -0.5222558556806E+00
 0.3182642408678E+00 -0.3556392473412E+00  0.0000000000000E+00 -0.5425638176367E+00
 0.3259836097827E+00 -0.3657735743606E+00  0.0000000000000E+00 -0.5640432890585E+00
 0.3302529204092E+00 -0.3729378225073E+00  0.0000000000000E+00 -0.5861108895534E+00
 0.3302477437513E+00 -0.3763706593417E+00  0.0000000000000E+00 -0.6071236450467E+00
 0.3256784889399E+00 -0.3756773731261E+00  0.0000000000000E+00 -0.6245068731651E+00
 0.3302306902376E+00 -0.5698806496875E+00  0.0000000000000E+00 -0.8314343908652E+00
 0.4995222121100E+00 -0.5513956293843E+00  0.0000000000000E+00  0.1232859512696E+00
 0.3396359077294E+00 -0.3778438087661E+00  0.0000000000000E+00  0.1458099916663E+00
 0.2569131942953E+00 -0.2868927208115E+00  0.0000000000000E+00  0.9756260875420E-01
 0.2033985754529E+00 -0.2280851929782E+00  0.0000000000000E+00  0.6730635889878E-01
 0.1654177832881E+00 -0.1857746996672E+00  0.0000000000000E+00  0.4490508350880E-01
 0.1356712750850E+00 -0.1524770774913E+00  0.0000000000000E+00  0.2773400415622E-01
 0.1110049681916E+00 -0.1248073389300E+00  0.0000000000000E+00  0.1420122258004E-01
 0.8972046302252E-01 -0.1008943853931E+00  0.0000000000000E+00  0.3738345285867E-02
 0.7094213102068E-01 -0.7978069306285E-01  0.0000000000000E+00 -0.3967809013019E-02
 0.5410602403706E-01 -0.6087935574978E-01  0.0000000000000E+00 -0.9030920556055E-02
 0.3885173052558E-01 -0.4366763551606E-01  0.0000000000000E+00 -0.1234347195196E-01
 0.2643885525274E-01 -0.2937896221337E-01  0.0000000000000E+00 -0.1362680037248E-01
 0.1722816153231E-01 -0.1895022571468E-01  0.0000000000000E+00 -0.1398658323762E-01
 0.1068181996323E-01 -0.1179047087680E-01  0.0000000000000E+00 -0.1374874620134E-01
 0.6428144749046E-02 -0.7212019787375E-02  0.0000000000000E+00 -0.1250685459729E-01
 0.3593479252881E-02 -0.4223235371892E-02  0.0000000000000E+00 -0.1074742162682E-01
 0.1648552154796E-02 -0.2135376391970E-02  0.0000000000000E+00 -0.8424389174416E-02
 0.3883908441029E-03 -0.6649664486611E-03  0.0000000000000E+00 -0.5375570868441E-02
-0.2758561368026E-03  0.2626087829416E-03  0.0000000000000E+00 -0.1808207530224E-02
 0.2752278318680E+00 -0.4188755691217E+00  0.0000000000000E+00 -0.1032683011778E+01
 0.4755361799074E+00 -0.5674229511030E+00  0.0000000000000E+00 -0.3284738843459E+00
 0.3866483211132E+00 -0.4309524199985E+00  0.0000000000000E+00 -0.1258191848283E-01
 0.2920424955113E+00 -0.3257622266964E+00  0.0000000000000E+00  0.2487267421801E-01
 0.2308994497828E+00 -0.2580460314750E+00  0.0000000000000E+00  0.1702379300365E-01
 0.1877877304432E+00 -0.2103079966154E+00  0.0000000000000E+00  0.5365542030017E-02
 0.1549452148842E+00 -0.1736928148101E+00  0.0000000000000E+00 -0.5816989590680E-02
 0.1281729710877E+00 -0.1437705754982E+00  0.0000000000000E+00 -0.1562466739727E-01
 0.1053690521402E+00 -0.1182520205159E+00  0.0000000000000E+00 -0.2375168186920E-01
 0.8537847729715E-01 -0.9587868255964E-01  0.0000000000000E+00 -0.2989728233541E-01
 0.6750810871319E-01 -0.7587642948508E-01  0.0000000000000E+00 -0.3401054575046E-01
 0.5146461958724E-01 -0.5786012108085E-01  0.0000000000000E+00 -0.3654840968031E-01
 0.3812778702224E-01 -0.4277967357052E-01  0.0000000000000E+00 -0.3677841586665E-01
 0.2760098196063E-01 -0.3094949068650E-01  0.0000000000000E+00 -0.3562572025224E-01
 0.1933478469447E-01 -0.2188875698933E-01  0.0000000000000E+00 -0.3433998443824E-01
 0.1309346094884E-01 -0.1520800956532E-01  0.0000000000000E+00 -0.3282506777969E-01
 0.8279026712250E-02 -0.1014022793798E-01  0.0000000000000E+00 -0.3106181008611E-01
 0.4411786710167E-02 -0.6072273025607E-02  0.0000000000000E+00 -0.2881601167401E-01
 0.1318496054690E-02 -0.2745324496320E-02  0.0000000000000E+00 -0.2584236625492E-01
-0.1029547148288E-02 -0.1351090122732E-03  0.0000000000000E+00 -0.2244444161786E-01
 0.2184381742048E+00 -0.3352968558769E+00  0.0000000000000E+00 -0.1021408821820E+01
 0.4108178814905E+00 -0.4964631571431E+00  0.0000000000000E+00 -0.5520623606718E+00
 0.3893563600374E+00 -0.4462416487558E+00  0.0000000000000E+00 -0.2177683885736E+00
 0.3178970013092E+00 -0.3558080158758E+00  0.0000000000000E+00 -0.7782643003497E-01
 0.2548304945004E+00 -0.2848374633996E+00  0.0000000000000E+00 -0.4553412406784E-01
 0.2086531524064E+00 -0.2333619402908E+00  0.0000000000000E+00 -0.4101820709610E-01
 0.1733190518455E+00 -0.1940228411096E+00  0.0000000000000E+00 -0.4386684211772E-01
 0.1447893158152E+00 -0.1621916988940E+00  0.0000000000000E+00 -0.4876025734430E-01
 0.1206579255269E+00 -0.1352551620773E+00  0.0000000000000E+00 -0.5377853192151E-01
 0.9959220043052E-01 -0.1117465271524E+00  0.0000000000000E+00 -0.5793342132790E-01
 0.8081220778326E-01 -0.9079528735400E-01  0.0000000000000E+00 -0.6072465315973E-01
 0.6394801577982E-01 -0.7195813239569E-01  0.0000000000000E+00 -0.6200056304979E-01
 0.4953365236367E-01 -0.5581591156371E-01  0.0000000000000E+00 -0.6122049484678E-01
 0.3768368454047E-01 -0.4263037939645E-01  0.0000000000000E+00 -0.5926496505398E-01
 0.2791322872362E-01 -0.3195592596453E-01  0.0000000000000E+00 -0.5726149675793E-01
 0.1992614436991E-01 -0.2341021504842E-01  0.0000000000000E+00 -0.5536049046554E-01
 0.1328301052745E-01 -0.1642384775503E-01  0.0000000000000E+00 -0.5345796312519E-01
 0.7609227629647E-02 -0.1048894485497E-01  0.0000000000000E+00 -0.5113291741637E-01
 0.2779578440119E-02 -0.5397294242330E-02  0.0000000000000E+00 -0.4805870847366E-01
-0.1152063497925E-02 -0.1222318357060E-02  0.0000000000000E+00 -0.4444121756581E-01
 0.1763835878798E+00 -0.2779730698247E+00  0.0000000000000E+00 -0.9854858252495E+00
 0.3496898777188E+00 -0.4304190583010E+00  0.0000000000000E+00 -0.6698275819060E+00
 0.3680746804746E+00 -0.4280214533621E+00  0.0000000000000E+00 -0.3757853727022E+00
 0.3263452914956E+00 -0.3696545252770E+00  0.0000000000000E+00 -0.1974395326911E+00
 0.2726313154211E+00 -0.3056714803894E+00  0.0000000000000E+00 -0.1210525195482E+00
 0.2267185717614E+00 -0.2537534937382E+00  0.0000000000000E+00 -0.9474991510085E-01
 0.1902400981673E+00 -0.2129146237144E+00  0.0000000000000E+00 -0.8659287581802E-01
 0.1605111400848E+00 -0.1797241652235E+00  0.0000000000000E+00 -0.8523597813966E-01
 0.1353699072667E+00 -0.1516805404474E+00  0.0000000000000E+00 -0.8638726243635E-01
 0.1134324381178E+00 -0.1272413210049E+00  0.0000000000000E+00 -0.8805606571789E-01
 0.9386504253232E-01 -0.1054700401875E+00  0.0000000000000E+00 -0.8914932093670E-01
 0.7621743827161E-01 -0.8583760323895E-01  0.0000000000000E+00 -0.8898108859117E-01
 0.6076210861163E-01 -0.6865419777321E-01  0.0000000000000E+00 -0.8719202395213E-01
 0.4764384652261E-01 -0.5416820378604E-01  0.0000000000000E+00 -0.8461121222229E-01
 0.3647178116493E-01 -0.4201570030382E-01  0.0000000000000E+00 -0.8211631518156E-01
 0.2691009527788E-01 -0.3179978620769E-01  0.0000000000000E+00 -0.7987922903930E-01
 0.1859900313527E-01 -0.2305992172433E-01  0.0000000000000E+00 -0.7775424327026E-01
 0.1124066472348E-01 -0.1538084938621E-01  0.0000000000000E+00 -0.7522771857888E-01
 0.4761646789120E-02 -0.8611950899058E-02  0.0000000000000E+00 -0.7187024583743E-01
-0.7592535265637E-03 -0.2832575461529E-02  0.0000000000000E+00 -0.6781661866727E-01
 0.1443966102995E+00 -0.2361985821927E+00  0.0000000000000E+00 -0.9445807928877E+00
 0.2971560671652E+00 -0.3735754410097E+00  0.0000000000000E+00 -0.7348843579681E+00
 0.3382623915964E+00 -0.3989293721033E+00  0.0000000000000E+00 -0.4903112543286E+00
 0.3213703968165E+00 -0.3678846856423E+00  0.0000000000000E+00 -0.3071037235608E+00
 0.2817974764612E+00 -0.3180314940951E+00  0.0000000000000E+00 -0.2038902062290E+00
 0.2406702911642E+00 -0.2700821208194E+00  0.0000000000000E+00 -0.1550758370910E+00
 0.2049663090741E+00 -0.2296486385079E+00  0.0000000000000E+00 -0.1338939000660E+00
 0.1749412633399E+00 -0.1959661441933E+00  0.0000000000000E+00 -0.1249951074503E+00
 0.1492511851674E+00 -0.1672720906960E+00  0.0000000000000E+00 -0.1215228173171E+00
 0.1267200655132E+00 -0.1421803160800E+00  0.0000000000000E+00 -0.1202194341853E+00
 0.1065369777268E+00 -0.1197608760307E+00  0.0000000000000E+00 -0.1192932844957E+00
 0.8821050221134E-01 -0.9943425962917E-01  0.0000000000000E+00 -0.1175503695131E+00
 0.7182157943543E-01 -0.8130944773275E-01  0.0000000000000E+00 -0.1147198740687E+00
 0.5753876960797E-01 -0.6563065448250E-01  0.0000000000000E+00 -0.1115567916838E+00
 0.4506875163923E-01 -0.5212000099644E-01  0.0000000000000E+00 -0.1086637475758E+00
 0.3406698092399E-01 -0.4038672272535E-01  0.0000000000000E+00 -0.1061370128048E+00
 0.2422946744384E-01 -0.3004485480281E-01  0.0000000000000E+00 -0.1037586251619E+00
 0.1530649155709E-01 -0.2074381265386E-01  0.0000000000000E+00 -0.1009422104954E+00
 0.7251082526500E-02 -0.1236307855888E-01  0.0000000000000E+00 -0.9718896147099E-01
 0.1644778088554E-03 -0.4995431870024E-02  0.0000000000000E+00 -0.9259685526889E-01
 0.1197755420517E+00 -0.2045464768512E+00  0.0000000000000E+00 -0.9057970752909E+00
 0.2531408450220E+00 -0.3260272240311E+00  0.0000000000000E+00 -0.7700895847069E+00
 0.3064795779902E+00 -0.3668289292470E+00  0.0000000000000E+00 -0.5721652064756E+00
 0.3083019032462E+00 -0.3567158362883E+00  0.0000000000000E+00 -0.3998648080796E+00
 0.2830913888982E+00 -0.3218804837318E+00  0.0000000000000E+00 -0.2847759079823E+00
 0.2495330294184E+00 -0.2812912001485E+00  0.0000000000000E+00 -0.2191260458242E+00
 0.2167905498463E+00 -0.2434776018874E+00  0.0000000000000E+00 -0.1849514447376E+00
 0.1876274626583E+00 -0.2104630745630E+00  0.0000000000000E+00 -0.1677443943012E+00
 0.1620189142526E+00 -0.1817417742862E+00  0.0000000000000E+00 -0.1590238532529E+00
 0.1392621646333E+00 -0.1563653377703E+00  0.0000000000000E+00 -0.1543225065297E+00
 0.1186975738996E+00 -0.1335320960235E+00  0.0000000000000E+00 -0.1511038904236E+00
 0.9985388542096E-01 -0.1126718802305E+00  0.0000000000000E+00 -0.1476750544915E+00
 0.8268598628915E-01 -0.9375827880320E-01  0.0000000000000E+00 -0.1437539553940E+00
 0.6737853593313E-01 -0.7703027378428E-01  0.0000000000000E+00 -0.1399914863096E+00
 0.5373260160120E-01 -0.6229499752164E-01  0.0000000000000E+00 -0.1367246881655E+00
 0.4142115139276E-01 -0.4918818186246E-01  0.0000000000000E+00 -0.1339247880860E+00
 0.3018766656908E-01 -0.3738457538355E-01  0.0000000000000E+00 -0.1312760274134E+00
 0.1981365608772E-01 -0.2657773676715E-01  0.0000000000000E+00 -0.1281231476251E+00
 0.1026134956476E-01 -0.1666170752130E-01  0.0000000000000E+00 -0.1239172563584E+00
 0.1653380692359E-02 -0.7744426459471E-02  0.0000000000000E+00 -0.1187253599833E+00
 0.1005632087496E+00 -0.1799640306795E+00  0.0000000000000E+00 -0.8709744051595E+00
 0.2165337518801E+00 -0.2864588794762E+00  0.0000000000000E+00 -0.7874370497859E+00
 0.2756614720804E+00 -0.3352926642906E+00  0.0000000000000E+00 -0.6301127373629E+00
 0.2908818626118E+00 -0.3403573810537E+00  0.0000000000000E+00 -0.4754545920258E+00
 0.2784079814705E+00 -0.3191357918250E+00  0.0000000000000E+00 -0.3587405820817E+00
 0.2534086822938E+00 -0.2872560508418E+00  0.0000000000000E+00 -0.2829365550999E+00
 0.2252453701309E+00 -0.2538787564200E+00  0.0000000000000E+00 -0.2381119248763E+00
 0.1981638365237E+00 -0.2227858642866E+00  0.0000000000000E+00 -0.2128004830337E+00
 0.1733824314020E+00 -0.1947910792378E+00  0.0000000000000E+00 -0.1985593184795E+00
 0.1508585874858E+00 -0.1695900119352E+00  0.0000000000000E+00 -0.1901716864666E+00
 0.1302104333845E+00 -0.1466423868809E+00  0.0000000000000E+00 -0.1844560701884E+00
 0.1110627197333E+00 -0.1254627609803E+00  0.0000000000000E+00 -0.1792536802679E+00
 0.9330812483570E-01 -0.1059531193565E+00  0.0000000000000E+00 -0.1741908147604E+00
 0.7714661190624E-01 -0.8835058580301E-01  0.0000000000000E+00 -0.1697864149872E+00
 0.6246957371401E-01 -0.7254442850303E-01  0.0000000000000E+00 -0.1661309639099E+00
 0.4898739366013E-01 -0.5821361990099E-01  0.0000000000000E+00 -0.1630500599367E+00
 0.3648907947666E-01 -0.4508774113394E-01  0.0000000000000E+00 -0.1601166561553E+00
 0.2477899952971E-01 -0.3289368476883E-01  0.0000000000000E+00 -0.1566073264222E+00
 0.1381787775437E-01 -0.2152942811510E-01  0.0000000000000E+00 -0.1519280086315E+00
 0.3748348019345E-02 -0.1111969523855E-01  0.0000000000000E+00 -0.1461015030762E+00
 0.8540681031784E-01 -0.1605283833432E+00  0.0000000000000E+00 -0.8404206431432E+00
 0.1861424639874E+00 -0.2535412337040E+00  0.0000000000000E+00 -0.7937228244139E+00
 0.2470783720262E+00 -0.3058354722205E+00  0.0000000000000E+00 -0.6705740313643E+00
 0.2715242881928E+00 -0.3215490133672E+00  0.0000000000000E+00 -0.5357231858292E+00
 0.2696051093695E+00 -0.3117629003234E+00  0.0000000000000E+00 -0.4237453774114E+00
 0.2530183146595E+00 -0.2886430009579E+00  0.0000000000000E+00 -0.3435558583202E+00
 0.2303017492699E+00 -0.2607411936228E+00  0.0000000000000E+00 -0.2913206688418E+00
 0.2062920311205E+00 -0.2326434910358E+00  0.0000000000000E+00 -0.2591034014173E+00
 0.1830944766833E+00 -0.2061570990581E+00  0.0000000000000E+00 -0.2395780029536E+00
 0.1613177463744E+00 -0.1816546334106E+00  0.0000000000000E+00 -0.2274496270821E+00
 0.1409381140724E+00 -0.1589487577311E+00  0.0000000000000E+00 -0.2191416042604E+00
 0.1217441393241E+00 -0.1377104462462E+00  0.0000000000000E+00 -0.2121220780434E+00
 0.1036272643818E+00 -0.1178313705624E+00  0.0000000000000E+00 -0.2058809908596E+00
 0.8680915091733E-01 -0.9955616031544E-01  0.0000000000000E+00 -0.2007868743629E+00
 0.7126896173694E-01 -0.8285467693933E-01  0.0000000000000E+00 -0.1967078406597E+00
 0.5676949594075E-01 -0.6746200781386E-01  0.0000000000000E+00 -0.1933214768706E+00
 0.4314618129538E-01 -0.5316093465043E-01  0.0000000000000E+00 -0.1900873177323E+00
 0.3022254437670E-01 -0.3970604408225E-01  0.0000000000000E+00 -0.1862160392794E+00
 0.1795071614334E-01 -0.2699219675471E-01  0.0000000000000E+00 -0.1810660382924E+00
 0.6489396037681E-02 -0.1515874030664E-01  0.0000000000000E+00 -0.1745883181826E+00
 0.7334208904981E-01 -0.1449527837113E+00  0.0000000000000E+00 -0.8138637147487E+00
 0.1609088182347E+00 -0.2261172961623E+00  0.0000000000000E+00 -0.7930524936339E+00
 0.2212117181901E+00 -0.2790497925861E+00  0.0000000000000E+00 -0.6981619578059E+00
 0.2517324214222E+00 -0.3019866764343E+00  0.0000000000000E+00 -0.5829893507823E+00
 0.2582000558539E+00 -0.3014003666398E+00  0.0000000000000E+00 -0.4793894749138E+00
 0.2492778269596E+00 -0.2863774015257E+00  0.0000000000000E+00 -0.3991948240142E+00
 0.2322599044304E+00 -0.2643250854255E+00  0.0000000000000E+00 -0.3427864712750E+00
 0.2119672552240E+00 -0.2399536618440E+00  0.0000000000000E+00 -0.3054148545344E+00
 0.1910001692199E+00 -0.2156649311728E+00  0.0000000000000E+00 -0.2813368669082E+00
 0.1704834923002E+00 -0.1923917592473E+00  0.0000000000000E+00 -0.2657036711720E+00
 0.1507538495452E+00 -0.1703175856464E+00  0.0000000000000E+00 -0.2548607438698E+00
 0.1318042531709E+00 -0.1493164950607E+00  0.0000000000000E+00 -0.2460522180154E+00
 0.1135752877902E+00 -0.1293218918386E+00  0.0000000000000E+00 -0.2386299991844E+00
 0.9632084777567E-01 -0.1105990483974E+00  0.0000000000000E+00 -0.2328093337920E+00
 0.8010692930746E-01 -0.9319848779995E-01  0.0000000000000E+00 -0.2282656950227E+00
 0.6476022277921E-01 -0.7692148017212E-01  0.0000000000000E+00 -0.2245394382275E+00
 0.5016473395996E-01 -0.6160441897667E-01  0.0000000000000E+00 -0.2209844652474E+00
 0.3616180257313E-01 -0.4702685480834E-01  0.0000000000000E+00 -0.2167523127499E+00
 0.2268881831853E-01 -0.3307429209030E-01  0.0000000000000E+00 -0.2111499989443E+00
 0.9912155952930E-02 -0.1989369135765E-01  0.0000000000000E+00 -0.2040205368531E+00
 0.6366742975563E-01 -0.1323366461923E+00  0.0000000000000E+00 -0.7908413915742E+00
 0.1399435397632E+00 -0.2032297571826E+00  0.0000000000000E+00 -0.7880056785778E+00
 0.1981566765837E+00 -0.2550818153562E+00  0.0000000000000E+00 -0.7162110654390E+00
 0.2324209516753E+00 -0.2827028764797E+00  0.0000000000000E+00 -0.6194673712793E+00
 0.2453424255091E+00 -0.2892961089411E+00  0.0000000000000E+00 -0.5260907552583E+00
 0.2430800821608E+00 -0.2813890560803E+00  0.0000000000000E+00 -0.4489685398395E+00
 0.2315921052108E+00 -0.2650921505797E+00  0.0000000000000E+00 -0.3911918966148E+00
 0.2153290217255E+00 -0.2448309917667E+00  0.0000000000000E+00 -0.3505715651887E+00
 0.1970636102510E+00 -0.2232579603699E+00  0.0000000000000E+00 -0.3229994809970E+00
 0.1782596540306E+00 -0.2016920467358E+00  0.0000000000000E+00 -0.3043713413152E+00
 0.1595572680957E+00 -0.1806400755526E+00  0.0000000000000E+00 -0.2912253014983E+00
 0.1411576850044E+00 -0.1601898987152E+00  0.0000000000000E+00 -0.2807519116156E+00
 0.1230833278302E+00 -0.1403518110936E+00  0.0000000000000E+00 -0.2721981204253E+00
 0.1056299052640E+00 -0.1214239948379E+00  0.0000000000000E+00 -0.2656399784151E+00
 0.8894954819100E-01 -0.1035380839719E+00  0.0000000000000E+00 -0.2605963704950E+00
 0.7294148497684E-01 -0.8656928410853E-01  0.0000000000000E+00 -0.2564915458019E+00
 0.5754104181528E-01 -0.7040915378078E-01  0.0000000000000E+00 -0.2525906780929E+00
 0.4260725142002E-01 -0.5486107103805E-01  0.0000000000000E+00 -0.2479997191767E+00
 0.2805579525895E-01 -0.3979416213988E-01  0.0000000000000E+00 -0.2419745464591E+00
 0.1404531672887E-01 -0.2534885625662E-01  0.0000000000000E+00 -0.2342103894754E+00
 0.5586182099064E-01 -0.1220286258552E+00  0.0000000000000E+00 -0.7708534207745E+00
 0.1225126442982E+00 -0.1840965959160E+00  0.0000000000000E+00 -0.7802455708934E+00
 0.1778188345423E+00 -0.2338614887594E+00  0.0000000000000E+00 -0.7271566497308E+00
 0.2141279430213E+00 -0.2643088346484E+00  0.0000000000000E+00 -0.6470936168965E+00
 0.2318697543159E+00 -0.2763621111761E+00  0.0000000000000E+00 -0.5646322127808E+00
 0.2352046323395E+00 -0.2744998198404E+00  0.0000000000000E+00 -0.4926000492261E+00
 0.2288261792924E+00 -0.2635777124601E+00  0.0000000000000E+00 -0.4356883859923E+00
 0.2166386333405E+00 -0.2475249446806E+00  0.0000000000000E+00 -0.3936182918225E+00
 0.2013589636426E+00 -0.2289944371078E+00  0.0000000000000E+00 -0.3637511974030E+00
 0.1846225530043E+00 -0.2095187178689E+00  0.0000000000000E+00 -0.3428346250323E+00
 0.1672878963437E+00 -0.1898464279152E+00  0.0000000000000E+00 -0.3277788239335E+00
 0.1497379381717E+00 -0.1702575458423E+00  0.0000000000000E+00 -0.3158709220859E+00
 0.1320890827735E+00 -0.1508539720063E+00  0.0000000000000E+00 -0.3063021847167E+00
 0.1146831356510E+00 -0.1319737073729E+00  0.0000000000000E+00 -0.2990351246284E+00
 0.9775577618928E-01 -0.1138282147095E+00  0.0000000000000E+00 -0.2934727446180E+00
 0.8128472177441E-01 -0.9637209526984E-01  0.0000000000000E+00 -0.2889519515848E+00
 0.6525977152004E-01 -0.7955445518291E-01  0.0000000000000E+00 -0.2846743653658E+00
 0.4955862340398E-01 -0.6320275209850E-01  0.0000000000000E+00 -0.2797228225806E+00
 0.3406668768637E-01 -0.4716118103186E-01  0.0000000000000E+00 -0.2733121783490E+00
 0.1890920969422E-01 -0.3153942459906E-01  0.0000000000000E+00 -0.2649524260377E+00
 0.4953161661181E-01 -0.1135453330533E+00  0.0000000000000E+00 -0.7534238982908E+00
 0.1080133267836E+00 -0.1680801957538E+00  0.0000000000000E+00 -0.7708598474027E+00
 0.1600142450118E+00 -0.2152164877571E+00  0.0000000000000E+00 -0.7327954465140E+00
 0.1971502459245E+00 -0.2471481378213E+00  0.0000000000000E+00 -0.6674991790066E+00
 0.2183755434454E+00 -0.2632467254814E+00  0.0000000000000E+00 -0.5959220169890E+00
 0.2262931181205E+00 -0.2663907005106E+00  0.0000000000000E+00 -0.5301898558089E+00
 0.2244755285100E+00 -0.2603111658273E+00  0.0000000000000E+00 -0.4758109219499E+00
 0.2162197200290E+00 -0.2483574205951E+00  0.0000000000000E+00 -0.4338473245709E+00
 0.2040431120266E+00 -0.2330214687103E+00  0.0000000000000E+00 -0.4028771282118E+00
 0.1896179282741E+00 -0.2159066147242E+00  0.0000000000000E+00 -0.3804805145676E+00
 0.1739319988480E+00 -0.1979136933533E+00  0.0000000000000E+00 -0.3640291660631E+00
 0.1575057816329E+00 -0.1794730386785E+00  0.0000000000000E+00 -0.3510153636370E+00
 0.1405440058919E+00 -0.1607743304284E+00  0.0000000000000E+00 -0.3406214127778E+00
 0.1234313885716E+00 -0.1421944456728E+00  0.0000000000000E+00 -0.3327241709756E+00
 0.1064808567403E+00 -0.1240196624946E+00  0.0000000000000E+00 -0.3266511843587E+00
 0.8975174256415E-01 -0.1062868778958E+00  0.0000000000000E+00 -0.3216841934041E+00
 0.7329218838757E-01 -0.8900618283353E-01  0.0000000000000E+00 -0.3169927093904E+00
 0.5700153031887E-01 -0.7203162586149E-01  0.0000000000000E+00 -0.3116693341676E+00
 0.4072530125554E-01 -0.5517295799135E-01  0.0000000000000E+00 -0.3049146594123E+00
 0.2451550804047E-01 -0.3847116616346E-01  0.0000000000000E+00 -0.2960270582892E+00
 0.4437493659453E-01 -0.1065204771176E+00  0.0000000000000E+00 -0.7381243276680E+00
 0.9595032523237E-01 -0.1546592395690E+00  0.0000000000000E+00 -0.7605626993292E+00
 0.1445217789510E+00 -0.1989310026437E+00  0.0000000000000E+00 -0.7344639495548E+00
 0.1816298385707E+00 -0.2313934400125E+00  0.0000000000000E+00 -0.6820335827303E+00
 0.2052691275925E+00 -0.2503995458500E+00  0.0000000000000E+00 -0.6208711073916E+00
 0.2168540971477E+00 -0.2576039764136E+00  0.0000000000000E+00 -0.5620564950636E+00
 0.2190032058858E+00 -0.2557744636694E+00  0.0000000000000E+00 -0.5113799742532E+00
 0.2144135955534E+00 -0.2476744358828E+00  0.0000000000000E+00 -0.4707849403718E+00
 0.2053245132655E+00 -0.2355433017705E+00  0.0000000000000E+00 -0.4397995241994E+00
 0.1933477104494E+00 -0.2209498727206E+00  0.0000000000000E+00 -0.4167479438299E+00
 0.1795214946137E+00 -0.2048656677321E+00  0.0000000000000E+00 -0.3994835950550E+00
 0.1644536214162E+00 -0.1878216270908E+00  0.0000000000000E+00 -0.3857677417347E+00
 0.1484191060622E+00 -0.1700780558950E+00  0.0000000000000E+00 -0.3748073351078E+00
 0.1318350298405E+00 -0.1520417035355E+00  0.0000000000000E+00 -0.3664151592852E+00
 0.1150804355918E+00 -0.1340635266178E+00  0.0000000000000E+00 -0.3598766814725E+00
 0.9829639382106E-01 -0.1162626804495E+00  0.0000000000000E+00 -0.3544475667092E+00
 0.8159482398258E-01 -0.9871545540814E-01  0.0000000000000E+00 -0.3492983818061E+00
 0.6490392691634E-01 -0.8130954245510E-01  0.0000000000000E+00 -0.3435745806152E+00
 0.4802145083334E-01 -0.6381251316482E-01  0.0000000000000E+00 -0.3365138285212E+00
 0.3086808522982E-01 -0.4614115509013E-01  0.0000000000000E+00 -0.3272021543625E+00
 0.4015728076384E-01 -0.1006716346997E+00  0.0000000000000E+00 -0.7245794650133E+00
 0.8591561533042E-01 -0.1434055366966E+00  0.0000000000000E+00 -0.7498198412234E+00
 0.1311108856637E+00 -0.1847765389943E+00  0.0000000000000E+00 -0.7331617854094E+00
 0.1676093867448E+00 -0.2171080722816E+00  0.0000000000000E+00 -0.6918028894493E+00
 0.1928232124960E+00 -0.2381229826281E+00  0.0000000000000E+00 -0.6403340773446E+00
 0.2072791557201E+00 -0.2485590699847E+00  0.0000000000000E+00 -0.5886322614531E+00
 0.2128071899312E+00 -0.2503844086812E+00  0.0000000000000E+00 -0.5424156687030E+00
 0.2115499286766E+00 -0.2458138971789E+00  0.0000000000000E+00 -0.5041553598346E+00
 0.2054358540192E+00 -0.2367926278438E+00  0.0000000000000E+00 -0.4740853917227E+00
 0.1959527847784E+00 -0.2247846979992E+00  0.0000000000000E+00 -0.4511560900185E+00
 0.1841268886332E+00 -0.2107663563683E+00  0.0000000000000E+00 -0.4336780613322E+00
 0.1706052372752E+00 -0.1953204309701E+00  0.0000000000000E+00 -0.4197079038433E+00
 0.1557083400737E+00 -0.1787532281355E+00  0.0000000000000E+00 -0.4084957219290E+00
 0.1398690206011E+00 -0.1614854931576E+00  0.0000000000000E+00 -0.3998016617978E+00
 0.1235156936694E+00 -0.1439166184591E+00  0.0000000000000E+00 -0.3928897779353E+00
 0.1068677020918E+00 -0.1262440512977E+00  0.0000000000000E+00 -0.3870071001092E+00
 0.9010888809574E-01 -0.1086182797527E+00  0.0000000000000E+00 -0.3813513769142E+00
 0.7321187175043E-01 -0.9097626746759E-01  0.0000000000000E+00 -0.3751699055302E+00
 0.5592700015935E-01 -0.7304419223951E-01  0.0000000000000E+00 -0.3678219035097E+00
 0.3796491088638E-01 -0.5453928525913E-01  0.0000000000000E+00 -0.3582313813241E+00
 0.3669438888479E-01 -0.9577772878662E-01  0.0000000000000E+00 -0.7124656698780E+00
 0.7757173368130E-01 -0.1339654787083E+00  0.0000000000000E+00 -0.7389285181507E+00
 0.1195562485012E+00 -0.1725280689372E+00  0.0000000000000E+00 -0.7296383413631E+00
 0.1550684598431E+00 -0.2042858462483E+00  0.0000000000000E+00 -0.6977084302152E+00
 0.1812101230990E+00 -0.2266114934911E+00  0.0000000000000E+00 -0.6550837759530E+00
 0.1978618167680E+00 -0.2395720969570E+00  0.0000000000000E+00 -0.6103973392636E+00
 0.2062176867873E+00 -0.2444885644745E+00  0.0000000000000E+00 -0.5690704419792E+00
 0.2079295419519E+00 -0.2430864196141E+00  0.0000000000000E+00 -0.5338393357050E+00
 0.2046130642408E+00 -0.2370082222368E+00  0.0000000000000E+00 -0.5054366923711E+00
 0.1975959608477E+00 -0.2275718702260E+00  0.0000000000000E+00 -0.4833164534031E+00
 0.1878469410332E+00 -0.2157097676807E+00  0.0000000000000E+00 -0.4661974348384E+00
 0.1760114622689E+00 -0.2020144129627E+00  0.0000000000000E+00 -0.4524311234965E+00
 0.1624289618324E+00 -0.1868113175280E+00  0.0000000000000E+00 -0.4413175773681E+00
 0.1475270203798E+00 -0.1705145914931E+00  0.0000000000000E+00 -0.4325682151231E+00
 0.1317599569513E+00 -0.1535482880278E+00  0.0000000000000E+00 -0.4254324518418E+00
 0.1154158463448E+00 -0.1361776207323E+00  0.0000000000000E+00 -0.4191464068827E+00
 0.9876154781755E-01 -0.1186372897740E+00  0.0000000000000E+00 -0.4129382446920E+00
 0.8184414310993E-01 -0.1009443195295E+00  0.0000000000000E+00 -0.4061989151057E+00
 0.6438867111951E-01 -0.8280616346844E-01  0.0000000000000E+00 -0.3985325761583E+00
 0.4580046953935E-01 -0.6364987138022E-01  0.0000000000000E+00 -0.3888469162014E+00
 0.3383986664452E-01 -0.9166321570054E-01  0.0000000000000E+00 -0.7015062389827E+00
 0.7063827280407E-01 -0.1260453118508E+00  0.0000000000000E+00 -0.7280699161856E+00
 0.1096453106269E+00 -0.1619723124065E+00  0.0000000000000E+00 -0.7244544401477E+00
 0.1439475019777E+00 -0.1928772230110E+00  0.0000000000000E+00 -0.7004814730320E+00
 0.1705290160193E+00 -0.2159809045092E+00  0.0000000000000E+00 -0.6658036952152E+00
 0.1888156014545E+00 -0.2308747975428E+00  0.0000000000000E+00 -0.6278394781349E+00
 0.1995006927779E+00 -0.2383682916026E+00  0.0000000000000E+00 -0.5915791838011E+00
 0.2038157396150E+00 -0.2397654295099E+00  0.0000000000000E+00 -0.5598355673756E+00
 0.2030806706577E+00 -0.2364191631494E+00  0.0000000000000E+00 -0.5336723346829E+00
 0.1984473496407E+00 -0.2294814958464E+00  0.0000000000000E+00 -0.5129335145393E+00
 0.1907974031178E+00 -0.2198085315057E+00  0.0000000000000E+00 -0.4966871065222E+00
 0.1807429871460E+00 -0.2079692855529E+00  0.0000000000000E+00 -0.4835620033042E+00
 0.1686181574061E+00 -0.1942838983993E+00  0.0000000000000E+00 -0.4729079556813E+00
 0.1548233184482E+00 -0.1791380013276E+00  0.0000000000000E+00 -0.4643901743271E+00
 0.1398068655439E+00 -0.1629488918325E+00  0.0000000000000E+00 -0.4572470868734E+00
 0.1239037211800E+00 -0.1460241760779E+00  0.0000000000000E+00 -0.4506784108140E+00
 0.1074724001480E+00 -0.1286899040539E+00  0.0000000000000E+00 -0.4439020351800E+00
 0.9068612484395E-01 -0.1110931338117E+00  0.0000000000000E+00 -0.4364502575435E+00
 0.7331393078952E-01 -0.9299594914462E-01  0.0000000000000E+00 -0.4283279627062E+00
 0.5436686502333E-01 -0.7345075142145E-01  0.0000000000000E+00 -0.4187431137259E+00
 0.3147592687657E-01 -0.8818654128122E-01  0.0000000000000E+00 -0.6914659010923E+00
 0.6488092191905E-01 -0.1193992866896E+00  0.0000000000000E+00 -0.7173436157777E+00
 0.1011819734762E+00 -0.1529119438767E+00  0.0000000000000E+00 -0.7180266302709E+00
 0.1341640180719E+00 -0.1828068270873E+00  0.0000000000000E+00 -0.7007128346149E+00
 0.1608262287629E+00 -0.2062902766705E+00  0.0000000000000E+00 -0.6730896091368E+00
 0.1802898915302E+00 -0.2226311866758E+00  0.0000000000000E+00 -0.6414303140043E+00
 0.1928644395303E+00 -0.2322451316973E+00  0.0000000000000E+00 -0.6102236425728E+00
 0.1994312149295E+00 -0.2360833715848E+00  0.0000000000000E+00 -0.5822281347808E+00
 0.2010424376699E+00 -0.2352346323879E+00  0.0000000000000E+00 -0.5587077536483E+00
 0.1986729310913E+00 -0.2306809687994E+00  0.0000000000000E+00 -0.5397984516131E+00
 0.1931005348783E+00 -0.2231831694478E+00  0.0000000000000E+00 -0.5248577807685E+00
 0.1848817115788E+00 -0.2132629578959E+00  0.0000000000000E+00 -0.5127649087675E+00
 0.1743261379834E+00 -0.2012157204059E+00  0.0000000000000E+00 -0.5029142343355E+00
 0.1617885211799E+00 -0.1873805126639E+00  0.0000000000000E+00 -0.4949298700076E+00
 0.1476778525002E+00 -0.1721346541483E+00  0.0000000000000E+00 -0.4880539151322E+00
 0.1323277216462E+00 -0.1557820167625E+00  0.0000000000000E+00 -0.4814403419623E+00
 0.1161742970257E+00 -0.1387103557895E+00  0.0000000000000E+00 -0.4741789693022E+00
 0.9958781231306E-01 -0.1212713081228E+00  0.0000000000000E+00 -0.4658279859589E+00
 0.8254286036020E-01 -0.1034398179753E+00  0.0000000000000E+00 -0.4569091156361E+00
 0.6364803206363E-01 -0.8390365523386E-01  0.0000000000000E+00 -0.4475415635517E+00
 0.2950609253462E-01 -0.8523068041528E-01  0.0000000000000E+00 -0.6821440175869E+00
 0.6010260030128E-01 -0.1138206123892E+00  0.0000000000000E+00 -0.7067890374355E+00
 0.9398853645261E-01 -0.1451675335116E+00  0.0000000000000E+00 -0.7106589173869E+00
 0.1256239247219E+00 -0.1739860676915E+00  0.0000000000000E+00 -0.6988780588881E+00
 0.1521103942144E+00 -0.1975577529029E+00  0.0000000000000E+00 -0.6774563656317E+00
 0.1723832409877E+00 -0.2149516539805E+00  0.0000000000000E+00 -0.6516119203645E+00
 0.1864669194688E+00 -0.2262884594498E+00  0.0000000000000E+00 -0.6253078517709E+00
 0.1949583980171E+00 -0.2322317084188E+00  0.0000000000000E+00 -0.6011606329304E+00
 0.1986759960188E+00 -0.2336379712320E+00  0.0000000000000E+00 -0.5805353912247E+00
 0.1984262370505E+00 -0.2313261081564E+00  0.0000000000000E+00 -0.5637792562287E+00
 0.1948763861493E+00 -0.2259530845411E+00  0.0000000000000E+00 -0.5504851671353E+00
 0.1885126041802E+00 -0.2179773929241E+00  0.0000000000000E+00 -0.5397515812185E+00
 0.1796069493701E+00 -0.2076560262460E+00  0.0000000000000E+00 -0.5310075931939E+00
 0.1684583402791E+00 -0.1952710486029E+00  0.0000000000000E+00 -0.5238394245959E+00
 0.1554102834054E+00 -0.1811360967604E+00  0.0000000000000E+00 -0.5175193369895E+00
 0.1407472031295E+00 -0.1655031242853E+00  0.0000000000000E+00 -0.5112006797514E+00
 0.1248714906185E+00 -0.1487269622690E+00  0.0000000000000E+00 -0.5038232315925E+00
 0.1083861700301E+00 -0.1313178342814E+00  0.0000000000000E+00 -0.4944911455192E+00
 0.9179821977973E-01 -0.1138497480043E+00  0.0000000000000E+00 -0.4841102656168E+00
 0.7358660712520E-01 -0.9490405686241E-01  0.0000000000000E+00 -0.4747494230025E+00
 0.2784779138402E-01 -0.8269565625165E-01  0.0000000000000E+00 -0.6733725770526E+00
 0.5613574696504E-01 -0.1091305651537E+00  0.0000000000000E+00 -0.6963917311770E+00
 0.8790895711338E-01 -0.1385845885107E+00  0.0000000000000E+00 -0.7025646218703E+00
 0.1182295317316E+00 -0.1663196730218E+00  0.0000000000000E+00 -0.6953642628941E+00
 0.1443628962776E+00 -0.1897722660687E+00  0.0000000000000E+00 -0.6793445281280E+00
 0.1651546143920E+00 -0.2079046292453E+00  0.0000000000000E+00 -0.6587901106787E+00
 0.1804235440484E+00 -0.2206234106314E+00  0.0000000000000E+00 -0.6371414830688E+00
 0.1905418746335E+00 -0.2283632582452E+00  0.0000000000000E+00 -0.6168168446564E+00
 0.1961302271792E+00 -0.2317836408016E+00  0.0000000000000E+00 -0.5992078536176E+00
 0.1978425546257E+00 -0.2315549541034E+00  0.0000000000000E+00 -0.5848095887530E+00
 0.1962360847435E+00 -0.2282294477588E+00  0.0000000000000E+00 -0.5734057640126E+00
 0.1917174646874E+00 -0.2221922929502E+00  0.0000000000000E+00 -0.5642848040558E+00
 0.1845117224451E+00 -0.2136520780873E+00  0.0000000000000E+00 -0.5568973395813E+00
 0.1748583015075E+00 -0.2028294538791E+00  0.0000000000000E+00 -0.5507843170805E+00
 0.1630291463639E+00 -0.1899675061079E+00  0.0000000000000E+00 -0.5452612527546E+00
 0.1492314385902E+00 -0.1752472226523E+00  0.0000000000000E+00 -0.5395513250264E+00
 0.1337663579027E+00 -0.1589153864655E+00  0.0000000000000E+00 -0.5326226000955E+00
 0.1170731585902E+00 -0.1413597676975E+00  0.0000000000000E+00 -0.5231668004796E+00
 0.1005948981961E+00 -0.1236835749341E+00  0.0000000000000E+00 -0.5103691184866E+00
 0.8395581869104E-01 -0.1061332928330E+00  0.0000000000000E+00 -0.4995944636783E+00
 0.2642486894262E-01 -0.8045649137134E-01  0.0000000000000E+00 -0.6649269098505E+00
 0.5285187154551E-01 -0.1052164227130E+00  0.0000000000000E+00 -0.6860388995756E+00
 0.8281683902132E-01 -0.1330282830450E+00  0.0000000000000E+00 -0.6939240704135E+00
 0.1118794394396E+00 -0.1597093957169E+00  0.0000000000000E+00 -0.6904815661288E+00
 0.1375467502993E+00 -0.1829020616172E+00  0.0000000000000E+00 -0.6791286636429E+00
 0.1586323988391E+00 -0.2015262558689E+00  0.0000000000000E+00 -0.6633309895586E+00
 0.1748147075773E+00 -0.2153386633456E+00  0.0000000000000E+00 -0.6460288932488E+00
 0.1862923064450E+00 -0.2245961354665E+00  0.0000000000000E+00 -0.6294068867275E+00
 0.1935243293798E+00 -0.2297963859132E+00  0.0000000000000E+00 -0.6148259710937E+00
 0.1970345199497E+00 -0.2314825224662E+00  0.0000000000000E+00 -0.6028776233144E+00
 0.1972768413136E+00 -0.2301100907627E+00  0.0000000000000E+00 -0.5935092108123E+00
 0.1945707314569E+00 -0.2259805765052E+00  0.0000000000000E+00 -0.5861773599339E+00
 0.1890866217014E+00 -0.2192469116228E+00  0.0000000000000E+00 -0.5803384826068E+00
 0.1810016645315E+00 -0.2100651379181E+00  0.0000000000000E+00 -0.5754791815433E+00
 0.1705148557295E+00 -0.1986034409315E+00  0.0000000000000E+00 -0.5709304852974E+00
 0.1577804576453E+00 -0.1849916270137E+00  0.0000000000000E+00 -0.5659927857099E+00
 0.1429812658691E+00 -0.1693850556125E+00  0.0000000000000E+00 -0.5598029470816E+00
 0.1263758544728E+00 -0.1519608420022E+00  0.0000000000000E+00 -0.5513377001321E+00
 0.1086760138758E+00 -0.1334347367868E+00  0.0000000000000E+00 -0.5389516442061E+00
 0.9368697399751E-01 -0.1158007822069E+00  0.0000000000000E+00 -0.5224241335229E+00
 0.2075102952727E-01 -0.5368362265519E-01  0.0000000000000E+00 -0.1532142905923E+00
 0.5649424801148E-01 -0.8748049722840E-01  0.0000000000000E+00 -0.2008207543973E+00
 0.8646199675800E-01 -0.1159757752356E+00  0.0000000000000E+00 -0.2429500946692E+00
 0.1122665284092E+00 -0.1407031165776E+00  0.0000000000000E+00 -0.2794085055738E+00
 0.1351355049483E+00 -0.1628541580937E+00  0.0000000000000E+00 -0.3105835165447E+00
 0.1560184281801E+00 -0.1833428578499E+00  0.0000000000000E+00 -0.3371399444593E+00
 0.1756163926255E+00 -0.2028419033461E+00  0.0000000000000E+00 -0.3599179579475E+00
 0.1944119867724E+00 -0.2218084550227E+00  0.0000000000000E+00 -0.3798472343985E+00
 0.2126803408650E+00 -0.2404950143141E+00  0.0000000000000E+00 -0.3978426229357E+00
 0.2305132649055E+00 -0.2589735543356E+00  0.0000000000000E+00 -0.4147090145221E+00
 0.2478541247195E+00 -0.2771740265216E+00  0.0000000000000E+00 -0.4310841460989E+00
 0.2645346891796E+00 -0.2949240065570E+00  0.0000000000000E+00 -0.4474382395416E+00
 0.2802859283897E+00 -0.3119766181151E+00  0.0000000000000E+00 -0.4640420447211E+00
 0.2948867269243E+00 -0.3281315362119E+00  0.0000000000000E+00 -0.4812453912994E+00
 0.3080176347485E+00 -0.3430985213739E+00  0.0000000000000E+00 -0.4995293319797E+00
 0.3191761549306E+00 -0.3564154285492E+00  0.0000000000000E+00 -0.5193772030312E+00
 0.3276639459587E+00 -0.3674271361501E+00  0.0000000000000E+00 -0.5409853522201E+00
 0.3326338297885E+00 -0.3753260901150E+00  0.0000000000000E+00 -0.5638907496957E+00
 0.3332923309493E+00 -0.3793502402908E+00  0.0000000000000E+00 -0.5871582331085E+00
 0.3294560506422E+00 -0.3790076164341E+00  0.0000000000000E+00 -0.6091440535998E+00
 0.2049161881385E-01 -0.5207331722643E-01  0.0000000000000E+00 -0.1376170604856E+00
 0.5599534140885E-01 -0.8561610227380E-01  0.0000000000000E+00 -0.1878661410405E+00
 0.8550114868550E-01 -0.1136498629338E+00  0.0000000000000E+00 -0.2314753586767E+00
 0.1107717172447E+00 -0.1378740515892E+00  0.0000000000000E+00 -0.2684651776728E+00
 0.1331414771978E+00 -0.1595715661674E+00  0.0000000000000E+00 -0.2993694198312E+00
 0.1536203834578E+00 -0.1797147443257E+00  0.0000000000000E+00 -0.3250272065586E+00
 0.1729510258225E+00 -0.1990143270175E+00  0.0000000000000E+00 -0.3464372738280E+00
 0.1916435031114E+00 -0.2179539446173E+00  0.0000000000000E+00 -0.3646732112208E+00
 0.2099906255811E+00 -0.2368039436139E+00  0.0000000000000E+00 -0.3807734095514E+00
 0.2280931430724E+00 -0.2556474389834E+00  0.0000000000000E+00 -0.3956523230075E+00
 0.2458921475837E+00 -0.2744147503088E+00  0.0000000000000E+00 -0.4100487882877E+00
 0.2631911643056E+00 -0.2929111887407E+00  0.0000000000000E+00 -0.4245233318605E+00
 0.2796694857497E+00 -0.3108376297622E+00  0.0000000000000E+00 -0.4395091162723E+00
 0.2950930241270E+00 -0.3279904149591E+00  0.0000000000000E+00 -0.4556820803944E+00
 0.3090930093962E+00 -0.3440326999206E+00  0.0000000000000E+00 -0.4738091977442E+00
 0.3210524506365E+00 -0.3583866772870E+00  0.0000000000000E+00 -0.4945533341609E+00
 0.3301163993801E+00 -0.3702378038932E+00  0.0000000000000E+00 -0.5180911356949E+00
 0.3352803715728E+00 -0.3786226655740E+00  0.0000000000000E+00 -0.5436789282063E+00
 0.3357780994114E+00 -0.3827594612925E+00  0.0000000000000E+00 -0.5694609704806E+00
 0.3303303349466E+00 -0.3816956334215E+00  0.0000000000000E+00 -0.5920751906771E+00
 0.2014607257880E-01 -0.5030358514585E-01  0.0000000000000E+00 -0.1223606587696E+00
 0.5523638319442E-01 -0.8341936369317E-01  0.0000000000000E+00 -0.1753089055758E+00
 0.8412619495075E-01 -0.1108524927195E+00  0.0000000000000E+00 -0.2203353739062E+00
 0.1087328491202E+00 -0.1344486477544E+00  0.0000000000000E+00 -0.2576971009511E+00
 0.1304964198222E+00 -0.1555929968335E+00  0.0000000000000E+00 -0.2881445200544E+00
 0.1504894052814E+00 -0.1753141155542E+00  0.0000000000000E+00 -0.3127039508974E+00
 0.1694900740071E+00 -0.1943556604080E+00  0.0000000000000E+00 -0.3325411473114E+00
 0.1880303277725E+00 -0.2132214210138E+00  0.0000000000000E+00 -0.3488717149879E+00
 0.2064149637407E+00 -0.2321940638381E+00  0.0000000000000E+00 -0.3628513193202E+00
 0.2247499420838E+00 -0.2513639044675E+00  0.0000000000000E+00 -0.3754997922099E+00
 0.2429720964100E+00 -0.2706606513868E+00  0.0000000000000E+00 -0.3876635215868E+00
 0.2608666888532E+00 -0.2898733966930E+00  0.0000000000000E+00 -0.4000229357648E+00
 0.2780764083171E+00 -0.3086747158635E+00  0.0000000000000E+00 -0.4131771325008E+00
 0.2943681038102E+00 -0.3268699937906E+00  0.0000000000000E+00 -0.4281492543498E+00
 0.3093330817246E+00 -0.3440872392084E+00  0.0000000000000E+00 -0.4460372908247E+00
 0.3222314843000E+00 -0.3596279828399E+00  0.0000000000000E+00 -0.4676925106682E+00
 0.3320022591525E+00 -0.3724757588527E+00  0.0000000000000E+00 -0.4932007199572E+00
 0.3373868805137E+00 -0.3814118661239E+00  0.0000000000000E+00 -0.5212160516459E+00
 0.3371674803390E+00 -0.3853067583188E+00  0.0000000000000E+00 -0.5488680509087E+00
 0.3300376179749E+00 -0.3829322452661E+00  0.0000000000000E+00 -0.5730820333085E+00
 0.1970666269612E-01 -0.4836219371042E-01  0.0000000000000E+00 -0.1075050792221E+00
 0.5419374542317E-01 -0.8086989166355E-01  0.0000000000000E+00 -0.1631801933942E+00
 0.8230141674610E-01 -0.1075448383670E+00  0.0000000000000E+00 -0.2095291764105E+00
 0.1061131828784E+00 -0.1303915541634E+00  0.0000000000000E+00 -0.2470938497956E+00
 0.1271707610154E+00 -0.1508901721804E+00  0.0000000000000E+00 -0.2768829880064E+00
 0.1466028072151E+00 -0.1701204419290E+00  0.0000000000000E+00 -0.3001389778936E+00
 0.1652159171862E+00 -0.1888505252360E+00  0.0000000000000E+00 -0.3182020622504E+00
 0.1835557026276E+00 -0.2075961373076E+00  0.0000000000000E+00 -0.3324277180560E+00
 0.2019328022312E+00 -0.2266458757322E+00  0.0000000000000E+00 -0.3440810563857E+00
 0.2204555008063E+00 -0.2460945719369E+00  0.0000000000000E+00 -0.3542808881419E+00
 0.2390595702916E+00 -0.2658740641090E+00  0.0000000000000E+00 -0.3639835464779E+00
 0.2575198446682E+00 -0.2857666965817E+00  0.0000000000000E+00 -0.3739947106825E+00
 0.2754527899596E+00 -0.3054286086861E+00  0.0000000000000E+00 -0.3850876317862E+00
 0.2926433282866E+00 -0.3246946683998E+00  0.0000000000000E+00 -0.3986612505920E+00
 0.3086512111387E+00 -0.3431685476725E+00  0.0000000000000E+00 -0.4161788289204E+00
 0.3225903910792E+00 -0.3600126250245E+00  0.0000000000000E+00 -0.4386964119968E+00
 0.3331174824980E+00 -0.3739342551866E+00  0.0000000000000E+00 -0.4661542532165E+00
 0.3385539487265E+00 -0.3833138111859E+00  0.0000000000000E+00 -0.4965744783580E+00
 0.3373953049469E+00 -0.3866902534698E+00  0.0000000000000E+00 -0.5266015045849E+00
 0.3285695402526E+00 -0.3830049901274E+00  0.0000000000000E+00 -0.5530396558529E+00
 0.1916200898928E-01 -0.4623648618052E-01  0.0000000000000E+00 -0.9310814583899E-01
 0.5283807981895E-01 -0.7793711392615E-01  0.0000000000000E+00 -0.1515124955141E+00
 0.7999060329406E-01 -0.1036910495758E+00  0.0000000000000E+00 -0.1990556345902E+00
 0.1028784358320E+00 -0.1256689994636E+00  0.0000000000000E+00 -0.2366292389972E+00
 0.1231382985464E+00 -0.1454388757928E+00  0.0000000000000E+00 -0.2655464452687E+00
 0.1419439765868E+00 -0.1641195907926E+00  0.0000000000000E+00 -0.2872922765993E+00
 0.1601189809753E+00 -0.1824920822957E+00  0.0000000000000E+00 -0.3033907888288E+00
 0.1782125463645E+00 -0.2010733827492E+00  0.0000000000000E+00 -0.3153328973109E+00
 0.1965341396313E+00 -0.2201508545515E+00  0.0000000000000E+00 -0.3244821091095E+00
 0.2151925015726E+00 -0.2398219232538E+00  0.0000000000000E+00 -0.3320450835556E+00
 0.2341260733738E+00 -0.2600248348759E+00  0.0000000000000E+00 -0.3390807656999E+00
 0.2531067620979E+00 -0.2805433885773E+00  0.0000000000000E+00 -0.3465191086561E+00
 0.2717355754930E+00 -0.3010304577368E+00  0.0000000000000E+00 -0.3553133920915E+00
 0.2898321522961E+00 -0.3213700628725E+00  0.0000000000000E+00 -0.3672662492220E+00
 0.3069308371216E+00 -0.3411514812173E+00  0.0000000000000E+00 -0.3842503197248E+00
 0.3219736233321E+00 -0.3593753212723E+00  0.0000000000000E+00 -0.4075775111981E+00
 0.3332538683164E+00 -0.3743963419209E+00  0.0000000000000E+00 -0.4370735803997E+00
 0.3386370774679E+00 -0.3841305046742E+00  0.0000000000000E+00 -0.4701883240469E+00
 0.3364344847687E+00 -0.3869029223009E+00  0.0000000000000E+00 -0.5029676104249E+00
 0.3258561964796E+00 -0.3818787999899E+00  0.0000000000000E+00 -0.5318073603781E+00
 0.1849770003138E-01 -0.4390972433979E-01  0.0000000000000E+00 -0.7923509836998E-01
 0.5113521030038E-01 -0.7458594516420E-01  0.0000000000000E+00 -0.1403364150613E+00
 0.7715518544915E-01 -0.9925259650698E-01  0.0000000000000E+00 -0.1889044709491E+00
 0.9899585676761E-01 -0.1202495070626E+00  0.0000000000000E+00 -0.2262633762655E+00
 0.1183777147470E+00 -0.1392200195872E+00  0.0000000000000E+00 -0.2540818311903E+00
 0.1365039965123E+00 -0.1573056754812E+00  0.0000000000000E+00 -0.2741144461064E+00
 0.1541997739406E+00 -0.1752840725699E+00  0.0000000000000E+00 -0.2880763368970E+00
 0.1720052532337E+00 -0.1936604395453E+00  0.0000000000000E+00 -0.2975861559834E+00
 0.1902207346909E+00 -0.2127126460260E+00  0.0000000000000E+00 -0.3040897316151E+00
 0.2089534258255E+00 -0.2325388562369E+00  0.0000000000000E+00 -0.3088636880239E+00
 0.2281483764177E+00 -0.2530881377489E+00  0.0000000000000E+00 -0.3130549487743E+00
 0.2475825293213E+00 -0.2741545863240E+00  0.0000000000000E+00 -0.3177107938287E+00
 0.2668537306479E+00 -0.2954024635136E+00  0.0000000000000E+00 -0.3239692127629E+00
 0.2858338523894E+00 -0.3167860449532E+00  0.0000000000000E+00 -0.3340663942500E+00
 0.3040412600319E+00 -0.3378932778161E+00  0.0000000000000E+00 -0.3503450964332E+00
 0.3202282175923E+00 -0.3575490574994E+00  0.0000000000000E+00 -0.3744660459796E+00
 0.3322692844400E+00 -0.3736975314064E+00  0.0000000000000E+00 -0.4061932672266E+00
 0.3375288817625E+00 -0.3837446098385E+00  0.0000000000000E+00 -0.4423103115406E+00
 0.3341793320271E+00 -0.3858421410149E+00  0.0000000000000E+00 -0.4780792617622E+00
 0.3217480863135E+00 -0.3794202769130E+00  0.0000000000000E+00 -0.5093502585293E+00
 0.1769581467969E-01 -0.4136110856279E-01  0.0000000000000E+00 -0.6595767309678E-01
 0.4904509077515E-01 -0.7077515224772E-01  0.0000000000000E+00 -0.1296774227520E+00
 0.7375363231922E-01 -0.9418816780981E-01  0.0000000000000E+00 -0.1790519880304E+00
 0.9443427809597E-01 -0.1141034683488E+00  0.0000000000000E+00 -0.2159390278689E+00
 0.1128737288014E+00 -0.1322210995913E+00  0.0000000000000E+00 -0.2424200109832E+00
 0.1302835798776E+00 -0.1496829884871E+00  0.0000000000000E+00 -0.2605457459257E+00
 0.1474708963201E+00 -0.1672429405131E+00  0.0000000000000E+00 -0.2722262257835E+00
 0.1649514742043E+00 -0.1853784171488E+00  0.0000000000000E+00 -0.2791947972115E+00
 0.1830071102407E+00 -0.2043482248485E+00  0.0000000000000E+00 -0.2829571615133E+00
 0.2017410798260E+00 -0.2242489882664E+00  0.0000000000000E+00 -0.2848350228266E+00
 0.2211091540154E+00 -0.2450452139669E+00  0.0000000000000E+00 -0.2860414654382E+00
 0.2409023570254E+00 -0.2665511416672E+00  0.0000000000000E+00 -0.2877285480735E+00
 0.2607308243443E+00 -0.2884603587285E+00  0.0000000000000E+00 -0.2912233680954E+00
 0.2805396589765E+00 -0.3108222385812E+00  0.0000000000000E+00 -0.2992277496153E+00
 0.2998480946519E+00 -0.3332445011731E+00  0.0000000000000E+00 -0.3146293115806E+00
 0.3172151388787E+00 -0.3543763794581E+00  0.0000000000000E+00 -0.3395569002283E+00
 0.3300355668532E+00 -0.3716937467995E+00  0.0000000000000E+00 -0.3737387346071E+00
 0.3351009867619E+00 -0.3820186231855E+00  0.0000000000000E+00 -0.4131339215902E+00
 0.3304734249228E+00 -0.3833530762683E+00  0.0000000000000E+00 -0.4520264736969E+00
 0.3160640132496E+00 -0.3754540219115E+00  0.0000000000000E+00 -0.4856674987965E+00
 0.1673421560744E-01 -0.3856491887142E-01  0.0000000000000E+00 -0.5335510402770E-01
 0.4652062379565E-01 -0.6645621438768E-01  0.0000000000000E+00 -0.1195525539359E+00
 0.6974102446830E-01 -0.8845312483966E-01  0.0000000000000E+00 -0.1694563345884E+00
 0.8916473921153E-01 -0.1072038594683E+00  0.0000000000000E+00 -0.2055775701429E+00
 0.1066186489581E+00 -0.1244377666640E+00  0.0000000000000E+00 -0.2304733109421E+00
 0.1232951560869E+00 -0.1412682170002E+00  0.0000000000000E+00 -0.2465154464902E+00
 0.1399591650649E+00 -0.1584000227531E+00  0.0000000000000E+00 -0.2558072062651E+00
 0.1570838754831E+00 -0.1762640856964E+00  0.0000000000000E+00 -0.2601764574851E+00
 0.1749218890212E+00 -0.1950892247868E+00  0.0000000000000E+00 -0.2611590095731E+00
 0.1935697022757E+00 -0.2149677854816E+00  0.0000000000000E+00 -0.2600896116503E+00
 0.2129982096885E+00 -0.2358845401776E+00  0.0000000000000E+00 -0.2582185595085E+00
 0.2330232497081E+00 -0.2576852932257E+00  0.0000000000000E+00 -0.2567839796155E+00
 0.2532876246463E+00 -0.2801158381856E+00  0.0000000000000E+00 -0.2573058868794E+00
 0.2738359202542E+00 -0.3033512850742E+00  0.0000000000000E+00 -0.2629827859215E+00
 0.2942143648452E+00 -0.3270502985501E+00  0.0000000000000E+00 -0.2773287059295E+00
 0.3127946695918E+00 -0.3496982687960E+00  0.0000000000000E+00 -0.3030791828996E+00
 0.3264151442772E+00 -0.3682310824343E+00  0.0000000000000E+00 -0.3399410618191E+00
 0.3311960399151E+00 -0.3787862182207E+00  0.0000000000000E+00 -0.3828472514910E+00
 0.3251244637199E+00 -0.3792422651830E+00  0.0000000000000E+00 -0.4249130456202E+00
 0.3086010138286E+00 -0.3697808750754E+00  0.0000000000000E+00 -0.4607846762593E+00
 0.1558549726941E-01 -0.3548929345032E-01  0.0000000000000E+00 -0.4151527022108E-01
 0.4350614280042E-01 -0.6157172327234E-01  0.0000000000000E+00 -0.1099665153089E+00
 0.6506882216285E-01 -0.8199927469687E-01  0.0000000000000E+00 -0.1600519065225E+00
 0.8316160457397E-01 -0.9952741168223E-01  0.0000000000000E+00 -0.1950741740036E+00
 0.9961443500105E-01 -0.1158760105941E+00  0.0000000000000E+00 -0.2181328622687E+00
 0.1155652733910E+00 -0.1320929437082E+00  0.0000000000000E+00 -0.2319415091691E+00
 0.1317078292252E+00 -0.1488038369743E+00  0.0000000000000E+00 -0.2387867528156E+00
 0.1484519366339E+00 -0.1663716938059E+00  0.0000000000000E+00 -0.2405618176179E+00
 0.1660092701202E+00 -0.1849834267399E+00  0.0000000000000E+00 -0.2387950107849E+00
 0.1844664081993E+00 -0.2047240151978E+00  0.0000000000000E+00 -0.2347952427313E+00
 0.2038141206068E+00 -0.2256035134989E+00  0.0000000000000E+00 -0.2298139817934E+00
 0.2239058425379E+00 -0.2475125303833E+00  0.0000000000000E+00 -0.2251491888187E+00
 0.2444437018703E+00 -0.2702782202515E+00  0.0000000000000E+00 -0.2225153018754E+00
 0.2656040398937E+00 -0.2942387997360E+00  0.0000000000000E+00 -0.2256326012333E+00
 0.2869949316069E+00 -0.3191452929525E+00  0.0000000000000E+00 -0.2387243162605E+00
 0.3068157781083E+00 -0.3433421008899E+00  0.0000000000000E+00 -0.2652988748449E+00
 0.3212512690704E+00 -0.3631349319718E+00  0.0000000000000E+00 -0.3050543907730E+00
 0.3256263332253E+00 -0.3738493574248E+00  0.0000000000000E+00 -0.3516563620898E+00
 0.3179094061342E+00 -0.3732844657594E+00  0.0000000000000E+00 -0.3968597025599E+00
 0.2991364454544E+00 -0.3621818104590E+00  0.0000000000000E+00 -0.4347343176323E+00
 0.1421555950906E-01 -0.3209452225094E-01  0.0000000000000E+00 -0.3053609825765E-01
 0.3993553041403E-01 -0.5605339920095E-01  0.0000000000000E+00 -0.1009065281671E+00
 0.5968486530018E-01 -0.7477488060560E-01  0.0000000000000E+00 -0.1507423706989E+00
 0.7640431006454E-01 -0.9105648368759E-01  0.0000000000000E+00 -0.1842922079108E+00
 0.9187540427661E-01 -0.1065550268798E+00  0.0000000000000E+00 -0.2052660684722E+00
 0.1071373735909E+00 -0.1222065434136E+00  0.0000000000000E+00 -0.2167311205602E+00
 0.1227788368967E+00 -0.1385223895335E+00  0.0000000000000E+00 -0.2211355873279E+00
 0.1391236397240E+00 -0.1557746458653E+00  0.0000000000000E+00 -0.2203979664288E+00
 0.1563304764738E+00 -0.1740961918548E+00  0.0000000000000E+00 -0.2159937588085E+00
 0.1744728253787E+00 -0.1935614218911E+00  0.0000000000000E+00 -0.2091614237858E+00
 0.1935662250896E+00 -0.2142105437018E+00  0.0000000000000E+00 -0.2011108560372E+00
 0.2135163281708E+00 -0.2359936737889E+00  0.0000000000000E+00 -0.1931640642767E+00
 0.2341183328741E+00 -0.2588554450604E+00  0.0000000000000E+00 -0.1872265055127E+00
 0.2557185876729E+00 -0.2833414721075E+00  0.0000000000000E+00 -0.1875539224101E+00
 0.2780307484817E+00 -0.3093472423000E+00  0.0000000000000E+00 -0.1991593984622E+00
 0.2991084488592E+00 -0.3351130739412E+00  0.0000000000000E+00 -0.2265289705294E+00
 0.3143618491793E+00 -0.3562027342928E+00  0.0000000000000E+00 -0.2693694926180E+00
 0.3181708757382E+00 -0.3669752856079E+00  0.0000000000000E+00 -0.3197926749024E+00
 0.3085733965254E+00 -0.3652223469169E+00  0.0000000000000E+00 -0.3679972418336E+00
 0.2874267717133E+00 -0.3524179864733E+00  0.0000000000000E+00 -0.4075409583726E+00
 0.1258169786835E-01 -0.2833072092463E-01  0.0000000000000E+00 -0.2052707012019E-01
 0.3572991477338E-01 -0.4981963688434E-01  0.0000000000000E+00 -0.9233515655548E-01
 0.5353377239186E-01 -0.6672511060933E-01  0.0000000000000E+00 -0.1413916852330E+00
 0.6887999833431E-01 -0.8178190833228E-01  0.0000000000000E+00 -0.1730568185656E+00
 0.8343176671701E-01 -0.9651098526126E-01  0.0000000000000E+00 -0.1917147147170E+00
 0.9807494015537E-01 -0.1116794598217E+00  0.0000000000000E+00 -0.2007827289786E+00
 0.1132549810111E+00 -0.1276453192773E+00  0.0000000000000E+00 -0.2028315853483E+00
 0.1291868057687E+00 -0.1445667674109E+00  0.0000000000000E+00 -0.1997522829450E+00
 0.1459649716292E+00 -0.1625116364850E+00  0.0000000000000E+00 -0.1929159124731E+00
 0.1636468586616E+00 -0.1815405553108E+00  0.0000000000000E+00 -0.1834426663943E+00
 0.1822770707775E+00 -0.2017276956831E+00  0.0000000000000E+00 -0.1724525880720E+00
 0.2018288771000E+00 -0.2230975538569E+00  0.0000000000000E+00 -0.1612439855980E+00
 0.2222315471673E+00 -0.2457552668246E+00  0.0000000000000E+00 -0.1519016453271E+00
 0.2440454590827E+00 -0.2705049656321E+00  0.0000000000000E+00 -0.1492125863586E+00
 0.2671434575645E+00 -0.2974508845475E+00  0.0000000000000E+00 -0.1590533886671E+00
 0.2894766074228E+00 -0.3247860379823E+00  0.0000000000000E+00 -0.1871431010396E+00
 0.3055324060676E+00 -0.3471961609524E+00  0.0000000000000E+00 -0.2332238344788E+00
 0.3085689120538E+00 -0.3578899931397E+00  0.0000000000000E+00 -0.2875131552108E+00
 0.2968246480167E+00 -0.3547621212991E+00  0.0000000000000E+00 -0.3384549524118E+00
 0.2732053289985E+00 -0.3402294377669E+00  0.0000000000000E+00 -0.3792047689559E+00
 0.1063003284898E-01 -0.2413462829770E-01  0.0000000000000E+00 -0.1161061145053E-01
 0.3079488646943E-01 -0.4277250675736E-01  0.0000000000000E+00 -0.8417998816121E-01
 0.4655806527841E-01 -0.5779328525908E-01  0.0000000000000E+00 -0.1318122735555E+00
 0.6058748241168E-01 -0.7170731189939E-01  0.0000000000000E+00 -0.1611477816558E+00
 0.7433421938405E-01 -0.8580195036176E-01  0.0000000000000E+00 -0.1772945849758E+00
 0.8846491424191E-01 -0.1006067390267E+00  0.0000000000000E+00 -0.1839905093364E+00
 0.1032415911483E+00 -0.1162855054857E+00  0.0000000000000E+00 -0.1838654454039E+00
 0.1187497232683E+00 -0.1328627793514E+00  0.0000000000000E+00 -0.1787165459018E+00
 0.1350112337589E+00 -0.1503333246068E+00  0.0000000000000E+00 -0.1697561568166E+00
 0.1520646115147E+00 -0.1687407844074E+00  0.0000000000000E+00 -0.1579398285316E+00
 0.1699856790025E+00 -0.1881942460540E+00  0.0000000000000E+00 -0.1442464387368E+00
 0.1888292830910E+00 -0.2088050566990E+00  0.0000000000000E+00 -0.1298883686642E+00
 0.2087064158682E+00 -0.2308877536786E+00  0.0000000000000E+00 -0.1171052725801E+00
 0.2304408752629E+00 -0.2555625922358E+00  0.0000000000000E+00 -0.1111841580738E+00
 0.2541299289701E+00 -0.2832214773693E+00  0.0000000000000E+00 -0.1189230025930E+00
 0.2776896605317E+00 -0.3120957216302E+00  0.0000000000000E+00 -0.1475929735872E+00
 0.2945058220052E+00 -0.3358299562352E+00  0.0000000000000E+00 -0.1970107017261E+00
 0.2965089335315E+00 -0.3462672367776E+00  0.0000000000000E+00 -0.2550960631418E+00
 0.2823260150988E+00 -0.3415659564498E+00  0.0000000000000E+00 -0.3083442816062E+00
 0.2561798452717E+00 -0.3253336394240E+00  0.0000000000000E+00 -0.3496809980697E+00
 0.8291996854224E-02 -0.1942510146904E-01  0.0000000000000E+00 -0.3922860263246E-02
 0.2501720666902E-01 -0.3479415226568E-01  0.0000000000000E+00 -0.7631830684124E-01
 0.3870062998206E-01 -0.4792361802996E-01  0.0000000000000E+00 -0.1217491560667E+00
 0.5154323575107E-01 -0.6085570075421E-01  0.0000000000000E+00 -0.1482920810648E+00
 0.6465983621698E-01 -0.7451420926843E-01  0.0000000000000E+00 -0.1617981242117E+00
 0.7842106251684E-01 -0.8911144574692E-01  0.0000000000000E+00 -0.1662525342593E+00
 0.9286721766849E-01 -0.1045795290265E+00  0.0000000000000E+00 -0.1642483654798E+00
 0.1079406209523E+00 -0.1207975084796E+00  0.0000000000000E+00 -0.1574106412815E+00
 0.1235869022825E+00 -0.1376842916636E+00  0.0000000000000E+00 -0.1467429226082E+00
 0.1398225994732E+00 -0.1552626272397E+00  0.0000000000000E+00 -0.1329985021788E+00
 0.1567521689790E+00 -0.1736717142937E+00  0.0000000000000E+00 -0.1169649986895E+00
 0.1745208484928E+00 -0.1931156130972E+00  0.0000000000000E+00 -0.9969002418251E-01
 0.1934737732739E+00 -0.2141704157056E+00  0.0000000000000E+00 -0.8352476526856E-01
 0.2147519407555E+00 -0.2383355269589E+00  0.0000000000000E+00 -0.7418381288198E-01
 0.2387562654073E+00 -0.2663874796393E+00  0.0000000000000E+00 -0.7941316479707E-01
 0.2634709592968E+00 -0.2967233879577E+00  0.0000000000000E+00 -0.1084324613037E+00
 0.2809667508033E+00 -0.3217551338932E+00  0.0000000000000E+00 -0.1611893298572E+00
 0.2816118293887E+00 -0.3317117691249E+00  0.0000000000000E+00 -0.2228322573437E+00
 0.2646831565953E+00 -0.3252413223606E+00  0.0000000000000E+00 -0.2777353674331E+00
 0.2360302972384E+00 -0.3074246869176E+00  0.0000000000000E+00 -0.3188517064634E+00
 0.5479443174185E-02 -0.1409658518181E-01  0.0000000000000E+00  0.2387297267243E-02
 0.1826108947380E-01 -0.2574263087043E-01  0.0000000000000E+00 -0.6855348621445E-01
 0.2990967208626E-01 -0.3706678560232E-01  0.0000000000000E+00 -0.1108583386204E+00
 0.4179049420025E-01 -0.4927957559698E-01  0.0000000000000E+00 -0.1341576017262E+00
 0.5451935346904E-01 -0.6277007731272E-01  0.0000000000000E+00 -0.1450028845177E+00
 0.6808656156102E-01 -0.7734710311575E-01  0.0000000000000E+00 -0.1474842063853E+00
 0.8228248142782E-01 -0.9268607687543E-01  0.0000000000000E+00 -0.1440214067175E+00
 0.9690554063230E-01 -0.1085234059328E+00  0.0000000000000E+00 -0.1359846625955E+00
 0.1118282160048E+00 -0.1247063281849E+00  0.0000000000000E+00 -0.1241346919059E+00
 0.1270404493810E+00 -0.1412305739643E+00  0.0000000000000E+00 -0.1090032775201E+00
 0.1426643867821E+00 -0.1582510050243E+00  0.0000000000000E+00 -0.9114425642451E-01
 0.1589338192788E+00 -0.1760575481590E+00  0.0000000000000E+00 -0.7134459556685E-01
 0.1764810618082E+00 -0.1955378393954E+00  0.0000000000000E+00 -0.5199728147841E-01
 0.1968199691827E+00 -0.2186358716167E+00  0.0000000000000E+00 -0.3910947581659E-01
 0.2207510162817E+00 -0.2466319283124E+00  0.0000000000000E+00 -0.4134344444004E-01
 0.2464811485227E+00 -0.2782775087363E+00  0.0000000000000E+00 -0.7035318882234E-01
 0.2645176536450E+00 -0.3045332624235E+00  0.0000000000000E+00 -0.1262975935586E+00
 0.2634058071762E+00 -0.3137345433213E+00  0.0000000000000E+00 -0.1910096752440E+00
 0.2434288170165E+00 -0.3053271460962E+00  0.0000000000000E+00 -0.2466220342903E+00
 0.2124081221782E+00 -0.2861742428377E+00  0.0000000000000E+00 -0.2864856811163E+00
 0.2077694167708E-02 -0.8009280975302E-02  0.0000000000000E+00  0.7163401002432E-02
 0.1036449184221E-01 -0.1544757297594E-01  0.0000000000000E+00 -0.6057691566202E-01
 0.2014845441406E-01 -0.2519108017004E-01  0.0000000000000E+00 -0.9867721524223E-01
 0.3141308821123E-01 -0.3707642960852E-01  0.0000000000000E+00 -0.1183516212348E+00
 0.4406540816430E-01 -0.5073660808092E-01  0.0000000000000E+00 -0.1266905314399E+00
 0.5763426720767E-01 -0.6549730874738E-01  0.0000000000000E+00 -0.1276381765293E+00
 0.7165606284878E-01 -0.8078126026554E-01  0.0000000000000E+00 -0.1232647045947E+00
 0.8580444543041E-01 -0.9620627794905E-01  0.0000000000000E+00 -0.1146175525428E+00
 0.9988885948427E-01 -0.1115587006748E+00  0.0000000000000E+00 -0.1022120152121E+00
 0.1138641736556E+00 -0.1267963905477E+00  0.0000000000000E+00 -0.8636689895570E-01
 0.1278470817679E+00 -0.1420621554704E+00  0.0000000000000E+00 -0.6737604097068E-01
 0.1421400996670E+00 -0.1577041387958E+00  0.0000000000000E+00 -0.4565793706093E-01
 0.1577080805771E+00 -0.1749589634668E+00  0.0000000000000E+00 -0.2354432467287E-01
 0.1764890526895E+00 -0.1962752672344E+00  0.0000000000000E+00 -0.7104882197265E-02
 0.1997978001935E+00 -0.2235824106178E+00  0.0000000000000E+00 -0.5780302070282E-02
 0.2262932592251E+00 -0.2562646410279E+00  0.0000000000000E+00 -0.3423996744634E-01
 0.2446411428192E+00 -0.2835961343512E+00  0.0000000000000E+00 -0.9296841460269E-01
 0.2412890095064E+00 -0.2917162083924E+00  0.0000000000000E+00 -0.1598850716789E+00
 0.2180029361088E+00 -0.2812770444916E+00  0.0000000000000E+00 -0.2148676985125E+00
 0.1849391579901E+00 -0.2612367608870E+00  0.0000000000000E+00 -0.2521812849232E+00
-0.2064394856503E-02 -0.9735325531722E-03  0.0000000000000E+00  0.1025721395468E-01
 0.1136916700170E-02 -0.3707378547927E-02  0.0000000000000E+00 -0.5190299356745E-01
 0.9414559013783E-02 -0.1230476739970E-01  0.0000000000000E+00 -0.8458462359283E-01
 0.2055615791445E-01 -0.2441240129823E-01  0.0000000000000E+00 -0.1004337515163E+00
 0.3349956050802E-01 -0.3863210719773E-01  0.0000000000000E+00 -0.1066841449814E+00
 0.4726187851641E-01 -0.5376952592973E-01  0.0000000000000E+00 -0.1067291549612E+00
 0.6116712611742E-01 -0.6905011954885E-01  0.0000000000000E+00 -0.1021018515171E+00
 0.7480623640241E-01 -0.8402034332071E-01  0.0000000000000E+00 -0.9351032413625E-01
 0.8793850186578E-01 -0.9841644278404E-01  0.0000000000000E+00 -0.8126604175055E-01
 0.1004695984031E+00 -0.1121423969820E+00  0.0000000000000E+00 -0.6551370893075E-01
 0.1124737102997E+00 -0.1252865221614E+00  0.0000000000000E+00 -0.4629123575912E-01
 0.1242754460809E+00 -0.1381977215319E+00  0.0000000000000E+00 -0.2354616014495E-01
 0.1371944698421E+00 -0.1524674232406E+00  0.0000000000000E+00  0.5866868759383E-03
 0.1536251897002E+00 -0.1710850376918E+00  0.0000000000000E+00  0.2034703499048E-01
 0.1755288001045E+00 -0.1968006330557E+00  0.0000000000000E+00  0.2584530467601E-01
 0.2023539179091E+00 -0.2300434125208E+00  0.0000000000000E+00 -0.1261865939455E-02
 0.2206383691787E+00 -0.2581799531455E+00  0.0000000000000E+00 -0.6195017571291E-01
 0.2144726343039E+00 -0.2648524633879E+00  0.0000000000000E+00 -0.1296295662916E+00
 0.1877298831507E+00 -0.2524424261759E+00  0.0000000000000E+00 -0.1821182433047E+00
 0.1532356346761E+00 -0.2322638024009E+00  0.0000000000000E+00 -0.2152872180190E+00
-0.7149137441428E-02  0.7276577987227E-02  0.0000000000000E+00  0.1156942069556E-01
-0.9636276479775E-02  0.9707637561306E-02  0.0000000000000E+00 -0.4174706151771E-01
-0.2220649996390E-02  0.1495051438217E-02  0.0000000000000E+00 -0.6775318597957E-01
 0.9454881718014E-02 -0.1155339639454E-01  0.0000000000000E+00 -0.7996838005933E-01
 0.2307147007096E-01 -0.2672339329565E-01  0.0000000000000E+00 -0.8491232569716E-01
 0.3717787000096E-01 -0.4237710569222E-01  0.0000000000000E+00 -0.8485317244121E-01
 0.5099583651232E-01 -0.5767826549077E-01  0.0000000000000E+00 -0.8069002515915E-01
 0.6408460988280E-01 -0.7214387138787E-01  0.0000000000000E+00 -0.7287701762172E-01
 0.7616070330571E-01 -0.8546808214981E-01  0.0000000000000E+00 -0.6158559046096E-01
 0.8706482386780E-01 -0.9748326099144E-01  0.0000000000000E+00 -0.4685745937614E-01
 0.9677977759238E-01 -0.1081701608239E+00  0.0000000000000E+00 -0.2852898947042E-01
 0.1055711913299E+00 -0.1177833011014E+00  0.0000000000000E+00 -0.6016819162281E-02
 0.1150874378471E+00 -0.1282149413991E+00  0.0000000000000E+00  0.1888178297731E-01
 0.1281579223411E+00 -0.1429613960562E+00  0.0000000000000E+00  0.4128475216250E-01
 0.1475245265587E+00 -0.1657765046682E+00  0.0000000000000E+00  0.5153618188875E-01
 0.1739201906242E+00 -0.1987479625719E+00  0.0000000000000E+00  0.2696613174733E-01
 0.1915208792176E+00 -0.2272092624238E+00  0.0000000000000E+00 -0.3412877498386E-01
 0.1818913466131E+00 -0.2320716877302E+00  0.0000000000000E+00 -0.1002140577776E+00
 0.1518003165036E+00 -0.2180644536905E+00  0.0000000000000E+00 -0.1476565798227E+00
 0.1169311878037E+00 -0.1989416586918E+00  0.0000000000000E+00 -0.1747988920489E+00
-0.1344497265028E-01  0.1713639944250E-01  0.0000000000000E+00  0.1118849851143E-01
-0.2216402501289E-01  0.2501323440687E-01  0.0000000000000E+00 -0.2877889732198E-01
-0.1452893355656E-01  0.1592630597959E-01  0.0000000000000E+00 -0.4711878993944E-01
-0.1534616229419E-02  0.1093739631083E-02  0.0000000000000E+00 -0.5668245697967E-01
 0.1305003239581E-01 -0.1527557232232E-01  0.0000000000000E+00 -0.6149631358606E-01
 0.2757989157862E-01 -0.3152409162643E-01  0.0000000000000E+00 -0.6215325085989E-01
 0.4131964710505E-01 -0.4684776261664E-01  0.0000000000000E+00 -0.5920838207382E-01
 0.5381411744602E-01 -0.6075551472962E-01  0.0000000000000E+00 -0.5293811816937E-01
 0.6474970655703E-01 -0.7291145112591E-01  0.0000000000000E+00 -0.4344357531546E-01
 0.7389025389486E-01 -0.8306613525542E-01  0.0000000000000E+00 -0.3077568363894E-01
 0.8107424663166E-01 -0.9103288163817E-01  0.0000000000000E+00 -0.1468891571839E-01
 0.8639487578194E-01 -0.9685126762423E-01  0.0000000000000E+00  0.5889801905913E-02
 0.9172210777195E-01 -0.1025591860288E+00  0.0000000000000E+00  0.2955131591603E-01
 0.1001734951309E+00 -0.1119722905767E+00  0.0000000000000E+00  0.5307331214505E-01
 0.1153406695599E+00 -0.1299471171862E+00  0.0000000000000E+00  0.6835141655939E-01
 0.1399492560346E+00 -0.1611480910328E+00  0.0000000000000E+00  0.4806547991173E-01
 0.1558024331550E+00 -0.1890750115988E+00  0.0000000000000E+00 -0.1054151416085E-01
 0.1420511434924E+00 -0.1918987850778E+00  0.0000000000000E+00 -0.7114627754836E-01
 0.1092883839530E+00 -0.1773198416282E+00  0.0000000000000E+00 -0.1101355778357E+00
 0.7576988672734E-01 -0.1610679949475E+00  0.0000000000000E+00 -0.1292740370879E+00
-0.2132885562275E-01  0.2923901381133E-01  0.0000000000000E+00  0.9688802330267E-02
-0.3651817617695E-01  0.4231007130891E-01  0.0000000000000E+00 -0.1042412919430E-01
-0.2692343719881E-01  0.3016637558308E-01  0.0000000000000E+00 -0.2160326479573E-01
-0.1198837710206E-01  0.1315935699240E-01  0.0000000000000E+00 -0.3092378060892E-01
 0.3652941376548E-02 -0.4517181767421E-02  0.0000000000000E+00 -0.3660288375177E-01
 0.1865799025674E-01 -0.2140451213426E-01  0.0000000000000E+00 -0.3879322835610E-01
 0.3231061617226E-01 -0.3673551067216E-01  0.0000000000000E+00 -0.3785142455771E-01
 0.4416763518096E-01 -0.5003217216324E-01  0.0000000000000E+00 -0.3391888466284E-01
 0.5390291924282E-01 -0.6094538129480E-01  0.0000000000000E+00 -0.2709002963281E-01
 0.6121602756952E-01 -0.6916409343037E-01  0.0000000000000E+00 -0.1756809064929E-01
 0.6574657076378E-01 -0.7428236715178E-01  0.0000000000000E+00 -0.5283186502034E-02
 0.6728297789451E-01 -0.7595375738905E-01  0.0000000000000E+00  0.1121735912712E-01
 0.6774573912974E-01 -0.7620646068535E-01  0.0000000000000E+00  0.3066515341778E-01
 0.7012704314959E-01 -0.7859877210923E-01  0.0000000000000E+00  0.5218765537855E-01
 0.7864294307523E-01 -0.8884093523088E-01  0.0000000000000E+00  0.7167444177618E-01
 0.9891110226491E-01 -0.1153864147545E+00  0.0000000000000E+00  0.5810993068885E-01
 0.1110122745172E+00 -0.1410954172834E+00  0.0000000000000E+00  0.7653884155159E-02
 0.9275241810222E-01 -0.1422657073345E+00  0.0000000000000E+00 -0.4074114641849E-01
 0.5932640399851E-01 -0.1295208718958E+00  0.0000000000000E+00 -0.6711218177797E-01
 0.2984252018655E-01 -0.1187812544400E+00  0.0000000000000E+00 -0.7686860145218E-01
-0.3064882112212E-01  0.4519605670697E-01  0.0000000000000E+00  0.1264159076434E-01
-0.5161423185277E-01  0.5920989203043E-01  0.0000000000000E+00  0.1859270795532E-01
-0.3845088244245E-01  0.4358400758434E-01  0.0000000000000E+00  0.7308061864353E-02
-0.2171519340315E-01  0.2441967747815E-01  0.0000000000000E+00 -0.2983671029904E-02
-0.4904153599130E-02  0.5334629578098E-02  0.0000000000000E+00 -0.1036828787233E-01
 0.1059097257056E-01 -0.1220511409972E-01  0.0000000000000E+00 -0.1496556606615E-01
 0.2413365920370E-01 -0.2750831482987E-01  0.0000000000000E+00 -0.1682767058361E-01
 0.3531640135205E-01 -0.4014891894356E-01  0.0000000000000E+00 -0.1603637635389E-01
 0.4381379253612E-01 -0.4976921807628E-01  0.0000000000000E+00 -0.1277355093701E-01
 0.4931440585736E-01 -0.5603578036468E-01  0.0000000000000E+00 -0.7426602807797E-02
 0.5129233289249E-01 -0.5842928716160E-01  0.0000000000000E+00 -0.5629257962613E-03
 0.4896184894015E-01 -0.5589169363894E-01  0.0000000000000E+00  0.9028618411840E-02
 0.4413517674529E-01 -0.5007471281426E-01  0.0000000000000E+00  0.2059802003043E-01
 0.3931999395752E-01 -0.4440010912617E-01  0.0000000000000E+00  0.3477545039091E-01
 0.3789708948245E-01 -0.4286187656450E-01  0.0000000000000E+00  0.5351048066592E-01
 0.4847659260961E-01 -0.5840230384767E-01  0.0000000000000E+00  0.4919614893216E-01
 0.5230678304430E-01 -0.7798485847554E-01  0.0000000000000E+00  0.1929172170741E-01
 0.3038746136798E-01 -0.8003268936182E-01  0.0000000000000E+00 -0.3681714621873E-02
 0.2130114801634E-02 -0.7543230893896E-01  0.0000000000000E+00 -0.1395123908917E-01
-0.1993534849136E-01 -0.7254589143182E-01  0.0000000000000E+00 -0.1701386071826E-01
 0.7835494868294E-01 -0.1027971625313E+00  0.0000000000000E+00 -0.5288093123256E+00
 0.6787089921641E-01 -0.9030925822310E-01  0.0000000000000E+00 -0.5034684315709E+00
 0.5887660342254E-01 -0.8001869371915E-01  0.0000000000000E+00 -0.4768840252064E+00
 0.5054519098012E-01 -0.7043922901906E-01  0.0000000000000E+00 -0.4489383591353E+00
 0.4263207748890E-01 -0.6129704345267E-01  0.0000000000000E+00 -0.4198423371634E+00
 0.3519691205318E-01 -0.5262375545660E-01  0.0000000000000E+00 -0.3898827955439E+00
 0.2832119968438E-01 -0.4449647716505E-01  0.0000000000000E+00 -0.3593123754615E+00
 0.2208017248264E-01 -0.3699029727855E-01  0.0000000000000E+00 -0.3283618924000E+00
 0.1653121552124E-01 -0.3016518879397E-01  0.0000000000000E+00 -0.2972527575130E+00
 0.1171368063382E-01 -0.2406416589594E-01  0.0000000000000E+00 -0.2662046398388E+00
 0.7649627971695E-02 -0.1871346102987E-01  0.0000000000000E+00 -0.2354371368675E+00
 0.4344934981390E-02 -0.1412324260214E-01  0.0000000000000E+00 -0.2051675083173E+00
 0.1790544365896E-02 -0.1028859547905E-01  0.0000000000000E+00 -0.1756058397641E+00
-0.3593759435461E-04 -0.7190872296536E-02  0.0000000000000E+00 -0.1469484872018E+00
-0.1168251729606E-02 -0.4799497504793E-02  0.0000000000000E+00 -0.1193703917186E+00
-0.1648992133301E-02 -0.3073953859270E-02  0.0000000000000E+00 -0.9301570573231E-01
-0.1527844429045E-02 -0.1966283297111E-02  0.0000000000000E+00 -0.6798862757699E-01
-0.8559148317282E-03 -0.1419594414660E-02  0.0000000000000E+00 -0.4432504679921E-01
 0.2985724821407E-03 -0.1380539391436E-02  0.0000000000000E+00 -0.2200458517980E-01
 0.1986809581734E-02 -0.1700667291128E-02  0.0000000000000E+00 -0.3523076534151E-03
 0.8010076867465E-01 -0.1052198325065E+00  0.0000000000000E+00 -0.5492254894856E+00
 0.7028449325866E-01 -0.9389728280778E-01  0.0000000000000E+00 -0.5207957634105E+00
 0.6008064078534E-01 -0.8222254635779E-01  0.0000000000000E+00 -0.4927783070461E+00
 0.5045488855491E-01 -0.7128912323338E-01  0.0000000000000E+00 -0.4646079886548E+00
 0.4150565935059E-01 -0.6106139088552E-01  0.0000000000000E+00 -0.4355312161978E+00
 0.3322435505681E-01 -0.5150541665434E-01  0.0000000000000E+00 -0.4055001362395E+00
 0.2564355148737E-01 -0.4263842996566E-01  0.0000000000000E+00 -0.3746474662692E+00
 0.1881251418778E-01 -0.3450602124837E-01  0.0000000000000E+00 -0.3431799394291E+00
 0.1278322856390E-01 -0.2716059361485E-01  0.0000000000000E+00 -0.3113299131957E+00
 0.7600073917754E-02 -0.2064929416578E-01  0.0000000000000E+00 -0.2793421663080E+00
 0.3294479584074E-02 -0.1500747549476E-01  0.0000000000000E+00 -0.2474679467548E+00
-0.1180759329813E-03 -0.1025511822609E-01  0.0000000000000E+00 -0.2159600359342E+00
-0.2639594974173E-02 -0.6394901982900E-02  0.0000000000000E+00 -0.1850664474474E+00
-0.4290085613476E-02 -0.3411395289744E-02  0.0000000000000E+00 -0.1550224541030E+00
-0.5107278813561E-02 -0.1271029619683E-02  0.0000000000000E+00 -0.1260410638402E+00
-0.5146200650515E-02  0.7741726688693E-04  0.0000000000000E+00 -0.9830291556133E-01
-0.4478342601420E-02  0.7034731187305E-03  0.0000000000000E+00 -0.7194313611259E-01
-0.3200376733318E-02  0.6977756727535E-03  0.0000000000000E+00 -0.4704584390234E-01
-0.1424628626619E-02  0.1942681115188E-03  0.0000000000000E+00 -0.2357678919260E-01
 0.3972041717510E-03 -0.4708496861596E-03  0.0000000000000E+00 -0.1532106585817E-02
 0.8148776009556E-01 -0.1072716236251E+00  0.0000000000000E+00 -0.5667537386073E+00
 0.7174464117884E-01 -0.9621915800120E-01  0.0000000000000E+00 -0.5395896071759E+00
 0.6124346323964E-01 -0.8437235296326E-01  0.0000000000000E+00 -0.5112250260233E+00
 0.5083892768992E-01 -0.7264052034579E-01  0.0000000000000E+00 -0.4825079410776E+00
 0.4098466367486E-01 -0.6148775722330E-01  0.0000000000000E+00 -0.4531130765560E+00
 0.3183699051792E-01 -0.5103998745096E-01  0.0000000000000E+00 -0.4228057369706E+00
 0.2347116241924E-01 -0.4136079334620E-01  0.0000000000000E+00 -0.3915821586290E+00
 0.1595051820177E-01 -0.3250753845554E-01  0.0000000000000E+00 -0.3595695937386E+00
 0.9335772604885E-02 -0.2454014578903E-01  0.0000000000000E+00 -0.3269689511224E+00
 0.3682214971409E-02 -0.1751586070018E-01  0.0000000000000E+00 -0.2940223733360E+00
-0.9659237077635E-03 -0.1148260362124E-01  0.0000000000000E+00 -0.2609968414298E+00
-0.4580464293806E-02 -0.6473271770783E-02  0.0000000000000E+00 -0.2281735431001E+00
-0.7153227019273E-02 -0.2501344331088E-02  0.0000000000000E+00 -0.1958384609040E+00
-0.8698841340902E-02  0.4422863125364E-03  0.0000000000000E+00 -0.1642721822123E+00
-0.9256543652036E-02  0.2391328770074E-02  0.0000000000000E+00 -0.1337386831995E+00
-0.8890853577963E-02  0.3405194977181E-02  0.0000000000000E+00 -0.1044734121925E+00
-0.7693587226026E-02  0.3569882455338E-02  0.0000000000000E+00 -0.7667429839510E-01
-0.5782190808297E-02  0.3000514269635E-02  0.0000000000000E+00 -0.5049312096023E-01
-0.3343270702288E-02  0.1860015102210E-02  0.0000000000000E+00 -0.2606964059325E-01
-0.5514338612009E-03  0.3289465361136E-03  0.0000000000000E+00 -0.3723850705521E-02
 0.8319520439106E-01 -0.1097034824192E+00  0.0000000000000E+00 -0.5836332936528E+00
 0.7303846758004E-01 -0.9835975083000E-01  0.0000000000000E+00 -0.5582736603635E+00
 0.6225638920034E-01 -0.8632157173284E-01  0.0000000000000E+00 -0.5306765393458E+00
 0.5135816667110E-01 -0.7414353149637E-01  0.0000000000000E+00 -0.5019992831236E+00
 0.4080409940233E-01 -0.6229709612021E-01  0.0000000000000E+00 -0.4724182207558E+00
 0.3087137996658E-01 -0.5105794651277E-01  0.0000000000000E+00 -0.4418458383697E+00
 0.2171876552220E-01 -0.4057628230729E-01  0.0000000000000E+00 -0.4102452449653E+00
 0.1345609775846E-01 -0.3095782749603E-01  0.0000000000000E+00 -0.3776899065217E+00
 0.6174194415475E-02 -0.2229231879280E-01  0.0000000000000E+00 -0.3443410744872E+00
-0.4780825167217E-04 -0.1466053867060E-01  0.0000000000000E+00 -0.3104234863480E+00
-0.5143838384445E-02 -0.8132121324381E-02  0.0000000000000E+00 -0.2762070430832E+00
-0.9065450172645E-02 -0.2760471252626E-02  0.0000000000000E+00 -0.2419936215619E+00
-0.1178704810071E-01  0.1422886143280E-02  0.0000000000000E+00 -0.2081055629589E+00
-0.1331073965585E-01  0.4413495234290E-02  0.0000000000000E+00 -0.1748736966690E+00
-0.1367010955858E-01  0.6238096486553E-02  0.0000000000000E+00 -0.1426240459683E+00
-0.1293275290676E-01  0.6957200663936E-02  0.0000000000000E+00 -0.1116641433204E+00
-0.1119994253355E-01  0.6665577216707E-02  0.0000000000000E+00 -0.8227083245278E-01
-0.8608897724407E-02  0.5490995315191E-02  0.0000000000000E+00 -0.5468832150620E-01
-0.5310280789004E-02  0.3579793587587E-02  0.0000000000000E+00 -0.2915871606342E-01
-0.1434368371910E-02  0.1055585017305E-02  0.0000000000000E+00 -0.5922652697515E-02
 0.8534446623417E-01 -0.1126267250502E+00  0.0000000000000E+00 -0.6004093581228E+00
 0.7457850483620E-01 -0.1007662143512E+00  0.0000000000000E+00 -0.5768266383712E+00
 0.6338673506605E-01 -0.8839913106264E-01  0.0000000000000E+00 -0.5504788353857E+00
 0.5203227739825E-01 -0.7581928781189E-01  0.0000000000000E+00 -0.5224214534097E+00
 0.4088508417736E-01 -0.6341037027280E-01  0.0000000000000E+00 -0.4930441099759E+00
 0.3024584420930E-01 -0.5147551232519E-01  0.0000000000000E+00 -0.4624257666328E+00
 0.2033104129312E-01 -0.4022964325508E-01  0.0000000000000E+00 -0.4305815426875E+00
 0.1130204548961E-01 -0.2983177246070E-01  0.0000000000000E+00 -0.3975731915142E+00
 0.3290679865199E-02 -0.2041330420645E-01  0.0000000000000E+00 -0.3635361464993E+00
-0.3589114194927E-02 -0.1208977162114E-01  0.0000000000000E+00 -0.3286757187380E+00
-0.9239406726930E-02 -0.4962615459289E-02  0.0000000000000E+00 -0.2932574052827E+00
-0.1358163780315E-01  0.8844602138010E-03  0.0000000000000E+00 -0.2575968403573E+00
-0.1656249480083E-01  0.5391640637518E-02  0.0000000000000E+00 -0.2220495458649E+00
-0.1816059467289E-01  0.8529990574330E-02  0.0000000000000E+00 -0.1869990717136E+00
-0.1839273843090E-01  0.1030800682874E-01  0.0000000000000E+00 -0.1528425539142E+00
-0.1731819729943E-01  0.1077638745226E-01  0.0000000000000E+00 -0.1199737563866E+00
-0.1504028830603E-01  0.1002952122990E-01  0.0000000000000E+00 -0.8876553065211E-01
-0.1169919013898E-01  0.8200205830161E-02  0.0000000000000E+00 -0.5955617337996E-01
-0.7455032212867E-02  0.5442155866705E-02  0.0000000000000E+00 -0.3263111079334E-01
-0.2458264810191E-02  0.1902721468336E-02  0.0000000000000E+00 -0.8205223050182E-02
 0.8795365057486E-01 -0.1160540264880E+00  0.0000000000000E+00 -0.6172065626466E+00
 0.7653145466520E-01 -0.1036185936866E+00  0.0000000000000E+00 -0.5953089921452E+00
 0.6483764580748E-01 -0.9082536915182E-01  0.0000000000000E+00 -0.5704319933581E+00
 0.5299374920505E-01 -0.7781682921787E-01  0.0000000000000E+00 -0.5433911907513E+00
 0.4127716554165E-01 -0.6488114302298E-01  0.0000000000000E+00 -0.5146133554830E+00
 0.2996899575269E-01 -0.5230341534957E-01  0.0000000000000E+00 -0.4842655066267E+00
 0.1930869564824E-01 -0.4032331878857E-01  0.0000000000000E+00 -0.4524156545795E+00
 0.9495665780090E-02 -0.2913957851061E-01  0.0000000000000E+00 -0.4191345779995E+00
 0.7016953165149E-03 -0.1892393465925E-01  0.0000000000000E+00 -0.3845430245193E+00
-0.6920051611097E-02 -0.9831059267081E-02  0.0000000000000E+00 -0.3488276720709E+00
-0.1323255601684E-01 -0.2001259334459E-02  0.0000000000000E+00 -0.3122436595170E+00
-0.1811781397869E-01  0.4442350028357E-02  0.0000000000000E+00 -0.2751122389432E+00
-0.2148334476357E-01  0.9400439146899E-02  0.0000000000000E+00 -0.2378155980033E+00
-0.2327086486896E-01  0.1280630948922E-01  0.0000000000000E+00 -0.2007882634534E+00
-0.2346558833850E-01  0.1463551627192E-01  0.0000000000000E+00 -0.1645036625013E+00
-0.2210441994558E-01  0.1491445032825E-01  0.0000000000000E+00 -0.1294547841467E+00
-0.1928011260670E-01  0.1372536110779E-01  0.0000000000000E+00 -0.9612907150951E-01
-0.1513923204840E-01  0.1120494844120E-01  0.0000000000000E+00 -0.6497636731696E-01
-0.9871178613178E-02  0.7535429604464E-02  0.0000000000000E+00 -0.3636793470063E-01
-0.3685077870280E-02  0.2922312545195E-02  0.0000000000000E+00 -0.1054289413602E-01
 0.9102144806871E-01 -0.1199790958507E+00  0.0000000000000E+00 -0.6339965221839E+00
 0.7896925281759E-01 -0.1069921821194E+00  0.0000000000000E+00 -0.6137311581654E+00
 0.6673224933190E-01 -0.9373189107254E-01  0.0000000000000E+00 -0.5904346495034E+00
 0.5436312291265E-01 -0.8026419431414E-01  0.0000000000000E+00 -0.5646759226628E+00
 0.4206895784227E-01 -0.6680364627227E-01  0.0000000000000E+00 -0.5368259070488E+00
 0.3009886717098E-01 -0.5360232197469E-01  0.0000000000000E+00 -0.5070704062135E+00
 0.1869428087410E-01 -0.4090200723292E-01  0.0000000000000E+00 -0.4754999963033E+00
 0.8076721445438E-02 -0.2892361314153E-01  0.0000000000000E+00 -0.4421881241879E+00
-0.1549804384659E-02 -0.1787089678169E-01  0.0000000000000E+00 -0.4072400810387E+00
-0.9994411854954E-02 -0.7935669828715E-02  0.0000000000000E+00 -0.3708194711435E+00
-0.1707800949887E-01  0.7003545023561E-03  0.0000000000000E+00 -0.3331618014519E+00
-0.2263631670917E-01  0.7868296018345E-02  0.0000000000000E+00 -0.2945815646781E+00
-0.2652704557328E-01  0.1341912744481E-01  0.0000000000000E+00 -0.2554752459161E+00
-0.2864059102234E-01  0.1723434099219E-01  0.0000000000000E+00 -0.2163197226150E+00
-0.2891318908268E-01  0.1923925747945E-01  0.0000000000000E+00 -0.1776638004180E+00
-0.2734065835993E-01  0.1941722926446E-01  0.0000000000000E+00 -0.1401099669016E+00
-0.2399005572699E-01  0.1782197276254E-01  0.0000000000000E+00 -0.1042836720597E+00
-0.1900602216614E-01  0.1458496100482E-01  0.0000000000000E+00 -0.7078945678034E-01
-0.1261121440186E-01  0.9916514549742E-02  0.0000000000000E+00 -0.4015464906576E-01
-0.5100107886395E-02  0.4104544176181E-02  0.0000000000000E+00 -0.1274681510128E-01
 0.9454516354916E-01 -0.1243948800676E+00  0.0000000000000E+00 -0.6506943665069E+00
 0.8191980365794E-01 -0.1109147147939E+00  0.0000000000000E+00 -0.6320434013718E+00
 0.6913720013525E-01 -0.9718791944456E-01  0.0000000000000E+00 -0.6103883071692E+00
 0.5622364088723E-01 -0.8324803572111E-01  0.0000000000000E+00 -0.5860871130567E+00
 0.4333928883963E-01 -0.6925923413298E-01  0.0000000000000E+00 -0.5594178786901E+00
 0.3070233581421E-01 -0.5544074288365E-01  0.0000000000000E+00 -0.5305390305281E+00
 0.1854593677526E-01 -0.4202488539932E-01  0.0000000000000E+00 -0.4995320640221E+00
 0.7101688561288E-02 -0.2924168058111E-01  0.0000000000000E+00 -0.4664557340955E+00
-0.3403446328086E-02 -0.1731672631951E-01  0.0000000000000E+00 -0.4313892127498E+00
-0.1274603110832E-01 -0.6473088279746E-02  0.0000000000000E+00 -0.3944622679680E+00
-0.2070591825059E-01  0.3067863568532E-02  0.0000000000000E+00 -0.3558765066011E+00
-0.2706924802652E-01  0.1108895552180E-01  0.0000000000000E+00 -0.3159216251221E+00
-0.3163575396053E-01  0.1738409369147E-01  0.0000000000000E+00 -0.2749884915281E+00
-0.3423090308493E-01  0.2177006892496E-01  0.0000000000000E+00 -0.2335783589357E+00
-0.3472291988785E-01  0.2410344027614E-01  0.0000000000000E+00 -0.1923050000986E+00
-0.3304382258370E-01  0.2430175062038E-01  0.0000000000000E+00 -0.1518843402506E+00
-0.2921188048692E-01  0.2236664668481E-01  0.0000000000000E+00 -0.1131054021459E+00
-0.2335111140140E-01  0.1840431994021E-01  0.0000000000000E+00 -0.7677886198441E-01
-0.1570312590127E-01  0.1263813547878E-01  0.0000000000000E+00 -0.4366808805237E-01
-0.6641625196636E-02  0.5420035352139E-02  0.0000000000000E+00 -0.1441847924010E-01
 0.9852273582252E-01 -0.1292966843164E+00  0.0000000000000E+00 -0.6672014051448E+00
 0.8539310925857E-01 -0.1153961451893E+00  0.0000000000000E+00 -0.6501644936124E+00
 0.7208866664097E-01 -0.1012313416948E+00  0.0000000000000E+00 -0.6301872610096E+00
 0.5863151477055E-01 -0.8682707466610E-01  0.0000000000000E+00 -0.6074593018002E+00
 0.4515294724402E-01 -0.7231522736047E-01  0.0000000000000E+00 -0.5821582652021E+00
 0.3184543766488E-01 -0.5788691640020E-01  0.0000000000000E+00 -0.5543904839790E+00
 0.1892981206812E-01 -0.4376021801002E-01  0.0000000000000E+00 -0.5242047941006E+00
 0.6639607739292E-02 -0.3016527876767E-01  0.0000000000000E+00 -0.4916276779751E+00
-0.4783729140343E-02 -0.1734024902709E-01  0.0000000000000E+00 -0.4566983773945E+00
-0.1509101865449E-01 -0.5531786950048E-02  0.0000000000000E+00 -0.4194987727148E+00
-0.2402510412867E-01  0.5004055805936E-02  0.0000000000000E+00 -0.3801790518591E+00
-0.3132284188829E-01  0.1400317996243E-01  0.0000000000000E+00 -0.3389815911037E+00
-0.3672120894066E-01  0.2119885886771E-01  0.0000000000000E+00 -0.2962646466488E+00
-0.3996924783164E-01  0.2633295894147E-01  0.0000000000000E+00 -0.2525255042561E+00
-0.4084759541432E-01  0.2917479236676E-01  0.0000000000000E+00 -0.2084197975408E+00
-0.3919684764230E-01  0.2954912351053E-01  0.0000000000000E+00 -0.1647695762417E+00
-0.3495395077661E-01  0.2737283007357E-01  0.0000000000000E+00 -0.1225483494425E+00
-0.2819129340367E-01  0.2269518596099E-01  0.0000000000000E+00 -0.8283068189913E-01
-0.1914714928056E-01  0.1572994994011E-01  0.0000000000000E+00 -0.4670362651774E-01
-0.8233028048132E-02  0.6860450847692E-02  0.0000000000000E+00 -0.1518195393030E-01
 0.1029572564989E+00 -0.1346905564691E+00  0.0000000000000E+00 -0.6834190253105E+00
 0.8941088099023E-01 -0.1204630689531E+00  0.0000000000000E+00 -0.6680290945195E+00
 0.7563739601865E-01 -0.1059201946878E+00  0.0000000000000E+00 -0.6497745107672E+00
 0.6166711154336E-01 -0.9109066458515E-01  0.0000000000000E+00 -0.6287193729598E+00
 0.4761381592641E-01 -0.7608581645686E-01  0.0000000000000E+00 -0.6049485111490E+00
 0.3364901933325E-01 -0.6107324124524E-01  0.0000000000000E+00 -0.5785063985580E+00
 0.1997929757539E-01 -0.4625442993147E-01  0.0000000000000E+00 -0.5493952121846E+00
 0.6833991500400E-02 -0.3185295047039E-01  0.0000000000000E+00 -0.5175959932176E+00
-0.5538924884224E-02 -0.1811086186595E-01  0.0000000000000E+00 -0.4830956982550E+00
-0.1687251528018E-01 -0.5289613388790E-02  0.0000000000000E+00 -0.4459144095252E+00
-0.2687922703108E-01  0.6327686541743E-02  0.0000000000000E+00 -0.4061325499282E+00
-0.3525033795101E-01  0.1643500222167E-01  0.0000000000000E+00 -0.3639200227947E+00
-0.4165871231362E-01  0.2470524004689E-01  0.0000000000000E+00 -0.3195694202818E+00
-0.4576747132066E-01  0.3079779217195E-01  0.0000000000000E+00 -0.2735344519938E+00
-0.4724810370059E-01  0.3437527984191E-01  0.0000000000000E+00 -0.2264722619899E+00
-0.4581260207101E-01  0.3513425037998E-01  0.0000000000000E+00 -0.1792831556529E+00
-0.4126369464220E-01  0.3285469575894E-01  0.0000000000000E+00 -0.1331313156960E+00
-0.3356142373547E-01  0.2746748447996E-01  0.0000000000000E+00 -0.8941817561782E-01
-0.2289030766185E-01  0.1912488364442E-01  0.0000000000000E+00 -0.4967867606808E-01
-0.9681317371509E-02  0.8231410151903E-02  0.0000000000000E+00 -0.1539161364436E-01
 0.1078625582322E+00 -0.1405862202167E+00  0.0000000000000E+00 -0.6992264559009E+00
 0.9400556159299E-01 -0.1261476409552E+00  0.0000000000000E+00 -0.6855575568960E+00
 0.7985155115983E-01 -0.1113252005838E+00  0.0000000000000E+00 -0.6691029770547E+00
 0.6544040807390E-01 -0.9615440778723E-01  0.0000000000000E+00 -0.6498429223652E+00
 0.5087427594383E-01 -0.8073223064491E-01  0.0000000000000E+00 -0.6277843887350E+00
 0.3630640371312E-01 -0.6520549428159E-01  0.0000000000000E+00 -0.6029106484050E+00
 0.2192715837166E-01 -0.4975695636097E-01  0.0000000000000E+00 -0.5751719251770E+00
 0.7955724741898E-02 -0.3459729437756E-01  0.0000000000000E+00 -0.5444966926201E+00
-0.5362139759420E-02 -0.1996322444301E-01  0.0000000000000E+00 -0.5108110972523E+00
-0.1775213872589E-01 -0.6119889282485E-02  0.0000000000000E+00 -0.4740616737028E+00
-0.2890726289431E-01  0.6634463389132E-02  0.0000000000000E+00 -0.4342410456993E+00
-0.3848322152039E-01  0.1796325503427E-01  0.0000000000000E+00 -0.3914186997814E+00
-0.4609541971955E-01  0.2748762810078E-01  0.0000000000000E+00 -0.3457801207348E+00
-0.5132022769961E-01  0.3478635520585E-01  0.0000000000000E+00 -0.2976780470630E+00
-0.5370511936762E-01  0.3940396803247E-01  0.0000000000000E+00 -0.2476990249465E+00
-0.5279544050746E-01  0.4087472134159E-01  0.0000000000000E+00 -0.1967450514649E+00
-0.4819014267262E-01  0.3877491081684E-01  0.0000000000000E+00 -0.1461191529966E+00
-0.3963912559669E-01  0.3281916832177E-01  0.0000000000000E+00 -0.9757291488603E-01
-0.2717644303279E-01  0.2299705382532E-01  0.0000000000000E+00 -0.5323440783812E-01
-0.1124507432588E-01  0.9709134035332E-02  0.0000000000000E+00 -0.1531795865100E-01
 0.1132512748843E+00 -0.1469913000310E+00  0.0000000000000E+00 -0.7144901457587E+00
 0.9919984860709E-01 -0.1324685993520E+00  0.0000000000000E+00 -0.7026188337107E+00
 0.8477885511916E-01 -0.1174920052742E+00  0.0000000000000E+00 -0.6880503701166E+00
 0.7003325999991E-01 -0.1021001739656E+00  0.0000000000000E+00 -0.6707115306677E+00
 0.5505554971932E-01 -0.8637821539483E-01  0.0000000000000E+00 -0.6505497075262E+00
 0.3998197614987E-01 -0.7045365440594E-01  0.0000000000000E+00 -0.6274950006652E+00
 0.2498476213134E-01 -0.5448862068327E-01  0.0000000000000E+00 -0.6014485628322E+00
 0.1026735778046E-01 -0.3867522040586E-01  0.0000000000000E+00 -0.5722869204654E+00
-0.3935736693556E-02 -0.2323553821343E-01  0.0000000000000E+00 -0.5398742120087E+00
-0.1735509878517E-01 -0.8425732308071E-02  0.0000000000000E+00 -0.5040787669228E+00
-0.2967939047653E-01  0.5456679902722E-02  0.0000000000000E+00 -0.4647939365957E+00
-0.4054614385907E-01  0.1806317699164E-01  0.0000000000000E+00 -0.4219655411124E+00
-0.4953136034677E-01  0.2898313331956E-01  0.0000000000000E+00 -0.3756303371209E+00
-0.5613970208941E-01  0.3773280701658E-01  0.0000000000000E+00 -0.3259721017416E+00
-0.5979905116650E-01  0.4374777814065E-01  0.0000000000000E+00 -0.2734045356693E+00
-0.5986779073448E-01  0.4638647396352E-01  0.0000000000000E+00 -0.2186925119786E+00
-0.5567269605501E-01  0.4496169199261E-01  0.0000000000000E+00 -0.1631212327572E+00
-0.4661501241280E-01  0.3883676815311E-01  0.0000000000000E+00 -0.1086992375845E+00
-0.3238929658770E-01  0.2764446578052E-01  0.0000000000000E+00 -0.5826747782625E-01
-0.1330055758353E-01  0.1161232688063E-01  0.0000000000000E+00 -0.1526285680211E-01
 0.1191281864204E+00 -0.1539064297585E+00  0.0000000000000E+00 -0.7290787397104E+00
 0.1050032328291E+00 -0.1394309050200E+00  0.0000000000000E+00 -0.7190524748155E+00
 0.9044230291319E-01 -0.1244394986183E+00  0.0000000000000E+00 -0.7064338414322E+00
 0.7549108994044E-01 -0.1089701327745E+00  0.0000000000000E+00 -0.6911158350074E+00
 0.6023284854431E-01 -0.9309697573980E-01  0.0000000000000E+00 -0.6730037301537E+00
 0.4478777298944E-01 -0.7692957072621E-01  0.0000000000000E+00 -0.6519869238408E+00
 0.2930894023341E-01 -0.6060869357264E-01  0.0000000000000E+00 -0.6279270445574E+00
 0.1398005507713E-01 -0.4430406703184E-01  0.0000000000000E+00 -0.6006573532420E+00
-0.9832349743917E-03 -0.2821565788313E-01  0.0000000000000E+00 -0.5699884057477E+00
-0.1532814688190E-01 -0.1257884983233E-01  0.0000000000000E+00 -0.5357174230533E+00
-0.2875570787167E-01  0.2326516453913E-02  0.0000000000000E+00 -0.4976413121407E+00
-0.4090771729279E-01  0.1616307432172E-01  0.0000000000000E+00 -0.4555755144185E+00
-0.5134940256708E-01  0.2851841974050E-01  0.0000000000000E+00 -0.4093832962888E+00
-0.5954751497285E-01  0.3888270638446E-01  0.0000000000000E+00 -0.3590235499735E+00
-0.6484450931092E-01  0.4662156365166E-01  0.0000000000000E+00 -0.3046308409569E+00
-0.6643264072009E-01  0.5094719581545E-01  0.0000000000000E+00 -0.2466512194494E+00
-0.6334147945620E-01  0.5089893842590E-01  0.0000000000000E+00 -0.1860730715430E+00
-0.5448054721986E-01  0.4536952409431E-01  0.0000000000000E+00 -0.1248139529423E+00
-0.3887041468289E-01  0.3329914046790E-01  0.0000000000000E+00 -0.6628759763719E-01
-0.1622677405416E-01  0.1427611225576E-01  0.0000000000000E+00 -0.1569314736803E-01
 0.1254884080411E+00 -0.1613226808146E+00  0.0000000000000E+00 -0.7428664442391E+00
 0.1114124245879E+00 -0.1470264774442E+00  0.0000000000000E+00 -0.7346906963970E+00
 0.9684505783322E-01 -0.1321656603705E+00  0.0000000000000E+00 -0.7240439974128E+00
 0.8183053677167E-01 -0.1167756808878E+00  0.0000000000000E+00 -0.7107985607174E+00
 0.6644369604685E-01 -0.1009210813320E+00  0.0000000000000E+00 -0.6948324101164E+00
 0.5079041926026E-01 -0.8469568755183E-01  0.0000000000000E+00 -0.6760079881806E+00
 0.3500556772695E-01 -0.6822036894141E-01  0.0000000000000E+00 -0.6541608148760E+00
 0.1925207314209E-01 -0.5164196365721E-01  0.0000000000000E+00 -0.6290956500189E+00
 0.3722831971817E-02 -0.3513496297240E-01  0.0000000000000E+00 -0.6005867920892E+00
-0.1135388715125E-01 -0.1890663859816E-01  0.0000000000000E+00 -0.5683804455991E+00
-0.2570493171604E-01 -0.3206182164349E-02  0.0000000000000E+00 -0.5321987009370E+00
-0.3899769817063E-01  0.1166120903154E-01  0.0000000000000E+00 -0.4917463294322E+00
-0.5081887582975E-01  0.2531367171300E-01  0.0000000000000E+00 -0.4467236793358E+00
-0.6064389791692E-01  0.3726280758288E-01  0.0000000000000E+00 -0.3968523469722E+00
-0.6779326757252E-01  0.4687062757663E-01  0.0000000000000E+00 -0.3419267716374E+00
-0.7137073687958E-01  0.5328780707790E-01  0.0000000000000E+00 -0.2819183088997E+00
-0.7017929283776E-01  0.5536740389745E-01  0.0000000000000E+00 -0.2171883753994E+00
-0.6262198755716E-01  0.5155590348609E-01  0.0000000000000E+00 -0.1489353061267E+00
-0.4667243826738E-01  0.3981654995936E-01  0.0000000000000E+00 -0.8019347458805E-01
-0.2046329151484E-01  0.1804843759500E-01  0.0000000000000E+00 -0.1775318346665E-01
 0.1323172434695E+00 -0.1692211975064E+00  0.0000000000000E+00 -0.7557340294236E+00
 0.1184114082998E+00 -0.1552341856068E+00  0.0000000000000E+00 -0.7493691060531E+00
 0.1039723895916E+00 -0.1406498173118E+00  0.0000000000000E+00 -0.7406658817630E+00
 0.8904290905847E-01 -0.1255015026383E+00  0.0000000000000E+00 -0.7294844055034E+00
 0.7369133992170E-01 -0.1098466816181E+00  0.0000000000000E+00 -0.7156867501175E+00
 0.5801244701045E-01 -0.9376729390899E-01  0.0000000000000E+00 -0.6991204296000E+00
 0.4212632835762E-01 -0.7736848253605E-01  0.0000000000000E+00 -0.6796082236591E+00
 0.2617809568468E-01 -0.6077799539721E-01  0.0000000000000E+00 -0.6569428401836E+00
 0.1033964929251E-01 -0.4414759152332E-01  0.0000000000000E+00 -0.6308838976212E+00
-0.5185656958012E-02 -0.2765720112273E-01  0.0000000000000E+00 -0.6011552786116E+00
-0.2015464608030E-01 -0.1152259604351E-01  0.0000000000000E+00 -0.5674417351715E+00
-0.3427094108705E-01  0.3992209058774E-02  0.0000000000000E+00 -0.5293844427966E+00
-0.4716428522182E-01  0.1855565504788E-01  0.0000000000000E+00 -0.4865761855417E+00
-0.5835850507604E-01  0.3173858289164E-01  0.0000000000000E+00 -0.4385585639030E+00
-0.6722089143619E-01  0.4296653434683E-01  0.0000000000000E+00 -0.3848273516718E+00
-0.7287983535366E-01  0.5144178415222E-01  0.0000000000000E+00 -0.3248611785577E+00
-0.7408541925956E-01  0.5601082073582E-01  0.0000000000000E+00 -0.2582124173270E+00
-0.6896476471406E-01  0.5492899073626E-01  0.0000000000000E+00 -0.1847691829131E+00
-0.5455788194847E-01  0.4541284379319E-01  0.0000000000000E+00 -0.1055273408185E+00
-0.2618635886657E-01  0.2285943184847E-01  0.0000000000000E+00 -0.2551408156664E-01
 0.1395906384099E+00 -0.1775735221356E+00  0.0000000000000E+00 -0.7675697382354E+00
 0.1259716115028E+00 -0.1640199594452E+00  0.0000000000000E+00 -0.7629318373444E+00
 0.1117922177351E+00 -0.1498532509894E+00  0.0000000000000E+00 -0.7560906952380E+00
 0.9709499681806E-01 -0.1351065962879E+00  0.0000000000000E+00 -0.7468990901171E+00
 0.8194476101835E-01 -0.1198338383315E+00  0.0000000000000E+00 -0.7352099282422E+00
 0.6642956783935E-01 -0.1041101661019E+00  0.0000000000000E+00 -0.7208633460447E+00
 0.5066038552094E-01 -0.8803150506211E-01  0.0000000000000E+00 -0.7036782577803E+00
 0.3477121630597E-01 -0.7171430315683E-01  0.0000000000000E+00 -0.6834471682463E+00
 0.1892076486092E-01 -0.5529674705505E-01  0.0000000000000E+00 -0.6599322802807E+00
 0.3296395770622E-02 -0.3894209418299E-01  0.0000000000000E+00 -0.6328611164047E+00
-0.1187880430611E-01 -0.2284485495665E-01  0.0000000000000E+00 -0.6019201670137E+00
-0.2633456201515E-01 -0.7240997854475E-02  0.0000000000000E+00 -0.5667451759762E+00
-0.3973523582392E-01  0.7575715111175E-02  0.0000000000000E+00 -0.5269064868738E+00
-0.5165066311042E-01  0.2122737091284E-01  0.0000000000000E+00 -0.4818873596162E+00
-0.6150797169330E-01  0.3320814617046E-01  0.0000000000000E+00 -0.4310522810073E+00
-0.6850827522755E-01  0.4280847332188E-01  0.0000000000000E+00 -0.3736011396310E+00
-0.7147398277950E-01  0.4897602416933E-01  0.0000000000000E+00 -0.3085040378459E+00
-0.6854356637438E-01  0.5003941813442E-01  0.0000000000000E+00 -0.2344164282776E+00
-0.5649425889370E-01  0.4309881930871E-01  0.0000000000000E+00 -0.1495936504433E+00
-0.2863917206959E-01  0.2223664773424E-01  0.0000000000000E+00 -0.5226567806391E-01
 0.1472759736168E+00 -0.1863424221101E+00  0.0000000000000E+00 -0.7782707370008E+00
 0.1340527186538E+00 -0.1733376250793E+00  0.0000000000000E+00 -0.7752353025645E+00
 0.1202560650410E+00 -0.1597202356606E+00  0.0000000000000E+00 -0.7701241016992E+00
 0.1059300952390E+00 -0.1455254604435E+00  0.0000000000000E+00 -0.7627840148724E+00
 0.9113903623776E-01 -0.1308071313559E+00  0.0000000000000E+00 -0.7530604315652E+00
 0.7596872171096E-01 -0.1156389149474E+00  0.0000000000000E+00 -0.7407871519289E+00
 0.6052705977553E-01 -0.1001145150024E+00  0.0000000000000E+00 -0.7257796393013E+00
 0.4494483249398E-01 -0.8434814659382E-01  0.0000000000000E+00 -0.7078305652200E+00
 0.2937774577548E-01 -0.6847615499605E-01  0.0000000000000E+00 -0.6867060611326E+00
 0.1401043361512E-01 -0.5266042969698E-01  0.0000000000000E+00 -0.6621411075171E+00
-0.9368014073097E-03 -0.3709432096972E-01  0.0000000000000E+00 -0.6338324645566E+00
-0.1519733656535E-01 -0.2201211885956E-01  0.0000000000000E+00 -0.6014271629857E+00
-0.2844168535253E-01 -0.7703886540172E-02  0.0000000000000E+00 -0.5645035100914E+00
-0.4025157886653E-01  0.5461201422460E-02  0.0000000000000E+00 -0.5225392228943E+00
-0.5007834072672E-01  0.1699730220637E-01  0.0000000000000E+00 -0.4748563275925E+00
-0.5717345376465E-01  0.2623931360877E-01  0.0000000000000E+00 -0.4205213883565E+00
-0.6046668394665E-01  0.3223342185808E-01  0.0000000000000E+00 -0.3581536684437E+00
-0.5833581776673E-01  0.3353288353658E-01  0.0000000000000E+00 -0.2855201382773E+00
-0.4812465142463E-01  0.2777761738381E-01  0.0000000000000E+00 -0.1985874501849E+00
-0.2486453012834E-01  0.1067328918620E-01  0.0000000000000E+00 -0.8829730519509E-01
 0.1553330310201E+00 -0.1954828129209E+00  0.0000000000000E+00 -0.7877442182990E+00
 0.1426039041100E+00 -0.1831301240463E+00  0.0000000000000E+00 -0.7861507579049E+00
 0.1293007758503E+00 -0.1701797669457E+00  0.0000000000000E+00 -0.7825923522200E+00
 0.1154704046512E+00 -0.1566705557369E+00  0.0000000000000E+00 -0.7769083746470E+00
 0.1011784141633E+00 -0.1426588636776E+00  0.0000000000000E+00 -0.7689337076473E+00
 0.8651143672397E-01 -0.1282205557932E+00  0.0000000000000E+00 -0.7584905168102E+00
 0.7157840103108E-01 -0.1134520628721E+00  0.0000000000000E+00 -0.7453824062989E+00
 0.5651205683405E-01 -0.9847165881593E-01  0.0000000000000E+00 -0.7293898254459E+00
 0.4147153397573E-01 -0.8342170663599E-01  0.0000000000000E+00 -0.7102652286129E+00
 0.2664655530145E-01 -0.6847246047429E-01  0.0000000000000E+00 -0.6877263226200E+00
 0.1226393253488E-01 -0.5382801282238E-01  0.0000000000000E+00 -0.6614453775173E+00
-0.1402847690251E-02 -0.3973513871344E-01  0.0000000000000E+00 -0.6310317042434E+00
-0.1401980605758E-01 -0.2649609650685E-01  0.0000000000000E+00 -0.5960025695682E+00
-0.2517279753743E-01 -0.1448688725020E-01  0.0000000000000E+00 -0.5557341652339E+00
-0.3433976974333E-01 -0.4182994431083E-02  0.0000000000000E+00 -0.5093768855075E+00
-0.4085244703186E-01  0.3805106075662E-02  0.0000000000000E+00 -0.4557037596677E+00
-0.4384608826599E-01  0.8685697887190E-02  0.0000000000000E+00 -0.3928258066168E+00
-0.4220842715261E-01  0.9437858209552E-02  0.0000000000000E+00 -0.3176233614900E+00
-0.3458250234395E-01  0.4815807506101E-02  0.0000000000000E+00 -0.2244831852077E+00
-0.2011471656520E-01 -0.6103306649933E-02  0.0000000000000E+00 -0.1021494161913E+00
 0.1637151546437E+00 -0.2049429471324E+00  0.0000000000000E+00 -0.7959085199486E+00
 0.1515656564313E+00 -0.1933313332307E+00  0.0000000000000E+00 -0.7955662992645E+00
 0.1388513106939E+00 -0.1811483436800E+00  0.0000000000000E+00 -0.7933467725295E+00
 0.1256213990339E+00 -0.1684366608077E+00  0.0000000000000E+00 -0.7890782738360E+00
 0.1119431826900E+00 -0.1552559374051E+00  0.0000000000000E+00 -0.7825793766155E+00
 0.9790464692416E-01 -0.1416853813386E+00  0.0000000000000E+00 -0.7736517809758E+00
 0.8361633955385E-01 -0.1278254637233E+00  0.0000000000000E+00 -0.7620744405069E+00
 0.6921323349975E-01 -0.1137996531377E+00  0.0000000000000E+00 -0.7475977170932E+00
 0.5485723531923E-01 -0.9975678415468E-01  0.0000000000000E+00 -0.7299359915143E+00
 0.4074074108572E-01 -0.8587445650147E-01  0.0000000000000E+00 -0.7087568251030E+00
 0.2709149219094E-01 -0.7236372055694E-01  0.0000000000000E+00 -0.6836641804696E+00
 0.1417882886610E-01 -0.5947516362931E-01  0.0000000000000E+00 -0.6541720872612E+00
 0.2321134116110E-02 -0.4750623616387E-01  0.0000000000000E+00 -0.6196631047075E+00
-0.8106483650323E-02 -0.3680897994130E-01  0.0000000000000E+00 -0.5793223282580E+00
-0.1666711347236E-01 -0.2779561462107E-01  0.0000000000000E+00 -0.5320312915752E+00
-0.2286715603313E-01 -0.2093512416302E-01  0.0000000000000E+00 -0.4761946149956E+00
-0.2619245287377E-01 -0.1672244045211E-01  0.0000000000000E+00 -0.4094516361926E+00
-0.2623128609231E-01 -0.1556998224349E-01  0.0000000000000E+00 -0.3281914151079E+00
-0.2307803725576E-01 -0.1746195461629E-01  0.0000000000000E+00 -0.2267557701239E+00
-0.1854670367172E-01 -0.2089193191096E-01  0.0000000000000E+00 -0.9680663246592E-01
 0.1723705697874E+00 -0.2146657390302E+00  0.0000000000000E+00 -0.8026935752192E+00
 0.1608720167806E+00 -0.2038682836245E+00  0.0000000000000E+00 -0.8033879252910E+00
 0.1488243117363E+00 -0.1925334761548E+00  0.0000000000000E+00 -0.8022663084781E+00
 0.1362775489071E+00 -0.1807065194732E+00  0.0000000000000E+00 -0.7991417808057E+00
 0.1232989500750E+00 -0.1684490545934E+00  0.0000000000000E+00 -0.7938102538124E+00
 0.1099758228148E+00 -0.1558420357520E+00  0.0000000000000E+00 -0.7860440511170E+00
 0.9641748168942E-01 -0.1429876170496E+00  0.0000000000000E+00 -0.7755855763460E+00
 0.8275681120336E-01 -0.1300107147796E+00  0.0000000000000E+00 -0.7621399344765E+00
 0.6915185489990E-01 -0.1170606346116E+00  0.0000000000000E+00 -0.7453649494083E+00
 0.5578752190905E-01 -0.1043128721250E+00  0.0000000000000E+00 -0.7248566945597E+00
 0.4287717574238E-01 -0.9197088781172E-01  0.0000000000000E+00 -0.7001281261805E+00
 0.3066340387479E-01 -0.8026722394521E-01  0.0000000000000E+00 -0.6705775369714E+00
 0.1941645090637E-01 -0.6946257570225E-01  0.0000000000000E+00 -0.6354421971011E+00
 0.9427224420865E-02 -0.5983998010832E-01  0.0000000000000E+00 -0.5937306005154E+00
 0.9886346513248E-03 -0.5168838674539E-01  0.0000000000000E+00 -0.5441242506485E+00
-0.5647584034207E-02 -0.4526387115791E-01  0.0000000000000E+00 -0.4848378157811E+00
-0.1036512626967E-01 -0.4070410300336E-01  0.0000000000000E+00 -0.4134297588155E+00
-0.1338603916580E-01 -0.3784434729653E-01  0.0000000000000E+00 -0.3265824997143E+00
-0.1568907265648E-01 -0.3583273176030E-01  0.0000000000000E+00 -0.2200351198809E+00
-0.1961940115656E-01 -0.3250952803163E-01  0.0000000000000E+00 -0.8934361632250E-01
 0.1812437900814E+00 -0.2245900845240E+00  0.0000000000000E+00 -0.8080402115152E+00
 0.1704527431472E+00 -0.2146631146428E+00  0.0000000000000E+00 -0.8095386812771E+00
 0.1591313054849E+00 -0.2042366240169E+00  0.0000000000000E+00 -0.8092565920487E+00
 0.1473273903381E+00 -0.1933555991773E+00  0.0000000000000E+00 -0.8069878943582E+00
 0.1351048727528E+00 -0.1820806058005E+00  0.0000000000000E+00 -0.8025008320566E+00
 0.1225463340497E+00 -0.1704905461725E+00  0.0000000000000E+00 -0.7955319232007E+00
 0.1097545973343E+00 -0.1586842445455E+00  0.0000000000000E+00 -0.7857793916211E+00
 0.9685340586254E-01 -0.1467812339962E+00  0.0000000000000E+00 -0.7728948834370E+00
 0.8398740208746E-01 -0.1349219177926E+00  0.0000000000000E+00 -0.7564721196298E+00
 0.7132121650426E-01 -0.1232669440020E+00  0.0000000000000E+00 -0.7360309812796E+00
 0.5903703825176E-01 -0.1119952164840E+00  0.0000000000000E+00 -0.7109952792333E+00
 0.4732942194358E-01 -0.1012993830377E+00  0.0000000000000E+00 -0.6806621470075E+00
 0.3639510498001E-01 -0.9137672114934E-01  0.0000000000000E+00 -0.6441607435205E+00
 0.2641396463000E-01 -0.8241179724188E-01  0.0000000000000E+00 -0.6003981335216E+00
 0.1751443038765E-01 -0.7454463886247E-01  0.0000000000000E+00 -0.5479918300668E+00
 0.9712035805892E-02 -0.6781375260699E-01  0.0000000000000E+00 -0.4851943446504E+00
 0.2802858674434E-02 -0.6205666640126E-01  0.0000000000000E+00 -0.4098323035786E+00
-0.3811538599996E-02 -0.5674425236889E-01  0.0000000000000E+00 -0.3193330509650E+00
-0.1135625257497E-01 -0.5074846002028E-01  0.0000000000000E+00 -0.2110221454020E+00
-0.2184219731264E-01 -0.4216294623317E-01  0.0000000000000E+00 -0.8290420245961E-01
 0.1902764182022E+00 -0.2346514886876E+00  0.0000000000000E+00 -0.8119001130516E+00
 0.1802340444723E+00 -0.2256336559019E+00  0.0000000000000E+00 -0.8139578726941E+00
 0.1696794936397E+00 -0.2161538952291E+00  0.0000000000000E+00 -0.8142476570105E+00
 0.1586548873033E+00 -0.2062534383315E+00  0.0000000000000E+00 -0.8125417439040E+00
 0.1472164299117E+00 -0.1959875461761E+00  0.0000000000000E+00 -0.8085780744927E+00
 0.1354368401132E+00 -0.1854279950434E+00  0.0000000000000E+00 -0.8020546705319E+00
 0.1234061902416E+00 -0.1746640252192E+00  0.0000000000000E+00 -0.7926234954759E+00
 0.1112313652382E+00 -0.1638019807618E+00  0.0000000000000E+00 -0.7798824372845E+00
 0.9903415932271E-01 -0.1529636780082E+00  0.0000000000000E+00 -0.7633644066517E+00
 0.8694766327307E-01 -0.1422831858916E+00  0.0000000000000E+00 -0.7425226655049E+00
 0.7511014344017E-01 -0.1319012667333E+00  0.0000000000000E+00 -0.7167116052268E+00
 0.6365503334617E-01 -0.1219561704918E+00  0.0000000000000E+00 -0.6851624519332E+00
 0.5269485733717E-01 -0.1125687073769E+00  0.0000000000000E+00 -0.6469540775144E+00
 0.4229578293889E-01 -0.1038184412401E+00  0.0000000000000E+00 -0.6009808046655E+00
 0.3243805249896E-01 -0.9570641760957E-01  0.0000000000000E+00 -0.5459229821217E+00
 0.2295621523201E-01 -0.8809842086461E-01  0.0000000000000E+00 -0.4802344471465E+00
 0.1345394531252E-01 -0.8064305961773E-01  0.0000000000000E+00 -0.4021780715182E+00
 0.3199762843572E-02 -0.7266816332478E-01  0.0000000000000E+00 -0.3099690330735E+00
-0.8957577569813E-02 -0.6309096371330E-01  0.0000000000000E+00 -0.2020955507854E+00
-0.2457506392712E-01 -0.5042084337714E-01  0.0000000000000E+00 -0.7781319258472E-01
 0.1994066267254E+00 -0.2447824547485E+00  0.0000000000000E+00 -0.8142421511134E+00
 0.1901383284480E+00 -0.2366945929827E+00  0.0000000000000E+00 -0.8166113396711E+00
 0.1803724514109E+00 -0.2281785813147E+00  0.0000000000000E+00 -0.8172063382335E+00
 0.1701414194735E+00 -0.2192679591014E+00  0.0000000000000E+00 -0.8157775845756E+00
 0.1594891071415E+00 -0.2100079802606E+00  0.0000000000000E+00 -0.8120328063182E+00
 0.1484730677535E+00 -0.2004578948765E+00  0.0000000000000E+00 -0.8056325713351E+00
 0.1371646029418E+00 -0.1906911512365E+00  0.0000000000000E+00 -0.7961855032661E+00
 0.1256469669994E+00 -0.1807938110270E+00  0.0000000000000E+00 -0.7832418243418E+00
 0.1140117330144E+00 -0.1708612180824E+00  0.0000000000000E+00 -0.7662846279054E+00
 0.1023529787776E+00 -0.1609926004837E+00  0.0000000000000E+00 -0.7447186816447E+00
 0.9075855728583E-01 -0.1512829020516E+00  0.0000000000000E+00 -0.7178569390568E+00
 0.7929730170514E-01 -0.1418107327784E+00  0.0000000000000E+00 -0.6849055594086E+00
 0.6800057520913E-01 -0.1326208908964E+00  0.0000000000000E+00 -0.6449494155783E+00
 0.5683618687748E-01 -0.1236995010466E+00  0.0000000000000E+00 -0.5969422664407E+00
 0.4567265526468E-01 -0.1149396950221E+00  0.0000000000000E+00 -0.5397096649923E+00
 0.3423295355300E-01 -0.1060966903155E+00  0.0000000000000E+00 -0.4719790398768E+00
 0.2204138432794E-01 -0.9673506340904E-01  0.0000000000000E+00 -0.3924597916516E+00
 0.8377660427547E-02 -0.8618116556264E-01  0.0000000000000E+00 -0.2999990208256E+00
-0.7733521906900E-02 -0.7350835346518E-01  0.0000000000000E+00 -0.1938186526929E+00
-0.2746390706193E-01 -0.5759006486465E-01  0.0000000000000E+00 -0.7378530441344E-01
 0.2085729327030E+00 -0.2549157724521E+00  0.0000000000000E+00 -0.8150461816136E+00
 0.2000897907149E+00 -0.2477624320821E+00  0.0000000000000E+00 -0.8174829213641E+00
 0.1911181384409E+00 -0.2402084504438E+00  0.0000000000000E+00 -0.8181260229536E+00
 0.1816765732883E+00 -0.2322754636335E+00  0.0000000000000E+00 -0.8167063727600E+00
 0.1717921155525E+00 -0.2239940501789E+00  0.0000000000000E+00 -0.8129042233930E+00
 0.1615023564075E+00 -0.2154059210636E+00  0.0000000000000E+00 -0.8063469170254E+00
 0.1508548584393E+00 -0.2065634432311E+00  0.0000000000000E+00 -0.7966064674386E+00
 0.1399043051363E+00 -0.1975269910464E+00  0.0000000000000E+00 -0.7831957678340E+00
 0.1287075802641E+00 -0.1883603086197E+00  0.0000000000000E+00 -0.7655632740832E+00
 0.1173165795284E+00 -0.1791236941574E+00  0.0000000000000E+00 -0.7430865887152E+00
 0.1057682473507E+00 -0.1698645096354E+00  0.0000000000000E+00 -0.7150658585997E+00
 0.9407111650428E-01 -0.1606042991505E+00  0.0000000000000E+00 -0.6807185981867E+00
 0.8218755304000E-01 -0.1513217056315E+00  0.0000000000000E+00 -0.6391786964366E+00
 0.7001111385471E-01 -0.1419305351451E+00  0.0000000000000E+00 -0.5895041681895E+00
 0.5733923228069E-01 -0.1322530328906E+00  0.0000000000000E+00 -0.5307007566027E+00
 0.4384347816229E-01 -0.1219902974814E+00  0.0000000000000E+00 -0.4617713091496E+00
 0.2904353749249E-01 -0.1106955481641E+00  0.0000000000000E+00 -0.3818015562401E+00
 0.1229630837740E-01 -0.9776132173785E-01  0.0000000000000E+00 -0.2900864869408E+00
-0.7185294091514E-02 -0.8243549092601E-01  0.0000000000000E+00 -0.1862829512581E+00
-0.3027367850222E-01 -0.6387713875055E-01  0.0000000000000E+00 -0.7054698387742E-01
 0.2177159602174E+00 -0.2649862277398E+00  0.0000000000000E+00 -0.8143010642295E+00
 0.2100169802390E+00 -0.2587578665597E+00  0.0000000000000E+00 -0.8165702748326E+00
 0.2018320987482E+00 -0.2521486882831E+00  0.0000000000000E+00 -0.8170202055478E+00
 0.1931619976175E+00 -0.2451641850597E+00  0.0000000000000E+00 -0.8153663802426E+00
 0.1840127757421E+00 -0.2378159831696E+00  0.0000000000000E+00 -0.8112664085892E+00
 0.1743981944768E+00 -0.2301240954357E+00  0.0000000000000E+00 -0.8043209230621E+00
 0.1643385866569E+00 -0.2221159213398E+00  0.0000000000000E+00 -0.7940744232882E+00
 0.1538572676068E+00 -0.2138228213618E+00  0.0000000000000E+00 -0.7800148817646E+00
 0.1429748902928E+00 -0.2052747000323E+00  0.0000000000000E+00 -0.7615724134198E+00
 0.1317017747441E+00 -0.1964926228979E+00  0.0000000000000E+00 -0.7381179460470E+00
 0.1200279933899E+00 -0.1874792416376E+00  0.0000000000000E+00 -0.7089632486901E+00
 0.1079109367442E+00 -0.1782067328748E+00  0.0000000000000E+00 -0.6733641992053E+00
 0.9526025627131E-01 -0.1686021043924E+00  0.0000000000000E+00 -0.6305299388006E+00
 0.8192058977506E-01 -0.1585301890983E+00  0.0000000000000E+00 -0.5796415590325E+00
 0.6765350689020E-01 -0.1477756176673E+00  0.0000000000000E+00 -0.5198849258742E+00
 0.5212183522734E-01 -0.1360267374041E+00  0.0000000000000E+00 -0.4505023371012E+00
 0.3488173312802E-01 -0.1228666817545E+00  0.0000000000000E+00 -0.3708653592288E+00
 0.1538941762726E-01 -0.1077785474114E+00  0.0000000000000E+00 -0.2805646221645E+00
-0.6971804437951E-02 -0.9017068996344E-01  0.0000000000000E+00 -0.1795016751925E+00
-0.3284456677405E-01 -0.6942248969788E-01  0.0000000000000E+00 -0.6795734196233E-01
 0.2267791238118E+00 -0.2749313556670E+00  0.0000000000000E+00 -0.8120041162380E+00
 0.2198536740264E+00 -0.2696067455811E+00  0.0000000000000E+00 -0.8138833210562E+00
 0.2124383419879E+00 -0.2639128771896E+00  0.0000000000000E+00 -0.8139192118169E+00
 0.2045120878380E+00 -0.2578350962327E+00  0.0000000000000E+00 -0.8118174519617E+00
 0.1960567193619E+00 -0.2513624538292E+00  0.0000000000000E+00 -0.8072191224962E+00
 0.1870594530606E+00 -0.2444902220498E+00  0.0000000000000E+00 -0.7997058914119E+00
 0.1775115096208E+00 -0.2372185298694E+00  0.0000000000000E+00 -0.7888047944378E+00
 0.1674040963418E+00 -0.2295484526334E+00  0.0000000000000E+00 -0.7739915267134E+00
 0.1567225661952E+00 -0.2214763249930E+00  0.0000000000000E+00 -0.7546930223912E+00
 0.1454390310539E+00 -0.2129865395718E+00  0.0000000000000E+00 -0.7302906827385E+00
 0.1335034661283E+00 -0.2040428496121E+00  0.0000000000000E+00 -0.7001258165801E+00
 0.1208333639922E+00 -0.1945782039938E+00  0.0000000000000E+00 -0.6635090504202E+00
 0.1073022703057E+00 -0.1844833976819E+00  0.0000000000000E+00 -0.6197357249784E+00
 0.9272808711789E-01 -0.1735953490196E+00  0.0000000000000E+00 -0.5681094994976E+00
 0.7686289066717E-01 -0.1616866555891E+00  0.0000000000000E+00 -0.5079761974046E+00
 0.5938709950096E-01 -0.1484591710972E+00  0.0000000000000E+00 -0.4387687816545E+00
 0.3991177215156E-01 -0.1335453478254E+00  0.0000000000000E+00 -0.3600617130734E+00
 0.1799273531226E-01 -0.1165211517366E+00  0.0000000000000E+00 -0.2716290372108E+00
-0.6842101014490E-02 -0.9693222356439E-01  0.0000000000000E+00 -0.1734967946155E+00
-0.3505608359200E-01 -0.7432987228340E-01  0.0000000000000E+00 -0.6597900819978E-01
 0.2357091799545E+00 -0.2846920607810E+00  0.0000000000000E+00 -0.8081600266095E+00
 0.2295394179919E+00 -0.2802406973267E+00  0.0000000000000E+00 -0.8094423547585E+00
 0.2228696957301E+00 -0.2754234562517E+00  0.0000000000000E+00 -0.8088669005448E+00
 0.2156538978708E+00 -0.2702019540906E+00  0.0000000000000E+00 -0.8061356471969E+00
 0.2078470126017E+00 -0.2645398694313E+00  0.0000000000000E+00 -0.8008796653094E+00
 0.1994082356046E+00 -0.2584059235642E+00  0.0000000000000E+00 -0.7926696100157E+00
 0.1902993398314E+00 -0.2517722307480E+00  0.0000000000000E+00 -0.7810248922709E+00
 0.1804804317800E+00 -0.2446100974002E+00  0.0000000000000E+00 -0.7654205138586E+00
 0.1699043014291E+00 -0.2368844475126E+00  0.0000000000000E+00 -0.7452929315362E+00
 0.1585098613677E+00 -0.2285473474155E+00  0.0000000000000E+00 -0.7200467349358E+00
 0.1462148693515E+00 -0.2195308010736E+00  0.0000000000000E+00 -0.6890637935963E+00
 0.1329081510722E+00 -0.2097390028064E+00  0.0000000000000E+00 -0.6517163264910E+00
 0.1184418032933E+00 -0.1990404879363E+00  0.0000000000000E+00 -0.6073851336017E+00
 0.1026243079532E+00 -0.1872610646248E+00  0.0000000000000E+00 -0.5554838689372E+00
 0.8521605843339E-01 -0.1741789813972E+00  0.0000000000000E+00 -0.4954894787705E+00
 0.6592934457289E-01 -0.1595243510936E+00  0.0000000000000E+00 -0.4269775190885E+00
 0.4443514271903E-01 -0.1429851742896E+00  0.0000000000000E+00 -0.3496589839299E+00
 0.2037885345022E-01 -0.1242221146644E+00  0.0000000000000E+00 -0.2634134738630E+00
-0.6594282230475E-02 -0.1028928847909E+00  0.0000000000000E+00 -0.1683145115076E+00
-0.3680719411427E-01 -0.7868347632217E-01  0.0000000000000E+00 -0.6464793323027E-01
 0.2444564829403E+00 -0.2942129462194E+00  0.0000000000000E+00 -0.8027802055195E+00
 0.2390195501835E+00 -0.2905972847113E+00  0.0000000000000E+00 -0.8032768769772E+00
 0.2330674798760E+00 -0.2866115758707E+00  0.0000000000000E+00 -0.8019183786086E+00
 0.2265262053882E+00 -0.2821906030333E+00  0.0000000000000E+00 -0.7984092311961E+00
 0.2193222680991E+00 -0.2772707779608E+00  0.0000000000000E+00 -0.7923765421542E+00
 0.2113866088322E+00 -0.2717937205002E+00  0.0000000000000E+00 -0.7833872153320E+00
 0.2026526121896E+00 -0.2657042179404E+00  0.0000000000000E+00 -0.7709618298799E+00
 0.1930516446344E+00 -0.2589457429236E+00  0.0000000000000E+00 -0.7545845006937E+00
 0.1825077835885E+00 -0.2514551855994E+00  0.0000000000000E+00 -0.7337109744770E+00
 0.1709323820057E+00 -0.2431574187268E+00  0.0000000000000E+00 -0.7077773060265E+00
 0.1582186858633E+00 -0.2339598906349E+00  0.0000000000000E+00 -0.6762108825162E+00
 0.1442366961756E+00 -0.2237474140898E+00  0.0000000000000E+00 -0.6384449471267E+00
 0.1288286679654E+00 -0.2123775194741E+00  0.0000000000000E+00 -0.5939371886070E+00
 0.1118059489240E+00 -0.1996770543403E+00  0.0000000000000E+00 -0.5421922973591E+00
 0.9294817044012E-01 -0.1854410345065E+00  0.0000000000000E+00 -0.4827874880104E+00
 0.7200599501722E-01 -0.1694349604953E+00  0.0000000000000E+00 -0.4153987520248E+00
 0.4870857358515E-01 -0.1514017958205E+00  0.0000000000000E+00 -0.3398240968563E+00
 0.2277689406447E-01 -0.1310747252214E+00  0.0000000000000E+00 -0.2559985062094E+00
-0.6054686373403E-02 -0.1081975975619E+00  0.0000000000000E+00 -0.1639965587221E+00
-0.3800631108664E-01 -0.8255549810290E-01  0.0000000000000E+00 -0.6402967479118E-01
 0.2529753269746E+00 -0.3034427659138E+00  0.0000000000000E+00 -0.7958812945148E+00
 0.2482452672339E+00 -0.3006202478428E+00  0.0000000000000E+00 -0.7954230985909E+00
 0.2429810996289E+00 -0.2974169759991E+00  0.0000000000000E+00 -0.7931361096360E+00
 0.2370783379246E+00 -0.2937381995584E+00  0.0000000000000E+00 -0.7887329100241E+00
 0.2304343417917E+00 -0.2894920816221E+00  0.0000000000000E+00 -0.7818412644506E+00
 0.2229527945296E+00 -0.2845938554214E+00  0.0000000000000E+00 -0.7720301291415E+00
 0.2145409919098E+00 -0.2789629625033E+00  0.0000000000000E+00 -0.7588285153149E+00
 0.2051048991120E+00 -0.2725180315871E+00  0.0000000000000E+00 -0.7417375045927E+00
 0.1945442319529E+00 -0.2651719035153E+00  0.0000000000000E+00 -0.7202391735682E+00
 0.1827482409623E+00 -0.2568273520437E+00  0.0000000000000E+00 -0.6938056331917E+00
 0.1695922793840E+00 -0.2473735608225E+00  0.0000000000000E+00 -0.6619101848792E+00
 0.1549351569573E+00 -0.2366833431382E+00  0.0000000000000E+00 -0.6240415418140E+00
 0.1386174268627E+00 -0.2246112421805E+00  0.0000000000000E+00 -0.5797212073289E+00
 0.1204609571128E+00 -0.2109928638985E+00  0.0000000000000E+00 -0.5285233229291E+00
 0.1002702841764E+00 -0.1956459552891E+00  0.0000000000000E+00 -0.4700954921865E+00
 0.7783622049355E-01 -0.1783737428320E+00  0.0000000000000E+00 -0.4041782024941E+00
 0.5294196099958E-01 -0.1589708255220E+00  0.0000000000000E+00 -0.3306194695939E+00
 0.2537139862199E-01 -0.1372315308977E+00  0.0000000000000E+00 -0.2493798065917E+00
-0.5078998374754E-02 -0.1129616726500E+00  0.0000000000000E+00 -0.1605180842838E+00
-0.3857299706415E-01 -0.8600303221447E-01  0.0000000000000E+00 -0.6415121205165E-01
 0.2612237133275E+00 -0.3123343253542E+00  0.0000000000000E+00 -0.7874838602851E+00
 0.2571727968967E+00 -0.3102590293557E+00  0.0000000000000E+00 -0.7859212208090E+00
 0.2525665045372E+00 -0.3077870250351E+00  0.0000000000000E+00 -0.7825854486595E+00
 0.2472674845929E+00 -0.3047913493160E+00  0.0000000000000E+00 -0.7772010369203E+00
 0.2411440569179E+00 -0.3011518438820E+00  0.0000000000000E+00 -0.7693983634930E+00
 0.2340749404333E+00 -0.2967594188739E+00  0.0000000000000E+00 -0.7587520797990E+00
 0.2259447993205E+00 -0.2915113723020E+00  0.0000000000000E+00 -0.7448052018772E+00
 0.2166382160295E+00 -0.2853052370587E+00  0.0000000000000E+00 -0.7270819481263E+00
 0.2060349102486E+00 -0.2780339033853E+00  0.0000000000000E+00 -0.7050957372745E+00
 0.1940067052824E+00 -0.2695824822258E+00  0.0000000000000E+00 -0.6783568593885E+00
 0.1804159911389E+00 -0.2598266400081E+00  0.0000000000000E+00 -0.6463822024498E+00
 0.1651153533124E+00 -0.2486320629456E+00  0.0000000000000E+00 -0.6087078692002E+00
 0.1479481824075E+00 -0.2358548682833E+00  0.0000000000000E+00 -0.5649044594237E+00
 0.1287502477391E+00 -0.2213429587881E+00  0.0000000000000E+00 -0.5145940144854E+00
 0.1073523033586E+00 -0.2049384170274E+00  0.0000000000000E+00 -0.4574669995357E+00
 0.8358372114296E-01 -0.1864809752350E+00  0.0000000000000E+00 -0.3932972323231E+00
 0.5727674798884E-01 -0.1658122638881E+00  0.0000000000000E+00 -0.3219522961540E+00
 0.2827023256383E-01 -0.1427797657968E+00  0.0000000000000E+00 -0.2433964621522E+00
-0.3591934119076E-02 -0.1172372154204E+00  0.0000000000000E+00 -0.1576785002969E+00
-0.3846566226278E-01 -0.8904203221551E-01  0.0000000000000E+00 -0.6486513674863E-01
 0.2691630030736E+00 -0.3208443812583E+00  0.0000000000000E+00 -0.7776090161465E+00
 0.2657627510797E+00 -0.3194688485730E+00  0.0000000000000E+00 -0.7748087369527E+00
 0.2617848461673E+00 -0.3176765921902E+00  0.0000000000000E+00 -0.7703250583243E+00
 0.2570558444140E+00 -0.3153049748730E+00  0.0000000000000E+00 -0.7638942608915E+00
 0.2514161707349E+00 -0.3122065283238E+00  0.0000000000000E+00 -0.7551467782848E+00
 0.2447234067683E+00 -0.3082515105446E+00  0.0000000000000E+00 -0.7436638304413E+00
 0.2368442065448E+00 -0.3033195121487E+00  0.0000000000000E+00 -0.7290064848236E+00
 0.2276462337487E+00 -0.2972912387833E+00  0.0000000000000E+00 -0.7107271904702E+00
 0.2169932128985E+00 -0.2900434492995E+00  0.0000000000000E+00 -0.6883746568348E+00
 0.2047430243861E+00 -0.2814469396230E+00  0.0000000000000E+00 -0.6614984003247E+00
 0.1907480002389E+00 -0.2713666973689E+00  0.0000000000000E+00 -0.6296557567806E+00
 0.1748566301128E+00 -0.2596634338974E+00  0.0000000000000E+00 -0.5924220533339E+00
 0.1569161234394E+00 -0.2461959451901E+00  0.0000000000000E+00 -0.5494034387821E+00
 0.1367754792790E+00 -0.2308239749663E+00  0.0000000000000E+00 -0.5002511541982E+00
 0.1142888268852E+00 -0.2134113712099E+00  0.0000000000000E+00 -0.4446755874853E+00
 0.8931879602846E-01 -0.1938293288310E+00  0.0000000000000E+00 -0.3824582766202E+00
 0.6173948562725E-01 -0.1719593092385E+00  0.0000000000000E+00 -0.3134603747317E+00
 0.3143766813507E-01 -0.1476944709590E+00  0.0000000000000E+00 -0.2376269784849E+00
-0.1691758344243E-02 -0.1209353526222E+00  0.0000000000000E+00 -0.1549909984665E+00
-0.3778976785723E-01 -0.9155708681735E-01  0.0000000000000E+00 -0.6566672340899E-01
 0.2767574608372E+00 -0.3289336768082E+00  0.0000000000000E+00 -0.7662706100988E+00
 0.2739801666334E+00 -0.3282121121922E+00  0.0000000000000E+00 -0.7621079342243E+00
 0.2706014945759E+00 -0.3270491908662E+00  0.0000000000000E+00 -0.7563909319344E+00
 0.2664071216948E+00 -0.3252417705631E+00  0.0000000000000E+00 -0.7488583643209E+00
 0.2612123313822E+00 -0.3226178356308E+00  0.0000000000000E+00 -0.7391313043318E+00
 0.2548593899014E+00 -0.3190327613591E+00  0.0000000000000E+00 -0.7267954102140E+00
 0.2472027459567E+00 -0.3143541309055E+00  0.0000000000000E+00 -0.7114329575230E+00
 0.2380977714697E+00 -0.3084503136533E+00  0.0000000000000E+00 -0.6926294696207E+00
 0.2273954763453E+00 -0.3011851074017E+00  0.0000000000000E+00 -0.6699727422387E+00
 0.2149418386144E+00 -0.2924169764893E+00  0.0000000000000E+00 -0.6430526164091E+00
 0.2005799803563E+00 -0.2820011086677E+00  0.0000000000000E+00 -0.6114644632111E+00
 0.1841538297267E+00 -0.2697929039982E+00  0.0000000000000E+00 -0.5748167041371E+00
 0.1655123585048E+00 -0.2556520081465E+00  0.0000000000000E+00 -0.5327415147303E+00
 0.1445137623938E+00 -0.2394462813100E+00  0.0000000000000E+00 -0.4849073366708E+00
 0.1210291052327E+00 -0.2210552506534E+00  0.0000000000000E+00 -0.4310315174649E+00
 0.9494505718344E-01 -0.2003726956348E+00  0.0000000000000E+00 -0.3708913298359E+00
 0.6616553828504E-01 -0.1773081460865E+00  0.0000000000000E+00 -0.3043320136497E+00
 0.3461226542511E-01 -0.1517871167645E+00  0.0000000000000E+00 -0.2312727521584E+00
 0.2244392748141E-03 -0.1237499693156E+00  0.0000000000000E+00 -0.1517173956199E+00
-0.3704587640812E-01 -0.9313914573457E-01  0.0000000000000E+00 -0.6583284534606E-01
 0.2839734194325E+00 -0.3365666053714E+00  0.0000000000000E+00 -0.7534721828246E+00
 0.2817938315829E+00 -0.3364580733125E+00  0.0000000000000E+00 -0.7478276594138E+00
 0.2789827130271E+00 -0.3358737862285E+00  0.0000000000000E+00 -0.7408058010527E+00
 0.2752787201055E+00 -0.3345642705035E+00  0.0000000000000E+00 -0.7321218361718E+00
 0.2704778222639E+00 -0.3323390601544E+00  0.0000000000000E+00 -0.7213696669389E+00
 0.2644154996822E+00 -0.3290472856078E+00  0.0000000000000E+00 -0.7081358549026E+00
 0.2569408443465E+00 -0.3245513114329E+00  0.0000000000000E+00 -0.6920281419234E+00
 0.2479012236227E+00 -0.3187113823487E+00  0.0000000000000E+00 -0.6726712095590E+00
 0.2371370560787E+00 -0.3113803746690E+00  0.0000000000000E+00 -0.6496964300329E+00
 0.2244829447632E+00 -0.3024049573392E+00  0.0000000000000E+00 -0.6227355343194E+00
 0.2097720515675E+00 -0.2916298781298E+00  0.0000000000000E+00 -0.5914204336379E+00
 0.1928417910302E+00 -0.2789035067069E+00  0.0000000000000E+00 -0.5553885663738E+00
 0.1735396928676E+00 -0.2640834812721E+00  0.0000000000000E+00 -0.5142924750909E+00
 0.1517286271102E+00 -0.2470417004074E+00  0.0000000000000E+00 -0.4678122269251E+00
 0.1272906647618E+00 -0.2276679783647E+00  0.0000000000000E+00 -0.4156692623715E+00
 0.1001289871821E+00 -0.2058717731303E+00  0.0000000000000E+00 -0.3576400192283E+00
 0.7016761519303E-01 -0.1815817723986E+00  0.0000000000000E+00 -0.2935676995504E+00
 0.3735015737147E-01 -0.1547442294693E+00  0.0000000000000E+00 -0.2233710975850E+00
 0.1641589664390E-02 -0.1253236572658E+00  0.0000000000000E+00 -0.1470533203744E+00
-0.3693156564944E-01 -0.9333278185647E-01  0.0000000000000E+00 -0.6472290925662E-01
 0.2907797374260E+00 -0.3437094292219E+00  0.0000000000000E+00 -0.7392309140704E+00
 0.2891757030830E+00 -0.3441767512419E+00  0.0000000000000E+00 -0.7320102499016E+00
 0.2868930456947E+00 -0.3441126801637E+00  0.0000000000000E+00 -0.7236555567269E+00
 0.2836178811474E+00 -0.3432171076886E+00  0.0000000000000E+00 -0.7138055710967E+00
 0.2791390396586E+00 -0.3412940001508E+00  0.0000000000000E+00 -0.7020031717933E+00
 0.2732976502165E+00 -0.3381987769999E+00  0.0000000000000E+00 -0.6878362616365E+00
 0.2659450695139E+00 -0.3337962656450E+00  0.0000000000000E+00 -0.6709481814956E+00
 0.2569238781615E+00 -0.3279416069201E+00  0.0000000000000E+00 -0.6510127921202E+00
 0.2460644984677E+00 -0.3204772881672E+00  0.0000000000000E+00 -0.6277111703762E+00
 0.2331894373582E+00 -0.3112374648503E+00  0.0000000000000E+00 -0.6007186372481E+00
 0.2181205261053E+00 -0.3000552500842E+00  0.0000000000000E+00 -0.5697014030896E+00
 0.2006869577552E+00 -0.2867705871229E+00  0.0000000000000E+00 -0.5343203027204E+00
 0.1807331626697E+00 -0.2712378829343E+00  0.0000000000000E+00 -0.4942395629024E+00
 0.1581258106450E+00 -0.2533327407106E+00  0.0000000000000E+00 -0.4491395306243E+00
 0.1327591334180E+00 -0.2329570131577E+00  0.0000000000000E+00 -0.3987324166592E+00
 0.1045575901271E+00 -0.2100413207509E+00  0.0000000000000E+00 -0.3427797310583E+00
 0.7347541004523E-01 -0.1845444524786E+00  0.0000000000000E+00 -0.2811087850512E+00
 0.3949333553700E-01 -0.1564503458374E+00  0.0000000000000E+00 -0.2136240738227E+00
 0.2617733502247E-02 -0.1257668358166E+00  0.0000000000000E+00 -0.1403047733406E+00
-0.3711494147197E-01 -0.9253954339652E-01  0.0000000000000E+00 -0.6113668233724E-01
 0.2971602384007E+00 -0.3503432783329E+00  0.0000000000000E+00 -0.7235672596776E+00
 0.2961236836983E+00 -0.3513610414211E+00  0.0000000000000E+00 -0.7147183884728E+00
 0.2943264717193E+00 -0.3517511826624E+00  0.0000000000000E+00 -0.7050644950555E+00
 0.2914068254320E+00 -0.3511702482908E+00  0.0000000000000E+00 -0.6940738677431E+00
 0.2871712379464E+00 -0.3494419001239E+00  0.0000000000000E+00 -0.6812139695904E+00
 0.2814842211581E+00 -0.3464463624587E+00  0.0000000000000E+00 -0.6660882593541E+00
 0.2742065777635E+00 -0.3420575119864E+00  0.0000000000000E+00 -0.6483966620768E+00
 0.2651770952365E+00 -0.3361262517132E+00  0.0000000000000E+00 -0.6278772578939E+00
 0.2542147778842E+00 -0.3284828896063E+00  0.0000000000000E+00 -0.6042679440382E+00
 0.2411281250146E+00 -0.3189471630978E+00  0.0000000000000E+00 -0.5772887327119E+00
 0.2257254857422E+00 -0.3073385603303E+00  0.0000000000000E+00 -0.5466374022704E+00
 0.2078252108646E+00 -0.2934863093366E+00  0.0000000000000E+00 -0.5119920563698E+00
 0.1872655704080E+00 -0.2772389840050E+00  0.0000000000000E+00 -0.4730186243620E+00
 0.1639140985789E+00 -0.2584734801452E+00  0.0000000000000E+00 -0.4293830867215E+00
 0.1376753375841E+00 -0.2371024512587E+00  0.0000000000000E+00 -0.3807686304479E+00
 0.1084957737637E+00 -0.2130788680190E+00  0.0000000000000E+00 -0.3268968970022E+00
 0.7636393042932E-01 -0.1863962683138E+00  0.0000000000000E+00 -0.2675512558853E+00
 0.4130480743081E-01 -0.1570831926572E+00  0.0000000000000E+00 -0.2025952449310E+00
 0.3365655452663E-02 -0.1251916888938E+00  0.0000000000000E+00 -0.1319726394674E+00
-0.3741837443545E-01 -0.9076556253042E-01  0.0000000000000E+00 -0.5567010749573E-01
 0.3031123251899E+00 -0.3564650320529E+00  0.0000000000000E+00 -0.7064996671068E+00
 0.3026514975160E+00 -0.3580209892766E+00  0.0000000000000E+00 -0.6960413487933E+00
 0.3012804258276E+00 -0.3587792952497E+00  0.0000000000000E+00 -0.6851992689792E+00
 0.2986219925021E+00 -0.3583873440745E+00  0.0000000000000E+00 -0.6731142578684E+00
 0.2945457781698E+00 -0.3567384321973E+00  0.0000000000000E+00 -0.6591781262997E+00
 0.2889596072596E+00 -0.3537553763993E+00  0.0000000000000E+00 -0.6430517410375E+00
 0.2817358700357E+00 -0.3493239502452E+00  0.0000000000000E+00 -0.6245273277153E+00
 0.2727051107564E+00 -0.3432846988115E+00  0.0000000000000E+00 -0.6034236577819E+00
 0.2616712398506E+00 -0.3354518918597E+00  0.0000000000000E+00 -0.5795385651633E+00
 0.2484264372467E+00 -0.3256284264010E+00  0.0000000000000E+00 -0.5526358528770E+00
 0.2327631639641E+00 -0.3136179430300E+00  0.0000000000000E+00 -0.5224423716979E+00
 0.2144852987822E+00 -0.2992356631942E+00  0.0000000000000E+00 -0.4886493998612E+00
 0.1934195662884E+00 -0.2823194240619E+00  0.0000000000000E+00 -0.4509173062631E+00
 0.1694274374385E+00 -0.2627411071042E+00  0.0000000000000E+00 -0.4088852366465E+00
 0.1424165438269E+00 -0.2404174693766E+00  0.0000000000000E+00 -0.3621880973316E+00
 0.1123488199591E+00 -0.2153180867819E+00  0.0000000000000E+00 -0.3104817933908E+00
 0.7924409390143E-01 -0.1874679049772E+00  0.0000000000000E+00 -0.2534742351108E+00
 0.4317273190170E-01 -0.1569412888496E+00  0.0000000000000E+00 -0.1909612394988E+00
 0.4234367817533E-02 -0.1238397156165E+00  0.0000000000000E+00 -0.1228539596888E+00
-0.3748654963562E-01 -0.8824939694460E-01  0.0000000000000E+00 -0.4920654656934E-01
 0.3086575189622E+00 -0.3620985378703E+00  0.0000000000000E+00 -0.6880433206486E+00
 0.3087836904983E+00 -0.3641840078621E+00  0.0000000000000E+00 -0.6761303811882E+00
 0.3077303868262E+00 -0.3651642756065E+00  0.0000000000000E+00 -0.6642867660502E+00
 0.3052016814067E+00 -0.3647975213412E+00  0.0000000000000E+00 -0.6511271114370E+00
 0.3011993448821E+00 -0.3631057802336E+00  0.0000000000000E+00 -0.6360323104761E+00
 0.2956850641487E+00 -0.3600737648267E+00  0.0000000000000E+00 -0.6188211087807E+00
 0.2885258874623E+00 -0.3555741461886E+00  0.0000000000000E+00 -0.5994202218392E+00
 0.2795333937504E+00 -0.3494265941171E+00  0.0000000000000E+00 -0.5777275904767E+00
 0.2684935443696E+00 -0.3414258318698E+00  0.0000000000000E+00 -0.5535952825047E+00
 0.2551818138144E+00 -0.3313576184081E+00  0.0000000000000E+00 -0.5268271168976E+00
 0.2393738223975E+00 -0.3190089456961E+00  0.0000000000000E+00 -0.4971786763083E+00
 0.2208554438362E+00 -0.3041778330360E+00  0.0000000000000E+00 -0.4643555241419E+00
 0.1994347821289E+00 -0.2866848511854E+00  0.0000000000000E+00 -0.4280121809441E+00
 0.1749566856478E+00 -0.2663870125001E+00  0.0000000000000E+00 -0.3877557495378E+00
 0.1473188589453E+00 -0.2431931964897E+00  0.0000000000000E+00 -0.3431590114408E+00
 0.1164872287722E+00 -0.2170782959052E+00  0.0000000000000E+00 -0.2937882119431E+00
 0.8250199069832E-01 -0.1880903061981E+00  0.0000000000000E+00 -0.2392451210289E+00
 0.4548105609185E-01 -0.1563482069661E+00  0.0000000000000E+00 -0.1792140796678E+00
 0.5598422297899E-02 -0.1220268569121E+00  0.0000000000000E+00 -0.1135395555543E+00
-0.3695246571382E-01 -0.8531144002139E-01  0.0000000000000E+00 -0.4229024433989E-01
 0.3138465215441E+00 -0.3673167830755E+00  0.0000000000000E+00 -0.6682456476020E+00
 0.3145427970729E+00 -0.3698686814865E+00  0.0000000000000E+00 -0.6552561861137E+00
 0.3135831159754E+00 -0.3708176909336E+00  0.0000000000000E+00 -0.6426545818310E+00
 0.3110093817340E+00 -0.3702415062530E+00  0.0000000000000E+00 -0.6282615966703E+00
 0.3070366017776E+00 -0.3684398784466E+00  0.0000000000000E+00 -0.6118057937392E+00
 0.3016111646744E+00 -0.3653442554282E+00  0.0000000000000E+00 -0.5934066564688E+00
 0.2945582370840E+00 -0.3607833815549E+00  0.0000000000000E+00 -0.5730886525126E+00
 0.2856664185126E+00 -0.3545497980863E+00  0.0000000000000E+00 -0.5508018086865E+00
 0.2747075551405E+00 -0.3464230752677E+00  0.0000000000000E+00 -0.5264364991032E+00
 0.2614454911229E+00 -0.3361769026700E+00  0.0000000000000E+00 -0.4998336470493E+00
 0.2456414518834E+00 -0.3235841993164E+00  0.0000000000000E+00 -0.4707825603004E+00
 0.2270615355254E+00 -0.3084242470019E+00  0.0000000000000E+00 -0.4390127139129E+00
 0.2054880246655E+00 -0.2904936465948E+00  0.0000000000000E+00 -0.4041836472533E+00
 0.1807357059165E+00 -0.2696220757211E+00  0.0000000000000E+00 -0.3658778495658E+00
 0.1526737343091E+00 -0.2456930265971E+00  0.0000000000000E+00 -0.3236036706774E+00
 0.1212504043396E+00 -0.2186675808523E+00  0.0000000000000E+00 -0.2768173797388E+00
 0.8651682265390E-01 -0.1886041390165E+00  0.0000000000000E+00 -0.2249785520496E+00
 0.4861421170242E-01 -0.1556564755599E+00  0.0000000000000E+00 -0.1676202990406E+00
 0.7807791422368E-02 -0.1200736926736E+00  0.0000000000000E+00 -0.1043862600505E+00
-0.3555296431175E-01 -0.8220259331410E-01  0.0000000000000E+00 -0.3522935138926E-01
 0.3188896401254E+00 -0.3723385371906E+00  0.0000000000000E+00 -0.6471895923410E+00
 0.3198383514595E+00 -0.3750787324909E+00  0.0000000000000E+00 -0.6341957911963E+00
 0.3185122453791E+00 -0.3753224224176E+00  0.0000000000000E+00 -0.6205427728798E+00
 0.3158572263944E+00 -0.3745263381188E+00  0.0000000000000E+00 -0.6043665287618E+00
 0.3119895484245E+00 -0.3726662828424E+00  0.0000000000000E+00 -0.5863834789759E+00
 0.3067124297487E+00 -0.3695417031168E+00  0.0000000000000E+00 -0.5667589308650E+00
 0.2998184219483E+00 -0.3649382361958E+00  0.0000000000000E+00 -0.5455268209347E+00
 0.2910895240628E+00 -0.3586414107308E+00  0.0000000000000E+00 -0.5226449300495E+00
 0.2802998478669E+00 -0.3504320485713E+00  0.0000000000000E+00 -0.4980325135492E+00
 0.2672127644086E+00 -0.3400830544696E+00  0.0000000000000E+00 -0.4715720698128E+00
 0.2515818547861E+00 -0.3273598555576E+00  0.0000000000000E+00 -0.4430996228742E+00
 0.2331552759171E+00 -0.3120247601381E+00  0.0000000000000E+00 -0.4123880845264E+00
 0.2116848715779E+00 -0.2938460441493E+00  0.0000000000000E+00 -0.3791268184876E+00
 0.1869419644236E+00 -0.2726134530187E+00  0.0000000000000E+00 -0.3429003509196E+00
 0.1587424130378E+00 -0.2481625146627E+00  0.0000000000000E+00 -0.3031718949745E+00
 0.1269838022002E+00 -0.2204090430739E+00  0.0000000000000E+00 -0.2592855147778E+00
 0.9168889125247E-01 -0.1893915218512E+00  0.0000000000000E+00 -0.2105052991161E+00
 0.5304853121142E-01 -0.1552954482010E+00  0.0000000000000E+00 -0.1561497671009E+00
 0.1127543937604E-01 -0.1183886104154E+00  0.0000000000000E+00 -0.9564258753631E-01
-0.3310058554598E-01 -0.7910007803747E-01  0.0000000000000E+00 -0.2824255545683E-01
 0.3232587808589E+00 -0.3773752965543E+00  0.0000000000000E+00 -0.6265284723773E+00
 0.3235336841349E+00 -0.3781661429964E+00  0.0000000000000E+00 -0.6132989778618E+00
 0.3221086236878E+00 -0.3783013443033E+00  0.0000000000000E+00 -0.5969933078858E+00
 0.3197545329922E+00 -0.3776521507421E+00  0.0000000000000E+00 -0.5789977658598E+00
 0.3161118518710E+00 -0.3758486708727E+00  0.0000000000000E+00 -0.5596234441075E+00
 0.3110174785116E+00 -0.3727020036802E+00  0.0000000000000E+00 -0.5388969230030E+00
 0.3042948652183E+00 -0.3680353627393E+00  0.0000000000000E+00 -0.5168018273759E+00
 0.2957585024666E+00 -0.3616662219070E+00  0.0000000000000E+00 -0.4933095448976E+00
 0.2852038707003E+00 -0.3533963679698E+00  0.0000000000000E+00 -0.4683801045541E+00
 0.2724068329466E+00 -0.3430103440028E+00  0.0000000000000E+00 -0.4419512233899E+00
 0.2571235454519E+00 -0.3302756439271E+00  0.0000000000000E+00 -0.4139228007194E+00
 0.2390920838145E+00 -0.3149447779298E+00  0.0000000000000E+00 -0.3841364864632E+00
 0.2180369267803E+00 -0.2967603251827E+00  0.0000000000000E+00 -0.3523490910062E+00
 0.1936791353987E+00 -0.2754656311667E+00  0.0000000000000E+00 -0.3181985931360E+00
 0.1657572240617E+00 -0.2508255993158E+00  0.0000000000000E+00 -0.2811634915143E+00
 0.1340661493196E+00 -0.2226648361969E+00  0.0000000000000E+00 -0.2405198793629E+00
 0.9852760160748E-01 -0.1909299276607E+00  0.0000000000000E+00 -0.1953241844238E+00
 0.5928036276008E-01 -0.1557797620284E+00  0.0000000000000E+00 -0.1444473071166E+00
 0.1678679415263E-01 -0.1175801305103E+00  0.0000000000000E+00 -0.8700578342807E-01
-0.2922376717463E-01 -0.7641868353704E-01  0.0000000000000E+00 -0.2179427017460E-01
</DataArray>
<DataArray type="Float64" Name="S_Centroid" NumberOfComponents="4" ComponentName0="S11" ComponentName1="S22" ComponentName2="S33" ComponentName3="S12" format="ascii">
-0.2281427794594E+01 -0.1850108715539E+02 -0.4156503051933E+01 -0.2273949177924E+01
 0.3357273095077E+00 -0.1471616587765E+02 -0.2876087756485E+01 -0.9037446154485E-01
-0.6398582123232E-01 -0.1362762845180E+02 -0.2738322895411E+01 -0.1425751334470E+00
 0.1081911044694E-01 -0.1302285058609E+02 -0.2602406333908E+01 -0.7900626993884E-01
-0.3267031759561E-02 -0.1261422047466E+02 -0.2523497538886E+01 -0.6050105990995E-01
 0.2265335341041E-03 -0.1230351408283E+02 -0.2460657546525E+01 -0.4898974235832E-01
-0.3567439064587E-03 -0.1204720563820E+02 -0.2409512512325E+01 -0.4249811647098E-01
-0.1042662134116E-03 -0.1182346614620E+02 -0.2364714117721E+01 -0.3842757879027E-01
-0.1033269613870E-03 -0.1162066970076E+02 -0.2324154640176E+01 -0.3572446222372E-01
-0.7457203165862E-04 -0.1143234177666E+02 -0.2286483303809E+01 -0.3375064781571E-01
-0.7506780434285E-04 -0.1125508840717E+02 -0.2251032728538E+01 -0.3210833748453E-01
-0.8736544729127E-04 -0.1108753846042E+02 -0.2217525198217E+01 -0.3050128459593E-01
-0.1204544260687E-03 -0.1092995261554E+02 -0.2186014646567E+01 -0.2864727619146E-01
-0.1773032371997E-03 -0.1078433406062E+02 -0.2156902304912E+01 -0.2618037531710E-01
-0.3429533751285E-03 -0.1065568316229E+02 -0.2131205254890E+01 -0.2232565304471E-01
-0.2412768131380E-02 -0.1055653645014E+02 -0.2111789875123E+01 -0.1193980816323E-01
-0.8063987375124E-02 -0.1048915705718E+02 -0.2099444240195E+01  0.1770708467740E-01
-0.1430354090729E-01 -0.1042099240771E+02 -0.2087059220822E+01  0.7490314284818E-01
-0.1857470506687E-01 -0.1032053416747E+02 -0.2067821805320E+01  0.1520839617862E+00
-0.2213596586408E-01 -0.1018794512598E+02 -0.2042016248797E+01  0.2359961174875E+00
-0.2624651705049E-01 -0.1003670665664E+02 -0.2012590664728E+01  0.3187345154072E+00
-0.3146815219409E-01 -0.9880685133021E+01 -0.1982430686583E+01  0.3977609915698E+00
-0.3803585578240E-01 -0.9730719018378E+01 -0.1953751003945E+01  0.4735209751158E+00
-0.4616034993190E-01 -0.9594832154606E+01 -0.1928198529640E+01  0.5478561257419E+00
-0.5618037608871E-01 -0.9478981221565E+01 -0.1907032347948E+01  0.6233059377800E+00
-0.6865142158849E-01 -0.9387115279288E+01 -0.1891153368356E+01  0.7028044041093E+00
-0.8360329767705E-01 -0.9319607292569E+01 -0.1880642146073E+01  0.7882333008050E+00
-0.1005989574542E+00 -0.9278216159397E+01 -0.1875763051321E+01  0.8792997597868E+00
-0.1202537096226E+00 -0.9272635992688E+01 -0.1878577968455E+01  0.9763698533155E+00
-0.1440079162821E+00 -0.9314655922969E+01 -0.1891732796039E+01  0.1082951841057E+01
-0.1734725536595E+00 -0.9413477056324E+01 -0.1917389950568E+01  0.1204562879978E+01
-0.2108879630082E+00 -0.9577428783878E+01 -0.1957663378549E+01  0.1347817106158E+01
-0.2591775683188E+00 -0.9813627208443E+01 -0.2014560985372E+01  0.1520348556880E+01
-0.3218264401821E+00 -0.1012581606719E+02 -0.2089528532611E+01  0.1729511272326E+01
-0.3977580348491E+00 -0.1051152101118E+02 -0.2181855841719E+01  0.1976678165324E+01
-0.4813746966353E+00 -0.1097552342768E+02 -0.2291379659007E+01  0.2247109151304E+01
-0.5325938583104E+00 -0.1160822941863E+02 -0.2428164691570E+01  0.2527538048364E+01
-0.7032621611029E+00 -0.1260418631403E+02 -0.2661489734686E+01  0.2888727800242E+01
-0.3837945351353E+00 -0.1418959345234E+02 -0.2914677640928E+01  0.3325524493117E+01
-0.3233596611655E+01 -0.1702750284330E+02 -0.4052219951374E+01  0.5359090103828E+01
 0.1067504850287E+02 -0.1596648855274E+02 -0.1058288025742E+01  0.2668219657261E+01
-0.2385638643932E+01 -0.1604925077292E+02 -0.3686977938311E+01 -0.2468708174955E+01
-0.3260299270183E+00 -0.1490604071846E+02 -0.3046414174490E+01 -0.1066730559277E+01
-0.3670237418843E-02 -0.1356487524755E+02 -0.2713709137430E+01 -0.3882403992524E+00
-0.3876570985098E-01 -0.1292292597586E+02 -0.2592338375770E+01 -0.2773366048859E+00
-0.1006855959664E-01 -0.1247713332377E+02 -0.2497440413888E+01 -0.1955129975686E+00
-0.7947133959012E-02 -0.1214381638380E+02 -0.2430352739767E+01 -0.1571116512017E+00
-0.4278088076655E-02 -0.1187230977395E+02 -0.2375317607801E+01 -0.1336668937037E+00
-0.2875383614790E-02 -0.1163881211312E+02 -0.2328337534042E+01 -0.1191908939228E+00
-0.1966227824745E-02 -0.1142989057819E+02 -0.2286371395272E+01 -0.1094942364499E+00
-0.1524301934258E-02 -0.1123806574999E+02 -0.2247918043882E+01 -0.1024614795343E+00
-0.1354605974018E-02 -0.1105920396922E+02 -0.2212111748002E+01 -0.9672892354989E-01
-0.1416787417527E-02 -0.1089139909049E+02 -0.2178563208044E+01 -0.9132147535826E-01
-0.1737631413098E-02 -0.1073444400061E+02 -0.2147236358402E+01 -0.8535442374213E-01
-0.2390318874469E-02 -0.1058982351289E+02 -0.2118442797920E+01 -0.7774193851255E-01
-0.4458526462618E-02 -0.1046134389581E+02 -0.2093160515646E+01 -0.6603202826763E-01
-0.1125549181466E-01 -0.1035336979964E+02 -0.2072925089179E+01 -0.4549388036686E-01
-0.2397441468256E-01 -0.1026192667380E+02 -0.2057180248351E+01 -0.1124038814873E-01
-0.3732775688959E-01 -0.1017015862425E+02 -0.2041497306648E+01  0.3897609752180E-01
-0.4599545724609E-01 -0.1006136990618E+02 -0.2021473102808E+01  0.1033884645074E+00
-0.5050761119626E-01 -0.9931801784929E+01 -0.1996461908975E+01  0.1766607954476E+00
-0.5378209283858E-01 -0.9787957413696E+01 -0.1968347930638E+01  0.2533372017087E+00
-0.5779631534808E-01 -0.9639174698082E+01 -0.1939394231585E+01  0.3305372128960E+00
-0.6360520039097E-01 -0.9493926101425E+01 -0.1911506288847E+01  0.4077068686287E+00
-0.7183111653278E-01 -0.9358933391173E+01 -0.1886152929647E+01  0.4857502125239E+00
-0.8303768926746E-01 -0.9239196675224E+01 -0.1864446900681E+01  0.5663644489267E+00
-0.9756661338564E-01 -0.9137937832229E+01 -0.1847100916647E+01  0.6513502484744E+00
-0.1150189333545E+00 -0.9057004695638E+01 -0.1834404753133E+01  0.7420880780789E+00
-0.1351139396474E+00 -0.8999130689976E+01 -0.1826848953147E+01  0.8397996905287E+00
-0.1591042809491E+00 -0.8969836033984E+01 -0.1825788090193E+01  0.9461374583274E+00
-0.1891705009380E+00 -0.8975942245223E+01 -0.1833022576546E+01  0.1063733039315E+01
-0.2274532267133E+00 -0.9023141567287E+01 -0.1850118986369E+01  0.1196521576151E+01
-0.2763361971755E+00 -0.9115150664746E+01 -0.1878297400373E+01  0.1349311332726E+01
-0.3385342664985E+00 -0.9253138109614E+01 -0.1918334503808E+01  0.1526866606242E+01
-0.4151834323955E+00 -0.9434559977730E+01 -0.1969948711380E+01  0.1732153327260E+01
-0.5028531280727E+00 -0.9654490333955E+01 -0.2031468722677E+01  0.1963902850029E+01
-0.5867465928893E+00 -0.9915707216543E+01 -0.2100490793186E+01  0.2218069639529E+01
-0.6916485889719E+00 -0.1024394425754E+02 -0.2187118601892E+01  0.2510025421754E+01
-0.7679050087757E+00 -0.1064107704271E+02 -0.2281796444298E+01  0.2824764753492E+01
-0.1171172107431E+01 -0.1110919500106E+02 -0.2456073458296E+01  0.3422591560644E+01
-0.1730325048663E+01 -0.1003199798293E+02 -0.2352464641372E+01  0.3102918748558E+01
 0.1017151550641E+02 -0.8052126292395E+01  0.4238778491194E+00 -0.7568971294003E+00
-0.2483689215878E+01 -0.1463024083630E+02 -0.3422786061438E+01 -0.2366924997892E+01
-0.7854466864938E+00 -0.1432707527808E+02 -0.3022504437954E+01 -0.1524034928972E+01
-0.1587113365935E+00 -0.1343690497700E+02 -0.2719123303236E+01 -0.7457028954453E+00
-0.7636429539644E-01 -0.1275957643970E+02 -0.2567188185273E+01 -0.4644160182952E+00
-0.4143931820834E-01 -0.1231254015030E+02 -0.2470795930520E+01 -0.3417770395373E+00
-0.2230314994662E-01 -0.1196723544841E+02 -0.2397907755404E+01 -0.2699125210441E+00
-0.1391974646464E-01 -0.1168726391869E+02 -0.2340236767904E+01 -0.2286487103365E+00
-0.8903197282913E-02 -0.1144747005101E+02 -0.2291274683802E+01 -0.2023471869445E+00
-0.6213852133406E-02 -0.1123445864029E+02 -0.2248134531984E+01 -0.1847438157896E+00
-0.4757618673172E-02 -0.1104024257967E+02 -0.2209000072585E+01 -0.1719487084226E+00
-0.4164130842716E-02 -0.1086028775409E+02 -0.2172890409366E+01 -0.1616211970487E+00
-0.4249629370883E-02 -0.1069227981951E+02 -0.2139305921653E+01 -0.1520746037500E+00
-0.5039046316790E-02 -0.1053555740624E+02 -0.2108119321925E+01 -0.1418489839973E+00
-0.6899404002904E-02 -0.1039092553546E+02 -0.2079565018881E+01 -0.1291752484450E+00
-0.1157273595361E-01 -0.1026012250952E+02 -0.2054339079706E+01 -0.1111941807177E+00
-0.2232299692896E-01 -0.1014325240118E+02 -0.2033115109918E+01 -0.8473179801170E-01
-0.3946557496892E-01 -0.1003549678958E+02 -0.2014992502935E+01 -0.4850056567835E-01
-0.5720216147810E-01 -0.9927643066661E+01 -0.1996969075385E+01 -0.2362398880160E-02
-0.6952794806701E-01 -0.9810806076233E+01 -0.1976066834306E+01  0.5398773875835E-01
-0.7609961252220E-01 -0.9681282405832E+01 -0.1951476432750E+01  0.1192907525364E+00
-0.8001295803835E-01 -0.9541535703768E+01 -0.1924309761036E+01  0.1906082904245E+00
-0.8408450652387E-01 -0.9397334585265E+01 -0.1896283846615E+01  0.2654876105554E+00
-0.9005173730545E-01 -0.9254882323012E+01 -0.1868986839914E+01  0.3429130021225E+00
-0.9896342388156E-01 -0.9119512366902E+01 -0.1843695185630E+01  0.4231028370331E+00
-0.1115367307634E+00 -0.8995282093228E+01 -0.1821363791939E+01  0.5069996976968E+00
-0.1280263686255E+00 -0.8885001462981E+01 -0.1802605593182E+01  0.5957063092628E+00
-0.1480483696687E+00 -0.8790844362304E+01 -0.1787778573034E+01  0.6904082018601E+00
-0.1715668863121E+00 -0.8715218285494E+01 -0.1777357060846E+01  0.7927389065116E+00
-0.2000530090955E+00 -0.8661149234029E+01 -0.1772240475033E+01  0.9046286927242E+00
-0.2359260890612E+00 -0.8631871949320E+01 -0.1773559634104E+01  0.1028122060782E+01
-0.2815432525859E+00 -0.8629618448026E+01 -0.1782232366680E+01  0.1165699130754E+01
-0.3391335362026E+00 -0.8654318108390E+01 -0.1798690355721E+01  0.1320058285604E+01
-0.4103966707865E+00 -0.8702654034783E+01 -0.1822610168273E+01  0.1493003439431E+01
-0.4947665796078E+00 -0.8767613313768E+01 -0.1852476006279E+01  0.1683981422968E+01
-0.5853346800578E+00 -0.8839756539471E+01 -0.1885018271995E+01  0.1889284220715E+01
-0.6761819274571E+00 -0.8909769678973E+01 -0.1917190349854E+01  0.2108130148674E+01
-0.7681388909740E+00 -0.8947877198044E+01 -0.1943203246760E+01  0.2334073782363E+01
-0.8811871838973E+00 -0.8885471723488E+01 -0.1953331810584E+01  0.2560726372954E+01
-0.1134000955907E+01 -0.8334222136503E+01 -0.1893644646699E+01  0.2636161127313E+01
 0.1881493893873E-02 -0.6555852585051E+01 -0.1310794237764E+01  0.1176747102506E+01
 0.1023075085105E+02 -0.5255961287323E+01  0.9949579275711E+00 -0.1813986783270E+01
-0.2523702166554E+01 -0.1364255972028E+02 -0.3233252425546E+01 -0.2218084520596E+01
-0.1109138293487E+01 -0.1365353983204E+02 -0.2952535669102E+01 -0.1719787371146E+01
-0.3651686663690E+00 -0.1313287172764E+02 -0.2699608119028E+01 -0.1034792814110E+01
-0.1527667300904E+00 -0.1255313471151E+02 -0.2541180326187E+01 -0.6611191341282E+00
-0.8257550132635E-01 -0.1211496762304E+02 -0.2439508661226E+01 -0.4853254917388E+00
-0.4693884148154E-01 -0.1177316381291E+02 -0.2364020566105E+01 -0.3856831999238E+00
-0.2871298359651E-01 -0.1149085349144E+02 -0.2303913329338E+01 -0.3253351909465E+00
-0.1871547178191E-01 -0.1124868876280E+02 -0.2253480880496E+01 -0.2869327537905E+00
-0.1303292898057E-01 -0.1103377586482E+02 -0.2209361791682E+01 -0.2608701912531E+00
-0.9968941819917E-02 -0.1083843856679E+02 -0.2169681534053E+01 -0.2418988202514E+00
-0.8627476952243E-02 -0.1065802868450E+02 -0.2133331264079E+01 -0.2266607476361E+00
-0.8644715880739E-02 -0.1048998883721E+02 -0.2099726741907E+01 -0.2128013674637E+00
-0.1002556608628E-01 -0.1033325309233E+02 -0.2068655762509E+01 -0.1983260562431E+00
-0.1339096150503E-01 -0.1018781618693E+02 -0.2040241460089E+01 -0.1810472978369E+00
-0.2068307807186E-01 -0.1005370961867E+02 -0.2014878569373E+01 -0.1583255135998E+00
-0.3456284098971E-01 -0.9929102899463E+01 -0.1992733177785E+01 -0.1283193651680E+00
-0.5457755691450E-01 -0.9809712691319E+01 -0.1972858079045E+01 -0.9130958066763E-01
-0.7513806327415E-01 -0.9690439479726E+01 -0.1953115537704E+01 -0.4779070833078E-01
-0.9042270400177E-01 -0.9566665403793E+01 -0.1931417650339E+01  0.3329714332577E-02
-0.9945658034283E-01 -0.9435550428148E+01 -0.1907001430115E+01  0.6279154583478E-01
-0.1049503376653E+00 -0.9297525353388E+01 -0.1880495166232E+01  0.1295320869217E+00
-0.1100188427007E+00 -0.9155767584031E+01 -0.1853157312961E+01  0.2018491021683E+00
-0.1168768615007E+00 -0.9014494759019E+01 -0.1826274351318E+01  0.2786355315879E+00
-0.1269280472713E+00 -0.8877690545303E+01 -0.1800923745351E+01  0.3596537797085E+00
-0.1410335499468E+00 -0.8748526909657E+01 -0.1777912118414E+01  0.4452698551607E+00
-0.1594790763580E+00 -0.8629349226215E+01 -0.1757765686707E+01  0.5361147171940E+00
-0.1820457400158E+00 -0.8522081449629E+01 -0.1740825463869E+01  0.6331642006566E+00
-0.2089189357755E+00 -0.8428398961029E+01 -0.1727463605102E+01  0.7379566593766E+00
-0.2415829174611E+00 -0.8349526785694E+01 -0.1718221966235E+01  0.8521784891464E+00
-0.2823694867446E+00 -0.8286077721956E+01 -0.1713689467276E+01  0.9771954975680E+00
-0.3335057738512E+00 -0.8237402534739E+01 -0.1714181687261E+01  0.1114104126672E+01
-0.3966701804742E+00 -0.8200399053546E+01 -0.1719413872425E+01  0.1263463949862E+01
-0.4723078789711E+00 -0.8168526410202E+01 -0.1728166883586E+01  0.1424267013014E+01
-0.5576062799955E+00 -0.8131371643027E+01 -0.1737795610500E+01  0.1592649741908E+01
-0.6448374886570E+00 -0.8074909526759E+01 -0.1743949429070E+01  0.1762209616874E+01
-0.7249892324908E+00 -0.7976064733470E+01 -0.1740210819123E+01  0.1924413063883E+01
-0.7911821387227E+00 -0.7781866059829E+01 -0.1714609665260E+01  0.2058083734301E+01
-0.8392595824034E+00 -0.7357406767279E+01 -0.1639333294364E+01  0.2093546174249E+01
-0.6685487282263E+00 -0.6369197005625E+01 -0.1407549167744E+01  0.1681836060427E+01
 0.1497863418265E+01 -0.4799100740125E+01 -0.6602474742104E+00 -0.8603041469321E-01
 0.1000124346285E+02 -0.4131759894503E+01  0.1173896731162E+01 -0.2048345875395E+01
-0.2522827663125E+01 -0.1287979188439E+02 -0.3080523955407E+01 -0.2073003689353E+01
-0.1334392050902E+01 -0.1301543922488E+02 -0.2869966297921E+01 -0.1786705632228E+01
-0.5668167954056E+00 -0.1273703188305E+02 -0.2660769775340E+01 -0.1235939942319E+01
-0.2557764673469E+00 -0.1229047245152E+02 -0.2509249821164E+01 -0.8418688199358E+00
-0.1365511817486E+00 -0.1188954349116E+02 -0.2405218970423E+01 -0.6248867526964E+00
-0.7961870628019E-01 -0.1156037942337E+02 -0.2327999660619E+01 -0.4998656715738E+00
-0.4917711875347E-01 -0.1128279283066E+02 -0.2266394023654E+01 -0.4222057689515E+00
-0.3225011348305E-01 -0.1104194754901E+02 -0.2214839565503E+01 -0.3717916924380E+00
-0.2257483874070E-01 -0.1082745244475E+02 -0.2170005489035E+01 -0.3372511944609E+00
-0.1724474883879E-01 -0.1063234094232E+02 -0.2129917169969E+01 -0.3119490980551E+00
-0.1480792339311E-01 -0.1045221115853E+02 -0.2093403847579E+01 -0.2916848973483E+00
-0.1461059677434E-01 -0.1028442233354E+02 -0.2059806616756E+01 -0.2734899648057E+00
-0.1660134721312E-01 -0.1012757565892E+02 -0.2028835431458E+01 -0.2549349931624E+00
-0.2150343692150E-01 -0.9980935953228E+01 -0.2000487907840E+01 -0.2336489548772E+00
-0.3113485522609E-01 -0.9843407852057E+01 -0.1974908570885E+01 -0.2073975793018E+00
-0.4742159218582E-01 -0.9712420469340E+01 -0.1951968441392E+01 -0.1752333355900E+00
-0.6935604124125E-01 -0.9584489100216E+01 -0.1930769057062E+01 -0.1380208698500E+00
-0.9181920351517E-01 -0.9456857316217E+01 -0.1909735332404E+01 -0.9630973666849E-01
-0.1095017399688E+00 -0.9327299895011E+01 -0.1887360355120E+01 -0.4870665211196E-01
-0.1210596013814E+00 -0.9193818857782E+01 -0.1862975719593E+01  0.6453065362693E-02
-0.1286648124981E+00 -0.9055887720423E+01 -0.1836910533956E+01  0.6933592008994E-01
-0.1353799877019E+00 -0.8914928629906E+01 -0.1810061750494E+01  0.1389962081619E+00
-0.1436729776425E+00 -0.8773530403666E+01 -0.1783440702837E+01  0.2144535252396E+00
-0.1552041467805E+00 -0.8634451166245E+01 -0.1757931088800E+01  0.2952075082455E+00
-0.1709715848828E+00 -0.8500020801765E+01 -0.1734198503171E+01  0.3812127536650E+00
-0.1913563809842E+00 -0.8372028695731E+01 -0.1712677040864E+01  0.4727388547018E+00
-0.2163309628023E+00 -0.8251883278172E+01 -0.1693642873432E+01  0.5704847395659E+00
-0.2462323188369E+00 -0.8140426289543E+01 -0.1677331746670E+01  0.6756375796008E+00
-0.2824269641905E+00 -0.8037482260054E+01 -0.1663981869644E+01  0.7893612162172E+00
-0.3269364348409E+00 -0.7941728391152E+01 -0.1653732989841E+01  0.9122143130329E+00
-0.3815388081228E+00 -0.7850304601347E+01 -0.1646368706427E+01  0.1043942653217E+01
-0.4470583741390E+00 -0.7757857960073E+01 -0.1640983291295E+01  0.1183086780081E+01
-0.5223532474796E+00 -0.7655638402617E+01 -0.1635598354392E+01  0.1326007155319E+01
-0.6024800715026E+00 -0.7530977046064E+01 -0.1626691447753E+01  0.1465820210628E+01
-0.6773242390851E+00 -0.7366007914505E+01 -0.1608666454689E+01  0.1591902973173E+01
-0.7322792194023E+00 -0.7130729634766E+01 -0.1572601794267E+01  0.1687022314564E+01
-0.7456964005230E+00 -0.6761494785731E+01 -0.1501438259624E+01  0.1711203908241E+01
-0.6471772808723E+00 -0.6124713262528E+01 -0.1354378128862E+01  0.1542903141179E+01
-0.3853327291261E-01 -0.5059159599336E+01 -0.1019538589642E+01  0.8310489959268E+00
 0.2626445964711E+01 -0.3876978716156E+01 -0.2501065540159E+00 -0.8383712947191E+00
 0.9681295550607E+01 -0.3568137366675E+01  0.1222631655005E+01 -0.2044362911270E+01
-0.2497139846373E+01 -0.1225105275472E+02 -0.2949638564171E+01 -0.1942089317771E+01
-0.1488812655880E+01 -0.1243390226155E+02 -0.2784543024978E+01 -0.1789513528758E+01
-0.7437567606186E+00 -0.1230673149104E+02 -0.2610097689225E+01 -0.1365484995465E+01
-0.3692510630822E+00 -0.1198331621365E+02 -0.2470513492159E+01 -0.9931271141840E+00
-0.2014890325549E+00 -0.1163732787461E+02 -0.2367763416715E+01 -0.7551864616441E+00
-0.1193582284509E+00 -0.1133023390673E+02 -0.2289918461159E+01 -0.6098973565767E+00
-0.7478467876351E-01 -0.1106297204785E+02 -0.2227551378515E+01 -0.5173388320243E+00
-0.4944826983644E-01 -0.1082712217133E+02 -0.2175314120648E+01 -0.4558974661163E+00
-0.3480391938780E-01 -0.1061527024555E+02 -0.2130014864727E+01 -0.4132185699316E+00
-0.2660239415141E-01 -0.1042176853045E+02 -0.2089674216059E+01 -0.3817181421476E+00
-0.2270340359548E-01 -0.1024271282641E+02 -0.2053083276595E+01 -0.3564955849366E+00
-0.2210343335527E-01 -0.1007555304282E+02 -0.2019531325328E+01 -0.3340860837846E+00
-0.2461737897413E-01 -0.9918662765159E+01 -0.1988656058460E+01 -0.3117405872156E+00
-0.3091351878707E-01 -0.9770770508241E+01 -0.1960336834617E+01 -0.2870536531381E+00
-0.4249755723064E-01 -0.9630142528699E+01 -0.1934528046013E+01 -0.2581795647279E+00
-0.6059759473925E-01 -0.9494051362071E+01 -0.1910929819837E+01 -0.2246920929917E+00
-0.8384200528565E-01 -0.9359754353413E+01 -0.1888719299884E+01 -0.1875652456275E+00
-0.1076449629936E+00 -0.9225875404412E+01 -0.1866704101297E+01 -0.1471877551642E+00
-0.1272970858662E+00 -0.9091548363041E+01 -0.1843769117256E+01 -0.1020620689124E+00
-0.1412813668729E+00 -0.8955416025632E+01 -0.1819339505611E+01 -0.5014840472752E-01
-0.1512472901521E+00 -0.8816528055030E+01 -0.1793555095762E+01  0.9459038424437E-02
-0.1600138996451E+00 -0.8675161261483E+01 -0.1767035058557E+01  0.7643938515800E-01
-0.1701128391970E+00 -0.8532634956536E+01 -0.1740549585083E+01  0.1500333411817E+00
-0.1833570818545E+00 -0.8390643855455E+01 -0.1714800213014E+01  0.2296199695726E+00
-0.2008595772663E+00 -0.8250725388533E+01 -0.1690317018347E+01  0.3148688155264E+00
-0.2231127604799E+00 -0.8114061066541E+01 -0.1667434790251E+01  0.4057450346110E+00
-0.2502502689378E+00 -0.7981444417109E+01 -0.1646338961742E+01  0.5026147651009E+00
-0.2826754290351E+00 -0.7852909635236E+01 -0.1627117037100E+01  0.6061835806903E+00
-0.3215352971716E+00 -0.7727177280931E+01 -0.1609742539608E+01  0.7169508975068E+00
-0.3683763061520E+00 -0.7601513484631E+01 -0.1593977981909E+01  0.8345857209706E+00
-0.4242802087764E+00 -0.7471480512610E+01 -0.1579152167808E+01  0.9575325692881E+00
-0.4889498745099E+00 -0.7330210935607E+01 -0.1563832185326E+01  0.1082486772960E+01
-0.5594660180358E+00 -0.7167668820707E+01 -0.1545426990777E+01  0.1203465267621E+01
-0.6284511553005E+00 -0.6969992912000E+01 -0.1519688836105E+01  0.1310707055843E+01
-0.6821911018050E+00 -0.6717720540911E+01 -0.1479982350597E+01  0.1389237919372E+01
-0.6984227510416E+00 -0.6379420048648E+01 -0.1415568581032E+01  0.1413815461648E+01
-0.6339331411325E+00 -0.5895233711681E+01 -0.1305833390021E+01  0.1328946567933E+01
-0.3557333159896E+00 -0.5172329950111E+01 -0.1105612669695E+01  0.9969039815686E+00
 0.6037950512005E+00 -0.4195310857299E+01 -0.7183031719233E+00  0.1534692656971E+00
 0.3441462296599E+01 -0.3354560066800E+01  0.1738044621883E-01 -0.1274531224047E+01
 0.9343794249393E+01 -0.3233935334939E+01  0.1221971801100E+01 -0.1978664868256E+01
-0.2456741784231E+01 -0.1170947209297E+02 -0.2833242817659E+01 -0.1826152783974E+01
-0.1592392263500E+01 -0.1190557123075E+02 -0.2699592739077E+01 -0.1760472356792E+01
-0.8909242247679E+00 -0.1187135145564E+02 -0.2552455174116E+01 -0.1443148392683E+01
-0.4816585886704E+00 -0.1164808835054E+02 -0.2425949423992E+01 -0.1112402993922E+01
-0.2730354645052E+00 -0.1136207894121E+02 -0.2327022915818E+01 -0.8716773689943E+00
-0.1648228039827E+00 -0.1108427872517E+02 -0.2249820339355E+01 -0.7135039134949E+00
-0.1047967868918E+00 -0.1083198107036E+02 -0.2187355604044E+01 -0.6091531692902E+00
-0.7000694423591E-01 -0.1060431990941E+02 -0.2134865402541E+01 -0.5382292782682E+00
-0.4958878939816E-01 -0.1039721053034E+02 -0.2089359895082E+01 -0.4881363218454E+00
-0.3797136796496E-01 -0.1020665984649E+02 -0.2048926273422E+01 -0.4508106589678E+00
-0.3225669776427E-01 -0.1002950120856E+02 -0.2012351611251E+01 -0.4208721338455E+00
-0.3103337521249E-01 -0.9863424546376E+01 -0.1978891613805E+01 -0.3944938520136E+00
-0.3390390364120E-01 -0.9706709781412E+01 -0.1948122766040E+01 -0.3687228860390E+00
-0.4135261142785E-01 -0.9557764854522E+01 -0.1919823521797E+01 -0.3411969728832E+00
-0.5448319032481E-01 -0.9414567168864E+01 -0.1893810100058E+01 -0.3103745828734E+00
-0.7391910341921E-01 -0.9274505805732E+01 -0.1869685009691E+01 -0.2760884936821E+00
-0.9806649295074E-01 -0.9135448663662E+01 -0.1846703058841E+01 -0.2392026563176E+00
-0.1228516903625E+00 -0.8996848051357E+01 -0.1823939975523E+01 -0.1998814567034E+00
-0.1441474293711E+00 -0.8858608363482E+01 -0.1800551185401E+01 -0.1566070701176E+00
-0.1603903589673E+00 -0.8719812649317E+01 -0.1776040628122E+01 -0.1072440296736E+00
-0.1727815602219E+00 -0.8579338664119E+01 -0.1750424070952E+01 -0.5048288011933E-01
-0.1838104618115E+00 -0.8436729854103E+01 -0.1724108088874E+01  0.1381513035210E-01
-0.1959344406690E+00 -0.8292350317219E+01 -0.1697656976875E+01  0.8512571289397E-01
-0.2110225296666E+00 -0.8147003533344E+01 -0.1671605237511E+01  0.1627966262052E+00
-0.2302647720267E+00 -0.8001500671774E+01 -0.1646353113293E+01  0.2463003193603E+00
-0.2542467555987E+00 -0.7856411657594E+01 -0.1622131706810E+01  0.3353310622011E+00
-0.2832075543102E+00 -0.7711908186139E+01 -0.1599023171917E+01  0.4298898132570E+00
-0.3175299248159E+00 -0.7567302770430E+01 -0.1576966562548E+01  0.5301421802759E+00
-0.3580545017582E+00 -0.7420463012131E+01 -0.1555703525960E+01  0.6358658650346E+00
-0.4057295828729E+00 -0.7267669022890E+01 -0.1534679744021E+01  0.7458181467459E+00
-0.4607554004208E+00 -0.7103461778399E+01 -0.1512843458307E+01  0.8572245532811E+00
-0.5215204525073E+00 -0.6920128729030E+01 -0.1488329858485E+01  0.9651564650724E+00
-0.5831664123432E+00 -0.6707158057613E+01 -0.1458064915718E+01  0.1061614433965E+01
-0.6355617930430E+00 -0.6450641379124E+01 -0.1417240655552E+01  0.1134314611530E+01
-0.6606214493360E+00 -0.6131759976239E+01 -0.1358476305358E+01  0.1164613138804E+01
-0.6270665997307E+00 -0.5722295699526E+01 -0.1269872478774E+01  0.1121358755184E+01
-0.4698100188412E+00 -0.5176611484832E+01 -0.1129284317562E+01  0.9419731709736E+00
-0.1581822030085E-01 -0.4450921211641E+01 -0.8933478997002E+00  0.5012636138622E+00
 0.1190437564731E+01 -0.3617387276549E+01 -0.4853899495963E+00 -0.3614140088698E+00
 0.4018778796958E+01 -0.3031912308481E+01  0.1973733006365E+00 -0.1525213405018E+01
 0.9020249230243E+01 -0.3006130846105E+01  0.1202823694751E+01 -0.1906495339581E+01
-0.2407600584708E+01 -0.1122821637873E+02 -0.2727163433325E+01 -0.1723701095598E+01
-0.1659264170339E+01 -0.1142227766143E+02 -0.2616308405340E+01 -0.1716147411271E+01
-0.1009310420278E+01 -0.1144456087299E+02 -0.2490774295769E+01 -0.1484876813825E+01
-0.5861659038677E+00 -0.1129821387595E+02 -0.2376875991381E+01 -0.1202555098972E+01
-0.3466990789704E+00 -0.1106930920170E+02 -0.2283201690156E+01 -0.9721406711429E+00
-0.2141749939639E+00 -0.1082457898325E+02 -0.2207750828341E+01 -0.8088189022275E+00
-0.1383227993745E+00 -0.1059077747863E+02 -0.2145820087577E+01 -0.6963691949056E+00
-0.9346107366750E-01 -0.1037392289910E+02 -0.2093476825748E+01 -0.6178813058852E+00
-0.6669275494690E-01 -0.1017341547824E+02 -0.2048021677155E+01 -0.5614058083670E+00
-0.5121077957946E-01 -0.9987070561648E+01 -0.2007656298162E+01 -0.5188404310285E+00
-0.4335853791423E-01 -0.9812625195453E+01 -0.1971196776046E+01 -0.4845789729929E+00
-0.4127633129002E-01 -0.9648140831835E+01 -0.1937883461502E+01 -0.4545813774082E+00
-0.4428697210935E-01 -0.9491939495266E+01 -0.1907245321895E+01 -0.4257942725201E+00
-0.5260147794196E-01 -0.9342302610581E+01 -0.1878980845703E+01 -0.3959350326608E+00
-0.6689292469722E-01 -0.9197151440071E+01 -0.1852808900563E+01 -0.3636755520169E+00
-0.8728187822217E-01 -0.9054110066711E+01 -0.1828278416230E+01 -0.3289401216833E+00
-0.1120484242036E+00 -0.8911527397115E+01 -0.1804715191156E+01 -0.2923931590834E+00
-0.1375771357982E+00 -0.8769356660923E+01 -0.1781386785889E+01 -0.2539756846976E+00
-0.1602627624795E+00 -0.8627930032120E+01 -0.1757638585111E+01 -0.2121881484446E+00
-0.1785688752308E+00 -0.8486613409024E+01 -0.1733036482675E+01 -0.1649392229302E+00
-0.1933317994411E+00 -0.8344225435657E+01 -0.1707511472464E+01 -0.1107346446251E+00
-0.2066871028727E+00 -0.8199844422559E+01 -0.1681306330140E+01 -0.4912850399931E-01
-0.2209271701414E+00 -0.8053132610017E+01 -0.1654811980690E+01  0.1956006415372E-01
-0.2378950918686E+00 -0.7904167343705E+01 -0.1628412511380E+01  0.9469296421405E-01
-0.2588103091945E+00 -0.7753115473338E+01 -0.1602385180384E+01  0.1756021933063E+00
-0.2843124807951E+00 -0.7599970496411E+01 -0.1576856618938E+01  0.2617347919499E+00
-0.3146803163699E+00 -0.7444328003986E+01 -0.1551801687195E+01  0.3527162457315E+00
-0.3501940045649E+00 -0.7284892979381E+01 -0.1527017419544E+01  0.4481593123731E+00
-0.3913133219074E+00 -0.7118904272823E+01 -0.1502043541328E+01  0.5471190210064E+00
-0.4382977343085E+00 -0.6942010577798E+01 -0.1476061684416E+01  0.6474719272471E+00
-0.4903395303658E+00 -0.6748206825963E+01 -0.1447709292838E+01  0.7453449943011E+00
-0.5443872309151E+00 -0.6529514019134E+01 -0.1414780271092E+01  0.8344384876085E+00
-0.5935344644348E+00 -0.6275657833123E+01 -0.1373838479983E+01  0.9051191267568E+00
-0.6247139458166E+00 -0.5973729889495E+01 -0.1319688786727E+01  0.9431490312988E+00
-0.6151538355567E+00 -0.5607387221679E+01 -0.1244508229992E+01  0.9273720575717E+00
-0.5246161122860E+00 -0.5154920638012E+01 -0.1135907366986E+01  0.8237801389493E+00
-0.2708641015009E+00 -0.4589091534720E+01 -0.9719911417280E+00  0.5713870647957E+00
 0.3355983165419E+00 -0.3907016708044E+01 -0.7142836889441E+00  0.7232563910313E-01
 0.1697860664456E+01 -0.3220368099481E+01 -0.3045014915424E+00 -0.7454236833262E+00
 0.4423345538722E+01 -0.2814676632657E+01  0.3217337860073E+00 -0.1668931432327E+01
 0.8719830230072E+01 -0.2834974338393E+01  0.1176971195874E+01 -0.1842735628211E+01
-0.2353233392874E+01 -0.1079073862895E+02 -0.2628794443538E+01 -0.1632871851270E+01
-0.1699348274511E+01 -0.1097600610807E+02 -0.2535070914292E+01 -0.1665249079197E+01
-0.1102100892296E+01 -0.1103203009835E+02 -0.2426826234291E+01 -0.1502258322882E+01
-0.6793189381125E+00 -0.1094301205367E+02 -0.2324466232994E+01 -0.1268261095688E+01
-0.4188265520640E+00 -0.1076461817115E+02 -0.2236688977972E+01 -0.1056354069446E+01
-0.2654129504577E+00 -0.1055365767862E+02 -0.2163814158059E+01 -0.8946651449073E+00
-0.1743387812899E+00 -0.1034057270051E+02 -0.2102982327698E+01 -0.7779981105983E+00
-0.1192422706245E+00 -0.1013652571243E+02 -0.2051153627175E+01 -0.6941023470856E+00
-0.8579235691938E-01 -0.9944173265652E+01 -0.2005993154406E+01 -0.6324908719729E+00
-0.6611913602610E-01 -0.9763158301428E+01 -0.1965855516784E+01 -0.5854428034715E+00
-0.5585644367205E-01 -0.9592206647754E+01 -0.1929612647039E+01 -0.5473758329337E+00
-0.5268324891717E-01 -0.9429853613650E+01 -0.1896507400774E+01 -0.5141893936806E+00
-0.5559581095993E-01 -0.9274584446846E+01 -0.1866036079367E+01 -0.4828200932098E+00
-0.6447922971574E-01 -0.9124709739976E+01 -0.1837837821324E+01 -0.4510821883282E+00
-0.7958281564844E-01 -0.8978243029313E+01 -0.1811565195987E+01 -0.4177876149178E+00
-0.1006160916693E+00 -0.8833086283619E+01 -0.1786740501682E+01 -0.3828543085049E+00
-0.1257943163634E+00 -0.8687962792998E+01 -0.1762751448139E+01 -0.3467241843205E+00
-0.1518967167594E+00 -0.8543128209407E+01 -0.1739005011146E+01 -0.3091419635524E+00
-0.1757670564601E+00 -0.8399140333562E+01 -0.1714981503560E+01 -0.2686461710039E+00
-0.1959326672120E+00 -0.8255535461430E+01 -0.1690293650916E+01 -0.2232571534930E+00
-0.2129394723509E+00 -0.8111119889081E+01 -0.1664811897094E+01 -0.1714341069554E+00
-0.2285776435275E+00 -0.7964678919029E+01 -0.1638651336929E+01 -0.1125484179700E+00
-0.2449205326896E+00 -0.7815368205746E+01 -0.1612057771709E+01 -0.4676261362223E-01
-0.2637198500036E+00 -0.7662687979637E+01 -0.1585281589551E+01  0.2531391950444E-01
-0.2861733439712E+00 -0.7506252622825E+01 -0.1558485216582E+01  0.1029062981084E+00
-0.3129252090184E+00 -0.7345541016808E+01 -0.1531693267989E+01  0.1852339884093E+00
-0.3442266432757E+00 -0.7179647799678E+01 -0.1504774911014E+01  0.2715543624043E+00
-0.3801818278664E+00 -0.7006795993472E+01 -0.1477395586283E+01  0.3609449197388E+00
-0.4208084002161E+00 -0.6823798010562E+01 -0.1448921303746E+01  0.4517757571664E+00
-0.4656148211077E+00 -0.6625969666119E+01 -0.1418316918580E+01  0.5411153795441E+00
-0.5127111089916E+00 -0.6407155748306E+01 -0.1383973392082E+01  0.6241450911723E+00
-0.5575443908949E+00 -0.6159592912329E+01 -0.1343427480663E+01  0.6934710796794E+00
-0.5911326774819E+00 -0.5873839087246E+01 -0.1292994372213E+01  0.7382583705057E+00
-0.5974768177673E+00 -0.5538817780172E+01 -0.1227258937875E+01  0.7430180155552E+00
-0.5492950320580E+00 -0.5141927055089E+01 -0.1138244434391E+01  0.6854700523652E+00
-0.3987867189340E+00 -0.4669580084953E+01 -0.1013673375882E+01  0.5319044391305E+00
-0.5324980153382E-01 -0.4112261926588E+01 -0.8331023580386E+00  0.2291750361397E+00
 0.6753296105158E+00 -0.3495101681934E+01 -0.5639544226873E+00 -0.2893261700747E+00
 0.2123740442711E+01 -0.2938728288511E+01 -0.1629975715888E+00 -0.1030571589618E+01
 0.4703615485752E+01 -0.2656873700709E+01  0.4093483631085E+00 -0.1750944571443E+01
 0.8442979786338E+01 -0.2698181116665E+01  0.1148959751055E+01 -0.1789612727637E+01
-0.2295743486525E+01 -0.1038624377767E+02 -0.2536397490634E+01 -0.1551951494046E+01
-0.1719630065660E+01 -0.1056001367799E+02 -0.2455928785327E+01 -0.1612420662672E+01
-0.1172989514209E+01 -0.1063549388166E+02 -0.2361696714366E+01 -0.1503386759581E+01
-0.7598097287457E+00 -0.1058844142144E+02 -0.2269650263857E+01 -0.1314334506387E+01
-0.4868144844653E+00 -0.1045281958235E+02 -0.2187926845965E+01 -0.1125346061813E+01
-0.3166744354034E+00 -0.1027417871518E+02 -0.2118170661680E+01 -0.9705849719061E+00
-0.2117650250488E+00 -0.1008275318796E+02 -0.2058903673282E+01 -0.8533691834000E+00
-0.1467179952365E+00 -0.9892872447031E+01 -0.2007918118374E+01 -0.7663072205100E+00
-0.1065027820238E+00 -0.9709891634704E+01 -0.1963278912601E+01 -0.7009365646049E+00
-0.8244633737252E-01 -0.9535167627544E+01 -0.1923522821646E+01 -0.6502861593450E+00
-0.6956383181678E-01 -0.9368429195850E+01 -0.1887598633661E+01 -0.6090268484525E+00
-0.6508771742286E-01 -0.9208751199903E+01 -0.1854767811103E+01 -0.5731418263628E+00
-0.6766510729676E-01 -0.9054878242515E+01 -0.1824508697150E+01 -0.5396369116170E+00
-0.7683264833064E-01 -0.8905265466362E+01 -0.1796419649707E+01 -0.5064344412134E+00
-0.9244197348324E-01 -0.8758109368064E+01 -0.1770110294686E+01 -0.4724362229711E+00
-0.1138684189120E+00 -0.8611596840069E+01 -0.1745093077800E+01 -0.4375037903413E+00
-0.1392990832227E+00 -0.8464743965015E+01 -0.1720808635290E+01 -0.4018671335578E+00
-0.1658450590544E+00 -0.8317987238790E+01 -0.1696766484853E+01 -0.3651106794379E+00
-0.1907265250374E+00 -0.8171990724407E+01 -0.1672543474812E+01 -0.3258230248642E+00
-0.2125481392533E+00 -0.8026385219667E+01 -0.1647786696338E+01 -0.2821663635599E+00
-0.2316250752038E+00 -0.7879981879237E+01 -0.1622321415063E+01 -0.2326383639741E+00
-0.2494255660762E+00 -0.7731383600231E+01 -0.1596161857046E+01 -0.1765227605682E+00
-0.2677756364598E+00 -0.7579386747301E+01 -0.1569432500138E+01 -0.1138778349018E+00
-0.2882858463817E+00 -0.7423044082664E+01 -0.1542266008791E+01 -0.4528856377013E-01
-0.3120828822353E+00 -0.7261512749681E+01 -0.1514719148954E+01  0.2838134065800E-01
-0.3397630575927E+00 -0.7093834544727E+01 -0.1486719542618E+01  0.1061420817100E+00
-0.3714867498615E+00 -0.6918693173046E+01 -0.1458036006308E+01  0.1869034526064E+00
-0.4071193675891E+00 -0.6733956521756E+01 -0.1428215199151E+01  0.2692461369691E+00
-0.4461894672190E+00 -0.6536191438100E+01 -0.1396476201873E+01  0.3509196530867E+00
-0.4874186827723E+00 -0.6320630479524E+01 -0.1361609852749E+01  0.4282871146512E+00
-0.5278062939813E+00 -0.6081289346552E+01 -0.1321819147803E+01  0.4957605466401E+00
-0.5612989497977E+00 -0.5811003896507E+01 -0.1274460588252E+01  0.5451446009074E+00
-0.5769041970985E+00 -0.5501619033927E+01 -0.1215704664320E+01  0.5648602373688E+00
-0.5558856255590E+00 -0.5144457258910E+01 -0.1140068593882E+01  0.5389177456914E+00
-0.4670681539027E+00 -0.4731310457127E+01 -0.1039675737698E+01  0.4452974176546E+00
-0.2572806378178E+00 -0.4256833946293E+01 -0.9028229302753E+00  0.2531797054579E+00
 0.1701750754614E+00 -0.3725994721405E+01 -0.7111639397859E+00 -0.7941148261175E-01
 0.9904826158615E+00 -0.3180031997537E+01 -0.4379098828604E+00 -0.5901341316031E+00
 0.2474659919236E+01 -0.2732100908200E+01 -0.5148819855999E-01 -0.1243007887888E+01
 0.4894045755239E+01 -0.2535123220939E+01  0.4717845138902E+00 -0.1797062539543E+01
 0.8187077132533E+01 -0.2584698165319E+01  0.1120475810139E+01 -0.1745813353939E+01
-0.2236412433486E+01 -0.1000736657692E+02 -0.2448755838570E+01 -0.1479485672940E+01
-0.1725072160001E+01 -0.1016889240972E+02 -0.2378792949391E+01 -0.1560137521906E+01
-0.1225483627894E+01 -0.1025481578847E+02 -0.2296059917486E+01 -0.1493828169249E+01
-0.8275896979115E+00 -0.1023808072409E+02 -0.2213134117379E+01 -0.1345053655464E+01
-0.5490008800969E+00 -0.1013768895842E+02 -0.2137337999553E+01 -0.1180769061984E+01
-0.3664020904626E+00 -0.9988661824443E+01 -0.2071012813842E+01 -0.1036705890472E+01
-0.2495561739108E+00 -0.9818778958686E+01 -0.2013667056525E+01 -0.9221306910853E+00
-0.1752298057775E+00 -0.9643803293037E+01 -0.1963806649026E+01 -0.8340806552868E+00
-0.1284017461806E+00 -0.9471066936830E+01 -0.1919893765211E+01 -0.7663784188637E+00
-0.9990755219831E-01 -0.9303413232268E+01 -0.1880664184917E+01 -0.7130811684512E+00
-0.8426901397837E-01 -0.9141526440497E+01 -0.1845159118390E+01 -0.6693087679100E+00
-0.7831194396400E-01 -0.8985049161985E+01 -0.1812672248201E+01 -0.6312560470487E+00
-0.8033516930458E-01 -0.8833051997529E+01 -0.1782677459931E+01 -0.5960670368230E+00
-0.8952757371548E-01 -0.8684213643408E+01 -0.1754748269572E+01 -0.5617837257412E+00
-0.1053788239284E+00 -0.8536965407136E+01 -0.1728468871969E+01 -0.5273691046564E+00
-0.1269923253082E+00 -0.8389769915102E+01 -0.1703352473464E+01 -0.4926097458554E+00
-0.1525473820101E+00 -0.8241875798363E+01 -0.1678884661092E+01 -0.4575503976270E+00
-0.1794294479268E+00 -0.8093825894670E+01 -0.1654651093176E+01 -0.4216525013235E+00
-0.2051685551674E+00 -0.7946320980638E+01 -0.1630297931454E+01 -0.3835634414995E+00
-0.2284461962353E+00 -0.7799037650563E+01 -0.1605496793284E+01 -0.3415983266174E+00
-0.2493919389159E+00 -0.7650797290714E+01 -0.1580037869470E+01 -0.2943439058029E+00
-0.2691804933097E+00 -0.7500092596524E+01 -0.1553854641121E+01 -0.2410657247052E+00
-0.2893791037351E+00 -0.7345471111482E+01 -0.1526970065797E+01 -0.1817661516443E+00
-0.3114208927766E+00 -0.7185648507250E+01 -0.1499413902348E+01 -0.1170196284308E+00
-0.3363171191803E+00 -0.7019417989948E+01 -0.1471147043747E+01 -0.4776999299934E-01
-0.3645660573821E+00 -0.6845468875990E+01 -0.1442007008162E+01  0.2480198005646E-01
-0.3961809643201E+00 -0.6662169229122E+01 -0.1411670059724E+01  0.9928844224363E-01
-0.4307375833296E+00 -0.6467153359622E+01 -0.1379578209148E+01  0.1738257734793E+00
-0.4672435676542E+00 -0.6256901217600E+01 -0.1344828977090E+01  0.2456248818257E+00
-0.5036223979605E+00 -0.6026766986387E+01 -0.1306077896332E+01  0.3104656152269E+00
-0.5357745652358E+00 -0.5771188584301E+01 -0.1261392648704E+01  0.3621807231996E+00
-0.5562052151958E+00 -0.5483887019315E+01 -0.1208018464903E+01  0.3920695205710E+00
-0.5520658417203E+00 -0.5158301355183E+01 -0.1142073456399E+01  0.3882625902271E+00
-0.5022433834579E+00 -0.4788450869029E+01 -0.1058138866265E+01  0.3349885613572E+00
-0.3725869512004E+00 -0.4370622925467E+01 -0.9486419894693E+00  0.2116796720706E+00
-0.1069728888644E+00 -0.3906819113780E+01 -0.8027584124909E+00 -0.7848123812916E-02
 0.3900785578012E+00 -0.3412456868671E+01 -0.6044756711814E+00 -0.3534351031637E+00
 0.1274977281972E+01 -0.2935873864828E+01 -0.3321793215210E+00 -0.8388248732373E+00
 0.2760111373597E+01 -0.2575493450702E+01  0.3692358512936E-01 -0.1402449052041E+01
 0.5018756630616E+01 -0.2436923921220E+01  0.5163665495735E+00 -0.1822039062790E+01
 0.7948814381526E+01 -0.2488399494627E+01  0.1092082993653E+01 -0.1709412460541E+01
-0.2176035633638E+01 -0.9648893370800E+01 -0.2364985836129E+01 -0.1414271322642E+01
-0.1719241062532E+01 -0.9798366916352E+01 -0.2303521630102E+01 -0.1509692399380E+01
-0.1262658571988E+01 -0.9889027822087E+01 -0.2230337312050E+01 -0.1477389499682E+01
-0.8832924583969E+00 -0.9893927971886E+01 -0.2155444118175E+01 -0.1363972975066E+01
-0.6044607579453E+00 -0.9822016946675E+01 -0.2085295571997E+01 -0.1224484565761E+01
-0.4133958674755E+00 -0.9699315682549E+01 -0.2022542340143E+01 -0.1093559367697E+01
-0.2867704218633E+00 -0.9550083611772E+01 -0.1967370836043E+01 -0.9842140207973E+00
-0.2041305800334E+00 -0.9390204428358E+01 -0.1918867030272E+01 -0.8971724311415E+00
-0.1510514023482E+00 -0.9228254032623E+01 -0.1875861114947E+01 -0.8285451739907E+00
-0.1181970682500E+00 -0.9068262013013E+01 -0.1837291843630E+01 -0.7735867232718E+00
-0.9974391908063E-01 -0.8911770238848E+01 -0.1802302858442E+01 -0.7280178933429E+00
-0.9217156168830E-01 -0.8758982645329E+01 -0.1770230867782E+01 -0.6883517336858E+00
-0.9345147132324E-01 -0.8609333159483E+01 -0.1740556952097E+01 -0.6519294179974E+00
-0.1024426187071E+00 -0.8461772323459E+01 -0.1712843013957E+01 -0.6169265510589E+00
-0.1183126195177E+00 -0.8314991968146E+01 -0.1686660942666E+01 -0.5823557323092E+00
-0.1399429379370E+00 -0.8167714464325E+01 -0.1661531505211E+01 -0.5479299251646E+00
-0.1655151947163E+00 -0.8019377245657E+01 -0.1636978512468E+01 -0.5135420756080E+00
-0.1926386265585E+00 -0.7870584273181E+01 -0.1612644603978E+01 -0.4785659630840E+00
-0.2190945776356E+00 -0.7722033903429E+01 -0.1588225719879E+01 -0.4417150200430E+00
-0.2436329606206E+00 -0.7573419173682E+01 -0.1563410450157E+01 -0.4014588019564E+00
-0.2662305778771E+00 -0.7423573511144E+01 -0.1537960840722E+01 -0.3565018111798E+00
-0.2877967534719E+00 -0.7270928019282E+01 -0.1511744977077E+01 -0.3061403488554E+00
-0.3096388746235E+00 -0.7113864713173E+01 -0.1484700739683E+01 -0.2503616665238E+00
-0.3329873340455E+00 -0.6950855029805E+01 -0.1456768494478E+01 -0.1897467444945E+00
-0.3587003403572E+00 -0.6780415986003E+01 -0.1427823286548E+01 -0.1253155686658E+00
-0.3871334531728E+00 -0.6600969742140E+01 -0.1397620659889E+01 -0.5842092331005E-01
-0.4181053780133E+00 -0.6410662808244E+01 -0.1365753657603E+01  0.9248038905947E-02
-0.4508636988048E+00 -0.6207007929163E+01 -0.1331574345436E+01  0.7544488387942E-01
-0.4838785784720E+00 -0.5986533917607E+01 -0.1294082518499E+01  0.1369344475731E+00
-0.5142864876001E+00 -0.5744879900138E+01 -0.1251833296201E+01  0.1890458965269E+00
-0.5369361508006E+00 -0.5477092951198E+01 -0.1202805838323E+01  0.2252266293098E+00
-0.5430008642891E+00 -0.5177972402013E+01 -0.1144194670310E+01  0.2365574616416E+00
-0.5180059169432E+00 -0.4842717341490E+01 -0.1072144667663E+01  0.2113007969656E+00
-0.4389418228383E+00 -0.4468100321502E+01 -0.9814084434922E+00  0.1345300850440E+00
-0.2697361861477E+00 -0.4054588316677E+01 -0.8648649134525E+00 -0.1197675535111E-01
 0.4644561903192E-01 -0.3610112710482E+01 -0.7127334289106E+00 -0.2488619233741E+00
 0.6001747756405E+00 -0.3156744916387E+01 -0.5113140357685E+00 -0.5944187918713E+00
 0.1526917672791E+01 -0.2743878813264E+01 -0.2433922317216E+00 -0.1044126589741E+01
 0.2989779098196E+01 -0.2453205722702E+01  0.1073146766979E+00 -0.1523239436066E+01
 0.5094631844294E+01 -0.2355196613200E+01  0.5478870543829E+00 -0.1834388868733E+01
 0.7725069211506E+01 -0.2405508321137E+01  0.1063912193927E+01 -0.1678699225989E+01
-0.2115114631277E+01 -0.9307017416512E+01 -0.2284426443598E+01 -0.1355319128978E+01
-0.1704732861265E+01 -0.9445060145938E+01 -0.2229958634670E+01 -0.1461722081864E+01
-0.1287109857738E+01 -0.9536849479820E+01 -0.2164791899770E+01 -0.1456671569512E+01
-0.9278787386431E+00 -0.9556969072196E+01 -0.2096969593415E+01 -0.1373941462860E+01
-0.6528023228206E+00 -0.9507773723732E+01 -0.2032115239591E+01 -0.1258323186731E+01
-0.4567981593960E+00 -0.9407974318519E+01 -0.1972954524982E+01 -0.1141916051973E+01
-0.3226089968535E+00 -0.9277998316184E+01 -0.1920121491220E+01 -0.1039775929172E+01
-0.2328156384428E+00 -0.9132962429435E+01 -0.1873155641488E+01 -0.9554824068275E+00
-0.1740179780494E+00 -0.8982038474965E+01 -0.1831211317890E+01 -0.8872564203532E+00
-0.1370011245793E+00 -0.8830115483954E+01 -0.1793423348431E+01 -0.8316126871746E+00
-0.1157522096193E+00 -0.8679459446367E+01 -0.1759042357409E+01 -0.7849752901716E+00
-0.1064797023063E+00 -0.8530799909883E+01 -0.1727455948179E+01 -0.7442579189662E+00
-0.1068642817737E+00 -0.8383945170790E+01 -0.1698161915817E+01 -0.7070474712104E+00
-0.1154649317175E+00 -0.8238141020944E+01 -0.1670721215428E+01 -0.6716691522299E+00
-0.1311683728110E+00 -0.8092347750225E+01 -0.1644703249115E+01 -0.6371858889060E+00
-0.1526745464764E+00 -0.7945529007674E+01 -0.1619640734965E+01 -0.6032502979704E+00
-0.1781714683205E+00 -0.7797279344900E+01 -0.1595090186413E+01 -0.5696386679774E+00
-0.2054488016016E+00 -0.7648236963747E+01 -0.1570737176476E+01 -0.5356691600747E+00
-0.2324889612516E+00 -0.7499077353180E+01 -0.1546313285928E+01 -0.5001277370237E+00
-0.2580979016029E+00 -0.7349494025563E+01 -0.1521518408105E+01 -0.4616353875544E+00
-0.2821228373668E+00 -0.7198334260548E+01 -0.1496091441876E+01 -0.4190291675612E+00
-0.3052331685130E+00 -0.7044001794402E+01 -0.1469847014485E+01 -0.3716693058681E+00
-0.3284813673690E+00 -0.6884776729454E+01 -0.1442651640862E+01 -0.3195601628792E+00
-0.3528785067859E+00 -0.6718963912282E+01 -0.1414368504889E+01 -0.2633055699404E+00
-0.3790995126668E+00 -0.6544884217631E+01 -0.1384796766695E+01 -0.2039992171152E+00
-0.4073198317798E+00 -0.6360774301560E+01 -0.1353618846838E+01 -0.1431458883449E+00
-0.4371259806030E+00 -0.6164647670456E+01 -0.1320354749887E+01 -0.8267565650250E-01
-0.4674112635811E+00 -0.5953995253317E+01 -0.1284281322517E+01 -0.2515127371884E-01
-0.4961064642182E+00 -0.5725507397832E+01 -0.1244322790952E+01  0.2584349647531E-01
-0.5195922518938E+00 -0.5475232962134E+01 -0.1198965060671E+01  0.6532266284371E-01
-0.5317419777924E+00 -0.5198956712291E+01 -0.1146139755095E+01  0.8653728262656E-01
-0.5225475790589E+00 -0.4892665279899E+01 -0.1083042587930E+01  0.8061511209773E-01
-0.4761930576749E+00 -0.4553358992772E+01 -0.1005910425079E+01  0.3631923394403E-01
-0.3683170838821E+00 -0.4180427995352E+01 -0.9097490294031E+00 -0.5993619787963E-01
-0.1619759784586E+00 -0.3777940097054E+01 -0.7879832268443E+00 -0.2234582344028E+00
 0.1985246713494E+00 -0.3358197845633E+01 -0.6319346442732E+00 -0.4691201590468E+00
 0.7965521505852E+00 -0.2946812703056E+01 -0.4300521169024E+00 -0.8051029915248E+00
 0.1746815135156E+01 -0.2590588058670E+01 -0.1687545872175E+00 -0.1213822642041E+01
 0.3172446856596E+01 -0.2355174685135E+01  0.1634544367279E+00 -0.1615657194714E+01
 0.5133586869805E+01 -0.2285678752764E+01  0.5695816318956E+00 -0.1839090395964E+01
 0.7513162482722E+01 -0.2333475509911E+01  0.1035937409999E+01 -0.1652328601895E+01
-0.2053969417949E+01 -0.8978884528034E+01 -0.2206570822077E+01 -0.1301813695572E+01
-0.1683462185164E+01 -0.9106290524760E+01 -0.2157950574141E+01 -0.1416496125459E+01
-0.1300986110481E+01 -0.9196941516544E+01 -0.2099585556691E+01 -0.1433451579154E+01
-0.9624274342305E+00 -0.9227559859722E+01 -0.2037997489159E+01 -0.1377196594791E+01
-0.6939973706452E+00 -0.9196290659246E+01 -0.1978057635454E+01 -0.1283962735781E+01
-0.4960470393140E+00 -0.9116099459605E+01 -0.1922429328430E+01 -0.1182659084079E+01
-0.3564299756652E+00 -0.9003705846318E+01 -0.1872027192292E+01 -0.1089135544097E+01
-0.2607446613006E+00 -0.8872926959240E+01 -0.1826734351329E+01 -0.1009037846818E+01
-0.1968882462676E+00 -0.8733011822374E+01 -0.1785980040341E+01 -0.9424159401225E+00
-0.1560092259950E+00 -0.8589393495246E+01 -0.1749080570312E+01 -0.8870198769940E+00
-0.1320565469520E+00 -0.8444909460705E+01 -0.1715393227093E+01 -0.8400301058368E+00
-0.1210505742623E+00 -0.8300756731605E+01 -0.1684361486272E+01 -0.7988181503053E+00
-0.1204286389531E+00 -0.8157107208631E+01 -0.1655507194186E+01 -0.7612544660313E+00
-0.1284875857442E+00 -0.8013505831726E+01 -0.1628398707759E+01 -0.7258304574049E+00
-0.1438740248933E+00 -0.7869177048132E+01 -0.1602610238486E+01 -0.6916680243656E+00
-0.1651396361000E+00 -0.7723306670914E+01 -0.1577689284912E+01 -0.6583791440023E+00
-0.1904797185169E+00 -0.7575623151668E+01 -0.1553220597182E+01 -0.6256575681119E+00
-0.2178279022953E+00 -0.7426783484848E+01 -0.1528922300211E+01 -0.5927942114999E+00
-0.2453252599874E+00 -0.7277431275691E+01 -0.1504551329555E+01 -0.5586534608640E+00
-0.2718199354975E+00 -0.7127253570973E+01 -0.1479814723345E+01 -0.5220027337460E+00
-0.2970455177298E+00 -0.6975114588511E+01 -0.1454432042921E+01 -0.4818177110473E+00
-0.3214534678077E+00 -0.6819416132342E+01 -0.1428173941311E+01 -0.4375438776796E+00
-0.3458495423092E+00 -0.6658385815191E+01 -0.1400847092374E+01 -0.3892266215120E+00
-0.3710156980673E+00 -0.6490226624394E+01 -0.1372248484940E+01 -0.3375059959601E+00
-0.3974206909223E+00 -0.6313134592439E+01 -0.1342111076671E+01 -0.2835464796662E+00
-0.4250305108571E+00 -0.6125236021040E+01 -0.1310053325901E+01 -0.2289837052668E+00
-0.4531718719577E+00 -0.5924491645625E+01 -0.1275532722523E+01 -0.1759460926819E+00
-0.4803695699296E+00 -0.5708456525709E+01 -0.1237765237572E+01 -0.1272443563668E+00
-0.5040267258143E+00 -0.5474072591128E+01 -0.1195619881205E+01 -0.8671297012244E-01
-0.5198166587581E+00 -0.5217887984677E+01 -0.1147540945787E+01 -0.5952073656309E-01
-0.5207370034782E+00 -0.4936501997784E+01 -0.1091447816516E+01 -0.5243627061462E-01
-0.4957783689450E+00 -0.4627124818086E+01 -0.1024580652674E+01 -0.7405045719125E-01
-0.4281004133887E+00 -0.4288497845436E+01 -0.9433196658215E+00 -0.1347981813193E+00
-0.2925467979516E+00 -0.3922358468536E+01 -0.8429810658589E+00 -0.2465735434190E+00
-0.5225123880504E-01 -0.3535671639137E+01 -0.7175845862813E+00 -0.4214951725349E+00
 0.3459498372270E+00 -0.3143646850071E+01 -0.5595394109065E+00 -0.6689174752460E+00
 0.9770369466914E+00 -0.2773105998260E+01 -0.3592138156663E+00 -0.9886814198876E+00
 0.1936459640447E+01 -0.2466330908109E+01 -0.1059742551115E+00 -0.1354472122243E+01
 0.3315669739391E+01 -0.2274799104152E+01  0.2081741301500E+00 -0.1687032519257E+01
 0.5144138710923E+01 -0.2225643360216E+01  0.5836990788391E+00 -0.1839095521718E+01
 0.7310877780215E+01 -0.2270458183228E+01  0.1008083934419E+01 -0.1629282197873E+01
-0.1992805424108E+01 -0.8662304908264E+01 -0.2131022098229E+01 -0.1253079021988E+01
-0.1656859438719E+01 -0.8779911228370E+01 -0.2087354164522E+01 -0.1374078501666E+01
-0.1306049361212E+01 -0.8868024125660E+01 -0.2034814727695E+01 -0.1408943651015E+01
-0.9880184204792E+00 -0.8905675253609E+01 -0.1978738764303E+01 -0.1375474641759E+01
-0.7282520266425E+00 -0.8888421691072E+01 -0.1923334772203E+01 -0.1302878264445E+01
-0.5308195289762E+00 -0.8824817122162E+01 -0.1871127358110E+01 -0.1216696354399E+01
-0.3877442753895E+00 -0.8728220627579E+01 -0.1823193007761E+01 -0.1132716785653E+01
-0.2874540915101E+00 -0.8610883887166E+01 -0.1779667622254E+01 -0.1057967054871E+01
-0.2192820836883E+00 -0.8481750984502E+01 -0.1740206639569E+01 -0.9940017650327E+00
-0.1749236112692E+00 -0.8346519835190E+01 -0.1704288714688E+01 -0.9397177319913E+00
-0.1484248691980E+00 -0.8208442818254E+01 -0.1671373562396E+01 -0.8930610826794E+00
-0.1357026439889E+00 -0.8069111445940E+01 -0.1640962842438E+01 -0.8518938840624E+00
-0.1340047092397E+00 -0.7929033689141E+01 -0.1612607703706E+01 -0.8143970156992E+00
-0.1414081825944E+00 -0.7788042781666E+01 -0.1585890216484E+01 -0.7792436604947E+00
-0.1563590694610E+00 -0.7645614559746E+01 -0.1560394749093E+01 -0.7456276734898E+00
-0.1772888152933E+00 -0.7501137909966E+01 -0.1535685367935E+01 -0.7131428436051E+00
-0.2023995465484E+00 -0.7354457696449E+01 -0.1511371471121E+01 -0.6814320272439E+00
-0.2297387035080E+00 -0.7206241265261E+01 -0.1487196015915E+01 -0.6497835945927E+00
-0.2575706680367E+00 -0.7057098182206E+01 -0.1462933791848E+01 -0.6171456493722E+00
-0.2847719739489E+00 -0.6906707993297E+01 -0.1438296014881E+01 -0.5824263006704E+00
-0.3109733761318E+00 -0.6753956411019E+01 -0.1412985978485E+01 -0.5447404482379E+00
-0.3364269427633E+00 -0.6597263272244E+01 -0.1386738063666E+01 -0.5036313840424E+00
-0.3617015235971E+00 -0.6434842793590E+01 -0.1359308883693E+01 -0.4592020078822E+00
-0.3873454564276E+00 -0.6264849956628E+01 -0.1330439102436E+01 -0.4121380540969E+00
-0.4136053433618E+00 -0.6085418200373E+01 -0.1299804728115E+01 -0.3636703037735E+00
-0.4402165085988E+00 -0.5894630471807E+01 -0.1266969414960E+01 -0.3155430554082E+00
-0.4662279921571E+00 -0.5690465032060E+01 -0.1231338623192E+01 -0.2700397987174E+00
-0.4897928882180E+00 -0.5470612585047E+01 -0.1192081112416E+01 -0.2301514901144E+00
-0.5078104538768E+00 -0.5232335137949E+01 -0.1148029135472E+01 -0.1998685797017E+00
-0.5153091897550E+00 -0.4972738105996E+01 -0.1097609475506E+01 -0.1844182991792E+00
-0.5045276185262E+00 -0.4689267770512E+01 -0.1038759093286E+01 -0.1904303031910E+00
-0.4636529365301E+00 -0.4380334628356E+01 -0.9687975274135E+00 -0.2260171963141E+00
-0.3751471906618E+00 -0.4046285621374E+01 -0.8842865755842E+00 -0.3005841453462E+00
-0.2135866271519E+00 -0.3690855647878E+01 -0.7808884666421E+00 -0.4241224619803E+00
 0.5702427553135E-01 -0.3323182382338E+01 -0.6532316310953E+00 -0.6055283586934E+00
 0.4863697329375E+00 -0.2960131932621E+01 -0.4947524473091E+00 -0.8491787152232E+00
 0.1140670226654E+01 -0.2628121550370E+01 -0.2974902691761E+00 -0.1148366033619E+01
 0.2098233125850E+01 -0.2364116141316E+01 -0.5317660388566E-01 -0.1471434068117E+01
 0.3425781575691E+01 -0.2207640291853E+01  0.2436282603979E+00 -0.1742596534326E+01
 0.5132469965915E+01 -0.2173248597808E+01  0.5918442824405E+00 -0.1836177117694E+01
 0.7116401102288E+01 -0.2215058539123E+01  0.9802685272400E+00 -0.1608795886271E+01
-0.1931754361827E+01 -0.8355564218481E+01 -0.2057463746720E+01 -0.1208550536848E+01
-0.1626006631281E+01 -0.8464187094051E+01 -0.2018038775138E+01 -0.1334419619020E+01
-0.1303739221241E+01 -0.8548926078816E+01 -0.1970533089375E+01 -0.1383975503630E+01
-0.1005671191387E+01 -0.8591068802503E+01 -0.1919348027378E+01 -0.1370113286206E+01
-0.7559133651256E+00 -0.8584673750219E+01 -0.1868117450906E+01 -0.1316332709314E+01
-0.5609766069161E+00 -0.8534967623072E+01 -0.1819188873106E+01 -0.1244904806502E+01
-0.4162012136909E+00 -0.8452387431952E+01 -0.1773717755559E+01 -0.1171001062912E+01
-0.3125614621367E+00 -0.8347538735280E+01 -0.1732020065293E+01 -0.1102472933687E+01
-0.2408609129974E+00 -0.8228802191181E+01 -0.1693932646077E+01 -0.1042054250453E+01
-0.1934666807888E+00 -0.8101910071928E+01 -0.1659075375265E+01 -0.9896601733559E+00
-0.1646356116158E+00 -0.7970380993960E+01 -0.1627003345360E+01 -0.9439764878813E+00
-0.1502614393604E+00 -0.7836120536817E+01 -0.1597276419037E+01 -0.9033663411195E+00
-0.1474584528638E+00 -0.7699933466914E+01 -0.1569478407343E+01 -0.8663371084835E+00
-0.1541283205785E+00 -0.7561919805783E+01 -0.1543209648268E+01 -0.8317568796078E+00
-0.1685541130914E+00 -0.7421788216964E+01 -0.1518068488632E+01 -0.7989060200495E+00
-0.1890712570963E+00 -0.7279111784151E+01 -0.1493636630506E+01 -0.7673828527605E+00
-0.2138880435135E+00 -0.7133838030219E+01 -0.1469545236644E+01 -0.7368077577362E+00
-0.2411411803486E+00 -0.6986640351591E+01 -0.1445556327928E+01 -0.7064877514376E+00
-0.2691892388825E+00 -0.6838096061146E+01 -0.1421457081187E+01 -0.6754592622988E+00
-0.2969242962391E+00 -0.6687879861636E+01 -0.1396960852391E+01 -0.6427651912516E+00
-0.3238815158508E+00 -0.6534904720370E+01 -0.1371757267685E+01 -0.6076568151567E+00
-0.3501291117611E+00 -0.6377624918163E+01 -0.1345550826035E+01 -0.5697813293236E+00
-0.3760095333681E+00 -0.6214272694179E+01 -0.1318056465150E+01 -0.5293092929419E+00
-0.4018371465225E+00 -0.6042999700188E+01 -0.1288967388549E+01 -0.4869774674636E+00
-0.4276266759448E+00 -0.5861930143789E+01 -0.1257911382691E+01 -0.4440764304802E+00
-0.4528693333053E+00 -0.5669161678823E+01 -0.1224406220671E+01 -0.4024362005042E+00
-0.4763277037468E+00 -0.5462749705359E+01 -0.1187815499521E+01 -0.3644525567183E+00
-0.4957898874001E+00 -0.5240577733992E+01 -0.1147273541374E+01 -0.3332315669994E+00
-0.5076853303957E+00 -0.5000276382031E+01 -0.1101592358900E+01 -0.3128308190480E+00
-0.5064709767563E+00 -0.4739538762254E+01 -0.1049201963436E+01 -0.3084230876376E+00
-0.4837535670320E+00 -0.4456653925989E+01 -0.9880815133277E+00 -0.3263623322588E+00
-0.4271216766853E+00 -0.4151163698513E+01 -0.9156570886840E+00 -0.3741266305322E+00
-0.3186573191729E+00 -0.3824835135201E+01 -0.8286985032233E+00 -0.4599365966008E+00
-0.1331394467572E+00 -0.3483017934412E+01 -0.7232314870108E+00 -0.5917924230235E+00
 0.1639378150587E+00 -0.3136345593921E+01 -0.5944815646308E+00 -0.7755088449067E+00
 0.6182098856863E+00 -0.2802344297179E+01 -0.4368268888078E+00 -0.1011172118271E+01
 0.1287308555015E+01 -0.2505990393063E+01 -0.2437363712416E+00 -0.1287162084076E+01
 0.2234706808690E+01 -0.2278839365534E+01 -0.8826511500323E-02 -0.1569011109466E+01
 0.3508031056303E+01 -0.2150635580372E+01  0.2714790992317E+00 -0.1786090980026E+01
 0.5103149383103E+01 -0.2127196497745E+01  0.5951905859406E+00 -0.1831408686822E+01
 0.6928241660535E+01 -0.2166183724535E+01  0.9524116013920E+00 -0.1590300233101E+01
-0.1870899659941E+01 -0.8057296082674E+01 -0.1985639178111E+01 -0.1167753014737E+01
-0.1591731924637E+01 -0.8157701510526E+01 -0.1949886716088E+01 -0.1297409342872E+01
-0.1295231504225E+01 -0.8238599254166E+01 -0.1906766180091E+01 -0.1359108398262E+01
-0.1016316531808E+01 -0.8283373386857E+01 -0.1859938011448E+01 -0.1362138551133E+01
-0.7774045384901E+00 -0.8285306939847E+01 -0.1812542322676E+01 -0.1325388537817E+01
-0.5865152239267E+00 -0.8247157163133E+01 -0.1766734503738E+01 -0.1268098415018E+01
-0.4415692082311E+00 -0.8176891661808E+01 -0.1723692199693E+01 -0.1204491270532E+01
-0.3357637416933E+00 -0.8083508885487E+01 -0.1683854550527E+01 -0.1142808919194E+01
-0.2613323415891E+00 -0.7974669650014E+01 -0.1647200422866E+01 -0.1086663456228E+01
-0.2113863516873E+00 -0.7855961811611E+01 -0.1613469656702E+01 -0.1036840210728E+01
-0.1804818460211E+00 -0.7731037481475E+01 -0.1582303889077E+01 -0.9927127539186E+00
-0.1645619595695E+00 -0.7602034746250E+01 -0.1553319364310E+01 -0.9531370912658E+00
-0.1606624833967E+00 -0.7470008781415E+01 -0.1526134275704E+01 -0.9169530263328E+00
-0.1665536420668E+00 -0.7335297719913E+01 -0.1500370294753E+01 -0.8832331987504E+00
-0.1803910210005E+00 -0.7197820681655E+01 -0.1475642362520E+01 -0.8513586117750E+00
-0.2004354189005E+00 -0.7057316320392E+01 -0.1451550369488E+01 -0.8209535016951E+00
-0.2249010698983E+00 -0.6913823393582E+01 -0.1427744913971E+01 -0.7916406331549E+00
-0.2519943224254E+00 -0.6768019327182E+01 -0.1404002750843E+01 -0.7627635618657E+00
-0.2801442347414E+00 -0.6620453033603E+01 -0.1380119474234E+01 -0.7334508627175E+00
-0.3082470323207E+00 -0.6470799165066E+01 -0.1355809259681E+01 -0.7028743797206E+00
-0.3357472212436E+00 -0.6318004479218E+01 -0.1330750359922E+01 -0.6704167666314E+00
-0.3625422691662E+00 -0.6160571625183E+01 -0.1304622798310E+01 -0.6358304977116E+00
-0.3887589755026E+00 -0.5996776406173E+01 -0.1277107095366E+01 -0.5993587205135E+00
-0.4144806720364E+00 -0.5824804023022E+01 -0.1247856957606E+01 -0.5617907128421E+00
-0.4394860162382E+00 -0.5642814368535E+01 -0.1216460095081E+01 -0.5244683090693E+00
-0.4630157714684E+00 -0.5448968747576E+01 -0.1182396921428E+01 -0.4892839158897E+00
-0.4835454786255E+00 -0.5241448527310E+01 -0.1144998818249E+01 -0.4587042919636E+00
-0.4985135222821E+00 -0.5018373457346E+01 -0.1103377412367E+01 -0.4358895682544E+00
-0.5039218429415E+00 -0.4777773317038E+01 -0.1056339047737E+01 -0.4248835239773E+00
-0.4937364552483E+00 -0.4517935984144E+01 -0.1002334502814E+01 -0.4307054611278E+00
-0.4590645568726E+00 -0.4237960053255E+01 -0.9394049360237E+00 -0.4593208966020E+00
-0.3870982022702E+00 -0.3938417237812E+01 -0.8651031009076E+00 -0.5174580094503E+00
-0.2598333748156E+00 -0.3622281902330E+01 -0.7764230669987E+00 -0.6120648314079E+00
-0.5264880204474E-01 -0.3296137907312E+01 -0.6697573518514E+00 -0.7491614879130E+00
 0.2670231785930E+00 -0.2971522627735E+01 -0.5408998978884E+00 -0.9317368269316E+00
 0.7405007796670E+00 -0.2665873623023E+01 -0.3850745744092E+00 -0.1156316376807E+01
 0.1417333235559E+01 -0.2402123569066E+01 -0.1969580696363E+00 -0.1407770092226E+01
 0.2348413533249E+01 -0.2206723944542E+01  0.2833791816368E-01 -0.1650626459357E+01
 0.3566749899703E+01 -0.2101608290147E+01  0.2930283262777E+00 -0.1820193122989E+01
 0.5059627254610E+01 -0.2086549133886E+01  0.5946156330054E+00 -0.1825434574246E+01
 0.6745155013461E+01 -0.2122966911152E+01  0.9244376342369E+00 -0.1573385171986E+01
-0.1810292625996E+01 -0.7766393835015E+01 -0.1915337320743E+01 -0.1130283286130E+01
-0.1554676213886E+01 -0.7859286128971E+01 -0.1882792496627E+01 -0.1262907747634E+01
-0.1281488291384E+01 -0.7936116445804E+01 -0.1843520974908E+01 -0.1334718916085E+01
-0.1020787132885E+01 -0.7982163840931E+01 -0.1800590221594E+01 -0.1352335063877E+01
-0.7931812201083E+00 -0.7990409138744E+01 -0.1756718097948E+01 -0.1330928827965E+01
-0.6075289536637E+00 -0.7961805100199E+01 -0.1713866836311E+01 -0.1287012467470E+01
-0.4637152968553E+00 -0.7902275748774E+01 -0.1673198234058E+01 -0.1233686097411E+01
-0.3568317578087E+00 -0.7819322427896E+01 -0.1635230861508E+01 -0.1179258560717E+01
-0.2804516287063E+00 -0.7719808491182E+01 -0.1600052047820E+01 -0.1127956884334E+01
-0.2284594658205E+00 -0.7609047370713E+01 -0.1567501390664E+01 -0.1081283851278E+01
-0.1957743609747E+00 -0.7490712172678E+01 -0.1537297329638E+01 -0.1039232151702E+01
-0.1784506676020E+00 -0.7367095712005E+01 -0.1509109298409E+01 -0.1001127637034E+01
-0.1734970055740E+00 -0.7239454049903E+01 -0.1482590233188E+01 -0.9661394252400E+00
-0.1785942404337E+00 -0.7108330487502E+01 -0.1457384967304E+01 -0.9335502832986E+00
-0.1918034088217E+00 -0.6973829953250E+01 -0.1433126693770E+01 -0.9028542018644E+00
-0.2113298927574E+00 -0.6835838317230E+01 -0.1409433663000E+01 -0.8737203634529E+00
-0.2353944052826E+00 -0.6694475528917E+01 -0.1385974007493E+01 -0.8457951259957E+00
-0.2622575531720E+00 -0.6550422109018E+01 -0.1362535952741E+01 -0.8184734032754E+00
-0.2903998511689E+00 -0.6404203282896E+01 -0.1338920646764E+01 -0.7909788621322E+00
-0.3187119713610E+00 -0.6255499492371E+01 -0.1314842312339E+01 -0.7626065281927E+00
-0.3465513132563E+00 -0.6103298151643E+01 -0.1289969912202E+01 -0.7328640708235E+00
-0.3736558594078E+00 -0.5946162282987E+01 -0.1263963647314E+01 -0.7016071861304E+00
-0.3999475685828E+00 -0.5782432128876E+01 -0.1236475957917E+01 -0.6691523618977E+00
-0.4252843186444E+00 -0.5610356631817E+01 -0.1207128208080E+01 -0.6363395237708E+00
-0.4492093036606E+00 -0.5428168434842E+01 -0.1175475565216E+01 -0.6045514443318E+00
-0.4707128070267E+00 -0.5234132557619E+01 -0.1140969089931E+01 -0.5757196352956E+00
-0.4879898772463E+00 -0.5026594742098E+01 -0.1102916940304E+01 -0.5523427753238E+00
-0.4981515944523E+00 -0.4803941694372E+01 -0.1060418673566E+01 -0.5375791822353E+00
-0.4968208939016E+00 -0.4564617167287E+01 -0.1012287627322E+01 -0.5353871108235E+00
-0.4775576363862E+00 -0.4307491752266E+01 -0.9570098919909E+00 -0.5505485810469E+00
-0.4311014928445E+00 -0.4032418678766E+01 -0.8927040476245E+00 -0.5885524326474E+00
-0.3444397024092E+00 -0.3740877605553E+01 -0.8170634737677E+00 -0.6553002376794E+00
-0.1997431319175E+00 -0.3436828418566E+01 -0.7273143209345E+00 -0.7564370029886E+00
 0.2669141990414E-01 -0.3127734077944E+01 -0.6202085408498E+00 -0.8960883085030E+00
 0.3651964295544E+00 -0.2825544708300E+01 -0.4920696630816E+00 -0.1074738126864E+01
 0.8527313359482E+00 -0.2547076060287E+01 -0.3388689499173E+00 -0.1286055987416E+01
 0.1531446835925E+01 -0.2312930067120E+01 -0.1562966485680E+00 -0.1512559332825E+01
 0.2441725592923E+01 -0.2144930739203E+01  0.5935897162846E-01 -0.1719000013686E+01
 0.3605505351246E+01 -0.2058943245380E+01  0.3093124257824E+00 -0.1846809646602E+01
 0.5004593820738E+01 -0.2050622281590E+01  0.5907943166331E+00 -0.1818606738237E+01
 0.6566059213226E+01 -0.2084732450461E+01  0.8962653659084E+00 -0.1557799106644E+01
-0.1749962909454E+01 -0.7481948036070E+01 -0.1846382216618E+01 -0.1095796706449E+01
-0.1515340578912E+01 -0.7567967631633E+01 -0.1816661669179E+01 -0.1230762952348E+01
-0.1263299245024E+01 -0.7640661730646E+01 -0.1780792221670E+01 -0.1311055037762E+01
-0.1019818609297E+01 -0.7686995152342E+01 -0.1741362778276E+01 -0.1341301403628E+01
-0.8037033790548E+00 -0.7699950424294E+01 -0.1700730786013E+01 -0.1333681301833E+01
-0.6241770530392E+00 -0.7679184567177E+01 -0.1660672348789E+01 -0.1302298449795E+01
-0.4825856521954E+00 -0.7628957912965E+01 -0.1622308737206E+01 -0.1259062854837E+01
-0.3756024107416E+00 -0.7555421573084E+01 -0.1586204820401E+01 -0.1212119133612E+01
-0.2980207334360E+00 -0.7464621313870E+01 -0.1552528432596E+01 -0.1166088292478E+01
-0.2444934928209E+00 -0.7361508702473E+01 -0.1521200461726E+01 -0.1123043804286E+01
-0.2103437487987E+00 -0.7249687002511E+01 -0.1492006172495E+01 -0.1083519814659E+01
-0.1917870496053E+00 -0.7131533147506E+01 -0.1464664061247E+01 -0.1047278251283E+01
-0.1858507323669E+00 -0.7008454614395E+01 -0.1438861090793E+01 -0.1013806796891E+01
-0.1901652599742E+00 -0.6881165023931E+01 -0.1414266077855E+01 -0.9825996972115E+00
-0.2027273157796E+00 -0.6749929402203E+01 -0.1390531364317E+01 -0.9532736866160E+00
-0.2217042912231E+00 -0.6614762818507E+01 -0.1367293442320E+01 -0.9255590139594E+00
-0.2453247671049E+00 -0.6475857145596E+01 -0.1344236402571E+01 -0.8991432407514E+00
-0.2718918494342E+00 -0.6333895400936E+01 -0.1321157469761E+01 -0.8734846037849E+00
-0.2999224828694E+00 -0.6189383932666E+01 -0.1297861302447E+01 -0.8479038624751E+00
-0.3282938558632E+00 -0.6042015108643E+01 -0.1274061811886E+01 -0.8218135071185E+00
-0.3562791016608E+00 -0.5890823800275E+01 -0.1249420599005E+01 -0.7948389995420E+00
-0.3834666586589E+00 -0.5734443771738E+01 -0.1223582104312E+01 -0.7669347257859E+00
-0.4095844722731E+00 -0.5571296734560E+01 -0.1196176259191E+01 -0.7384880119043E+00
-0.4342726898302E+00 -0.5399719778158E+01 -0.1166798510984E+01 -0.7103848096532E+00
-0.4568437225769E+00 -0.5218048177747E+01 -0.1134978396977E+01 -0.6840371336291E+00
-0.4760427688794E+00 -0.5024682362585E+01 -0.1100145042686E+01 -0.6613928137371E+00
-0.4897969550769E+00 -0.4818161124019E+01 -0.1061591631638E+01 -0.6449462475561E+00
-0.4949181291667E+00 -0.4597157407479E+01 -0.1018415122505E+01 -0.6378039743344E+00
-0.4867029062429E+00 -0.4360530379502E+01 -0.9694466715948E+00 -0.6437769991608E+00
-0.4583909909871E+00 -0.4107706283000E+01 -0.9132194684054E+00 -0.6673419050746E+00
-0.4004820325029E+00 -0.3839223068077E+01 -0.8479410327514E+00 -0.7134463711813E+00
-0.2999341648962E+00 -0.3557336060306E+01 -0.7714540565360E+00 -0.7871234321901E+00
-0.1393156374709E+00 -0.3266773689440E+01 -0.6812178755330E+00 -0.8927314474671E+00
 0.1039169282549E+00 -0.2975562594045E+01 -0.5743291417162E+00 -0.1032638554811E+01
 0.4576927718355E+00 -0.2695675468008E+01 -0.4475965459041E+00 -0.1205171568674E+01
 0.9547254454616E+00 -0.2442952291525E+01 -0.2976453736480E+00 -0.1401788959137E+01
 0.1630543228755E+01 -0.2235581696967E+01 -0.1210076954456E+00 -0.1603567594272E+01
 0.2516791319718E+01 -0.2091332861281E+01  0.8509169295546E-01 -0.1776321261956E+01
 0.3627219262533E+01 -0.2021299993657E+01  0.3211838585613E+00 -0.1867287936912E+01
 0.4940241005279E+01 -0.2018953856329E+01  0.5842574384961E+00 -0.1811017592703E+01
 0.6389992081458E+01 -0.2050934686552E+01  0.8678114919125E+00 -0.1543482370971E+01
-0.1689925392024E+01 -0.7203201330073E+01 -0.1778625370923E+01 -0.1063996530238E+01
-0.1474120510662E+01 -0.7282927175120E+01 -0.1751409563254E+01 -0.1200821369227E+01
-0.1241315078395E+01 -0.7351518141152E+01 -0.1718566669518E+01 -0.1288274855703E+01
-0.1014055835337E+01 -0.7397425107108E+01 -0.1682296213557E+01 -0.1329493069210E+01
-0.8094177805313E+00 -0.7413822177256E+01 -0.1644648016065E+01 -0.1334241906584E+01
-0.6366608957823E+00 -0.7399456006100E+01 -0.1607223404326E+01 -0.1314525435201E+01
-0.4981882044022E+00 -0.7357250942396E+01 -0.1571087852771E+01 -0.1281066900456E+01
-0.3919699536166E+00 -0.7292168880311E+01 -0.1536827789686E+01 -0.1241689115304E+01
-0.3138856753456E+00 -0.7209457544935E+01 -0.1504668666477E+01 -0.1201227986147E+01
-0.2593268342534E+00 -0.7113654305411E+01 -0.1474596249906E+01 -0.1162193371499E+01
-0.2240416027029E+00 -0.7008222777324E+01 -0.1446452897559E+01 -0.1125580402478E+01
-0.2044447417214E+00 -0.6895562569494E+01 -0.1420001483403E+01 -0.1091546296243E+01
-0.1976217054878E+00 -0.6777185538079E+01 -0.1394961469500E+01 -0.1059880488823E+01
-0.2011875669430E+00 -0.6653940726396E+01 -0.1371025679098E+01 -0.1030286012964E+01
-0.2131019461806E+00 -0.6526227451968E+01 -0.1347865899714E+01 -0.1002509112556E+01
-0.2315101073373E+00 -0.6394172410804E+01 -0.1325136523374E+01 -0.9763540583310E+00
-0.2546506996827E+00 -0.6258030542800E+01 -0.1302536267906E+01 -0.9515637768836E+00
-0.2808606253458E+00 -0.6118486651953E+01 -0.1279869474531E+01 -0.9276691534700E+00
-0.3086816452230E+00 -0.5976032644260E+01 -0.1256942876627E+01 -0.9040890532979E+00
-0.3369712808294E+00 -0.5830378737656E+01 -0.1233470022077E+01 -0.8803476894312E+00
-0.3649210045695E+00 -0.5680613672382E+01 -0.1209106953407E+01 -0.8561805467915E+00
-0.3919787709259E+00 -0.5525450818939E+01 -0.1183485935608E+01 -0.8316344111099E+00
-0.4176893817367E+00 -0.5363407111202E+01 -0.1156219315817E+01 -0.8071624854155E+00
-0.4414847236582E+00 -0.5192927142659E+01 -0.1126882390055E+01 -0.7836899964872E+00
-0.4624545069065E+00 -0.5012472215478E+01 -0.1094985360793E+01 -0.7626455882639E+00
-0.4791087755391E+00 -0.4820602176243E+01 -0.1059942206151E+01 -0.7459715431978E+00
-0.4891241882230E+00 -0.4616068703349E+01 -0.1021038593529E+01 -0.7361250851548E+00
-0.4890456537187E+00 -0.4397840265068E+01 -0.9773771983215E+00 -0.7361173535701E+00
-0.4738984589054E+00 -0.4165181892798E+01 -0.9278160841663E+00 -0.7495606392966E+00
-0.4366868291885E+00 -0.3918037239337E+01 -0.8709448266831E+00 -0.7805733081012E+00
-0.3677900534425E+00 -0.3657549888585E+01 -0.8050680004019E+00 -0.8335194270207E+00
-0.2542931863454E+00 -0.3386616353081E+01 -0.7281819187360E+00 -0.9125514379296E+00
-0.7934443218886E-01 -0.3110531029603E+01 -0.6379751018650E+00 -0.1020793426335E+01
 0.1782686745049E+00 -0.2837614767046E+01 -0.5318692264337E+00 -0.1159024880873E+01
 0.5440050412682E+00 -0.2579566306228E+01 -0.4071122590584E+00 -0.1323763686898E+01
 0.1046555048453E+01 -0.2351033987889E+01 -0.2608957917749E+00 -0.1504821082526E+01
 0.1715585725338E+01 -0.2167850157097E+01 -0.9045288769956E-01 -0.1682543970381E+01
 0.2575621273962E+01 -0.2044281542286E+01  0.1062679479188E+00 -0.1824301136160E+01
 0.3634035038988E+01 -0.1987747652264E+01  0.3292574822510E+00 -0.1882813917246E+01
 0.4868841421219E+01 -0.1990458076315E+01  0.5756766775590E+00 -0.1802135496630E+01
 0.6215205291601E+01 -0.2022264156373E+01  0.8385882395416E+00 -0.1530982407906E+01
-0.1630184795165E+01 -0.6929515231203E+01 -0.1711940030783E+01 -0.1034625521761E+01
-0.1431330891172E+01 -0.7003469256989E+01 -0.1686960054770E+01 -0.1172933456221E+01
-0.1216074411125E+01 -0.7068055003302E+01 -0.1656825907574E+01 -0.1266473482420E+01
-0.1004061639494E+01 -0.7113027098600E+01 -0.1623417771810E+01 -0.1317255570941E+01
-0.8107478192363E+00 -0.7131864832233E+01 -0.1588522553965E+01 -0.1333096326323E+01
-0.6452064951837E+00 -0.7122694123280E+01 -0.1553580146843E+01 -0.1324185169293E+01
-0.5105778033486E+00 -0.7087379677086E+01 -0.1519591518731E+01 -0.1300105923444E+01
-0.4058772131718E+00 -0.7029854966351E+01 -0.1487146458065E+01 -0.1268259064073E+01
-0.3279328411097E+00 -0.6954614845750E+01 -0.1456509559076E+01 -0.1233554739861E+01
-0.2728280509994E+00 -0.6865757782786E+01 -0.1427717188032E+01 -0.1198820798042E+01
-0.2367409523458E+00 -0.6766557067521E+01 -0.1400659624845E+01 -0.1165434646888E+01
-0.2163122432250E+00 -0.6659383563319E+01 -0.1375139181800E+01 -0.1133904219679E+01
-0.2087179678090E+00 -0.6545810526086E+01 -0.1350905718909E+01 -0.1104299426696E+01
-0.2115884057639E+00 -0.6426788871280E+01 -0.1327675475193E+01 -0.1076525782504E+01
-0.2228704024074E+00 -0.6302827067894E+01 -0.1305139513508E+01 -0.1050462733363E+01
-0.2407015092940E+00 -0.6174146449550E+01 -0.1282969610886E+01 -0.1025998336088E+01
-0.2633333361798E+00 -0.6041056391243E+01 -0.1260877964273E+01 -0.1002941807899E+01
-0.2891304248189E+00 -0.5904242414500E+01 -0.1238674586321E+01 -0.9809035787164E+00
-0.3166506319427E+00 -0.5764185769790E+01 -0.1216167298469E+01 -0.9594006296498E+00
-0.3447272876510E+00 -0.5620619903427E+01 -0.1193069455994E+01 -0.9380630606920E+00
-0.3724728975451E+00 -0.5472693200859E+01 -0.1169033237101E+01 -0.9167282681893E+00
-0.3992034584704E+00 -0.5319206058317E+01 -0.1143681920400E+01 -0.8955279293266E+00
-0.4242915842733E+00 -0.5158781519672E+01 -0.1116614637428E+01 -0.8749743735212E+00
-0.4469717888581E+00 -0.4989986613739E+01 -0.1087391696723E+01 -0.8560238145002E+00
-0.4661219384316E+00 -0.4811426272064E+01 -0.1055509657827E+01 -0.8401084595174E+00
-0.4800305234557E+00 -0.4621836856641E+01 -0.1020373491224E+01 -0.8291444752137E+00
-0.4861449744061E+00 -0.4420194948678E+01 -0.9812679992389E+00 -0.8255226321916E+00
-0.4807784165225E+00 -0.4205765322300E+01 -0.9373087617315E+00 -0.8321215654110E+00
-0.4587404214477E+00 -0.3978200633374E+01 -0.8873882241874E+00 -0.8523135147967E+00
-0.4128809976486E+00 -0.3737915973079E+01 -0.8301594065159E+00 -0.8898203850761E+00
-0.3335684765816E+00 -0.3486577175749E+01 -0.7640291418510E+00 -0.9483998460940E+00
-0.2081493041998E+00 -0.3227591416407E+01 -0.6871481543607E+00 -0.1031336268041E+01
-0.2049509523627E-01 -0.2966636745382E+01 -0.5974263770260E+00 -0.1140597712688E+01
 0.2491655446036E+00 -0.2712106020123E+01 -0.4925881024439E+00 -0.1275559789242E+01
 0.6238340471168E+00 -0.2475208481299E+01 -0.3702748923541E+00 -0.1431262031340E+01
 0.1128455488901E+01 -0.2269290848739E+01 -0.2281670753677E+00 -0.1596348228601E+01
 0.1787594862435E+01 -0.2107963241934E+01 -0.6407367685474E-01 -0.1750968500549E+01
 0.2619891072029E+01 -0.2002517747828E+01  0.1234746666802E+00 -0.1864331030227E+01
 0.3628280209871E+01 -0.1957522276265E+01  0.3341515917005E+00 -0.1894186401825E+01
 0.4789718509998E+01 -0.1964479123637E+01  0.5650478856921E+00 -0.1792283874628E+01
 0.6049878347421E+01 -0.1996898707237E+01  0.8105959401156E+00 -0.1518242696527E+01
-0.1570738802944E+01 -0.6660345280041E+01 -0.1646216841128E+01 -0.1007459289914E+01
-0.1387224435236E+01 -0.6728997616983E+01 -0.1623244434632E+01 -0.1146956793504E+01
-0.1188025222631E+01 -0.6789716040723E+01 -0.1595548276446E+01 -0.1245701882768E+01
-0.9903261835167E+00 -0.6833396772642E+01 -0.1564744614548E+01 -0.1304849817536E+01
-0.8080882578887E+00 -0.6853887340951E+01 -0.1532395142602E+01 -0.1330638810269E+01
-0.6500518644548E+00 -0.6848909147109E+01 -0.1499792224661E+01 -0.1331699005698E+01
-0.5198439464584E+00 -0.6819496564762E+01 -0.1467868124117E+01 -0.1316547661615E+01
-0.4173072984129E+00 -0.6768706746368E+01 -0.1437202830372E+01 -0.1292105328054E+01
-0.3400847421202E+00 -0.6700341898932E+01 -0.1408085349192E+01 -0.1263249323219E+01
-0.2848943178225E+00 -0.6618057706830E+01 -0.1380590425503E+01 -0.1233024251094E+01
-0.2483360776451E+00 -0.6524903019314E+01 -0.1354647839578E+01 -0.1203115968276E+01
-0.2272932509600E+00 -0.6423178556426E+01 -0.1330094381297E+01 -0.1174337389920E+01
-0.2190580584601E+00 -0.6314481020703E+01 -0.1306707835304E+01 -0.1147014654997E+01
-0.2213019830131E+00 -0.6199831980587E+01 -0.1284226811857E+01 -0.1121246423203E+01
-0.2319803587698E+00 -0.6079825162841E+01 -0.1262361123133E+01 -0.1097046104521E+01
-0.2492360453719E+00 -0.5954760282969E+01 -0.1240799284158E+01 -0.1074392245614E+01
-0.2713370374828E+00 -0.5824992670388E+01 -0.1219265959743E+01 -0.1053168298712E+01
-0.2966714544984E+00 -0.5691207024945E+01 -0.1197575713734E+01 -0.1033068913631E+01
-0.3238069665962E+00 -0.5553876939408E+01 -0.1175536798718E+01 -0.1013708204219E+01
-0.3515497207698E+00 -0.5412763715018E+01 -0.1152862704337E+01 -0.9948161721361E+00
-0.3789362460185E+00 -0.5267080349801E+01 -0.1129203335990E+01 -0.9763238079016E+00
-0.4051588326147E+00 -0.5115720272839E+01 -0.1104175837544E+01 -0.9584393653154E+00
-0.4294289842320E+00 -0.4957420974920E+01 -0.1077370007885E+01 -0.9417263168337E+00
-0.4507958648764E+00 -0.4790882962738E+01 -0.1048335781144E+01 -0.9271625712488E+00
-0.4679385553425E+00 -0.4614867283934E+01 -0.1016561183003E+01 -0.9161708082409E+00
-0.4789404472584E+00 -0.4428297823141E+01 -0.9814476687045E+00 -0.9106221183705E+00
-0.4810437366947E+00 -0.4230381322997E+01 -0.9422850259794E+00 -0.9128153245665E+00
-0.4703665462034E+00 -0.4020672634781E+01 -0.8982078495812E+00 -0.9254659236806E+00
-0.4415575147328E+00 -0.3799187245347E+01 -0.8481489646544E+00 -0.9516744468775E+00
-0.3873886456190E+00 -0.3566760980384E+01 -0.7908299369849E+00 -0.9947413949320E+00
-0.2983149311713E+00 -0.3325498152920E+01 -0.7247626276180E+00 -0.1057812199323E+01
-0.1620565799531E+00 -0.3079194350055E+01 -0.6482501956614E+00 -0.1143334995381E+01
 0.3668405937174E-01 -0.2833752256665E+01 -0.5594136477946E+00 -0.1252217137925E+01
 0.3161789862499E+00 -0.2597459391593E+01 -0.4562560878674E+00 -0.1382619086227E+01
 0.6970403482838E+00 -0.2380888018081E+01 -0.3367695389777E+00 -0.1528404510835E+01
 0.1200784885818E+01 -0.2196048239326E+01 -0.1990526736679E+00 -0.1677448050300E+01
 0.1847546163239E+01 -0.2054510055888E+01 -0.4139277914653E-01 -0.1810091560587E+01
 0.2651236024748E+01 -0.1965050338191E+01  0.1372371393565E+00 -0.1897532043837E+01
 0.3611286563528E+01 -0.1930074935741E+01  0.3362423305678E+00 -0.1901973020962E+01
 0.4705363840918E+01 -0.1940537702270E+01  0.5529652359694E+00 -0.1782053541946E+01
 0.5885403639073E+01 -0.1973871373332E+01  0.7823064648054E+00 -0.1503242642777E+01
-0.1511580203586E+01 -0.6395222179603E+01 -0.1581360500202E+01 -0.9823009588503E+00
-0.1342005456226E+01 -0.6458996422220E+01 -0.1560200398938E+01 -0.1122757569121E+01
-0.1157541971002E+01 -0.6516008691214E+01 -0.1534710155312E+01 -0.1225980141435E+01
-0.9732761218199E+00 -0.6558154861704E+01 -0.1506286219150E+01 -0.1292471568200E+01
-0.8018031696466E+00 -0.6579680652996E+01 -0.1476296786527E+01 -0.1327188237155E+01
-0.6514381159595E+00 -0.6578063355142E+01 -0.1445900315766E+01 -0.1337425525436E+01
-0.5261008803678E+00 -0.6553695083006E+01 -0.1415959213774E+01 -0.1330719937855E+01
-0.4262761017367E+00 -0.6508895580707E+01 -0.1387034357157E+01 -0.1313486008191E+01
-0.3502955992844E+00 -0.6446842034897E+01 -0.1359427547093E+01 -0.1290489499895E+01
-0.2954493704724E+00 -0.6370758463560E+01 -0.1333241586673E+01 -0.1264907504307E+01
-0.2587418398174E+00 -0.6283448932852E+01 -0.1308438174031E+01 -0.1238667298010E+01
-0.2373066615615E+00 -0.6187112058499E+01 -0.1284883763158E+01 -0.1212841896950E+01
-0.2285713197544E+00 -0.6083335502718E+01 -0.1262381383305E+01 -0.1187987788558E+01
-0.2302699437925E+00 -0.5973183231176E+01 -0.1240690653481E+01 -0.1164385061736E+01
-0.2403846443588E+00 -0.5857311998882E+01 -0.1219539346821E+01 -0.1142179209019E+01
-0.2570752449758E+00 -0.5736084523563E+01 -0.1198631971569E+01 -0.1121443146941E+01
-0.2786299127876E+00 -0.5609893759782E+01 -0.1177704752063E+01 -0.1102139807282E+01
-0.3034579807326E+00 -0.5479421552937E+01 -0.1156575923968E+01 -0.1084050721660E+01
-0.3301326901754E+00 -0.5345135996590E+01 -0.1135053754267E+01 -0.1066885193029E+01
-0.3574313991064E+00 -0.5206830008264E+01 -0.1112852298057E+01 -0.1050466953118E+01
-0.3843180663762E+00 -0.5063785246817E+01 -0.1089620678875E+01 -0.1034812160584E+01
-0.4098694325791E+00 -0.4914992800516E+01 -0.1064972462488E+01 -0.1020196840511E+01
-0.4331471084855E+00 -0.4759310652008E+01 -0.1038491567574E+01 -0.1007226848479E+01
-0.4530278135289E+00 -0.4595580414857E+01 -0.1009721660723E+01 -0.9968919537810E+00
-0.4680065822028E+00 -0.4422727271765E+01 -0.9781467853691E+00 -0.9905925655872E+00
-0.4759802655715E+00 -0.4239868367961E+01 -0.9431697407609E+00 -0.9901375833653E+00
-0.4740116339612E+00 -0.4046440170832E+01 -0.9040903744306E+00 -0.9977122269204E+00
-0.4580611213124E+00 -0.3842275791248E+01 -0.8600673953282E+00 -0.1015844470789E+01
-0.4226691855678E+00 -0.3627724127148E+01 -0.8100786746144E+00 -0.1047340475540E+01
-0.3605998056715E+00 -0.3403988820432E+01 -0.7529177364400E+00 -0.1095066208956E+01
-0.2624796732943E+00 -0.3173531480552E+01 -0.6872022410095E+00 -0.1161563121712E+01
-0.1164936641003E+00 -0.2940424910673E+01 -0.6113837240650E+00 -0.1248489363143E+01
 0.9175029273053E-01 -0.2710661504669E+01 -0.5237822501926E+00 -0.1355796654464E+01
 0.3790076556461E+00 -0.2492286824547E+01 -0.4226558400783E+00 -0.1480614340186E+01
 0.7636106123221E+00 -0.2295143078524E+01 -0.3063064978048E+00 -0.1615899672444E+01
 0.1263967414583E+01 -0.2129922978302E+01 -0.1731911153245E+00 -0.1749080294052E+01
 0.1896411612025E+01 -0.2006353311039E+01 -0.2198834013038E-01 -0.1860971789232E+01
 0.2670985012260E+01 -0.1931118075303E+01  0.1479733895964E+00 -0.1924775200613E+01
 0.3584701577585E+01 -0.1904918606041E+01  0.3359565993148E+00 -0.1906749448732E+01
 0.4615862531647E+01 -0.1918679446830E+01  0.5394366250017E+00 -0.1771054390149E+01
 0.5723099558305E+01 -0.1951997141472E+01  0.7542204946053E+00 -0.1488781907022E+01
-0.1452698372357E+01 -0.6133737273377E+01 -0.1517287151756E+01 -0.9589768792686E+00
-0.1295840250690E+01 -0.6193015449775E+01 -0.1497771162412E+01 -0.1100211127138E+01
-0.1124939266805E+01 -0.6246494748259E+01 -0.1474286824981E+01 -0.1207306868128E+01
-0.9532830905380E+00 -0.6286947710333E+01 -0.1448046181752E+01 -0.1280266345231E+01
-0.7922259119033E+00 -0.6309026912102E+01 -0.1420250585964E+01 -0.1323001598858E+01
-0.6496033894437E+00 -0.6310083777282E+01 -0.1391937454087E+01 -0.1341668135540E+01
-0.5294797855072E+00 -0.6290021068720E+01 -0.1363900191169E+01 -0.1342912184244E+01
-0.4328257281207E+00 -0.6250544944060E+01 -0.1336674154354E+01 -0.1332638652126E+01
-0.3585470177091E+00 -0.6194277283826E+01 -0.1310564879836E+01 -0.1315446312798E+01
-0.3044411635097E+00 -0.6124031791296E+01 -0.1285694610119E+01 -0.1294576339395E+01
-0.2678926589539E+00 -0.6042358454037E+01 -0.1262050241404E+01 -0.1272138193377E+01
-0.2462862945961E+00 -0.5951330314296E+01 -0.1239523340249E+01 -0.1249422415072E+01
-0.2371980194942E+00 -0.5852499010415E+01 -0.1217939424131E+01 -0.1227189447157E+01
-0.2384417221408E+00 -0.5746945953962E+01 -0.1197077553058E+01 -0.1205887370871E+01
-0.2480417170986E+00 -0.5635370637294E+01 -0.1176682488412E+01 -0.1185789612283E+01
-0.2641851092575E+00 -0.5518184398090E+01 -0.1156473918702E+01 -0.1167064816201E+01
-0.2851842277265E+00 -0.5395809679368E+01 -0.1136198798350E+01 -0.1149758234260E+01
-0.3094686089634E+00 -0.5268922977319E+01 -0.1115678333881E+01 -0.1133739135476E+01
-0.3356145165232E+00 -0.5137988214461E+01 -0.1094720562509E+01 -0.1118809160298E+01
-0.3623701426939E+00 -0.5002832774396E+01 -0.1073040599407E+01 -0.1104879394939E+01
-0.3886307538670E+00 -0.4862810049439E+01 -0.1050288176312E+01 -0.1092042704602E+01
-0.4133657192828E+00 -0.4717012075420E+01 -0.1026075574230E+01 -0.1080633834586E+01
-0.4354981075178E+00 -0.4564421306960E+01 -0.9999838977965E+00 -0.1071291856211E+01
-0.4537457508236E+00 -0.4404025108519E+01 -0.9715541863457E+00 -0.1065008407543E+01
-0.4664355876751E+00 -0.4234916961689E+01 -0.9402705238839E+00 -0.1063149539327E+01
-0.4712979140839E+00 -0.4056408538068E+01 -0.9055413039239E+00 -0.1067446851959E+01
-0.4652428641068E+00 -0.3868160918435E+01 -0.8666807694228E+00 -0.1079954097086E+01
-0.4441100971158E+00 -0.3670269383393E+01 -0.8228759083635E+00 -0.1102993234446E+01
-0.4023816665558E+00 -0.3463383880174E+01 -0.7731531208669E+00 -0.1139061546278E+01
-0.3328765032892E+00 -0.3249022772546E+01 -0.7163798658420E+00 -0.1190587539299E+01
-0.2264653042190E+00 -0.3029928521539E+01 -0.6512787748565E+00 -0.1259528249174E+01
-0.7186835314469E-01 -0.2810352508075E+01 -0.5764441808337E+00 -0.1346808153608E+01
 0.1443539391221E+00 -0.2596265363249E+01 -0.4903822921327E+00 -0.1451532323158E+01
 0.4374561143073E+00 -0.2395369459202E+01 -0.3915826748140E+00 -0.1569972699276E+01
 0.8236238776360E+00 -0.2216726907460E+01 -0.2786206101166E+00 -0.1694414275309E+01
 0.1318476200403E+01 -0.2069766641913E+01 -0.1502580905411E+00 -0.1812095387233E+01
 0.1935090373553E+01 -0.1962577063293E+01 -0.5497338030049E-02 -0.1904492841013E+01
 0.2680400585725E+01 -0.1900097221456E+01  0.1560606751793E+00 -0.1946786605537E+01
 0.3549645548048E+01 -0.1881766563548E+01  0.3335758018707E+00 -0.1908808723474E+01
 0.4522221617264E+01 -0.1898574964536E+01  0.5247293383645E+00 -0.1759478865879E+01
 0.5561978139095E+01 -0.1932480553854E+01  0.7258995278650E+00 -0.1474025122441E+01
-0.1394080306430E+01 -0.5875531223616E+01 -0.1453922327674E+01 -0.9373331563675E+00
-0.1248865011653E+01 -0.5930658316525E+01 -0.1435904687032E+01 -0.1079201974639E+01
-0.1090482821694E+01 -0.5980782278408E+01 -0.1414253041094E+01 -0.1189665903090E+01
-0.9306713375281E+00 -0.6019446446396E+01 -0.1390023577498E+01 -0.1268340886376E+01
-0.7796603356907E+00 -0.6041705603699E+01 -0.1364273208207E+01 -0.1318285197586E+01
-0.6447788834736E+00 -0.6044871863700E+01 -0.1337930169371E+01 -0.1344682248398E+01
-0.5301227246514E+00 -0.6028482124504E+01 -0.1311720989377E+01 -0.1353377852788E+01
-0.4370188775458E+00 -0.5993737407171E+01 -0.1286151276108E+01 -0.1349779233748E+01
-0.3648439215979E+00 -0.5942772550547E+01 -0.1261523313227E+01 -0.1338281450362E+01
-0.3118394091310E+00 -0.5878018771851E+01 -0.1237971654644E+01 -0.1322135631192E+01
-0.2757412521296E+00 -0.5801771236093E+01 -0.1215502515757E+01 -0.1303582292508E+01
-0.2541803917201E+00 -0.5715961307517E+01 -0.1194028357640E+01 -0.1284090194712E+01
-0.2448893024242E+00 -0.5622082871427E+01 -0.1173394452255E+01 -0.1264597728360E+01
-0.2457747597520E+00 -0.5521213248888E+01 -0.1153397618915E+01 -0.1245706427780E+01
-0.2549160214373E+00 -0.5414076468087E+01 -0.1133798514800E+01 -0.1227811648144E+01
-0.2705364903203E+00 -0.5301119192698E+01 -0.1114331153208E+01 -0.1211176935514E+01
-0.2909767067824E+00 -0.5182785469901E+01 -0.1094752451650E+01 -0.1195930597293E+01
-0.3146864605624E+00 -0.5059743553133E+01 -0.1074886018756E+01 -0.1182028894432E+01
-0.3402438802387E+00 -0.4932453738990E+01 -0.1054539539560E+01 -0.1169362113719E+01
-0.3663686863810E+00 -0.4800779817137E+01 -0.1033429716103E+01 -0.1157922116276E+01
-0.3918918092184E+00 -0.4664148997508E+01 -0.1011208176413E+01 -0.1147870035925E+01
-0.4156835089174E+00 -0.4521756273063E+01 -0.9874879711107E+00 -0.1139590231749E+01
-0.4365397676062E+00 -0.4372710695464E+01 -0.9618501069466E+00 -0.1133745710331E+01
-0.4530335269326E+00 -0.4216147431171E+01 -0.9338362055360E+00 -0.1131320141543E+01
-0.4633403718284E+00 -0.4051329142320E+01 -0.9029339162845E+00 -0.1133634023653E+01
-0.4650448582081E+00 -0.3877759574216E+01 -0.8685608994273E+00 -0.1142328646606E+01
-0.4549315320144E+00 -0.3695315587573E+01 -0.8300494362861E+00 -0.1159312085310E+01
-0.4287550216259E+00 -0.3504335454913E+01 -0.7866181070294E+00 -0.1186687227177E+01
-0.3809850753486E+00 -0.3305736298436E+01 -0.7373442857443E+00 -0.1226635187302E+01
-0.3045511396315E+00 -0.3101299520858E+01 -0.6811701422481E+00 -0.1281152644874E+01
-0.1906278006957E+00 -0.2893978154334E+01 -0.6169212001987E+00 -0.1351640490321E+01
-0.2852319069795E-01 -0.2688116624705E+01 -0.5433279711767E+00 -0.1438352186717E+01
 0.1942265089656E+00 -0.2489574115543E+01 -0.4590695281561E+00 -0.1539654656014E+01
 0.4914147947751E+00 -0.2305638611208E+01 -0.3628447686935E+00 -0.1651122157692E+01
 0.8772293713378E+00 -0.2144574399192E+01 -0.2534690093479E+00 -0.1764567650500E+01
 0.1364801793382E+01 -0.2014623231747E+01 -0.1299642896097E+00 -0.1867240219282E+01
 0.1964436784170E+01 -0.1922430028616E+01  0.8401351235940E-02 -0.1941401919316E+01
 0.2680563386297E+01 -0.1871499900509E+01  0.1618126995689E+00 -0.1964126861165E+01
 0.3507192706193E+01 -0.1860324104298E+01  0.3293737252869E+00 -0.1908419849397E+01
 0.4424942146919E+01 -0.1880178917866E+01  0.5089526533946E+00 -0.1747164607966E+01
 0.5401816548947E+01 -0.1915058827222E+01  0.6973515547364E+00 -0.1458795337177E+01
-0.1335711351135E+01 -0.5620285080784E+01 -0.1391199307114E+01 -0.9172328231631E+00
-0.1201191916960E+01 -0.5671573050748E+01 -0.1374553014024E+01 -0.1059623488729E+01
-0.1054398244744E+01 -0.5718518695916E+01 -0.1354583408317E+01 -0.1173031122634E+01
-0.9057244510733E+00 -0.5755345402162E+01 -0.1332213990499E+01 -0.1256771962146E+01
-0.7643826987197E+00 -0.5777497547406E+01 -0.1308376068721E+01 -0.1313203879877E+01
-0.6371864256517E+00 -0.5782310776375E+01 -0.1283899459537E+01 -0.1346681839540E+01
-0.5281780474920E+00 -0.5769055330300E+01 -0.1259446694326E+01 -0.1362337290694E+01
-0.4389341383178E+00 -0.5738520842836E+01 -0.1235491014641E+01 -0.1365102054881E+01
-0.3692108485171E+00 -0.5692419706314E+01 -0.1212326129031E+01 -0.1359145492799E+01
-0.3176331230577E+00 -0.5632832084451E+01 -0.1190093059235E+01 -0.1347687054200E+01
-0.2822572277604E+00 -0.5561803945892E+01 -0.1168812252147E+01 -0.1333055125177E+01
-0.2609509449507E+00 -0.5481115055831E+01 -0.1148413217269E+01 -0.1316861226256E+01
-0.2516069908666E+00 -0.5392184635508E+01 -0.1128758342095E+01 -0.1300196757802E+01
-0.2522345960529E+00 -0.5296067730440E+01 -0.1109660481834E+01 -0.1283801615471E+01
-0.2609782293285E+00 -0.5193496840108E+01 -0.1090895030143E+01 -0.1268185638439E+01
-0.2761053618485E+00 -0.5084941804933E+01 -0.1072209449334E+01 -0.1253704607943E+01
-0.2959887372898E+00 -0.4970860707541E+01 -0.1053369904663E+01 -0.1240568814251E+01
-0.3190992596981E+00 -0.4851910344925E+01 -0.1034201936336E+01 -0.1228819365315E+01
-0.3440168964385E+00 -0.4728547220377E+01 -0.1014512838480E+01 -0.1218430744055E+01
-0.3694345058106E+00 -0.4600672595431E+01 -0.9940214350603E+00 -0.1209468817834E+01
-0.3941234902305E+00 -0.4467788614956E+01 -0.9723824355269E+00 -0.1202154625370E+01
-0.4168633680239E+00 -0.4329194035732E+01 -0.9492114948956E+00 -0.1196913125937E+01
-0.4363345482498E+00 -0.4184124976509E+01 -0.9240919187218E+00 -0.1194422098474E+01
-0.4509793205049E+00 -0.4031864225400E+01 -0.8965687225408E+00 -0.1195647806157E+01
-0.4588390806109E+00 -0.3871841755018E+01 -0.8661361800323E+00 -0.1201855067607E+01
-0.4573737701627E+00 -0.3703747911291E+01 -0.8322243486918E+00 -0.1214583971542E+01
-0.4432690447246E+00 -0.3527663646475E+01 -0.7941865500741E+00 -0.1235586161849E+01
-0.4122284624707E+00 -0.3344148997095E+01 -0.7512755031081E+00 -0.1266737308697E+01
-0.3587514103374E+00 -0.3154354050330E+01 -0.7026211026034E+00 -0.1309901316109E+01
-0.2759258907629E+00 -0.2960274154320E+01 -0.6472400186612E+00 -0.1366655643118E+01
-0.1552785179531E+00 -0.2765009634876E+01 -0.5840576392690E+00 -0.1437879662900E+01
 0.1325851596156E-01 -0.2572925360985E+01 -0.5119333766331E+00 -0.1523221771986E+01
 0.2411692283797E+00 -0.2389699003621E+01 -0.4297059614515E+00 -0.1620415528821E+01
 0.5408436110548E+00 -0.2222157637664E+01 -0.3362628103325E+00 -0.1724481525690E+01
 0.9246255796603E+00 -0.2077774108183E+01 -0.2306297091412E+00 -0.1826928733629E+01
 0.1403441248706E+01 -0.1963691411320E+01 -0.1120500341924E+00 -0.1915170131467E+01
 0.1985240194569E+01 -0.1885295223695E+01  0.1998899447278E-01 -0.1972323963054E+01
 0.2672441314640E+01 -0.1844916217146E+01  0.1655050219651E+00 -0.1977250936240E+01
 0.3458233428391E+01 -0.1840362046712E+01  0.3235742811576E+00 -0.1905747725242E+01
 0.4324446382981E+01 -0.1863302559951E+01  0.4922287719408E+00 -0.1733988542687E+01
 0.5242485344869E+01 -0.1899439498782E+01  0.6686091791805E+00 -0.1443001336641E+01
-0.1277575711281E+01 -0.5367713162060E+01 -0.1329057794473E+01 -0.8985535276088E+00
-0.1152913856663E+01 -0.5415444477339E+01 -0.1313671686376E+01 -0.1041377470178E+01
-0.1016878138377E+01 -0.5459384852355E+01 -0.1295252617447E+01 -0.1157369898877E+01
-0.8786912229830E+00 -0.5494360162431E+01 -0.1274610296076E+01 -0.1245613185258E+01
-0.7466439327693E+00 -0.5516187375552E+01 -0.1252566280329E+01 -0.1307888618060E+01
-0.6270371511073E+00 -0.5522270837427E+01 -0.1229861616033E+01 -0.1347845304004E+01
-0.5237969739582E+00 -0.5511693501078E+01 -0.1207098112994E+01 -0.1369980792966E+01
-0.4386621119924E+00 -0.5484913844002E+01 -0.1184715208852E+01 -0.1378780282299E+01
-0.3716886504299E+00 -0.5443281463822E+01 -0.1162994040180E+01 -0.1378176854715E+01
-0.3218282659056E+00 -0.5388558375771E+01 -0.1142077345354E+01 -0.1371327334606E+01
-0.2874256134387E+00 -0.5322551507093E+01 -0.1121995440825E+01 -0.1360612273184E+01
-0.2665729027622E+00 -0.5246884137677E+01 -0.1102691424519E+01 -0.1347754599645E+01
-0.2573232580086E+00 -0.5162888187716E+01 -0.1084042305298E+01 -0.1333975343682E+01
-0.2577948388096E+00 -0.5071581405812E+01 -0.1065875264807E+01 -0.1320137583834E+01
-0.2662053694187E+00 -0.4973690800319E+01 -0.1047979249564E+01 -0.1306857150016E+01
-0.2808729869513E+00 -0.4869698405604E+01 -0.1030114293861E+01 -0.1294577892219E+01
-0.3002064830040E+00 -0.4760069143452E+01 -0.1012055140372E+01 -0.1283589486294E+01
-0.3226993413807E+00 -0.4645444903688E+01 -0.9936288638201E+00 -0.1274014538296E+01
-0.3469342482115E+00 -0.4526277599525E+01 -0.9746423840705E+00 -0.1265906606769E+01
-0.3715795760510E+00 -0.4402506214731E+01 -0.9548171723843E+00 -0.1259398634175E+01
-0.3953524101024E+00 -0.4273708027507E+01 -0.9338121014367E+00 -0.1254763319264E+01
-0.4169499887520E+00 -0.4139285252961E+01 -0.9112470619213E+00 -0.1252457415550E+01
-0.4349486571512E+00 -0.3998600085568E+01 -0.8867097617568E+00 -0.1253164605791E+01
-0.4476743514850E+00 -0.3851080857529E+01 -0.8597510546141E+00 -0.1257824888829E+01
-0.4530515415286E+00 -0.3696320716422E+01 -0.8298744639562E+00 -0.1267638456139E+01
-0.4484365499209E+00 -0.3534188749939E+01 -0.7965250718412E+00 -0.1284035392180E+01
-0.4304419895882E+00 -0.3364956230572E+01 -0.7590796553431E+00 -0.1308603356364E+01
-0.3947520626580E+00 -0.3189382567691E+01 -0.7168269367513E+00 -0.1342987010380E+01
-0.3359332995946E+00 -0.3008817205197E+01 -0.6689501109265E+00 -0.1388737279411E+01
-0.2472729076408E+00 -0.2825423754975E+01 -0.6145393416805E+00 -0.1447030499756E+01
-0.1206868276471E+00 -0.2642393929215E+01 -0.5526161596070E+00 -0.1518263473832E+01
 0.5324651319187E-01 -0.2464052716517E+01 -0.4821612478497E+00 -0.1601546333431E+01
 0.2850426629325E+00 -0.2295843378603E+01 -0.4021601491268E+00 -0.1694078167888E+01
 0.5857575392030E+00 -0.2144105467434E+01 -0.3116695902904E+00 -0.1790453552445E+01
 0.9660454686439E+00 -0.2015543732916E+01 -0.2098996559821E+00 -0.1882016548551E+01
 0.1434885205598E+01 -0.1916296314627E+01 -0.9628222324057E-01 -0.1956457883631E+01
 0.1998230120893E+01 -0.1850657602926E+01  0.2951450403330E-01 -0.1997784900861E+01
 0.2656890524941E+01 -0.1820003309468E+01  0.1673774455888E+00 -0.1986521590529E+01
 0.3403523784458E+01 -0.1821660506684E+01  0.3163726602692E+00 -0.1900907215998E+01
 0.4221109506836E+01 -0.1847727262142E+01  0.4746764560120E+00 -0.1719864350179E+01
 0.5083911992964E+01 -0.1885343769625E+01  0.6397136542002E+00 -0.1426577580567E+01
-0.1219656811325E+01 -0.5117557314248E+01 -0.1267442844001E+01 -0.8811856317781E+00
-0.1104108136011E+01 -0.5161988018466E+01 -0.1253219249570E+01 -0.1024373632300E+01
-0.9780878486959E+00 -0.5203089999232E+01 -0.1236235588007E+01 -0.1142645600526E+01
-0.8497907195279E+00 -0.5236225471835E+01 -0.1217203256410E+01 -0.1234900287373E+01
-0.7266720411799E+00 -0.5257564956113E+01 -0.1196847417293E+01 -0.1302442718428E+01
-0.6145309658126E+00 -0.5264613558492E+01 -0.1175828922382E+01 -0.1348320604585E+01
-0.5171311171027E+00 -0.5256330221263E+01 -0.1154692284879E+01 -0.1376471643584E+01
-0.4363022738203E+00 -0.5232910388983E+01 -0.1133842549456E+01 -0.1390966899663E+01
-0.3723316128297E+00 -0.5195394957462E+01 -0.1113545330651E+01 -0.1395501263766E+01
-0.3244455377100E+00 -0.5145260638745E+01 -0.1093941251592E+01 -0.1393146967166E+01
-0.2912453769356E+00 -0.5084088491640E+01 -0.1075066789735E+01 -0.1386307858872E+01
-0.2710332966718E+00 -0.5013344396553E+01 -0.1056875554394E+01 -0.1376791068316E+01
-0.2620201982545E+00 -0.4934264018068E+01 -0.1039256858751E+01 -0.1365925751556E+01
-0.2624370281064E+00 -0.4847815680718E+01 -0.1022050556995E+01 -0.1354683281796E+01
-0.2705808528006E+00 -0.4754708943815E+01 -0.1005057974300E+01 -0.1343776292721E+01
-0.2848259909767E+00 -0.4655428209124E+01 -0.9880508547432E+00 -0.1333731354886E+01
-0.3036209156291E+00 -0.4550438458892E+01 -0.9708118893705E+00 -0.1324913675809E+01
-0.3254835907309E+00 -0.4440363068398E+01 -0.9531693460291E+00 -0.1317522993818E+01
-0.3490010149363E+00 -0.4325648022857E+01 -0.9349298214901E+00 -0.1311686245680E+01
-0.3728200794313E+00 -0.4206269536829E+01 -0.9158179368988E+00 -0.1307596390456E+01
-0.3956091003140E+00 -0.4081879368414E+01 -0.8954977070895E+00 -0.1305569701022E+01
-0.4159915598506E+00 -0.3951981875678E+01 -0.8735947001232E+00 -0.1306086214744E+01
-0.4324511727279E+00 -0.3816063064026E+01 -0.8497028600123E+00 -0.1309827075451E+01
-0.4432117143028E+00 -0.3673693143596E+01 -0.8233809838492E+00 -0.1317697869757E+01
-0.4460978115066E+00 -0.3524622477194E+01 -0.7941440695738E+00 -0.1330826453963E+01
-0.4383826654879E+00 -0.3368889217183E+01 -0.7614543878808E+00 -0.1350526113043E+01
-0.4166304476918E+00 -0.3206939775125E+01 -0.7247140553625E+00 -0.1378215880264E+01
-0.3765351420958E+00 -0.3039710117515E+01 -0.6832490621033E+00 -0.1415309400276E+01
-0.3127633716702E+00 -0.2868716757442E+01 -0.6362960353040E+00 -0.1463053197293E+01
-0.2188351182829E+00 -0.2696249822666E+01 -0.5830169968774E+00 -0.1522244728301E+01
-0.8708315862382E-01 -0.2525543886862E+01 -0.5225254168835E+00 -0.1592839763505E+01
 0.9125756323590E-01 -0.2360835044878E+01 -0.4539155030922E+00 -0.1673475961858E+01
 0.3257573189373E+00 -0.2207293957380E+01 -0.3763073332959E+00 -0.1760909566679E+01
 0.6262147332964E+00 -0.2070761670624E+01 -0.2889093917705E+00 -0.1849420706210E+01
 0.1001744379614E+01 -0.1957209721558E+01 -0.1910930712363E+00 -0.1930301924458E+01
 0.1459610795059E+01 -0.1871865592807E+01 -0.8245096077820E-01 -0.1991603763281E+01
 0.2004077648206E+01 -0.1818083127721E+01  0.3719890465131E-01 -0.2018227718870E+01
 0.2634669165233E+01 -0.1796465605201E+01  0.1676407145044E+00 -0.1992230808510E+01
 0.3343717889329E+01 -0.1804008813737E+01  0.3079418197072E+00 -0.1893985335194E+01
 0.4115273716124E+01 -0.1833237559857E+01  0.4564072380543E+00 -0.1704729170785E+01
 0.4926052694376E+01 -0.1872520517634E+01  0.6107064444486E+00 -0.1409465041551E+01
-0.1161937548350E+01 -0.4869582247274E+01 -0.1206303977100E+01 -0.8650306439254E+00
-0.1054839400604E+01 -0.4910944607015E+01 -0.1193156819303E+01 -0.1008529077821E+01
-0.9381701484754E+00 -0.4949367492620E+01 -0.1177507545765E+01 -0.1128819406738E+01
-0.8192166483781E+00 -0.4980693140344E+01 -0.1159981975029E+01 -0.1224655222870E+01
-0.7046744869603E+00 -0.5001426086525E+01 -0.1141220131703E+01 -0.1296946897594E+01
-0.5998565548344E+00 -0.5009194584220E+01 -0.1121810244527E+01 -0.1348229746494E+01
-0.5083307452454E+00 -0.5002883864554E+01 -0.1102242938385E+01 -0.1381949026818E+01
-0.4319604687595E+00 -0.4982483814884E+01 -0.1082888872865E+01 -0.1401795908930E+01
-0.3712049795672E+00 -0.4948774990868E+01 -0.1063996009942E+01 -0.1411231640112E+01
-0.3255183593191E+00 -0.4902980525015E+01 -0.1045699792449E+01 -0.1413229318117E+01
-0.2937279844533E+00 -0.4846470589388E+01 -0.1028039730087E+01 -0.1410193331166E+01
-0.2743303242299E+00 -0.4780555774777E+01 -0.1010977234866E+01 -0.1403991814951E+01
-0.2656893183113E+00 -0.4706369622449E+01 -0.9944118029700E+00 -0.1396042607108E+01
-0.2661504084555E+00 -0.4624821482933E+01 -0.9781943928539E+00 -0.1387411067738E+01
-0.2740944058293E+00 -0.4536593370830E+01 -0.9621375696688E+00 -0.1378897061384E+01
-0.2879563483193E+00 -0.4442163347523E+01 -0.9460239532653E+00 -0.1371103639299E+01
-0.3062277729397E+00 -0.4341990125727E+01 -0.9296435935862E+00 -0.1364466677170E+01
-0.3274533227153E+00 -0.4236674875510E+01 -0.9128256532473E+00 -0.1359257839052E+01
-0.3502264526402E+00 -0.4126655863249E+01 -0.8953764765201E+00 -0.1355671260482E+01
-0.3731760761534E+00 -0.4011945383348E+01 -0.8770243049689E+00 -0.1353952771939E+01
-0.3949275525989E+00 -0.3892268248804E+01 -0.8574391730575E+00 -0.1354454329447E+01
-0.4140391459983E+00 -0.3767228745624E+01 -0.8362535907856E+00 -0.1357671105385E+01
-0.4289132216898E+00 -0.3636433333631E+01 -0.8130693231798E+00 -0.1364273781197E+01
-0.4376853310351E+00 -0.3499589129869E+01 -0.7874549039147E+00 -0.1375126176263E+01
-0.4380969254552E+00 -0.3356596324587E+01 -0.7589386613175E+00 -0.1391277357997E+01
-0.4273577855213E+00 -0.3207651138919E+01 -0.7270017957212E+00 -0.1413918907474E+01
-0.4020066933507E+00 -0.3053359107350E+01 -0.6910731704380E+00 -0.1444299191487E+01
-0.3577737648312E+00 -0.2894810111924E+01 -0.6505167850445E+00 -0.1483604048374E+01
-0.2894541268215E+00 -0.2733657293760E+01 -0.6046222931258E+00 -0.1532787656394E+01
-0.1908274695205E+00 -0.2572279759916E+01 -0.5526214541221E+00 -0.1592293796170E+01
-0.5466223818594E-01 -0.2413913555385E+01 -0.4937151660712E+00 -0.1661679917352E+01
 0.1271496892466E+00 -0.2262667042389E+01 -0.4271034769928E+00 -0.1739174614426E+01
 0.3632653474362E+00 -0.2123412423966E+01 -0.3520294205516E+00 -0.1821174902052E+01
 0.6623066074550E+00 -0.2001493251589E+01 -0.2678373328179E+00 -0.1901742774464E+01
 0.1031990877271E+01 -0.1902189971173E+01 -0.1740398213738E+00 -0.1972210364580E+01
 0.1478076899516E+01 -0.1829910586685E+01 -0.7036673848224E-01 -0.2021044700416E+01
 0.2003398600870E+01 -0.1787201677134E+01  0.4323938539144E-01 -0.2034026704178E+01
 0.2606451675008E+01 -0.1774043526542E+01  0.1664816321740E+00 -0.1994616681467E+01
 0.3279390399713E+01 -0.1787208888062E+01  0.2984363067773E+00 -0.1885050911536E+01
 0.4007252729565E+01 -0.1819631999703E+01  0.4375241524921E+00 -0.1688533120991E+01
 0.4768883876194E+01 -0.1860743444458E+01  0.5816280950143E+00 -0.1391608269657E+01
-0.1104400468487E+01 -0.4623571703476E+01 -0.1145594451463E+01 -0.8499999214081E+00
-0.1005161966135E+01 -0.4662076480970E+01 -0.1133447706311E+01 -0.9937677942771E+00
-0.8972490710917E+00 -0.4697971123852E+01 -0.1119044055664E+01 -0.1115851626578E+01
-0.7871411117076E+00 -0.4727530026658E+01 -0.1102934244108E+01 -0.1214889372126E+01
-0.6808404888441E+00 -0.4747572689973E+01 -0.1085682651941E+01 -0.1291463430826E+01
-0.5831917597210E+00 -0.4755865808884E+01 -0.1067811529633E+01 -0.1347672633918E+01
-0.4975436191874E+00 -0.4751260781224E+01 -0.1049760895725E+01 -0.1386530739340E+01
-0.4257469469473E+00 -0.4733590172379E+01 -0.1031867439241E+01 -0.1411383659873E+01
-0.3683828564352E+00 -0.4703416941650E+01 -0.1014359974732E+01 -0.1425468265487E+01
-0.3250910563776E+00 -0.4661740541678E+01 -0.9973663344731E+00 -0.1431650041021E+01
-0.2948960269258E+00 -0.4609736101998E+01 -0.9809264404017E+00 -0.1432316513830E+01
-0.2764724175258E+00 -0.4548563235689E+01 -0.9650071450227E+00 -0.1429377408778E+01
-0.2683309707744E+00 -0.4479250009909E+01 -0.9495162102855E+00 -0.1424321928017E+01
-0.2689316243712E+00 -0.4402639490711E+01 -0.9343142369388E+00 -0.1418295901740E+01
-0.2767419216083E+00 -0.4319377743428E+01 -0.9192239467047E+00 -0.1412176723986E+01
-0.2902612929581E+00 -0.4229928840900E+01 -0.9040380402429E+00 -0.1406637052005E+01
-0.3080274522215E+00 -0.4134739361943E+01 -0.8885533760734E+00 -0.1402177780157E+01
-0.3286141109496E+00 -0.4034384561532E+01 -0.8725997474991E+00 -0.1399136614501E+01
-0.3506237360439E+00 -0.3929292828239E+01 -0.8559833256117E+00 -0.1397768321321E+01
-0.3726711488721E+00 -0.3819510812150E+01 -0.8384364046981E+00 -0.1398364414221E+01
-0.3933447517425E+00 -0.3704834272963E+01 -0.8196358171545E+00 -0.1401304868275E+01
-0.4111460854162E+00 -0.3584964424550E+01 -0.7992221139026E+00 -0.1407092251425E+01
-0.4244072169361E+00 -0.3459623907018E+01 -0.7768062363661E+00 -0.1416379440650E+01
-0.4311890221169E+00 -0.3328650727425E+01 -0.7519679611136E+00 -0.1429981970918E+01
-0.4291658322101E+00 -0.3192086439427E+01 -0.7242504651197E+00 -0.1448864899407E+01
-0.4155026759536E+00 -0.3050273450807E+01 -0.6931552356809E+00 -0.1474094945230E+01
-0.3867342309696E+00 -0.2903960048576E+01 -0.6581388657162E+00 -0.1506750050190E+01
-0.3386501964198E+00 -0.2754368033412E+01 -0.6186036551843E+00 -0.1547794135771E+01
-0.2661982016541E+00 -0.2603258939173E+01 -0.5738914367171E+00 -0.1597903775160E+01
-0.1634384701901E+00 -0.2453067611141E+01 -0.5233012240640E+00 -0.1657196212719E+01
-0.2358639066879E-01 -0.2306996885657E+01 -0.4661166622108E+00 -0.1724873327832E+01
 0.1608168172106E+00 -0.2168997523365E+01 -0.4016361472156E+00 -0.1798814717488E+01
 0.3975532917772E+00 -0.2043627569551E+01 -0.3292148604604E+00 -0.1875133522465E+01
 0.6941496943996E+00 -0.1935743035026E+01 -0.2483186718256E+00 -0.1947755827753E+01
 0.1057059824041E+01 -0.1849979381294E+01 -0.1585839138136E+00 -0.2008125443818E+01
 0.1490721352910E+01 -0.1790011176818E+01 -0.5985796567354E-01 -0.2045162566852E+01
 0.1996757775285E+01 -0.1757694080581E+01  0.4781273965312E-01 -0.2045499509788E+01
 0.2572841433030E+01 -0.1752506596988E+01  0.1640669696531E+00 -0.1993875597489E+01
 0.3211051925808E+01 -0.1771076861794E+01  0.2879950170943E+00 -0.1874159140056E+01
 0.3897334967814E+01 -0.1806724793113E+01  0.4181220411707E+00 -0.1671233715003E+01
 0.4612398242205E+01 -0.1849806812576E+01  0.5525182941590E+00 -0.1372955593821E+01
-0.1047027888378E+01 -0.4379325285004E+01 -0.1085270650848E+01 -0.8360135956007E+00
-0.9551216889727E+00 -0.4415163679619E+01 -0.1074057089723E+01 -0.9800201847857E+00
-0.8554330670707E+00 -0.4448671976047E+01 -0.1060821024431E+01 -0.1103702661272E+01
-0.7537178310054E+00 -0.4476516141568E+01 -0.1046046810102E+01 -0.1205606051002E+01
-0.6553431802654E+00 -0.4495812677820E+01 -0.1030231186969E+01 -0.1286039541652E+01
-0.5647041977282E+00 -0.4504476866157E+01 -0.1013836227884E+01 -0.1346730372437E+01
-0.4849142721136E+00 -0.4501357808039E+01 -0.9972544308907E+00 -0.1390315667230E+01
-0.4177748505677E+00 -0.4486171038191E+01 -0.9807891923667E+00 -0.1419830220698E+01
-0.3639464586530E+00 -0.4459299331651E+01 -0.9646491724352E+00 -0.1438299152481E+01
-0.3232172486395E+00 -0.4421546102830E+01 -0.9489526844345E+00 -0.1448476740207E+01
-0.2947819342533E+00 -0.4373907421370E+01 -0.9337378850384E+00 -0.1452720879327E+01
-0.2774773198806E+00 -0.4317397740357E+01 -0.9189750257413E+00 -0.1452966939197E+01
-0.2699537494202E+00 -0.4252938293156E+01 -0.9045784219945E+00 -0.1450760281316E+01
-0.2707843543725E+00 -0.4181300451852E+01 -0.8904169745132E+00 -0.1447314620246E+01
-0.2785252420894E+00 -0.4103087432370E+01 -0.8763225479501E+00 -0.1443575257252E+01
-0.2917431627100E+00 -0.4018742655555E+01 -0.8620971764993E+00 -0.1440277167490E+01
-0.3090248476693E+00 -0.3928695171572E+01 -0.8475440164777E+00 -0.1437980027130E+01
-0.3289755736097E+00 -0.3833490645202E+01 -0.8324932561674E+00 -0.1437081172726E+01
-0.3502096707048E+00 -0.3733545139355E+01 -0.8167509741824E+00 -0.1437889134544E+01
-0.3713320305254E+00 -0.3628937449214E+01 -0.8000539078697E+00 -0.1440733922182E+01
-0.3909002086164E+00 -0.3519531582157E+01 -0.7820863698086E+00 -0.1446016120374E+01
-0.4073674133489E+00 -0.3405122010437E+01 -0.7624978961192E+00 -0.1454238395344E+01
-0.4190061589010E+00 -0.3285542527634E+01 -0.7409097483475E+00 -0.1466029095184E+01
-0.4238156904238E+00 -0.3160755202497E+01 -0.7169141892671E+00 -0.1482149804855E+01
-0.4194185032384E+00 -0.3030933720497E+01 -0.6900704550299E+00 -0.1503477531367E+01
-0.4029523319563E+00 -0.2896554276323E+01 -0.6599013314892E+00 -0.1530952557079E+01
-0.3709671223356E+00 -0.2758491577826E+01 -0.6258917493589E+00 -0.1565484603753E+01
-0.3193326821458E+00 -0.2618078348193E+01 -0.5874822148220E+00 -0.1607823737530E+01
-0.2431689336672E+00 -0.2477158705020E+01 -0.5440655358446E+00 -0.1658385647691E+01
-0.1368319246962E+00 -0.2338194223335E+01 -0.4950052369824E+00 -0.1716989258301E+01
 0.6011214896039E-02 -0.2204326025156E+01 -0.4396629686035E+00 -0.1782522787964E+01
 0.1921838690321E+00 -0.2079325171369E+01 -0.3774282660915E+00 -0.1852572943191E+01
 0.4286358185489E+00 -0.1967428058460E+01 -0.3077584525683E+00 -0.1923036173639E+01
 0.7218790184414E+00 -0.1873019551372E+01 -0.2302281100168E+00 -0.1987772142256E+01
 0.1077227215093E+01 -0.1800137809263E+01 -0.1445821209885E+00 -0.2038392425044E+01
 0.1497959593511E+01 -0.1751803640444E+01 -0.5076881014311E-01 -0.2064291609958E+01
 0.1984673523711E+01 -0.1729282364981E+01  0.5107823250713E-01 -0.2052917042549E+01
 0.2534381281323E+01 -0.1731648629993E+01  0.1605465326584E+00 -0.1990171007788E+01
 0.3139160190726E+01 -0.1755442873162E+01  0.2767434676366E+00 -0.1861354321367E+01
 0.3785786516997E+01 -0.1794344539978E+01  0.3982884013387E+00 -0.1652793229102E+01
 0.4456602961944E+01 -0.1839521461683E+01  0.5234163078518E+00 -0.1353459896561E+01
-0.9898019770062E+00 -0.4136655803338E+01 -0.1025291571347E+01 -0.8229996800811E+00
-0.9047574802898E+00 -0.4170001102082E+01 -0.1014951731598E+01 -0.9672226426349E+00
-0.8128176186737E+00 -0.4201255721006E+01 -0.1002814682879E+01 -0.1092333707580E+01
-0.7190849214300E+00 -0.4227442889802E+01 -0.9893055769881E+00 -0.1196802483699E+01
-0.6283416107576E+00 -0.4245959593173E+01 -0.9748602553127E+00 -0.1280710171798E+01
-0.5445520319228E+00 -0.4254876145719E+01 -0.9598856498317E+00 -0.1345468082161E+01
-0.4705836268441E+00 -0.4253064230793E+01 -0.9447295856050E+00 -0.1393386014147E+01
-0.4081590739903E+00 -0.4240155859429E+01 -0.9296630005369E+00 -0.1427220729034E+01
-0.3579826640406E+00 -0.4216386082676E+01 -0.9148737629759E+00 -0.1449800543430E+01
-0.3199584383856E+00 -0.4182387421361E+01 -0.9004691853673E+00 -0.1463768825020E+01
-0.2934267886907E+00 -0.4138992464728E+01 -0.8864838638934E+00 -0.1471445012525E+01
-0.2773711875982E+00 -0.4087077251519E+01 -0.8728897008306E+00 -0.1474777307746E+01
-0.2705738625311E+00 -0.4027456341374E+01 -0.8596060535901E+00 -0.1475354059244E+01
-0.2717188973637E+00 -0.3960825578870E+01 -0.8465089078607E+00 -0.1474445291474E+01
-0.2794518824953E+00 -0.3887739743403E+01 -0.8334383375989E+00 -0.1473054830021E+01
-0.2924091870921E+00 -0.3808615840092E+01 -0.8202050176589E+00 -0.1471972452470E+01
-0.3092291401607E+00 -0.3723860458502E+01 -0.8066179317520E+00 -0.1471809965772E+01
-0.3285511239624E+00 -0.3633986076972E+01 -0.7925074519962E+00 -0.1473017532030E+01
-0.3490043826669E+00 -0.3539393768560E+01 -0.7776796418337E+00 -0.1475950364374E+01
-0.3691882231202E+00 -0.3440191861269E+01 -0.7618760282307E+00 -0.1480969825634E+01
-0.3876355009003E+00 -0.3336309413404E+01 -0.7447889939591E+00 -0.1488489979085E+01
-0.4027593169677E+00 -0.3227629930524E+01 -0.7260778603178E+00 -0.1499006754396E+01
-0.4127830016713E+00 -0.3114092734544E+01 -0.7053751577540E+00 -0.1513117879413E+01
-0.4156566131331E+00 -0.2995776526173E+01 -0.6822866380280E+00 -0.1531526164035E+01
-0.4089651987437E+00 -0.2872977391002E+01 -0.6563885277301E+00 -0.1555017633795E+01
-0.3898353170400E+00 -0.2746292701846E+01 -0.6272256131236E+00 -0.1584405968897E+01
-0.3548495601656E+00 -0.2616707607391E+01 -0.5943114423672E+00 -0.1620436530496E+01
-0.2999754836753E+00 -0.2485646014492E+01 -0.5571243079353E+00 -0.1663655297621E+01
-0.2205211460280E+00 -0.2355011348784E+01 -0.5151065066381E+00 -0.1714235160138E+01
-0.1111487682958E+00 -0.2227266968864E+01 -0.4676831544009E+00 -0.1771725304237E+01
 0.3402344341861E-01 -0.2105469355249E+01 -0.4142891885394E+00 -0.1834740698807E+01
 0.2212023291973E+00 -0.1993194396969E+01 -0.3543984188353E+00 -0.1900626958234E+01
 0.4565503480375E+00 -0.1894355859735E+01 -0.2875611066245E+00 -0.1965123183577E+01
 0.7456427442846E+00 -0.1812888284574E+01 -0.2134491112385E+00 -0.2022080779649E+01
 0.1092766401757E+01 -0.1752280050176E+01 -0.1319027316493E+00 -0.2063321888477E+01
 0.1500184328416E+01 -0.1714970939526E+01 -0.4295732286213E-01 -0.2078724991156E+01
 0.1967622244907E+01 -0.1701722308107E+01  0.5317998815235E-01 -0.2056511465228E+01
 0.2491562175812E+01 -0.1711283959256E+01  0.1560556456365E+00 -0.1983639926234E+01
 0.3064128534499E+01 -0.1740149896400E+01  0.2647957315656E+00 -0.1846671924871E+01
 0.3672854105612E+01 -0.1782332205275E+01  0.3781043857016E+00 -0.1633177636520E+01
 0.4301518549229E+01 -0.1829711653356E+01  0.4943613865411E+00 -0.1333079197010E+01
-0.9327048089310E+00 -0.3895387045771E+01 -0.9656183853293E+00 -0.8108933312642E+00
-0.8541025419049E+00 -0.3926396018627E+01 -0.9560997263534E+00 -0.9553171730115E+00
-0.7694874198181E+00 -0.3955520284149E+01 -0.9450015548750E+00 -0.1081707273182E+01
-0.6833672848020E+00 -0.3980111454440E+01 -0.9326957617467E+00 -0.1188471358717E+01
-0.5999825849545E+00 -0.3997832115857E+01 -0.9195629538649E+00 -0.1275500244850E+01
-0.5228848281791E+00 -0.4006911454289E+01 -0.9059592699934E+00 -0.1343937283213E+01
-0.4546888675398E+00 -0.4006263307066E+01 -0.8921904482158E+00 -0.1395809281088E+01
-0.3970154294571E+00 -0.3995463898727E+01 -0.8784958787274E+00 -0.1433626682208E+01
-0.3505828333426E+00 -0.3974628484273E+01 -0.8650422764133E+00 -0.1460037484141E+01
-0.3153827858502E+00 -0.3944241237257E+01 -0.8519248173162E+00 -0.1477577506615E+01
-0.2908792419176E+00 -0.3904986048041E+01 -0.8391730704964E+00 -0.1488522230821E+01
-0.2761877286011E+00 -0.3857607743685E+01 -0.8267591067769E+00 -0.1494822659319E+01
-0.2702144976445E+00 -0.3802815477216E+01 -0.8146060071108E+00 -0.1498098864551E+01
-0.2717517239465E+00 -0.3741227006236E+01 -0.8025957579962E+00 -0.1499666648197E+01
-0.2795347091525E+00 -0.3673344211787E+01 -0.7905757959684E+00 -0.1500579333922E+01
-0.2922712283249E+00 -0.3599552729420E+01 -0.7783648031476E+00 -0.1501673910811E+01
-0.3086535474752E+00 -0.3520232203795E+01 -0.7657771616651E+00 -0.1503607399596E+01
-0.3273576925222E+00 -0.3435858444497E+01 -0.7526432386191E+00 -0.1506875708462E+01
-0.3470309921551E+00 -0.3346814719543E+01 -0.7387691533481E+00 -0.1511873515603E+01
-0.3662716138799E+00 -0.3253235956695E+01 -0.7239015249020E+00 -0.1518986479447E+01
-0.3835938272865E+00 -0.3155112661938E+01 -0.7077413083910E+00 -0.1528635308260E+01
-0.3973786255137E+00 -0.3052412703113E+01 -0.6899582760064E+00 -0.1541302832683E+01
-0.4058100836441E+00 -0.2945174849494E+01 -0.6701969966144E+00 -0.1557550700800E+01
-0.4068008346867E+00 -0.2833586588656E+01 -0.6480774943257E+00 -0.1578018932734E+01
-0.3979118755119E+00 -0.2718056402972E+01 -0.6231936649831E+00 -0.1603400661678E+01
-0.3762732821253E+00 -0.2599290278832E+01 -0.5951127210593E+00 -0.1634384031602E+01
-0.3385156471416E+00 -0.2478368419011E+01 -0.5633768216254E+00 -0.1671555263676E+01
-0.2807191190010E+00 -0.2356787603994E+01 -0.5275013524594E+00 -0.1715267305083E+01
-0.1983920857268E+00 -0.2236489842155E+01 -0.4869763928330E+00 -0.1765469164601E+01
-0.8650893522072E-01 -0.2119919147219E+01 -0.4412856230636E+00 -0.1821468668745E+01
 0.6036624894551E-01 -0.2010029392591E+01 -0.3899326345396E+00 -0.1881645979737E+01
 0.2478462836044E+00 -0.1910191389790E+01 -0.3324690261913E+00 -0.1943152969566E+01
 0.4813524910200E+00 -0.1824000345883E+01 -0.2685295749741E+00 -0.2001623381650E+01
 0.7655978911762E+00 -0.1754964136214E+01 -0.1978732519561E+00 -0.2050948601217E+01
 0.1103945394632E+01 -0.1706067516563E+01 -0.1204244261807E+00 -0.2083193237619E+01
 0.1497765863002E+01 -0.1679234935864E+01 -0.3629381511315E-01 -0.2088720466523E+01
 0.1946042577632E+01 -0.1674797631570E+01  0.5424899002072E-01 -0.2056482681359E+01
 0.2444830327475E+01 -0.1691244316807E+01  0.1507172043795E+00 -0.1974397923926E+01
 0.2986332685998E+01 -0.1725052222238E+01  0.2522560965109E+00 -0.1830140343903E+01
 0.3558767971241E+01 -0.1770539153064E+01  0.3576457689648E+00 -0.1612356283247E+01
 0.4147178037484E+01 -0.1820212650622E+01  0.4653930843075E+00 -0.1311776975532E+01
-0.8757183968809E+00 -0.3655351876597E+01 -0.9062140681992E+00 -0.7996362368451E+00
-0.8031853838569E+00 -0.3684165947967E+01 -0.8974702797381E+00 -0.9442510622180E+00
-0.7255182067713E+00 -0.3711273816502E+01 -0.8873584178774E+00 -0.1071787555416E+01
-0.6466786816544E+00 -0.3734331319286E+01 -0.8762020132444E+00 -0.1180602059404E+01
-0.5704023440992E+00 -0.3751253484298E+01 -0.8643311785590E+00 -0.1270426515578E+01
-0.4998444549681E+00 -0.3760430410750E+01 -0.8520549858403E+00 -0.1342177909703E+01
-0.4373635012601E+00 -0.3760833437529E+01 -0.8396394002695E+00 -0.1397640006736E+01
-0.3844600606033E+00 -0.3752005842560E+01 -0.8272931929603E+00 -0.1439107140222E+01
-0.3418418607020E+00 -0.3733966903368E+01 -0.8151617649609E+00 -0.1469064430638E+01
-0.3095640560242E+00 -0.3707072386342E+01 -0.8033273004438E+00 -0.1489945897072E+01
-0.2871945353122E+00 -0.3671871187094E+01 -0.7918131562802E+00 -0.1503980330441E+01
-0.2739673855219E+00 -0.3628984203648E+01 -0.7805903294656E+00 -0.1513113933601E+01
-0.2689051883118E+00 -0.3579017202705E+01 -0.7695844896710E+00 -0.1518988995038E+01
-0.2709050036194E+00 -0.3522508296640E+01 -0.7586826713572E+00 -0.1522957593419E+01
-0.2787915809332E+00 -0.3459902953961E+01 -0.7477389181211E+00 -0.1526113960246E+01
-0.2913454844556E+00 -0.3391551206506E+01 -0.7365793491681E+00 -0.1529334750028E+01
-0.3073150425928E+00 -0.3317801696515E+01 -0.7250233586252E+00 -0.1533315138595E+01
-0.3254154273345E+00 -0.3239090223702E+01 -0.7129011408304E+00 -0.1538589529794E+01
-0.3443152771171E+00 -0.3155779343040E+01 -0.7000189344626E+00 -0.1545584782527E+01
-0.3626160940830E+00 -0.3068027404087E+01 -0.6861287098581E+00 -0.1554703915705E+01
-0.3788195796297E+00 -0.2975882438158E+01 -0.6709404135554E+00 -0.1566367761693E+01
-0.3912823380747E+00 -0.2879391662031E+01 -0.6541348097685E+00 -0.1581040163408E+01
-0.3981586212708E+00 -0.2778686885281E+01 -0.6353691107782E+00 -0.1599241847366E+01
-0.3973346534400E+00 -0.2674056284551E+01 -0.6142781967517E+00 -0.1621546795192E+01
-0.3863597209452E+00 -0.2566010656060E+01 -0.5904740841997E+00 -0.1648554259250E+01
-0.3623806389442E+00 -0.2455352282593E+01 -0.5635465927050E+00 -0.1680828967783E+01
-0.3220893434085E+00 -0.2343241806449E+01 -0.5330662379149E+00 -0.1718804310629E+01
-0.2616907576683E+00 -0.2231232101095E+01 -0.4985845791822E+00 -0.1762652173252E+01
-0.1769024600185E+00 -0.2121285530660E+01 -0.4596376049848E+00 -0.1812116989328E+01
-0.6301320742635E-01 -0.2015809161433E+01 -0.4157644799672E+00 -0.1866292952458E+01
 0.8497593723621E-01 -0.1917640645629E+01 -0.3665329471404E+00 -0.1923361579263E+01
 0.2721089130993E+00 -0.1829940420229E+01 -0.3115663060687E+00 -0.1980323917058E+01
 0.5031121977247E+00 -0.1755993035794E+01 -0.2505761713478E+00 -0.2032753571818E+01
 0.7819069287164E+00 -0.1698904962887E+01 -0.1833996095669E+00 -0.2074621552017E+01
 0.1111024994133E+01 -0.1661201335080E+01 -0.1100352698292E+00 -0.2098258000456E+01
 0.1491052847679E+01 -0.1644350121002E+01 -0.3065945512151E-01 -0.2094505292611E+01
 0.1920339225888E+01 -0.1648315391615E+01  0.5440476766543E-01 -0.2053003631924E+01
 0.2394593159991E+01 -0.1671376206105E+01  0.1446433929327E+00 -0.1962543088671E+01
 0.2906116320744E+01 -0.1710013932018E+01  0.2392204813098E+00 -0.1811782439426E+01
 0.3443744517134E+01 -0.1758825471427E+01  0.3369838141628E+00 -0.1590301879109E+01
 0.3993626264925E+01 -0.1810868884335E+01  0.4365514826232E+00 -0.1289522286695E+01
-0.8188247095188E+00 -0.3416390608049E+01 -0.8470430761355E+00 -0.7891761123084E+00
-0.7520306702552E+00 -0.3443136831154E+01 -0.8390335127844E+00 -0.9339765930416E+00
-0.6809783080718E+00 -0.3468332922286E+01 -0.8298622584374E+00 -0.1062540720736E+01
-0.6091235347136E+00 -0.3489918919653E+01 -0.8198085030894E+00 -0.1173181639135E+01
-0.5397281007518E+00 -0.3506050872112E+01 -0.8091558066302E+00 -0.1265499079072E+01
-0.4755659963844E+00 -0.3515280643602E+01 -0.7981693398909E+00 -0.1340220001939E+01
-0.4187375594789E+00 -0.3516649057915E+01 -0.7870773352070E+00 -0.1398921282063E+01
-0.3706090552461E+00 -0.3509685128041E+01 -0.7760588482215E+00 -0.1443709825229E+01
-0.3318574199033E+00 -0.3494332266469E+01 -0.7652379486774E+00 -0.1476925857513E+01
-0.3025807193377E+00 -0.3470835218524E+01 -0.7546831988181E+00 -0.1500909177810E+01
-0.2824336193238E+00 -0.3439620321436E+01 -0.7444107992445E+00 -0.1517841432201E+01
-0.2707565673289E+00 -0.3401191610314E+01 -0.7343896464719E+00 -0.1529658518623E+01
-0.2666811908629E+00 -0.3356053941483E+01 -0.7245470372659E+00 -0.1538017016779E+01
-0.2692061171509E+00 -0.3304664984495E+01 -0.7147742309801E+00 -0.1544296773799E+01
-0.2772449634769E+00 -0.3247411065714E+01 -0.7049312163424E+00 -0.1549624821448E+01
-0.2896521629110E+00 -0.3184603012010E+01 -0.6948510453382E+00 -0.1554910070106E+01
-0.3052340471952E+00 -0.3116554808445E+01 -0.6843577813258E+00 -0.1560878752388E+01
-0.3227473783796E+00 -0.3043659065834E+01 -0.6732812988754E+00 -0.1568096435158E+01
-0.3408853317515E+00 -0.2966254676618E+01 -0.6614280115299E+00 -0.1577014869327E+01
-0.3582571850088E+00 -0.2884520059402E+01 -0.6485554585465E+00 -0.1588047655087E+01
-0.3733579363598E+00 -0.2798556611561E+01 -0.6343829190372E+00 -0.1601609551725E+01
-0.3845271902233E+00 -0.2708485639306E+01 -0.6186025751237E+00 -0.1618139994123E+01
-0.3898982634754E+00 -0.2614525375825E+01 -0.6008847368139E+00 -0.1638114539243E+01
-0.3873411941175E+00 -0.2517056476519E+01 -0.5808795427832E+00 -0.1662038593229E+01
-0.3744047981490E+00 -0.2416682047385E+01 -0.5582173774249E+00 -0.1690417358284E+01
-0.3482643639413E+00 -0.2314288756056E+01 -0.5325106319344E+00 -0.1723695150925E+01
-0.3056845494350E+00 -0.2211103966867E+01 -0.5033577107610E+00 -0.1762159676311E+01
-0.2430047301469E+00 -0.2108721437620E+01 -0.4703452405621E+00 -0.1805814318319E+01
-0.1561575264912E+00 -0.2009108056068E+01 -0.4330531229648E+00 -0.1854218260233E+01
-0.4074500549823E-01 -0.1914619546490E+01 -0.3910729162250E+00 -0.1906278798179E+01
 0.1078066518236E+00 -0.1827967493577E+01 -0.3440321734771E+00 -0.1960012494265E+01
 0.2939994142509E+00 -0.1752100422131E+01 -0.2916202059215E+00 -0.2012308186611E+01
 0.5219105285132E+00 -0.1690002944223E+01 -0.2336184866232E+00 -0.2058718417813E+01
 0.7947350962658E+00 -0.1644406051947E+01 -0.1699341936684E+00 -0.2093326096386E+01
 0.1114257548199E+01 -0.1617416618587E+01 -0.1006318155771E+00 -0.2108742885937E+01
 0.1480373272904E+01 -0.1610098540130E+01 -0.2594505383183E-01 -0.2096280456857E+01
 0.1890886409867E+01 -0.1622102276770E+01  0.5375682742054E-01 -0.2046224665220E+01
 0.2341224335675E+01 -0.1651538698286E+01  0.1379371295332E+00 -0.1948159237546E+01
 0.2823795712397E+01 -0.1694907522272E+01  0.2257776413894E+00 -0.1791616893958E+01
 0.3327988696621E+01 -0.1747058621706E+01  0.3161860196947E+00 -0.1566990596008E+01
 0.3840919227335E+01 -0.1801532552343E+01  0.4078773410763E+00 -0.1266289738611E+01
-0.7620056786507E+00 -0.3178349589048E+01 -0.7880710652829E+00 -0.7794662896637E+00
-0.7006599298662E+00 -0.3203141446074E+01 -0.7807602868223E+00 -0.9244508040834E+00
-0.6359299689103E+00 -0.3226521098613E+01 -0.7724902250156E+00 -0.1053935112159E+01
-0.5707985090357E+00 -0.3246696409416E+01 -0.7634989950674E+00 -0.1166195594782E+01
-0.5080794405914E+00 -0.3262054744698E+01 -0.7540268482937E+00 -0.1260722599316E+01
-0.4501786594285E+00 -0.3271309842522E+01 -0.7442977114810E+00 -0.1338085120045E+01
-0.3989379013447E+00 -0.3273581310285E+01 -0.7345038532709E+00 -0.1399686055009E+01
-0.3555782169524E+00 -0.3268399036691E+01 -0.7247954615291E+00 -0.1447472108661E+01
-0.3207293751130E+00 -0.3255647344683E+01 -0.7152753546177E+00 -0.1483656844755E+01
-0.2945151880318E+00 -0.3235474877990E+01 -0.7059980237245E+00 -0.1510494810656E+01
-0.2766623653058E+00 -0.3208196460891E+01 -0.6969717756250E+00 -0.1530121903689E+01
-0.2666069307629E+00 -0.3174205886589E+01 -0.6881625737248E+00 -0.1544459989800E+01
-0.2635828768954E+00 -0.3133909787508E+01 -0.6794985430060E+00 -0.1555173415667E+01
-0.2666871618035E+00 -0.3087685146341E+01 -0.6708744716257E+00 -0.1563662215413E+01
-0.2749215242745E+00 -0.3035857056920E+01 -0.6621557261057E+00 -0.1571078615389E+01
-0.2872151320458E+00 -0.2978694092378E+01 -0.6531818546178E+00 -0.1578356575225E+01
-0.3024341069503E+00 -0.2916472303631E+01 -0.6437812917094E+00 -0.1586246328167E+01
-0.3193791716034E+00 -0.2849538111639E+01 -0.6337834660925E+00 -0.1595337264034E+01
-0.3367712245796E+00 -0.2778203800375E+01 -0.6229950142743E+00 -0.1606098786932E+01
-0.3532316746505E+00 -0.2702664393948E+01 -0.6111792228269E+00 -0.1618948484212E+01
-0.3672544795864E+00 -0.2623070335522E+01 -0.5980649719335E+00 -0.1634289175950E+01
-0.3771692598296E+00 -0.2539611602893E+01 -0.5833561812372E+00 -0.1652530926288E+01
-0.3810967036275E+00 -0.2452586129440E+01 -0.5667365750585E+00 -0.1674100437592E+01
-0.3769000580182E+00 -0.2362458845315E+01 -0.5478717888306E+00 -0.1699432654770E+01
-0.3621377876194E+00 -0.2269915368874E+01 -0.5264106391429E+00 -0.1728939275161E+01
-0.3340239108240E+00 -0.2175915365353E+01 -0.5019878627157E+00 -0.1762947928913E+01
-0.2894052950048E+00 -0.2081740179758E+01 -0.4742291020191E+00 -0.1801608395880E+01
-0.2247631165368E+00 -0.1989010813797E+01 -0.4427547926644E+00 -0.1844768429394E+01
-0.1362482011957E+00 -0.1899685101672E+01 -0.4071866666412E+00 -0.1891821006679E+01
-0.1977209444431E-01 -0.1816055911422E+01 -0.3671656066445E+00 -0.1941512022147E+01
 0.1288280888655E+00 -0.1740702136542E+01 -0.3223748143390E+00 -0.1991724216030E+01
 0.3135403143699E+00 -0.1676361870447E+01 -0.2725643152769E+00 -0.2039268738153E+01
 0.5378369622737E+00 -0.1625732492529E+01 -0.2175791092932E+00 -0.2079710628997E+01
 0.8042483122267E+00 -0.1591195412238E+01 -0.1573894223476E+00 -0.2107270721118E+01
 0.1113886181353E+01 -0.1574477711825E+01 -0.9211830746707E-01 -0.2114852583392E+01
 0.1466035599728E+01 -0.1576285665383E+01 -0.2205001345951E-01 -0.2094224330256E+01
 0.1858030963888E+01 -0.1596001614749E+01  0.5240587060871E-01 -0.2036277178438E+01
 0.2285068036880E+01 -0.1631601601544E+01  0.1306932890148E+00 -0.1931318566094E+01
 0.2739663670629E+01 -0.1679612734780E+01  0.2120101903291E+00 -0.1769659384379E+01
 0.3211696110128E+01 -0.1735112374750E+01  0.2953167514761E+00 -0.1542402181933E+01
 0.3689123485498E+01 -0.1792062542710E+01  0.3794121942113E+00 -0.1242059399319E+01
-0.7052431990430E+00 -0.2941079969764E+01 -0.7292646446284E+00 -0.7704653857143E+00
-0.6490921603155E+00 -0.2964018016821E+01 -0.7226220461953E+00 -0.9156352905260E+00
-0.5904304949288E+00 -0.2985667350380E+01 -0.7152195797193E+00 -0.1045941404644E+01
-0.5317939078377E+00 -0.3004490530980E+01 -0.7072568983024E+00 -0.1159628479625E+01
-0.4755696067674E+00 -0.3019098212167E+01 -0.6989335742017E+00 -0.1256097304805E+01
-0.4238066641784E+00 -0.3028365703343E+01 -0.6904344837926E+00 -0.1335787515758E+01
-0.3780885896630E+00 -0.3031498541280E+01 -0.6819174363500E+00 -0.1399958241411E+01
-0.3394829618429E+00 -0.3028039597353E+01 -0.6735045218751E+00 -0.1450421882149E+01
-0.3085593280847E+00 -0.3017827870400E+01 -0.6652774496104E+00 -0.1489283626309E+01
-0.2854531701063E+00 -0.3000928459747E+01 -0.6572763357649E+00 -0.1518722770394E+01
-0.2699508614761E+00 -0.2977554257663E+01 -0.6495010335061E+00 -0.1540832338396E+01
-0.2615747106592E+00 -0.2947994819215E+01 -0.6419139155400E+00 -0.1557517919606E+01
-0.2596551452189E+00 -0.2912561252521E+01 -0.6344432890019E+00 -0.1570446317574E+01
-0.2633844555566E+00 -0.2871549989249E+01 -0.6269868983039E+00 -0.1581031016544E+01
-0.2718517156039E+00 -0.2825223313758E+01 -0.6194150151024E+00 -0.1590442330331E+01
-0.2840615574843E+00 -0.2773804977499E+01 -0.6115733161097E+00 -0.1599632308779E+01
-0.2989415545938E+00 -0.2717530174188E+01 -0.6032943547461E+00 -0.1609368235601E+01
-0.3153386775907E+00 -0.2656696324500E+01 -0.5944070092754E+00 -0.1620256038082E+01
-0.3320046601012E+00 -0.2591586200952E+01 -0.5847181809237E+00 -0.1632775631188E+01
-0.3475772682264E+00 -0.2522407916531E+01 -0.5739970455047E+00 -0.1647342205245E+01
-0.3605548375805E+00 -0.2449356548040E+01 -0.5619822854982E+00 -0.1664341110046E+01
-0.3692636116477E+00 -0.2372685247459E+01 -0.5483897799929E+00 -0.1684148519080E+01
-0.3718193454905E+00 -0.2292764907638E+01 -0.5329168585669E+00 -0.1707139122460E+01
-0.3660870429366E+00 -0.2210136634488E+01 -0.5152447431626E+00 -0.1733676105578E+01
-0.3496438119453E+00 -0.2125559068045E+01 -0.4950405833748E+00 -0.1764078818132E+01
-0.3197512120317E+00 -0.2040054092327E+01 -0.4719610679045E+00 -0.1798562499802E+01
-0.2733460088656E+00 -0.1954945308438E+01 -0.4456582701016E+00 -0.1837147177302E+01
-0.2070563855707E+00 -0.1871868849777E+01 -0.4157850532653E+00 -0.1879537919274E+01
-0.1172521570293E+00 -0.1792762010675E+01 -0.3820028392331E+00 -0.1924980023803E+01
-0.1481859733685E-03 -0.1719845843670E+01 -0.3439988110548E+00 -0.1972082067730E+01
 0.1480234383913E+00 -0.1655562650835E+01 -0.3015078469816E+00 -0.2018621531759E+01
 0.3307651453675E+00 -0.1602443955831E+01 -0.2543357658826E+00 -0.2061362561289E+01
 0.5509871664710E+00 -0.1562913932294E+01 -0.2023853561803E+00 -0.2095911360761E+01
 0.8106115617158E+00 -0.1539029769746E+01 -0.1456836437770E+00 -0.2116647448998E+01
 0.1110144375590E+01 -0.1532174244952E+01 -0.8440597512998E-01 -0.2116772309403E+01
 0.1448329951493E+01 -0.1542737032503E+01 -0.1888141648347E-01 -0.2088495830183E+01
 0.1822095111840E+01 -0.1569870947947E+01  0.5044483353031E-01 -0.2023276680388E+01
 0.2226442640825E+01 -0.1611443958766E+01  0.1229997382446E+00 -0.1912083858046E+01
 0.2653992897386E+01 -0.1664015595982E+01  0.1979954632312E+00 -0.1745923586374E+01
 0.3095054822607E+01 -0.1722865983070E+01  0.2744377719969E+00 -0.1516520057004E+01
 0.3538315638890E+01 -0.1782323599509E+01  0.3511984131095E+00 -0.1216816665390E+01
-0.6485191232169E+00 -0.2704436607572E+01 -0.6705911561504E+00 -0.7621370397309E+00
-0.5973443490855E+00 -0.2725608980192E+01 -0.6645906757587E+00 -0.9074960437940E+00
-0.5445332524154E+00 -0.2745604948735E+01 -0.6580276500355E+00 -0.1038532722982E+01
-0.4921949178368E+00 -0.2763131574524E+01 -0.6510653081739E+00 -0.1153464387173E+01
-0.4423066827908E+00 -0.2777016388717E+01 -0.6438646238960E+00 -0.1251619789055E+01
-0.3965701109303E+00 -0.2786295796228E+01 -0.6365731909173E+00 -0.1333335093231E+01
-0.3563113177233E+00 -0.2790266666157E+01 -0.6293156061536E+00 -0.1399753657642E+01
-0.3224383129181E+00 -0.2788494334815E+01 -0.6221865388178E+00 -0.1452578311658E+01
-0.2954502769027E+00 -0.2780783512746E+01 -0.6152467670976E+00 -0.1493824088589E+01
-0.2754831232778E+00 -0.2767126058017E+01 -0.6085218453267E+00 -0.1525605782259E+01
-0.2623727836137E+00 -0.2747641009447E+01 -0.6020027675826E+00 -0.1549977575667E+01
-0.2557200965484E+00 -0.2722518945009E+01 -0.5956478171873E+00 -0.1568827745024E+01
-0.2549468553273E+00 -0.2691978006727E+01 -0.5893849811934E+00 -0.1583821268341E+01
-0.2593380451159E+00 -0.2656234449667E+01 -0.5831145076457E+00 -0.1596379092473E+01
-0.2680693512817E+00 -0.2615486580191E+01 -0.5767111948882E+00 -0.1607682988732E+01
-0.2802215293027E+00 -0.2569911179694E+01 -0.5700265502934E+00 -0.1618696412060E+01
-0.2947851662699E+00 -0.2519699994404E+01 -0.5628970405226E+00 -0.1630196900722E+01
-0.3106556794494E+00 -0.2465098835023E+01 -0.5551509111669E+00 -0.1642799739160E+01
-0.3266186476088E+00 -0.2406358136999E+01 -0.5465953650666E+00 -0.1656988346797E+01
-0.3413322549901E+00 -0.2343695584032E+01 -0.5370055758064E+00 -0.1673169363494E+01
-0.3533043537556E+00 -0.2277346444451E+01 -0.5261301674813E+00 -0.1691705473890E+01
-0.3608639797765E+00 -0.2207621537045E+01 -0.5136971110191E+00 -0.1712934866029E+01
-0.3621290192893E+00 -0.2134958032376E+01 -0.4994174177749E+00 -0.1737177549250E+01
-0.3549739249864E+00 -0.2059965298147E+01 -0.4829878518238E+00 -0.1764724174119E+01
-0.3370023309207E+00 -0.1983465887451E+01 -0.4640936505900E+00 -0.1795803413366E+01
-0.3055307514573E+00 -0.1906533786999E+01 -0.4424129142838E+00 -0.1830522844773E+01
-0.2575918470640E+00 -0.1830524155324E+01 -0.4176232067007E+00 -0.1868781151993E+01
-0.1899640599833E+00 -0.1757077605932E+01 -0.3894083389857E+00 -0.1910153543241E+01
-0.9923489107961E-01 -0.1688101319234E+01 -0.3574672473895E+00 -0.1953755463948E+01
 0.1808557419939E-01 -0.1625737813441E+01 -0.3215304526395E+00 -0.1998080736622E+01
 0.1653875443396E+00 -0.1572291172230E+01 -0.2813807297710E+00 -0.2040827619888E+01
 0.3457164408475E+00 -0.1530092050024E+01 -0.2368751253649E+00 -0.2078740387208E+01
 0.5614611613164E+00 -0.1501306233600E+01 -0.1879690172576E+00 -0.2107490763459E+01
 0.8139876708003E+00 -0.1487691171907E+01 -0.1347407022292E+00 -0.2121633324790E+01
 0.1103255812030E+01 -0.1490317859994E+01 -0.7741241074632E-01 -0.2114670116002E+01
 0.1427529317963E+01 -0.1509295498315E+01 -0.1635323631413E-01 -0.2079237169190E+01
 0.1783378951850E+01 -0.1543580072859E+01  0.4795977651297E-01 -0.2007325388924E+01
 0.2165643891481E+01 -0.1590952830606E+01  0.1149382138877E+00 -0.1890510344744E+01
 0.2567038857418E+01 -0.1648007647837E+01  0.1838062446551E+00 -0.1720422029081E+01
 0.2978246926902E+01 -0.1710203540708E+01  0.2536086810180E+00 -0.1489331383899E+01
 0.3388581856271E+01 -0.1772185672881E+01  0.3232792414952E+00 -0.1190552114206E+01
-0.5918152530202E+00 -0.2468277085735E+01 -0.6120184768708E+00 -0.7544497125234E+00
-0.5454319301927E+00 -0.2487759877666E+01 -0.6066383706113E+00 -0.9000033277384E+00
-0.4982885557076E+00 -0.2506170305840E+01 -0.6008917812634E+00 -0.1031684732811E+01
-0.4520827335837E+00 -0.2522452413054E+01 -0.5949070381923E+00 -0.1147687329787E+01
-0.4083946898913E+00 -0.2535645764105E+01 -0.5888080995732E+00 -0.1247283645699E+01
-0.3685858222307E+00 -0.2544947379723E+01 -0.5827066490737E+00 -0.1330730184223E+01
-0.3337258705871E+00 -0.2549749430406E+01 -0.5766950687920E+00 -0.1399080789026E+01
-0.3045589689887E+00 -0.2549646895954E+01 -0.5708411814947E+00 -0.1453952476281E+01
-0.2815063641731E+00 -0.2544418736997E+01 -0.5651850286559E+00 -0.1497288210928E+01
-0.2646957921861E+00 -0.2533991722374E+01 -0.5597375112528E+00 -0.1531149551748E+01
-0.2540048304944E+00 -0.2518397600670E+01 -0.5544804944952E+00 -0.1557556748461E+01
-0.2491066516659E+00 -0.2497732403914E+01 -0.5493678193022E+00 -0.1578380681943E+01
-0.2495102831021E+00 -0.2472123608766E+01 -0.5443267864848E+00 -0.1595281065961E+01
-0.2545912212944E+00 -0.2441707796479E+01 -0.5392598115903E+00 -0.1609680967812E+01
-0.2636111822418E+00 -0.2406618451378E+01 -0.5340459346818E+00 -0.1622767428021E+01
-0.2757276853910E+00 -0.2366983606425E+01 -0.5285422662390E+00 -0.1635508906862E+01
-0.2899958160616E+00 -0.2322949285732E+01 -0.5225890281459E+00 -0.1648686590663E+01
-0.3053615440403E+00 -0.2274707290140E+01 -0.5160137745252E+00 -0.1662918086612E+01
-0.3206471803447E+00 -0.2222472999941E+01 -0.5086240436362E+00 -0.1678683481184E+01
-0.3345351934247E+00 -0.2166470195384E+01 -0.5002010852153E+00 -0.1696374958194E+01
-0.3455477828321E+00 -0.2106969918938E+01 -0.4905035476631E+00 -0.1716327677263E+01
-0.3520224867266E+00 -0.2044335199127E+01 -0.4792715443125E+00 -0.1738838151832E+01
-0.3520857439372E+00 -0.1979062925037E+01 -0.4662297407422E+00 -0.1764169491796E+01
-0.3436282948726E+00 -0.1911823060069E+01 -0.4510902777101E+00 -0.1792539497320E+01
-0.3242870955497E+00 -0.1843493397099E+01 -0.4335561049902E+00 -0.1824088255902E+01
-0.2914396928222E+00 -0.1775190601078E+01 -0.4133260649391E+00 -0.1858820720592E+01
-0.2422190612401E+00 -0.1708291698663E+01 -0.3901021577935E+00 -0.1896522729307E+01
-0.1735553887941E+00 -0.1644432504658E+01 -0.3635975841084E+00 -0.1936652171989E+01
-0.8225074501638E-01 -0.1585482238283E+01 -0.3335466016301E+00 -0.1978211630722E+01
 0.3489924017646E-01 -0.1533500106966E+01 -0.2997201778240E+00 -0.2019601157018E+01
 0.1809252724356E+00 -0.1490652221458E+01 -0.2619453937078E+00 -0.2058463386424E+01
 0.3584440221091E+00 -0.1459075450721E+01 -0.2201262890025E+00 -0.2091546598798E+01
 0.5693618190933E+00 -0.1440692391920E+01 -0.1742661171622E+00 -0.2114608629925E+01
 0.8145363923008E+00 -0.1436984117573E+01 -0.1244895469095E+00 -0.2122391849711E+01
 0.1093434404236E+01 -0.1448739500767E+01 -0.7106102036518E-01 -0.2108698978719E+01
 0.1403890740322E+01 -0.1475819008499E+01 -0.1438565384982E-01 -0.2066576254042E+01
 0.1742162680123E+01 -0.1517009462731E+01  0.4503064414942E-01 -0.1988514450853E+01
 0.2102947648052E+01 -0.1570022324220E+01  0.1065850663547E+00 -0.1866647282255E+01
 0.2479042238202E+01 -0.1631485345051E+01  0.1695113811562E+00 -0.1693166822060E+01
 0.2861449878980E+01 -0.1697013491306E+01  0.2328872810051E+00 -0.1460827115485E+01
 0.3240017468793E+01 -0.1761523408463E+01  0.2956988164722E+00 -0.1163261356365E+01
-0.5351133293678E+00 -0.2232460820560E+01 -0.5535148382335E+00 -0.7473765406843E+00
-0.4933691922317E+00 -0.2250318345884E+01 -0.5487375158000E+00 -0.8931315892600E+00
-0.4517444679082E+00 -0.2267201942019E+01 -0.5437892900884E+00 -0.1025375712387E+01
-0.4115355867605E+00 -0.2282287600177E+01 -0.5387646454157E+00 -0.1142281530058E+01
-0.3739346143798E+00 -0.2294823589839E+01 -0.5337516487972E+00 -0.1243079961149E+01
-0.3399681603847E+00 -0.2304167178059E+01 -0.5288270755690E+00 -0.1327970158067E+01
-0.3104506086029E+00 -0.2309808595248E+01 -0.5240518485791E+00 -0.1397941406250E+01
-0.2859594291412E+00 -0.2311377581162E+01 -0.5194674098014E+00 -0.1454547894210E+01
-0.2668326950299E+00 -0.2308633571320E+01 -0.5150932609455E+00 -0.1499678442774E+01
-0.2531838129717E+00 -0.2301444337590E+01 -0.5109256377257E+00 -0.1535352977393E+01
-0.2449262137729E+00 -0.2289759390130E+01 -0.5069371283346E+00 -0.1563563348754E+01
-0.2418007695842E+00 -0.2273583760814E+01 -0.5030769135761E+00 -0.1586163677710E+01
-0.2434005983552E+00 -0.2252956222522E+01 -0.4992713716152E+00 -0.1604805638567E+01
-0.2491900443352E+00 -0.2227934233089E+01 -0.4954248628673E+00 -0.1620909612543E+01
-0.2585164751178E+00 -0.2198585872497E+01 -0.4914204768457E+00 -0.1635662116839E+01
-0.2706148356782E+00 -0.2164988979723E+01 -0.4871207703389E+00 -0.1650030502351E+01
-0.2846061331485E+00 -0.2127241885761E+01 -0.4823696109697E+00 -0.1664793210994E+01
-0.2994889002981E+00 -0.2085480200320E+01 -0.4769938272313E+00 -0.1680563316664E+01
-0.3141249278264E+00 -0.2039881664441E+01 -0.4708013254690E+00 -0.1697810932057E+01
-0.3272246165567E+00 -0.1990672764594E+01 -0.4635794831381E+00 -0.1716908141100E+01
-0.3373290145510E+00 -0.1938155972223E+01 -0.4550970041362E+00 -0.1738158050594E+01
-0.3427893976294E+00 -0.1882741170032E+01 -0.4451061201648E+00 -0.1761812195487E+01
-0.3417465314944E+00 -0.1824978580660E+01 -0.4333450288883E+00 -0.1788074978483E+01
-0.3321134416196E+00 -0.1765591392104E+01 -0.4195409729964E+00 -0.1817091433119E+01
-0.3115661505225E+00 -0.1705504433125E+01 -0.4034141227409E+00 -0.1848915489472E+01
-0.2775480500449E+00 -0.1645868321470E+01 -0.3846832800352E+00 -0.1883454711786E+01
-0.2272953910763E+00 -0.1588073234978E+01 -0.3630737306211E+00 -0.1920390548989E+01
-0.1578900108982E+00 -0.1533742181500E+01 -0.3383264435211E+00 -0.1959075704230E+01
-0.6634386699413E-01 -0.1484700111843E+01 -0.3102088003898E+00 -0.1998415950626E+01
 0.5027282305776E-01 -0.1442919810467E+01 -0.2785294016322E+00 -0.2036736952598E+01
 0.1946500730579E+00 -0.1410431179956E+01 -0.2431562250029E+00 -0.2071646997441E+01
 0.3690035409122E+00 -0.1389185391715E+01 -0.2040363732009E+00 -0.2099919292162E+01
 0.5747936477284E+00 -0.1380877110987E+01 -0.1612166950539E+00 -0.2117415104138E+01
 0.8124137422860E+00 -0.1386733141785E+01 -0.1148638816114E+00 -0.2119074350312E+01
 0.1080884470878E+01 -0.1407287177470E+01 -0.6528054229114E-01 -0.2098998684758E+01
 0.1377656456970E+01 -0.1442178789043E+01 -0.1290446660696E-01 -0.2050628789115E+01
 0.1698708581229E+01 -0.1490049009919E+01  0.4173191488392E-01 -0.1966925853583E+01
 0.2038612273017E+01 -0.1548552832186E+01  0.9801188962658E-01 -0.1840539300340E+01
 0.2390231059064E+01 -0.1614349593744E+01  0.1551762953765E+00 -0.1664170277531E+01
 0.2744837633079E+01 -0.1683188252546E+01  0.2123298792706E+00 -0.1431002027954E+01
 0.3092726619523E+01 -0.1750215746285E+01  0.2685021786486E+00 -0.1134944894530E+01
-0.4783950212586E+00 -0.1996848236000E+01 -0.4950486588286E+00 -0.7408952413014E+00
-0.4411696511193E+00 -0.2013133182172E+01 -0.4908605739726E+00 -0.8868594016403E+00
-0.4049475374771E+00 -0.2028539524072E+01 -0.4866974195621E+00 -0.1019586610480E+01
-0.3706297036536E+00 -0.2042472518066E+01 -0.4826204515355E+00 -0.1137231638015E+01
-0.3390253800367E+00 -0.2054387280658E+01 -0.4786825392718E+00 -0.1238997682082E+01
-0.3108298228291E+00 -0.2063801135223E+01 -0.4749261986874E+00 -0.1325047882326E+01
-0.2866029639703E+00 -0.2070304069133E+01 -0.4713814136448E+00 -0.1396331039953E+01
-0.2667541566588E+00 -0.2073563805660E+01 -0.4680635994385E+00 -0.1454360938873E+01
-0.2515352073724E+00 -0.2073324302548E+01 -0.4649719089126E+00 -0.1500990014569E+01
-0.2410413702162E+00 -0.2069398442939E+01 -0.4620879695166E+00 -0.1538208339898E+01
-0.2352181919414E+00 -0.2061657054041E+01 -0.4593750560418E+00 -0.1567985302966E+01
-0.2338711630448E+00 -0.2050016799190E+01 -0.4567775992534E+00 -0.1592159395062E+01
-0.2366753629777E+00 -0.2034429319413E+01 -0.4542209432465E+00 -0.1612371963179E+01
-0.2431828809159E+00 -0.2014873494347E+01 -0.4516112817822E+00 -0.1630036318726E+01
-0.2528265972908E+00 -0.1991351637200E+01 -0.4488356535863E+00 -0.1646333005552E+01
-0.2649195913482E+00 -0.1963890255945E+01 -0.4457619761011E+00 -0.1662222426579E+01
-0.2786501656020E+00 -0.1932538314802E+01 -0.4422377026707E+00 -0.1678474117275E+01
-0.2930713280607E+00 -0.1897373278972E+01 -0.4380889279346E+00 -0.1695689966515E+01
-0.3070869438888E+00 -0.1858532823470E+01 -0.4331239599258E+00 -0.1714323692009E+01
-0.3194387588749E+00 -0.1816242868910E+01 -0.4271363319218E+00 -0.1734721906962E+01
-0.3286908250945E+00 -0.1770833083317E+01 -0.4199047879394E+00 -0.1757151465414E+01
-0.3332129080123E+00 -0.1722754992026E+01 -0.4111935861350E+00 -0.1781815984815E+01
-0.3311652300770E+00 -0.1672605980923E+01 -0.4007542481717E+00 -0.1808859726413E+01
-0.3204882773123E+00 -0.1621155419473E+01 -0.3883287451437E+00 -0.1838355383965E+01
-0.2989018758610E+00 -0.1569367454938E+01 -0.3736538717276E+00 -0.1870273417328E+01
-0.2639188877721E+00 -0.1518418620787E+01 -0.3564675070236E+00 -0.1904429341010E+01
-0.2128804676871E+00 -0.1469704448368E+01 -0.3365169882256E+00 -0.1940408524475E+01
-0.1430185976163E+00 -0.1424828289059E+01 -0.3135693820076E+00 -0.1977470104372E+01
-0.5154910700770E-01 -0.1385565874238E+01 -0.2874230005321E+00 -0.2014438098857E+01
 0.6419517085695E-01 -0.1353801861006E+01 -0.2579213418731E+00 -0.2049581580279E+01
 0.2065827254066E+00 -0.1331432919362E+01 -0.2249700421433E+00 -0.2080493569883E+01
 0.3774552496090E+00 -0.1320233302696E+01 -0.1885556134271E+00 -0.2103990452044E+01
 0.5778618151352E+00 -0.1321684822991E+01 -0.1487646037879E+00 -0.2116051423392E+01
 0.8077715380574E+00 -0.1336780795276E+01 -0.1058018530203E+00 -0.2111821274607E+01
 0.1065801008184E+01 -0.1365824133785E+01 -0.6000462601433E-01 -0.2085697541782E+01
 0.1349054997978E+01 -0.1408257892758E+01 -0.1184057913257E-01 -0.2031500129823E+01
 0.1653262809492E+01 -0.1462597037281E+01  0.3813315501054E-01 -0.1942634084170E+01
 0.1972880710818E+01 -0.1526450451266E+01  0.8928605324091E-01 -0.1812227567690E+01
 0.2300822478984E+01 -0.1596505409537E+01  0.1408634159884E+00 -0.1633445450536E+01
 0.2628581601060E+01 -0.1668623933045E+01  0.1919915364641E+00 -0.1399854748443E+01
 0.2946821962132E+01 -0.1738145604721E+01  0.2417352750844E+00 -0.1105607992786E+01
-0.4216419149931E+00 -0.1761299987074E+01 -0.4365883869190E+00 -0.7349880637799E+00
-0.3888463992115E+00 -0.1776053464179E+01 -0.4329799791300E+00 -0.8811694392267E+00
-0.3579434907115E+00 -0.1790022955473E+01 -0.4295932956383E+00 -0.1014301093973E+01
-0.3294402119122E+00 -0.1802842563536E+01 -0.4264565614444E+00 -0.1132522883311E+01
-0.3037647799984E+00 -0.1814173830501E+01 -0.4235877284118E+00 -0.1235023870086E+01
-0.2812826189009E+00 -0.1823694156617E+01 -0.4209953613768E+00 -0.1321952045893E+01
-0.2622999433287E+00 -0.1831094004319E+01 -0.4186787957683E+00 -0.1394239321528E+01
-0.2470577685358E+00 -0.1836080512821E+01 -0.4166276624796E+00 -0.1453381148224E+01
-0.2357205783587E+00 -0.1838384121338E+01 -0.4148209461207E+00 -0.1501211180857E+01
-0.2283638920090E+00 -0.1837765006406E+01 -0.4132257858406E+00 -0.1539701463398E+01
-0.2249636380302E+00 -0.1834017393942E+01 -0.4117962125306E+00 -0.1570805052181E+01
-0.2253883791482E+00 -0.1826971290503E+01 -0.4104719400468E+00 -0.1596346222553E+01
-0.2293940478364E+00 -0.1816492365682E+01 -0.4091772888008E+00 -0.1617954021526E+01
-0.2366199539250E+00 -0.1802481434844E+01 -0.4078202838308E+00 -0.1637030615664E+01
-0.2465846112845E+00 -0.1784874880518E+01 -0.4062919044148E+00 -0.1654745410290E+01
-0.2586800026864E+00 -0.1763647039922E+01 -0.4044654145487E+00 -0.1672046283137E+01
-0.2721630544436E+00 -0.1738796134107E+01 -0.4021918437032E+00 -0.1689687942357E+01
-0.2861430605154E+00 -0.1710339768510E+01 -0.3992965717550E+00 -0.1708254665470E+01
-0.2995683927485E+00 -0.1678373303254E+01 -0.3955883450952E+00 -0.1728177593168E+01
-0.3112153061400E+00 -0.1643118968628E+01 -0.3908668607779E+00 -0.1749772779357E+01
-0.3196746562427E+00 -0.1604929543510E+01 -0.3849208456863E+00 -0.1773266948403E+01
-0.3233389635905E+00 -0.1564293162542E+01 -0.3775264308520E+00 -0.1798813206404E+01
-0.3203924016784E+00 -0.1521848449337E+01 -0.3684481756933E+00 -0.1826494577363E+01
-0.3088072970001E+00 -0.1478404259979E+01 -0.3574423167221E+00 -0.1856312133963E+01
-0.2863510595211E+00 -0.1434956831874E+01 -0.3442615834089E+00 -0.1888155744654E+01
-0.2506085419297E+00 -0.1392701239917E+01 -0.3286619612667E+00 -0.1921754234665E+01
-0.1990262170371E+00 -0.1353031424946E+01 -0.3104115330221E+00 -0.1956604969078E+01
-0.1289834645824E+00 -0.1317525273374E+01 -0.2893017519022E+00 -0.1991884550871E+01
-0.3789284037223E-01 -0.1287905524164E+01 -0.2651596768584E+00 -0.2026349257654E+01
 0.7666296859915E-01 -0.1265968176001E+01 -0.2378610450247E+00 -0.2058227808616E+01
 0.2167502492204E+00 -0.1253480585135E+01 -0.2073460702727E+00 -0.2085114988859E+01
 0.3838629722024E+00 -0.1252049302883E+01 -0.1736372687236E+00 -0.2103886211317E+01
 0.5786713775103E+00 -0.1262958011724E+01 -0.1368573288821E+00 -0.2110650673895E+01
 0.8007570980559E+00 -0.1286985968035E+01 -0.9724577544497E-01 -0.2100763413121E+01
 0.1048370032359E+01 -0.1324227357710E+01 -0.5517146589222E-01 -0.2068913927093E+01
 0.1318302221424E+01 -0.1373950046093E+01 -0.1112956509958E-01 -0.2009286924666E+01
 0.1606056983831E+01 -0.1434559538135E+01  0.3429948965031E-01 -0.1915707581188E+01
 0.1905982299741E+01 -0.1503626555971E+01  0.8047114995300E-01 -0.1781750810503E+01
 0.2211024344249E+01 -0.1577861677238E+01  0.1266325352891E+00 -0.1601006618315E+01
 0.2512851456314E+01 -0.1653220123469E+01  0.1719262691308E+00 -0.1367387786535E+01
 0.2802424397977E+01 -0.1725199630868E+01  0.2154449566322E+00 -0.1075260558876E+01
-0.3648355044038E+00 -0.1525676215046E+01 -0.3781023495242E+00 -0.7296417866217E+00
-0.3364124413738E+00 -0.1538927704473E+01 -0.3750680347583E+00 -0.8760484825219E+00
-0.3107778983992E+00 -0.1551491500589E+01 -0.3724538853476E+00 -0.1009505587260E+01
-0.2880420162301E+00 -0.1563232360624E+01 -0.3702548808881E+00 -0.1128141168034E+01
-0.2682503821301E+00 -0.1574019241402E+01 -0.3684539301967E+00 -0.1231143851421E+01
-0.2514382321900E+00 -0.1583689847399E+01 -0.3670256213870E+00 -0.1318667352482E+01
-0.2376586307347E+00 -0.1592034875550E+01 -0.3659387067099E+00 -0.1391650195959E+01
-0.2269852382457E+00 -0.1598800559907E+01 -0.3651571650718E+00 -0.1451591429922E+01
-0.2194961523495E+00 -0.1603703736015E+01 -0.3646399831065E+00 -0.1500323395419E+01
-0.2152477695181E+00 -0.1606452168933E+01 -0.3643399931193E+00 -0.1539811846626E+01
-0.2142466308361E+00 -0.1606764119142E+01 -0.3642021554226E+00 -0.1571999634088E+01
-0.2164243348172E+00 -0.1604383743695E+01 -0.3641616211289E+00 -0.1598698308507E+01
-0.2216175661389E+00 -0.1599091494804E+01 -0.3641418176148E+00 -0.1621522790641E+01
-0.2295529056309E+00 -0.1590710605708E+01 -0.3640527076925E+00 -0.1641860222183E+01
-0.2398348809456E+00 -0.1579111561565E+01 -0.3637892939230E+00 -0.1660863930180E+01
-0.2519352088201E+00 -0.1564215988029E+01 -0.3632302447824E+00 -0.1679463933597E+01
-0.2651807212935E+00 -0.1545970290142E+01 -0.3622302076848E+00 -0.1698394440880E+01
-0.2787387031426E+00 -0.1524330747894E+01 -0.3606138955808E+00 -0.1718215935197E+01
-0.2916042952169E+00 -0.1499348353731E+01 -0.3581905351270E+00 -0.1739331054481E+01
-0.3025911692548E+00 -0.1471238695331E+01 -0.3547659782035E+00 -0.1762020494880E+01
-0.3103204222529E+00 -0.1440373750983E+01 -0.3501388398647E+00 -0.1786467292192E+01
-0.3132111105913E+00 -0.1407273436061E+01 -0.3440969144579E+00 -0.1812771774056E+01
-0.3094752316644E+00 -0.1372611951884E+01 -0.3364174417226E+00 -0.1840954938096E+01
-0.2971205685475E+00 -0.1337231303584E+01 -0.3268703792971E+00 -0.1870947201049E+01
-0.2739649937726E+00 -0.1302153069329E+01 -0.3152236173176E+00 -0.1902560851808E+01
-0.2376668516495E+00 -0.1268584115905E+01 -0.3012501979998E+00 -0.1935443339748E+01
-0.1857772544234E+00 -0.1237910628151E+01 -0.2847375807578E+00 -0.1969011796521E+01
-0.1158191455816E+00 -0.1211680139224E+01 -0.2654998609174E+00 -0.2002370681198E+01
-0.2539371609544E-01 -0.1191559629933E+01 -0.2433906728325E+00 -0.2034221487382E+01
 0.8767985478419E-01 -0.1179256869845E+01 -0.2183154062653E+00 -0.2062767312206E+01
 0.2251849707659E+00 -0.1176414532623E+01 -0.1902459152062E+00 -0.2085619824901E+01
 0.3882932529362E+00 -0.1184480913173E+01 -0.1592375344203E+00 -0.2099727170948E+01
 0.5773266806317E+00 -0.1204555808422E+01 -0.1254458274273E+00 -0.2101338545555E+01
 0.7915130719023E+00 -0.1237222514371E+01 -0.8914188982212E-01 -0.2086023045851E+01
 0.1028768969566E+01 -0.1282386388099E+01 -0.5072348446237E-01 -0.2048757695918E+01
 0.1285602288661E+01 -0.1339158752266E+01 -0.1071129288073E-01 -0.1984078578758E+01
 0.1557309616408E+01 -0.1405849612410E+01  0.3029200125098E-01 -0.1886210016802E+01
 0.1838134353220E+01 -0.1479997507122E+01  0.7162737028689E-01 -0.1749146215663E+01
 0.2121036510715E+01 -0.1558330998733E+01  0.1125411040733E+00 -0.1566869718715E+01
 0.2397815798084E+01 -0.1636879748372E+01  0.1521872122102E+00 -0.1333607579169E+01
 0.2659662838637E+01 -0.1711268002493E+01  0.1896789700553E+00 -0.1043917041127E+01
-0.3079571828727E+00 -0.1289835818301E+01 -0.3195586049965E+00 -0.7248477581420E+00
-0.2838810279988E+00 -0.1301603021919E+01 -0.3170968147086E+00 -0.8714874531262E+00
-0.2634968339563E+00 -0.1312782925889E+01 -0.3152559566667E+00 -0.1005189304262E+01
-0.2465106616835E+00 -0.1323474988385E+01 -0.3139971346926E+00 -0.1124073102749E+01
-0.2325804214715E+00 -0.1333757963401E+01 -0.3132676816426E+00 -0.1227341265859E+01
-0.2214089729064E+00 -0.1343630255692E+01 -0.3130078503839E+00 -0.1315174588810E+01
-0.2127966861091E+00 -0.1352981556706E+01 -0.3131556532293E+00 -0.1388542010329E+01
-0.2066521002814E+00 -0.1361595095559E+01 -0.3136494438419E+00 -0.1448968164675E+01
-0.2029698762263E+00 -0.1369171973664E+01 -0.3144283746635E+00 -0.1498301419263E+01
-0.2017900878952E+00 -0.1375365973508E+01 -0.3154312169809E+00 -0.1538512763632E+01
-0.2031520595989E+00 -0.1379818613427E+01 -0.3165941393228E+00 -0.1571540765599E+01
-0.2070518663673E+00 -0.1382188139456E+01 -0.3178480059011E+00 -0.1599185617293E+01
-0.2134078207609E+00 -0.1382170165490E+01 -0.3191156020054E+00 -0.1623046267266E+01
-0.2220343745618E+00 -0.1379510817406E+01 -0.3203090431666E+00 -0.1644491035583E+01
-0.2326226915363E+00 -0.1374014931718E+01 -0.3213275294389E+00 -0.1664652397961E+01
-0.2447251023413E+00 -0.1365551195014E+01 -0.3220552642700E+00 -0.1684437406534E+01
-0.2577395727000E+00 -0.1354013439626E+01 -0.3223506072686E+00 -0.1704554352342E+01
-0.2708929718523E+00 -0.1339295416743E+01 -0.3220376825177E+00 -0.1725534000974E+01
-0.2832292970612E+00 -0.1321401910359E+01 -0.3209262462662E+00 -0.1747744833853E+01
-0.2936022832903E+00 -0.1300539105532E+01 -0.3188282825153E+00 -0.1771427688103E+01
-0.3006663444655E+00 -0.1277094464557E+01 -0.3155521665067E+00 -0.1796718665396E+01
-0.3028703753031E+00 -0.1251615079161E+01 -0.3108970955255E+00 -0.1823663357960E+01
-0.2984574670568E+00 -0.1224805346047E+01 -0.3046525671603E+00 -0.1852220226557E+01
-0.2854737478407E+00 -0.1197534438178E+01 -0.2966016416235E+00 -0.1882250204405E+01
-0.2617895891886E+00 -0.1170842983177E+01 -0.2865265187427E+00 -0.1913491096496E+01
-0.2251373953347E+00 -0.1145943466743E+01 -0.2742161765017E+00 -0.1945514186991E+01
-0.1731712627771E+00 -0.1124208848409E+01 -0.2594760261037E+00 -0.1977663786918E+01
-0.1035529227649E+00 -0.1107152218034E+01 -0.2421410317679E+00 -0.2008981919950E+01
-0.1406332843582E-01 -0.1096382877305E+01 -0.2220892444576E+00 -0.2038127192269E+01
 0.9725564971802E-01 -0.1093521563535E+01 -0.1992531857325E+00 -0.2063290360648E+01
 0.2319237306856E+00 -0.1100091412666E+01 -0.1736335389835E+00 -0.2082113329017E+01
 0.3908146620132E+00 -0.1117391972543E+01 -0.1453154642713E+00 -0.2091628761942E+01
 0.5739309083761E+00 -0.1146352834154E+01 -0.1144843868615E+00 -0.2088234076204E+01
 0.7801773752337E+00 -0.1187378143872E+01 -0.8144015494115E-01 -0.2067715018445E+01
 0.1007167076698E+01 -0.1240202377605E+01 -0.4660706087575E-01 -0.2025331466282E+01
 0.1251148578038E+01 -0.1303796615138E+01 -0.1052960757692E-01 -0.1955958566794E+01
 0.1507227393774E+01 -0.1376387073195E+01  0.2616806450561E-01 -0.1854201439978E+01
 0.1769543542204E+01 -0.1455484480365E+01  0.6281181330378E-01 -0.1714450244768E+01
 0.2031051970541E+01 -0.1537829620072E+01  0.9864447156358E-01 -0.1531052765948E+01
 0.2283642687847E+01 -0.1619508969292E+01  0.1328267456902E+00 -0.1298524559277E+01
 0.2518673977660E+01 -0.1696244269228E+01  0.1644859441374E+00 -0.1011596341721E+01
-0.2509882379293E+00 -0.1053635723112E+01 -0.2609247960962E+00 -0.7206019812031E+00
-0.2312659948379E+00 -0.1063924312045E+01 -0.2590380652366E+00 -0.8674814783810E+00
-0.2161475400740E+00 -0.1073732641448E+01 -0.2579760401484E+00 -0.1001344272673E+01
-0.2049232030982E+00 -0.1083401212874E+01 -0.2576648870339E+00 -0.1120305985390E+01
-0.1968546930566E+00 -0.1093222343638E+01 -0.2580154111837E+00 -0.1223598014666E+01
-0.1913085245867E+00 -0.1103355628659E+01 -0.2589328345075E+00 -0.1311450568313E+01
-0.1878328343363E+00 -0.1113787410936E+01 -0.2603240529337E+00 -0.1384887479512E+01
-0.1861746452460E+00 -0.1124333947967E+01 -0.2621017225482E+00 -0.1445481209612E+01
-0.1862502283119E+00 -0.1134676386700E+01 -0.2641853269391E+00 -0.1495113363215E+01
-0.1880883556001E+00 -0.1144411093686E+01 -0.2664998938283E+00 -0.1535771335448E+01
-0.1917652322163E+00 -0.1153100695624E+01 -0.2689731895760E+00 -0.1569394927084E+01
-0.1973442870481E+00 -0.1160316653962E+01 -0.2715321922483E+00 -0.1597774008469E+01
-0.2048272629553E+00 -0.1165669805901E+01 -0.2740994178556E+00 -0.1622489526457E+01
-0.2141175862863E+00 -0.1168829686262E+01 -0.2765894586312E+00 -0.1644887157676E+01
-0.2249938857002E+00 -0.1169535984217E+01 -0.2789059781395E+00 -0.1666073864614E+01
-0.2370900116086E+00 -0.1167604559680E+01 -0.2809389184440E+00 -0.1686928834106E+01
-0.2498762240717E+00 -0.1162876250279E+01 -0.2825504990804E+00 -0.1708129284057E+01
-0.2626404528759E+00 -0.1155181351317E+01 -0.2835643650641E+00 -0.1730170615563E+01
-0.2744774614281E+00 -0.1144476823307E+01 -0.2837908611758E+00 -0.1753381787020E+01
-0.2842834327542E+00 -0.1130956896803E+01 -0.2830480701293E+00 -0.1777959579278E+01
-0.2907488137225E+00 -0.1115021015081E+01 -0.2811539699503E+00 -0.1803990223704E+01
-0.2923551717333E+00 -0.1097239079056E+01 -0.2779188542991E+00 -0.1831462916003E+01
-0.2873793811352E+00 -0.1078340580825E+01 -0.2731439964622E+00 -0.1860273324535E+01
-0.2739081154168E+00 -0.1059216226659E+01 -0.2666248723883E+00 -0.1890214246328E+01
-0.2498655009779E+00 -0.1040919830240E+01 -0.2581570700904E+00 -0.1920952142047E+01
-0.2130577247970E+00 -0.1024663843115E+01 -0.2475443172711E+00 -0.1951987194664E+01
-0.1612393489312E+00 -0.1011803138597E+01 -0.2346085010016E+00 -0.1982597909113E+01
-0.9220530910000E-01 -0.1003812949737E+01 -0.2192036550337E+00 -0.2011772877156E+01
-0.3906811059694E-02 -0.1002243668940E+01 -0.2012300989984E+00 -0.2038138664340E+01
 0.1054056909358E+00 -0.1008630791408E+01 -0.1806450227863E+00 -0.2059885583333E+01
 0.2370072223955E+00 -0.1024383403271E+01 -0.1574752385216E+00 -0.2074697487154E+01
 0.3914972408941E+00 -0.1050661745825E+01 -0.1318329029506E+00 -0.2079701634860E+01
 0.5685857571592E+00 -0.1088238266394E+01 -0.1039305033957E+00 -0.2071450379013E+01
 0.7668832091886E+00 -0.1137353548687E+01 -0.7409406900377E-01 -0.2045947752566E+01
 0.9837258804651E+00 -0.1197587379782E+01 -0.4277230050080E-01 -0.1998731796842E+01
 0.1215124538258E+01 -0.1267784854796E+01 -0.1053206346452E-01 -0.1925005619531E+01
 0.1456006327611E+01 -0.1346098203000E+01  0.2198162524973E-01 -0.1819739306230E+01
 0.1700407106883E+01 -0.1430013403965E+01  0.5407874138948E-01 -0.1677699380824E+01
 0.1941257809765E+01 -0.1516277433201E+01  0.8499607657937E-01 -0.1493576260683E+01
 0.2170500065624E+01 -0.1601017133444E+01  0.1138965881332E+00 -0.1262153259805E+01
 0.2379602051201E+01 -0.1680025222557E+01  0.1399153678136E+00 -0.9783217495080E+00
-0.1939098493131E+00 -0.8169301382919E+00 -0.2021680005335E+00 -0.7169052431505E+00
-0.1785821198523E+00 -0.8257333982880E+00 -0.2008631066211E+00 -0.8640299859504E+00
-0.1687791212929E+00 -0.8341728259006E+00 -0.2005903924277E+00 -0.9979653487814E+00
-0.1633590989969E+00 -0.8428387124206E+00 -0.2012395652822E+00 -0.1116827719676E+01
-0.1611754582170E+00 -0.8522420832129E+00 -0.2026835113062E+00 -0.1219894103985E+01
-0.1612526890080E+00 -0.8627041900712E+00 -0.2047913788675E+00 -0.1307467947733E+01
-0.1628873396957E+00 -0.8743044103121E+00 -0.2074383530926E+00 -0.1380653528434E+01
-0.1656700939207E+00 -0.8868860428898E+00 -0.2105112304990E+00 -0.1441093803082E+01
-0.1694461270077E+00 -0.9001038830796E+00 -0.2139100052050E+00 -0.1490720667851E+01
-0.1742402193116E+00 -0.9134915758884E+00 -0.2175463622817E+00 -0.1531548575831E+01
-0.1801714772502E+00 -0.9265293833941E+00 -0.2213401754271E+00 -0.1565523451061E+01
-0.1873749465993E+00 -0.9387003765690E+00 -0.2252150679896E+00 -0.1594425341068E+01
-0.1959384599829E+00 -0.9495304446226E+00 -0.2290937843349E+00 -0.1619814816066E+01
-0.2058559583036E+00 -0.9586131624205E+00 -0.2328938276152E+00 -0.1643010959193E+01
-0.2169945172164E+00 -0.9656238812242E+00 -0.2365236832126E+00 -0.1665090619118E+01
-0.2290704034541E+00 -0.9703261246468E+00 -0.2398793091947E+00 -0.1686900417317E+01
-0.2416272460474E+00 -0.9725076723775E+00 -0.2428269873034E+00 -0.1709081615282E+01
-0.2540153869049E+00 -0.9719347278094E+00 -0.2451900265965E+00 -0.1732088897152E+01
-0.2653820872115E+00 -0.9685150501483E+00 -0.2467794311493E+00 -0.1756206634673E+01
-0.2746681042202E+00 -0.9624285835240E+00 -0.2474193412357E+00 -0.1781583666275E+01
-0.2806022808204E+00 -0.9540834729158E+00 -0.2469371544269E+00 -0.1808253723273E+01
-0.2817012365474E+00 -0.9440683057819E+00 -0.2451539121189E+00 -0.1836148227894E+01
-0.2762777623020E+00 -0.9331328499138E+00 -0.2418821260475E+00 -0.1865100036534E+01
-0.2624606311971E+00 -0.9221840397925E+00 -0.2369289377284E+00 -0.1894835306868E+01
-0.2382282632593E+00 -0.9122834015471E+00 -0.2301023363901E+00 -0.1924952308126E+01
-0.2014595924856E+00 -0.9046381557529E+00 -0.2212195529441E+00 -0.1954885006833E+01
-0.1500063731933E+00 -0.9005807450684E+00 -0.2101174267833E+00 -0.1983852690190E+01
-0.8179048002088E-01 -0.9015456880406E+00 -0.1966672365429E+00 -0.2010798804504E+01
 0.5076646075171E-02 -0.9090237827050E+00 -0.1807894300199E+00 -0.2034327690596E+01
 0.1121502710044E+00 -0.9244675078045E+00 -0.1624634497809E+00 -0.2052639793797E+01
 0.2404794509795E+00 -0.9491775837107E+00 -0.1417396286583E+00 -0.2063471118781E+01
 0.3904120723247E+00 -0.9841842115932E+00 -0.1187544296233E+00 -0.2064052065788E+01
 0.5613912189620E+00 -0.1030115111018E+01 -0.9374477980805E-01 -0.2051095349478E+01
 0.7517591487211E+00 -0.1087061742802E+01 -0.6706051981550E-01 -0.2020824196578E+01
 0.9585996254891E+00 -0.1154463833904E+01 -0.3917284226664E-01 -0.1969050273091E+01
 0.1177704483292E+01 -0.1231052990793E+01 -0.1066970165925E-01 -0.1891294804550E+01
 0.1403832790628E+01 -0.1314915642764E+01  0.1778342983787E-01 -0.1782879414522E+01
 0.1630913923858E+01 -0.1403514998849E+01  0.4547978567960E-01 -0.1638930824894E+01
 0.1851836021444E+01 -0.1493598052387E+01  0.7164759487895E-01 -0.1454463610074E+01
 0.2058556050925E+01 -0.1581316766366E+01  0.9544785833411E-01 -0.1224512467221E+01
 0.2242598563257E+01 -0.1662510785815E+01  0.1160175572172E+00 -0.9441208976371E+00
-0.1367030915387E+00 -0.5795697767691E+00 -0.1432545757962E+00 -0.7137632933074E+00
-0.1258455081053E+00 -0.5868681450225E+00 -0.1425427327496E+00 -0.8611368289509E+00
-0.1214432810271E+00 -0.5939315173249E+00 -0.1430749618024E+00 -0.9950502198282E+00
-0.1219011493841E+00 -0.6016112853531E+00 -0.1447024891037E+00 -0.1113626666468E+01
-0.1256483773742E+00 -0.6106437012978E+00 -0.1472584179287E+00 -0.1216207375797E+01
-0.1313601323317E+00 -0.6215119493188E+00 -0.1505744185738E+00 -0.1303194910434E+01
-0.1380824591737E+00 -0.6343833023005E+00 -0.1544931545970E+00 -0.1375801008320E+01
-0.1452567377887E+00 -0.6491198715578E+00 -0.1588753242367E+00 -0.1435762372071E+01
-0.1526668047437E+00 -0.6653413986191E+00 -0.1636016431104E+00 -0.1485078024610E+01
-0.1603431515075E+00 -0.6825116096771E+00 -0.1685709547488E+00 -0.1525799416028E+01
-0.1684557301834E+00 -0.7000236692219E+00 -0.1736958824693E+00 -0.1559882620152E+01
-0.1772167871596E+00 -0.7172700255603E+00 -0.1788973652098E+00 -0.1589097606968E+01
-0.1868036694690E+00 -0.7336913286351E+00 -0.1840990023641E+00 -0.1614981690022E+01
-0.1973027194481E+00 -0.7488060368562E+00 -0.1892217540805E+00 -0.1638823184646E+01
-0.2086705245468E+00 -0.7622263543375E+00 -0.1941793786704E+00 -0.1661664244869E+01
-0.2207066090301E+00 -0.7736643854989E+00 -0.1988742018693E+00 -0.1684314421231E+01
-0.2330289361100E+00 -0.7828551763273E+00 -0.2031768255150E+00 -0.1707374423705E+01
-0.2450514799311E+00 -0.7895005084600E+00 -0.2069104007614E+00 -0.1731253182562E+01
-0.2559755552588E+00 -0.7934578082274E+00 -0.2098866758248E+00 -0.1756185739065E+01
-0.2647883675183E+00 -0.7948906293188E+00 -0.2119358025255E+00 -0.1782269421814E+01
-0.2702591753859E+00 -0.7942127698205E+00 -0.2128943922136E+00 -0.1809483137092E+01
-0.2709415907315E+00 -0.7920276278879E+00 -0.2125938468918E+00 -0.1837699432104E+01
-0.2651859255982E+00 -0.7891006997638E+00 -0.2108573282144E+00 -0.1866688553793E+01
-0.2511640046280E+00 -0.7863501486090E+00 -0.2075028337394E+00 -0.1896111648741E+01
-0.2269084276637E+00 -0.7848400841603E+00 -0.2023497053801E+00 -0.1925501939514E+01
-0.1903691677395E+00 -0.7857676858303E+00 -0.1952273736231E+00 -0.1954231859424E+01
-0.1394912485338E+00 -0.7904390424934E+00 -0.1859860609769E+00 -0.1981467622930E+01
-0.7231665208626E-01 -0.8002455369532E+00 -0.1745124404083E+00 -0.2006115097750E+01
 0.1289335654525E-01 -0.8166180946798E+00 -0.1607449500222E+00 -0.2026765209792E+01
 0.1175141732988E+00 -0.8409286956724E+00 -0.1446829066307E+00 -0.2041637859389E+01
 0.2423873038897E+00 -0.8743754477245E+00 -0.1263976306504E+00 -0.2048530006851E+01
 0.3876309628040E+00 -0.9178675206039E+00 -0.1060473131402E+00 -0.2044782370270E+01
 0.5524454590988E+00 -0.9718996643624E+00 -0.8389084230280E-01 -0.2027272350453E+01
 0.7349292875422E+00 -0.1036427593637E+01 -0.6029966211747E-01 -0.1992442723634E+01
 0.9319357245385E+00 -0.1110764225868E+01 -0.3576570079882E-01 -0.1936374516781E+01
 0.1139054330832E+01 -0.1193538672581E+01 -0.1089686851234E-01 -0.1854898519724E+01
 0.1350884451181E+01 -0.1282778398821E+01  0.1362121067496E-01 -0.1743676767583E+01
 0.1561245453377E+01 -0.1375924916511E+01  0.3706410792541E-01 -0.1598183155005E+01
 0.1762964199248E+01 -0.1469718970729E+01  0.5864904657767E-01 -0.1413741571501E+01
 0.1947979131331E+01 -0.1560323611658E+01  0.7753110508990E-01 -0.1185625442254E+01
 0.2107821943705E+01 -0.1643603917679E+01  0.9284360658860E-01 -0.9090257547334E+00
-0.7934894224396E-01 -0.3414010255642E+00 -0.8414999481557E-01 -0.7111870716485E+00
-0.7307401708376E-01 -0.3471615115800E+00 -0.8404710698515E-01 -0.8588104425791E+00
-0.7419512342892E-01 -0.3528316513276E+00 -0.8540535622393E-01 -0.9925993891896E+00
-0.8063649788335E-01 -0.3595380293584E+00 -0.8803490676017E-01 -0.1110691417891E+01
-0.9038348223736E-01 -0.3682500073689E+00 -0.9172669928809E-01 -0.1212513114248E+01
-0.1017531341982E+00 -0.3796125540329E+00 -0.9627313908079E-01 -0.1298594706678E+01
-0.1135428663968E+00 -0.3938738425916E+00 -0.1014833433099E+00 -0.1370284282483E+01
-0.1250540319281E+00 -0.4109040299517E+00 -0.1071916139732E+00 -0.1429436243425E+01
-0.1360216319411E+00 -0.4302766304292E+00 -0.1132596541618E+00 -0.1478133243290E+01
-0.1464940975846E+00 -0.4513763399771E+00 -0.1195740892941E+00 -0.1518472715535E+01
-0.1567020946382E+00 -0.4735033169501E+00 -0.1260410841958E+00 -0.1552423781090E+01
-0.1669418903243E+00 -0.4959566653735E+00 -0.1325797131151E+00 -0.1581745098917E+01
-0.1774844187426E+00 -0.5180915279893E+00 -0.1391151914194E+00 -0.1607947184519E+01
-0.1885105445383E+00 -0.5393524246969E+00 -0.1455725960162E+00 -0.1632283100472E+01
-0.2000674263892E+00 -0.5592900744741E+00 -0.1518715024357E+00 -0.1655755714698E+01
-0.2120385756228E+00 -0.5775665645974E+00 -0.1579210303973E+00 -0.1679133201561E+01
-0.2241171182762E+00 -0.5938649514607E+00 -0.1635964163851E+00 -0.1702971435459E+01
-0.2357817432654E+00 -0.6078225860559E+00 -0.1687208683784E+00 -0.1727628896805E+01
-0.2462892043490E+00 -0.6192456828223E+00 -0.1731069800138E+00 -0.1753286891015E+01
-0.2546747868031E+00 -0.6282795331749E+00 -0.1765908666270E+00 -0.1779987996654E+01
-0.2597498537975E+00 -0.6353407733411E+00 -0.1790181280953E+00 -0.1807654274503E+01
-0.2601065277877E+00 -0.6410439811531E+00 -0.1802301044738E+00 -0.1836098564995E+01
-0.2541337457392E+00 -0.6461660937558E+00 -0.1800599705821E+00 -0.1865028921728E+01
-0.2400467781230E+00 -0.6516317794350E+00 -0.1783357141690E+00 -0.1894043229315E+01
-0.2159317033418E+00 -0.6585028964373E+00 -0.1748869225618E+00 -0.1922612787957E+01
-0.1798072387727E+00 -0.6679620846806E+00 -0.1695538672172E+00 -0.1950052967034E+01
-0.1297072064526E+00 -0.6812854795067E+00 -0.1621985396088E+00 -0.1975482602014E+01
-0.6378640702022E-01 -0.6998192251468E+00 -0.1527211287091E+00 -0.1997776834139E+01
 0.1955477325830E-01 -0.7249343716365E+00 -0.1410759217778E+00 -0.2015521006350E+01
 0.1215263018242E+00 -0.7579250786768E+00 -0.1272797572671E+00 -0.2026962603754E+01
 0.2427802261375E+00 -0.7998925529341E+00 -0.1114224670196E+00 -0.2029967048532E+01
 0.3832262275590E+00 -0.8516336170571E+00 -0.9368147929559E-01 -0.2021991318724E+01
 0.5418447780085E+00 -0.9135211532154E+00 -0.7433527614905E-01 -0.2000080875217E+01
 0.7165134306409E+00 -0.9853875306191E+00 -0.5377482079695E-01 -0.1960897985026E+01
 0.9038752058541E+00 -0.1066430907822E+01 -0.3251114087810E-01 -0.1900789133271E+01
 0.1099332285530E+01 -0.1155187639164E+01 -0.1117107089339E-01 -0.1815887416322E+01
 0.1297331117576E+01 -0.1249631953282E+01  0.9539833000907E-02 -0.1702186368056E+01
 0.1491576590113E+01 -0.1347183971573E+01  0.2887852413837E-01 -0.1555496953594E+01
 0.1674816139990E+01 -0.1444571807658E+01  0.4604886715254E-01 -0.1371440730219E+01
 0.1838938240712E+01 -0.1537956729247E+01  0.6019630318993E-01 -0.1145520231779E+01
 0.1975437100926E+01 -0.1623210521497E+01  0.7044531693542E-01 -0.8730726622231E+00
-0.2182829795023E-01 -0.1022650432616E+00 -0.2481866861219E-01 -0.7091929937089E+00
-0.2028773684850E-01 -0.1064405238607E+00 -0.2534565251953E-01 -0.8570640334899E+00
-0.2709404324237E-01 -0.1106900258505E+00 -0.2755681422921E-01 -0.9906161375771E+00
-0.3965772057511E-01 -0.1164324817166E+00 -0.3121804092354E-01 -0.1108010479697E+01
-0.5549620018849E-01 -0.1248795844767E+00 -0.3607515747061E-01 -0.1208783510160E+01
-0.7255833959365E-01 -0.1368372017533E+00 -0.4187910889343E-01 -0.1293625037249E+01
-0.8939603531936E-01 -0.1526251169325E+00 -0.4840423117165E-01 -0.1364050675539E+01
-0.1051826239716E+00 -0.1721078530775E+00 -0.5545809623620E-01 -0.1422057260540E+01
-0.1196198744295E+00 -0.1947988512295E+00 -0.6288374606885E-01 -0.1469827072984E+01
-0.1327890691091E+00 -0.2199927349386E+00 -0.7055636186091E-01 -0.1509511268062E+01
-0.1449933696378E+00 -0.2468896863885E+00 -0.7837661237315E-01 -0.1543093483686E+01
-0.1566210107813E+00 -0.2746924278007E+00 -0.8626268900182E-01 -0.1572318620454E+01
-0.1680410880391E+00 -0.3026705261885E+00 -0.9414232424834E-01 -0.1598666042313E+01
-0.1795312054966E+00 -0.3301962216790E+00 -0.1019454869542E+00 -0.1623348689916E+01
-0.1912300417604E+00 -0.3567609867645E+00 -0.1095982073381E+00 -0.1647325526713E+01
-0.2031056474449E+00 -0.3819788447639E+00 -0.1170169001854E+00 -0.1671319264092E+01
-0.2149269737855E+00 -0.4054820612863E+00 -0.1240818088633E+00 -0.1695836999742E+01
-0.2262383652642E+00 -0.4268438823145E+00 -0.1306164514621E+00 -0.1721182439817E+01
-0.2363532389675E+00 -0.4458186871603E+00 -0.1364343872586E+00 -0.1747479107965E+01
-0.2443563629730E+00 -0.4625318660305E+00 -0.1413776479074E+00 -0.1774711929062E+01
-0.2491025770192E+00 -0.4774003115233E+00 -0.1453005798736E+00 -0.1802744403570E+01
-0.2492236286174E+00 -0.4910463894808E+00 -0.1480540058258E+00 -0.1831329100945E+01
-0.2431477110012E+00 -0.5042544332028E+00 -0.1494804310682E+00 -0.1860112508392E+01
-0.2291334222660E+00 -0.5179511339689E+00 -0.1494169134735E+00 -0.1888631115798E+01
-0.2053190961208E+00 -0.5331915007926E+00 -0.1477021215836E+00 -0.1916297401535E+01
-0.1697893977862E+00 -0.5511393681668E+00 -0.1441857553391E+00 -0.1942373923120E+01
-0.1206620271972E+00 -0.5730375410828E+00 -0.1387399157234E+00 -0.1965937379777E+01
-0.5619695993415E-01 -0.6001850237458E+00 -0.1312763986922E+00 -0.1985838334133E+01
 0.2507719947385E-01 -0.6338931370899E+00 -0.1217631893376E+00 -0.2000663429913E+01
 0.1242194017960E+00 -0.6753809382059E+00 -0.1102323089246E+00 -0.2008694731072E+01
 0.2417099940765E+00 -0.7256583043338E+00 -0.9678966349375E-01 -0.2007872417709E+01
 0.3772705703170E+00 -0.7854180167346E+00 -0.8162949049989E-01 -0.1995774548460E+01
 0.5296836492311E+00 -0.8549215436257E+00 -0.6504757984820E-01 -0.1969617189670E+01
 0.6966273282410E+00 -0.9338894194862E+00 -0.4745241895614E-01 -0.1926281727204E+01
 0.8745531540986E+00 -0.1021416063178E+01 -0.2937258225360E-01 -0.1862376611989E+01
 0.1058689466802E+01 -0.1115953791631E+01 -0.1145286513653E-01 -0.1774331268682E+01
 0.1243335498731E+01 -0.1215428461160E+01  0.5581407597436E-02 -0.1658463959950E+01
 0.1422076439683E+01 -0.1317238463909E+01  0.2096759546737E-01 -0.1510915401830E+01
 0.1587562389222E+01 -0.1418092664998E+01  0.3389394534979E-01 -0.1327596014909E+01
 0.1731602737109E+01 -0.1514138673701E+01  0.4349281332969E-01 -0.1104230101087E+01
 0.1845614802479E+01 -0.1601239361998E+01  0.4887508882449E-01 -0.8363024465737E+00
 0.3587800065526E-01  0.1380032392974E+00  0.3477624850874E-01 -0.7078032984427E+00
 0.3249045778711E-01  0.1354748634206E+00  0.3359306474211E-01 -0.8559158033923E+00
 0.1979526941408E-01  0.1326838302217E+00  0.3049582038158E-01 -0.9891064507192E+00
 0.9359736815608E-03  0.1278982901860E+00  0.2576685315747E-01 -0.1105571842081E+01
-0.2110844331529E-01  0.1196537105532E+00  0.1970905374127E-01 -0.1204986960798E+01
-0.4390751062898E-01  0.1069853694564E+00  0.1261557195348E-01 -0.1288237262800E+01
-0.6577256927834E-01  0.8951402112159E-01  0.4748290439404E-02 -0.1357039778619E+01
-0.8576429992686E-01  0.6739782944050E-01 -0.3673294152009E-02 -0.1413559308196E+01
-0.1035703661951E+00  0.4120017479638E-01 -0.1247403846562E-01 -0.1460092985797E+01
-0.1193226694990E+00  0.1172947739298E-01 -0.2151863874185E-01 -0.1498851814560E+01
-0.1334105345258E+00 -0.2010659232960E-01 -0.3070342582860E-01 -0.1531833655848E+01
-0.1463230928055E+00 -0.5341123843472E-01 -0.3994686684330E-01 -0.1560765746484E+01
-0.1585324972685E+00 -0.8736879429809E-01 -0.4918025904616E-01 -0.1587090991316E+01
-0.1704152407893E+00 -0.1212815299587E+00 -0.5833935501892E-01 -0.1611976898682E+01
-0.1822022375534E+00 -0.1545846058261E+00 -0.6735736967962E-01 -0.1636333883453E+01
-0.1939463786485E+00 -0.1868465579147E+00 -0.7615858844749E-01 -0.1660835358496E+01
-0.2054929058391E+00 -0.2176505503305E+00 -0.8462869249499E-01 -0.1685936089047E+01
-0.2164526173792E+00 -0.2465063955946E+00 -0.9259180397447E-01 -0.1711881091102E+01
-0.2261966710096E+00 -0.2731162701771E+00 -0.9986258972541E-01 -0.1738732443530E+01
-0.2338605091152E+00 -0.2975842543994E+00 -0.1062889542867E+00 -0.1766414860517E+01
-0.2383435195269E+00 -0.3203251454368E+00 -0.1117337346577E+00 -0.1794731875563E+01
-0.2383178036603E+00 -0.3419659366655E+00 -0.1160567497945E+00 -0.1823375491710E+01
-0.2322509977719E+00 -0.3632945353591E+00 -0.1191091084010E+00 -0.1851931470930E+01
-0.2184444417920E+00 -0.3852353761905E+00 -0.1207359653956E+00 -0.1879876899167E+01
-0.1950870451101E+00 -0.4088321972374E+00 -0.1207838502693E+00 -0.1906568515484E+01
-0.1603262071433E+00 -0.4352259101599E+00 -0.1191104252355E+00 -0.1931220105849E+01
-0.1123582324633E+00 -0.4656227326756E+00 -0.1155961947503E+00 -0.1952871032303E+01
-0.4954037070851E-01 -0.5012727123189E+00 -0.1101626182470E+00 -0.1970352737135E+01
 0.2948157451854E-01 -0.5434276144908E+00 -0.1027892095261E+00 -0.1982259129836E+01
 0.1256298684166E+00 -0.5932340367438E+00 -0.9352083505900E-01 -0.1986912762145E+01
 0.2392305832480E+00 -0.6516158705356E+00 -0.8247705868654E-01 -0.1982333731675E+01
 0.3698370522050E+00 -0.7191697378669E+00 -0.6986653817347E-01 -0.1966224968557E+01
 0.5160548283148E+00 -0.7960555123360E+00 -0.5600013763869E-01 -0.1935974955421E+01
 0.6753829478909E+00 -0.8818925951342E+00 -0.4130193006409E-01 -0.1888683581279E+01
 0.8440991432456E+00 -0.9756818081255E+00 -0.2631653336813E-01 -0.1821218196149E+01
 0.1017270479037E+01 -0.1075799363816E+01 -0.1170577713020E-01 -0.1730299809251E+01
 0.1189053881480E+01 -0.1180127012543E+01  0.1785373813873E-02 -0.1612566723788E+01
 0.1352909039148E+01 -0.1286040578265E+01  0.1337369237590E-01 -0.1464484828895E+01
 0.1501370776786E+01 -0.1390222614887E+01  0.2222963271102E-01 -0.1282247241993E+01
 0.1626142295911E+01 -0.1488795792924E+01  0.2746930100654E-01 -0.1061794124950E+01
 0.1718530821212E+01 -0.1577601993258E+01  0.2818576601078E-01 -0.7987606460164E+00
 0.9378913113921E-01  0.3795762439195E+00  0.9467307642249E-01 -0.7070464677124E+00
 0.8523426203352E-01  0.3787730456641E+00  0.9280146292238E-01 -0.8553892084246E+00
 0.6640167732901E-01  0.3774889107018E+00  0.8877811892907E-01 -0.9880789003621E+00
 0.4103740358181E-01  0.3736546581857E+00  0.8293841358938E-01 -0.1103362412573E+01
 0.1265022613509E-01  0.3655412199221E+00  0.7563829033854E-01 -0.1201087175167E+01
-0.1593827164024E-01  0.3520287854845E+00  0.6721810377048E-01 -0.1282375416995E+01
-0.4280645638699E-01  0.3326943641626E+00  0.5797758241906E-01 -0.1349182602312E+01
-0.6692182401520E-01  0.3077397868237E+00  0.4816359327940E-01 -0.1403867750101E+01
-0.8798107752931E-01  0.2778251530891E+00  0.3796881567773E-01 -0.1448856935834E+01
-0.1061875382781E+00  0.2438767912879E+00  0.2753785101229E-01 -0.1486425078171E+01
-0.1220321839637E+00  0.2069187972938E+00  0.1697732291900E-01 -0.1518581828110E+01
-0.1361147670115E+00  0.1679504519594E+00  0.6367137084455E-02 -0.1547031144802E+01
-0.1490154970718E+00  0.1278716543570E+00 -0.4228768605979E-02 -0.1573173084476E+01
-0.1612116457997E+00  0.8744695120090E-01 -0.1475293913960E-01 -0.1598123935739E+01
-0.1730267070031E+00  0.4729373356668E-01 -0.2514659506199E-01 -0.1622740916976E+01
-0.1845983820885E+00  0.7885676419841E-02 -0.3534254166038E-01 -0.1647644608053E+01
-0.1958484415858E+00 -0.3031349763236E-01 -0.4523238851764E-01 -0.1673234325946E+01
-0.2064547972535E+00 -0.6675119324498E-01 -0.5464119891392E-01 -0.1699692932850E+01
-0.2158472976919E+00 -0.1010772677064E+00 -0.6338491402416E-01 -0.1727017808735E+01
-0.2232130608704E+00 -0.1333733072753E+00 -0.7131727469183E-01 -0.1755071257352E+01
-0.2274968108280E+00 -0.1640498865846E+00 -0.7830934064942E-01 -0.1783595750413E+01
-0.2274113632829E+00 -0.1937356872609E+00 -0.8422941136387E-01 -0.1812222702773E+01
-0.2214635660846E+00 -0.2232185680755E+00 -0.8893642815727E-01 -0.1840478216455E+01
-0.2079964918673E+00 -0.2534165872624E+00 -0.9228261720107E-01 -0.1867782101756E+01
-0.1852475555834E+00 -0.2853579003006E+00 -0.9412109257933E-01 -0.1893438437906E+01
-0.1514233450063E+00 -0.3201564388333E+00 -0.9431595817333E-01 -0.1916616081637E+01
-0.1047932390242E+00 -0.3589785904124E+00 -0.9275436726946E-01 -0.1936321426651E+01
-0.4380369763024E-01 -0.4030235972709E+00 -0.8936546031189E-01 -0.1951371581175E+01
 0.3279333391739E-01 -0.4534837508979E+00 -0.8413808464986E-01 -0.1960372794600E+01
 0.1257976420771E+00 -0.5114356493380E+00 -0.7712760260146E-01 -0.1961692973363E+01
 0.2353981271215E+00 -0.5777222324160E+00 -0.6846482207910E-01 -0.1953436215376E+01
 0.3609991459850E+00 -0.6528513823071E+00 -0.5837044813422E-01 -0.1933433154725E+01
 0.5010495298376E+00 -0.7368905772410E+00 -0.4716821018354E-01 -0.1899245835847E+01
 0.6528887843548E+00 -0.8293680498406E+00 -0.3529585362310E-01 -0.1848191833681E+01
 0.8126376622221E+00 -0.9292004261792E+00 -0.2331255313880E-01 -0.1777394739168E+01
 0.9752139202405E+00 -0.1034695179144E+01 -0.1189625195805E-01 -0.1683863552349E+01
 0.1134636714608E+01 -0.1143693930133E+01 -0.1811443132036E-02 -0.1564553936838E+01
 0.1284234030916E+01 -0.1253548832721E+01  0.6137039730374E-02 -0.1416255192029E+01
 0.1416407004385E+01 -0.1360908345130E+01  0.1109973201654E-01 -0.1235439654560E+01
 0.1522726767225E+01 -0.1461858716530E+01  0.1217361032058E-01 -0.1018257983060E+01
 0.1594364715379E+01 -0.1552212714528E+01  0.8430400295815E-02 -0.7604979216020E+00
 0.1519242357537E+00  0.6226350304960E+00  0.1549118555583E+00 -0.7069577284718E+00
 0.1379131767181E+00  0.6236522267018E+00  0.1523130829536E+00 -0.8555132557563E+00
 0.1126462589010E+00  0.6239341380032E+00  0.1473160815760E+00 -0.9875444605219E+00
 0.8052990476324E-01  0.6210454716209E+00  0.1403150773677E+00 -0.1101367276154E+01
 0.4564134344938E-01  0.6129799147122E+00  0.1317242535952E+00 -0.1197042047028E+01
 0.1120516413123E-01  0.5984688017485E+00  0.1219347949929E+00 -0.1275974997044E+01
-0.2063522625435E-01  0.5770655773245E+00  0.1112860718723E+00 -0.1340400568986E+01
-0.4877864529441E-01  0.5490412962176E+00  0.1000525316755E+00 -0.1392898786683E+01
-0.7295855670450E-01  0.5151760745652E+00  0.8844350489005E-01 -0.1436037109947E+01
-0.9347370011855E-01  0.4765308135253E+00  0.7661142382296E-01 -0.1472155839545E+01
-0.1109339065966E+00  0.4342550215462E+00  0.6466422395350E-01 -0.1503271423493E+01
-0.1260598261993E+00  0.3894529334403E+00  0.5267862223317E-01 -0.1531056970180E+01
-0.1395445661131E+00  0.3431067334282E+00  0.4071243406968E-01 -0.1556862108581E+01
-0.1519675876169E+00  0.2960435751163E+00  0.2881519792926E-01 -0.1581745633893E+01
-0.1637447830436E+00  0.2489286757486E+00  0.1703677879488E-01 -0.1606506962517E+01
-0.1750982176882E+00  0.2022738678983E+00  0.5435130123003E-02 -0.1631710676794E+01
-0.1860261747418E+00  0.1565869881477E+00 -0.5887837406539E-02 -0.1657698037272E+01
-0.1962742117245E+00  0.1124816562633E+00 -0.1675851134197E-01 -0.1684586791984E+01
-0.2053317181206E+00  0.7036020749330E-01 -0.2699430252770E-01 -0.1712306805033E+01
-0.2124383238887E+00  0.3016451783301E-01 -0.3645476175436E-01 -0.1740656137769E+01
-0.2165846114745E+00 -0.8509855801093E-02 -0.4501889412595E-01 -0.1769315421628E+01
-0.2165241178827E+00 -0.4629055424914E-01 -0.5256293520963E-01 -0.1797855743924E+01
-0.2108022769455E+00 -0.8396194018306E-01 -0.5895284430418E-01 -0.1825744853141E+01
-0.1978025047040E+00 -0.1224316890107E+00 -0.6404683969731E-01 -0.1852347572898E+01
-0.1758083274118E+00 -0.1627081013068E+00 -0.6770328675258E-01 -0.1876918423345E+01
-0.1430817292071E+00 -0.2058740388390E+00 -0.6979115464918E-01 -0.1898584998056E+01
-0.9795947195459E-01 -0.2530527210278E+00 -0.7020243964258E-01 -0.1916324679898E+01
-0.3896909231381E-01 -0.3053905863825E+00 -0.6887193676554E-01 -0.1928944376766E+01
 0.3504234412163E-01 -0.3640203243415E+00 -0.6579559702440E-01 -0.1935066886533E+01
 0.1247661891107E+00 -0.4299507052994E+00 -0.6103690414726E-01 -0.1933109330233E+01
 0.2302709649120E+00 -0.5039483648490E+00 -0.5473548080302E-01 -0.1921262857408E+01
 0.3508308735377E+00 -0.5864393662851E+00 -0.4712169925166E-01 -0.1897487731878E+01
 0.4847576717371E+00 -0.6774073855902E+00 -0.3852994334476E-01 -0.1859520087174E+01
 0.6292502099773E+00 -0.7762987773831E+00 -0.2940971391940E-01 -0.1804894185813E+01
 0.7802885382004E+00 -0.8819547391621E+00 -0.2033324049532E-01 -0.1730987565876E+01
 0.9326528250235E+00 -0.9926209884184E+00 -0.1199363285771E-01 -0.1635094637693E+01
 0.1080229075665E+01 -0.1106103062949E+01 -0.5174797534021E-02 -0.1514487620868E+01
 0.1216207278112E+01 -0.1219728515068E+01 -0.7042474016579E-03 -0.1366280451489E+01
 0.1332835368651E+01 -0.1330102976011E+01  0.5464785362761E-03 -0.1187224375689E+01
 0.1421526097679E+01 -0.1433263152645E+01 -0.2347411028240E-02 -0.9736750012865E+00
 0.1473298069828E+01 -0.1524988588558E+01 -0.1033810390016E-01 -0.7215707910226E+00
 0.2103023469344E+00  0.8673707860306E+00  0.2155346298047E+00 -0.7075796516293E+00
 0.1904915916925E+00  0.8703221031422E+00  0.2121627421284E+00 -0.8563228384164E+00
 0.1584407380042E+00  0.8722399562206E+00  0.2061361419166E+00 -0.9875162342176E+00
 0.1192856122596E+00  0.8702891717444E+00  0.1979149597500E+00 -0.1099568736939E+01
 0.7771619426162E-01  0.8621727576081E+00  0.1879777931750E+00 -0.1192802248095E+01
 0.3737130508344E-01  0.8464828853344E+00  0.1767708407177E+00 -0.1268961500663E+01
 0.6000245958658E-03  0.8227751893507E+00  0.1646750452432E+00 -0.1330604337226E+01
-0.3145843867327E-01  0.7914208297402E+00  0.1519924804783E+00 -0.1380558745157E+01
-0.5860722139556E-01  0.7533468638872E+00  0.1389479305688E+00 -0.1421543691889E+01
-0.8126780542848E-01  0.7097670528923E+00  0.1256998513658E+00 -0.1455963074991E+01
-0.1001876026647E+00  0.6619653452274E+00  0.1123555501868E+00 -0.1485832131033E+01
-0.1162186809364E+00  0.6111525049600E+00  0.9898676627974E-01 -0.1512783343740E+01
-0.1301714179931E+00  0.5583897827873E+00  0.8564367423504E-01 -0.1538107069891E+01
-0.1427281486879E+00  0.5045614437803E+00  0.7236666009682E-01 -0.1562797874712E+01
-0.1543962911197E+00  0.4503746989968E+00  0.5919568245751E-01 -0.1587592883294E+01
-0.1654813245629E+00  0.3963746328025E+00  0.4617866233605E-01 -0.1612997975460E+01
-0.1760577523952E+00  0.3431098371482E+00  0.3341041744845E-01 -0.1639294336496E+01
-0.1859392027210E+00  0.2912532164896E+00  0.2106280306758E-01 -0.1666532201558E+01
-0.1946753911576E+00  0.2412589418286E+00  0.9316710273045E-02 -0.1694571569023E+01
-0.2015591608618E+00  0.1930931143665E+00 -0.1693209324289E-02 -0.1723144803421E+01
-0.2056272258857E+00  0.1463591203184E+00 -0.1185362129009E-01 -0.1751870238779E+01
-0.2056735096601E+00  0.1004328893570E+00 -0.2104812437427E-01 -0.1780259190798E+01
-0.2002810327790E+00  0.5453685385762E-01 -0.2914883621863E-01 -0.1807722626810E+01
-0.1878718269981E+00  0.7777663972342E-02 -0.3601883314188E-01 -0.1833572866398E+01
-0.1667728787188E+00 -0.4082881744209E-01 -0.4152033985087E-01 -0.1857018026711E+01
-0.1352976184115E+00 -0.9233016187175E-01 -0.4552555673502E-01 -0.1877147957519E+01
-0.9184443624258E-01 -0.1478028747198E+00 -0.4792946290668E-01 -0.1892914600595E+01
-0.3501383481609E-01 -0.2083383229232E+00 -0.4867043227310E-01 -0.1903118165162E+01
 0.3626291246925E-01 -0.2750091381360E+00 -0.4774924584487E-01 -0.1906401362581E+01
 0.1225825681106E+00 -0.3487580428222E+00 -0.4523509561637E-01 -0.1901233407668E+01
 0.2239097779573E+00 -0.4302795533478E+00 -0.4127395569312E-01 -0.1885894552495E+01
 0.3394070260804E+00 -0.5199243016962E+00 -0.3610345566113E-01 -0.1858475742619E+01
 0.4672681878183E+00 -0.6176001606045E+00 -0.3006639500525E-01 -0.1816887136550E+01
 0.6045698709156E+00 -0.7226802762958E+00 -0.2362208142803E-01 -0.1758878508779E+01
 0.7471673686413E+00 -0.8339386260489E+00 -0.1735425174012E-01 -0.1682079355130E+01
 0.8897150427713E+00 -0.9495658978139E+00 -0.1197017118687E-01 -0.1584067734485E+01
 0.1025970978814E+01 -0.1067336032202E+01 -0.8273010800923E-02 -0.1462433225482E+01
 0.1148981366867E+01 -0.1184551988567E+01 -0.7114124446161E-02 -0.1314618802447E+01
 0.1250819715404E+01 -0.1297767019042E+01 -0.9389460867456E-02 -0.1137658616768E+01
 0.1322710538045E+01 -0.1402951178509E+01 -0.1604812833204E-01 -0.9281074434875E+00
 0.1355511905987E+01 -0.1495849621403E+01 -0.2806754350154E-01 -0.6820429396314E+00
 0.2689422851807E+00  0.1113986571149E+01  0.2765857753874E+00 -0.7089628652190E+00
 0.2429276748613E+00  0.1119005832436E+01  0.2723867055184E+00 -0.8578591083642E+00
 0.2036856226278E+00  0.1122640152246E+01  0.2652651589275E+00 -0.9880090566628E+00
 0.1571634950567E+00  0.1121614986011E+01  0.2557557000246E+00 -0.1097945081568E+01
 0.1087143685415E+00  0.1113328962785E+01  0.2444086699072E+00 -0.1188309482148E+01
 0.6240075745832E-01  0.1096249555377E+01  0.2317300660201E+00 -0.1261248674134E+01
 0.2075478079481E-01  0.1069967290282E+01  0.2181444174659E+00 -0.1319692453890E+01
-0.1508444205527E-01  0.1034990477509E+01  0.2039812101304E+00 -0.1366743320366E+01
-0.4502847444216E-01  0.9924238385091E+00  0.1894790756368E+00 -0.1405278668064E+01
-0.6965225048200E-01  0.9436536036476E+00  0.1748002732378E+00 -0.1437760184575E+01
-0.8986073817966E-01  0.8901067402553E+00  0.1600492028000E+00 -0.1466190383597E+01
-0.1066477977574E+00  0.8331007520867E+00  0.1452905930309E+00 -0.1492148931093E+01
-0.1209446227911E+00  0.7737711055416E+00  0.1305652984957E+00 -0.1516856764497E+01
-0.1335361047755E+00  0.7130521571364E+00  0.1159032121993E+00 -0.1541237082144E+01
-0.1450194465711E+00  0.6516860317577E+00  0.1013333185473E+00 -0.1565960448784E+01
-0.1557820013741E+00  0.5902452374310E+00  0.8689264850619E-01 -0.1591471907602E+01
-0.1659739097194E+00  0.5293151554805E+00  0.7266825023506E-01 -0.1617991235086E+01
-0.1754772192017E+00  0.4696258867840E+00  0.5882973439309E-01 -0.1645499381889E+01
-0.1839027374628E+00  0.4116828684841E+00  0.4555602688310E-01 -0.1673784628787E+01
-0.1905971209751E+00  0.3554769969118E+00  0.3297597567872E-01 -0.1702512574620E+01
-0.1946432547945E+00  0.3006209800532E+00  0.2119554536758E-01 -0.1731239125313E+01
-0.1948747785707E+00  0.2464966584495E+00  0.1032437612960E-01 -0.1759416693599E+01
-0.1899109428308E+00  0.1923364370391E+00  0.4850988488992E-03 -0.1786401337647E+01
-0.1782103691319E+00  0.1372652240364E+00 -0.8189029141121E-02 -0.1811455593080E+01
-0.1581406647752E+00  0.8032747143121E-01 -0.1556263890069E-01 -0.1833744429577E+01
-0.1280626898492E+00  0.2051535234249E-01 -0.2150946782187E-01 -0.1852323362802E+01
-0.8643074563014E-01 -0.4319705368913E-01 -0.2592556025017E-01 -0.1866122103066E+01
-0.3191030765130E-01 -0.1118433825281E+00 -0.2875073846431E-01 -0.1873937051325E+01
 0.3649387359554E-01 -0.1864353055229E+00 -0.2998828683233E-01 -0.1874433371950E+01
 0.1192975828146E+00 -0.2678507798800E+00 -0.2971063985581E-01 -0.1866134289468E+01
 0.2163778154874E+00 -0.3567158486405E+00 -0.2806760704886E-01 -0.1847410225533E+01
 0.3268034681537E+00 -0.4533115305623E+00 -0.2530161285874E-01 -0.1816483000113E+01
 0.4486694104717E+00 -0.5574773090533E+00 -0.2176158004059E-01 -0.1771436149143E+01
 0.5789481360994E+00 -0.6685212164815E+00 -0.1791461634336E-01 -0.1710233597105E+01
 0.7133859813145E+00 -0.7851577076263E+00 -0.1435434547625E-01 -0.1630755054210E+01
 0.8465235670845E+00 -0.9055289234341E+00 -0.1180107144578E-01 -0.1530861054027E+01
 0.9719974681413E+00 -0.1027382400910E+01 -0.1107698671877E-01 -0.1408460443582E+01
 0.1082705856992E+01 -0.1147998659422E+01 -0.1305856068062E-01 -0.1261332757906E+01
 0.1170524708759E+01 -0.1263869319924E+01 -0.1866892251130E-01 -0.1086805350550E+01
 0.1226451561500E+01 -0.1370873316175E+01 -0.2888435136548E-01 -0.8816279486364E+00
 0.1241182861171E+01 -0.1464719248503E+01 -0.4470727813258E-01 -0.6419875475418E+00
 0.3278625202153E+00  0.1362699392446E+01  0.3381123875706E+00 -0.7111669040911E+00
 0.2951720122748E+00  0.1369942356876E+01  0.3330228787925E+00 -0.8601698859864E+00
 0.2482679795622E+00  0.1375383952848E+01  0.3247303913209E+00 -0.9890389280329E+00
 0.1940070964220E+00  0.1375264200149E+01  0.3138542639910E+00 -0.1096468985964E+01
 0.1384622184619E+00  0.1366664101182E+01  0.3010252684143E+00 -0.1183494326794E+01
 0.8612570870809E-01  0.1347947405478E+01  0.2868146271112E+00 -0.1252736432464E+01
 0.3968148373604E-01  0.1318780865490E+01  0.2716924738937E+00 -0.1307549834583E+01
 0.2214550750066E-03  0.1279854060563E+01  0.2560151069426E+00 -0.1351336793915E+01
-0.3231961757626E-01  0.1232483958981E+01  0.2400328718577E+00 -0.1387135711204E+01
-0.5870416735842E-01  0.1178249722467E+01  0.2239091143582E+00 -0.1417455342304E+01
-0.8001553648008E-01  0.1118728838521E+01  0.2077426635038E+00 -0.1444269962771E+01
-0.9739912556112E-01  0.1055343845307E+01  0.1915889468041E+00 -0.1469091632925E+01
-0.1119092500158E+00  0.9892975523168E+00  0.1754776630750E+00 -0.1493060440722E+01
-0.1244317436527E+00  0.9215656228735E+00  0.1594267782198E+00 -0.1517020788557E+01
-0.1356508022012E+00  0.8529166360946E+00  0.1434531689163E+00 -0.1541572768487E+01
-0.1460334396056E+00  0.7839437126719E+00  0.1275820565144E+00 -0.1567099157027E+01
-0.1558045564516E+00  0.7152644364363E+00  0.1118919776643E+00 -0.1593757783653E+01
-0.1649149384240E+00  0.6476636823042E+00  0.9654975021475E-01 -0.1621459241926E+01
-0.1730372888504E+00  0.5816973925401E+00  0.8173202195585E-01 -0.1649918771752E+01
-0.1795726150697E+00  0.5173816480858E+00  0.6756180760998E-01 -0.1678734528028E+01
-0.1836497906900E+00  0.4543397696019E+00  0.5413799658908E-01 -0.1707400189079E+01
-0.1841411655447E+00  0.3919616674175E+00  0.4156410099391E-01 -0.1735310468652E+01
-0.1797005158911E+00  0.3294928031258E+00  0.2995845789336E-01 -0.1761768731031E+01
-0.1688207674776E+00  0.2660803228372E+00  0.1945191136178E-01 -0.1785990741010E+01
-0.1499071924229E+00  0.2008018976376E+00  0.1017894119463E-01 -0.1807101730399E+01
-0.1213640930520E+00  0.1326942429977E+00  0.2266030022913E-02 -0.1824126225140E+01
-0.8169610752433E-01  0.6078634124396E-01 -0.4181953318390E-02 -0.1835974584760E+01
-0.2962590716777E-01 -0.1589453584172E-01 -0.9104088737560E-02 -0.1841441701692E+01
 0.3577875410355E-01 -0.9829762821160E-01 -0.1250377500793E-01 -0.1839216921412E+01
 0.1149660235973E+00 -0.1872368055261E+00 -0.1445415660116E-01 -0.1827878439474E+01
 0.2077412118902E+00 -0.2832726636061E+00 -0.1510629056827E-01 -0.1805886932557E+01
 0.3130975278925E+00 -0.3866218168531E+00 -0.1470485801123E-01 -0.1771594423984E+01
 0.4290495268778E+00 -0.4970621945214E+00 -0.1360253373140E-01 -0.1723256586506E+01
 0.5524836045562E+00 -0.6138442732623E+00 -0.1227213392409E-01 -0.1659049924686E+01
 0.6790529481294E+00 -0.7356302128490E+00 -0.1131545311252E-01 -0.1577102822653E+01
 0.8031968660193E+00 -0.8605197483524E+00 -0.1146457663745E-01 -0.1475557509968E+01
 0.9184384498080E+00 -0.9862398108822E+00 -0.1356027241690E-01 -0.1352644331397E+01
 0.1017527002402E+01 -0.1110054288166E+01 -0.1850545742858E-01 -0.1206489196669E+01
 0.1092117369841E+01 -0.1228387517435E+01 -0.2725402992490E-01 -0.1034731980603E+01
 0.1132924377679E+01 -0.1336991785586E+01 -0.4081348218966E-01 -0.8343206761919E+00
 0.1130477312823E+01 -0.1431525408752E+01 -0.6020962008299E-01 -0.6014915210606E+00
 0.3870809829193E+00  0.1613742688484E+01  0.4001647402436E+00 -0.7142612241657E+00
 0.3471659280117E+00  0.1623389174855E+01  0.3941110264460E+00 -0.8633101010179E+00
 0.2920587539458E+00  0.1630738453860E+01  0.3845594472915E+00 -0.9906222109077E+00
 0.2296419283174E+00  0.1631491496335E+01  0.3722266904771E+00 -0.1095105462726E+01
 0.1667712333661E+00  0.1622399976932E+01  0.3578342473918E+00 -0.1178273572930E+01
 0.1083695771424E+00  0.1601753708897E+01  0.3420246623044E+00 -0.1243308410393E+01
 0.5723020326548E-01  0.1569347681642E+01  0.3253155818292E+00 -0.1294046082212E+01
 0.1433992298207E-01  0.1526104884412E+01  0.3080889660697E+00 -0.1334211271514E+01
-0.2057253693963E-01  0.1473592855252E+01  0.2906040679929E+00 -0.1367000188175E+01
-0.4849427766732E-01  0.1413604305217E+01  0.2730220095782E+00 -0.1394952005949E+01
-0.7070811219570E-01  0.1347872871026E+01  0.2554329555724E+00 -0.1419992755080E+01
-0.8851951896875E-01  0.1277921873610E+01  0.2378804744729E+00 -0.1443549401163E+01
-0.1031065416008E+00  0.1205012163975E+01  0.2203811277589E+00 -0.1466668559780E+01
-0.1154527318386E+00  0.1130149934378E+01  0.2029394435319E+00 -0.1490108276048E+01
-0.1263252520023E+00  0.1054120263893E+01  0.1855590051433E+00 -0.1514394782745E+01
-0.1362678146201E+00  0.9775290446840E+00  0.1682522485199E+00 -0.1539848017766E+01
-0.1455789190945E+00  0.9010208510159E+00  0.1510883886357E+00 -0.1566564243887E+01
-0.1542784399959E+00  0.8254325963399E+00  0.1342308332690E+00 -0.1594383401553E+01
-0.1621018884291E+00  0.7513698003186E+00  0.1178535841341E+00 -0.1622946924104E+01
-0.1685051403159E+00  0.6788739489768E+00  0.1020737632532E+00 -0.1651785235601E+01
-0.1726626602777E+00  0.6075800647501E+00  0.8698348219063E-01 -0.1680330322531E+01
-0.1734841567058E+00  0.5368881101892E+00  0.7268079177970E-01 -0.1707920767821E+01
-0.1696558832074E+00  0.4660596231650E+00  0.5928074887487E-01 -0.1733809855800E+01
-0.1597025614915E+00  0.3942680775129E+00  0.4691310390333E-01 -0.1757169955381E+01
-0.1420641305362E+00  0.3206292919456E+00  0.3571303281406E-01 -0.1777090189719E+01
-0.1151844791317E+00  0.2442297818057E+00  0.2580906091937E-01 -0.1792567425327E+01
-0.7761326278505E-01  0.1641583238980E+00  0.1730901248052E-01 -0.1802495256648E+01
-0.2812289046664E-01  0.7950692027332E-01  0.1027680611447E-01 -0.1805668796668E+01
 0.3416601789755E-01 -0.1060907264846E-01  0.4711389120023E-02 -0.1800802498817E+01
 0.1096470007521E+00 -0.1069393964563E+00  0.5415208672395E-03 -0.1786529536588E+01
 0.1980693990767E+00 -0.2099815188170E+00 -0.2382423983574E-02 -0.1761399934069E+01
 0.2983684772045E+00 -0.3198922012959E+00 -0.4304744882423E-02 -0.1723894358263E+01
 0.4084971141963E+00 -0.4363940825944E+00 -0.5579393762755E-02 -0.1672438757619E+01
 0.5252736738193E+00 -0.5586871366353E+00 -0.6682692662790E-02 -0.1605420409517E+01
 0.6442741717105E+00 -0.6853880238239E+00 -0.8222770545209E-02 -0.1521214991306E+01
 0.7598493205223E+00 -0.8145597808420E+00 -0.1094209222700E-01 -0.1418246008951E+01
 0.8654182951451E+00 -0.9439143379589E+00 -0.1569920879669E-01 -0.1295066991893E+01
 0.9535864632060E+00 -0.1070709261199E+01 -0.2342455994757E-01 -0.1150159804885E+01
 0.1015768428900E+01 -0.1191306880456E+01 -0.3510769083424E-01 -0.9815073879252E+00
 0.1042313724410E+01 -0.1301285278306E+01 -0.5179431155094E-01 -0.7862808932428E+00
 0.1023542220713E+01 -0.1396202661752E+01 -0.7453208931841E-01 -0.5606633097883E+00
 0.4466148107142E+00  0.1867369343619E+01  0.4627968377629E+00 -0.7183264167753E+00
 0.3988393898172E+00  0.1879625676054E+01  0.4556930199645E+00 -0.8673422545437E+00
 0.3349095187624E+00  0.1888991446823E+01  0.4447801997449E+00 -0.9927745020701E+00
 0.2638724636008E+00  0.1890566330331E+01  0.4308877652072E+00 -0.1093809214268E+01
 0.1934363613277E+00  0.1880764169425E+01  0.4148401123322E+00 -0.1172546952535E+01
 0.1289469105763E+00  0.1857842477689E+01  0.3973578835741E+00 -0.1232829103622E+01
 0.7324969139785E-01  0.1821789624328E+01  0.3790078687928E+00 -0.1279033667352E+01
 0.2715576065117E-01  0.1773823082702E+01  0.3601957740379E+00 -0.1315225994904E+01
-0.9872136317770E-02  0.1715802621085E+01  0.3411861020376E+00 -0.1344749349924E+01
-0.3908560966980E-01  0.1649754279248E+01  0.3221337387158E+00 -0.1370149629343E+01
-0.6198755808420E-01  0.1577570615424E+01  0.3031166159847E+00 -0.1393279684487E+01
-0.8005017104080E-01  0.1500868232164E+01  0.2841636164589E+00 -0.1415461192274E+01
-0.9457362540200E-01  0.1420953885361E+01  0.2652760559446E+00 -0.1437633658957E+01
-0.1066340373397E+00  0.1338851324317E+01  0.2464434610678E+00 -0.1460461294569E+01
-0.1170760971499E+00  0.1255350590664E+01  0.2276549020952E+00 -0.1484393811660E+01
-0.1265164393499E+00  0.1171061446076E+01  0.2089090044583E+00 -0.1509688767767E+01
-0.1353257428330E+00  0.1086649623032E+01  0.1902647788751E+00 -0.1536382292584E+01
-0.1435934363327E+00  0.1003001051525E+01  0.1718815255996E+00 -0.1564244235911E+01
-0.1511189453905E+00  0.9207697606407E+00  0.1539301653438E+00 -0.1592842041995E+01
-0.1574135588559E+00  0.8400227011444E+00  0.1365218304920E+00 -0.1621638503411E+01
-0.1616967187395E+00  0.7604074783839E+00  0.1197421537132E+00 -0.1650004789082E+01
-0.1629137730084E+00  0.6813359142098E+00  0.1036844297853E+00 -0.1677225320022E+01
-0.1597810549563E+00  0.6020886085065E+00  0.8846151202821E-01 -0.1702506382409E+01
-0.1508523875769E+00  0.5218696320047E+00  0.7420344999128E-01 -0.1724980769389E+01
-0.1345994171606E+00  0.4398382811193E+00  0.6104777370141E-01 -0.1743705420980E+01
-0.1095020051891E+00  0.3551367122380E+00  0.4912694214184E-01 -0.1757652917954E+01
-0.7414987915057E-01  0.2669190941856E+00  0.3855384358150E-01 -0.1765702416388E+01
-0.2735815586092E-01  0.1743467603637E+00  0.2939772133861E-01 -0.1766650427420E+01
 0.3170939539751E-01  0.7660265209061E-01  0.2166240982042E-01 -0.1759236644803E+01
 0.1034043733869E+00 -0.2699796502552E-01  0.1528128189998E-01 -0.1742148265756E+01
 0.1874356203430E+00 -0.1368909434309E+00  0.1010893553306E-01 -0.1714022734899E+01
 0.2826981047399E+00 -0.2531770308632E+00  0.5904214863320E-02 -0.1673466873343E+01
 0.3871017623355E+00 -0.3755292561327E+00  0.2314501275037E-02 -0.1619074360263E+01
 0.4974151754526E+00 -0.5031037222900E+00 -0.1137709384428E-02 -0.1549441196420E+01
 0.6091535269108E+00 -0.6344778724343E+00 -0.5064869180184E-02 -0.1463189041031E+01
 0.7165919186920E+00 -0.7676835212878E+00 -0.1021832067142E-01 -0.1359022724577E+01
 0.8130555504698E+00 -0.9004217074747E+00 -0.1747323166135E-01 -0.1235820017449E+01
 0.8910182539022E+00 -0.1029955872989E+01 -0.2778752423141E-01 -0.1092423146883E+01
 0.9416521006869E+00 -0.1152614643987E+01 -0.4219250928868E-01 -0.9271967365813E+00
 0.9548257615891E+00 -0.1263755699036E+01 -0.6178598841013E-01 -0.7376101056476E+00
 0.9204912309513E+00 -0.1358694582315E+01 -0.8764067157869E-01 -0.5196470306513E+00
 0.5064800021429E+00  0.2123855379949E+01  0.5260670842575E+00 -0.7234556683136E+00
 0.4501083752129E+00  0.2138957190899E+01  0.5178131209384E+00 -0.8723368829753E+00
 0.3766485089142E+00  0.2150454718163E+01  0.5054206529468E+00 -0.9955090522255E+00
 0.2964786672368E+00  0.2152774295949E+01  0.4898505999364E+00 -0.1092521214347E+01
 0.2182343315438E+00  0.2141989091860E+01  0.4720446917147E+00 -0.1166193123360E+01
 0.1476636480520E+00  0.2116381809549E+01  0.4528090982675E+00 -0.1221140565095E+01
 0.8758892436229E-01  0.2076215370205E+01  0.4327608653621E+00 -0.1262346015347E+01
 0.3855988523622E-01  0.2023072502676E+01  0.4123264837265E+00 -0.1294226806430E+01
-0.2944990101140E-03  0.1959149380385E+01  0.3917709821129E+00 -0.1320252775116E+01
-0.3053208653261E-01  0.1886722939304E+01  0.3712381760862E+00 -0.1342944624863E+01
-0.5389500199194E-01  0.1807843382790E+01  0.3507896813867E+00 -0.1364051845270E+01
-0.7202607175871E-01  0.1724209087184E+01  0.3304366080090E+00 -0.1384768066337E+01
-0.8634328128598E-01  0.1637157363610E+01  0.3101628210867E+00 -0.1405911318865E+01
-0.9800791664916E-01  0.1547714200521E+01  0.2899412610949E+00 -0.1428044856762E+01
-0.1079351802158E+00  0.1456661430517E+01  0.2697452540797E+00 -0.1451540162684E+01
-0.1168099853229E+00  0.1364602711118E+01  0.2495585488776E+00 -0.1476594087801E+01
-0.1250735571524E+00  0.1272218493959E+01  0.2294289907802E+00 -0.1503185259709E+01
-0.1328855633618E+00  0.1180440447220E+01  0.2095109798935E+00 -0.1531014943418E+01
-0.1401107488411E+00  0.1089969926947E+01  0.1899718384520E+00 -0.1559577015128E+01
-0.1463164356661E+00  0.1000899249616E+01  0.1709165653369E+00 -0.1588267108867E+01
-0.1507662014796E+00  0.9128892622582E+00  0.1524246144270E+00 -0.1616396791454E+01
-0.1524389104583E+00  0.8253652745271E+00  0.1345852748192E+00 -0.1643198738195E+01
-0.1500782140875E+00  0.7376299338693E+00  0.1175103457074E+00 -0.1667835872546E+01
-0.1422641918660E+00  0.6489224348531E+00  0.1013316501074E+00 -0.1689405776716E+01
-0.1274973640293E+00  0.5584513967129E+00  0.8619080782107E-01 -0.1706937517151E+01
-0.1042903134545E+00  0.4654211736794E+00  0.7222617312124E-01 -0.1719382868654E+01
-0.7126839706380E-01  0.3690577665073E+00  0.5955787477618E-01 -0.1725608653746E+01
-0.2728295453479E-01  0.2685973546755E+00  0.4826288074731E-01 -0.1724413426036E+01
 0.2846829987705E-01  0.1632944105411E+00  0.3835254265512E-01 -0.1714561462206E+01
 0.9630728073755E-01  0.5253105502034E-01  0.2976766759515E-01 -0.1694792055161E+01
 0.1759175485252E+00 -0.6406754338693E-01  0.2237000136099E-01 -0.1663827087590E+01
 0.2661714024277E+00 -0.1865491664404E+00  0.1592444743475E-01 -0.1620396043392E+01
 0.3649547523150E+00 -0.3145423377406E+00  0.1008248306513E-01 -0.1563257044412E+01
 0.4690051719242E+00 -0.4471654958146E+00  0.4367935287010E-02 -0.1491212383658E+01
 0.5737933941185E+00 -0.5829629694242E+00 -0.1833915088468E-02 -0.1403128782891E+01
 0.6735333443730E+00 -0.7199395031779E+00 -0.9281231899279E-02 -0.1297991989436E+01
 0.7614635794996E+00 -0.8557908208829E+00 -0.1886544855779E-01 -0.1175007350643E+01
 0.8299438280794E+00 -0.9877861330506E+00 -0.3156846146464E-01 -0.1033370817579E+01
 0.8699389022810E+00 -0.1112284937591E+01 -0.4846920778420E-01 -0.8718557227120E+00
 0.8707147083417E+00 -0.1224432539020E+01 -0.7074356718986E-01 -0.6883974492778E+00
 0.8213737623917E+00 -0.1318961097744E+01 -0.9951746855346E-01 -0.4786522555485E+00
 0.5666909463560E+00  0.2383504527610E+01  0.5900391035855E+00 -0.7297565230480E+00
 0.5008715295497E+00  0.2401719949814E+01  0.5805183045231E+00 -0.8783729906335E+00
 0.4170757555062E+00  0.2415467905095E+01  0.5665087405619E+00 -0.9988345555110E+00
 0.3272120097159E+00  0.2418418386666E+01  0.5491260874591E+00 -0.1091164284416E+01
 0.2409220689440E+00  0.2406310356518E+01  0.5294464929818E+00 -0.1159064755242E+01
 0.1643178999476E+00  0.2377530309249E+01  0.5083696494146E+00 -0.1208058634767E+01
 0.1000992622820E+00  0.2332716260107E+01  0.4865631117281E+00 -0.1243795576279E+01
 0.4845180720561E-01  0.2273897092030E+01  0.4644697867682E+00 -0.1271045871941E+01
 0.8095231580962E-02  0.2203650646830E+01  0.4423491822736E+00 -0.1293373153962E+01
-0.2287700468257E-01  0.2124518271150E+01  0.4203282595569E+00 -0.1313231627172E+01
-0.4646265941032E-01  0.2038701084438E+01  0.3984476909429E+00 -0.1332231856511E+01
-0.6447551286050E-01  0.1947962945205E+01  0.3766974920822E+00 -0.1351414435852E+01
-0.7844377309334E-01  0.1853652844767E+01  0.3550418196253E+00 -0.1371461232487E+01
-0.8960397397550E-01  0.1756781269099E+01  0.3334354639933E+00 -0.1392828107338E+01
-0.9893309293931E-01  0.1658107033891E+01  0.3118347928370E+00 -0.1415807796952E+01
-0.1071787753183E+00  0.1558216657242E+01  0.2902075807092E+00 -0.1440539527601E+01
-0.1148510090492E+00  0.1457798282569E+01  0.2685894587062E+00 -0.1466948403344E+01
-0.1221807355854E+00  0.1357825811336E+01  0.2471290188326E+00 -0.1494669640111E+01
-0.1290998457705E+00  0.1259046650934E+01  0.2259893644003E+00 -0.1523124583798E+01
-0.1352324419434E+00  0.1161578218150E+01  0.2052691583000E+00 -0.1551642534666E+01
-0.1398851401041E+00  0.1065095012814E+01  0.1850419772994E+00 -0.1579477017036E+01
-0.1420677368595E+00  0.9690372747944E+00  0.1653939100516E+00 -0.1605811883858E+01
-0.1405480517202E+00  0.8727327239868E+00  0.1464369366354E+00 -0.1629770990677E+01
-0.1339294641350E+00  0.7754605545395E+00  0.1283062199928E+00 -0.1650421735529E+01
-0.1207387590707E+00  0.6764851949622E+00  0.1111492888346E+00 -0.1666770103071E+01
-0.9951848475581E-01  0.5750806100125E+00  0.9511242646863E-01 -0.1677750714176E+01
-0.6892582664906E-01  0.4705520544060E+00  0.8032524674833E-01 -0.1682219977516E+01
-0.2784253130750E-01  0.3622171183827E+00  0.6687491841155E-01 -0.1678978617669E+01
 0.2450833584596E-01  0.2494068474405E+00  0.5478303747362E-01 -0.1666814051252E+01
 0.8843077977551E-01  0.1315731763866E+00  0.4400079188808E-01 -0.1644514750450E+01
 0.1635980280085E+00  0.8402754449569E-02  0.3440015700421E-01 -0.1610882948439E+01
 0.2488773392856E+00 -0.1201013972734E+00  0.2575518878622E-01 -0.1564766216197E+01
 0.3421499208124E+00 -0.2535277800772E+00  0.1772442841116E-01 -0.1505082941477E+01
 0.4401415152094E+00 -0.3909631120196E+00  0.9835680784514E-02 -0.1430838931184E+01
 0.5382962683229E+00 -0.5309243128373E+00  0.1474391119100E-02 -0.1341144948993E+01
 0.6307783686495E+00 -0.6713934243287E+00 -0.8123011256894E-02 -0.1235269193901E+01
 0.7107583581271E+00 -0.8100608329019E+00 -0.1986049525090E-01 -0.1112741890384E+01
 0.7704606794975E+00 -0.9442149501618E+00 -0.3475085465068E-01 -0.9731276735972E+00
 0.8007807552609E+00 -0.1070218359996E+01 -0.5388752175005E-01 -0.8155246349731E+00
 0.7903148863489E+00 -0.1183402557088E+01 -0.7861753531926E-01 -0.6386807508833E+00
 0.7261648430076E+00 -0.1276926980883E+01 -0.1101524292164E+00 -0.4379920162431E+00
 0.6272597784438E+00  0.2646653943641E+01  0.6547827541739E+00 -0.7373530235759E+00
 0.5510058870363E+00  0.2668287208648E+01  0.6438586287312E+00 -0.8855383944686E+00
 0.4559570863469E+00  0.2684402998798E+01  0.6280720263879E+00 -0.1002752056131E+01
 0.3557909163484E+00  0.2687820004129E+01  0.6087221931662E+00 -0.1089637357297E+01
 0.2612353475011E+00  0.2673964152864E+01  0.5870399088207E+00 -0.1150982539168E+01
 0.1787014553207E+00  0.2641432314157E+01  0.5640267623001E+00 -0.1193368707988E+01
 0.1106373803683E+00  0.2591361226175E+01  0.5403997293613E+00 -0.1223171998529E+01
 0.5674265381339E-01  0.2526316763595E+01  0.5166118911798E+00 -0.1245501802197E+01
 0.1524524758153E-01  0.2449302523411E+01  0.4929095615434E+00 -0.1263967514136E+01
-0.1615143615262E-01  0.2363131327011E+01  0.4693959851663E+00 -0.1280905110244E+01
-0.3971291668699E-01  0.2270141430608E+01  0.4460857094315E+00 -0.1297745453674E+01
-0.5741966371718E-01  0.2172140357579E+01  0.4229441450748E+00 -0.1315349461604E+01
-0.7089876024862E-01  0.2070466181451E+01  0.3999134901997E+00 -0.1334248368834E+01
-0.8144929962722E-01  0.1966093746820E+01  0.3769288950552E+00 -0.1354785262505E+01
-0.9009946174737E-01  0.1859742466682E+01  0.3539286062609E+00 -0.1377175054271E+01
-0.9765315127703E-01  0.1751969653353E+01  0.3308633053455E+00 -0.1401504022337E+01
-0.1046872676123E+00  0.1643463544275E+01  0.3077552599185E+00 -0.1427649225938E+01
-0.1115055700317E+00  0.1535236566227E+01  0.2847462034821E+00 -0.1455183484225E+01
-0.1181094892124E+00  0.1428080820653E+01  0.2619942701922E+00 -0.1483457271138E+01
-0.1241808316466E+00  0.1322138370391E+01  0.2395915113190E+00 -0.1511734697499E+01
-0.1290678506730E+00  0.1217097492452E+01  0.2176059315984E+00 -0.1539213154095E+01
-0.1318081518325E+00  0.1112414602512E+01  0.1961212930583E+00 -0.1565031179883E+01
-0.1311901484677E+00  0.1007445607024E+01  0.1752510943227E+00 -0.1588278646705E+01
-0.1258374948827E+00  0.9015150328546E+00  0.1551355099061E+00 -0.1607998593221E+01
-0.1143009673561E+00  0.7939503873305E+00  0.1359298860204E+00 -0.1623179303244E+01
-0.9515096587852E-01  0.6841036624523E+00  0.1177905410700E+00 -0.1632742135102E+01
-0.6707349487402E-01  0.5713679115371E+00  0.1008588848355E+00 -0.1635534853116E+01
-0.2897569201797E-01  0.4551498850079E+00  0.8523483986808E-01 -0.1630359982495E+01
 0.1990190267898E-01  0.3348634806743E+00  0.7095307772794E-01 -0.1616025857885E+01
 0.7985660190617E-01  0.2100346721548E+00  0.5797825567614E-01 -0.1591366212441E+01
 0.1505659338041E+00  0.8041326259052E-01  0.4619583996729E-01 -0.1555258384006E+01
 0.2309098065593E+00 -0.5394806290769E-01  0.3539234925770E-01 -0.1506662251261E+01
 0.3187844555478E+00 -0.1926016176421E+00  0.2523656795719E-01 -0.1444651268458E+01
 0.4109241399881E+00 -0.3346080722317E+00  0.1526321377871E-01 -0.1368431366968E+01
 0.5027639428047E+00 -0.4784628628208E+00  0.4860216069207E-02 -0.1277356792228E+01
 0.5884353380517E+00 -0.6221285194556E+00 -0.6738636381203E-02 -0.1170979448119E+01
 0.6610363741703E+00 -0.7632911822225E+00 -0.2045096191519E-01 -0.1049158308512E+01
 0.7127248218176E+00 -0.8992527028492E+00 -0.3730557676222E-01 -0.9118100471710E+00
 0.7340850434954E+00 -0.1026402033859E+01 -0.5846339894389E-01 -0.7584131643769E+00
 0.7144303898195E+00 -0.1140225079510E+01 -0.8515893920698E-01 -0.5880732819667E+00
 0.6340431408652E+00 -0.1233438690685E+01 -0.1198791117503E+00 -0.3985380076544E+00
 0.6881954895473E+00  0.2913681448983E+01  0.7203753984406E+00 -0.7463883254202E+00
 0.6003613405202E+00  0.2939076879226E+01  0.7078876544976E+00 -0.8939298869673E+00
 0.4930166960937E+00  0.2957669584351E+01  0.6901372663727E+00 -0.1007250611183E+01
 0.3818956317514E+00  0.2961319469575E+01  0.6686430302288E+00 -0.1087808023581E+01
 0.2788879096678E+00  0.2945183228192E+01  0.6448142371804E+00 -0.1141727921157E+01
 0.1906022936086E+00  0.2908211584788E+01  0.6197627849145E+00 -0.1176821094824E+01
 0.1190691493443E+00  0.2852190620349E+01  0.5942519627937E+00 -0.1200240589122E+01
 0.6335879262530E-01  0.2780322744193E+01  0.5687363158385E+00 -0.1217400354486E+01
 0.2111972070051E-01  0.2696076823087E+01  0.5434393168553E+00 -0.1231889004887E+01
-0.1037260789025E-01  0.2602534740638E+01  0.5184324342747E+00 -0.1245861406500E+01
-0.3365749062473E-01  0.2502149323962E+01  0.4936983740242E+00 -0.1260523323353E+01
-0.5087224649715E-01  0.2396743793169E+01  0.4691743163256E+00 -0.1276528583755E+01
-0.6372730218155E-01  0.2287618961507E+01  0.4447783384929E+00 -0.1294244217968E+01
-0.7356869234897E-01  0.2175691659947E+01  0.4204245997843E+00 -0.1313896612301E+01
-0.8146331330317E-01  0.2061624064853E+01  0.3960321562113E+00 -0.1335625436827E+01
-0.8826392008042E-01  0.1945931232618E+01  0.3715334680438E+00 -0.1359470464307E+01
-0.9461250360254E-01  0.1829293334611E+01  0.3469361713715E+00 -0.1385267838533E+01
-0.1008878842545E+00  0.1712757419859E+01  0.3223739119247E+00 -0.1412532836944E+01
-0.1071641640413E+00  0.1597158838779E+01  0.2979989393881E+00 -0.1440547333309E+01
-0.1131820006402E+00  0.1482663613234E+01  0.2738963266001E+00 -0.1468511669169E+01
-0.1183295038334E+00  0.1368973579136E+01  0.2501288187876E+00 -0.1495569371130E+01
-0.1216683176444E+00  0.1255562365713E+01  0.2267788129930E+00 -0.1520817860238E+01
-0.1220034060730E+00  0.1141817336728E+01  0.2039627891702E+00 -0.1543319057552E+01
-0.1179756571997E+00  0.1027114275340E+01  0.1818277263374E+00 -0.1562098420644E+01
-0.1081580305417E+00  0.9108519804279E+00  0.1605387923695E+00 -0.1576132615093E+01
-0.9114747040452E-01  0.7924700464668E+00  0.1402645173026E+00 -0.1584333931549E+01
-0.6565674209044E-01  0.6714591297898E+00  0.1211604793453E+00 -0.1585543140140E+01
-0.3061429617738E-01  0.5473242040653E+00  0.1033419831175E+00 -0.1578563714881E+01
 0.1472889975731E-01  0.4195696776617E+00  0.8685971677811E-01 -0.1562221920398E+01
 0.7067403114051E-01  0.2878012246888E+00  0.7169505223421E-01 -0.1535391825314E+01
 0.1369171896760E+00  0.1518348852581E+00  0.5775041584736E-01 -0.1497019411904E+01
 0.2123686436442E+00  0.1177306890608E-01  0.4482834317805E-01 -0.1446169750936E+01
 0.2949600672064E+00 -0.1319034148269E+00  0.3261133096185E-01 -0.1382064911267E+01
 0.3814553832620E+00 -0.2782347788581E+00  0.2064412118840E-01 -0.1304106794542E+01
 0.4673009304087E+00 -0.4257010482196E+00  0.8319976561800E-02 -0.1211892649463E+01
 0.5466067372769E+00 -0.5722492532508E+00 -0.5128503271199E-02 -0.1105260958428E+01
 0.6124205164021E+00 -0.7155580883401E+00 -0.2062751469497E-01 -0.9844033764655E+00
 0.6567708838682E+00 -0.8529396047793E+00 -0.3923374476684E-01 -0.8495800244539E+00
 0.6702837466801E+00 -0.9807987628023E+00 -0.6210300414986E-01 -0.7006653353729E+00
 0.6413696737812E+00 -0.1094680305627E+01 -0.9066212772008E-01 -0.5368443216346E+00
 0.5543842504276E+00 -0.1187368322193E+01 -0.1265968162395E+00 -0.3597982001372E+00
 0.7495026873968E+00  0.3185014796370E+01  0.7869035084791E+00 -0.7570279115054E+00
 0.6487534243677E+00  0.3214561116938E+01  0.7726629197746E+00 -0.9036530621958E+00
 0.5279279119380E+00  0.3235720891047E+01  0.7527297718135E+00 -0.1012301190262E+01
 0.4051625308900E+00  0.3239275649707E+01  0.7288876469807E+00 -0.1085502830268E+01
 0.2935713971191E+00  0.3220190901803E+01  0.7027524702562E+00 -0.1131034356445E+01
 0.1998084627910E+00  0.3177963044748E+01  0.6755543115744E+00 -0.1158126101132E+01
 0.1252746615464E+00  0.3115208802565E+01  0.6480967024797E+00 -0.1174741329041E+01
 0.6824608299496E-01  0.3035872464651E+01  0.6208237187801E+00 -0.1186535943500E+01
 0.2570163427983E-01  0.2943918239338E+01  0.5939239835737E+00 -0.1196989365302E+01
-0.5542334316359E-02  0.2842681498771E+01  0.5674278413463E+00 -0.1208001167166E+01
-0.2829672133220E-01  0.2734696523268E+01  0.5412799684528E+00 -0.1220503172834E+01
-0.4483934128046E-01  0.2621767714561E+01  0.5153856823359E+00 -0.1234915164328E+01
-0.5694396654758E-01  0.2505128764759E+01  0.4896369669385E+00 -0.1251428096426E+01
-0.6598496685250E-01  0.2385614222128E+01  0.4639258579682E+00 -0.1270149575490E+01
-0.7305351946533E-01  0.2263809954787E+01  0.4381512935933E+00 -0.1291148451983E+01
-0.7904287829031E-01  0.2140174786157E+01  0.4122263877160E+00 -0.1314426337027E+01
-0.8465844740363E-01  0.2015372083199E+01  0.3861427329130E+00 -0.1339787382450E+01
-0.9035727438508E-01  0.1890479398288E+01  0.3600244301454E+00 -0.1366695467355E+01
-0.9629019966129E-01  0.1766373763101E+01  0.3340167176652E+00 -0.1394366730898E+01
-0.1022581401214E+00  0.1643244164690E+01  0.3081972095063E+00 -0.1421939386259E+01
-0.1076867881404E+00  0.1520805361319E+01  0.2826237188470E+00 -0.1448505748677E+01
-0.1116572689001E+00  0.1398549020121E+01  0.2573783540793E+00 -0.1473127142121E+01
-0.1129865331522E+00  0.1275897485615E+01  0.2325821939583E+00 -0.1494844713043E+01
-0.1103297140864E+00  0.1152284478063E+01  0.2083909559006E+00 -0.1512674243415E+01
-0.1022807642532E+00  0.1027189425107E+01  0.1849817349273E+00 -0.1525587677430E+01
-0.8746285258767E-01  0.9001504149313E+00  0.1625375148907E+00 -0.1532492792131E+01
-0.6461456799390E-01  0.7707668985362E+00  0.1412304682130E+00 -0.1532224918546E+01
-0.3268267342560E-01  0.6386525665587E+00  0.1211939804326E+00 -0.1523587165266E+01
 0.9077535194346E-02  0.5034115142573E+00  0.1024978114177E+00 -0.1505419997017E+01
 0.6098092229483E-01  0.3647364025609E+00  0.8514346623988E-01 -0.1476631895607E+01
 0.1227559286931E+00  0.2225142363529E+00  0.6905403403818E-01 -0.1436229765062E+01
 0.1933609083814E+00  0.7689866242782E-01  0.5405191496729E-01 -0.1383375262295E+01
 0.2707839856220E+00 -0.7159854785298E-01  0.3983708814743E-01 -0.1317431085708E+01
 0.3518416887818E+00 -0.2220026032426E+00  0.2596781749480E-01 -0.1237989869825E+01
 0.4320123379626E+00 -0.3727851752224E+00  0.1184543272454E-01 -0.1144891205135E+01
 0.5054031535412E+00 -0.5218817856972E+00 -0.3295726480303E-02 -0.1038265409050E+01
 0.5650051216890E+00 -0.6669630850816E+00 -0.2039159298239E-01 -0.9186391021185E+00
 0.6027722438066E+00 -0.8053314978747E+00 -0.4051185141728E-01 -0.7866355003504E+00
 0.6091595633204E+00 -0.9334372820110E+00 -0.6485554470453E-01 -0.6423883642529E+00
 0.5726757644832E+00 -0.1046564005355E+01 -0.9477764958663E-01 -0.4858704490402E+00
 0.4805607493973E+00 -0.1139331547438E+01 -0.1317541615715E+00 -0.3190619209272E+00
 0.8111798518316E+00  0.3461143691289E+01  0.8544647213566E+00 -0.7694635717061E+00
 0.6959537999045E+00  0.3495278471451E+01  0.8382464667620E+00 -0.9148215497737E+00
 0.5603016872547E+00  0.3519060678712E+01  0.8158724853508E+00 -0.1017848058981E+01
 0.4251780047009E+00  0.3522064082300E+01  0.7894484291640E+00 -0.1082494640671E+01
 0.3049566073734E+00  0.3499192325390E+01  0.7608297978899E+00 -0.1118576900549E+01
 0.2061137879738E+00  0.3450742071893E+01  0.7313711828716E+00 -0.1136949088243E+01
 0.1291546050126E+00  0.3380375382951E+01  0.7019060080520E+00 -0.1146388825024E+01
 0.7137474018667E-01  0.3292884121716E+01  0.6728517824068E+00 -0.1152694241545E+01
 0.2899569824356E-01  0.3192741751778E+01  0.6443474996058E+00 -0.1159122204689E+01
-0.1645606577725E-02  0.3083504112609E+01  0.6163717103909E+00 -0.1167232285348E+01
-0.2361906591078E-01  0.2967741658723E+01  0.5888245273365E+00 -0.1177632007293E+01
-0.3931935251291E-01  0.2847198888335E+01  0.5615759155326E+00 -0.1190482203250E+01
-0.5055904822628E-01  0.2723009544954E+01  0.5344901073100E+00 -0.1205788484121E+01
-0.5871934265029E-01  0.2595900271933E+01  0.5074361934180E+00 -0.1223539794338E+01
-0.6489931714112E-01  0.2466360618535E+01  0.4802922674357E+00 -0.1243740516758E+01
-0.7002341515645E-01  0.2334778326235E+01  0.4529509889652E+00 -0.1266364423732E+01
-0.7485902881952E-01  0.2201790581236E+01  0.4253863168221E+00 -0.1291194523394E+01
-0.7994578092524E-01  0.2068501035986E+01  0.3977110569385E+00 -0.1317650814176E+01
-0.8551648185284E-01  0.1935826633744E+01  0.3700620358926E+00 -0.1344887127057E+01
-0.9143399943055E-01  0.1803977910235E+01  0.3425087872647E+00 -0.1371981343979E+01
-0.9715868030580E-01  0.1672681393932E+01  0.3151045474206E+00 -0.1397977650388E+01
-0.1017856097727E+00  0.1541447411351E+01  0.2879323646062E+00 -0.1421907303495E+01
-0.1041385880467E+00  0.1409737205358E+01  0.2611197273533E+00 -0.1442799230624E+01
-0.1028841507047E+00  0.1277050084119E+01  0.2348331901821E+00 -0.1459668759013E+01
-0.9663685221545E-01  0.1142956770295E+01  0.2092639867341E+00 -0.1471490926314E+01
-0.8404695418215E-01  0.1007106207291E+01  0.1846118533728E+00 -0.1477173949025E+01
-0.6387922782150E-01  0.8692193280920E+00  0.1610680224542E+00 -0.1475549194059E+01
-0.3509696467535E-01  0.7290305613451E+00  0.1387867214020E+00 -0.1465417650996E+01
 0.3045243919047E-02  0.5862545152153E+00  0.1178599535831E+00 -0.1445629555804E+01
 0.5088486099324E-01  0.4406799526049E+00  0.9831296418461E-01 -0.1415120921227E+01
 0.1081958561064E+00  0.2922715044645E+00  0.8009347330767E-01 -0.1372950560179E+01
 0.1740022659935E+00  0.1412373420375E+00  0.6304792254568E-01 -0.1318366449507E+01
 0.2463704641291E+00 -0.1188076347529E-01  0.4689794082960E-01 -0.1250862073742E+01
 0.3221939861028E+00 -0.1660984406886E+00  0.3121910954805E-01 -0.1170213903361E+01
 0.3970076379114E+00 -0.3198870241972E+00  0.1542412297267E-01 -0.1076503117667E+01
 0.4649313597105E+00 -0.4711775955441E+00 -0.1249247185344E-02 -0.9701571832283E+00
 0.5189131047020E+00 -0.6176278498749E+00 -0.1974294932876E-01 -0.8520522592728E+00
 0.5507982998512E+00 -0.7565340743266E+00 -0.4114715550821E-01 -0.7231548300973E+00
 0.5509568793644E+00 -0.8842937558544E+00 -0.6666737629143E-01 -0.5839431647897E+00
 0.5082251395181E+00 -0.9963937289676E+00 -0.9763371934475E-01 -0.4348981770968E+00
 0.4113423481372E+00 -0.1088112409377E+01 -0.1353540142649E+00 -0.2780817556452E+00
 0.8732168499302E+00  0.3742635600385E+01  0.9231705038193E+00 -0.7839183649434E+00
 0.7416775786076E+00  0.3781849419545E+01  0.9047054131117E+00 -0.9275552352442E+00
 0.5896722487886E+00  0.3808250879973E+01  0.8795846388593E+00 -0.1023796546702E+01
 0.4414722197956E+00  0.3810072638362E+01  0.8503089843021E+00 -0.1078486165574E+01
 0.3126968316728E+00  0.3782361912708E+01  0.8190117610803E+00 -0.1103960027826E+01
 0.2093259895182E+00  0.3726550773184E+01  0.7871753642703E+00 -0.1112905962961E+01
 0.1306381682267E+00  0.3647595098020E+01  0.7556466645094E+00 -0.1114873723608E+01
 0.7274472628129E-01  0.3551231154851E+01  0.7247951870267E+00 -0.1115656194797E+01
 0.3103118387338E-01  0.3442430523986E+01  0.6946923519236E+00 -0.1118147209488E+01
 0.1350528753857E-02  0.3324914362802E+01  0.6652529882242E+00 -0.1123473273562E+01
-0.1960086921747E-01  0.3201230687064E+01  0.6363259730512E+00 -0.1131868561944E+01
-0.3430316624841E-01  0.3073016956690E+01  0.6077427671444E+00 -0.1143214072729E+01
-0.4457889952355E-01  0.2941272126131E+01  0.5793386539542E+00 -0.1157324353525E+01
-0.5179190284918E-01  0.2806588740847E+01  0.5509593758095E+00 -0.1174072253013E+01
-0.5703089288625E-01  0.2669339474694E+01  0.5224617241468E+00 -0.1193405928658E+01
-0.6124119051217E-01  0.2529825303799E+01  0.4937168300142E+00 -0.1215283607778E+01
-0.6525110215518E-01  0.2388647088011E+01  0.4646792040955E+00 -0.1239480039118E+01
-0.6968865217200E-01  0.2246929748634E+01  0.4354482257810E+00 -0.1265380321338E+01
-0.7487527999104E-01  0.2105628022216E+01  0.4061505544972E+00 -0.1292079918875E+01
-0.8073777753989E-01  0.1964971980612E+01  0.3768468462298E+00 -0.1318598266610E+01
-0.8676733852742E-01  0.1824698135690E+01  0.3475861646120E+00 -0.1343935014563E+01
-0.9206630717268E-01  0.1684335936746E+01  0.3184539306600E+00 -0.1367098643696E+01
-0.9545957968788E-01  0.1543390048337E+01  0.2895860980450E+00 -0.1387116080608E+01
-0.9562252883807E-01  0.1401434261719E+01  0.2611623504678E+00 -0.1403012928278E+01
-0.9119093485722E-01  0.1258142817890E+01  0.2333903800844E+00 -0.1413776131780E+01
-0.8084442443758E-01  0.1113289487715E+01  0.2064890157324E+00 -0.1418319713289E+01
-0.6337578140236E-01  0.9667309451460E+00  0.1806710354409E+00 -0.1415472473370E+01
-0.3776438967699E-01  0.8183359707335E+00  0.1561143185376E+00 -0.1404031120434E+01
-0.3260285214366E-02  0.6679422787385E+00  0.1329364006857E+00 -0.1382850604204E+01
 0.4050448618941E-01  0.5154459002664E+00  0.1111900789480E+00 -0.1350886703691E+01
 0.9336180122419E-01  0.3608980305048E+00  0.9085196769960E-01 -0.1307239842205E+01
 0.1544186944960E+00  0.2045668677275E+00  0.7179711351456E-01 -0.1251232234228E+01
 0.2218421863842E+00  0.4702479588763E-01  0.5377339725565E-01 -0.1182476004005E+01
 0.2926294925494E+00 -0.1107393463022E+00  0.3637802979152E-01 -0.1100922400315E+01
 0.3623988437585E+00 -0.2672065352625E+00  0.1903846198290E-01 -0.1006891932253E+01
 0.4253051156883E+00 -0.4203124555484E+00  0.9985320428482E-03 -0.9011178618708E+00
 0.4742549985474E+00 -0.5677061134023E+00 -0.1869022324948E-01 -0.7848371320428E+00
 0.5009801505998E+00 -0.7066530555890E+00 -0.4113458161080E-01 -0.6593772537073E+00
 0.4957873143512E+00 -0.8335443270217E+00 -0.6755140354069E-01 -0.5255345572557E+00
 0.4479352014101E+00 -0.9441335497599E+00 -0.9923967114876E-01 -0.3841151415567E+00
 0.3468436073658E+00 -0.1034353092466E+01 -0.1375018990691E+00 -0.2370652679217E+00
 0.9355913485677E+00  0.4030156855511E+01  0.9931496556149E+00 -0.8006528522149E+00
 0.7855662448589E+00  0.4074996391937E+01  0.9721125418447E+00 -0.9419767668600E+00
 0.6154792132355E+00  0.4103919701664E+01  0.9438797970449E+00 -0.1029995581435E+01
 0.4535133471523E+00  0.4103693217160E+01  0.9114413264440E+00 -0.1073088542447E+01
 0.3164343664454E+00  0.4069825483012E+01  0.8772519829635E+00 -0.1086703740778E+01
 0.2092779067888E+00  0.4005320645265E+01  0.8429197229713E+00 -0.1085559843723E+01
 0.1296925929654E+00  0.3916706461281E+01  0.8092798229086E+00 -0.1079866288952E+01
 0.7239147461001E-01  0.3810737036048E+01  0.7766257137043E+00 -0.1075203813339E+01
 0.3186444446494E-01  0.3692834630669E+01  0.7449398261272E+00 -0.1073935354587E+01
 0.3497640353639E-02  0.3566803815539E+01  0.7140603018189E+00 -0.1076657044648E+01
-0.1620649269264E-01  0.3435097875204E+01  0.6837782866914E+00 -0.1083185806203E+01
-0.2977452244377E-01  0.3299195290805E+01  0.6538841634159E+00 -0.1093108195430E+01
-0.3900636268333E-01  0.3159924791848E+01  0.6241836951340E+00 -0.1106046440664E+01
-0.4522210147934E-01  0.3017719109267E+01  0.5944994104163E+00 -0.1121762399673E+01
-0.4948001445934E-01  0.2872813433580E+01  0.5646666922384E+00 -0.1140157911056E+01
-0.5273488058667E-01  0.2725405459152E+01  0.5345341236782E+00 -0.1161189790565E+01
-0.5587526022222E-01  0.2576048564775E+01  0.5040346684212E+00 -0.1184639530823E+01
-0.5962521859051E-01  0.2425883423670E+01  0.4732516480679E+00 -0.1209867870981E+01
-0.6440321162284E-01  0.2275899851328E+01  0.4422993345319E+00 -0.1235916309553E+01
-0.7020216821374E-01  0.2126344595142E+01  0.4112284915135E+00 -0.1261747742137E+01
-0.7653913774274E-01  0.1976961592178E+01  0.3800844965508E+00 -0.1286321539256E+01
-0.8251558704637E-01  0.1827299829297E+01  0.3489568536500E+00 -0.1308632297976E+01
-0.8695112393521E-01  0.1676912839811E+01  0.3179923479135E+00 -0.1327717160730E+01
-0.8852785768438E-01  0.1525459392784E+01  0.2873863113024E+00 -0.1342624430616E+01
-0.8590468884196E-01  0.1372731275585E+01  0.2573653211837E+00 -0.1352362811371E+01
-0.7779451435204E-01  0.1218642778928E+01  0.2281696563152E+00 -0.1355857886476E+01
-0.6302159967348E-01  0.1063202173564E+01  0.2000361177588E+00 -0.1351937199897E+01
-0.4058244672681E-01  0.9064278194131E+00  0.1731690771177E+00 -0.1339390652372E+01
-0.9719971603252E-02  0.7482949936434E+00  0.1477150066091E+00 -0.1317072331057E+01
 0.2997097711750E-01  0.5888204506926E+00  0.1237582874062E+00 -0.1283949267645E+01
 0.7839152163800E-01  0.4281535777702E+00  0.1013090213913E+00 -0.1239151974261E+01
 0.1347484128366E+00  0.2666308685313E+00  0.8027585746980E-01 -0.1182062855804E+01
 0.1973322260364E+00  0.1048581325089E+00  0.6043807260966E-01 -0.1112397799972E+01
 0.2632726012682E+00 -0.5617587551301E-01  0.4141934576824E-01 -0.1030270598270E+01
 0.3283028688213E+00 -0.2149734652498E+00  0.2266588105203E-01 -0.9362369619548E+00
 0.3866384619961E+00 -0.3694899772420E+00  0.3429697001933E-02 -0.8313441616686E+00
 0.4311518617752E+00 -0.5173709129919E+00 -0.1724381050031E-01 -0.7172105549415E+00
 0.4534429263404E+00 -0.6558474271810E+00 -0.4048090077135E-01 -0.5955394908653E+00
 0.4437513047856E+00 -0.7813179708643E+00 -0.6751333422179E-01 -0.4673984267965E+00
 0.3916955853742E+00 -0.8898607908403E+00 -0.9963304257787E-01 -0.3336919453335E+00
 0.2871914006946E+00 -0.9780151850931E+00 -0.1381647589385E+00 -0.1962673902277E+00
 0.9982635566107E+00  0.4324501295986E+01  0.1064552986382E+01 -0.8199729824520E+00
 0.8271643858270E+00  0.4375569805973E+01  0.1040546853865E+01 -0.9582051748565E+00
 0.6370454033788E+00  0.4406769463590E+01  0.1008762988426E+01 -0.1036212598178E+01
 0.4607033529281E+00  0.4403307131222E+01  0.9728021113260E+00 -0.1065793593041E+01
 0.3158117510822E+00  0.4361635185788E+01  0.9354894013139E+00 -0.1066228379528E+01
 0.2058426151964E+00  0.4286891082458E+01  0.8985467529203E+00 -0.1054420078912E+01
 0.1263343513474E+00  0.4187469599356E+01  0.8627608029969E+00 -0.1041023042183E+01
 0.7039160063126E-01  0.4071170970016E+01  0.8283125264724E+00 -0.1031128086735E+01
 0.3158080788853E-01  0.3943771026040E+01  0.7950703786331E+00 -0.1026375127452E+01
 0.4865948346473E-02  0.3809045314705E+01  0.7627822639766E+00 -0.1026734988401E+01
-0.1338888108253E-01  0.3669267389636E+01  0.7311757126061E+00 -0.1031573403609E+01
-0.2571061797811E-01  0.3525702131656E+01  0.6999983131664E+00 -0.1040176572057E+01
-0.3384128379392E-01  0.3378973927681E+01  0.6690265387466E+00 -0.1051978395351E+01
-0.3902928488430E-01  0.3229331785807E+01  0.6380605096924E+00 -0.1066637248764E+01
-0.4228068141037E-01  0.3076853363386E+01  0.6069145454389E+00 -0.1084019747284E+01
-0.4454698017652E-01  0.2921615670257E+01  0.5754137465904E+00 -0.1104096965291E+01
-0.4677674182317E-01  0.2764112042507E+01  0.5434670682350E+00 -0.1126674302736E+01
-0.4979989716248E-01  0.2605492273445E+01  0.5111384828730E+00 -0.1151100347855E+01
-0.5414237533617E-01  0.2446777548746E+01  0.4785270418125E+00 -0.1176367431300E+01
-0.5986559204026E-01  0.2288227223156E+01  0.4456723328642E+00 -0.1201383802433E+01
-0.6650586891042E-01  0.2129589187346E+01  0.4126166698357E+00 -0.1225073724213E+01
-0.7315393860492E-01  0.1970432555763E+01  0.3794557290860E+00 -0.1246428869738E+01
-0.7861714782937E-01  0.1810366577433E+01  0.3463498910817E+00 -0.1264511197877E+01
-0.8158297115539E-01  0.1649147551409E+01  0.3135129207223E+00 -0.1278405976590E+01
-0.8073689294161E-01  0.1486700900236E+01  0.2811928056489E+00 -0.1287154522577E+01
-0.7483084787421E-01  0.1323098898658E+01  0.2496536138768E+00 -0.1289700049892E+01
-0.6272583682703E-01  0.1158518816469E+01  0.2191585991940E+00 -0.1284870043728E+01
-0.4343805302128E-01  0.9931453939855E+00  0.1899414710232E+00 -0.1271444773000E+01
-0.1620209974082E-01  0.8271078588377E+00  0.1621811542361E+00 -0.1248271530509E+01
 0.1942972173447E-01  0.6605596870381E+00  0.1359978837810E+00 -0.1214319548913E+01
 0.6343776149595E-01  0.4937632562680E+00  0.1114402052134E+00 -0.1168736820985E+01
 0.1151442094907E+00  0.3271350944187E+00  0.8845586209997E-01 -0.1110949847402E+01
 0.1729861860287E+00  0.1613202518787E+00  0.6686128857780E-01 -0.1040760152984E+01
 0.2342567769417E+00 -0.2695763980990E-02  0.4631220328225E-01 -0.9584277441620E+00
 0.2948410205073E+00 -0.1634504378558E+00  0.2627811692188E-01 -0.8647354641433E+00
 0.3490479684589E+00 -0.3189395891956E+00  0.6021675942396E-02 -0.7610525759258E+00
 0.3897267190943E+00 -0.4668213444551E+00 -0.1541892530193E-01 -0.6494045823329E+00
 0.4083161394500E+00 -0.6042926394380E+00 -0.3919530058165E-01 -0.5318916078232E+00
 0.3949206857290E+00 -0.7277515979199E+00 -0.6656618343009E-01 -0.4097877226298E+00
 0.3394225381043E+00 -0.8335834964266E+00 -0.9883219313718E-01 -0.2838848082499E+00
 0.2323943682534E+00 -0.9190033890122E+00 -0.1373218061980E+00 -0.1559307524004E+00
 0.1061168389696E+01  0.4626629856406E+01  0.1137559666171E+01 -0.8422401349712E+00
 0.8658876065322E+00  0.4684582156420E+01  0.1110093969132E+01 -0.9763446107916E+00
 0.6535495960500E+00  0.4717582643184E+01  0.1074226463854E+01 -0.1042097259100E+01
 0.4623772735642E+00  0.4709260544346E+01  0.1034327578995E+01 -0.1055938193086E+01
 0.3104898933861E+00  0.4657734722347E+01  0.9936449379531E+00 -0.1041839185814E+01
 0.1989532365690E+00  0.4570983445612E+01  0.9539873506517E+00 -0.1018945399601E+01
 0.1206416629329E+00  0.4459554120511E+01  0.9160391703388E+00 -0.9979975463490E+00
 0.6686804640921E-01  0.4332245345694E+01  0.8798226915310E+00 -0.9832393013235E+00
 0.3029544807411E-01  0.4195025224823E+01  0.8450641471719E+00 -0.9753796607131E+00
 0.5543532787804E-02  0.4051495645593E+01  0.8114078477671E+00 -0.9736811674806E+00
-0.1109063762348E-01  0.3903655552534E+01  0.7785129945829E+00 -0.9770399771015E+00
-0.2208294402929E-01  0.3752502011624E+01  0.7460838246364E+00 -0.9844470432968E+00
-0.2908107228306E-01  0.3598424662410E+01  0.7138687286629E+00 -0.9951577332589E+00
-0.3323317560314E-01  0.3441468323209E+01  0.6816470396785E+00 -0.1008736433979E+01
-0.3546975260263E-01  0.3281534380212E+01  0.6492129351958E+00 -0.1025026024102E+01
-0.3672464278929E-01  0.3118560749259E+01  0.6163672304785E+00 -0.1044028501449E+01
-0.3800643847207E-01  0.2952966134606E+01  0.5829919479140E+00 -0.1065592473416E+01
-0.4026335310112E-01  0.2785901017187E+01  0.5491275409997E+00 -0.1089068382170E+01
-0.4414169559859E-01  0.2618412623677E+01  0.5148541932877E+00 -0.1113404529248E+01
-0.4977365919589E-01  0.2450767133947E+01  0.4801987021058E+00 -0.1137456418323E+01
-0.5670612704028E-01  0.2282711887987E+01  0.4452011588234E+00 -0.1160119716609E+01
-0.6400722590673E-01  0.2113837311462E+01  0.4099660232200E+00 -0.1180396833331E+01
-0.7046462604416E-01  0.1943817323362E+01  0.3746705450465E+00 -0.1197391953156E+01
-0.7477089619799E-01  0.1772520945565E+01  0.3395500149332E+00 -0.1210243476401E+01
-0.7564347453092E-01  0.1600025625845E+01  0.3048764348059E+00 -0.1218037042857E+01
-0.7188117534094E-01  0.1426580812444E+01  0.2709399314578E+00 -0.1219739737224E+01
-0.6238888055021E-01  0.1252551564597E+01  0.2380325403563E+00 -0.1214180040160E+01
-0.4620664005004E-01  0.1078307258923E+01  0.2064201268505E+00 -0.1200125569568E+01
-0.2256097719814E-01  0.9041494229015E+00  0.1763176917680E+00 -0.1176410771815E+01
 0.9042168014804E-02  0.7303870644211E+00  0.1478858486909E+00 -0.1141997799369E+01
 0.4867061793118E-01  0.5574140798948E+00  0.1212169413715E+00 -0.1096038674375E+01
 0.9577615699809E-01  0.3857430846400E+00  0.9630384976265E-01 -0.1037985838972E+01
 0.1489649528871E+00  0.2160683068733E+00  0.7300665303997E-01 -0.9677046370076E+00
 0.2057264495762E+00  0.4937133543740E-01  0.5101955776297E-01 -0.8855796100472E+00
 0.2621397944959E+00 -0.1129355996404E+00  0.2984083941578E-01 -0.7926067682642E+00
 0.3126505097512E+00 -0.2689174833163E+00  0.8746605417317E-02 -0.6904821865111E+00
 0.3501030227214E+00 -0.4162748329345E+00 -0.1323436223982E-01 -0.5816689554732E+00
 0.3657299965131E+00 -0.5521768433105E+00 -0.3728936991514E-01 -0.4686972056527E+00
 0.3493660542121E+00 -0.6729764869676E+00 -0.6472208751554E-01 -0.3529949780322E+00
 0.2910368817577E+00 -0.7752994169448E+00 -0.9685250848065E-01 -0.2350280966796E+00
 0.1823373462231E+00 -0.8572089542515E+00 -0.1349743236170E+00 -0.1163005181752E+00
 0.1124203579113E+01  0.4937726402020E+01  0.1212386014292E+01 -0.8678839726447E+00
 0.9009777563762E+00  0.5003252921266E+01  0.1180846153124E+01 -0.9964647752131E+00
 0.6639936608193E+00  0.5037223062411E+01  0.1140243361637E+01 -0.1047128669043E+01
 0.4578092592342E+00  0.5021824337958E+01  0.1095926735769E+01 -0.1042659191290E+01
 0.3001760038925E+00  0.4957911835689E+01  0.1051617583587E+01 -0.1012712820872E+01
 0.1886280737961E+00  0.4857171011185E+01  0.1009159832034E+01 -0.9785538005446E+00
 0.1127676322911E+00  0.4732528510270E+01  0.9690592429522E+00 -0.9504565298938E+00
 0.6199385326272E-01  0.4593616034816E+01  0.9311219914905E+00 -0.9313798456783E+00
 0.2815278324908E-01  0.4446355178691E+01  0.8949016057232E+00 -0.9208945086830E+00
 0.5634533578985E-02  0.4293999525687E+01  0.8599268246671E+00 -0.9174963829970E+00
-0.9245660188574E-02  0.4138173798770E+01  0.8257856400214E+00 -0.9196149997913E+00
-0.1885834740006E-01  0.3979557435870E+01  0.7921398294978E+00 -0.9259641520086E+00
-0.2472125337600E-01  0.3818281436341E+01  0.7587120478988E+00 -0.9356364948605E+00
-0.2785424550553E-01  0.3654171354548E+01  0.7252634326157E+00 -0.9481131732070E+00
-0.2908748893752E-01  0.3486935838798E+01  0.6915696802772E+00 -0.9632240134231E+00
-0.2932053047217E-01  0.3316354114032E+01  0.6574067265081E+00 -0.9810187189213E+00
-0.2962200822283E-01  0.3142752709024E+01  0.6226261494380E+00 -0.1001410410914E+01
-0.3107385950786E-01  0.2967271486987E+01  0.5872395342464E+00 -0.1023767337168E+01
-0.3445854245158E-01  0.2790975791869E+01  0.5513034580986E+00 -0.1046999216186E+01
-0.3998092139737E-01  0.2614130425768E+01  0.5148299085457E+00 -0.1069910860272E+01
-0.4718691439228E-01  0.2436476601889E+01  0.4778579446200E+00 -0.1091377884915E+01
-0.5510789686611E-01  0.2257628575278E+01  0.4405041422464E+00 -0.1110430647487E+01
-0.6250432203288E-01  0.2077337035091E+01  0.4029665486163E+00 -0.1126236207365E+01
-0.6807518967738E-01  0.1895602285561E+01  0.3655054246231E+00 -0.1138004072173E+01
-0.7057753066607E-01  0.1712674670836E+01  0.3284194329279E+00 -0.1144876456225E+01
-0.6886711866752E-01  0.1529001523966E+01  0.2920268854112E+00 -0.1145850502882E+01
-0.6190179917169E-01  0.1345155565388E+01  0.2566507570676E+00 -0.1139756572917E+01
-0.4875122411085E-01  0.1161710303322E+01  0.2225918191592E+00 -0.1125346577480E+01
-0.2863550803916E-01  0.9791598670523E+00  0.1901048746354E+00 -0.1101436272285E+01
-0.1012134577351E-02  0.7979907058171E+00  0.1593957166231E+00 -0.1066971651331E+01
 0.3428023284647E-01  0.6187511265014E+00  0.1306062738158E+00 -0.1021094842984E+01
 0.7683483952580E-01  0.4420711992631E+00  0.1037812093042E+00 -0.9632641338021E+00
 0.1254480379082E+00  0.2687097661688E+00  0.7883156199009E-01 -0.8933828035641E+00
 0.1778397005605E+00  0.9964810527911E-01  0.5549756199490E-01 -0.8119316803154E+00
 0.2303314829543E+00 -0.6376670239099E-01  0.3331295660906E-01 -0.7200973753562E+00
 0.2775608891734E+00 -0.2197057785158E+00  0.1157102230394E-01 -0.6199003181003E+00
 0.3124001078277E+00 -0.3659603388433E+00 -0.1071204636273E-01 -0.5142742400404E+00
 0.3258186474806E+00 -0.4996907380644E+00 -0.3477441863494E-01 -0.4062363820858E+00
 0.3071758956908E+00 -0.6171278015646E+00 -0.6199038209848E-01 -0.2973550468796E+00
 0.2464532562430E+00 -0.7150185141078E+00 -0.9371305296941E-01 -0.1875293644297E+00
 0.1367543408429E+00 -0.7925157610352E+00 -0.1311522859928E+00 -0.7764344792661E-01
 0.1187211264269E+01  0.5259278283865E+01  0.1289297928839E+01 -0.8974189230747E+00
 0.9314396936999E+00  0.5333067892370E+01  0.1252901535884E+01 -0.1018567020681E+01
 0.6671642876556E+00  0.5366626259505E+01  0.1206758127414E+01 -0.1050538152537E+01
 0.4462308793034E+00  0.5341129768499E+01  0.1157472146808E+01 -0.1024837853776E+01
 0.2846651122602E+00  0.5261734743783E+01  0.1109279987738E+01 -0.9778899941426E+00
 0.1750011695725E+00  0.5144846350186E+01  0.1063969519806E+01 -0.9326427395131E+00
 0.1029526150868E+00  0.5005853437750E+01  0.1021761225793E+01 -0.8981024429960E+00
 0.5599348747902E-01  0.4854886831685E+01  0.9821760784684E+00 -0.8754392344537E+00
 0.2532393963532E-01  0.4697497760799E+01  0.9445643541620E+00 -0.8629056035870E+00
 0.5256203284271E-02  0.4536395005883E+01  0.9083302553685E+00 -0.8582117953568E+00
-0.7781365027699E-02  0.4372732335559E+01  0.8729902071148E+00 -0.8593501116690E+00
-0.1600029164469E-01  0.4206830791869E+01  0.8381661125345E+00 -0.8647894551432E+00
-0.2075594356189E-01  0.4038548411815E+01  0.8035585056245E+00 -0.8734814938621E+00
-0.2291387760884E-01  0.3867484098104E+01  0.7689140555568E+00 -0.8848350907876E+00
-0.2317792149676E-01  0.3693140849774E+01  0.7339925965928E+00 -0.8986752293625E+00
-0.2239362976549E-01  0.3515118225405E+01  0.6985449295370E+00 -0.9151148644357E+00
-0.2168910768329E-01  0.3333628739961E+01  0.6623879363260E+00 -0.9341546264598E+00
-0.2229891621550E-01  0.3149785798091E+01  0.6254973856956E+00 -0.9551986351578E+00
-0.2516071778185E-01  0.2964660827007E+01  0.5879000306055E+00 -0.9771238039210E+00
-0.3055299096813E-01  0.2778505650273E+01  0.5495905400505E+00 -0.9986868453280E+00
-0.3800548427362E-01  0.2591048860007E+01  0.5106086827552E+00 -0.1018755012745E+01
-0.4649626384984E-01  0.2401933659349E+01  0.4710874861196E+00 -0.1036408504434E+01
-0.5475148946138E-01  0.2211004255681E+01  0.4312505596700E+00 -0.1050901508502E+01
-0.6148021293623E-01  0.2018415031982E+01  0.3913869696412E+00 -0.1061534056522E+01
-0.6548931878652E-01  0.1824612622727E+01  0.3518246660306E+00 -0.1067517179518E+01
-0.6570392450905E-01  0.1630264035593E+01  0.3129120268795E+00 -0.1067883906269E+01
-0.6114581269911E-01  0.1436170100289E+01  0.2750048616160E+00 -0.1061467199054E+01
-0.5092148020030E-01  0.1243128862840E+01  0.2384414800809E+00 -0.1047000413120E+01
-0.3424770053406E-01  0.1051849262168E+01  0.2035203153594E+00 -0.1023275424091E+01
-0.1053330688579E-01  0.8630205097032E+00  0.1704974431041E+00 -0.9892137718016E+00
 0.2047984546577E-01  0.6773732877381E+00  0.1395706287205E+00 -0.9439338216450E+00
 0.5853514743936E-01  0.4956829285171E+00  0.1108436168430E+00 -0.8868779357335E+00
 0.1026377462506E+00  0.3187954828830E+00  0.8428664708269E-01 -0.8179572011949E+00
 0.1507718667149E+00  0.1477022057422E+00  0.5969481538095E-01 -0.7377128257169E+00
 0.1995553992946E+00 -0.1632663256139E-01  0.3664575389271E-01 -0.6474877834153E+00
 0.2438885323372E+00 -0.1716121970259E+00  0.1445526727765E-01 -0.5496111412308E+00
 0.2767268761935E+00 -0.3161087945681E+00 -0.7876383792288E-02 -0.4475180336709E+00
 0.2887222141506E+00 -0.4470159767177E+00 -0.3165875298517E-01 -0.3448047039368E+00
 0.2684738798820E+00 -0.5603484328775E+00 -0.5837491146895E-01 -0.2432359872074E+00
 0.2055800195112E+00 -0.6527731260731E+00 -0.8943862264512E-01 -0.1418707193176E+00
 0.9519124914222E-01 -0.7247966021945E+00 -0.1259210724868E+00 -0.4027058386107E-01
 0.1249948886318E+01  0.5593195561897E+01  0.1368628910037E+01 -0.9314652156665E+00
 0.9559509256465E+00  0.5675857384164E+01  0.1326361681726E+01 -0.1042525385926E+01
 0.6615913505284E+00  0.5706767597290E+01  0.1273671808543E+01 -0.1051195828776E+01
 0.4268707135153E+00  0.5667066827701E+01  0.1218787526405E+01 -0.1001034600499E+01
 0.2638996694761E+00  0.5568469715069E+01  0.1166473894291E+01 -0.9362815846214E+00
 0.1583571936892E+00  0.5433189940957E+01  0.1118309443593E+01 -0.8806242697633E+00
 0.9153347020569E-01  0.5278882426486E+01  0.1074083195343E+01 -0.8407030110740E+00
 0.4914043258045E-01  0.5115619340172E+01  0.1032951969943E+01 -0.8153705191894E+00
 0.2200189981833E-01  0.4948178087431E+01  0.9940360122622E+00 -0.8014467212927E+00
 0.4534749242146E-02  0.4778520266394E+01  0.9566110173818E+00 -0.7958917467895E+00
-0.6621494569886E-02  0.4607244471229E+01  0.9201246090428E+00 -0.7963196578766E+00
-0.1347028395285E-01  0.4434286452866E+01  0.8841632469578E+00 -0.8010011236335E+00
-0.1717816420245E-01  0.4259229636858E+01  0.8484103071734E+00 -0.8087740081007E+00
-0.1843418202932E-01  0.4081449238058E+01  0.8126030233144E+00 -0.8189848134996E+00
-0.1778891424784E-01  0.3900235074822E+01  0.7764892436855E+00 -0.8314572034186E+00
-0.1600996564296E-01  0.3714984623114E+01  0.7397949425180E+00 -0.8463796516286E+00
-0.1428275790781E-01  0.3525768367173E+01  0.7022971323181E+00 -0.8638643260203E+00
-0.1401722194357E-01  0.3333650294485E+01  0.6639266244017E+00 -0.8833715558272E+00
-0.1632894359504E-01  0.3139689395264E+01  0.6246720996420E+00 -0.9037517061390E+00
-0.2156913036052E-01  0.2944108180116E+01  0.5845078186610E+00 -0.9237173422928E+00
-0.2923144405862E-01  0.2746615769870E+01  0.5434768732608E+00 -0.9421439586843E+00
-0.3822180414702E-01  0.2546894143453E+01  0.5017344753377E+00 -0.9581896235106E+00
-0.4722646616181E-01  0.2344904550629E+01  0.4595356237411E+00 -0.9712236740669E+00
-0.5497130378898E-01  0.2140983464812E+01  0.4172024384214E+00 -0.9806567219435E+00
-0.6032621580486E-01  0.1935799505827E+01  0.3750946635938E+00 -0.9857799802333E+00
-0.6230025176795E-01  0.1730261428811E+01  0.3335922403796E+00 -0.9856674413358E+00
-0.5999182572292E-01  0.1525418434864E+01  0.2930853261954E+00 -0.9791553121470E+00
-0.5255285626853E-01  0.1322313972659E+01  0.2539522270623E+00 -0.9649561184610E+00
-0.3920113560909E-01  0.1121895836027E+01  0.2165389433102E+00 -0.9418339167865E+00
-0.1929873105614E-01  0.9250850871106E+00  0.1811572739103E+00 -0.9086790298274E+00
 0.7509224308424E-02  0.7328286003149E+00  0.1480675671310E+00 -0.8645729384043E+00
 0.4112071815118E-01  0.5460824331194E+00  0.1174406320041E+00 -0.8089190979309E+00
 0.8076433737663E-01  0.3658114638703E+00  0.8931516158028E-01 -0.7416021280378E+00
 0.1247204945727E+00  0.1930369192184E+00  0.6355148370522E-01 -0.6631793601423E+00
 0.1699603075556E+00  0.2894850885849E-01  0.3978176387562E-01 -0.5751012226973E+00
 0.2117337511657E+00 -0.1249712204743E+00  0.1735250639685E-01 -0.4799685225132E+00
 0.2431717915725E+00 -0.2669410353708E+00 -0.4753848830511E-02 -0.3817354082606E+00
 0.2545829758694E+00 -0.3943048736147E+00 -0.2794437996546E-01 -0.2847085846591E+00
 0.2334374365237E+00 -0.5027803643275E+00 -0.5386858636346E-01 -0.1910193578324E+00
 0.1683350722648E+00 -0.5886233397868E+00 -0.8405765475696E-01 -0.9861179253715E-01
 0.5695260712395E-01 -0.6539084184684E+00 -0.1193911640479E+00 -0.4565453330773E-02
 0.1312042123642E+01  0.5941992652489E+01  0.1450806976845E+01 -0.9707752520132E+00
 0.9727310839354E+00  0.6033898027409E+01  0.1401325843150E+01 -0.1067982932941E+01
 0.6455091429547E+00  0.6058586147517E+01  0.1340819078074E+01 -0.1047443853235E+01
 0.3990297648982E+00  0.5999125983611E+01  0.1279631168770E+01 -0.9694193361484E+00
 0.2380517842770E+00  0.5876979594139E+01  0.1223006293907E+01 -0.8867007042818E+00
 0.1391672354772E+00  0.5721147598334E+01  0.1172062984227E+01 -0.8219802962991E+00
 0.7894617510544E-01  0.5550874312130E+01  0.1125964114225E+01 -0.7781270533119E+00
 0.4174975612627E-01  0.5375349243913E+01  0.1083419816152E+01 -0.7512065148409E+00
 0.1839416073792E-01  0.5198121609853E+01  0.1043303169665E+01 -0.7366056413511E+00
 0.3599999911342E-02  0.5020221681579E+01  0.1004764351270E+01 -0.7306354317545E+00
-0.5689475660018E-02  0.4841631542574E+01  0.9671884277950E+00 -0.7306202578825E+00
-0.1122943235747E-01  0.4661893052931E+01  0.9301327379747E+00 -0.7346926669172E+00
-0.1397990153399E-01  0.4480328888515E+01  0.8932698107070E+00 -0.7416087257311E+00
-0.1443729020504E-01  0.4296106943079E+01  0.8563339433352E+00 -0.7506602046971E+00
-0.1297172871587E-01  0.4108304439968E+01  0.8190665544556E+00 -0.7616655177738E+00
-0.1024310425866E-01  0.3916093298499E+01  0.7811700504885E+00 -0.7748945963316E+00
-0.7488866361845E-02  0.3719365202105E+01  0.7423752782108E+00 -0.7905949203904E+00
-0.6321147298608E-02  0.3519100594335E+01  0.7025558998763E+00 -0.8083056998054E+00
-0.8060054611402E-02  0.3316317247622E+01  0.6616514484616E+00 -0.8268578822594E+00
-0.1312544742833E-01  0.3111185501717E+01  0.6196120200906E+00 -0.8449268284415E+00
-0.2094911789966E-01  0.2903389181172E+01  0.5764880212448E+00 -0.8614205648647E+00
-0.3034438785155E-01  0.2692667018017E+01  0.5324645339674E+00 -0.8756109841684E+00
-0.3995506181539E-01  0.2479130536986E+01  0.4878351023034E+00 -0.8870140629623E+00
-0.4853479647957E-01  0.2263332505733E+01  0.4429595484514E+00 -0.8951702174476E+00
-0.5503265237296E-01  0.2046190851033E+01  0.3982316456661E+00 -0.8994600623470E+00
-0.5855803497951E-01  0.1828877138689E+01  0.3540638260179E+00 -0.8990024508405E+00
-0.5830007440259E-01  0.1612707928918E+01  0.3108815755356E+00 -0.8926376371168E+00
-0.5346577493240E-01  0.1398992819207E+01  0.2691054128649E+00 -0.8790561730783E+00
-0.4327942802577E-01  0.1188944290193E+01  0.2291329758478E+00 -0.8569923878905E+00
-0.2706047390053E-01  0.9837485500442E+00  0.1913376180799E+00 -0.8253010924598E+00
-0.4361509363110E-02  0.7846091699961E+00  0.1560495344519E+00 -0.7830153668844E+00
 0.2486907901423E-01  0.5927072832488E+00  0.1235152742931E+00 -0.7294762274588E+00
 0.6009234600326E-01  0.4091692029282E+00  0.9385231118479E-01 -0.6645038755395E+00
 0.9991210551570E-01  0.2350793292618E+00  0.6699828795386E-01 -0.5886191644914E+00
 0.1417090590864E+00  0.7155752862179E-01  0.4265331817722E-01 -0.5033142819734E+00
 0.1811844659173E+00 -0.8014891339314E-01  0.2020711080594E-01 -0.4113944266477E+00
 0.2117871491201E+00 -0.2186532579463E+00 -0.1373221785690E-02 -0.3173169229826E+00
 0.2235302281585E+00 -0.3416442343930E+00 -0.2362280159889E-01 -0.2262603896482E+00
 0.2023179952859E+00 -0.4445353609865E+00 -0.4844347386200E-01 -0.1410662282272E+00
 0.1346857271400E+00 -0.5226584829146E+00 -0.7759455231117E-01 -0.5838542201705E-01
 0.2102759705814E-01 -0.5796869090776E+00 -0.1117318640688E+00  0.2897680625288E-01
 0.1372907021465E+01  0.6309074478624E+01  0.1536396322912E+01 -0.1016265055405E+01
 0.9793516688897E+00  0.6410040720471E+01  0.1477878499894E+01 -0.1094166624320E+01
 0.6168357967249E+00  0.6422822021167E+01  0.1407931584558E+01 -0.1036852402697E+01
 0.3622155104944E+00  0.6336156278679E+01  0.1339674377797E+01 -0.9277130222339E+00
 0.2076306798493E+00  0.6185610419809E+01  0.1278648238985E+01 -0.8279405297032E+00
 0.1181179852655E+00  0.6007429947193E+01  0.1225109604747E+01 -0.7563421185149E+00
 0.6571716402240E-01  0.5821022032163E+01  0.1177347856781E+01 -0.7103833909666E+00
 0.3416479259487E-01  0.5633608952772E+01  0.1133554765965E+01 -0.6830735482374E+00
 0.1471305267501E-01  0.5447068581508E+01  0.1092356343114E+01 -0.6685281915619E+00
 0.2579029039246E-02  0.5261362921243E+01  0.1052788405744E+01 -0.6625770943124E+00
-0.4912264831013E-02  0.5075828326215E+01  0.1014183227389E+01 -0.6623692523069E+00
-0.9240111392090E-02  0.4889625946479E+01  0.9760771815621E+00 -0.6659706359882E+00
-0.1115183278416E-01  0.4701849175370E+01  0.9381394824966E+00 -0.6720917055153E+00
-0.1094390351114E-01  0.4511491743631E+01  0.9001095814367E+00 -0.6799740080831E+00
-0.8779803005664E-02  0.4317431237951E+01  0.8617302998298E+00 -0.6894161125131E+00
-0.5174264402889E-02  0.4118590979819E+01  0.8226833553421E+00 -0.7007644822681E+00
-0.1405936164792E-02  0.3914634936013E+01  0.7826458116319E+00 -0.7144229576893E+00
 0.6800550678502E-03  0.3706408247538E+01  0.7414176715692E+00 -0.7300343989144E+00
-0.4712007876708E-03  0.3494842323076E+01  0.6988742348718E+00 -0.7464192371682E+00
-0.5338868717699E-02  0.3280023644203E+01  0.6549369648564E+00 -0.7622286636984E+00
-0.1326012985604E-01  0.3061608917056E+01  0.6096697665248E+00 -0.7764395131712E+00
-0.2293527871315E-01  0.2839425264873E+01  0.5632980056257E+00 -0.7884833886056E+00
-0.3296860166952E-01  0.2613781302400E+01  0.5161625478374E+00 -0.7980566704403E+00
-0.4215783300532E-01  0.2385487220035E+01  0.4686658843895E+00 -0.8048455328286E+00
-0.4955004358685E-01  0.2155737808244E+01  0.4212375592083E+00 -0.8083253276717E+00
-0.5437248722183E-01  0.1925985531696E+01  0.3743226144726E+00 -0.8076620756474E+00
-0.5591995842956E-01  0.1697830524403E+01  0.3283821180879E+00 -0.8017015418368E+00
-0.5346497985424E-01  0.1472868469439E+01  0.2838807021472E+00 -0.7891131125797E+00
-0.4624471585310E-01  0.1252604202015E+01  0.2412719008276E+00 -0.7686025223668E+00
-0.3354256090478E-01  0.1038527176215E+01  0.2009969260571E+00 -0.7389883632394E+00
-0.1482767035192E-01  0.8321457223928E+00  0.1634636128440E+00 -0.6992463855442E+00
 0.1009752534957E-01  0.6349204046273E+00  0.1290035879177E+00 -0.6486319534225E+00
 0.4092819118954E-01  0.4481944864868E+00  0.9782453699296E-01 -0.5868601550620E+00
 0.7661122376482E-01  0.2731656646330E+00  0.6995537872199E-01 -0.5143553586205E+00
 0.1149867943644E+00  0.1109170444116E+00  0.4518076842846E-01 -0.4325688689623E+00
 0.1523153900171E+00 -0.3755488387942E-01  0.2295210156954E-01 -0.3444040315519E+00
 0.1825664477978E+00 -0.1714024616721E+00  0.2232797258412E-02 -0.2547401865570E+00
 0.1956454178629E+00 -0.2889959029355E+00 -0.1867009729272E-01 -0.1697806169719E+00
 0.1754577487601E+00 -0.3856285609532E+00 -0.4203416306499E-01 -0.9366233783191E-01
 0.1047272405623E+00 -0.4549875353894E+00 -0.7005206000927E-01 -0.2187052024918E-01
-0.1401111605435E-01 -0.5019379397276E+00 -0.1031898126940E+00  0.5969207824912E-01
 0.1431618213824E+01  0.6699205171415E+01  0.1626164701280E+01 -0.1069046800945E+01
 0.9724571237500E+00  0.6807857441134E+01  0.1556062936164E+01 -0.1119549930319E+01
 0.5732054640854E+00  0.6799684817504E+01  0.1474578078291E+01 -0.1015868236939E+01
 0.3163689338216E+00  0.6676006547342E+01  0.1398475117072E+01 -0.8731784439207E+00
 0.1736111017009E+00  0.6492090469187E+01  0.1333140334043E+01 -0.7589268589897E+00
 0.9612034499198E-01  0.6290553919038E+01  0.1277334871840E+01 -0.6835933688950E+00
 0.5243853037269E-01  0.6088500088426E+01  0.1228187742061E+01 -0.6376559963964E+00
 0.2673820994857E-01  0.5889955182400E+01  0.1183338696103E+01 -0.6112002261771E+00
 0.1116420716131E-01  0.5694790322579E+01  0.1141190922953E+01 -0.5974195554287E+00
 0.1588948523127E-02  0.5501834727371E+01  0.1100684751580E+01 -0.5918844635041E+00
-0.4224577579707E-02  0.5309788763424E+01  0.1061112852981E+01 -0.5917019509080E+00
-0.7467753680794E-02  0.5117469933143E+01  0.1022000451121E+01 -0.5949512086873E+00
-0.8682685621850E-02  0.4923791997260E+01  0.9830218769758E+00 -0.6003370420107E+00
-0.7970822509443E-02  0.4727627973161E+01  0.9439314441960E+00 -0.6070525096756E+00
-0.5266308519157E-02  0.4527687828490E+01  0.9044843174720E+00 -0.6148478088094E+00
-0.8917311894903E-03  0.4322627619578E+01  0.8643471905575E+00 -0.6241234475873E+00
 0.3852993644415E-02  0.4111818328982E+01  0.8231342767910E+00 -0.6354532147255E+00
 0.6855914988853E-02  0.3895889838895E+01  0.7805491624078E+00 -0.6486094878426E+00
 0.6294473913892E-02  0.3675615587138E+01  0.7363820231833E+00 -0.6624147769449E+00
 0.1647901754219E-02  0.3450954956730E+01  0.6905205819863E+00 -0.6755210418956E+00
-0.6286089098499E-02  0.3221545766401E+01  0.6430519450428E+00 -0.6870287243446E+00
-0.1607766302383E-01  0.2987357476246E+01  0.5942559714995E+00 -0.6965867631025E+00
-0.2630344395954E-01  0.2748960964395E+01  0.5445315122012E+00 -0.7041051617460E+00
-0.3582790710053E-01  0.2507471926001E+01  0.4943288111461E+00 -0.7094247879044E+00
-0.4381676064434E-01  0.2264387372557E+01  0.4441141290003E+00 -0.7121149595494E+00
-0.4963233824356E-01  0.2021452946745E+01  0.3943641275768E+00 -0.7113893013540E+00
-0.5269015361207E-01  0.1780563771555E+01  0.3455747287381E+00 -0.7061021336610E+00
-0.5233909278676E-01  0.1543619963875E+01  0.2982561786621E+00 -0.6949056645298E+00
-0.4783621102712E-01  0.1312448529683E+01  0.2529224675001E+00 -0.6764825090091E+00
-0.3843812228070E-01  0.1088885972246E+01  0.2100895731236E+00 -0.6496191851289E+00
-0.2354543753251E-01  0.8748018505637E+00  0.1702512851432E+00 -0.6132287693568E+00
-0.2830266841807E-02  0.6720012972304E+00  0.1338342080720E+00 -0.5664591363595E+00
 0.2362914550460E-01  0.4821146348773E+00  0.1011487575836E+00 -0.5088783451238E+00
 0.5513197272681E-01  0.3065236207409E+00  0.7233111977137E-01 -0.4407488359985E+00
 0.9001426100457E-01  0.1463380117583E+00  0.4727045525696E-01 -0.3633841403196E+00
 0.1251936449623E+00  0.2333572817890E-02  0.2550544393611E-01 -0.2796376072093E+00
 0.1554164228380E+00 -0.1252998969603E+00  0.6023305265295E-02 -0.1946235520511E+00
 0.1708947539840E+00 -0.2361080843855E+00 -0.1304266627465E-01 -0.1156229085574E+00
 0.1532866420703E+00 -0.3258430967137E+00 -0.3451129144294E-01 -0.4893671450470E-01
 0.7882385732745E-01 -0.3856957649225E+00 -0.6137438243355E-01  0.1028797635846E-01
-0.5014229143202E-01 -0.4204164389435E+00 -0.9411174747747E-01  0.8666311783500E-01
 0.1486681393838E+01  0.7119312367315E+01  0.1721198777879E+01 -0.1130446405520E+01
 0.9473560505802E+00  0.7231765924755E+01  0.1635824419443E+01 -0.1141222410289E+01
 0.5121285092341E+00  0.7188191487426E+01  0.1540064022281E+01 -0.9793284081884E+00
 0.2622322117291E+00  0.7015023605766E+01  0.1455451185187E+01 -0.8027442972752E+00
 0.1375607000014E+00  0.6793501817582E+01  0.1386212524173E+01 -0.6789807262211E+00
 0.7427508308483E-01  0.6568949514291E+01  0.1328644939274E+01 -0.6039821181846E+00
 0.3972474941738E-01  0.6352526506685E+01  0.1278450270271E+01 -0.5603248813068E+00
 0.1980950403635E-01  0.6143999038485E+01  0.1232761726874E+01 -0.5359197895079E+00
 0.7933739777558E-02  0.5941106756555E+01  0.1189808116996E+01 -0.5235423806313E+00
 0.7291787516961E-03  0.5741564766479E+01  0.1148458806160E+01 -0.5187551565885E+00
-0.3573337388748E-02  0.5543491783795E+01  0.1107983705792E+01 -0.5187677487692E+00
-0.5882865662598E-02  0.5345422419534E+01  0.1067907926687E+01 -0.5217556580497E+00
-0.6558309115764E-02  0.5146156690347E+01  0.1027919691564E+01 -0.5264618602434E+00
-0.5527148983332E-02  0.4944523545690E+01  0.9877992940607E+00 -0.5320325450910E+00
-0.2479810109673E-02  0.4739126734836E+01  0.9473293990615E+00 -0.5381248050169E+00
 0.2510966866975E-02  0.4528349847009E+01  0.9061721762783E+00 -0.5451434195281E+00
 0.8158114809664E-02  0.4311184697540E+01  0.8638685753426E+00 -0.5538291573590E+00
 0.1204862775992E-01  0.4087919941938E+01  0.8199937261585E+00 -0.5641080525931E+00
 0.1205995903755E-01  0.3859055841037E+01  0.7742231715517E+00 -0.5748250811334E+00
 0.7660217602899E-02  0.3624367364098E+01  0.7264055271644E+00 -0.5846806470177E+00
-0.1711101281516E-03  0.3383503656555E+01  0.6766665193684E+00 -0.5929817863069E+00
-0.9866337324171E-02  0.3136665953851E+01  0.6253599326239E+00 -0.5996646747344E+00
-0.1999974543245E-01  0.2884776087953E+01  0.5729552770417E+00 -0.6048800507243E+00
-0.2953208815938E-01  0.2629308849261E+01  0.5199553599682E+00 -0.6086200715826E+00
-0.3776822161901E-01  0.2372082833362E+01  0.4668629293055E+00 -0.6105385260629E+00
-0.4422045018628E-01  0.2115139433495E+01  0.4141838028335E+00 -0.6098951800312E+00
-0.4843913491515E-01  0.1860672617683E+01  0.3624467019544E+00 -0.6055590765521E+00
-0.4986045128511E-01  0.1610902857081E+01  0.3122084858114E+00 -0.5961742650319E+00
-0.4776882854849E-01  0.1368012193443E+01  0.2640486769134E+00 -0.5804117489172E+00
-0.4140643078999E-01  0.1134235147961E+01  0.2185657466911E+00 -0.5570362565646E+00
-0.3012698407567E-01  0.9118680830285E+00  0.1763482224184E+00 -0.5248972204763E+00
-0.1349694663115E-01  0.7031366822061E+00  0.1379279491703E+00 -0.4830157617066E+00
 0.8613698827774E-02  0.5100441909152E+00  0.1037315794943E+00 -0.4307721291829E+00
 0.3585226333658E-01  0.3342516303847E+00  0.7402077984726E-01 -0.3681989687763E+00
 0.6706740535583E-01  0.1769957132604E+00  0.4881262445061E-01 -0.2963661810034E+00
 0.9989733929265E-01  0.3892939900839E-01  0.2776534807394E-01 -0.2178960615306E+00
 0.1301321004597E+00 -0.8043068555765E-01  0.9940283128534E-02 -0.1378113699906E+00
 0.1490126689452E+00 -0.1824009565567E+00 -0.6677657621800E-02 -0.6425411201801E-01
 0.1362596949733E+00 -0.2644687500663E+00 -0.2564181140069E-01 -0.6759168750334E-02
 0.5784710211672E-01 -0.3147074077639E+00 -0.5137206189495E-01  0.3767068812510E-01
-0.9006713899682E-01 -0.3347636873250E+00 -0.8496616653045E-01  0.1086042464232E+00
 0.1535635312153E+01  0.7579948615204E+01  0.1823116812638E+01 -0.1201951998739E+01
 0.8974292378773E+00  0.7686982861218E+01  0.1716882445403E+01 -0.1153676452408E+01
 0.4314410749180E+00  0.7584854781823E+01  0.1603259195239E+01 -0.9198532505617E+00
 0.2019111143792E+00  0.7347441400547E+01  0.1509870525484E+01 -0.7134375749262E+00
 0.1017043967600E+00  0.7086448198508E+01  0.1437630540476E+01 -0.5882130550287E+00
 0.5376705717951E-01  0.6841140185071E+01  0.1378981468999E+01 -0.5182014328195E+00
 0.2815684875031E-01  0.6612424694207E+01  0.1328116328382E+01 -0.4789634496045E+00
 0.1368216342534E-01  0.6395437898108E+01  0.1281824031407E+01 -0.4576670527362E+00
 0.5174310488254E-02  0.6185904330609E+01  0.1238215746670E+01 -0.4472107845702E+00
 0.7380901442700E-04  0.5980526664482E+01  0.1196120112523E+01 -0.4434109744983E+00
-0.2922143233576E-02  0.5776947025858E+01  0.1154804993733E+01 -0.4437253562496E+00
-0.4463481160191E-02  0.5573497229503E+01  0.1113806766266E+01 -0.4465048742934E+00
-0.4760754691542E-02  0.5368940606874E+01  0.1072835986423E+01 -0.4505792610599E+00
-0.3608885790887E-02  0.5162162130125E+01  0.1031710664240E+01 -0.4550557006961E+00
-0.4569710907742E-03  0.4951765294067E+01  0.9902616793513E+00 -0.4594384683579E+00
 0.4939097032902E-02  0.4735889136697E+01  0.9481656608748E+00 -0.4640459913866E+00
 0.1136023246977E-01  0.4513036091816E+01  0.9048792783409E+00 -0.4697488426085E+00
 0.1606400861136E-01  0.4282950393457E+01  0.8598028932256E+00 -0.4766420663658E+00
 0.1660320259192E-01  0.4045670342999E+01  0.8124547212247E+00 -0.4836301484860E+00
 0.1248395930455E-01  0.3800714934807E+01  0.7626397901864E+00 -0.4895526197430E+00
 0.4916366351887E-02  0.3547819969557E+01  0.7105472777699E+00 -0.4940478317809E+00
-0.4406031941149E-02  0.3287562570372E+01  0.6566313174706E+00 -0.4974181964466E+00
-0.1409922313148E-01  0.3021331687895E+01  0.6014465019150E+00 -0.5000663455609E+00
-0.2325588720005E-01  0.2751016272387E+01  0.5455520851667E+00 -0.5021131450308E+00
-0.3133722283152E-01  0.2478764591791E+01  0.4894854810859E+00 -0.5032758690005E+00
-0.3801502319218E-01  0.2206901534920E+01  0.4337773088093E+00 -0.5028573316163E+00
-0.4298629046010E-01  0.1937912287460E+01  0.3789852050474E+00 -0.4997530037640E+00
-0.4578528905846E-01  0.1674350263362E+01  0.3257129997143E+00 -0.4926157332563E+00
-0.4573187187060E-01  0.1418790606806E+01  0.2746117510792E+00 -0.4801247044318E+00
-0.4206984444189E-01  0.1173926501402E+01  0.2263713347652E+00 -0.4610402725504E+00
-0.3413542405934E-01  0.9425559819937E+00  0.1816841142942E+00 -0.4341517847092E+00
-0.2142366368397E-01  0.7274108547124E+00  0.1411974403097E+00 -0.3983382323970E+00
-0.3626641835957E-02  0.5309691721695E+00  0.1054685076383E+00 -0.3527559483253E+00
 0.1923040169158E-01  0.3552949209597E+00  0.7490506564643E-01 -0.2971419662221E+00
 0.4650274147812E-01  0.2018946444614E+00  0.4967947792819E-01 -0.2322131586214E+00
 0.7655524131192E-01  0.7147327867633E-01  0.2960570443881E-01 -0.1601710399576E+00
 0.1063979435734E+00 -0.3693249079215E-01  0.1389309076328E-01 -0.8549374291446E-01
 0.1293233294767E+00 -0.1268628608345E+00  0.4920937357648E-03 -0.1644951824533E-01
 0.1246464690602E+00 -0.1998238461355E+00 -0.1503547563910E-01  0.3333731472303E-01
 0.4355020581852E-01 -0.2414011366755E+00 -0.3957018676105E-01  0.6049531205902E-01
-0.1374006981826E+00 -0.2443134243868E+00 -0.7634282565147E-01  0.1237368070363E+00
 0.1574360046218E+01  0.8098147502975E+01  0.1934501538665E+01 -0.1284912702814E+01
 0.8133023049845E+00  0.8178799328542E+01  0.1798420353504E+01 -0.1146391240545E+01
 0.3303900805530E+00  0.7981107809002E+01  0.1662299602681E+01 -0.8273145481759E+00
 0.1396522055986E+00  0.7664932262971E+01  0.1560916916973E+01 -0.6034595376213E+00
 0.6878253176283E-01  0.7367617424738E+01  0.1487280013462E+01 -0.4879889592589E+00
 0.3567272101758E-01  0.7105940004035E+01  0.1428322566294E+01 -0.4273636185006E+00
 0.1823568093189E-01  0.6867669952634E+01  0.1377181147235E+01 -0.3943196253604E+00
 0.8600470011394E-02  0.6644093105988E+01  0.1330538735026E+01 -0.3769707903793E+00
 0.2990323092830E-02  0.6429150902204E+01  0.1286428264229E+01 -0.3687784357264E+00
-0.3347729426448E-03  0.6218747860173E+01  0.1243682635978E+01 -0.3660907972367E+00
-0.2255693464188E-02  0.6010200085795E+01  0.1201588896371E+01 -0.3667373279830E+00
-0.3198295243735E-02  0.5801729172396E+01  0.1159706192711E+01 -0.3693134695186E+00
-0.3268101556244E-02  0.5592141564491E+01  0.1117774709243E+01 -0.3727890342044E+00
-0.2191880064879E-02  0.5380494625722E+01  0.1075660565160E+01 -0.3762577821091E+00
 0.7893787734625E-03  0.5165562055068E+01  0.1033270302165E+01 -0.3790067392888E+00
 0.6304824427259E-02  0.4945340381090E+01  0.9903290558604E+00 -0.3811194078684E+00
 0.1328761928318E-01  0.4717712521936E+01  0.9462000423433E+00 -0.3834899974684E+00
 0.1865743666279E-01  0.4481540452275E+01  0.9000395911993E+00 -0.3863722248629E+00
 0.1964092578853E-01  0.4236083901107E+01  0.8511449780622E+00 -0.3888035989721E+00
 0.1585673803620E-01  0.3980528793260E+01  0.7992771181695E+00 -0.3899346600741E+00
 0.8783442585888E-02  0.3714862277363E+01  0.7447291550871E+00 -0.3899183860491E+00
 0.1923036292676E-03  0.3440261594267E+01  0.6880907898327E+00 -0.3894995472553E+00
-0.8641678598871E-02  0.3158725624790E+01  0.6300167986261E+00 -0.3893121019083E+00
-0.1698174250180E-01  0.2872606129910E+01  0.5711248859920E+00 -0.3895563751191E+00
-0.2445467868911E-01  0.2584371498565E+01  0.5119833716044E+00 -0.3899781496847E+00
-0.3089171367772E-01  0.2296596643537E+01  0.4531409927242E+00 -0.3899188899892E+00
-0.3614388924741E-01  0.2012032774407E+01  0.3951777829204E+00 -0.3883212851352E+00
-0.3985428559979E-01  0.1733574381805E+01  0.3387440242887E+00 -0.3838767209993E+00
-0.4138766076161E-01  0.1464237825618E+01  0.2845700372116E+00 -0.3753037923502E+00
-0.4001066684314E-01  0.1207249709253E+01  0.2334478119606E+00 -0.3613829447596E+00
-0.3507975975070E-01  0.9659926578989E+00  0.1861825824040E+00 -0.3408502404784E+00
-0.2606200765703E-01  0.7437961048257E+00  0.1435468215727E+00 -0.3124327698824E+00
-0.1251417480140E-01  0.5437302935005E+00  0.1062432253230E+00 -0.2750364983189E+00
 0.5824480043109E-02  0.3684177933303E+00  0.7484845579002E-01 -0.2280462096014E+00
 0.2878493558404E-01  0.2198298448669E+00  0.4972295683112E-01 -0.1717160941975E+00
 0.5541106771577E-01  0.9896062015382E-01  0.3087433803398E-01 -0.1076536161770E+00
 0.8386455281588E-01  0.4824356334185E-02  0.1773778209433E-01 -0.3933636991694E-01
 0.1105213296311E+00 -0.6808254365586E-01  0.8487757321517E-02  0.2630226824959E-01
 0.1179913216532E+00 -0.1284544329908E+00 -0.2092622298713E-02  0.7204237129175E-01
 0.3908448690762E-01 -0.1635915965203E+00 -0.2490142229360E-01  0.8042673140252E-01
-0.1968185632826E+00 -0.1474944412925E+00 -0.6886260194116E-01  0.1297788948816E+00
 0.1595954446379E+01  0.8703574587111E+01  0.2059905837393E+01 -0.1379351545190E+01
 0.6817849992665E+00  0.8709399962093E+01  0.1878237020260E+01 -0.1098838949589E+01
 0.2121080341796E+00  0.8358428028218E+01  0.1714107238022E+01 -0.6892461713898E+00
 0.8266317995617E-01  0.7957357832393E+01  0.1608004226431E+01 -0.4744298575989E+00
 0.4142161400408E-01  0.7634841733859E+01  0.1535252692450E+01 -0.3811179848190E+00
 0.2074970002352E-01  0.7362479228401E+01  0.1476645807689E+01 -0.3328151693689E+00
 0.1037368633430E-01  0.7117958373434E+01  0.1425666433198E+01 -0.3073224842707E+00
 0.4713846001842E-02  0.6889946988691E+01  0.1378932187486E+01 -0.2944282337605E+00
 0.1427641125868E-02  0.6670903224857E+01  0.1334466193082E+01 -0.2886227647675E+00
-0.4908399608994E-03  0.6456317609686E+01  0.1291165373185E+01 -0.2870428522890E+00
-0.1583998308758E-02  0.6243335974803E+01  0.1248350413901E+01 -0.2879637316233E+00
-0.2090517604179E-02  0.6030179354051E+01  0.1205617785254E+01 -0.2902846669817E+00
-0.2056585498781E-02  0.5815764681767E+01  0.1162741636580E+01 -0.2931666339955E+00
-0.1223738726827E-02  0.5599433154474E+01  0.1119641899833E+01 -0.2957505523730E+00
 0.1289474163934E-02  0.5380380825679E+01  0.1076334076007E+01 -0.2970670731548E+00
 0.6543012377354E-02  0.5156722034851E+01  0.1032653024833E+01 -0.2967432124084E+00
 0.1374207557514E-01  0.4925599063829E+01  0.9878682426012E+00 -0.2954514391419E+00
 0.1951084497111E-01  0.4684406791955E+01  0.9407835414039E+00 -0.2935276933526E+00
 0.2080485128478E-01  0.4431079874445E+01  0.8903769584136E+00 -0.2902988810966E+00
 0.1745868743846E-01  0.4164425484561E+01  0.8363768468629E+00 -0.2855520964749E+00
 0.1121603117130E-01  0.3885018947394E+01  0.7792470073247E+00 -0.2802112416830E+00
 0.3817980575539E-02  0.3594968814133E+01  0.7197573696670E+00 -0.2755063823941E+00
-0.3660147752866E-02  0.3297041386368E+01  0.6586762575381E+00 -0.2722283958093E+00
-0.1068709221866E-01  0.2994080967562E+01  0.5966787839599E+00 -0.2705752583133E+00
-0.1705096621432E-01  0.2688842756517E+01  0.5343583660231E+00 -0.2702705957446E+00
-0.2272717733239E-01  0.2384089774062E+01  0.4722725263833E+00 -0.2706882193573E+00
-0.2772031137614E-01  0.2082785862796E+01  0.4110131164085E+00 -0.2708526709178E+00
-0.3179341520610E-01  0.1788168226220E+01  0.3512749674372E+00 -0.2695452438841E+00
-0.3436979431061E-01  0.1503763583281E+01  0.2938787621733E+00 -0.2655713131517E+00
-0.3476795833999E-01  0.1233428553611E+01  0.2397321226265E+00 -0.2577598494624E+00
-0.3241019495497E-01  0.9812164602387E+00  0.1897612558844E+00 -0.2447994810338E+00
-0.2678596701064E-01  0.7511436121090E+00  0.1448715311784E+00 -0.2252644666579E+00
-0.1737123087827E-01  0.5470055751733E+00  0.1059268704374E+00 -0.1978008194623E+00
-0.3683495707938E-02  0.3721728779051E+00  0.7369787753761E-01 -0.1614021150535E+00
 0.1451268238077E-01  0.2293397334979E+00  0.4877048390247E-01 -0.1157600562413E+00
 0.3689202067804E-01  0.1200878077977E+00  0.3139596616299E-01 -0.6171181902626E-01
 0.6238209176741E-01  0.4395522075525E-01  0.2126746282144E-01 -0.1523587207541E-02
 0.9055801976783E-01 -0.4744448102898E-02  0.1716271458873E-01  0.6109647497582E-01
 0.1139131679256E+00 -0.4404333449623E-01  0.1397396689410E-01  0.1094754037742E+00
 0.4946940199284E-01 -0.7492484897488E-01 -0.5091089472271E-02  0.1019791392585E+00
-0.2739296167654E+00 -0.3993667265487E-01 -0.6277325881946E-01  0.1245414352891E+00
 0.1589495321380E+01  0.9453692649556E+01  0.2208637627099E+01 -0.1479391016754E+01
 0.4847439583487E+00  0.9265288908865E+01  0.1950006602500E+01 -0.9698219059504E+00
 0.8922198656805E-01  0.8680638512541E+01  0.1753972125958E+01 -0.4954755082400E+00
 0.4101181529303E-01  0.8217737183042E+01  0.1651749824280E+01 -0.3349786914650E+00
 0.2064340148491E-01  0.7887667781334E+01  0.1581662260132E+01 -0.2707997215485E+00
 0.9546492235388E-02  0.7609993873908E+01  0.1523908095937E+01 -0.2360619732155E+00
 0.4859392917036E-02  0.7363415644750E+01  0.1473655029492E+01 -0.2191068528706E+00
 0.2026602687468E-02  0.7133111490463E+01  0.1427027639894E+01 -0.2106354398594E+00
 0.4813496523721E-03  0.6911329854500E+01  0.1382362261429E+01 -0.2071423550132E+00
-0.4353184758117E-03  0.6693386885925E+01  0.1338590333436E+01 -0.2065102188088E+00
-0.9429724698422E-03  0.6476482742370E+01  0.1295107973279E+01 -0.2075572917607E+00
-0.1163157142764E-02  0.6258939163434E+01  0.1251555219908E+01 -0.2095065245341E+00
-0.1107251140588E-02  0.6039835903376E+01  0.1207745748444E+01 -0.2117533658524E+00
-0.6175220799478E-03  0.5818856465937E+01  0.1163647806111E+01 -0.2135916782150E+00
 0.1147386164235E-02  0.5595937548211E+01  0.1119417003556E+01 -0.2138530063974E+00
 0.5642188663374E-02  0.5369898014950E+01  0.1075108056743E+01 -0.2114243588729E+00
 0.1249362767737E-01  0.5137137269528E+01  0.1029926194788E+01 -0.2062257442199E+00
 0.1819291680321E-01  0.4892512182752E+01  0.9821410345462E+00 -0.1984331795075E+00
 0.1960669061175E-01  0.4631655707421E+01  0.9302524934685E+00 -0.1880179901092E+00
 0.1690561930240E-01  0.4353105832159E+01  0.8740023033160E+00 -0.1760201376044E+00
 0.1198815906569E-01  0.4058680753455E+01  0.8141337946358E+00 -0.1644528119351E+00
 0.6370301291117E-02  0.3751866689033E+01  0.7516474092652E+00 -0.1549780746665E+00
 0.8252658631064E-03  0.3436339564111E+01  0.6874329762384E+00 -0.1483912399217E+00
-0.4341916961271E-02  0.3115430167470E+01  0.6222176593735E+00 -0.1447727200828E+00
-0.9058017133179E-02  0.2792119934336E+01  0.5566123917348E+00 -0.1437577819226E+00
-0.1340489997372E-01  0.2469264176412E+01  0.4911718626066E+00 -0.1447401888316E+00
-0.1752525259504E-01  0.2149936551379E+01  0.4264822661118E+00 -0.1468798097013E+00
-0.2131473120587E-01  0.1837706567874E+01  0.3632783727468E+00 -0.1491389276126E+00
-0.2428045731305E-01  0.1536727615284E+01  0.3024894361016E+00 -0.1504808380591E+00
-0.2583421788990E-01  0.1251617688327E+01  0.2451566977406E+00 -0.1498039087594E+00
-0.2551494899411E-01  0.9871745529471E+00  0.1923319236566E+00 -0.1457462648224E+00
-0.2288340473169E-01  0.7481767382661E+00  0.1450586688684E+00 -0.1367424095621E+00
-0.1740753205220E-01  0.5392893251431E+00  0.1043763601735E+00 -0.1212021113203E+00
-0.8459027176729E-02  0.3648752276790E+00  0.7128324116266E-01 -0.9770263923277E-01
 0.4456983311905E-02  0.2286363185141E+00  0.4661866105988E-01 -0.6532332931956E-01
 0.2160750382168E-01  0.1332260301208E+00  0.3096670724993E-01 -0.2388377158726E-01
 0.4242738125512E-01  0.7889445762678E-01  0.2426436813795E-01  0.2549152575670E-01
 0.6718128398742E-01  0.6282018794938E-01  0.2600029477479E-01  0.8280559103866E-01
 0.1057310286464E+00  0.6300265171760E-01  0.3374673657566E-01  0.1424285526349E+00
 0.8119479010259E-01  0.4171183774886E-01  0.2458132593658E-01  0.1343038974441E+00
-0.3745720270418E+00  0.9158636899075E-01 -0.5659713245357E-01  0.1087860008748E+00
 0.1543073693299E+01  0.1047915560148E+02  0.2404445894784E+01 -0.1553703237599E+01
 0.1977710133778E+00  0.9763365804929E+01  0.1992227393348E+01 -0.6749173181707E+00
-0.2441144389631E-02  0.8894942633321E+01  0.1778500324288E+01 -0.2589934762819E+00
 0.2207550147612E-01  0.8455113986249E+01  0.1695437922809E+01 -0.2012315130314E+00
 0.4322277937020E-02  0.8122954551447E+01  0.1625455390098E+01 -0.1575878158940E+00
 0.3439176322819E-02  0.7849354540005E+01  0.1570558766669E+01 -0.1398728933111E+00
 0.1322358204684E-02  0.7604249835054E+01  0.1521114461318E+01 -0.1305347502765E+00
 0.5606365304240E-03  0.7373932694247E+01  0.1474898688133E+01 -0.1262693863401E+00
 0.3791020120847E-04  0.7150691171110E+01  0.1430145837573E+01 -0.1247069753963E+00
-0.2423859534961E-03  0.6930174666738E+01  0.1385986476810E+01 -0.1247281647376E+00
-0.3997785651799E-03  0.6709811837156E+01  0.1341882431714E+01 -0.1256551267565E+00
-0.4611664237351E-03  0.6488131704690E+01  0.1297534126988E+01 -0.1270506294988E+00
-0.4212334313103E-03  0.6264418716130E+01  0.1252799515208E+01 -0.1285550283624E+00
-0.2553478818683E-03  0.6038649091723E+01  0.1207678766764E+01 -0.1297411779261E+00
 0.5897616107888E-03  0.5811730899047E+01  0.1162464149454E+01 -0.1295290697099E+00
 0.3706824676892E-02  0.5584410698767E+01  0.1117623521343E+01 -0.1258496622961E+00
 0.9272486942269E-02  0.5352849829071E+01  0.1072424479183E+01 -0.1167377674794E+00
 0.1408603188061E-01  0.5107236121375E+01  0.1024264445914E+01 -0.1015402184206E+00
 0.1538755549417E-01  0.4839085703445E+01  0.9708946662552E+00 -0.8174203271786E-01
 0.1375203732282E-01  0.4547331347602E+01  0.9122166905781E+00 -0.6079206944181E-01
 0.1088032955621E-01  0.4236212427541E+01  0.8494185640767E+00 -0.4206260941060E-01
 0.7771357942592E-02  0.3911095242458E+01  0.7837733317592E+00 -0.2739543566650E-01
 0.4814519349602E-02  0.3576649012443E+01  0.7162927170322E+00 -0.1734617339042E-01
 0.2094550986060E-02  0.3236625676349E+01  0.6477440551192E+00 -0.1173465391149E-01
-0.4119215712490E-03  0.2894146873385E+01  0.5787469989868E+00 -0.1003269219348E-01
-0.2824955389805E-02  0.2552038279376E+01  0.5098426723944E+00 -0.1162125464022E-01
-0.5378210902196E-02  0.2213283512648E+01  0.4415810669292E+00 -0.1586725834905E-01
-0.8116084642723E-02  0.1881742555350E+01  0.3747252997252E+00 -0.2208716024688E-01
-0.1068526856630E-01  0.1562428362944E+01  0.3103486235001E+00 -0.2950975466753E-01
-0.1265300724128E-01  0.1260901848541E+01  0.2496497719799E+00 -0.3708140410513E-01
-0.1371771255560E-01  0.9827244895019E+00  0.1938013582771E+00 -0.4336591746819E-01
-0.1355390862365E-01  0.7334844054053E+00  0.1439861015019E+00 -0.4670368370000E-01
-0.1169097820761E-01  0.5188793226940E+00  0.1014376704088E+00 -0.4533052413880E-01
-0.7527381539116E-02  0.3445429754347E+00  0.6740311978351E-01 -0.3744740044455E-01
-0.2926622331182E-03  0.2156284990301E+00  0.4306716800114E-01 -0.2138592214131E-01
 0.1016114794947E-01  0.1360984271922E+00  0.2925191546422E-01  0.3917702195475E-02
 0.2537727777519E-01  0.1081625036357E+00  0.2670795668016E-01  0.3964794340962E-01
 0.4049219854863E-01  0.1297559244978E+00  0.3404962511666E-01  0.8458252384266E-01
 0.7928079679843E-01  0.2008653176754E+00  0.5602922372967E-01  0.1572072545014E+00
 0.1366874987678E+00  0.2286706887223E+00  0.7307163858686E-01  0.1895444627820E+00
-0.5007945727727E+00  0.2933040926237E+00 -0.4149809664818E-01  0.9826073215459E-01
 0.1488585198705E+01  0.1216197658441E+02  0.2730112397304E+01 -0.1444501267092E+01
-0.2224656616365E+00  0.9772380374530E+01  0.1909982971040E+01 -0.5067878616757E-01
 0.4172073079151E-01  0.9075171526230E+01  0.1823378478575E+01 -0.9567312762146E-01
-0.7389549070526E-02  0.8656555449179E+01  0.1729833205798E+01 -0.5899670640284E-01
 0.1975263548686E-02  0.8344410074113E+01  0.1669277092407E+01 -0.5023815694796E-01
-0.2791487301210E-03  0.8080969899634E+01  0.1616138174263E+01 -0.4513159186010E-01
 0.1255162719271E-03  0.7841238969574E+01  0.1568272920538E+01 -0.4284498730136E-01
-0.2872353599859E-04  0.7612879672732E+01  0.1522570212527E+01 -0.4188035824567E-01
-0.2474331494584E-04  0.7389361874589E+01  0.1477867448277E+01 -0.4167658142668E-01
-0.4393778695033E-04  0.7166959735046E+01  0.1433383180811E+01 -0.4190474960767E-01
-0.4824497006006E-04  0.6943538277377E+01  0.1388698027175E+01 -0.4237645435390E-01
-0.4925124017885E-04  0.6717916323850E+01  0.1343573434543E+01 -0.4296541609489E-01
-0.4217030381981E-04  0.6489607027796E+01  0.1297912990839E+01 -0.4356168203896E-01
-0.2741079193602E-04  0.6258815850574E+01  0.1251757706609E+01 -0.4402413591107E-01
 0.4325589758580E-04  0.6027008525787E+01  0.1205410374299E+01 -0.4401540454195E-01
 0.1086463659252E-02  0.5799066779358E+01  0.1160030665889E+01 -0.4095512570687E-01
 0.3755414662785E-02  0.5573420609318E+01  0.1115435221417E+01 -0.2854299549027E-01
 0.6243123478295E-02  0.5330736352597E+01  0.1067395911121E+01 -0.3432273835551E-02
 0.7249421558961E-02  0.5054927933632E+01  0.1012435486125E+01  0.2901764297296E-01
 0.7523883708392E-02  0.4747876483289E+01  0.9510800875717E+00  0.6089244098675E-01
 0.7704972295483E-02  0.4417911020423E+01  0.8851232117331E+00  0.8765823885802E-01
 0.7982933872823E-02  0.4072730349978E+01  0.8161426689317E+00  0.1078137663350E+00
 0.8333719772247E-02  0.3717957723312E+01  0.7452582997220E+00  0.1213831396036E+00
 0.8678949943223E-02  0.3357621266484E+01  0.6732600533178E+00  0.1289656550799E+00
 0.8945583811969E-02  0.2994858844082E+01  0.6007608945308E+00  0.1313095520440E+00
 0.9078647781263E-02  0.2632392836934E+01  0.5282943048152E+00  0.1291340211785E+00
 0.8877260486213E-02  0.2272703393866E+01  0.4563161376702E+00  0.1228118300780E+00
 0.8123083501053E-02  0.1919785657892E+01  0.3855817540242E+00  0.1122991074827E+00
 0.6896635829620E-02  0.1580082976085E+01  0.3173959271125E+00  0.9794000609104E-01
 0.5381921067067E-02  0.1260304815984E+01  0.2531373511823E+00  0.8090867293629E-01
 0.3717892047612E-02  0.9666374448552E+00  0.1940710702725E+00  0.6275080419779E-01
 0.2103866670726E-02  0.7055214502618E+00  0.1415250654954E+00  0.4511067977478E-01
 0.8359736729975E-03  0.4838533698227E+00  0.9693787014362E-01  0.2980628574267E-01
 0.3820304709937E-03  0.3088826153142E+00  0.6185293007871E-01  0.1893245352771E-01
 0.1275272192650E-02  0.1877278336290E+00  0.3780062172761E-01  0.1489127492175E-01
 0.4636681679215E-02  0.1262927842494E+00  0.2618589357592E-01  0.2017466644893E-01
 0.9089945866538E-02  0.1281110299212E+00  0.2744019556643E-01  0.3667309744685E-01
 0.2398749970334E-01  0.1958716948461E+00  0.4397183956513E-01  0.6820911464820E-01
 0.7833931159300E-02  0.3370267301021E+00  0.6897213328005E-01  0.1114787387326E+00
 0.2032421146836E+00  0.5973510602102E+00  0.1601186373647E+00  0.2658627157001E+00
-0.6772523749707E+00  0.7105876357719E+00  0.6667052259569E-02  0.1561282415629E+00
-0.1610842672793E+01 -0.2034450512132E+01 -0.1713287792569E+01 -0.1341968008522E+01
-0.1451224253525E+01 -0.2075867086805E+01 -0.1657732925751E+01 -0.1382606711116E+01
-0.1267433567661E+01 -0.2118221184161E+01 -0.1591257729320E+01 -0.1400950538266E+01
-0.1079387455136E+01 -0.2151224798063E+01 -0.1518387755152E+01 -0.1399017611112E+01
-0.9009035390167E+00 -0.2170183453602E+01 -0.1443410882870E+01 -0.1382300806938E+01
-0.7396850209161E+00 -0.2173451539708E+01 -0.1369174180021E+01 -0.1356758169938E+01
-0.5996020523897E+00 -0.2161764518079E+01 -0.1297842284829E+01 -0.1327669454092E+01
-0.4818997734702E+00 -0.2137178538782E+01 -0.1230966803637E+01 -0.1299110622819E+01
-0.3861879742152E+00 -0.2102219178618E+01 -0.1169551358865E+01 -0.1273749063523E+01
-0.3111851087703E+00 -0.2059159109188E+01 -0.1114061779615E+01 -0.1252873057548E+01
-0.2552960750628E+00 -0.2009504662997E+01 -0.1064456344188E+01 -0.1236582961707E+01
-0.2174114872984E+00 -0.1954022140631E+01 -0.1020573802538E+01 -0.1224095706924E+01
-0.1964212735650E+00 -0.1892650976668E+01 -0.9818639551190E+00 -0.1214570146128E+01
-0.1910392500147E+00 -0.1825176271130E+01 -0.9476212925347E+00 -0.1207034879788E+01
-0.2000186410024E+00 -0.1751468370789E+01 -0.9171988932154E+00 -0.1200133330311E+01
-0.2217677860527E+00 -0.1671154378390E+01 -0.8896734150317E+00 -0.1192428981448E+01
-0.2543545383108E+00 -0.1583631375267E+01 -0.8638533771903E+00 -0.1182220787456E+01
-0.2978156139794E+00 -0.1490238668390E+01 -0.8403855105819E+00 -0.1167953019683E+01
-0.3447284783376E+00 -0.1386405171017E+01 -0.8136328131329E+00 -0.1147271382660E+01
-0.4574356769425E+00 -0.1326039427877E+01 -0.8382332971390E+00 -0.1108236661610E+01
-0.1592514943603E+01 -0.2008675296685E+01 -0.1692559408643E+01 -0.1326456681867E+01
-0.1438429017188E+01 -0.2051262426102E+01 -0.1640154974187E+01 -0.1364639639318E+01
-0.1260723844401E+01 -0.2094121126410E+01 -0.1576777132282E+01 -0.1384547342583E+01
-0.1078497165966E+01 -0.2129204125968E+01 -0.1507619603385E+01 -0.1386850994072E+01
-0.9042228383648E+00 -0.2151494060642E+01 -0.1436186938890E+01 -0.1375622201915E+01
-0.7456358081363E+00 -0.2159207840902E+01 -0.1365276511585E+01 -0.1355846416085E+01
-0.6068119164724E+00 -0.2152653461971E+01 -0.1296948724579E+01 -0.1332174279675E+01
-0.4893557634141E+00 -0.2133458662012E+01 -0.1232722776824E+01 -0.1308349669291E+01
-0.3932501925252E+00 -0.2103790071970E+01 -0.1173608921336E+01 -0.1286942570996E+01
-0.3175519332345E+00 -0.2065695716005E+01 -0.1120126392302E+01 -0.1269301696915E+01
-0.2610138972242E+00 -0.2020661544376E+01 -0.1072387454832E+01 -0.1255659569823E+01
-0.2225932285289E+00 -0.1969347050038E+01 -0.1030211928313E+01 -0.1245426081495E+01
-0.2013098691987E+00 -0.1911775845647E+01 -0.9931502834586E+00 -0.1237866839110E+01
-0.1960022396112E+00 -0.1847760438974E+01 -0.9605684564989E+00 -0.1232052378212E+01
-0.2054188071508E+00 -0.1777060270167E+01 -0.9317651639761E+00 -0.1226729855420E+01
-0.2279821023111E+00 -0.1699366481597E+01 -0.9058538321392E+00 -0.1220508914065E+01
-0.2625194900577E+00 -0.1614855414093E+01 -0.8823662027129E+00 -0.1211623087101E+01
-0.3068476219151E+00 -0.1522962889525E+01 -0.8600109381957E+00 -0.1197802706669E+01
-0.3743697636577E+00 -0.1433562655719E+01 -0.8497282349516E+00 -0.1173717259487E+01
-0.4512246785340E+00 -0.1324626956686E+01 -0.8346502664362E+00 -0.1143492030696E+01
-0.1576812130773E+01 -0.1987041189244E+01 -0.1675011056159E+01 -0.1310862243196E+01
-0.1425780195397E+01 -0.2029774089951E+01 -0.1624110509994E+01 -0.1346660260793E+01
-0.1253335219003E+01 -0.2073386035623E+01 -0.1563558985708E+01 -0.1367900926344E+01
-0.1076022616458E+01 -0.2110134850289E+01 -0.1497494005573E+01 -0.1373983584190E+01
-0.9056121939210E+00 -0.2135372371054E+01 -0.1429262741913E+01 -0.1367825386603E+01
-0.7495489578272E+00 -0.2147057902064E+01 -0.1361405220696E+01 -0.1353501377416E+01
-0.6120597699150E+00 -0.2145177499101E+01 -0.1295901513151E+01 -0.1335062791568E+01
-0.4950186630007E+00 -0.2130980847480E+01 -0.1234219766796E+01 -0.1315912493988E+01
-0.3987261198728E+00 -0.2106314826463E+01 -0.1177369241792E+01 -0.1298490378567E+01
-0.3225573264529E+00 -0.2073021936036E+01 -0.1125922250514E+01 -0.1284162101414E+01
-0.2655201114348E+00 -0.2032465733632E+01 -0.1080053344442E+01 -0.1273274407702E+01
-0.2267199238885E+00 -0.1985281057719E+01 -0.1039640458718E+01 -0.1265408510094E+01
-0.2052717072523E+00 -0.1931509211034E+01 -0.1004287029047E+01 -0.1259928286262E+01
-0.2001177471620E+00 -0.1870965361724E+01 -0.9734090587075E+00 -0.1255971443704E+01
-0.2100570127485E+00 -0.1803398564159E+01 -0.9463241187462E+00 -0.1252359215990E+01
-0.2337979257200E+00 -0.1728701529321E+01 -0.9223747415298E+00 -0.1247687997307E+01
-0.2699967221392E+00 -0.1646753496988E+01 -0.9008726007051E+00 -0.1240022702036E+01
-0.3206182315251E+00 -0.1559411107190E+01 -0.8836137869549E+00 -0.1226400883758E+01
-0.3861451954323E+00 -0.1462604122019E+01 -0.8689121769980E+00 -0.1204867269886E+01
-0.4594660778754E+00 -0.1350656295438E+01 -0.8507575132995E+00 -0.1180261572762E+01
-0.1562835761640E+01 -0.1968262416175E+01 -0.1659616139364E+01 -0.1295137383303E+01
-0.1413643091145E+01 -0.2011369684557E+01 -0.1609756000497E+01 -0.1328717410312E+01
-0.1245242042587E+01 -0.2055539929838E+01 -0.1551367523105E+01 -0.1351037955719E+01
-0.1072172747287E+01 -0.2093789062610E+01 -0.1488002046877E+01 -0.1360515600442E+01
-0.9052198131758E+00 -0.2121608198720E+01 -0.1422609161983E+01 -0.1359036696907E+01
-0.7515592064501E+00 -0.2136863839669E+01 -0.1357558828232E+01 -0.1349859469819E+01
-0.6154451643744E+00 -0.2139251088239E+01 -0.1294707235445E+01 -0.1336460597232E+01
-0.4989576499596E+00 -0.2129700321185E+01 -0.1235469243305E+01 -0.1321898412695E+01
-0.4026629943238E+00 -0.2109770771000E+01 -0.1180843866707E+01 -0.1308458103459E+01
-0.3262067987440E+00 -0.2081092542507E+01 -0.1131430687518E+01 -0.1297494934697E+01
-0.2688311230218E+00 -0.2044905025872E+01 -0.1087455987222E+01 -0.1289446849085E+01
-0.2297842850124E+00 -0.2001801153071E+01 -0.1048845153239E+01 -0.1284042963450E+01
-0.2082843380363E+00 -0.1951830682017E+01 -0.1015254056850E+01 -0.1280745131605E+01
-0.2033752796203E+00 -0.1894812327009E+01 -0.9861481726144E+00 -0.1278758683898E+01
-0.2139999308689E+00 -0.1830542917133E+01 -0.9609351361236E+00 -0.1276955801745E+01
-0.2389912359901E+00 -0.1758870339693E+01 -0.9389949381895E+00 -0.1273900300487E+01
-0.2779499251139E+00 -0.1680031500483E+01 -0.9202512676965E+00 -0.1267520432752E+01
-0.3308964566297E+00 -0.1593106762641E+01 -0.9042815107636E+00 -0.1255572273950E+01
-0.3970136756149E+00 -0.1494958508140E+01 -0.8892269241094E+00 -0.1237324508735E+01
-0.4695970049640E+00 -0.1383898854527E+01 -0.8711430517511E+00 -0.1216143923110E+01
-0.1550331664340E+01 -0.1951878460255E+01 -0.1646038754385E+01 -0.1279165818438E+01
-0.1401929601587E+01 -0.1995550560947E+01 -0.1596815672341E+01 -0.1310758650766E+01
-0.1236595384295E+01 -0.2040302285353E+01 -0.1540141900828E+01 -0.1333983491186E+01
-0.1067069656887E+01 -0.2079874527476E+01 -0.1479063762899E+01 -0.1346515156811E+01
-0.9031992171188E+00 -0.2109999830183E+01 -0.1416203548640E+01 -0.1349360533218E+01
-0.7517908353120E+00 -0.2128473534181E+01 -0.1353724250228E+01 -0.1345035061183E+01
-0.6170672697970E+00 -0.2134773401479E+01 -0.1293365112219E+01 -0.1336474489271E+01
-0.5012444385647E+00 -0.2129552086468E+01 -0.1236474363629E+01 -0.1326393232027E+01
-0.4051042810954E+00 -0.2114108523269E+01 -0.1184030015048E+01 -0.1316905961429E+01
-0.3285249468801E+00 -0.2089869171501E+01 -0.1136645232756E+01 -0.1309335841741E+01
-0.2709560787264E+00 -0.2057945298044E+01 -0.1094583644306E+01 -0.1304190607707E+01
-0.2317854971745E+00 -0.2018880192750E+01 -0.1057812871582E+01 -0.1301326311877E+01
-0.2103375781725E+00 -0.1972722585509E+01 -0.1026038274328E+01 -0.1300297903018E+01
-0.2057818868721E+00 -0.1919305377303E+01 -0.9987910116289E+00 -0.1300374815186E+01
-0.2171899237984E+00 -0.1858418404077E+01 -0.9755359116272E+00 -0.1300473183365E+01
-0.2437085278728E+00 -0.1789934879036E+01 -0.9558123988226E+00 -0.1299147292427E+01
-0.2847571536368E+00 -0.1713456868686E+01 -0.9391605881095E+00 -0.1294523626201E+01
-0.3397271923120E+00 -0.1627620718216E+01 -0.9246535156028E+00 -0.1284906049964E+01
-0.4069939419018E+00 -0.1530222765287E+01 -0.9104918500692E+00 -0.1269834321607E+01
-0.4804150925993E+00 -0.1421402193917E+01 -0.8938541223954E+00 -0.1251212648233E+01
-0.1539070628161E+01 -0.1937507352573E+01 -0.1633991646800E+01 -0.1262852181439E+01
-0.1390587805149E+01 -0.1981940299669E+01 -0.1585088205244E+01 -0.1292713117338E+01
-0.1227460163905E+01 -0.2027335852523E+01 -0.1529754123841E+01 -0.1316732845382E+01
-0.1060844594612E+01 -0.2068129228729E+01 -0.1470617693241E+01 -0.1332032306061E+01
-0.8996800898088E+00 -0.2100331142204E+01 -0.1410005275470E+01 -0.1338878904438E+01
-0.7503644955999E+00 -0.2121728148399E+01 -0.1349883539256E+01 -0.1339123448138E+01
-0.6170226014753E+00 -0.2131629122562E+01 -0.1291866307021E+01 -0.1335195065096E+01
-0.5019506788644E+00 -0.2130453588523E+01 -0.1237230002534E+01 -0.1329471406863E+01
-0.4060982051279E+00 -0.2119266218375E+01 -0.1186921276036E+01 -0.1323886743072E+01
-0.3295400513038E+00 -0.2099301658371E+01 -0.1141555600652E+01 -0.1319715116365E+01
-0.2719091734956E+00 -0.2071544549272E+01 -0.1101423246907E+01 -0.1317515044614E+01
-0.2327266951822E+00 -0.2036482945244E+01 -0.1066528528295E+01 -0.1317250226659E+01
-0.2114307486412E+00 -0.1994159758304E+01 -0.1036627535635E+01 -0.1318562040361E+01
-0.2073171101254E+00 -0.1944405926968E+01 -0.1011309824869E+01 -0.1320783723116E+01
-0.2196206906125E+00 -0.1886999174067E+01 -0.9901113338880E+00 -0.1322883616242E+01
-0.2475819788960E+00 -0.1821632445932E+01 -0.9725307772027E+00 -0.1323498168516E+01
-0.2904908375116E+00 -0.1747614275575E+01 -0.9579094007209E+00 -0.1320994269763E+01
-0.3473598269546E+00 -0.1663600109576E+01 -0.9451511677721E+00 -0.1313981185896E+01
-0.4162116031962E+00 -0.1568173321022E+01 -0.9326609120168E+00 -0.1301912568367E+01
-0.4913200893702E+00 -0.1462043303471E+01 -0.9180807923068E+00 -0.1285517782863E+01
-0.1528859802914E+01 -0.1924835677400E+01 -0.1623236871630E+01 -0.1246114716384E+01
-0.1379555137322E+01 -0.1970206308867E+01 -0.1574387875715E+01 -0.1274508868331E+01
-0.1217884004674E+01 -0.2016331290886E+01 -0.1520081185057E+01 -0.1299265943067E+01
-0.1053601338827E+01 -0.2058287388043E+01 -0.1462587697919E+01 -0.1317097854671E+01
-0.8947832943795E+00 -0.2092388185879E+01 -0.1403970592161E+01 -0.1327655892389E+01
-0.7473921257586E+00 -0.2116459786125E+01 -0.1346010395171E+01 -0.1332202792355E+01
-0.6154054438162E+00 -0.2129691691794E+01 -0.1290195650464E+01 -0.1332698940393E+01
-0.5011486504498E+00 -0.2132309179410E+01 -0.1237725176895E+01 -0.1331196854578E+01
-0.4056957970900E+00 -0.2125169568804E+01 -0.1189506718953E+01 -0.1329445802338E+01
-0.3292847365123E+00 -0.2109329585973E+01 -0.1146148728661E+01 -0.1328657631060E+01
-0.2717088022868E+00 -0.2085651525362E+01 -0.1107959351185E+01 -0.1329425075009E+01
-0.2326161965733E+00 -0.2054565659317E+01 -0.1074975469542E+01 -0.1331802280009E+01
-0.2115595398780E+00 -0.2016099830702E+01 -0.1046999901517E+01 -0.1335511299797E+01
-0.2079656128107E+00 -0.1970073305259E+01 -0.1023678288896E+01 -0.1339952912766E+01
-0.2211876407529E+00 -0.1916201996008E+01 -0.1004573126730E+01 -0.1344173257975E+01
-0.2505178056989E+00 -0.1854038998660E+01 -0.9891416955398E+00 -0.1346927985200E+01
-0.2951517323483E+00 -0.1782782287841E+01 -0.9766289870119E+00 -0.1346783224110E+01
-0.3539084867797E+00 -0.1701263758471E+01 -0.9659309528178E+00 -0.1342491157282E+01
-0.4246234629434E+00 -0.1608539732229E+01 -0.9555866993072E+00 -0.1333306546649E+01
-0.5019937260575E+00 -0.1505400062500E+01 -0.9434750782291E+00 -0.1319065041375E+01
-0.1519525398907E+01 -0.1913589600818E+01 -0.1613564045778E+01 -0.1228884183133E+01
-0.1368767053545E+01 -0.1960055008646E+01 -0.1564546365261E+01 -0.1256078278218E+01
-0.1207897040864E+01 -0.2007001263424E+01 -0.1511002199183E+01 -0.1281554936005E+01
-0.1045426529963E+01 -0.2050092796605E+01 -0.1454894079797E+01 -0.1301728361017E+01
-0.8886160887426E+00 -0.2085955974495E+01 -0.1398048866176E+01 -0.1315739875236E+01
-0.7429789829735E+00 -0.2112495557644E+01 -0.1342073030686E+01 -0.1324336683386E+01
-0.6123069366613E+00 -0.2128825024433E+01 -0.1288332018446E+01 -0.1329050326670E+01
-0.4989109901182E+00 -0.2135012271885E+01 -0.1237943930002E+01 -0.1331623912479E+01
-0.4039505932887E+00 -0.2131733358902E+01 -0.1191771454507E+01 -0.1333621425700E+01
-0.3277953867768E+00 -0.2119882421621E+01 -0.1150408567029E+01 -0.1336183025489E+01
-0.2703776484344E+00 -0.2100205656091E+01 -0.1114174150301E+01 -0.1339921618880E+01
-0.2314643782998E+00 -0.2073073597922E+01 -0.1083132846077E+01 -0.1344967235429E+01
-0.2107212609688E+00 -0.2038491601176E+01 -0.1057130042527E+01 -0.1351118453353E+01
-0.2076934190687E+00 -0.1996251289890E+01 -0.1035854010583E+01 -0.1357851243677E+01
-0.2218301685173E+00 -0.1946006082851E+01 -0.1018883035559E+01 -0.1364305274784E+01
-0.2524631969411E+00 -0.1887224338778E+01 -0.1005653139237E+01 -0.1369358461411E+01
-0.2987430239346E+00 -0.1819096989786E+01 -0.9953848039241E+00 -0.1371723410974E+01
-0.3593924157649E+00 -0.1740630869861E+01 -0.9870109417408E+00 -0.1370205436036E+01
-0.4321773540600E+00 -0.1651145339275E+01 -0.9791616633837E+00 -0.1363846798992E+01
-0.5122121440397E+00 -0.1551285534338E+01 -0.9698439063775E+00 -0.1351813023059E+01
-0.1510908220543E+01 -0.1903524222519E+01 -0.1604783244169E+01 -0.1211101862431E+01
-0.1358157249441E+01 -0.1951221640975E+01 -0.1555408074550E+01 -0.1237359955734E+01
-0.1197517349080E+01 -0.1999079914752E+01 -0.1502400710190E+01 -0.1263568709137E+01
-0.1036392058176E+01 -0.2043299804436E+01 -0.1447455171757E+01 -0.1285930290290E+01
-0.8812742381292E+00 -0.2080821758363E+01 -0.1392185114820E+01 -0.1303166506346E+01
-0.7372232089447E+00 -0.2109658768769E+01 -0.1338034526132E+01 -0.1315576189705E+01
-0.6078153226497E+00 -0.2128885741604E+01 -0.1286249496937E+01 -0.1324302588892E+01
-0.4953103984819E+00 -0.2138446963902E+01 -0.1237865957181E+01 -0.1330798270188E+01
-0.4009183642337E+00 -0.2138862574292E+01 -0.1193697038079E+01 -0.1336445377466E+01
-0.3251118996120E+00 -0.2130880033149E+01 -0.1154316205470E+01 -0.1342306125852E+01
-0.2679418130833E+00 -0.2115136693057E+01 -0.1120046895045E+01 -0.1349002191040E+01
-0.2292843329340E+00 -0.2091942806060E+01 -0.1090976752560E+01 -0.1356727559334E+01
-0.2089114445108E+00 -0.2061274377181E+01 -0.1066987333489E+01 -0.1365354662714E+01
-0.2064750957612E+00 -0.2022890955637E+01 -0.1047802041499E+01 -0.1374440020574E+01
-0.2215089197978E+00 -0.1976397515902E+01 -0.1033016022159E+01 -0.1383221368076E+01
-0.2533883986579E+00 -0.1921223186953E+01 -0.1022067442645E+01 -0.1390687354386E+01
-0.3012557844180E+00 -0.1856593274524E+01 -0.1014189055131E+01 -0.1395654409108E+01
-0.3638023435086E+00 -0.1781654231645E+01 -0.1008364587765E+01 -0.1396936744877E+01
-0.4388059945834E+00 -0.1695856848246E+01 -0.1003291533585E+01 -0.1393388710324E+01
-0.5218096318617E+00 -0.1599624977847E+01 -0.9970742640341E+00 -0.1383687563345E+01
-0.1502860334175E+01 -0.1894416392277E+01 -0.1596720057382E+01 -0.1192718115563E+01
-0.1347658715346E+01 -0.1943464166754E+01 -0.1546827750663E+01 -0.1218299280533E+01
-0.1186753624839E+01 -0.1992319810372E+01 -0.1494164510759E+01 -0.1245275580038E+01
-0.1026557903144E+01 -0.2037673747801E+01 -0.1440188872291E+01 -0.1269703273852E+01
-0.8728433198364E+00 -0.2076776305527E+01 -0.1386321220405E+01 -0.1289961447082E+01
-0.7302163779029E+00 -0.2107770637381E+01 -0.1333853893800E+01 -0.1305961896985E+01
-0.6020158563588E+00 -0.2129724622998E+01 -0.1283918022041E+01 -0.1318499687837E+01
-0.4904194994695E+00 -0.2142489419547E+01 -0.1237467188799E+01 -0.1328757956864E+01
-0.3966568485318E+00 -0.2146453334495E+01 -0.1195261782991E+01 -0.1337943563466E+01
-0.3212772821070E+00 -0.2142233127997E+01 -0.1157849889812E+01 -0.1347037489366E+01
-0.2644307179525E+00 -0.2130365327825E+01 -0.1125554138661E+01 -0.1356661334908E+01
-0.2260914744587E+00 -0.2111100587316E+01 -0.1098480266248E+01 -0.1367063436651E+01
-0.2061296090779E+00 -0.2084382758774E+01 -0.1076540810160E+01 -0.1378187347984E+01
-0.2042946889401E+00 -0.2049941824348E+01 -0.1059491158558E+01 -0.1389671580104E+01
-0.2202002230511E+00 -0.2007351155892E+01 -0.1046949145448E+01 -0.1400849068632E+01
-0.2532737751139E+00 -0.1956028943781E+01 -0.1038372275247E+01 -0.1410803998521E+01
-0.3026778885727E+00 -0.1895247074880E+01 -0.1033024730202E+01 -0.1418426642632E+01
-0.3671164947058E+00 -0.1824254068350E+01 -0.1029944162024E+01 -0.1422521236010E+01
-0.4444392509926E+00 -0.1742560701870E+01 -0.1027889975238E+01 -0.1421790519620E+01
-0.5306190733445E+00 -0.1650359936298E+01 -0.1025060131932E+01 -0.1414569823615E+01
-0.1495243041195E+01 -0.1886060121480E+01 -0.1589212482426E+01 -0.1173691260678E+01
-0.1337204421397E+01 -0.1936558747334E+01 -0.1538668685401E+01 -0.1198848388369E+01
-0.1175607401572E+01 -0.1986489310259E+01 -0.1486185450791E+01 -0.1226644946597E+01
-0.1015974315518E+01 -0.2032990382374E+01 -0.1433013404375E+01 -0.1253042546097E+01
-0.8634002145963E+00 -0.2073614727793E+01 -0.1380397019422E+01 -0.1276142716665E+01
-0.7220441457618E+00 -0.2106651551729E+01 -0.1329486974449E+01 -0.1295525788146E+01
-0.5949909843623E+00 -0.2131187947599E+01 -0.1281304094772E+01 -0.1311677567040E+01
-0.4843107625876E+00 -0.2147009025071E+01 -0.1236720297063E+01 -0.1325534327634E+01
-0.3912255643364E+00 -0.2154393769583E+01 -0.1196441083907E+01 -0.1338136750150E+01
-0.3163374750818E+00 -0.2153843922260E+01 -0.1160985253806E+01 -0.1350383943553E+01
-0.2598770258289E+00 -0.2145803740884E+01 -0.1130669957487E+01 -0.1362890924635E+01
-0.2219049250915E+00 -0.2130466766748E+01 -0.1105614692360E+01 -0.1375952438959E+01
-0.2023809500813E+00 -0.2107745324429E+01 -0.1085759346266E+01 -0.1389579611419E+01
-0.2011455806842E+00 -0.2077345496140E+01 -0.1070890803391E+01 -0.1403491004965E+01
-0.2178913824605E+00 -0.2038822915207E+01 -0.1060655717213E+01 -0.1417108191170E+01
-0.2521071020824E+00 -0.1991600453865E+01 -0.1054542548620E+01 -0.1429596565708E+01
-0.3029975055988E+00 -0.1934995952996E+01 -0.1051856922872E+01 -0.1439900381194E+01
-0.3693114474919E+00 -0.1868331414939E+01 -0.1051692142675E+01 -0.1446808003351E+01
-0.4490082404461E+00 -0.1791140495140E+01 -0.1052869903055E+01 -0.1448905779531E+01
-0.5385026683224E+00 -0.1703427573737E+01 -0.1053707211095E+01 -0.1444297377596E+01
-0.1487925348437E+01 -0.1878263273232E+01 -0.1582108648171E+01 -0.1153986718372E+01
-0.1326727804989E+01 -0.1930296394897E+01 -0.1530801370064E+01 -0.1178965939406E+01
-0.1164074690347E+01 -0.1981370221387E+01 -0.1478359104766E+01 -0.1207648319676E+01
-0.1004683589266E+01 -0.2029035016556E+01 -0.1425847741120E+01 -0.1235940771571E+01
-0.8530143875344E+00 -0.2071136765657E+01 -0.1374351038514E+01 -0.1261722654905E+01
-0.7127869336745E+00 -0.2106121967142E+01 -0.1324887180023E+01 -0.1284292944202E+01
-0.5868205674248E+00 -0.2133118551863E+01 -0.1278371382823E+01 -0.1303865477019E+01
-0.4770564731182E+00 -0.2151869374366E+01 -0.1235595145184E+01 -0.1321153052939E+01
-0.3846856805080E+00 -0.2162564832296E+01 -0.1197207737981E+01 -0.1337041302153E+01
-0.3103412504587E+00 -0.2165606779707E+01 -0.1163695571227E+01 -0.1352349115346E+01
-0.2543169597096E+00 -0.2161356223772E+01 -0.1135366393357E+01 -0.1367680409950E+01
-0.2167483172854E+00 -0.2149953656148E+01 -0.1112349924692E+01 -0.1383369562595E+01
-0.1976769971055E+00 -0.2131282700600E+01 -0.1094611055145E+01 -0.1399490827614E+01
-0.1970295257858E+00 -0.2105031745068E+01 -0.1081968794557E+01 -0.1415838633380E+01
-0.2145785284288E+00 -0.2070748618811E+01 -0.1074103756479E+01 -0.1431915292607E+01
-0.2498825491353E+00 -0.2027868500288E+01 -0.1070542990514E+01 -0.1446955325408E+01
-0.3022059948664E+00 -0.1975750423355E+01 -0.1070639513848E+01 -0.1459944005360E+01
-0.3703660358416E+00 -0.1913770250341E+01 -0.1073544051783E+01 -0.1469653808040E+01
-0.4524588324422E+00 -0.1841471375595E+01 -0.1078147195043E+01 -0.1474583875233E+01
-0.5453244737160E+00 -0.1758710681930E+01 -0.1082896520407E+01 -0.1472690791542E+01
-0.1480782845254E+01 -0.1870845155097E+01 -0.1575265156170E+01 -0.1133576351293E+01
-0.1316163125909E+01 -0.1924480444338E+01 -0.1523102474153E+01 -0.1158616805175E+01
-0.1152147285620E+01 -0.1976755863691E+01 -0.1470584476447E+01 -0.1188259970039E+01
-0.9927215311575E+00 -0.2025601598341E+01 -0.1418611867266E+01 -0.1218389412904E+01
-0.8417490368616E+00 -0.2069146825636E+01 -0.1368121051904E+01 -0.1246709532578E+01
-0.7025206069241E+00 -0.2106003039534E+01 -0.1320006110488E+01 -0.1272283041013E+01
-0.5775821648268E+00 -0.2135356707041E+01 -0.1275081266544E+01 -0.1295087207764E+01
-0.4687287718082E+00 -0.2156929151752E+01 -0.1234059220943E+01 -0.1315635078561E+01
-0.3770999605156E+00 -0.2170841070724E+01 -0.1197532281645E+01 -0.1334669915161E+01
-0.3033402403224E+00 -0.2177408850992E+01 -0.1165952069961E+01 -0.1352933962766E+01
-0.2477905732948E+00 -0.2176919525816E+01 -0.1139613743691E+01 -0.1371017184049E+01
-0.2106502252428E+00 -0.2169465664558E+01 -0.1118654465369E+01 -0.1389287694588E+01
-0.1920356571543E+00 -0.2154906071121E+01 -0.1103062609492E+01 -0.1407877808573E+01
-0.1919558750773E+00 -0.2132917014934E+01 -0.1092690255534E+01 -0.1426652413054E+01
-0.2102654158078E+00 -0.2103045090926E+01 -0.1087255935407E+01 -0.1445186594331E+01
-0.2466005079285E+00 -0.2064740964207E+01 -0.1086330489148E+01 -0.1462774173090E+01
-0.3002992127130E+00 -0.2017399480700E+01 -0.1089318383141E+01 -0.1478432806754E+01
-0.3702649925004E+00 -0.1960438575747E+01 -0.1095430674298E+01 -0.1490921091514E+01
-0.4547457592744E+00 -0.1893408073716E+01 -0.1103632298706E+01 -0.1498674891657E+01
-0.5509667601129E+00 -0.1816053858591E+01 -0.1112499687969E+01 -0.1499568116456E+01
-0.1473696824673E+01 -0.1863634694359E+01 -0.1568545809967E+01 -0.1112437951035E+01
-0.1305445713563E+01 -0.1918924608315E+01 -0.1515454047439E+01 -0.1137771745578E+01
-0.1139813791934E+01 -0.1972449477692E+01 -0.1462763733014E+01 -0.1168457339394E+01
-0.9801186726538E+00 -0.2022491848885E+01 -0.1411226941544E+01 -0.1200379770962E+01
-0.8296620890050E+00 -0.2067453870697E+01 -0.1361644497606E+01 -0.1231108876933E+01
-0.6913171073783E+00 -0.2106117063399E+01 -0.1314794056930E+01 -0.1259511660525E+01
-0.5673513348258E+00 -0.2137740834078E+01 -0.1271393316160E+01 -0.1285362226449E+01
-0.4593997367766E+00 -0.2162042909762E+01 -0.1232078040748E+01 -0.1308997549668E+01
-0.3685327641075E+00 -0.2179091340044E+01 -0.1197383325914E+01 -0.1331032345335E+01
-0.2953889884265E+00 -0.2189130615358E+01 -0.1167724210817E+01 -0.1352137351320E+01
-0.2403419193898E+00 -0.2192383051161E+01 -0.1143380733259E+01 -0.1372887110758E+01
-0.2036443151488E+00 -0.2188898936733E+01 -0.1124495325532E+01 -0.1393678357340E+01
-0.1854810549799E+00 -0.2178516424236E+01 -0.1111078812413E+01 -0.1414696112623E+01
-0.1859409672809E+00 -0.2160904242153E+01 -0.1103017245636E+01 -0.1435869829803E+01
-0.2049627516256E+00 -0.2135611886695E+01 -0.1100070077221E+01 -0.1456839893346E+01
-0.2422674681540E+00 -0.2102106371802E+01 -0.1101855701985E+01 -0.1476951456934E+01
-0.2972784777028E+00 -0.2059813778375E+01 -0.1107833357547E+01 -0.1495248463845E+01
-0.3689987011240E+00 -0.2008187152545E+01 -0.1117277348391E+01 -0.1510478110023E+01
-0.4558321978696E+00 -0.1946784415618E+01 -0.1129229805475E+01 -0.1521032080912E+01
-0.5553408521322E+00 -0.1875277577606E+01 -0.1142390659079E+01 -0.1524747870027E+01
-0.1466553585397E+01 -0.1856469033359E+01 -0.1561820626854E+01 -0.1090554835307E+01
-0.1294512132847E+01 -0.1913451462869E+01 -0.1507742886162E+01 -0.1116407104147E+01
-0.1127060435952E+01 -0.1968262927697E+01 -0.1454801977225E+01 -0.1148221301010E+01
-0.9669012687883E+00 -0.2019514489053E+01 -0.1403615402625E+01 -0.1181903783743E+01
-0.8168070533185E+00 -0.2065871248804E+01 -0.1354858798561E+01 -0.1214924564386E+01
-0.6792450252673E+00 -0.2106287782968E+01 -0.1309200416550E+01 -0.1245991432897E+01
-0.5562019304116E+00 -0.2140108097857E+01 -0.1267265710072E+01 -0.1274706717704E+01
-0.4491414885995E+00 -0.2167061761094E+01 -0.1229615524237E+01 -0.1301254693565E+01
-0.3590500706547E+00 -0.2187179450691E+01 -0.1196727871997E+01 -0.1326136142833E+01
-0.2865449814532E+00 -0.2200646362263E+01 -0.1168979928582E+01 -0.1349956691513E+01
-0.2320191091301E+00 -0.2207629048719E+01 -0.1146634631281E+01 -0.1373275183540E+01
-0.1957693330625E+00 -0.2208141227662E+01 -0.1129837960675E+01 -0.1396512589193E+01
-0.1780432955718E+00 -0.2202004410727E+01 -0.1118622419123E+01 -0.1419901304704E+01
-0.1790076599498E+00 -0.2188883377040E+01 -0.1112908784562E+01 -0.1443429437764E+01
-0.1986877267720E+00 -0.2168333017330E+01 -0.1112499746906E+01 -0.1466795888061E+01
-0.2368959292179E+00 -0.2139836444058E+01 -0.1117064212606E+01 -0.1489390577187E+01
-0.2931506565123E+00 -0.2102847329185E+01 -0.1126119050422E+01 -0.1510279113586E+01
-0.3665633654086E+00 -0.2056849930246E+01 -0.1139004246069E+01 -0.1528199401183E+01
-0.4556921293292E+00 -0.2001415750523E+01 -0.1154840700601E+01 -0.1541513004140E+01
-0.5583859398363E+00 -0.1936179510350E+01 -0.1172445758614E+01 -0.1548051435778E+01
-0.1459243861192E+01 -0.1849192427561E+01 -0.1554965051770E+01 -0.1067915528293E+01
-0.1283300285911E+01 -0.1907891257301E+01 -0.1499860021505E+01 -0.1094504532105E+01
-0.1113871702203E+01 -0.1964015648042E+01 -0.1446607050946E+01 -0.1127536322310E+01
-0.9530921139242E+00 -0.2016484571693E+01 -0.1395701038700E+01 -0.1162954644937E+01
-0.8032337430849E+00 -0.2064216506278E+01 -0.1347701613782E+01 -0.1198159722873E+01
-0.6663700981706E+00 -0.2106340624930E+01 -0.1303174036552E+01 -0.1231733027406E+01
-0.5442063685698E+00 -0.2142294914014E+01 -0.1262655599612E+01 -0.1263134527873E+01
-0.4380262909507E+00 -0.2171834002008E+01 -0.1226634334579E+01 -0.1292418658450E+01
-0.3487194924920E+00 -0.2194964772062E+01 -0.1195531601308E+01 -0.1319987388619E+01
-0.2768686355169E+00 -0.2211824664376E+01 -0.1169685847983E+01 -0.1346388626535E+01
-0.2228742798492E+00 -0.2222532889756E+01 -0.1149341366799E+01 -0.1372166263970E+01
-0.1870689921726E+00 -0.2227072048147E+01 -0.1134646286072E+01 -0.1397761860834E+01
-0.1697581986911E+00 -0.2225250638373E+01 -0.1125654150565E+01 -0.1423450098813E+01
-0.1711849338077E+00 -0.2216732234948E+01 -0.1122321066469E+01 -0.1449272084807E+01
-0.1914636467384E+00 -0.2201078545357E+01 -0.1124494827433E+01 -0.1474979177763E+01
-0.2305041835554E+00 -0.2177787995262E+01 -0.1131897321173E+01 -0.1500000547313E+01
-0.2879281397335E+00 -0.2146338995419E+01 -0.1144105550620E+01 -0.1523419656606E+01
-0.3629617117489E+00 -0.2106245340550E+01 -0.1160527311637E+01 -0.1543966262725E+01
-0.4543112826181E+00 -0.2057100002527E+01 -0.1180363301024E+01 -0.1559980816107E+01
-0.5600667067767E+00 -0.1998534892806E+01 -0.1202542748754E+01 -0.1569306030780E+01
-0.1451662371641E+01 -0.1841655392748E+01 -0.1547859345337E+01 -0.1044513504173E+01
-0.1271749478572E+01 -0.1902080985647E+01 -0.1491700314399E+01 -0.1072050744408E+01
-0.1100230842260E+01 -0.1959533803858E+01 -0.1438089380028E+01 -0.1106390563562E+01
-0.9387112176142E+00 -0.2013222932437E+01 -0.1387409047005E+01 -0.1143527287265E+01
-0.7889888899275E+00 -0.2062311226299E+01 -0.1340111051228E+01 -0.1180817480209E+01
-0.6527556483893E+00 -0.2106102898560E+01 -0.1296663513778E+01 -0.1216746011848E+01
-0.5314358731075E+00 -0.2144137405736E+01 -0.1257519437867E+01 -0.1250658019251E+01
-0.4261266403250E+00 -0.2176205695399E+01 -0.1223096194688E+01 -0.1282500306377E+01
-0.3376102708512E+00 -0.2202302821553E+01 -0.1193759150402E+01 -0.1312591425786E+01
-0.2664232420381E+00 -0.2222528884244E+01 -0.1169807496386E+01 -0.1341429744929E+01
-0.2129634991150E+00 -0.2236963466553E+01 -0.1151465670943E+01 -0.1369545847489E+01
-0.1775918029968E+00 -0.2245563041827E+01 -0.1138882774178E+01 -0.1397398964083E+01
-0.1606670233546E+00 -0.2248126238765E+01 -0.1132132830325E+01 -0.1425301363726E+01
-0.1625075395687E+00 -0.2244317482050E+01 -0.1131207757292E+01 -0.1453341908295E+01
-0.1833195842498E+00 -0.2233706015051E+01 -0.1136002028790E+01 -0.1481319063860E+01
-0.2231160697189E+00 -0.2215804525179E+01 -0.1146292676695E+01 -0.1508696515614E+01
-0.2816288728585E+00 -0.2190113942026E+01 -0.1161719120049E+01 -0.1534572132000E+01
-0.3582033699812E+00 -0.2156177430322E+01 -0.1181758973145E+01 -0.1557667349861E+01
-0.4516872532079E+00 -0.2113618481829E+01 -0.1205693692409E+01 -0.1576305786353E+01
-0.5603700255341E+00 -0.2062096856831E+01 -0.1232559431585E+01 -0.1588347893970E+01
-0.1443707447079E+01 -0.1833714026059E+01 -0.1540388088468E+01 -0.1020346979711E+01
-0.1259800450322E+01 -0.1895863653752E+01 -0.1483162125153E+01 -0.1049037308868E+01
-0.1086120269690E+01 -0.1954649618236E+01 -0.1429161843700E+01 -0.1084775936826E+01
-0.9237763514342E+00 -0.2009555740943E+01 -0.1378666079921E+01 -0.1123618765393E+01
-0.7741166523263E+00 -0.2059980897529E+01 -0.1332025845054E+01 -0.1162901589403E+01
-0.6384629490719E+00 -0.2105403978119E+01 -0.1289617452509E+01 -0.1201039600497E+01
-0.5179606744653E+00 -0.2145471825325E+01 -0.1251813271727E+01 -0.1237288843549E+01
-0.4135153261909E+00 -0.2180021226569E+01 -0.1218962176705E+01 -0.1271509961466E+01
-0.3257932402609E+00 -0.2209045854191E+01 -0.1191374371371E+01 -0.1303953577923E+01
-0.2552748712219E+00 -0.2232617729981E+01 -0.1169309519600E+01 -0.1335077298504E+01
-0.2023466196883E+00 -0.2250783706900E+01 -0.1152971250572E+01 -0.1365400825416E+01
-0.1673908678102E+00 -0.2263478534903E+01 -0.1142508616377E+01 -0.1395398849465E+01
-0.1508161910083E+00 -0.2270493595661E+01 -0.1138015596848E+01 -0.1425417007536E+01
-0.1530156705343E+00 -0.2271495661951E+01 -0.1139520323378E+01 -0.1455587167778E+01
-0.1742900533199E+00 -0.2266061760133E+01 -0.1146965349414E+01 -0.1485750219958E+01
-0.2147607454475E+00 -0.2253717650770E+01 -0.1160184843279E+01 -0.1515400245428E+01
-0.2742763200259E+00 -0.2233984966329E+01 -0.1178882801597E+01 -0.1543646147442E+01
-0.3523049382493E+00 -0.2206436908764E+01 -0.1202608665046E+01 -0.1569199400469E+01
-0.4478287994782E+00 -0.2170736620734E+01 -0.1230725744378E+01 -0.1590366884266E+01
-0.5593023460173E+00 -0.2126598083536E+01 -0.1262373198688E+01 -0.1605024977566E+01
-0.1435280723201E+01 -0.1825229472657E+01 -0.1532439788166E+01 -0.9954187438172E+00
-0.1247395381029E+01 -0.1889087705325E+01 -0.1474147046847E+01 -0.1025460463810E+01
-0.1071521867763E+01 -0.1949200842749E+01 -0.1419739670340E+01 -0.1062688136999E+01
-0.9083034912116E+00 -0.2005314148957E+01 -0.1369400287406E+01 -0.1103228558780E+01
-0.7586590336796E+00 -0.2057054826567E+01 -0.1323385510959E+01 -0.1144416949759E+01
-0.6235515244850E+00 -0.2104075490303E+01 -0.1281984693699E+01 -0.1184623301783E+01
-0.5038501644349E+00 -0.2146134965328E+01 -0.1245493007830E+01 -0.1223038636856E+01
-0.4002654563603E+00 -0.2183123855919E+01 -0.1214192973692E+01 -0.1259458107508E+01
-0.3133407583669E+00 -0.2215043475692E+01 -0.1188340586994E+01 -0.1294079840885E+01
-0.2434922368604E+00 -0.2241945875762E+01 -0.1168155909970E+01 -0.1327329904540E+01
-0.1910870961991E+00 -0.2263851199008E+01 -0.1153820995821E+01 -0.1359720220610E+01
-0.1565236501637E+00 -0.2280676220990E+01 -0.1145483936537E+01 -0.1391739403065E+01
-0.1402570074523E+00 -0.2292207179531E+01 -0.1143258164982E+01 -0.1423762760354E+01
-0.1427546526360E+00 -0.2298114241066E+01 -0.1147208377130E+01 -0.1455960959008E+01
-0.1644147030932E+00 -0.2297982136615E+01 -0.1157326511728E+01 -0.1488213268808E+01
-0.2054724390161E+00 -0.2291348422208E+01 -0.1173505801799E+01 -0.1520040561147E+01
-0.2658993304643E+00 -0.2277753783936E+01 -0.1195516960736E+01 -0.1550559353198E+01
-0.3452897379232E+00 -0.2256802220774E+01 -0.1222983217486E+01 -0.1578468052501E+01
-0.4427548068549E+00 -0.2228204992800E+01 -0.1255351102654E+01 -0.1602053281669E+01
-0.5568863145668E+00 -0.2191752385071E+01 -0.1291860185553E+01 -0.1619199392510E+01
-0.1426286889376E+01 -0.1816067505302E+01 -0.1523906561634E+01 -0.9697360155291E+00
-0.1234477879832E+01 -0.1881606574307E+01 -0.1464559689731E+01 -0.1001320961080E+01
-0.1056417225339E+01 -0.1943030345143E+01 -0.1409740354551E+01 -0.1040126653994E+01
-0.8923071703503E+00 -0.2000334023520E+01 -0.1359541357671E+01 -0.1082358811205E+01
-0.7426562196125E+00 -0.2053366096278E+01 -0.1314130485136E+01 -0.1125370040424E+01
-0.6080793871783E+00 -0.2101951517519E+01 -0.1273714521977E+01 -0.1167507476947E+01
-0.4891730034678E+00 -0.2145964573421E+01 -0.1238514657997E+01 -0.1207919639862E+01
-0.3864504437114E+00 -0.2185356282475E+01 -0.1208749158242E+01 -0.1246356031264E+01
-0.3003265995873E+00 -0.2220143289185E+01 -0.1184620844718E+01 -0.1282977537680E+01
-0.2311465257156E+00 -0.2250364647711E+01 -0.1166310248552E+01 -0.1318188217938E+01
-0.1792517711673E+00 -0.2276018910027E+01 -0.1153977217235E+01 -0.1352495884464E+01
-0.1450517269308E+00 -0.2297007945370E+01 -0.1147768043070E+01 -0.1386402162197E+01
-0.1290453863363E+00 -0.2313114449263E+01 -0.1147815119821E+01 -0.1420308872621E+01
-0.1317746518998E+00 -0.2324012657665E+01 -0.1154220032568E+01 -0.1454421838010E+01
-0.1537380277670E+00 -0.2329294695323E+01 -0.1167025376892E+01 -0.1488655290006E+01
-0.1952901677511E+00 -0.2328508546522E+01 -0.1186185392700E+01 -0.1522553759806E+01
-0.2565318380823E+00 -0.2321212262423E+01 -0.1211539724164E+01 -0.1555237911380E+01
-0.3371874616494E+00 -0.2307040901171E+01 -0.1242787327373E+01 -0.1585388692477E+01
-0.4364929380864E+00 -0.2285760461610E+01 -0.1279459094612E+01 -0.1611265788220E+01
-0.5531572031000E+00 -0.2257256342465E+01 -0.1320894363065E+01 -0.1630749056466E+01
-0.1416633480366E+01 -0.1806098193395E+01 -0.1514683882826E+01 -0.9433103235437E+00
-0.1220992960618E+01 -0.1873278337548E+01 -0.1454307506449E+01 -0.9766239306024E+00
-0.1040787814748E+01 -0.1935985793181E+01 -0.1399083592178E+01 -0.1017094771235E+01
-0.8758007584097E+00 -0.1994455754313E+01 -0.1349020557558E+01 -0.1061014518103E+01
-0.7261468443115E+00 -0.2048751569737E+01 -0.1304202251295E+01 -0.1105769277980E+01
-0.5921032162635E+00 -0.2098868824349E+01 -0.1264756855880E+01 -0.1149703817311E+01
-0.4739971806708E+00 -0.2144799781870E+01 -0.1230834569272E+01 -0.1191945244983E+01
-0.3721439528266E+00 -0.2186561228830E+01 -0.1202591432329E+01 -0.1232216407042E+01
-0.2868258122792E+00 -0.2224191582250E+01 -0.1180178172435E+01 -0.1270655927491E+01
-0.2183111937857E+00 -0.2257722773520E+01 -0.1163735961682E+01 -0.1307655562958E+01
-0.1669106347825E+00 -0.2287135984808E+01 -0.1153401908282E+01 -0.1343723148921E+01
-0.1330405269342E+00 -0.2312320566087E+01 -0.1149319710805E+01 -0.1379372973590E+01
-0.1172415757085E+00 -0.2333056800733E+01 -0.1151640234007E+01 -0.1415030744558E+01
-0.1201303973440E+00 -0.2349023369750E+01 -0.1160502267591E+01 -0.1450934376841E+01
-0.1423090887539E+00 -0.2359819309546E+01 -0.1176000344218E+01 -0.1487030275707E+01
-0.1842574340918E+00 -0.2365001550930E+01 -0.1198151719921E+01 -0.1522883992070E+01
-0.2462124049256E+00 -0.2364143599101E+01 -0.1226867318781E+01 -0.1557616911140E+01
-0.3280334861052E+00 -0.2356911051593E+01 -0.1261923929517E+01 -0.1589887198107E+01
-0.4290789174506E+00 -0.2343128441185E+01 -0.1302937455254E+01 -0.1617918298377E+01
-0.5481595264117E+00 -0.2322790120581E+01 -0.1349346330664E+01 -0.1639568807500E+01
-0.1406230701662E+01 -0.1795195641353E+01 -0.1504670377401E+01 -0.9161574019631E+00
-0.1206887007023E+01 -0.1863965446017E+01 -0.1443300649268E+01 -0.9513787627722E+00
-0.1024615122457E+01 -0.1927919415707E+01 -0.1387691229417E+01 -0.9935995531824E+00
-0.8587966768458E+00 -0.1987524123654E+01 -0.1337770772842E+01 -0.1039203669136E+01
-0.7091681946089E+00 -0.2043051936718E+01 -0.1293543458443E+01 -0.1085625306026E+01
-0.5756784812389E+00 -0.2094667110586E+01 -0.1255062424974E+01 -0.1131225745152E+01
-0.4583900275055E+00 -0.2142481558158E+01 -0.1222409642161E+01 -0.1175130470642E+01
-0.3574198059995E+00 -0.2186582053951E+01 -0.1195680871144E+01 -0.1217053818048E+01
-0.2729145390882E+00 -0.2227034057444E+01 -0.1174975837390E+01 -0.1257126761240E+01
-0.2050617302804E+00 -0.2263867192936E+01 -0.1160396590969E+01 -0.1295738517129E+01
-0.1541365602196E+00 -0.2297048615091E+01 -0.1152057029474E+01 -0.1333401430498E+01
-0.1205590576627E+00 -0.2326456878292E+01 -0.1150097486982E+01 -0.1370642599239E+01
-0.1049098874722E+00 -0.2351870552013E+01 -0.1154686803629E+01 -0.1407909500030E+01
-0.1078809168615E+00 -0.2372972902128E+01 -0.1166001291968E+01 -0.1445469667290E+01
-0.1301812470751E+00 -0.2389369272351E+01 -0.1184188741127E+01 -0.1483299545425E+01
-0.1724219090497E+00 -0.2400623912533E+01 -0.1209331533077E+01 -0.1520983612797E+01
-0.2349837204209E+00 -0.2406323497655E+01 -0.1241414389347E+01 -0.1557640728217E+01
-0.3178677392299E+00 -0.2406162652574E+01 -0.1280294280901E+01 -0.1591900410731E+01
-0.4205554799951E+00 -0.2400025770989E+01 -0.1325673184600E+01 -0.1621938947817E+01
-0.5419476048058E+00 -0.2388021701221E+01 -0.1377085570340E+01 -0.1645572755138E+01
-0.1394991281650E+01 -0.1783237780579E+01 -0.1493767655459E+01 -0.8882970981319E+00
-0.1192107730023E+01 -0.1853534516606E+01 -0.1431451852285E+01 -0.9255990052754E+00
-0.1007880742679E+01 -0.1918687824811E+01 -0.1375487223231E+01 -0.9696518229716E+00
-0.8413065633942E+00 -0.1979388228511E+01 -0.1325726548833E+01 -0.1016937350584E+01
-0.6917563609930E+00 -0.2036111798622E+01 -0.1282098031767E+01 -0.1064951221929E+01
-0.5588595170347E+00 -0.2089189291884E+01 -0.1244582937035E+01 -0.1112088741108E+01
-0.4424181878647E+00 -0.2138853180424E+01 -0.1213197540018E+01 -0.1157492361820E+01
-0.3423518494849E+00 -0.2185263397425E+01 -0.1187979163035E+01 -0.1200885209931E+01
-0.2586698007124E+00 -0.2228516607537E+01 -0.1168977608912E+01 -0.1242404777051E+01
-0.1914753895444E+00 -0.2268643926640E+01 -0.1156256075674E+01 -0.1282447441480E+01
-0.1410050147833E+00 -0.2305600973210E+01 -0.1149904811440E+01 -0.1321534784667E+01
-0.1076796199890E+00 -0.2339256595002E+01 -0.1150060018129E+01 -0.1360207274822E+01
-0.9211842878589E-01 -0.2369387961610E+01 -0.1156908000552E+01 -0.1398932515628E+01
-0.9508928451357E-01 -0.2395682895652E+01 -0.1170662921709E+01 -0.1438005784606E+01
-0.1174119054095E+00 -0.2417752373731E+01 -0.1191527208174E+01 -0.1477432126122E+01
-0.1598351146381E+00 -0.2435166173629E+01 -0.1219650602392E+01 -0.1516813495891E+01
-0.2228920934504E+00 -0.2447521360081E+01 -0.1255094319976E+01 -0.1555263331557E+01
-0.3067336678536E+00 -0.2454538925802E+01 -0.1297798115726E+01 -0.1591376431921E+01
-0.4109691146628E+00 -0.2456162112754E+01 -0.1347551673468E+01 -0.1623270423566E+01
-0.5345827429020E+00 -0.2452613490284E+01 -0.1403982226037E+01 -0.1648698666669E+01
-0.1382830343852E+01 -0.1770106200548E+01 -0.1481880172109E+01 -0.8597532895475E+00
-0.1176604120365E+01 -0.1841856168314E+01 -0.1418676332081E+01 -0.8993022714878E+00
-0.9905664425814E+00 -0.1908151884083E+01 -0.1362397610077E+01 -0.9452661303698E+00
-0.8233413954492E+00 -0.1969901443700E+01 -0.1312824131070E+01 -0.9942298103897E+00
-0.6739463443492E+00 -0.2027779786172E+01 -0.1269811278124E+01 -0.1043762744047E+01
-0.5416995563125E+00 -0.2082281806460E+01 -0.1233271237375E+01 -0.1092310599766E+01
-0.4261475479166E+00 -0.2133760738225E+01 -0.1203156891435E+01 -0.1139050315608E+01
-0.3270137814557E+00 -0.2182451855757E+01 -0.1179448846498E+01 -0.1183730272314E+01
-0.2441692433490E+00 -0.2228486134844E+01 -0.1162148024803E+01 -0.1226508129856E+01
-0.1776308904357E+00 -0.2271899001313E+01 -0.1151279046202E+01 -0.1267796952324E+01
-0.1275937458465E+00 -0.2312636207322E+01 -0.1146908075080E+01 -0.1308132409607E+01
-0.9447750953375E-01 -0.2350557382245E+01 -0.1149166396221E+01 -0.1348069225425E+01
-0.7893883419114E-01 -0.2385438280463E+01 -0.1158257240950E+01 -0.1388093914619E+01
-0.8182237944582E-01 -0.2416971162783E+01 -0.1174432961869E+01 -0.1428528221827E+01
-0.1040622631335E+00 -0.2444771963033E+01 -0.1197952083260E+01 -0.1469405102551E+01
-0.1465521127834E+00 -0.2468414045488E+01 -0.1229034091271E+01 -0.1510343308071E+01
-0.2099869577071E+00 -0.2487501501338E+01 -0.1267819572535E+01 -0.1550448520333E+01
-0.2946773129108E+00 -0.2501777757566E+01 -0.1314333879791E+01 -0.1588274877827E+01
-0.4003673491082E+00 -0.2511241341979E+01 -0.1368456081340E+01 -0.1621869834579E+01
-0.5261258220833E+00 -0.2516225024507E+01 -0.1429904894271E+01 -0.1648903717189E+01
-0.1369665292029E+01 -0.1755686004759E+01 -0.1468915105765E+01 -0.8305538076897E+00
-0.1160326397248E+01 -0.1828804887309E+01 -0.1404891700178E+01 -0.8725101578749E+00
-0.9726542064168E+00 -0.1896176608386E+01 -0.1348350479537E+01 -0.9204607092286E+00
-0.8049115815839E+00 -0.1958921415207E+01 -0.1299001505197E+01 -0.9710984868083E+00
-0.6557721265013E+00 -0.2017908702939E+01 -0.1256629986650E+01 -0.1022078320866E+01
-0.5242507247957E+00 -0.2073794944072E+01 -0.1221081461271E+01 -0.1071911613667E+01
-0.4096431290841E+00 -0.2127053656389E+01 -0.1192247486148E+01 -0.1119826329610E+01
-0.3114789429759E+00 -0.2177996688724E+01 -0.1170053543931E+01 -0.1165611743634E+01
-0.2294908494065E+00 -0.2226791412545E+01 -0.1154452660189E+01 -0.1209458749115E+01
-0.1636080812598E+00 -0.2273479429246E+01 -0.1145431127033E+01 -0.1251806329360E+01
-0.1139824385583E+00 -0.2317997498196E+01 -0.1143030567376E+01 -0.1293209097484E+01
-0.8103070125704E-01 -0.2360195951519E+01 -0.1147376523895E+01 -0.1334237141934E+01
-0.6544599610383E-01 -0.2399848843759E+01 -0.1158688571797E+01 -0.1375395034061E+01
-0.6815065673890E-01 -0.2436652756368E+01 -0.1177257601174E+01 -0.1417030304717E+01
-0.9019709080732E-01 -0.2470228001462E+01 -0.1203399790314E+01 -0.1459203944334E+01
-0.1326312077996E+00 -0.2500149493362E+01 -0.1237406926407E+01 -0.1501551737648E+01
-0.1963204009691E+00 -0.2526024380506E+01 -0.1279502044048E+01 -0.1543170082699E+01
-0.2817464011905E+00 -0.2547613158195E+01 -0.1329798989538E+01 -0.1582566986928E+01
-0.3887979703379E+00 -0.2564963974036E+01 -0.1388268110335E+01 -0.1617708481922E+01
-0.5166332769735E+00 -0.2578513448310E+01 -0.1454718957194E+01 -0.1646163054794E+01
-0.1355415703006E+01 -0.1739865679245E+01 -0.1454782245968E+01 -0.8007303674562E+00
-0.1143225955462E+01 -0.1814258906675E+01 -0.1390017881679E+01 -0.8452481680632E+00
-0.9541262664439E+00 -0.1882631082054E+01 -0.1333275950412E+01 -0.8952574227846E+00
-0.7860270308429E+00 -0.1946310073528E+01 -0.1284198435797E+01 -0.9475640002175E+00
-0.6372667133833E+00 -0.2006355687972E+01 -0.1242502525486E+01 -0.9999191820659E+00
-0.5065640064114E+00 -0.2063583192665E+01 -0.1207969180502E+01 -0.1050914684971E+01
-0.3929689486358E+00 -0.2118585238026E+01 -0.1180430464737E+01 -0.1099845170449E+01
-0.2958200742135E+00 -0.2171750551893E+01 -0.1159758191329E+01 -0.1146555634180E+01
-0.2147126114978E+00 -0.2223283984592E+01 -0.1145858397256E+01 -0.1191282617826E+01
-0.1494875680447E+00 -0.2273234241113E+01 -0.1138679247416E+01 -0.1234499853457E+01
-0.1002523411616E+00 -0.2321529179942E+01 -0.1138237312032E+01 -0.1276785629330E+01
-0.6741951235902E-01 -0.2368009216575E+01 -0.1144651499696E+01 -0.1318726619227E+01
-0.5171779002236E-01 -0.2412446212968E+01 -0.1158157078468E+01 -0.1360844871693E+01
-0.5414793137507E-01 -0.2454541062084E+01 -0.1179083823935E+01 -0.1403513597366E+01
-0.7588452950653E-01 -0.2493918105923E+01 -0.1207807235588E+01 -0.1446822818316E+01
-0.1181336828645E+00 -0.2530151797871E+01 -0.1244694172789E+01 -0.1490426680349E+01
-0.1819467050438E+00 -0.2562847799347E+01 -0.1290053413792E+01 -0.1533411854079E+01
-0.2679897356739E+00 -0.2591776911976E+01 -0.1344090320986E+01 -0.1574235530155E+01
-0.3763079383554E+00 -0.2617029038452E+01 -0.1406868375531E+01 -0.1610771587538E+01
-0.5061561485708E+00 -0.2639135989484E+01 -0.1478287301136E+01 -0.1640469138773E+01
-0.1340003220829E+01 -0.1722536959691E+01 -0.1439393881193E+01 -0.7703185017519E+00
-0.1125255313164E+01 -0.1798100086439E+01 -0.1373977034328E+01 -0.8175456415504E+00
-0.9349651278174E+00 -0.1867388382149E+01 -0.1317106146344E+01 -0.8696816945170E+00
-0.7666972090824E+00 -0.1931933657197E+01 -0.1268356503934E+01 -0.9236501065385E+00
-0.6184621594544E+00 -0.1992982390506E+01 -0.1227378935368E+01 -0.9773093307982E+00
-0.4886891851807E+00 -0.2051505596870E+01 -0.1193891544535E+01 -0.1029345363823E+01
-0.3761878527883E+00 -0.2108213220553E+01 -0.1167668501509E+01 -0.1079134459858E+01
-0.2801090386230E+00 -0.2163570248587E+01 -0.1148529262076E+01 -0.1126591362238E+01
-0.1999121699750E+00 -0.2217819098372E+01 -0.1136333693241E+01 -0.1172009965441E+01
-0.1353503036015E+00 -0.2271015569348E+01 -0.1130991957418E+01 -0.1215907065977E+01
-0.8648585268882E-01 -0.2323077927862E+01 -0.1132494973986E+01 -0.1258889107343E+01
-0.5372623691527E-01 -0.2373835524346E+01 -0.1140954024899E+01 -0.1301560554885E+01
-0.3783478949163E-01 -0.2423057382800E+01 -0.1156619318043E+01 -0.1344460517941E+01
-0.3989117522532E-01 -0.2470448927983E+01 -0.1179859845515E+01 -0.1387988309759E+01
-0.6119592672898E-01 -0.2515638590204E+01 -0.1211112219887E+01 -0.1432264899873E+01
-0.1031235789195E+00 -0.2558198567896E+01 -0.1250821405831E+01 -0.1476965389514E+01
-0.1669219872880E+00 -0.2597728075393E+01 -0.1299385526164E+01 -0.1521167666832E+01
-0.2534565793393E+00 -0.2634000077923E+01 -0.1357104625471E+01 -0.1563274557530E+01
-0.3629426455035E+00 -0.2667136168969E+01 -0.1424137039190E+01 -0.1601057819134E+01
-0.4947396259427E+00 -0.2697752546774E+01 -0.1500471317371E+01 -0.1631830566791E+01
-0.1323351450650E+01 -0.1703594686817E+01 -0.1422664681001E+01 -0.7393575020587E+00
-0.1106368063599E+01 -0.1780213779130E+01 -0.1356693462641E+01 -0.7894356856233E+00
-0.9151535974927E+00 -0.1850325496189E+01 -0.1299775170733E+01 -0.8437624217441E+00
-0.7469311935940E+00 -0.1915662739585E+01 -0.1251419145420E+01 -0.8993836102940E+00
-0.5993895841320E+00 -0.1977655152644E+01 -0.1211211023213E+01 -0.9542754766939E+00
-0.4706747730533E+00 -0.2037426124183E+01 -0.1178807418711E+01 -0.1007231813659E+01
-0.3593613297225E+00 -0.2095800338663E+01 -0.1153925981215E+01 -0.1057724677413E+01
-0.2644165204740E+00 -0.2153317493539E+01 -0.1136334983704E+01 -0.1105751799680E+01
-0.1851664167871E+00 -0.2210256662855E+01 -0.1125848844576E+01 -0.1151675367775E+01
-0.1212771367027E+00 -0.2266679778881E+01 -0.1122339747477E+01 -0.1196062940717E+01
-0.7276606858782E-01 -0.2322494017551E+01 -0.1125772237630E+01 -0.1239553216522E+01
-0.4003474563221E-01 -0.2377515973224E+01 -0.1136248834980E+01 -0.1282769505246E+01
-0.2387996504159E-01 -0.2431511072572E+01 -0.1154033784751E+01 -0.1326267577980E+01
-0.2546032766564E-01 -0.2484189850523E+01 -0.1179535580757E+01 -0.1370473721395E+01
-0.4620571890634E-01 -0.2535185509815E+01 -0.1213253874422E+01 -0.1415542704286E+01
-0.8766755495668E-01 -0.2584066695835E+01 -0.1255715094687E+01 -0.1461174611094E+01
-0.1513039082917E+00 -0.2630421071702E+01 -0.1307410737281E+01 -0.1506441210143E+01
-0.2381961776853E+00 -0.2674014405609E+01 -0.1368738970677E+01 -0.1549688965104E+01
-0.3487453025030E+00 -0.2714987585436E+01 -0.1439954453679E+01 -0.1588578546107E+01
-0.4824233186299E+00 -0.2754028619679E+01 -0.1521132407147E+01 -0.1620271024387E+01
-0.1305385825464E+01 -0.1682936614489E+01 -0.1404511543215E+01 -0.7078903655153E+00
-0.1086518825270E+01 -0.1760488655584E+01 -0.1338093512608E+01 -0.7609551058804E+00
-0.8946748148129E+00 -0.1831323211851E+01 -0.1281219069283E+01 -0.8175318647196E+00
-0.7267377264676E+00 -0.1897372243430E+01 -0.1233331682724E+01 -0.8747942302706E+00
-0.5800791803037E+00 -0.1960245187520E+01 -0.1193952449849E+01 -0.9308469045995E+00
-0.4525679228277E+00 -0.2021214025273E+01 -0.1162677512658E+01 -0.9846046996840E+00
-0.3425493006302E+00 -0.2081214877102E+01 -0.1139169160645E+01 -0.1035649075008E+01
-0.2488116925759E+00 -0.2140859668315E+01 -0.1123145536770E+01 -0.1084073218368E+01
-0.1705510602972E+00 -0.2200462213215E+01 -0.1114376235724E+01 -0.1130317740370E+01
-0.1073483122681E+00 -0.2260088632207E+01 -0.1112695361081E+01 -0.1175007950795E+01
-0.5917627019736E-01 -0.2319632653404E+01 -0.1118040191257E+01 -0.1218818396952E+01
-0.2643003259034E-01 -0.2378895831422E+01 -0.1130503153219E+01 -0.1262391984206E+01
-0.9938349852296E-02 -0.2437639129536E+01 -0.1150361412395E+01 -0.1306300578979E+01
-0.1093810691757E-01 -0.2495579249226E+01 -0.1178063154399E+01 -0.1350998629151E+01
-0.3099136218021E-01 -0.2552355738262E+01 -0.1214173134128E+01 -0.1396678458633E+01
-0.7183484362753E-01 -0.2607533256397E+01 -0.1259303003817E+01 -0.1443070735883E+01
-0.1351514920846E+00 -0.2660683060943E+01 -0.1314042236590E+01 -0.1489245824787E+01
-0.2222573485016E+00 -0.2711553506113E+01 -0.1378891098171E+01 -0.1533493865952E+01
-0.3337566878835E+00 -0.2760290116452E+01 -0.1454201994349E+01 -0.1573356837584E+01
-0.4692414716030E+00 -0.2807637751632E+01 -0.1540133231014E+01 -0.1605827571347E+01
-0.1286033475464E+01 -0.1660463181528E+01 -0.1384853425274E+01 -0.6759637518696E+00
-0.1065663211549E+01 -0.1738816485906E+01 -0.1318105454461E+01 -0.7321443326156E+00
-0.8735123123252E+00 -0.1810265983763E+01 -0.1261375795962E+01 -0.7910255045835E+00
-0.7061252938225E+00 -0.1876941455013E+01 -0.1214041368873E+01 -0.8499144129207E+00
-0.5605602396342E+00 -0.1940628766713E+01 -0.1175558830002E+01 -0.9070552789103E+00
-0.4344143482498E+00 -0.2002744197095E+01 -0.1145464513407E+01 -0.9614970040476E+00
-0.3258099090414E+00 -0.2064331213551E+01 -0.1123366324769E+01 -0.1012943506337E+01
-0.2333618727094E+00 -0.2126070561521E+01 -0.1108933241276E+01 -0.1061595136271E+01
-0.1561401667405E+00 -0.2188307872215E+01 -0.1101890575514E+01 -0.1107980217308E+01
-0.9364293313328E-01 -0.2251110482480E+01 -0.1102034102543E+01 -0.1152788015638E+01
-0.4579936098258E-01 -0.2314355369241E+01 -0.1109272720392E+01 -0.1196731907923E+01
-0.1299770430484E-01 -0.2377826071685E+01 -0.1123687171865E+01 -0.1240474687766E+01
 0.3903336528532E-02 -0.2441278074616E+01 -0.1145566123995E+01 -0.1284603354845E+01
 0.3590178131455E-02 -0.2504435870643E+01 -0.1175397472499E+01 -0.1329601829024E+01
-0.1563331060753E-01 -0.2566948089250E+01 -0.1213813254854E+01 -0.1375704540796E+01
-0.5569732394306E-01 -0.2628376343463E+01 -0.1261514620481E+01 -0.1422680008098E+01
-0.1185251335998E+00 -0.2688271393123E+01 -0.1319194364214E+01 -0.1469604288607E+01
-0.2056881707336E+00 -0.2746353580866E+01 -0.1387459619733E+01 -0.1514713775920E+01
-0.3180148576867E+00 -0.2802756753358E+01 -0.1466762653471E+01 -0.1555426096147E+01
-0.4552248142427E+00 -0.2858264787037E+01 -0.1557340108651E+01 -0.1588548997067E+01
-0.1265223053295E+01 -0.1636077185262E+01 -0.1363611108664E+01 -0.6436279546522E+00
-0.1043757808306E+01 -0.1715091834440E+01 -0.1296659328802E+01 -0.7030473378543E+00
-0.8516501004846E+00 -0.1787041751758E+01 -0.1240185167408E+01 -0.7642818596312E+00
-0.6851022277813E+00 -0.1854254029517E+01 -0.1193497437903E+01 -0.8247790868198E+00
-0.5408611911498E+00 -0.1918687413308E+01 -0.1155987841163E+01 -0.8829343852574E+00
-0.4162582482245E+00 -0.1981897539570E+01 -0.1127133217404E+01 -0.9379437761976E+00
-0.3091993072612E+00 -0.2045030332189E+01 -0.1106487927735E+01 -0.9896461812244E+00
-0.2181321695964E+00 -0.2108831065870E+01 -0.1093672717895E+01 -0.1038360068890E+01
-0.1420056795879E+00 -0.2173673278126E+01 -0.1088369107365E+01 -0.1084709913300E+01
-0.8023838218660E-01 -0.2239621470238E+01 -0.1090334127874E+01 -0.1129454317861E+01
-0.3271724199480E-01 -0.2306531489705E+01 -0.1099446901110E+01 -0.1173347768746E+01
 0.1766050932837E-03 -0.2374165028984E+01 -0.1115774556399E+01 -0.1217072630603E+01
 0.1755712633396E-01 -0.2442270821495E+01 -0.1139615433835E+01 -0.1261229405428E+01
 0.1803683029100E-01 -0.2510583374150E+01 -0.1171496872643E+01 -0.1306332652694E+01
-0.2150658567146E-03 -0.2578764552143E+01 -0.1212120417386E+01 -0.1352664042483E+01
-0.3932968652348E-01 -0.2646375800525E+01 -0.1262281575711E+01 -0.1400038858048E+01
-0.1014868722447E+00 -0.2712944990650E+01 -0.1322782972205E+01 -0.1447548680920E+01
-0.1885360541303E+00 -0.2778153750103E+01 -0.1394344204453E+01 -0.1493381779336E+01
-0.3015545720811E+00 -0.2842106952218E+01 -0.1477520912673E+01 -0.1534828219272E+01
-0.4404037824619E+00 -0.2905609204716E+01 -0.1572626099985E+01 -0.1568492871960E+01
-0.1242884508647E+01 -0.1609683318936E+01 -0.1340706875564E+01 -0.6109368909922E+00
-0.1020760166290E+01 -0.1689211631444E+01 -0.1273686741704E+01 -0.6737115270870E+00
-0.8290727927046E+00 -0.1761541705333E+01 -0.1217588810989E+01 -0.7373422351074E+00
-0.6636768438071E+00 -0.1829198002672E+01 -0.1171651174873E+01 -0.7994253397424E+00
-0.5210096603761E+00 -0.1894308116754E+01 -0.1135199352372E+01 -0.8585198037933E+00
-0.3981422401406E+00 -0.1958561308489E+01 -0.1107650665047E+01 -0.9139818216662E+00
-0.2927714459612E+00 -0.2023200292616E+01 -0.1088506714370E+01 -0.9657973487681E+00
-0.2031851267520E+00 -0.2089029802810E+01 -0.1077341014162E+01 -0.1014413182759E+01
-0.1282169244580E+00 -0.2156446443263E+01 -0.1073791780105E+01 -0.1060557553342E+01
-0.6720970814041E-01 -0.2225506693142E+01 -0.1077576705870E+01 -0.1105062960343E+01
-0.2001012092941E-01 -0.2296039638331E+01 -0.1088543384092E+01 -0.1148726536063E+01
 0.1300791373797E-01 -0.2367780187352E+01 -0.1106742965791E+01 -0.1192249150496E+01
 0.3093434274387E-01 -0.2440468601843E+01 -0.1132481098904E+01 -0.1236242189966E+01
 0.3231201778872E-01 -0.2513852180199E+01 -0.1166323873375E+01 -0.1281251539699E+01
 0.1517672792124E-01 -0.2587611747661E+01 -0.1209044456211E+01 -0.1327611484070E+01
-0.2280979034624E-01 -0.2661313986020E+01 -0.1261538171692E+01 -0.1375194445491E+01
-0.8410059843965E-01 -0.2734464302223E+01 -0.1324725499951E+01 -0.1423120329508E+01
-0.1708486382445E+00 -0.2806696555523E+01 -0.1399446237521E+01 -0.1469538811887E+01
-0.2844076818352E+00 -0.2878066037712E+01 -0.1486362644417E+01 -0.1511611671478E+01
-0.4248128020641E+00 -0.2949384514486E+01 -0.1585872734756E+01 -0.1545720023364E+01
-0.1218948768613E+01 -0.1581187479261E+01 -0.1316064033163E+01 -0.5779481148683E+00
-0.9966288139838E+00 -0.1661074565350E+01 -0.1249120585119E+01 -0.6441875764816E+00
-0.8057657814920E+00 -0.1733659987244E+01 -0.1193530108279E+01 -0.7102503669877E+00
-0.6418576195088E+00 -0.1801665834721E+01 -0.1148456020575E+01 -0.7738919931572E+00
-0.5010325480819E+00 -0.1867383593083E+01 -0.1113155583524E+01 -0.8338485109914E+00
-0.3801072964795E+00 -0.1932629460171E+01 -0.1086986272869E+01 -0.8896493393849E+00
-0.2765778695577E+00 -0.1998736628509E+01 -0.1069397811379E+01 -0.9414389201216E+00
-0.1885803722033E+00 -0.2066563628648E+01 -0.1059917677712E+01 -0.9898018535716E+00
-0.1148401090445E+00 -0.2136524484134E+01 -0.1058141356110E+01 -0.1035576956403E+01
-0.5462898083285E-01 -0.2208661291931E+01 -0.1063746425501E+01 -0.1079674430133E+01
-0.7755752955472E-02 -0.2282769256328E+01 -0.1076546751633E+01 -0.1122934868478E+01
 0.2541268125848E-01 -0.2358550086936E+01 -0.1096574577887E+01 -0.1166075725581E+01
 0.4394628785469E-01 -0.2435733099183E+01 -0.1124139798473E+01 -0.1209715296998E+01
 0.4632414878524E-01 -0.2514081632204E+01 -0.1159846014265E+01 -0.1254430595824E+01
 0.3045216200838E-01 -0.2593302770101E+01 -0.1204539782748E+01 -0.1300613684903E+01
-0.6219187791995E-02 -0.2672976699264E+01 -0.1259222063722E+01 -0.1348205521473E+01
-0.6643269420551E-01 -0.2752591012157E+01 -0.1324941138630E+01 -0.1396370026233E+01
-0.1526733820931E+00 -0.2831726469915E+01 -0.1402667926886E+01 -0.1443232661533E+01
-0.2666083575848E+00 -0.2910368424860E+01 -0.1493179083962E+01 -0.1485830423494E+01
-0.4084907538920E+00 -0.2989307942636E+01 -0.1596965383318E+01 -0.1520292527696E+01
-0.1193347360296E+01 -0.1550495787458E+01 -0.1289606276173E+01 -0.5447228652501E+00
-0.9713233416562E+00 -0.1630580255008E+01 -0.1222894687331E+01 -0.6145291765281E+00
-0.7817155320945E+00 -0.1703293401106E+01 -0.1167954195642E+01 -0.6830519100351E+00
-0.6196534784237E+00 -0.1771554617074E+01 -0.1123867802033E+01 -0.7482190623638E+00
-0.4809561526986E+00 -0.1837812675196E+01 -0.1089821346346E+01 -0.8089584393453E+00
-0.3621927196926E+00 -0.1904003047022E+01 -0.1065112007654E+01 -0.8649855555985E+00
-0.2606675523966E+00 -0.1971542695738E+01 -0.1049138813962E+01 -0.9166140814106E+00
-0.1743743323066E+00 -0.2041338035420E+01 -0.1041384810190E+01 -0.9645751739555E+00
-0.1019378718171E+00 -0.2113814203738E+01 -0.1041403472869E+01 -0.1009824405318E+01
-0.4256466011635E-01 -0.2188991416204E+01 -0.1048831353210E+01 -0.1053352874899E+01
 0.3971337790849E-02 -0.2266622133830E+01 -0.1063445871441E+01 -0.1096044863458E+01
 0.3730967358132E-01 -0.2346366380462E+01 -0.1085256649481E+01 -0.1138631589187E+01
 0.5650506466625E-01 -0.2427938826595E+01 -0.1114573865279E+01 -0.1181732480782E+01
 0.5998044687048E-01 -0.2511122457798E+01 -0.1152036742214E+01 -0.1225954110890E+01
 0.4551795758187E-01 -0.2595659583366E+01 -0.1198566561078E+01 -0.1271750794371E+01
 0.1035601106683E-01 -0.2681154675174E+01 -0.1255275368946E+01 -0.1319143775142E+01
-0.4855301045888E-01 -0.2767087383489E+01 -0.1323350981799E+01 -0.1367358905382E+01
-0.1340582498272E+00 -0.2852987522131E+01 -0.1403911509260E+01 -0.1414517107626E+01
-0.2481886930315E+00 -0.2938752531010E+01 -0.1497862371500E+01 -0.1457541989355E+01
-0.3914870528855E+00 -0.3025109798163E+01 -0.1605800515920E+01 -0.1492287600457E+01
-0.1166011667444E+01 -0.1517512884037E+01 -0.1261256535997E+01 -0.5113261448804E+00
-0.9448044301758E+00 -0.1597627930411E+01 -0.1194943206445E+01 -0.5847925544714E+00
-0.7569099878257E+00 -0.1670341175278E+01 -0.1140808043765E+01 -0.6557936422635E+00
-0.5970740504919E+00 -0.1738766441136E+01 -0.1097845028281E+01 -0.7224470502341E+00
-0.4608062711693E+00 -0.1805500861536E+01 -0.1065164349670E+01 -0.7838880007624E+00
-0.3444360055311E+00 -0.1872590513722E+01 -0.1042002461406E+01 -0.8400303696920E+00
-0.2450867401330E+00 -0.1941529900031E+01 -0.1027709818270E+01 -0.8913668976640E+00
-0.1606199486964E+00 -0.2013267315743E+01 -0.1021727011695E+01 -0.9387834116717E+00
-0.8956885622200E-01 -0.2088232392834E+01 -0.1023566584460E+01 -0.9833578905313E+00
-0.3108093252111E-01 -0.2166414881765E+01 -0.1032823030095E+01 -0.1026165144623E+01
 0.1510074226448E-01 -0.2247513770196E+01 -0.1049234120467E+01 -0.1068133061711E+01
 0.4862088113594E-01 -0.2331136085404E+01 -0.1072782143285E+01 -0.1110003042894E+01
 0.6852463652258E-01 -0.2416975689432E+01 -0.1103771992068E+01 -0.1152387495493E+01
 0.7318783135522E-01 -0.2504839478294E+01 -0.1142876271163E+01 -0.1195918934586E+01
 0.6027779290678E-01 -0.2594515816234E+01 -0.1191091867943E+01 -0.1241117285404E+01
 0.2682383548233E-01 -0.2685646473171E+01 -0.1249646636544E+01 -0.1288095671464E+01
-0.3053665180668E-01 -0.2777716124446E+01 -0.1319878801491E+01 -0.1336160405399E+01
-0.1150521087818E+00 -0.2870218618216E+01 -0.1403077238130E+01 -0.1383452166104E+01
-0.2291749784027E+00 -0.2962954481143E+01 -0.1500300842181E+01 -0.1426804802380E+01
-0.3738438961622E+00 -0.3056528142286E+01 -0.1612274853982E+01 -0.1461786007460E+01
-0.1136871683571E+01 -0.1482138991928E+01 -0.1230935014362E+01 -0.4778267807079E+00
-0.9170342729024E+00 -0.1562114886661E+01 -0.1165200102039E+01 -0.5550355585636E+00
-0.7313390602852E+00 -0.1634704881455E+01 -0.1112040649797E+01 -0.6285222036536E+00
-0.5741304102638E+00 -0.1703209776441E+01 -0.1070349885037E+01 -0.6966160903175E+00
-0.4406080327857E+00 -0.1770360857017E+01 -0.1039155375572E+01 -0.7586756991863E+00
-0.3268728757204E+00 -0.1838308189721E+01 -0.1017635098176E+01 -0.8148240826260E+00
-0.2298787751483E+00 -0.1908617754867E+01 -0.1005093366558E+01 -0.8657419702507E+00
-0.1473666580394E+00 -0.1982274749109E+01 -0.1000931458821E+01 -0.9124774829736E+00
-0.7778737970577E-01 -0.2059705824598E+01 -0.1004621803474E+01 -0.9562363118599E+00
-0.2023716693220E-01 -0.2140861496082E+01 -0.1015716369041E+01 -0.9981796267158E+00
 0.2556703923938E-01 -0.2225374498531E+01 -0.1033909503245E+01 -0.1039279067951E+01
 0.5927262317944E-01 -0.2312783895340E+01 -0.1059150295229E+01 -0.1080282319676E+01
 0.7992146577300E-01 -0.2402752606350E+01 -0.1091730633302E+01 -0.1121783770451E+01
 0.8585466013309E-01 -0.2495113807460E+01 -0.1132351796372E+01 -0.1164434741389E+01
 0.7463290603532E-01 -0.2589720071927E+01 -0.1182090964971E+01 -0.1208822647949E+01
 0.4308586753580E-01 -0.2686262386347E+01 -0.1242292960690E+01 -0.1255164364154E+01
-0.1246854596453E-01 -0.2784244304120E+01 -0.1314455036206E+01 -0.1302864022072E+01
-0.9570459343984E-01 -0.2883145638826E+01 -0.1400059605614E+01 -0.1350106329671E+01
-0.2095849629847E+00 -0.2982698321090E+01 -0.1500373139709E+01 -0.1393675152223E+01
-0.3555980866285E+00 -0.3083309006247E+01 -0.1616286329552E+01 -0.1428866422563E+01
-0.1105854371004E+01 -0.1444265292794E+01 -0.1198556238945E+01 -0.4442975553304E+00
-0.8879753571870E+00 -0.1523932009113E+01 -0.1133596459286E+01 -0.5253156014645E+00
-0.7049974324209E+00 -0.1596291749048E+01 -0.1081605912547E+01 -0.6012819716475E+00
-0.5508341427099E+00 -0.1664800024883E+01 -0.1041348056127E+01 -0.6707651032801E+00
-0.4203865586567E+00 -0.1732314426088E+01 -0.1011769460264E+01 -0.7333599381161E+00
-0.3095360687889E+00 -0.1801079250038E+01 -0.9919891973325E+00 -0.7894072573845E+00
-0.2150846196430E+00 -0.1872734535844E+01 -0.9812750005898E+00 -0.8397840218127E+00
-0.1346601035936E+00 -0.1948292278942E+01 -0.9789876173085E+00 -0.8857085055338E+00
-0.6664333153923E-01 -0.2028170951206E+01 -0.9845627103931E+00 -0.9285186906352E+00
-0.1008725988850E-01 -0.2112272509157E+01 -0.9975090889212E+00 -0.9694648943380E+00
 0.3531066685127E-01 -0.2200150041791E+01 -0.1017474503641E+01 -0.1009563680612E+01
 0.6919682577772E-01 -0.2291254322205E+01 -0.1044367020672E+01 -0.1049565781211E+01
 0.9061607097392E-01 -0.2385201219881E+01 -0.1078455017251E+01 -0.1090033506892E+01
 0.9788946202958E-01 -0.2481848998973E+01 -0.1120460979521E+01 -0.1131624909702E+01
 0.8848904251434E-01 -0.2581131836469E+01 -0.1171542110187E+01 -0.1174991380028E+01
 0.5903327121944E-01 -0.2682834778365E+01 -0.1233186705230E+01 -0.1220470443101E+01
 0.5554489639668E-02 -0.2786449073881E+01 -0.1307020451278E+01 -0.1267580618060E+01
-0.7607796571942E-01 -0.2891484426561E+01 -0.1394754320834E+01 -0.1314564201213E+01
-0.1894112514904E+00 -0.2997660702079E+01 -0.1497923814378E+01 -0.1358203690396E+01
-0.3367806973521E+00 -0.3105205432007E+01 -0.1617733476695E+01 -0.1393594920149E+01
-0.1072868723720E+01 -0.1403751990695E+01 -0.1164011732822E+01 -0.4108132009616E+00
-0.8576005858843E+00 -0.1482971369499E+01 -0.1100068816240E+01 -0.4956848462356E+00
-0.6778783454353E+00 -0.1555010131181E+01 -0.1049457581348E+01 -0.5741116739214E+00
-0.5272061255521E+00 -0.1623473567658E+01 -0.1010819453245E+01 -0.6449313932117E+00
-0.4001589899651E+00 -0.1691284306306E+01 -0.9829783467544E+00 -0.7079800662771E+00
-0.2924588031725E+00 -0.1760837131586E+01 -0.9650490868889E+00 -0.7638200154393E+00
-0.2007417732064E+00 -0.1833816477235E+01 -0.9562423752823E+00 -0.8135376675175E+00
-0.1225430510465E+00 -0.1911261352096E+01 -0.9558880670527E+00 -0.8585275269606E+00
-0.5618165620737E-01 -0.1993572583285E+01 -0.9633844901180E+00 -0.9002636151097E+00
-0.6799127980450E-03 -0.2080600049266E+01 -0.9782015796890E+00 -0.9400883511258E+00
 0.4427932867583E-01 -0.2171800371310E+01 -0.9999348875020E+00 -0.9790665330255E+00
 0.7833181643176E-01 -0.2266514142071E+01 -0.1028445690442E+01 -0.1017951225512E+01
 0.1005347069165E+00 -0.2364280232690E+01 -0.1063960394415E+01 -0.1057255905778E+01
 0.1092035796174E+00 -0.2464976198885E+01 -0.1107213128248E+01 -0.1097626863400E+01
 0.1017442131439E+00 -0.2568636037249E+01 -0.1159439154389E+01 -0.1139767167552E+01
 0.7458827511412E-01 -0.2675175957975E+01 -0.1222276207844E+01 -0.1184145491402E+01
 0.2337126820805E-01 -0.2784193641106E+01 -0.1297586511971E+01 -0.1230447141810E+01
-0.5622714924255E-01 -0.2894912076942E+01 -0.1387035432789E+01 -0.1276945285337E+01
-0.1686492620260E+00 -0.3007462714076E+01 -0.1492772624982E+01 -0.1320441529662E+01
-0.3172725496861E+00 -0.3121848617072E+01 -0.1616386944277E+01 -0.1356020989002E+01
-0.1037835946612E+01 -0.1360446054742E+01 -0.1127192537777E+01 -0.3774552201117E+00
-0.8258291244545E+00 -0.1439043745853E+01 -0.1064490246344E+01 -0.4661742271813E+00
-0.6500552405182E+00 -0.1510880016655E+01 -0.1015639568296E+01 -0.5470374903622E+00
-0.5032201366658E+00 -0.1579130277152E+01 -0.9787046920118E+00 -0.6191597883858E+00
-0.3799545139906E+00 -0.1647211692351E+01 -0.9527681145639E+00 -0.6825732963105E+00
-0.2756701100685E+00 -0.1717522504444E+01 -0.9368005264448E+00 -0.7381020480875E+00
-0.1868860498313E+00 -0.1791809633990E+01 -0.9299869690373E+00 -0.7870474768106E+00
-0.1110527417462E+00 -0.1871129800870E+01 -0.9316257926669E+00 -0.8309850344005E+00
-0.4644735761465E-01 -0.1955868985084E+01 -0.9410886786814E+00 -0.8715293876846E+00
 0.7946511575266E-02 -0.2045798774444E+01 -0.9577905611191E+00 -0.9101154472705E+00
 0.5242501939629E-01 -0.2140301572443E+01 -0.9813019774432E+00 -0.9478630177554E+00
 0.8662609956589E-01 -0.2238550836781E+01 -0.1011404623926E+01 -0.9855342591296E+00
 0.1096095064763E+00 -0.2339982419242E+01 -0.1048275266341E+01 -0.1023574273286E+01
 0.1197139114338E+00 -0.2444460616818E+01 -0.1092630948759E+01 -0.1062591323944E+01
 0.1142962766973E+00 -0.2552147180510E+01 -0.1145789921886E+01 -0.1103316757200E+01
 0.8963435667355E-01 -0.2663132791108E+01 -0.1209544261116E+01 -0.1146346231424E+01
 0.4101399707439E-01 -0.2777170693959E+01 -0.1285993644274E+01 -0.1191577989253E+01
-0.3665684534630E-01 -0.2893632933844E+01 -0.1377236192726E+01 -0.1237463663521E+01
-0.1468918817232E+00 -0.3011117959495E+01 -0.1484264621608E+01 -0.1280488022530E+01
-0.2970061960493E+00 -0.3132929900396E+01 -0.1612069961240E+01 -0.1316080259650E+01
-0.9998986870250E+00 -0.1313258035369E+01 -0.1087183656768E+01 -0.3441822251953E+00
-0.7931841166832E+00 -0.1392709807724E+01 -0.1027370141865E+01 -0.4367047187943E+00
-0.6213019303136E+00 -0.1463661056022E+01 -0.9799326010924E+00 -0.5201343585096E+00
-0.4789229968199E+00 -0.1531732295735E+01 -0.9450079851039E+00 -0.5934880387348E+00
-0.3597859718288E+00 -0.1600032639220E+01 -0.9211147448566E+00 -0.6571741566701E+00
-0.2592038868409E+00 -0.1671094264178E+01 -0.9072401286778E+00 -0.7122919290905E+00
-0.1735485541978E+00 -0.1746667776949E+01 -0.9025016733497E+00 -0.7603590855601E+00
-0.1002228582489E+00 -0.1827851066679E+01 -0.9061947424179E+00 -0.8031311370425E+00
-0.3747410330864E-01 -0.1915019620001E+01 -0.9176720476279E+00 -0.8423708092308E+00
 0.1573086641077E-01 -0.2007862967678E+01 -0.9363020852210E+00 -0.8796139801472E+00
 0.5975221775900E-01 -0.2105580701126E+01 -0.9615393847437E+00 -0.9160205182412E+00
 0.9400021611510E-01 -0.2207418597775E+01 -0.9933066368606E+00 -0.9523983379664E+00
 0.1177937682076E+00 -0.2312327680919E+01 -0.1031430936358E+01 -0.9891167064474E+00
 0.1293561442565E+00 -0.2420294279790E+01 -0.1076740920970E+01 -0.1026677701157E+01
 0.1260286212877E+00 -0.2531641129483E+01 -0.1130637875984E+01 -0.1065828277763E+01
 0.1040545682559E+00 -0.2646571916461E+01 -0.1194983150625E+01 -0.1107273098116E+01
 0.5834925351042E-01 -0.2765149459569E+01 -0.1272196093621E+01 -0.1151108754114E+01
-0.1678421181512E-01 -0.2886950511761E+01 -0.1364755316619E+01 -0.1196144673528E+01
-0.1267282168385E+00 -0.3010884966496E+01 -0.1474678192427E+01 -0.1239027848039E+01
-0.2693037578860E+00 -0.3131980748232E+01 -0.1598603713821E+01 -0.1274503823819E+01
-0.6314396927964E+01 -0.9988320767372E+01 -0.7662277297373E+01 -0.1696804880693E+01
 0.3803284110775E+00 -0.3909132169929E+01 -0.1658537762454E+01  0.2516039823869E+00
 0.1646559005184E+00 -0.2763832740614E+01 -0.1221613111746E+01  0.2975714118052E+00
 0.9009624434026E-01 -0.2129519737487E+01 -0.9585290393480E+00  0.1991073649660E+00
 0.4089828443692E-01 -0.1720259955485E+01 -0.7892999833909E+00  0.1373599162313E+00
 0.2430725876342E-01 -0.1409131448339E+01 -0.6508673674497E+00  0.9164302764330E-01
 0.1643195294130E-01 -0.1159683772813E+01 -0.5373283539770E+00  0.5660000852799E-01
 0.1178123257082E-01 -0.9507179809509E+00 -0.4413002706194E+00  0.2898208692155E-01
 0.8944523081019E-02 -0.7690752670014E+00 -0.3572614487365E+00  0.7629276099793E-02
 0.6966250143666E-02 -0.6082289506962E+00 -0.2825934685429E+00 -0.8097569420890E-02
 0.4278617133980E-02 -0.4650494640092E+00 -0.2165622974821E+00 -0.1843045012935E-01
 0.4600583792259E-02 -0.3322131554264E+00 -0.1539779082775E+00 -0.2519075910605E-01
 0.1391027906441E-01 -0.2139175475126E+00 -0.9400341593222E-01 -0.2780979670107E-01
 0.1525983405595E-01 -0.1324070527862E+00 -0.5505919266357E-01 -0.2854404744686E-01
 0.8152604798481E-02 -0.8357103135768E-01 -0.3544666039292E-01 -0.2805866573978E-01
 0.1174655273231E-02 -0.5449948573690E-01 -0.2506267025436E-01 -0.2552419307639E-01
-0.5467796484035E-02 -0.3737275416205E-01 -0.2013505875259E-01 -0.2193351354191E-01
-0.8836343715446E-02 -0.2428095004130E-01 -0.1556512802619E-01 -0.1719263098214E-01
-0.7257624359702E-02 -0.1155704188467E-01 -0.8842893112428E-02 -0.1097055280163E-01
-0.1549498250210E-02  0.6483177505279E-03 -0.4235548337764E-03 -0.3690219452430E-02
-0.3469439713231E+01 -0.6302514821609E+01 -0.4592818619726E+01 -0.2107516352277E+01
-0.9969122349478E+00 -0.5253888283340E+01 -0.2937876236144E+01 -0.6703548665556E+00
 0.1616308620975E+00 -0.3175515022697E+01 -0.1416525551889E+01 -0.2567738467966E-01
 0.1138963772087E+00 -0.2407755552215E+01 -0.1078113809518E+01  0.5076055966976E-01
 0.7449483890262E-01 -0.1921201004584E+01 -0.8679518956689E+00  0.3474243472950E-01
 0.4644484174383E-01 -0.1578435678181E+01 -0.7200356912990E+00  0.1095008578442E-01
 0.3301641501696E-01 -0.1308363299109E+01 -0.5994130340027E+00 -0.1187140733755E-01
 0.2445608860624E-01 -0.1085517571828E+01 -0.4986988958495E+00 -0.3188707634682E-01
 0.1817335020267E-01 -0.8945657226032E+00 -0.4119044139835E+00 -0.4847282018054E-01
 0.1276274647833E-01 -0.7270623963942E+00 -0.3357208346090E+00 -0.6101486195848E-01
 0.7984756895496E-02 -0.5772582566333E+00 -0.2675585441981E+00 -0.6940927709804E-01
 0.5577659889211E-02 -0.4406457717710E+00 -0.2044820120658E+00 -0.7458859124480E-01
 0.6889839193943E-02 -0.3233446941055E+00 -0.1487337814312E+00 -0.7505799162547E-01
 0.5595910413252E-02 -0.2333856107893E+00 -0.1070611589052E+00 -0.7270555159414E-01
-0.2740125592372E-02 -0.1709994795403E+00 -0.8165761420523E-01 -0.7008160095120E-01
-0.1416531639256E-01 -0.1296815226665E+00 -0.6760801418627E-01 -0.6698993429859E-01
-0.2571584603310E-01 -0.1008964773195E+00 -0.5950779182479E-01 -0.6339144920673E-01
-0.3508308388260E-01 -0.7787516447148E-01 -0.5309037659176E-01 -0.5880818713750E-01
-0.4023806642286E-01 -0.5682508909349E-01 -0.4561968297698E-01 -0.5273952301200E-01
-0.4143953753167E-01 -0.3778876962661E-01 -0.3723730426995E-01 -0.4580498293074E-01
-0.2844713445289E+01 -0.5104856427047E+01 -0.3736297830521E+01 -0.2084507801324E+01
-0.1061510542745E+01 -0.4764698458539E+01 -0.2738318223658E+01 -0.1126657879836E+01
-0.2295716304698E+00 -0.3640175750759E+01 -0.1818781264564E+01 -0.4444252831637E+00
 0.8541795826514E-01 -0.2664398440638E+01 -0.1212120823641E+01 -0.1588294491798E+00
 0.8071801935374E-01 -0.2122008341208E+01 -0.9594064488381E+00 -0.9292678388729E-01
 0.6163668914070E-01 -0.1742506547821E+01 -0.7900088315761E+00 -0.8371062679463E-01
 0.4546684139474E-01 -0.1453887824944E+01 -0.6619578605893E+00 -0.8952416765977E-01
 0.3457409850354E-01 -0.1218409636020E+01 -0.5564027012213E+00 -0.9951072935478E-01
 0.2576698253386E-01 -0.1018776233024E+01 -0.4667143465466E+00 -0.1097521060513E+00
 0.1789106858682E-01 -0.8447159834717E+00 -0.3886077090103E+00 -0.1182314721936E+00
 0.1065886171585E-01 -0.6897798945144E+00 -0.3191868846058E+00 -0.1239278636918E+00
 0.4906550784887E-02 -0.5498124218099E+00 -0.2561057587322E+00 -0.1265317614287E+00
 0.1316832831975E-02 -0.4286813876285E+00 -0.2008613402449E+00 -0.1249397855029E+00
-0.4348667459485E-02 -0.3321611735903E+00 -0.1581596248922E+00 -0.1209489083715E+00
-0.1532475507974E-01 -0.2596886519642E+00 -0.1292563009828E+00 -0.1168601975599E+00
-0.3006425087372E-01 -0.2069473506838E+00 -0.1113954524495E+00 -0.1129805928784E+00
-0.4620495261632E-01 -0.1674574355003E+00 -0.1004213221601E+00 -0.1090978840174E+00
-0.6101451575752E-01 -0.1348846075914E+00 -0.9207258774045E-01 -0.1043528927711E+00
-0.7235045370648E-01 -0.1057254442742E+00 -0.8369567183861E-01 -0.9807899696456E-01
-0.8061790717718E-01 -0.8090466170450E-01 -0.7591560718184E-01 -0.9069636245276E-01
-0.2528165935579E+01 -0.4382682907305E+01 -0.3248098947917E+01 -0.2011195563365E+01
-0.1153831334715E+01 -0.4337949443500E+01 -0.2581136959214E+01 -0.1366995066223E+01
-0.4143198124179E+00 -0.3663691789897E+01 -0.1916665448227E+01 -0.7669089245041E+00
-0.5269534201760E-01 -0.2893510922985E+01 -0.1384716941039E+01 -0.4029378221453E+00
 0.5639469709313E-01 -0.2304024879558E+01 -0.1056386183079E+01 -0.2470459584619E+00
 0.6100010302321E-01 -0.1900110369994E+01 -0.8643818232840E+00 -0.1933671738320E+00
 0.5152240367242E-01 -0.1594007074730E+01 -0.7249677935583E+00 -0.1767201548740E+00
 0.4085353551795E-01 -0.1347861997479E+01 -0.6142939755637E+00 -0.1739509759363E+00
 0.3103382078338E-01 -0.1140600660633E+01 -0.5214964134065E+00 -0.1763005357274E+00
 0.2148106154694E-01 -0.9608608132200E+00 -0.4415084821665E+00 -0.1797062567129E+00
 0.1207849555824E-01 -0.8015340876315E+00 -0.3710441273333E+00 -0.1819373898143E+00
 0.3508092028827E-02 -0.6579410575303E+00 -0.3075834930055E+00 -0.1815940584966E+00
-0.4323485203904E-02 -0.5325533076112E+00 -0.2523320919831E+00 -0.1779429061691E+00
-0.1413721040771E-01 -0.4296965997596E+00 -0.2086018902496E+00 -0.1726759434508E+00
-0.2839013711355E-01 -0.3487472045927E+00 -0.1772545501524E+00 -0.1675843168330E+00
-0.4649992678536E-01 -0.2861320963086E+00 -0.1563370504576E+00 -0.1630188349063E+00
-0.6671370482341E-01 -0.2367501329597E+00 -0.1426280033963E+00 -0.1586821292517E+00
-0.8649298141814E-01 -0.1951522227703E+00 -0.1323732456328E+00 -0.1535259564079E+00
-0.1036696632014E+00 -0.1582557762586E+00 -0.1231049562340E+00 -0.1466739712157E+00
-0.1179397800027E+00 -0.1264023185196E+00 -0.1148407860142E+00 -0.1384012626985E+00
-0.2345791045977E+01 -0.3899240812511E+01 -0.2935164966045E+01 -0.1927715905416E+01
-0.1230458515192E+01 -0.3968138142616E+01 -0.2443340422973E+01 -0.1499763997070E+01
-0.5590296696442E+00 -0.3567975646369E+01 -0.1939692493606E+01 -0.1000635213727E+01
-0.1754755793915E+00 -0.2988761632525E+01 -0.1487191485829E+01 -0.6267422934894E+00
-0.8308774183229E-02 -0.2456590288643E+01 -0.1158502556590E+01 -0.4161024620293E+00
 0.4194953175112E-01 -0.2042754192322E+01 -0.9403781880830E+00 -0.3164813004424E+00
 0.4743429942333E-01 -0.1726504263574E+01 -0.7891628811494E+00 -0.2732528574992E+00
 0.4182191955889E-01 -0.1472085867519E+01 -0.6722240538362E+00 -0.2550920562279E+00
 0.3300992313356E-01 -0.1258921816132E+01 -0.5761785882479E+00 -0.2480057498279E+00
 0.2291744706532E-01 -0.1074635131756E+01 -0.4943073105509E+00 -0.2453457842506E+00
 0.1203991317707E-01 -0.9116247967863E+00 -0.4228048942239E+00 -0.2434556828417E+00
 0.1188052334136E-02 -0.7647089353911E+00 -0.3588548141266E+00 -0.2398987134867E+00
-0.1020429559393E-01 -0.6352288967872E+00 -0.3033535996497E+00 -0.2341221921668E+00
-0.2386799687520E-01 -0.5266003405093E+00 -0.2587201179145E+00 -0.2276669219884E+00
-0.4149401088003E-01 -0.4381827974698E+00 -0.2254480993526E+00 -0.2217627503345E+00
-0.6301086165903E-01 -0.3669035298619E+00 -0.2020597635024E+00 -0.2166061487568E+00
-0.8703836037996E-01 -0.3085662064643E+00 -0.1859341459452E+00 -0.2117522964205E+00
-0.1113708377793E+00 -0.2585149367188E+00 -0.1738463135732E+00 -0.2060045113822E+00
-0.1338485090924E+00 -0.2139063095058E+00 -0.1634447643266E+00 -0.1983448194894E+00
-0.1537877310251E+00 -0.1748485868743E+00 -0.1544590690210E+00 -0.1889731741714E+00
-0.2221483345231E+01 -0.3545246688765E+01 -0.2710363109103E+01 -0.1848565461277E+01
-0.1297152789136E+01 -0.3661104093311E+01 -0.2330380728839E+01 -0.1571611398636E+01
-0.6785999469607E+00 -0.3426797937913E+01 -0.1929537000996E+01 -0.1167684095795E+01
-0.2895532909199E+00 -0.3003911413670E+01 -0.1547928407231E+01 -0.8160506293956E+00
-0.8472044001580E-01 -0.2553993391528E+01 -0.1240195497680E+01 -0.5811753228841E+00
 0.3104908363873E-02 -0.2163524601829E+01 -0.1015397253353E+01 -0.4471960122487E+00
 0.3159993619527E-01 -0.1847045582608E+01 -0.8532594516500E+00 -0.3774519283421E+00
 0.3570820533531E-01 -0.1589151131579E+01 -0.7301181734829E+00 -0.3423354988515E+00
 0.3070687289647E-01 -0.1372397979420E+01 -0.6305948184666E+00 -0.3245384762895E+00
 0.2158087371865E-01 -0.1185061994213E+01 -0.5468361252456E+00 -0.3149438911323E+00
 0.1017886602593E-01 -0.1019329991638E+01 -0.4743010278347E+00 -0.3083752868289E+00
-0.2260148338832E-02 -0.8697122537421E+00 -0.4098270279386E+00 -0.3013776624721E+00
-0.1651823703848E-01 -0.7366989114688E+00 -0.3540120589005E+00 -0.2933754194094E+00
-0.3357853351639E-01 -0.6230022471266E+00 -0.3085929661195E+00 -0.2856969110676E+00
-0.5444692633098E-01 -0.5280289639511E+00 -0.2737636677382E+00 -0.2790299760743E+00
-0.7926769277706E-01 -0.4491017063636E+00 -0.2483336169662E+00 -0.2733158942747E+00
-0.1068902725811E+00 -0.3826953419992E+00 -0.2301052382691E+00 -0.2679102602446E+00
-0.1353944504280E+00 -0.3247470744789E+00 -0.2162665161577E+00 -0.2614758116919E+00
-0.1627542272426E+00 -0.2726442562544E+00 -0.2046372867245E+00 -0.2528923601202E+00
-0.1879992211037E+00 -0.2263576176729E+00 -0.1947477137310E+00 -0.2422966532237E+00
-0.2128203553054E+01 -0.3273212694510E+01 -0.2538665629916E+01 -0.1777498787481E+01
-0.1351890032939E+01 -0.3404921182997E+01 -0.2235701265820E+01 -0.1607014388621E+01
-0.7814265876531E+00 -0.3275116942210E+01 -0.1906575454200E+01 -0.1285944363008E+01
-0.3945973423596E+00 -0.2971084053288E+01 -0.1581870251942E+01 -0.9703154947172E+00
-0.1658225286522E+00 -0.2604776707347E+01 -0.1302181637617E+01 -0.7321236374952E+00
-0.4787357877547E-01 -0.2254668409690E+01 -0.1082194731834E+01 -0.5774215414886E+00
 0.3879674894600E-02 -0.1951729006491E+01 -0.9154891835283E+00 -0.4859427042233E+00
 0.2159711784323E-01 -0.1696564927674E+01 -0.7872348686237E+00 -0.4342867004210E+00
 0.2318923992846E-01 -0.1479559784310E+01 -0.6844941541232E+00 -0.4052230992664E+00
 0.1685347825054E-01 -0.1291099989835E+01 -0.5988958589255E+00 -0.3881054828996E+00
 0.6095794988199E-02 -0.1123915717215E+01 -0.5253753621142E+00 -0.3764409598734E+00
-0.7092239186831E-02 -0.9725023653314E+00 -0.4604094629558E+00 -0.3658238375780E+00
-0.2344623698580E-01 -0.8367574384299E+00 -0.4042957264199E+00 -0.3554914589829E+00
-0.4333814932112E-01 -0.7188369160291E+00 -0.3582222798060E+00 -0.3465028880099E+00
-0.6714334208354E-01 -0.6182209026000E+00 -0.3221211941842E+00 -0.3390427837645E+00
-0.9503962798784E-01 -0.5325947857350E+00 -0.2949881737015E+00 -0.3327552246305E+00
-0.1259881660533E+00 -0.4589547810604E+00 -0.2749231844461E+00 -0.3267686862962E+00
-0.1583103354603E+00 -0.3937090470738E+00 -0.2594491091330E+00 -0.3196067888760E+00
-0.1901602621315E+00 -0.3344349800831E+00 -0.2465597632155E+00 -0.3100571607240E+00
-0.2203831406829E+00 -0.2810690315806E+00 -0.2356825203661E+00 -0.2981663330505E+00
-0.2053246886721E+01 -0.3057064004519E+01 -0.2401846112791E+01 -0.1715144171071E+01
-0.1395161401709E+01 -0.3189788740680E+01 -0.2154926561457E+01 -0.1619842500118E+01
-0.8701451437228E+00 -0.3126936346560E+01 -0.1878628295668E+01 -0.1368518432465E+01
-0.4911675205692E+00 -0.2911874875838E+01 -0.1599429922255E+01 -0.1093312625028E+01
-0.2474730851344E+00 -0.2620403738866E+01 -0.1347902103862E+01 -0.8647864852143E+00
-0.1062927193299E+00 -0.2317155233847E+01 -0.1139020535104E+01 -0.7011344053036E+00
-0.3322675410101E-01 -0.2037483665493E+01 -0.9732338947406E+00 -0.5945319777103E+00
-0.5213448566543E-03 -0.1792094906131E+01 -0.8425296358274E+00 -0.5287824523009E+00
 0.9948064161658E-02 -0.1578833878928E+01 -0.7373763310701E+00 -0.4889347003017E+00
 0.8212808136967E-02 -0.1391674457427E+01 -0.6502269735170E+00 -0.4641829127889E+00
-0.5928787361800E-03 -0.1224620927906E+01 -0.5758504876614E+00 -0.4472277641594E+00
-0.1357248822374E-01 -0.1072570797533E+01 -0.5104873430108E+00 -0.4329022004396E+00
-0.3117644626613E-01 -0.9350892426898E+00 -0.4541448726574E+00 -0.4201652878093E+00
-0.5323436118671E-01 -0.8139091015292E+00 -0.4075574264427E+00 -0.4097691316852E+00
-0.7953389195013E-01 -0.7086099686899E+00 -0.3704276135613E+00 -0.4014445731005E+00
-0.1101571845433E+00 -0.6172245472182E+00 -0.3418694130608E+00 -0.3945336265866E+00
-0.1440927212173E+00 -0.5371829907027E+00 -0.3201995837903E+00 -0.3879333018092E+00
-0.1798565995053E+00 -0.4652794097733E+00 -0.3032139235919E+00 -0.3800327335315E+00
-0.2158131116789E+00 -0.3992535726360E+00 -0.2890813408948E+00 -0.3695225274271E+00
-0.2506957738022E+00 -0.3390555140547E+00 -0.2771831045897E+00 -0.3563026904575E+00
-0.1990238078153E+01 -0.2881237559533E+01 -0.2289593543905E+01 -0.1660946357977E+01
-0.1428126139681E+01 -0.3007824567072E+01 -0.2084896826886E+01 -0.1618474478116E+01
-0.9463395059089E+00 -0.2988223225019E+01 -0.1849244478846E+01 -0.1424820323208E+01
-0.5792893590992E+00 -0.2839367311367E+01 -0.1606768631044E+01 -0.1189774186235E+01
-0.3273565893690E+00 -0.2611439948338E+01 -0.1381234369219E+01 -0.9783458679643E+00
-0.1687163056737E+00 -0.2355064178816E+01 -0.1186176824701E+01 -0.8146833149753E+00
-0.7721361671555E-01 -0.2104091127975E+01 -0.1025213227404E+01 -0.6995642276591E+00
-0.2963096886396E-01 -0.1874206142066E+01 -0.8948034398675E+00 -0.6232956220041E+00
-0.9008671751842E-02 -0.1668866225721E+01 -0.7886011998122E+00 -0.5741568717068E+00
-0.4617380400840E-02 -0.1485740857306E+01 -0.7004683699455E+00 -0.5422523905866E+00
-0.1018534736707E-01 -0.1320681002273E+01 -0.6255071827444E+00 -0.5201239675030E+00
-0.2193864967860E-01 -0.1169370276044E+01 -0.5599151936694E+00 -0.5021473841121E+00
-0.3989022605098E-01 -0.1031307286564E+01 -0.5034628296522E+00 -0.4869999987305E+00
-0.6336756073073E-01 -0.9079385662036E+00 -0.4565138785013E+00 -0.4751210897566E+00
-0.9160656285774E-01 -0.7989756128494E+00 -0.4185736215207E+00 -0.4658483575669E+00
-0.1245018617537E+00 -0.7027945273302E+00 -0.3888293018832E+00 -0.4582437518563E+00
-0.1610046050944E+00 -0.6172052296955E+00 -0.3657586214235E+00 -0.4509887049522E+00
-0.1997868151480E+00 -0.5393323557558E+00 -0.3473860094437E+00 -0.4423516590320E+00
-0.2394451272200E+00 -0.4670496596855E+00 -0.3320525490034E+00 -0.4309183655420E+00
-0.2786797338808E+00 -0.4003362536145E+00 -0.3191375133134E+00 -0.4163684428951E+00
-0.1935679224397E+01 -0.2735695861568E+01 -0.2195546284835E+01 -0.1613962024930E+01
-0.1452238677637E+01 -0.2852946013246E+01 -0.2023436799583E+01 -0.1608174855545E+01
-0.1011252619666E+01 -0.2861205649492E+01 -0.1820055381888E+01 -0.1461655236775E+01
-0.6589963650608E+00 -0.2761542604133E+01 -0.1607653311443E+01 -0.1264219126085E+01
-0.4039241370095E+00 -0.2586122238576E+01 -0.1405321792961E+01 -0.1073654603439E+01
-0.2326810921191E+00 -0.2373371454023E+01 -0.1224844693580E+01 -0.9162623269462E+00
-0.1258159419500E+00 -0.2153098620290E+01 -0.1071089841536E+01 -0.7983508100653E+00
-0.6436626057572E-01 -0.1942570398802E+01 -0.9432602275149E+00 -0.7154521744347E+00
-0.3316513066596E-01 -0.1748763379489E+01 -0.8375063976487E+00 -0.6591826148141E+00
-0.2160849416908E-01 -0.1572431763861E+01 -0.7491989193739E+00 -0.6211660031879E+00
-0.2282197281739E-01 -0.1411382560263E+01 -0.6740761288381E+00 -0.5943373504785E+00
-0.3235911333910E-01 -0.1262349251967E+01 -0.6085129301506E+00 -0.5729630853944E+00
-0.4974062050972E-01 -0.1124986086377E+01 -0.5521215508362E+00 -0.5555063686655E+00
-0.7383860346670E-01 -0.1000589216879E+01 -0.5049810742817E+00 -0.5421224053684E+00
-0.1033767780251E+00 -0.8890405834089E+00 -0.4664361586909E+00 -0.5318293279721E+00
-0.1379983825966E+00 -0.7890627467384E+00 -0.4357187296823E+00 -0.5234521347141E+00
-0.1765680177760E+00 -0.6988137145099E+00 -0.4114294131308E+00 -0.5154911801995E+00
-0.2178816254703E+00 -0.6157115133769E+00 -0.3917887742644E+00 -0.5061218762812E+00
-0.2607948631560E+00 -0.5377334650084E+00 -0.3753083132853E+00 -0.4938256054190E+00
-0.3040778471667E+00 -0.4648703900950E+00 -0.3614056705964E+00 -0.4779803870720E+00
-0.1887529777878E+01 -0.2613613234981E+01 -0.2115537210678E+01 -0.1573170247754E+01
-0.1468959006562E+01 -0.2720425294165E+01 -0.1969010616347E+01 -0.1592337901074E+01
-0.1066048728484E+01 -0.2746376580058E+01 -0.1791839890470E+01 -0.1483993163919E+01
-0.7304313942308E+00 -0.2683234569976E+01 -0.1604422999108E+01 -0.1320599219227E+01
-0.4761375229253E+00 -0.2550553302126E+01 -0.1422544684166E+01 -0.1152310639263E+01
-0.2963577828510E+00 -0.2376784119966E+01 -0.1256376691138E+01 -0.1005306223726E+01
-0.1771189893147E+00 -0.2186930794016E+01 -0.1111103395347E+01 -0.8891599721339E+00
-0.1032821576173E+00 -0.1997827375566E+01 -0.9875214780915E+00 -0.8033026370239E+00
-0.6170980692462E-01 -0.1818254301208E+01 -0.8835831285812E+00 -0.7423493830572E+00
-0.4243835455387E-01 -0.1651178236973E+01 -0.7959997959989E+00 -0.6996625006333E+00
-0.3845140205636E-01 -0.1496142522662E+01 -0.7212591427884E+00 -0.6689363759170E+00
-0.4489380324501E-01 -0.1350997820688E+01 -0.6560690615845E+00 -0.6446345353919E+00
-0.6082670754660E-01 -0.1215696319829E+01 -0.5999658213449E+00 -0.6251064999288E+00
-0.8473334882539E-01 -0.1091495974229E+01 -0.5528277804334E+00 -0.6102757650427E+00
-0.1148774976300E+00 -0.9784856244477E+00 -0.5138806660731E+00 -0.5989239690939E+00
-0.1506110162193E+00 -0.8757408822940E+00 -0.4823853910777E+00 -0.5896978608554E+00
-0.1906744726946E+00 -0.7817529495125E+00 -0.4570408872781E+00 -0.5809680930544E+00
-0.2339607356388E+00 -0.6942112482671E+00 -0.4362408313293E+00 -0.5708629036886E+00
-0.2796197519978E+00 -0.6111620735655E+00 -0.4186674569529E+00 -0.5577799562667E+00
-0.3266427331004E+00 -0.5325555263012E+00 -0.4038231808945E+00 -0.5407192372502E+00
-0.1844527107549E+01 -0.2510147310803E+01 -0.2046696971434E+01 -0.1537599793677E+01
-0.1479634532870E+01 -0.2606546870672E+01 -0.1920505254794E+01 -0.1573183363322E+01
-0.1111850224901E+01 -0.2643404237445E+01 -0.1764969592826E+01 -0.1495500912466E+01
-0.7938771055861E+00 -0.2607339897856E+01 -0.1598571987563E+01 -0.1362243223567E+01
-0.5433280316465E+00 -0.2509133212534E+01 -0.1434656781126E+01 -0.1216167382597E+01
-0.3583861118176E+00 -0.2369340475208E+01 -0.1282031492650E+01 -0.1082020114773E+01
-0.2295385795415E+00 -0.2208259782523E+01 -0.1145765227264E+01 -0.9710426986445E+00
-0.1450024100363E+00 -0.2041235638612E+01 -0.1027531880258E+01 -0.8854027039240E+00
-0.9368981939351E-01 -0.1877626885072E+01 -0.9265188487490E+00 -0.8221982215071E+00
-0.6657186487014E-01 -0.1721774082532E+01 -0.8405225931471E+00 -0.7764908466860E+00
-0.5683510277817E-01 -0.1574572623198E+01 -0.7667616292639E+00 -0.7429166660374E+00
-0.5947370596681E-01 -0.1434897463455E+01 -0.7023544478469E+00 -0.7163578855545E+00
-0.7317086922307E-01 -0.1303041630711E+01 -0.6468198733285E+00 -0.6951457409266E+00
-0.9610565657373E-01 -0.1180292736001E+01 -0.5999072429887E+00 -0.6790289209090E+00
-0.1261487723211E+00 -0.1066967218941E+01 -0.5607645144708E+00 -0.6666350706604E+00
-0.1623407296230E+00 -0.9624983648025E+00 -0.5286743730391E+00 -0.6564983544184E+00
-0.2032684201741E+00 -0.8657107522259E+00 -0.5024202097537E+00 -0.6469238972397E+00
-0.2478947476348E+00 -0.7745606916553E+00 -0.4805540552475E+00 -0.6360598661639E+00
-0.2957061433316E+00 -0.6871276099629E+00 -0.4619318628768E+00 -0.6222748156317E+00
-0.3461379974308E+00 -0.6032264637778E+00 -0.4462012956363E+00 -0.6041368541414E+00
-0.1805843988911E+01 -0.2421743637215E+01 -0.1986966179239E+01 -0.1506376180136E+01
-0.1485453678609E+01 -0.2508349862302E+01 -0.1877087659467E+01 -0.1552168775400E+01
-0.1149729750424E+01 -0.2551577839702E+01 -0.1739614562947E+01 -0.1498906020715E+01
-0.8497347880833E+00 -0.2535544089790E+01 -0.1591081068565E+01 -0.1391905272007E+01
-0.6051121112943E+00 -0.2464984249302E+01 -0.1442945285821E+01 -0.1267083893663E+01
-0.4177684776499E+00 -0.2354332044776E+01 -0.1302887242236E+01 -0.1147054072489E+01
-0.2817889848929E+00 -0.2219657025465E+01 -0.1175679621886E+01 -0.1043632601363E+01
-0.1882842559868E+00 -0.2074357855215E+01 -0.1063441789568E+01 -0.9607855933746E+00
-0.1281196736423E+00 -0.1927580144636E+01 -0.9661789121402E+00 -0.8975500501144E+00
-0.9334374783865E-01 -0.1784354292761E+01 -0.8825180768435E+00 -0.8505060085059E+00
-0.7758307389099E-01 -0.1646510268411E+01 -0.8103238688268E+00 -0.8152726436305E+00
-0.7590101487717E-01 -0.1513759173215E+01 -0.7471402865081E+00 -0.7872811062196E+00
-0.8670473662612E-01 -0.1386693153832E+01 -0.6924970067591E+00 -0.7649129294117E+00
-0.1079615269391E+00 -0.1266642072271E+01 -0.6460636899900E+00 -0.7477860399639E+00
-0.1372262769505E+00 -0.1154140409243E+01 -0.6069423409716E+00 -0.7344422076823E+00
-0.1732224987225E+00 -0.1048973822986E+01 -0.5744322697460E+00 -0.7233623816258E+00
-0.2143542172423E+00 -0.9503145418829E+00 -0.5473943154004E+00 -0.7128538409986E+00
-0.2596192765566E+00 -0.8564089479444E+00 -0.5245332641850E+00 -0.7011726140690E+00
-0.3088783629752E+00 -0.7653435225216E+00 -0.5048842849029E+00 -0.6867629159063E+00
-0.3623304368319E+00 -0.6766538669642E+00 -0.4883226215456E+00 -0.6677594992406E+00
-0.1770905328083E+01 -0.2345717228400E+01 -0.1934812596640E+01 -0.1478733603267E+01
-0.1487437074678E+01 -0.2423441777588E+01 -0.1838113055903E+01 -0.1530244575166E+01
-0.1180694073023E+01 -0.2470030501244E+01 -0.1715840545553E+01 -0.1496248542865E+01
-0.8984910221007E+00 -0.2468766366339E+01 -0.1582610968553E+01 -0.1411842632674E+01
-0.6613264163381E+00 -0.2420290479496E+01 -0.1448359937368E+01 -0.1306804240538E+01
-0.4737965677999E+00 -0.2334360755859E+01 -0.1319833938772E+01 -0.1201290330470E+01
-0.3328476648985E+00 -0.2223425619951E+01 -0.1201448440832E+01 -0.1106970753353E+01
-0.2320454964275E+00 -0.2098836623882E+01 -0.1095514593767E+01 -0.1028888490293E+01
-0.1640497847197E+00 -0.1969063997869E+01 -0.1002563475274E+01 -0.9675212083820E+00
-0.1220293575315E+00 -0.1839325206996E+01 -0.9218366429898E+00 -0.9207267150700E+00
-0.1001997271743E+00 -0.1712008891753E+01 -0.8517380487354E+00 -0.8850572687426E+00
-0.9386573538465E-01 -0.1587439892699E+01 -0.7902136431951E+00 -0.8565467432319E+00
-0.1012650699325E+00 -0.1466414329036E+01 -0.7368093156465E+00 -0.8336647393068E+00
-0.1202449277173E+00 -0.1350263352219E+01 -0.6911388898173E+00 -0.8159217594327E+00
-0.1481287501667E+00 -0.1239689208719E+01 -0.6522744390219E+00 -0.8018158739876E+00
-0.1833211985339E+00 -0.1134797743753E+01 -0.6195159013033E+00 -0.7898104090266E+00
-0.2240054712886E+00 -0.1035136769287E+01 -0.5917968515695E+00 -0.7782681167825E+00
-0.2691532879119E+00 -0.9393089587330E+00 -0.5679772544825E+00 -0.7656528690500E+00
-0.3190108797161E+00 -0.8454239103424E+00 -0.5472843499394E+00 -0.7506569465469E+00
-0.3749701345019E+00 -0.7525382823408E+00 -0.5299289545720E+00 -0.7310844522748E+00
-0.1739286072628E+01 -0.2279988594174E+01 -0.1889059088605E+01 -0.1454011572359E+01
-0.1486445921027E+01 -0.2349863115154E+01 -0.1803065242432E+01 -0.1508017385204E+01
-0.1205672085495E+01 -0.2397852973965E+01 -0.1693656773651E+01 -0.1489057840724E+01
-0.9406845614427E+00 -0.2407436832393E+01 -0.1573617051112E+01 -0.1423894756696E+01
-0.7119752248160E+00 -0.2376553253064E+01 -0.1451608380922E+01 -0.1336905666294E+01
-0.5259946843742E+00 -0.2311439231638E+01 -0.1333593937143E+01 -0.1245708856650E+01
-0.3819218061176E+00 -0.2221539159699E+01 -0.1223626650830E+01 -0.1161368249879E+01
-0.2753713801973E+00 -0.2116252857470E+01 -0.1124063388853E+01 -0.1089468032934E+01
-0.2006081471065E+00 -0.2003144011742E+01 -0.1035763512032E+01 -0.1031503454655E+01
-0.1518992628032E+00 -0.1887278166552E+01 -0.9584133893661E+00 -0.9863601097858E+00
-0.1241300347086E+00 -0.1771300275693E+01 -0.8908522436291E+00 -0.9514233371765E+00
-0.1129726921562E+00 -0.1655935449455E+01 -0.8313868244485E+00 -0.9233288242109E+00
-0.1165965295199E+00 -0.1542067058677E+01 -0.7795718844755E+00 -0.9006481178082E+00
-0.1328256289325E+00 -0.1430954658038E+01 -0.7349767330119E+00 -0.8827922764773E+00
-0.1588379427099E+00 -0.1323361392549E+01 -0.6966336858045E+00 -0.8682294942588E+00
-0.1927267191316E+00 -0.1219638830483E+01 -0.6638118066353E+00 -0.8554008310666E+00
-0.2323745209763E+00 -0.1119716715947E+01 -0.6354828797422E+00 -0.8427311122998E+00
-0.2766281601653E+00 -0.1022703518482E+01 -0.6106858874155E+00 -0.8289773784389E+00
-0.3260476717546E+00 -0.9268429154579E+00 -0.5888585744963E+00 -0.8133317887377E+00
-0.3837544450873E+00 -0.8304905308356E+00 -0.5706951372363E+00 -0.7935651357485E+00
-0.1710651763891E+01 -0.2222909243266E+01 -0.1848773668675E+01 -0.1431645386840E+01
-0.1483198020447E+01 -0.2285988162547E+01 -0.1771517501514E+01 -0.1485856973012E+01
-0.1225508243116E+01 -0.2334151603335E+01 -0.1673040123589E+01 -0.1478478450480E+01
-0.9768787623444E+00 -0.2351673559331E+01 -0.1564419587220E+01 -0.1429554027755E+01
-0.7571867846968E+00 -0.2334778298337E+01 -0.1453223585340E+01 -0.1358783052561E+01
-0.5740738262195E+00 -0.2287095864332E+01 -0.1344749751149E+01 -0.1281305058457E+01
-0.4284169465209E+00 -0.2215637292380E+01 -0.1242705489132E+01 -0.1207304457716E+01
-0.3175108274328E+00 -0.2128046213084E+01 -0.1149411806128E+01 -0.1142521566999E+01
-0.2370238484412E+00 -0.2030900722578E+01 -0.1065924545676E+01 -0.1089127214522E+01
-0.1822589880149E+00 -0.1928907338358E+01 -0.9922481708788E+00 -0.1046803091745E+01
-0.1488017401783E+00 -0.1824744331837E+01 -0.9275666514945E+00 -0.1013647156990E+01
-0.1327741825244E+00 -0.1719354888704E+01 -0.8705006612696E+00 -0.9868612320334E+00
-0.1323679125253E+00 -0.1613600794565E+01 -0.8206052902511E+00 -0.9651182776832E+00
-0.1454762833367E+00 -0.1508583712099E+01 -0.7774081958828E+00 -0.9477350504158E+00
-0.1692748275679E+00 -0.1405012613780E+01 -0.7399150955567E+00 -0.9331573209066E+00
-0.2015231356562E+00 -0.1303269655970E+01 -0.7072526102704E+00 -0.9197518595500E+00
-0.2397198917136E+00 -0.1203647664748E+01 -0.6783827498163E+00 -0.9059225215101E+00
-0.2823215185127E+00 -0.1105910330020E+01 -0.6524689671555E+00 -0.8907148120355E+00
-0.3300484620691E+00 -0.1008864299085E+01 -0.6292889961465E+00 -0.8741387001093E+00
-0.3882594783118E+00 -0.9099640356523E+00 -0.6101650500155E+00 -0.8545777838072E+00
-0.1684723268771E+01 -0.2173141506546E+01 -0.1813196439800E+01 -0.1411154901333E+01
-0.1478284017786E+01 -0.2230448135166E+01 -0.1743104107466E+01 -0.1463966563999E+01
-0.1240963718822E+01 -0.2278081749675E+01 -0.1653951365998E+01 -0.1465360471129E+01
-0.1007637972687E+01 -0.2301396525407E+01 -0.1555246210159E+01 -0.1430026194251E+01
-0.7971787685044E+00 -0.2295613485774E+01 -0.1453612355824E+01 -0.1373652264658E+01
-0.6178921355607E+00 -0.2262467966306E+01 -0.1353769244444E+01 -0.1309041458213E+01
-0.4719087190396E+00 -0.2207049827498E+01 -0.1259110513679E+01 -0.1245354373607E+01
-0.3578666672273E+00 -0.2135477225870E+01 -0.1171871626783E+01 -0.1188220684190E+01
-0.2726384068842E+00 -0.2053361143258E+01 -0.1093219785794E+01 -0.1140219906329E+01
-0.2124762737333E+00 -0.1964941172668E+01 -0.1023386197213E+01 -0.1101629493981E+01
-0.1736602421333E+00 -0.1872777404026E+01 -0.9618256912554E+00 -0.1071138328968E+01
-0.1528083341682E+00 -0.1777888619056E+01 -0.9074275657140E+00 -0.1046458998333E+01
-0.1481996549043E+00 -0.1681023567940E+01 -0.8597349125563E+00 -0.1026355581109E+01
-0.1578860013699E+00 -0.1583065732500E+01 -0.8182473128436E+00 -0.1010060960018E+01
-0.1791853837287E+00 -0.1484542554781E+01 -0.7819521291164E+00 -0.9960283990368E+00
-0.2097860505030E+00 -0.1385744167411E+01 -0.7498992005175E+00 -0.9825313109240E+00
-0.2463598199065E+00 -0.1286705342445E+01 -0.7205406244775E+00 -0.9677121830342E+00
-0.2868009431573E+00 -0.1188266741586E+01 -0.6932818100708E+00 -0.9506693598706E+00
-0.3312243568874E+00 -0.1090337330301E+01 -0.6681339912838E+00 -0.9324675836870E+00
-0.3878408549912E+00 -0.9900926403673E+00 -0.6476287411759E+00 -0.9133501304381E+00
-0.1661237392142E+01 -0.2129550751501E+01 -0.1781670422993E+01 -0.1392130649265E+01
-0.1472197864865E+01 -0.2182088529484E+01 -0.1717514600988E+01 -0.1442426608181E+01
-0.1252708532564E+01 -0.2228855757699E+01 -0.1636335212273E+01 -0.1450324322374E+01
-0.1033521820668E+01 -0.2256419749877E+01 -0.1546272534234E+01 -0.1426281753989E+01
-0.8322200025653E+00 -0.2259436930732E+01 -0.1453078754964E+01 -0.1382564012614E+01
-0.6574257693502E+00 -0.2238384525605E+01 -0.1361030835177E+01 -0.1329820246720E+01
-0.5121161794484E+00 -0.2196832013135E+01 -0.1273205647285E+01 -0.1276138474037E+01
-0.3959830797224E+00 -0.2139616168630E+01 -0.1191731643703E+01 -0.1226858435547E+01
-0.3069093808228E+00 -0.2071456187359E+01 -0.1117831814210E+01 -0.1184766105501E+01
-0.2419975881589E+00 -0.1996088794507E+01 -0.1051900597185E+01 -0.1150569911604E+01
-0.1981948612318E+00 -0.1915866171565E+01 -0.9936086828943E+00 -0.1123439117514E+01
-0.1726322364295E+00 -0.1831775083099E+01 -0.9420714377888E+00 -0.1101533840115E+01
-0.1637175927990E+00 -0.1744382800677E+01 -0.8968071826593E+00 -0.1083688966581E+01
-0.1696919703905E+00 -0.1654301722134E+01 -0.8572770333120E+00 -0.1069060051063E+01
-0.1881982832386E+00 -0.1561856978907E+01 -0.8225259711221E+00 -0.1056161913080E+01
-0.2170374330718E+00 -0.1467038770472E+01 -0.7915158136581E+00 -0.1043266694216E+01
-0.2530463787522E+00 -0.1369774758790E+01 -0.7627259327105E+00 -0.1028210677553E+01
-0.2907967036858E+00 -0.1269180395546E+01 -0.7331892347795E+00 -0.1009165603919E+01
-0.3303622207196E+00 -0.1169741681743E+01 -0.7050488323693E+00 -0.9879801347131E+00
-0.3812247979580E+00 -0.1068941794384E+01 -0.6815782966718E+00 -0.9688763742603E+00
-0.1639974689426E+01 -0.2091172435244E+01 -0.1753639144147E+01 -0.1374229750201E+01
-0.1465266577913E+01 -0.2139822954455E+01 -0.1694392075915E+01 -0.1421207615799E+01
-0.1261429138648E+01 -0.2185892590925E+01 -0.1620241208790E+01 -0.1433805351919E+01
-0.1055006364601E+01 -0.2216431691067E+01 -0.1537575882265E+01 -0.1419110741751E+01
-0.8626278321931E+00 -0.2226444822468E+01 -0.1451864144008E+01 -0.1386417405467E+01
-0.6927366854715E+00 -0.2215427477063E+01 -0.1366837152924E+01 -0.1344469614720E+01
-0.5488791740782E+00 -0.2185805521038E+01 -0.1285301803445E+01 -0.1300288742011E+01
-0.4315331342307E+00 -0.2141350004510E+01 -0.1209255072141E+01 -0.1258809888075E+01
-0.3394074875841E+00 -0.2085994705249E+01 -0.1139939027740E+01 -0.1222873171640E+01
-0.2703587626116E+00 -0.2023001656805E+01 -0.1077879394392E+01 -0.1193488957607E+01
-0.2219533945289E+00 -0.1954465773494E+01 -0.1022917006376E+01 -0.1170215845873E+01
-0.1918449523181E+00 -0.1881272535883E+01 -0.9743652169830E+00 -0.1151601641864E+01
-0.1785893352582E+00 -0.1803747706096E+01 -0.9316984070735E+00 -0.1136525183741E+01
-0.1806083653486E+00 -0.1722191041646E+01 -0.8943157190191E+00 -0.1124049627606E+01
-0.1958693717676E+00 -0.1636672036086E+01 -0.8612944595068E+00 -0.1112778067748E+01
-0.2226892299013E+00 -0.1547091929924E+01 -0.8317971430084E+00 -0.1101125154008E+01
-0.2580994186235E+00 -0.1452718784361E+01 -0.8040845533631E+00 -0.1086984899035E+01
-0.2986609718420E+00 -0.1353489243259E+01 -0.7765105991281E+00 -0.1067687348783E+01
-0.3276179401521E+00 -0.1243040280201E+01 -0.7382093616938E+00 -0.1041569630409E+01
-0.3663988631973E+00 -0.1142272788414E+01 -0.7090756744590E+00 -0.1019580538946E+01
-0.1619684989846E+01 -0.2055935440461E+01 -0.1727541597863E+01 -0.1356993694673E+01
-0.1458518757346E+01 -0.2103695469128E+01 -0.1674240682196E+01 -0.1400079388024E+01
-0.1267371929753E+01 -0.2148372428698E+01 -0.1605399844400E+01 -0.1416171573421E+01
-0.1072606268465E+01 -0.2181132127146E+01 -0.1529257042058E+01 -0.1409146054467E+01
-0.8887204361172E+00 -0.2196674771531E+01 -0.1450135743917E+01 -0.1385976865701E+01
-0.7239570088462E+00 -0.2193992335377E+01 -0.1371436188307E+01 -0.1353736714483E+01
-0.5821344189319E+00 -0.2174597158684E+01 -0.1295663838193E+01 -0.1318426313822E+01
-0.4643034352319E+00 -0.2141399117864E+01 -0.1224680196849E+01 -0.1284503851506E+01
-0.3698235436510E+00 -0.2097663199309E+01 -0.1159718766250E+01 -0.1254746880801E+01
-0.2971761431921E+00 -0.2046225297328E+01 -0.1101398674251E+01 -0.1230362497558E+01
-0.2445589192417E+00 -0.1988995378111E+01 -0.1049770517093E+01 -0.1211243288354E+01
-0.2100940587574E+00 -0.1926630011015E+01 -0.1004260310246E+01 -0.1196280327366E+01
-0.1925264193212E+00 -0.1859193903629E+01 -0.9643085493406E+00 -0.1184364251178E+01
-0.1904579622192E+00 -0.1786648993920E+01 -0.9292402670285E+00 -0.1174447310224E+01
-0.2020913704420E+00 -0.1708696664158E+01 -0.8980703739840E+00 -0.1165164256654E+01
-0.2260150752704E+00 -0.1625084809707E+01 -0.8700169437328E+00 -0.1155087318712E+01
-0.2606057622966E+00 -0.1535570340807E+01 -0.8442027663173E+00 -0.1142454994970E+01
-0.3022035622964E+00 -0.1438271712095E+01 -0.8180233768893E+00 -0.1125178980774E+01
-0.3480298263861E+00 -0.1336236972749E+01 -0.7916053935857E+00 -0.1099901315598E+01
-0.3246442845615E+00 -0.1179696351395E+01 -0.7070400971064E+00 -0.1066171701932E+01
-0.9682487316814E+00 -0.1272063638795E+01 -0.1052946811453E+01 -0.3126822259521E+00
-0.7601280030400E+00 -0.1347780024904E+01 -0.9907167706208E+00 -0.4098382746125E+00
-0.5907316666442E+00 -0.1417008287697E+01 -0.9436377761467E+00 -0.4958165201351E+00
-0.4509662704075E+00 -0.1483495434456E+01 -0.9091969989797E+00 -0.5702214404089E+00
-0.3346691248118E+00 -0.1550953464745E+01 -0.8862426148439E+00 -0.6338439118297E+00
-0.2368282798593E+00 -0.1621976387227E+01 -0.8736381913148E+00 -0.6880407035361E+00
-0.1536738736104E+00 -0.1698401613523E+01 -0.8704754767449E+00 -0.7345264453864E+00
-0.8242315156171E-01 -0.1781282099042E+01 -0.8759414655619E+00 -0.7751984381765E+00
-0.2122962699444E-01 -0.1870924955756E+01 -0.8893126516370E+00 -0.8119237209354E+00
 0.3091567537233E-01 -0.1966989710905E+01 -0.9099547943925E+00 -0.8463449282825E+00
 0.7421049113169E-01 -0.2068761556488E+01 -0.9374389983398E+00 -0.8797635641806E+00
 0.1081022305058E+00 -0.2175402651904E+01 -0.9716311955925E+00 -0.9131392651111E+00
 0.1307845009289E+00 -0.2286613650031E+01 -0.1013239697508E+01 -0.9470245818314E+00
 0.1406900620753E+00 -0.2402241626257E+01 -0.1062929232469E+01 -0.9821334524278E+00
 0.1355810931665E+00 -0.2522035872754E+01 -0.1121633743561E+01 -0.1019447617112E+01
 0.1121164242381E+00 -0.2645400245263E+01 -0.1190643392862E+01 -0.1059953476433E+01
 0.6606382029869E-01 -0.2771042639589E+01 -0.1271340041842E+01 -0.1104051740120E+01
-0.7301477416400E-02 -0.2896933805897E+01 -0.1364990579695E+01 -0.1150797449292E+01
-0.1122228993047E+00 -0.3020968090399E+01 -0.1472599761426E+01 -0.1198282109356E+01
-0.2395831225862E+00 -0.3131271561977E+01 -0.1584301697726E+01 -0.1243151130804E+01
-0.9261156808604E+00 -0.1222299093510E+01 -0.1009754941393E+01 -0.2808511440758E+00
-0.7185058872144E+00 -0.1296511780265E+01 -0.9470583013134E+00 -0.3834002881487E+00
-0.5510085865887E+00 -0.1363869859163E+01 -0.8999928672207E+00 -0.4723986915601E+00
-0.4144077261028E+00 -0.1429288416044E+01 -0.8665371846111E+00 -0.5478881181438E+00
-0.3016090246461E+00 -0.1496356141391E+01 -0.8450436258942E+00 -0.6109580001510E+00
-0.2072874887386E+00 -0.1567839031816E+01 -0.8343094625443E+00 -0.6633208302494E+00
-0.1273938432651E+00 -0.1645619774456E+01 -0.8333163982151E+00 -0.7070148451204E+00
-0.5899978225054E-01 -0.1730826100866E+01 -0.8412181629312E+00 -0.7442310439112E+00
-0.1919325042872E-03 -0.1823843236820E+01 -0.8572965274079E+00 -0.7770885915514E+00
 0.5000476559280E-01 -0.1924446591338E+01 -0.8809876558657E+00 -0.8074537210783E+00
 0.9169429537738E-01 -0.2032007330396E+01 -0.9119471241456E+00 -0.8368342624902E+00
 0.1240176167197E+00 -0.2145787907759E+01 -0.9502320343782E+00 -0.8663741473566E+00
 0.1449756517058E+00 -0.2265257474787E+01 -0.9965324543206E+00 -0.8969573808750E+00
 0.1526400280225E+00 -0.2390557684595E+01 -0.1051821295921E+01 -0.9299634301304E+00
 0.1444848104232E+00 -0.2521334413440E+01 -0.1117119310584E+01 -0.9669575472009E+00
 0.1167388609276E+00 -0.2656482071621E+01 -0.1193679305998E+01 -0.1009292519514E+01
 0.6462072378113E-01 -0.2793967863326E+01 -0.1282793152332E+01 -0.1057328849214E+01
-0.1728265477972E-01 -0.2931172604680E+01 -0.1385773968431E+01 -0.1109548833974E+01
-0.1316022576579E+00 -0.3064408630256E+01 -0.1502125113510E+01 -0.1162165246821E+01
-0.2940047053994E+00 -0.3200233150075E+01 -0.1642291787907E+01 -0.1208316716647E+01
-0.8819908818451E+00 -0.1169540505444E+01 -0.9642197495803E+00 -0.2497156303445E+00
-0.6756338293098E+00 -0.1241575653800E+01 -0.9010884547760E+00 -0.3577732769754E+00
-0.5111420224067E+00 -0.1306973401298E+01 -0.8545142469739E+00 -0.4496640287447E+00
-0.3783982247893E+00 -0.1370975763858E+01 -0.8222057725787E+00 -0.5259124513471E+00
-0.2697690823521E+00 -0.1437480988016E+01 -0.8024075310379E+00 -0.5880500414043E+00
-0.1794727224640E+00 -0.1509283012667E+01 -0.7937151934986E+00 -0.6381713288795E+00
-0.1032258962693E+00 -0.1588310527739E+01 -0.7950221172676E+00 -0.6786554032267E+00
-0.3795875217837E-01 -0.1675720993451E+01 -0.8054294784028E+00 -0.7119830923895E+00
 0.1828035993856E-01 -0.1771960570406E+01 -0.8242296968293E+00 -0.7405128971724E+00
 0.6642413158050E-01 -0.1876897692654E+01 -0.8509225715461E+00 -0.7663261071722E+00
 0.1064425508111E+00 -0.1990017645978E+01 -0.8852802924830E+00 -0.7911500446963E+00
 0.1373366819332E+00 -0.2110582036405E+01 -0.9274253142495E+00 -0.8163733389575E+00
 0.1566925552387E+00 -0.2238209994379E+01 -0.9783131939147E+00 -0.8432186384405E+00
 0.1623264343879E+00 -0.2373339272162E+01 -0.1039176031118E+01 -0.8737739891775E+00
 0.1513967060139E+00 -0.2515625014243E+01 -0.1111187302049E+01 -0.9102801860948E+00
 0.1195602373245E+00 -0.2663539630810E+01 -0.1195670311905E+01 -0.9544745123418E+00
 0.6106064591103E-01 -0.2814359838075E+01 -0.1294050617035E+01 -0.1006532082362E+01
-0.3051221303434E-01 -0.2964384650669E+01 -0.1407601522370E+01 -0.1063706228711E+01
-0.1629531207948E+00 -0.3111827566688E+01 -0.1539146919213E+01 -0.1120138880314E+01
-0.3440963742549E+00 -0.3254177451068E+01 -0.1691188693612E+01 -0.1169555170966E+01
-0.8357618541214E+00 -0.1113593921312E+01 -0.9161972121299E+00 -0.2193981210394E+00
-0.6317118017085E+00 -0.1182991953530E+01 -0.8529107627987E+00 -0.3330208031153E+00
-0.4711784123231E+00 -0.1246061086883E+01 -0.8071025625797E+00 -0.4276105644498E+00
-0.3431321804756E+00 -0.1308457638572E+01 -0.7762472129834E+00 -0.5042731632572E+00
-0.2393113685852E+00 -0.1374253953978E+01 -0.7583756996814E+00 -0.5650673229203E+00
-0.1535455385872E+00 -0.1446293495326E+01 -0.7519243440319E+00 -0.6125285268103E+00
-0.8131362473690E-01 -0.1526482778652E+01 -0.7556643076762E+00 -0.6493919643029E+00
-0.1943276629675E-01 -0.1615970889776E+01 -0.7686397164046E+00 -0.6784239149502E+00
 0.3406966529338E-01 -0.1715231062506E+01 -0.7901458546860E+00 -0.7022062380912E+00
 0.8006579097792E-01 -0.1824220221763E+01 -0.8197525803898E+00 -0.7230222212840E+00
 0.1184192284020E+00 -0.1942534383068E+01 -0.8573341205184E+00 -0.7428235648431E+00
 0.1479708056940E+00 -0.2069525282839E+01 -0.9031306019673E+00 -0.7632545122160E+00
 0.1658866118164E+00 -0.2205057874374E+01 -0.9584104909713E+00 -0.7858931267317E+00
 0.1696918695786E+00 -0.2350055057715E+01 -0.1024770695825E+01 -0.8135943896231E+00
 0.1561853867385E+00 -0.2504303426893E+01 -0.1103615476074E+01 -0.8493445495058E+00
 0.1202023302994E+00 -0.2665932431567E+01 -0.1196493144561E+01 -0.8952988007195E+00
 0.5463718352583E-01 -0.2831288278751E+01 -0.1305026011446E+01 -0.9513352114175E+00
-0.4924473085868E-01 -0.2995643753299E+01 -0.1431097583924E+01 -0.1013417303593E+01
-0.1989732334631E+00 -0.3154424494704E+01 -0.1576096928241E+01 -0.1074696949004E+01
-0.3993529217181E+00 -0.3303738762359E+01 -0.1740453087102E+01 -0.1128652359799E+01
-0.7874342321085E+00 -0.1054366865671E+01 -0.8656465137608E+00 -0.1900166243153E+00
-0.5868204591542E+00 -0.1120596760587E+01 -0.8024860912432E+00 -0.3092091747692E+00
-0.4312770808854E+00 -0.1180998113615E+01 -0.7577693394933E+00 -0.4062359892890E+00
-0.3087658712805E+00 -0.1241612546713E+01 -0.7286778546086E+00 -0.4829168146716E+00
-0.2104063232947E+00 -0.1306639688833E+01 -0.7130116238917E+00 -0.5419315213959E+00
-0.1296530369040E+00 -0.1378892088445E+01 -0.7090162071158E+00 -0.5863107690455E+00
-0.6178355906659E-01 -0.1460196063348E+01 -0.7153304207203E+00 -0.6191648756630E+00
-0.3526521411656E-02 -0.1551632355784E+01 -0.7309246704281E+00 -0.6435365256463E+00
 0.4708794796990E-01 -0.1653667131707E+01 -0.7550922144410E+00 -0.6622083864748E+00
 0.9086546902162E-01 -0.1766336266470E+01 -0.7874712728033E+00 -0.6776430282140E+00
 0.1275610212619E+00 -0.1889381463025E+01 -0.8280556055286E+00 -0.6920015632141E+00
 0.1558633896252E+00 -0.2022300492448E+01 -0.8772254361018E+00 -0.7071818549738E+00
 0.1724857455142E+00 -0.2165334800177E+01 -0.9366390533158E+00 -0.7251293722034E+00
 0.1746334554794E+00 -0.2320069465599E+01 -0.1008354922199E+01 -0.7495229582037E+00
 0.1586495363351E+00 -0.2486584418214E+01 -0.1094129391708E+01 -0.7841843266049E+00
 0.1183415042543E+00 -0.2662674598427E+01 -0.1195836551228E+01 -0.8317908398543E+00
 0.4478029407157E-01 -0.2843587913321E+01 -0.1315439577711E+01 -0.8919868994983E+00
-0.7235953985746E-01 -0.3022431306095E+01 -0.1454551693908E+01 -0.9595680090371E+00
-0.2404146635458E+00 -0.3192812245816E+01 -0.1613616643307E+01 -0.1026464511904E+01
-0.4611735206469E+00 -0.3349887794294E+01 -0.1791198813479E+01 -0.1085321144509E+01
-0.7369924440111E+00 -0.9917166253245E+00 -0.8124932605269E+00 -0.1617042825189E+00
-0.5410702250679E+00 -0.1054217798809E+01 -0.7497853693204E+00 -0.2864008472961E+00
-0.3915967099227E+00 -0.1111628473593E+01 -0.7065158344603E+00 -0.3855193287802E+00
-0.2754737288151E+00 -0.1170352765582E+01 -0.6795384506432E+00 -0.4617619927531E+00
-0.1832122434106E+00 -0.1234631568076E+01 -0.6663865897087E+00 -0.5185343497885E+00
-0.1079284974603E+00 -0.1307151649427E+01 -0.6650876673500E+00 -0.5594172374056E+00
-0.4473697285329E-01 -0.1389569000517E+01 -0.6741238057744E+00 -0.5879108921033E+00
 0.9685582172542E-02 -0.1482827450789E+01 -0.6923766764937E+00 -0.6073186861728E+00
 0.5728205452410E-01 -0.1587343990552E+01 -0.7191291081092E+00 -0.6205912895136E+00
 0.9877916502988E-01 -0.1703230150972E+01 -0.7540919614801E+00 -0.6303340577029E+00
 0.1338241671098E+00 -0.1830406504551E+01 -0.7973936965748E+00 -0.6388876510779E+00
 0.1609581971342E+00 -0.1968581052124E+01 -0.8495827396905E+00 -0.6483893756863E+00
 0.1764163238991E+00 -0.2118506919437E+01 -0.9127825775877E+00 -0.6611616592359E+00
 0.1770409017316E+00 -0.2282632150641E+01 -0.9896278844776E+00 -0.6817681520834E+00
 0.1586413549532E+00 -0.2461499617980E+01 -0.1082343380877E+01 -0.7149899933007E+00
 0.1138026559204E+00 -0.2652635203840E+01 -0.1193251294496E+01 -0.7642164209863E+00
 0.3162461331271E-01 -0.2849872596560E+01 -0.1324576548767E+01 -0.8289658521552E+00
-0.9997676006322E-01 -0.3043950197557E+01 -0.1477645666334E+01 -0.9026741059169E+00
-0.2878067537147E+00 -0.3226669911371E+01 -0.1651804028401E+01 -0.9756719635713E+00
-0.5306832151976E+00 -0.3392594904157E+01 -0.1843940711420E+01 -0.1039490324372E+01
-0.6844176042344E+00 -0.9254662707257E+00 -0.7566454193121E+00 -0.1346074962250E+00
-0.4945865999836E+00 -0.9836488168001E+00 -0.6947706441262E+00 -0.2646478017492E+00
-0.3523138326278E+00 -0.1037790568404E+01 -0.6533490668279E+00 -0.3654122207665E+00
-0.2434328125985E+00 -0.1094607288574E+01 -0.6288788459558E+00 -0.4406918939675E+00
-0.1578802830372E+00 -0.1158267338512E+01 -0.6185893805593E+00 -0.4947347166935E+00
-0.8848346050580E-01 -0.1231204148636E+01 -0.6202531747233E+00 -0.5317260125244E+00
-0.3024534687176E-01 -0.1314791620702E+01 -0.6321673731563E+00 -0.5555637265392E+00
 0.2016501186416E-01 -0.1409752913186E+01 -0.6531063119645E+00 -0.5697853008937E+00
 0.6463286895017E-01 -0.1516409316370E+01 -0.6823349285566E+00 -0.5774635953934E+00
 0.1037923993882E+00 -0.1634942573828E+01 -0.7196405801614E+00 -0.5812959654236E+00
 0.1371837782953E+00 -0.1765487112971E+01 -0.7653025653566E+00 -0.5837580932043E+00
 0.1632117790081E+00 -0.1908026992845E+01 -0.8200631484234E+00 -0.5872011189935E+00
 0.1776169287860E+00 -0.2063979738635E+01 -0.8865905183804E+00 -0.5943334047583E+00
 0.1768413420528E+00 -0.2236880690752E+01 -0.9682184914329E+00 -0.6106688772612E+00
 0.1560935564295E+00 -0.2427957857197E+01 -0.1067776218652E+01 -0.6421006363995E+00
 0.1066072108836E+00 -0.2634582662102E+01 -0.1188148459059E+01 -0.6929732663340E+00
 0.1515580029045E-01 -0.2849045482247E+01 -0.1331928147141E+01 -0.7627321120616E+00
-0.1323285022308E+00 -0.3059347320716E+01 -0.1500087632980E+01 -0.8431304529086E+00
-0.3418387476505E+00 -0.3255416305896E+01 -0.1690709870878E+01 -0.9225030082929E+00
-0.6088069458089E+00 -0.3431329540592E+01 -0.1898864143792E+01 -0.9911581616130E+00
-0.6296855218636E+00 -0.8553962750216E+00 -0.6979884427657E+00 -0.1088879674918E+00
-0.4475163101882E+00 -0.9086462623309E+00 -0.6373964074673E+00 -0.2439848041486E+00
-0.3136207713198E+00 -0.9593111771820E+00 -0.5982780142784E+00 -0.3458292545426E+00
-0.2128232525238E+00 -0.1014327737581E+01 -0.5767609638864E+00 -0.4195460618563E+00
-0.1345487096493E+00 -0.1077636121117E+01 -0.5697268690151E+00 -0.4703536961816E+00
-0.7140332705910E-01 -0.1151253830331E+01 -0.5746488625159E+00 -0.5030927483472E+00
-0.1834373084144E-01 -0.1236136335168E+01 -0.5896056295290E+00 -0.5220555234134E+00
 0.2791388504319E-01 -0.1332690039242E+01 -0.6132447909178E+00 -0.5309723626450E+00
 0.6916094781781E-01 -0.1441088497521E+01 -0.6448059467251E+00 -0.5329775709896E+00
 0.1059240446353E+00 -0.1561575906747E+01 -0.6841563734571E+00 -0.5307951262474E+00
 0.1376406603918E+00 -0.1694533830343E+01 -0.7317397880213E+00 -0.5269766524855E+00
 0.1626010218483E+00 -0.1840290991750E+01 -0.7885142838541E+00 -0.5240489384158E+00
 0.1760542619350E+00 -0.2001102730981E+01 -0.8577727782760E+00 -0.5251140552818E+00
 0.1740091386629E+00 -0.2181857007445E+01 -0.9436884959342E+00 -0.5366995635404E+00
 0.1510186192912E+00 -0.2384755519073E+01 -0.1049856340234E+01 -0.5659769513354E+00
 0.9680199210386E-01 -0.2607250819835E+01 -0.1179910946041E+01 -0.6185289451947E+00
-0.4665404522342E-02 -0.2839956128093E+01 -0.1336972116938E+01 -0.6937572695812E+00
-0.1697700996762E+00 -0.3067656869928E+01 -0.1521590671854E+01 -0.7813209220437E+00
-0.4032583533364E+00 -0.3278224596088E+01 -0.1730296981841E+01 -0.8671694815607E+00
-0.6964947448320E+00 -0.3465400416074E+01 -0.1956090720664E+01 -0.9403768910877E+00
-0.5727655768869E+00 -0.7812341106058E+00 -0.6363798515075E+00 -0.8472504133622E-01
-0.4000308775249E+00 -0.8289201271493E+00 -0.5776069707318E+00 -0.2244214599961E+00
-0.2757267366074E+00 -0.8760046834604E+00 -0.5413137660589E+00 -0.3266365441884E+00
-0.1838253566992E+00 -0.9294948114108E+00 -0.5232604776845E+00 -0.3981105595138E+00
-0.1133383746215E+00 -0.9928912144987E+00 -0.5199279055678E+00 -0.4451691070318E+00
-0.5674070190029E-01 -0.1067590568431E+01 -0.5284356957154E+00 -0.4733500190964E+00
-0.9024050954050E-02 -0.1153969628207E+01 -0.5466070278193E+00 -0.4873199041006E+00
 0.3298167915902E-01 -0.1252012731841E+01 -0.5729445933074E+00 -0.4909424853326E+00
 0.7093217508893E-01 -0.1361691078563E+01 -0.6066566830941E+00 -0.4873367570991E+00
 0.1052319460136E+00 -0.1483300395671E+01 -0.6476921696960E+00 -0.4791739651464E+00
 0.1352267354874E+00 -0.1617498303100E+01 -0.6966676350110E+00 -0.4690081264893E+00
 0.1591297779493E+00 -0.1765026847779E+01 -0.7547716209057E+00 -0.4594881408189E+00
 0.1717278223388E+00 -0.1929177983944E+01 -0.8260015738594E+00 -0.4541128613384E+00
 0.1685650230402E+00 -0.2116507793628E+01 -0.9155330998542E+00 -0.4604746967679E+00
 0.1434712043834E+00 -0.2330570530518E+01 -0.1027936680676E+01 -0.4871924825593E+00
 0.8446093237136E-01 -0.2569244698345E+01 -0.1167848367045E+01 -0.5414262756328E+00
-0.2790779507889E-01 -0.2821320862823E+01 -0.1339137465817E+01 -0.6225599816743E+00
-0.2127374438566E+00 -0.3067740265152E+01 -0.1541824519323E+01 -0.7176660456633E+00
-0.4729056164093E+00 -0.3294105095814E+01 -0.1770495030254E+01 -0.8099177609831E+00
-0.7947709919573E+00 -0.3494029181548E+01 -0.2015736076435E+01 -0.8872128938467E+00
-0.5136175897305E+00 -0.7026383317614E+00 -0.5716402816513E+00 -0.6231856792329E-01
-0.3523310332638E+00 -0.7441225830304E+00 -0.5153331983512E+00 -0.2059316903040E+00
-0.2388581618076E+00 -0.7876734516640E+00 -0.4824698571079E+00 -0.3076374914717E+00
-0.1566165108651E+00 -0.8401299553056E+00 -0.4684708379120E+00 -0.3761065470618E+00
-0.9434680791485E-01 -0.9042669357405E+00 -0.4693484583276E+00 -0.4189103441606E+00
-0.4450796614678E-01 -0.9806055873322E+00 -0.4818033689131E+00 -0.4423084096652E+00
-0.2227157329775E-02 -0.1068762776277E+01 -0.5033652675185E+00 -0.4512971173617E+00
 0.3547250532542E-01 -0.1168193967444E+01 -0.5323790858453E+00 -0.4497917685869E+00
 0.7006413014905E-01 -0.1278616149837E+01 -0.5680194478127E+00 -0.4408035897626E+00
 0.1018183362177E+00 -0.1400362266102E+01 -0.6103156454975E+00 -0.4268600488886E+00
 0.1300098074409E+00 -0.1534385168568E+01 -0.6600564180554E+00 -0.4104303187762E+00
 0.1528318162017E+00 -0.1681902887163E+01 -0.7186634015289E+00 -0.3942123763946E+00
 0.1646705944426E+00 -0.1847467276310E+01 -0.7909144384714E+00 -0.3820949095194E+00
 0.1605687161108E+00 -0.2039676427634E+01 -0.8831806221759E+00 -0.3827631072697E+00
 0.1335437712983E+00 -0.2263917417510E+01 -0.1001275611180E+01 -0.4064477522932E+00
 0.6968257545781E-01 -0.2518976703378E+01 -0.1151168237203E+01 -0.4623040218635E+00
-0.5466015114935E-01 -0.2791658453255E+01 -0.1337769740677E+01 -0.5497336588498E+00
-0.2617564032618E+00 -0.3058271349800E+01 -0.1560413039981E+01 -0.6526381125751E+00
-0.5517416172456E+00 -0.3301928327404E+01 -0.1811224869391E+01 -0.7510147798613E+00
-0.9047798199941E+00 -0.3516391080016E+01 -0.2077950317735E+01 -0.8317162422513E+00
-0.4521863031862E+00 -0.6191757677828E+00 -0.5035401720783E+00 -0.4189197987110E-01
-0.3046513081253E+00 -0.6538331519094E+00 -0.4504876950737E+00 -0.1884390951640E+00
-0.2032586638800E+00 -0.6941112479564E+00 -0.4217638574934E+00 -0.2885544598931E+00
-0.1313671798787E+00 -0.7463137382002E+00 -0.4125100304508E+00 -0.3531771810324E+00
-0.7764125536354E-01 -0.8121014681154E+00 -0.4181790789744E+00 -0.3912545201479E+00
-0.3466854176709E-01 -0.8908089505311E+00 -0.4349744202769E+00 -0.4097606717171E+00
 0.2165997381462E-02 -0.9811005352053E+00 -0.4600992316102E+00 -0.4139420112506E+00
 0.3555283539504E-01 -0.1081808688693E+01 -0.4917402498029E+00 -0.4076577206266E+00
 0.6673239082076E-01 -0.1192355806585E+01 -0.5290430040671E+00 -0.3937059441419E+00
 0.9583499668345E-01 -0.1313093224755E+01 -0.5721113657425E+00 -0.3743727888635E+00
 0.1220973421052E+00 -0.1445269052882E+01 -0.6218907024880E+00 -0.3519440575752E+00
 0.1437724472507E+00 -0.1590621149898E+01 -0.6800188885196E+00 -0.3290693586300E+00
 0.1549486435582E+00 -0.1755201619182E+01 -0.7521188966355E+00 -0.3100033580617E+00
 0.1501197274965E+00 -0.1950086089369E+01 -0.8459841879344E+00 -0.3045154826114E+00
 0.1213685289404E+00 -0.2183098175426E+01 -0.9690129313906E+00 -0.3245987526450E+00
 0.5259624384961E-01 -0.2454598229225E+01 -0.1128940930263E+01 -0.3819246963088E+00
-0.8503534728226E-01 -0.2749233582177E+01 -0.1332106393467E+01 -0.4759670095264E+00
-0.3174675109521E+00 -0.3037707942519E+01 -0.1576932459132E+01 -0.5867615417223E+00
-0.6408933617866E+00 -0.3300431197886E+01 -0.1852422538347E+01 -0.6907243932373E+00
-0.1027823813734E+01 -0.3531639190317E+01 -0.2142947606468E+01 -0.7738872842110E+00
-0.3883916752567E+00 -0.5302882514807E+00 -0.4317795644714E+00 -0.2369512542846E-01
-0.2572644974324E+00 -0.5575395720710E+00 -0.3829579116953E+00 -0.1717958943459E+00
-0.1691883845581E+00 -0.5951122646484E+00 -0.3592213042159E+00 -0.2690046401273E+00
-0.1082361016926E+00 -0.6482148544206E+00 -0.3555319484715E+00 -0.3288730240541E+00
-0.6325035165944E-01 -0.7168673715601E+00 -0.3666553289832E+00 -0.3618256839174E+00
-0.2712670431569E-01 -0.7988477386911E+00 -0.3882079872286E+00 -0.3754908356849E+00
 0.4343944867263E-02 -0.8916850217123E+00 -0.4170503050594E+00 -0.3752356031693E+00
 0.3345900121376E-01 -0.9935308062305E+00 -0.4512337472134E+00 -0.3647276449934E+00
 0.6117630150937E-01 -0.1103495366234E+01 -0.4898899591781E+00 -0.3464411366413E+00
 0.8748814719026E-01 -0.1221921633146E+01 -0.5331837370466E+00 -0.3223261809382E+00
 0.1116404482345E+00 -0.1350318430732E+01 -0.5821786502974E+00 -0.2943804874566E+00
 0.1320505978349E+00 -0.1490946708747E+01 -0.6386811705086E+00 -0.2650783036112E+00
 0.1426637158942E+00 -0.1651598202078E+01 -0.7091992067077E+00 -0.2389903523980E+00
 0.1373636761424E+00 -0.1846323947910E+01 -0.8032113256936E+00 -0.2269064452325E+00
 0.1071271135959E+00 -0.2086143934466E+01 -0.9301379034497E+00 -0.2427000054886E+00
 0.3336949657231E-01 -0.2373917779510E+01 -0.1100057690191E+01 -0.3012101504223E+00
-0.1191831937513E+00 -0.2691982290697E+01 -0.1321247774339E+01 -0.4020626569100E+00
-0.3806711244685E+00 -0.3004247331940E+01 -0.1590911670477E+01 -0.5206042109157E+00
-0.7417149905368E+00 -0.3288212835657E+01 -0.1894066073507E+01 -0.6292740446045E+00
-0.1165407562941E+01 -0.3538931992195E+01 -0.2211039585306E+01 -0.7136346905169E+00
-0.3221115061466E+00 -0.4352425198026E+00 -0.3559563912933E+00 -0.8005837278422E-02
-0.2104851590850E+00 -0.4546131549348E+00 -0.3125962067964E+00 -0.1557516467411E+00
-0.1369228844883E+00 -0.4904912440077E+00 -0.2948846396452E+00 -0.2484676656437E+00
-0.8736491309037E-01 -0.5461360828717E+00 -0.2977454673470E+00 -0.3026369003776E+00
-0.5115407931866E-01 -0.6192114082912E+00 -0.3150717783775E+00 -0.3302002537611E+00
-0.2171538469307E-01 -0.7055215414262E+00 -0.3418013544091E+00 -0.3392908865187E+00
 0.4574622760677E-02 -0.8013304664441E+00 -0.3744752455814E+00 -0.3352007461489E+00
 0.2950342687667E-01 -0.9041215919700E+00 -0.4110705365512E+00 -0.3212462069574E+00
 0.5370349718059E-01 -0.1012709540199E+01 -0.4507328390753E+00 -0.2994753525045E+00
 0.7704375685807E-01 -0.1127385740906E+01 -0.4936607312505E+00 -0.2714255148708E+00
 0.9883974001192E-01 -0.1249829172399E+01 -0.5409650318498E+00 -0.2387040791516E+00
 0.1178035317242E+00 -0.1382753455574E+01 -0.5945264627014E+00 -0.2034490291089E+00
 0.1279595147098E+00 -0.1535894319209E+01 -0.6617293564362E+00 -0.1704587047680E+00
 0.1225055373981E+00 -0.1726831067017E+01 -0.7540329970085E+00 -0.1513955366166E+00
 0.9106842078154E-01 -0.1970742785162E+01 -0.8834469490182E+00 -0.1620676833907E+00
 0.1221882639370E-01 -0.2274288715275E+01 -0.1063172845078E+01 -0.2212907375339E+00
-0.1573152513957E+00 -0.2617404578682E+01 -0.1304118316829E+01 -0.3289578163019E+00
-0.4523987022239E+00 -0.2955760330840E+01 -0.1601834741477E+01 -0.4547597092335E+00
-0.8558739674141E+00 -0.3263728985513E+01 -0.1936213382965E+01 -0.5668068727720E+00
-0.1319288701511E+01 -0.3537472312110E+01 -0.2282677670612E+01 -0.6507177688204E+00
-0.2531489785674E+00 -0.3330511351873E+00 -0.2755140527659E+00  0.4872035243222E-02
-0.1646706762791E+00 -0.3442776982380E+00 -0.2392057354163E+00 -0.1399050740205E+00
-0.1067525773092E+00 -0.3801258742190E+00 -0.2288328716379E+00 -0.2262415075720E+00
-0.6887336438598E-01 -0.4405879352884E+00 -0.2394468102396E+00 -0.2737910241530E+00
-0.4127066904452E-01 -0.5200030399705E+00 -0.2637986425680E+00 -0.2959242543578E+00
-0.1818099682247E-01 -0.6117877919029E+00 -0.2960853299500E+00 -0.3009881765405E+00
 0.3214913743355E-02 -0.7109424676654E+00 -0.3326319494997E+00 -0.2939212384372E+00
 0.2407727740351E-01 -0.8144082194604E+00 -0.3714555418246E+00 -0.2775197198077E+00
 0.4469255047747E-01 -0.9207545694469E+00 -0.4117491478713E+00 -0.2533361061358E+00
 0.6483460485801E-01 -0.1030149164786E+01 -0.4536978420155E+00 -0.2224556685888E+00
 0.8395598256993E-01 -0.1144270107432E+01 -0.4983476374211E+00 -0.1860086867315E+00
 0.1012161173118E+00 -0.1266095587625E+01 -0.5474933496585E+00 -0.1456012155606E+00
 0.1110325593510E+00 -0.1407411936589E+01 -0.6092983057564E+00 -0.1061169010624E+00
 0.1058315946747E+00 -0.1589906532412E+01 -0.6975152189675E+00 -0.7981525683327E-01
 0.7353964881321E-01 -0.1834145840873E+01 -0.8274849081691E+00 -0.8437437647667E-01
-0.1057277261529E-01 -0.2152444844797E+01 -0.1016618277605E+01 -0.1435779364886E+00
-0.1997466744576E+00 -0.2522403476621E+01 -0.1279410567762E+01 -0.2577501911448E+00
-0.5340242560584E+00 -0.2889699157959E+01 -0.1609150000507E+01 -0.3898156640795E+00
-0.9854751311854E+00 -0.3225295390605E+01 -0.1979062140222E+01 -0.5033102744700E+00
-0.1491536593978E+01 -0.3526566656918E+01 -0.2358508521939E+01 -0.5846646558136E+00
-0.1811689818923E+00 -0.2223403090400E+00 -0.1896493662571E+00  0.1461918573110E-01
-0.1202162260381E+00 -0.2255715927282E+00 -0.1625202744080E+00 -0.1236263585942E+00
-0.7898821368862E-01 -0.2640475386718E+00 -0.1612268032005E+00 -0.2013820720862E+00
-0.5285612599739E-01 -0.3324051785496E+00 -0.1810728126778E+00 -0.2415339210833E+00
-0.3343805025913E-01 -0.4203850556555E+00 -0.2132968592389E+00 -0.2585521051891E+00
-0.1616145137222E-01 -0.5187393128208E+00 -0.2514033585331E+00 -0.2604860747609E+00
 0.7157256030119E-03 -0.6214774304702E+00 -0.2917580005476E+00 -0.2515606218259E+00
 0.1764664278496E-01 -0.7252542695704E+00 -0.3325755837456E+00 -0.2339133727261E+00
 0.3459227495100E-01 -0.8284589917043E+00 -0.3731173559277E+00 -0.2085959495816E+00
 0.5127270323668E-01 -0.9310153147160E+00 -0.4134790263466E+00 -0.1762589776035E+00
 0.6732928905503E-01 -0.1034341067913E+01 -0.4544955349105E+00 -0.1375021245415E+00
 0.8253795236272E-01 -0.1141316083172E+01 -0.4976257202181E+00 -0.9317946346522E-01
 0.9214763403370E-01 -0.1265677036634E+01 -0.5515588178232E+00 -0.4804964222849E-01
 0.8774304213953E-01 -0.1433743979192E+01 -0.6326204388100E+00 -0.1449975959801E-01
 0.5504092417431E-01 -0.1673041570334E+01 -0.7604603017664E+00 -0.1179653484688E-01
-0.3462267338194E-01 -0.2004246757645E+01 -0.9582686301520E+00 -0.6987748464103E-01
-0.2469643999898E+00 -0.2403034920801E+01 -0.1245499677613E+01 -0.1897314585267E+00
-0.6274450280031E+00 -0.2802976531395E+01 -0.1612298128828E+01 -0.3262960649153E+00
-0.1133241736716E+01 -0.3171119210207E+01 -0.2023049639923E+01 -0.4385055075239E+00
-0.1684593359614E+01 -0.3505719560589E+01 -0.2439447066308E+01 -0.5146556839340E+00
-0.1055571098529E+00 -0.1011046106520E+00 -0.9713100839095E-01  0.2093308972040E-01
-0.7754435484962E-01 -0.9731698853136E-01 -0.8218483118061E-01 -0.1059244767542E+00
-0.5398124787565E-01 -0.1426315598393E+00 -0.9240801939164E-01 -0.1726216809417E+00
-0.3939216594295E-01 -0.2229373057354E+00 -0.1232948513761E+00 -0.2049668399954E+00
-0.2736892598902E-01 -0.3217838964553E+00 -0.1641018261326E+00 -0.2177227450366E+00
-0.1516200300396E-01 -0.4275350827104E+00 -0.2080676297580E+00 -0.2178146021383E+00
-0.2379536675639E-02 -0.5338784990098E+00 -0.2520412761329E+00 -0.2083711257140E+00
 0.1073089222705E-01 -0.6375408622706E+00 -0.2946006851732E+00 -0.1908373963512E+00
 0.2392367951216E-01 -0.7367087482468E+00 -0.3350089814556E+00 -0.1658490649315E+00
 0.3686808193385E-01 -0.8309359815661E+00 -0.3732119118806E+00 -0.1337014469059E+00
 0.4941505429766E-01 -0.9210348749020E+00 -0.4096613146450E+00 -0.9447190978911E-01
 0.6211276055970E-01 -0.1009206291790E+01 -0.4451339585492E+00 -0.4805338808989E-01
 0.7165853044584E-01 -0.1110634911667E+01 -0.4883188979353E+00  0.1197320155947E-02
 0.6880157644146E-01 -0.1256546291540E+01 -0.5582400146802E+00  0.4152456123873E-01
 0.3632428178700E-01 -0.1483387691528E+01 -0.6801198008532E+00  0.5274551978973E-01
-0.5937597575114E-01 -0.1824263040161E+01 -0.8853103352334E+00 -0.2575236613221E-02
-0.2997443245853E+00 -0.2254104825453E+01 -0.1200309097473E+01 -0.1264289301289E+00
-0.7353850761271E+00 -0.2691814047884E+01 -0.1610783584200E+01 -0.2645501355035E+00
-0.1302795983853E+01 -0.3099417656031E+01 -0.2069040405497E+01 -0.3716698845967E+00
-0.1901299265485E+01 -0.3474766356871E+01 -0.2526750836098E+01 -0.4393616697829E+00
-0.2510552331914E-01  0.3377494786598E-01  0.4074629526677E-02  0.2361106266314E-01
-0.3705012804941E-01  0.4190462320271E-01  0.2281612716264E-02 -0.8519808479911E-01
-0.3226328626484E-01 -0.1709715794802E-01 -0.2319940872120E-01 -0.1382718082337E+00
-0.2850401044429E-01 -0.1142520844426E+00 -0.6709536442666E-01 -0.1632007757636E+00
-0.2259290061607E-01 -0.2258372410528E+00 -0.1167621662882E+00 -0.1732904607470E+00
-0.1448765113644E-01 -0.3392018379025E+00 -0.1662340594267E+00 -0.1731697398164E+00
-0.5509612002303E-02 -0.4490773756399E+00 -0.2136558836499E+00 -0.1646735208665E+00
 0.3892778622935E-02 -0.5521418392593E+00 -0.2576770578455E+00 -0.1487286075119E+00
 0.1327716508102E-01 -0.6464321638439E+00 -0.2975828486638E+00 -0.1256848785937E+00
 0.2226014906266E-01 -0.7309973407696E+00 -0.3331064792574E+00 -0.9562746819212E-01
 0.3083719478813E-01 -0.8056931667732E+00 -0.3641823059093E+00 -0.5822242753786E-01
 0.4044762791321E-01 -0.8712033623418E+00 -0.3904551941911E+00 -0.1227922279012E-01
 0.5002175937328E-01 -0.9430491771310E+00 -0.4197228852816E+00  0.3853425100535E-01
 0.4978523735247E-01 -0.1056824226391E+01 -0.4733083236475E+00  0.8425459631832E-01
 0.1857430237656E-01 -0.1260205417954E+01 -0.5835666228411E+00  0.1051758814909E+00
-0.8393475412873E-01 -0.1605029258203E+01 -0.7938130837827E+00  0.5503292197795E-01
-0.3593392278256E+00 -0.2068441848156E+01 -0.1141057102817E+01 -0.6965056124804E-01
-0.8619917375174E+00 -0.2551636777024E+01 -0.1604405397765E+01 -0.2045184854263E+00
-0.1499056067277E+01 -0.3008708191743E+01 -0.2118649196366E+01 -0.3013399590661E+00
-0.2144833227576E+01 -0.3434110153093E+01 -0.2622103382263E+01 -0.3567324330422E+00
 0.6314776603655E-01  0.1879696930471E+00  0.1180252054699E+00  0.2283367045000E-01
 0.6317590338828E-03  0.1931920017197E+00  0.9109716732312E-01 -0.5873244356187E-01
-0.1462387772144E-01  0.1096832225269E+00  0.4467789194526E-01 -0.9616079587275E-01
-0.2035979363719E-01 -0.9631810524403E-02 -0.1409605392020E-01 -0.1156784837258E+00
-0.1789127739500E-01 -0.1335059906240E+00 -0.7115671578844E-01 -0.1255026808897E+00
-0.1353608500332E-01 -0.2547768329747E+00 -0.1261070711298E+00 -0.1268433692047E+00
-0.8097643157013E-02 -0.3679646219047E+00 -0.1767492641307E+00 -0.1208334329017E+00
-0.2286363173214E-02 -0.4699175152897E+00 -0.2219358223147E+00 -0.1080369759435E+00
 0.3330789676868E-02 -0.5585514870357E+00 -0.2609537270968E+00 -0.8866035785854E-01
 0.8214365757225E-02 -0.6324239578247E+00 -0.2933785075276E+00 -0.6280751768142E-01
 0.1250996890123E-01 -0.6899681062392E+00 -0.3184053237412E+00 -0.2997737904143E-01
 0.1831214891184E-01 -0.7296312941689E+00 -0.3343199974228E+00  0.1202000389937E-01
 0.2788434702311E-01 -0.7651005262761E+00 -0.3464916033701E+00  0.6030880804080E-01
 0.3163102606202E-01 -0.8342701407934E+00 -0.3772403829669E+00  0.1083128820165E+00
 0.3769393164382E-02 -0.9974052474275E+00 -0.4670088503192E+00  0.1394926869690E+00
-0.1065643991250E+00 -0.1335533163662E+01 -0.6777858527909E+00  0.9809281622594E-01
-0.4278887907016E+00 -0.1835551831655E+01 -0.1063817089809E+01 -0.2151329422326E-01
-0.1013967480085E+01 -0.2377028414130E+01 -0.1593768066239E+01 -0.1451964849103E+00
-0.1729080322388E+01 -0.2898909815505E+01 -0.2175155359293E+01 -0.2247664855612E+00
-0.2417953468976E+01 -0.3384638701086E+01 -0.2727218313012E+01 -0.2638245656995E+00
 0.1658532555159E+00  0.3722527227611E+00  0.2529098091487E+00  0.1977306599617E-01
 0.3612925352115E-01  0.3578772027039E+00  0.1851830339561E+00 -0.2127373306683E-01
-0.6205799716305E-02  0.2268138444804E+00  0.1036857807761E+00 -0.4408829553725E-01
-0.1149265993639E-01  0.9115115277731E-01  0.3743949154027E-01 -0.6310975639591E-01
-0.1272220980262E-01 -0.4606965123361E-01 -0.2763217461694E-01 -0.7469976281928E-01
-0.1165889881616E-01 -0.1751793168712E+00 -0.8781396115035E-01 -0.7916985385215E-01
-0.9596146722095E-02 -0.2914170728462E+00 -0.1414762128383E+00 -0.7724780528246E-01
-0.7229534311788E-02 -0.3917185441918E+00 -0.1875055964211E+00 -0.6922221365376E-01
-0.5155229251929E-02 -0.4739238032550E+00 -0.2251671447072E+00 -0.5528577480567E-01
-0.4260485888955E-02 -0.5364242455037E+00 -0.2541218231100E+00 -0.3585324625212E-01
-0.4559856258340E-02 -0.5761065420915E+00 -0.2729132065322E+00 -0.1078201327820E-01
-0.2604592960447E-02 -0.5872443292858E+00 -0.2772289927526E+00  0.2289256966576E-01
 0.6000366314202E-02 -0.5815596334075E+00 -0.2705128548477E+00  0.6258194580133E-01
 0.1536803717308E-01 -0.5916761072328E+00 -0.2708647922410E+00  0.1065054192263E+00
-0.5066634427831E-02 -0.6886743015377E+00 -0.3260582390768E+00  0.1462743710904E+00
-0.1230428849207E+00 -0.9977266285663E+00 -0.5267616700028E+00  0.1185916953795E+00
-0.5087306147928E+00 -0.1537741602568E+01 -0.9618419397201E+00  0.1562017175789E-01
-0.1204496590724E+01 -0.2163754246345E+01 -0.1583077889407E+01 -0.8314519683985E-01
-0.2002164238166E+01 -0.2772969446523E+01 -0.2244312826111E+01 -0.1369636363926E+00
-0.2721813071653E+01 -0.3328440723682E+01 -0.2843619276595E+01 -0.1568746969684E+00
 0.3400184471144E+00  0.6495893772801E+00  0.4651156762857E+00  0.2579916484610E-01
 0.3218409672159E-01  0.4845274598770E+00  0.2428544309854E+00  0.3794430198041E-01
 0.7177943417922E-02  0.3420142295131E+00  0.1641203208613E+00  0.1491441198016E-01
-0.2163547122099E-02  0.1861420484645E+00  0.8646989541160E-01 -0.6089124555762E-02
-0.6253436357816E-02  0.3553751541986E-01  0.1376351712425E-01 -0.2115977118517E-01
-0.8380145068132E-02 -0.1014253968590E+00 -0.5160860457485E-01 -0.3054197158834E-01
-0.9392416676256E-02 -0.2201759843311E+00 -0.1078971481998E+00 -0.3434218489235E-01
-0.1036048238082E-01 -0.3183821981229E+00 -0.1545090594448E+00 -0.3272729870795E-01
-0.1157975057986E-01 -0.3935512227769E+00 -0.1904115569947E+00 -0.2606847132116E-01
-0.1361779140291E-01 -0.4436185518416E+00 -0.2149010807798E+00 -0.1515633227310E-01
-0.1883186335744E-01 -0.4666752108802E+00 -0.2281883243129E+00 -0.1148828156567E-02
-0.2172217242165E-01 -0.4496958159487E+00 -0.2215664539721E+00  0.1842575187584E-01
-0.9759947606047E-02 -0.3942901093854E+00 -0.1899035263043E+00  0.4203677560640E-01
-0.1935672850639E-02 -0.3436503795918E+00 -0.1624254442360E+00  0.7097030697777E-01
-0.4056085783832E-02 -0.3336845188959E+00 -0.1587380837968E+00  0.1092050626721E+00
-0.1194890156140E+00 -0.5557294096710E+00 -0.3173526590790E+00  0.1004003040246E+00
-0.6075025827951E+00 -0.1139305201675E+01 -0.8209996566184E+00  0.3937086065930E-01
-0.1463265884769E+01 -0.1913960377909E+01 -0.1587296339433E+01 -0.7513703316038E-02
-0.2334981151558E+01 -0.2651562473204E+01 -0.2343675497694E+01 -0.2847191653161E-01
-0.3038251828038E+01 -0.3252988738173E+01 -0.2956883058619E+01 -0.3472216475929E-01
-0.4616695991581E+00 -0.1201065972061E+01 -0.7814857164906E+00 -0.1079202679091E+01
-0.4403928122178E+00 -0.1086026108413E+01 -0.7174168908768E+00 -0.1027486595876E+01
-0.4356588992648E+00 -0.1002578479895E+01 -0.6759715664904E+00 -0.9732327052921E+00
-0.4297609543780E+00 -0.9235749139588E+00 -0.6360678565050E+00 -0.9162007336722E+00
-0.4227625161793E+00 -0.8469630101624E+00 -0.5967709958670E+00 -0.8568210969467E+00
-0.4135239003475E+00 -0.7719756047598E+00 -0.5571847659872E+00 -0.7956791752247E+00
-0.4015719808343E+00 -0.6987869886240E+00 -0.5171687143336E+00 -0.7332905627611E+00
-0.3865951029585E+00 -0.6276990613630E+00 -0.4767182560220E+00 -0.6701263115638E+00
-0.3684417850626E+00 -0.5590393538506E+00 -0.4359161341836E+00 -0.6066382811308E+00
-0.3470685029881E+00 -0.4931005297586E+00 -0.3948794443894E+00 -0.5432747756217E+00
-0.3225186151746E+00 -0.4301230601662E+00 -0.3537415865130E+00 -0.4804839531806E+00
-0.2949053259938E+00 -0.3702856427224E+00 -0.3126397545036E+00 -0.4187092009870E+00
-0.2643980405128E+00 -0.3137006521648E+00 -0.2717063848694E+00 -0.3583792651153E+00
-0.2312079430988E+00 -0.2604117582334E+00 -0.2310612590401E+00 -0.2998948720837E+00
-0.1955739542658E+00 -0.2103953656051E+00 -0.1908055798553E+00 -0.2436130445213E+00
-0.1577363301055E+00 -0.1635525004203E+00 -0.1510057499641E+00 -0.1898279710362E+00
-0.1179531040150E+00 -0.1197426504167E+00 -0.1117170042995E+00 -0.1387523012900E+00
-0.7624790417720E-01 -0.7854863717063E-01 -0.7275437424895E-01 -0.9045927925541E-01
-0.3337483519329E-01 -0.4022835305018E-01 -0.3459349838669E-01 -0.4490731672989E-01
 0.1725819360607E-01  0.2207267582183E-02  0.9148766735274E-02 -0.7189952116343E-03
-0.4761845841576E+00 -0.1232595201837E+01 -0.8031264973805E+00 -0.1120868346798E+01
-0.4680912264627E+00 -0.1138220925237E+01 -0.7549667093838E+00 -0.1062848497618E+01
-0.4627113426888E+00 -0.1043540678438E+01 -0.7079384481340E+00 -0.1005670015195E+01
-0.4601902433424E+00 -0.9571045775752E+00 -0.6661285641417E+00 -0.9481795694522E+00
-0.4558403998148E+00 -0.8744814215261E+00 -0.6252512544443E+00 -0.8888392174510E+00
-0.4488868904468E+00 -0.7947226936299E+00 -0.5844965030336E+00 -0.8275512991191E+00
-0.4387060859269E+00 -0.7174080512674E+00 -0.5433736431031E+00 -0.7645866664756E+00
-0.4249793986719E+00 -0.6426060740980E+00 -0.5017651709292E+00 -0.7003672238926E+00
-0.4075079985932E+00 -0.5705440076183E+00 -0.4596844417534E+00 -0.6353671703025E+00
-0.3861992399215E+00 -0.5015027832130E+00 -0.4172199498150E+00 -0.5700860541521E+00
-0.3610502771813E+00 -0.4357521347065E+00 -0.3744971326374E+00 -0.5050366264397E+00
-0.3321418781365E+00 -0.3735175609991E+00 -0.3316599355525E+00 -0.4407347675700E+00
-0.2996319110440E+00 -0.3149596947656E+00 -0.2888580539979E+00 -0.3776866277499E+00
-0.2637483681260E+00 -0.2601618770058E+00 -0.2462378145874E+00 -0.3163723555687E+00
-0.2247783379859E+00 -0.2091201779982E+00 -0.2039323019953E+00 -0.2572266611069E+00
-0.1830680361096E+00 -0.1617471466335E+00 -0.1620631354782E+00 -0.2006181951858E+00
-0.1389720503133E+00 -0.1178217820507E+00 -0.1206931009050E+00 -0.1468227268795E+00
-0.9307789481985E-01 -0.7716706865971E-01 -0.8001513263244E-01 -0.9601192640918E-01
-0.4515286638011E-01 -0.3854512458643E-01 -0.3933805565450E-01 -0.4811589635045E-01
-0.7334108852047E-03 -0.4276487859142E-02 -0.2354652403871E-02 -0.3126748136855E-02
-0.4917788943365E+00 -0.1262225359127E+01 -0.8243819970371E+00 -0.1156640283810E+01
-0.4896832622688E+00 -0.1175249790090E+01 -0.7825185326240E+00 -0.1101203280844E+01
-0.4895217634034E+00 -0.1083872034101E+01 -0.7394950829516E+00 -0.1043316380486E+01
-0.4895518679960E+00 -0.9935496154892E+00 -0.6970576954701E+00 -0.9847100846303E+00
-0.4882567173969E+00 -0.9065114969123E+00 -0.6555410590626E+00 -0.9247205651499E+00
-0.4840264456936E+00 -0.8222998254327E+00 -0.6139733458721E+00 -0.8628688516602E+00
-0.4761807102558E+00 -0.7408009380844E+00 -0.5719813732692E+00 -0.7991472631563E+00
-0.4642699390301E+00 -0.6620579255468E+00 -0.5293740950085E+00 -0.7338154980207E+00
-0.4480210029599E+00 -0.5862900577410E+00 -0.4861261972964E+00 -0.6672835742603E+00
-0.4272707703729E+00 -0.5137935282863E+00 -0.4423002192480E+00 -0.6000456603559E+00
-0.4019566683375E+00 -0.4448818925090E+00 -0.3980141225883E+00 -0.5326466155948E+00
-0.3721145301227E+00 -0.3798402749329E+00 -0.3534187574797E+00 -0.4656602924186E+00
-0.3378804059888E+00 -0.3188931296951E+00 -0.3086835609885E+00 -0.3996703286997E+00
-0.2994905566880E+00 -0.2621798315416E+00 -0.2639850817983E+00 -0.3352493517256E+00
-0.2572818694090E+00 -0.2097395329536E+00 -0.2195000585537E+00 -0.2729360883836E+00
-0.2116809966380E+00 -0.1614930433110E+00 -0.1753917983312E+00 -0.2132110454636E+00
-0.1632487344082E+00 -0.1172753887327E+00 -0.1318463375418E+00 -0.1564781601169E+00
-0.1125387324996E+00 -0.7669095664220E-01 -0.8893795367105E-01 -0.1030471857167E+00
-0.6106981941716E-01 -0.3983191815709E-01 -0.4742381653961E-01 -0.5320334819264E-01
-0.9364290486688E-02 -0.5770901106980E-02 -0.7113540030981E-02 -0.7599695323553E-02
-0.5079712849758E+00 -0.1295312864432E+01 -0.8475435480718E+00 -0.1191088355359E+01
-0.5114758214753E+00 -0.1211060386982E+01 -0.8095920159213E+00 -0.1139334001666E+01
-0.5153232630113E+00 -0.1121763920373E+01 -0.7694309742391E+00 -0.1083013346482E+01
-0.5188864640197E+00 -0.1031138293690E+01 -0.7285116342758E+00 -0.1024488333736E+01
-0.5206436783977E+00 -0.9414648849534E+00 -0.6871910230320E+00 -0.9641188186508E+00
-0.5194151757712E+00 -0.8538205902438E+00 -0.6454208083901E+00 -0.9017262014857E+00
-0.5142793598044E+00 -0.7685448613555E+00 -0.6029273824159E+00 -0.8372351944857E+00
-0.5046562428190E+00 -0.6859375705354E+00 -0.5595790908573E+00 -0.7707957282203E+00
-0.4901405767361E+00 -0.6063304266600E+00 -0.5153413702890E+00 -0.7027368872785E+00
-0.4704619906087E+00 -0.5301057882853E+00 -0.4702668548874E+00 -0.6335173195912E+00
-0.4454647012079E+00 -0.4576617744420E+00 -0.4244694424788E+00 -0.5636878434840E+00
-0.4151095136207E+00 -0.3893749057630E+00 -0.3781076761514E+00 -0.4938645342002E+00
-0.3794815513360E+00 -0.3255634523373E+00 -0.3313711508860E+00 -0.4247052308729E+00
-0.3387992574662E+00 -0.2664554415294E+00 -0.2844697078064E+00 -0.3568850955323E+00
-0.2934185423949E+00 -0.2121605584713E+00 -0.2376221768045E+00 -0.2910694818039E+00
-0.2438418103890E+00 -0.1626583263611E+00 -0.1910550637880E+00 -0.2278860069612E+00
-0.1906903512322E+00 -0.1177698623965E+00 -0.1449763000378E+00 -0.1678996582031E+00
-0.1348263901671E+00 -0.7727580628534E-01 -0.9968803207980E-01 -0.1116088194909E+00
-0.7700311554712E-01 -0.4071709765405E-01 -0.5532850006422E-01 -0.5950758385116E-01
-0.1796532460323E-01 -0.7802249536964E-02 -0.1211075981517E-01 -0.1208704633126E-01
-0.5239451111357E+00 -0.1331990790503E+01 -0.8722898715577E+00 -0.1225325221653E+01
-0.5328920182258E+00 -0.1248584750183E+01 -0.8372940790286E+00 -0.1177197222120E+01
-0.5409946614920E+00 -0.1160528809458E+01 -0.7997160293183E+00 -0.1123426195576E+01
-0.5481603934994E+00 -0.1070003517229E+01 -0.7605370361135E+00 -0.1066166232313E+01
-0.5533182975017E+00 -0.9790140302965E+00 -0.7201961922385E+00 -0.1006212470155E+01
-0.5553192480773E+00 -0.8888758056314E+00 -0.6787716735214E+00 -0.9437260551181E+00
-0.5532299357673E+00 -0.8004164035114E+00 -0.6362137778473E+00 -0.8787378429320E+00
-0.5463162302988E+00 -0.7142093649260E+00 -0.5924470282530E+00 -0.8113738608911E+00
-0.5340266880713E+00 -0.6307776435443E+00 -0.5474580344708E+00 -0.7419105036615E+00
-0.5159471346863E+00 -0.5506436956378E+00 -0.5012976889808E+00 -0.6707667734788E+00
-0.4917901057709E+00 -0.4743338148684E+00 -0.4540782415488E+00 -0.5984845010623E+00
-0.4613994209803E+00 -0.4023541229041E+00 -0.4059641645960E+00 -0.5257078378902E+00
-0.4247653692466E+00 -0.3351566530991E+00 -0.3571633495966E+00 -0.4531623388674E+00
-0.3820421374087E+00 -0.2731009730460E+00 -0.3079172611327E+00 -0.3816307589088E+00
-0.3335638096747E+00 -0.2164179105608E+00 -0.2584914078551E+00 -0.3119235796696E+00
-0.2798464176531E+00 -0.1651746430633E+00 -0.2091598980062E+00 -0.2448444009876E+00
-0.2215971243014E+00 -0.1192713710105E+00 -0.1602081923902E+00 -0.1811541443349E+00
-0.1596240793108E+00 -0.7840205488105E-01 -0.1118722827864E+00 -0.1215432110781E+00
-0.9478597119769E-01 -0.4214438715675E-01 -0.6435726826335E-01 -0.6659410371389E-01
-0.2779600330455E-01 -0.9996059296135E-02 -0.1776226937727E-01 -0.1674535317722E-01
-0.5394528634573E+00 -0.1372137260308E+01 -0.8984473558907E+00 -0.1259605230913E+01
-0.5536780631689E+00 -0.1288984383569E+01 -0.8660513477700E+00 -0.1214916311486E+01
-0.5662565111436E+00 -0.1201615756391E+01 -0.8308999636337E+00 -0.1164146926165E+01
-0.5773620522049E+00 -0.1111282780895E+01 -0.7936630695438E+00 -0.1108961614677E+01
-0.5862067361731E+00 -0.1019505955156E+01 -0.7546849630104E+00 -0.1050231338572E+01
-0.5917712264409E+00 -0.9275769863143E+00 -0.7140936581837E+00 -0.9882969531009E+00
-0.5930850834428E+00 -0.8364810609333E+00 -0.6718960861526E+00 -0.9232972549925E+00
-0.5893128335562E+00 -0.7470077083401E+00 -0.6280706530982E+00 -0.8553766904886E+00
-0.5797517290451E+00 -0.6598563412560E+00 -0.5826157915638E+00 -0.7847816833289E+00
-0.5638248219943E+00 -0.5757064859059E+00 -0.5355797133547E+00 -0.7118932088852E+00
-0.5410779782247E+00 -0.4952359509125E+00 -0.4870675454591E+00 -0.6372319587148E+00
-0.5111929680111E+00 -0.4191106658669E+00 -0.4372427068136E+00 -0.5614535493189E+00
-0.4740112987236E+00 -0.3479550377623E+00 -0.3863241771685E+00 -0.4853379555024E+00
-0.4295641304639E+00 -0.2823103574540E+00 -0.3345810084728E+00 -0.4097719665638E+00
-0.3780999320185E+00 -0.2225852191968E+00 -0.2823220203551E+00 -0.3357217604791E+00
-0.3201054950913E+00 -0.1690080652797E+00 -0.2298833727913E+00 -0.2641934372483E+00
-0.2562952281348E+00 -0.1215790087827E+00 -0.1776008909007E+00 -0.1961817787499E+00
-0.1875827988000E+00 -0.8005553140829E-01 -0.1257900148788E+00 -0.1326048313666E+00
-0.1149709323707E+00 -0.4392355183294E-01 -0.7468040738631E-01 -0.7422027495944E-01
-0.3942886804910E-01 -0.1245992755590E-01 -0.2438773387250E-01 -0.2151611049912E-01
-0.5543406125636E+00 -0.1415567323137E+01 -0.9258567274310E+00 -0.1293870454486E+01
-0.5736476906707E+00 -0.1332673956335E+01 -0.8959711718202E+00 -0.1252512568700E+01
-0.5908772876731E+00 -0.1245832963324E+01 -0.8632538157793E+00 -0.1204968673433E+01
-0.6062391616707E+00 -0.1155738416103E+01 -0.8281294594533E+00 -0.1152399843103E+01
-0.6191269120755E+00 -0.1063504888414E+01 -0.7908369442240E+00 -0.1095563076498E+01
-0.6286184536058E+00 -0.9702559605999E+00 -0.7514709727707E+00 -0.1034837564540E+01
-0.6337397348657E+00 -0.8769898906018E+00 -0.7100429221688E+00 -0.9704081565081E+00
-0.6335670342722E+00 -0.7845888082190E+00 -0.6665332442803E+00 -0.9024247439725E+00
-0.6272596893121E+00 -0.6938763930275E+00 -0.6209339571247E+00 -0.8311022068754E+00
-0.6140682145376E+00 -0.6056651858523E+00 -0.5732746967292E+00 -0.7567744315188E+00
-0.5933454489779E+00 -0.5207806978936E+00 -0.5236392877014E+00 -0.6799220443308E+00
-0.5645679211262E+00 -0.4400592976476E+00 -0.4721747916260E+00 -0.6011868671776E+00
-0.5273703401792E+00 -0.3643247358915E+00 -0.4190966846902E+00 -0.5213780533127E+00
-0.4815899833081E+00 -0.2943453626888E+00 -0.3646896116936E+00 -0.4414688220212E+00
-0.4273155790048E+00 -0.2307749806327E+00 -0.3093025622451E+00 -0.3625791848205E+00
-0.3649286410470E+00 -0.1740801199763E+00 -0.2533341170384E+00 -0.2859387081943E+00
-0.2951294025770E+00 -0.1244680616650E+00 -0.1972108076935E+00 -0.2128238207026E+00
-0.2189292510585E+00 -0.8182319718830E-01 -0.1413536503175E+00 -0.1444682792607E+00
-0.1376314110687E+00 -0.4568149690594E-01 -0.8615706652954E-01 -0.8194826346596E-01
-0.5264771413823E-01 -0.1507770568908E-01 -0.3183094723810E-01 -0.2601390839105E-01
-0.5684800247923E+00 -0.1462112856606E+01 -0.9543786518366E+00 -0.1327947687826E+01
-0.5926815949275E+00 -0.1379761262716E+01 -0.9270481407413E+00 -0.1289884493642E+01
-0.6146670419912E+00 -0.1293545081643E+01 -0.8968596958333E+00 -0.1245690423804E+01
-0.6345609924715E+00 -0.1203833142355E+01 -0.8640452411769E+00 -0.1196096150065E+01
-0.6518378537610E+00 -0.1111423662185E+01 -0.8287329103927E+00 -0.1141669141110E+01
-0.6656401830076E+00 -0.1017244586141E+01 -0.7909558394937E+00 -0.1082732716241E+01
-0.6749897407042E+00 -0.9222175865153E+00 -0.7506874418891E+00 -0.1019453192709E+01
-0.6788907825749E+00 -0.8272310649090E+00 -0.7078772665220E+00 -0.9519504785179E+00
-0.6763733007104E+00 -0.7331621986806E+00 -0.6624816830335E+00 -0.8803861491829E+00
-0.6665134425162E+00 -0.6409095942156E+00 -0.6144888257054E+00 -0.8050250373221E+00
-0.6484517314896E+00 -0.5514158872512E+00 -0.5639377793778E+00 -0.7262785854891E+00
-0.6214212278041E+00 -0.4656734580928E+00 -0.5109345010756E+00 -0.6447380109760E+00
-0.5847908359118E+00 -0.3847098249251E+00 -0.4556653094376E+00 -0.5612010035738E+00
-0.5381255781713E+00 -0.3095501820272E+00 -0.3984076062828E+00 -0.4766905288267E+00
-0.4812605718042E+00 -0.2411529791034E+00 -0.3395343680654E+00 -0.3924591841929E+00
-0.4143811570769E+00 -0.1803175927888E+00 -0.2795084117280E+00 -0.3099680415790E+00
-0.3380933730769E+00 -0.1275687722053E+00 -0.2188612077275E+00 -0.2308273515054E+00
-0.2534733724885E+00 -0.8304304034370E-01 -0.1581627136300E+00 -0.1566915551973E+00
-0.1620906798424E+00 -0.4641206187086E-01 -0.9799628835668E-01 -0.8911854711793E-01
-0.6616630715850E-01 -0.1693503957255E-01 -0.3905763286453E-01 -0.2942546786079E-01
-0.5817953087263E+00 -0.1511670493721E+01 -0.9839289246545E+00 -0.1361635521808E+01
-0.6107373974896E+00 -0.1430285375492E+01 -0.9592807008685E+00 -0.1326866314571E+01
-0.6375331092143E+00 -0.1344961715240E+01 -0.9317725651303E+00 -0.1286096452083E+01
-0.6621783477804E+00 -0.1255886876575E+01 -0.9014906531604E+00 -0.1239712861822E+01
-0.6841560740530E+00 -0.1163618011603E+01 -0.8684538180556E+00 -0.1188078093213E+01
-0.7026372950126E+00 -0.1068891801698E+01 -0.8326186733420E+00 -0.1131409151895E+01
-0.7166327608036E+00 -0.9725104347994E+00 -0.7938972999198E+00 -0.1069805703114E+01
-0.7250808476332E+00 -0.8753048743141E+00 -0.7521812874074E+00 -0.1003321792600E+01
-0.7268906840964E+00 -0.7781417857165E+00 -0.7073652590179E+00 -0.9320375056425E+00
-0.7209645817863E+00 -0.6819473094917E+00 -0.6593685872283E+00 -0.8561199450102E+00
-0.7062175911503E+00 -0.5877312239742E+00 -0.6081559415660E+00 -0.7758756166682E+00
-0.6816062096916E+00 -0.4966020387223E+00 -0.5537578753500E+00 -0.6917991660788E+00
-0.6461752904780E+00 -0.4097668502521E+00 -0.4962928048844E+00 -0.6046217283451E+00
-0.5991299581288E+00 -0.3285087057742E+00 -0.4359901709285E+00 -0.5153581723691E+00
-0.5399369341313E+00 -0.2541312694869E+00 -0.3732120547540E+00 -0.4253465259385E+00
-0.4684517696851E+00 -0.1878559688338E+00 -0.3084646363215E+00 -0.3362644415823E+00
-0.3850587504077E+00 -0.1306637263231E+00 -0.2423895634487E+00 -0.2500986725345E+00
-0.2907923807177E+00 -0.8309246477508E-01 -0.1757258769359E+00 -0.1690422080945E+00
-0.1874090191284E+00 -0.4505351198985E-01 -0.1092573893485E+00 -0.9531352358289E-01
-0.7748931569712E-01 -0.1588327933768E-01 -0.4388511955505E-01 -0.3098357947471E-01
-0.5943683654880E+00 -0.1564359439614E+01 -0.1014602065824E+01 -0.1394732705846E+01
-0.6278826444677E+00 -0.1484511012278E+01 -0.9928250161524E+00 -0.1363324683798E+01
-0.6595014299038E+00 -0.1400552821143E+01 -0.9682254955364E+00 -0.1326070431213E+01
-0.6890505211336E+00 -0.1312551648694E+01 -0.9407530174330E+00 -0.1283100762183E+01
-0.7159871249369E+00 -0.1220883584054E+01 -0.9103292309166E+00 -0.1234588799264E+01
-0.7394858913324E+00 -0.1126107363395E+01 -0.8768288274978E+00 -0.1180625304137E+01
-0.7585410775400E+00 -0.1028882822685E+01 -0.8400892309751E+00 -0.1121214719653E+01
-0.7720320229927E+00 -0.9299379087159E+00 -0.7999258658741E+00 -0.1056318354362E+01
-0.7787574697307E+00 -0.8300714982691E+00 -0.7561496130420E+00 -0.9859095890751E+00
-0.7774524462701E+00 -0.7301752956547E+00 -0.7085850369074E+00 -0.9100294079323E+00
-0.7668011736510E+00 -0.6312627507949E+00 -0.6570900428230E+00 -0.8288419393012E+00
-0.7454576670008E+00 -0.5344970946963E+00 -0.6015787364718E+00 -0.7426939246730E+00
-0.7120853316893E+00 -0.4412120565288E+00 -0.5420497710877E+00 -0.6521824909000E+00
-0.6654283802480E+00 -0.3529171004329E+00 -0.4786223747060E+00 -0.5582335759502E+00
-0.6044294685075E+00 -0.2712728007169E+00 -0.4115800654915E+00 -0.4621882901502E+00
-0.5284068852503E+00 -0.1980115688559E+00 -0.3414166725640E+00 -0.3658839914251E+00
-0.4372823803950E+00 -0.1347583376960E+00 -0.2688591368208E+00 -0.2716965628652E+00
-0.3318256297347E+00 -0.8272804497985E-01 -0.1948402266216E+00 -0.1824860728374E+00
-0.2138209303157E+00 -0.4233035341641E-01 -0.1203911030488E+00 -0.1013850532824E+00
-0.8587315698789E-01 -0.1275998336366E-01 -0.4635757584765E-01 -0.3141145644253E-01
-0.6060113602619E+00 -0.1620088007815E+01 -0.1046266700342E+01 -0.1426992768302E+01
-0.6439757124979E+00 -0.1542560213423E+01 -0.1027671882576E+01 -0.1399097056024E+01
-0.6803756151334E+00 -0.1460688888189E+01 -0.1006300314009E+01 -0.1365516280811E+01
-0.7149084883755E+00 -0.1374479165895E+01 -0.9820121950162E+00 -0.1326210046719E+01
-0.7469919434394E+00 -0.1284161358523E+01 -0.9546420495009E+00 -0.1281192631110E+01
-0.7757950870389E+00 -0.1190129364904E+01 -0.9239844900697E+00 -0.1230429895702E+01
-0.8002976196796E+00 -0.1092885843315E+01 -0.8897962253507E+00 -0.1173820256415E+01
-0.8193329064418E+00 -0.9930186989070E+00 -0.8518052523534E+00 -0.1111217740942E+01
-0.8316087800987E+00 -0.8912050441617E+00 -0.8097224953487E+00 -0.1042471627891E+01
-0.8357129947727E+00 -0.7882344255775E+00 -0.7632552856287E+00 -0.9674728042597E+00
-0.8301123203041E+00 -0.6850440496417E+00 -0.7121234920683E+00 -0.8862062164316E+00
-0.8131549075988E+00 -0.5827611255562E+00 -0.6560805339188E+00 -0.7988136736712E+00
-0.7830875431036E+00 -0.4827485721649E+00 -0.5949429726672E+00 -0.7056737163576E+00
-0.7381043139007E+00 -0.3866488731853E+00 -0.5286339965896E+00 -0.6075062189885E+00
-0.6764522458166E+00 -0.2964151540795E+00 -0.4572476767914E+00 -0.5055082145864E+00
-0.5966302182772E+00 -0.2143030267465E+00 -0.3811386241945E+00 -0.4015205135193E+00
-0.4977256701664E+00 -0.1427662678807E+00 -0.3010312101186E+00 -0.2982023532961E+00
-0.3798453961934E+00 -0.8409725751084E-01 -0.2180530466879E+00 -0.1991283978881E+00
-0.2445509815887E+00 -0.3976119832832E-01 -0.1336267242221E+00 -0.1086416487373E+00
-0.9500655555968E-01 -0.9479174424147E-02 -0.4910829296784E-01 -0.3126114012943E-01
-0.6165125621031E+00 -0.1678727154455E+01 -0.1078762664046E+01 -0.1458143155792E+01
-0.6587973660229E+00 -0.1604382868663E+01 -0.1063694707605E+01 -0.1433915988328E+01
-0.6998944642242E+00 -0.1525489813438E+01 -0.1045930607848E+01 -0.1404184429948E+01
-0.7394185942576E+00 -0.1442004039585E+01 -0.1025268635305E+01 -0.1368799043289E+01
-0.7767564130114E+00 -0.1354037087415E+01 -0.1001472942660E+01 -0.1327652465416E+01
-0.8110727629667E+00 -0.1261830439070E+01 -0.9742645024863E+00 -0.1280602043212E+01
-0.8413419874400E+00 -0.1165723142048E+01 -0.9433206084669E+00 -0.1227446047592E+01
-0.8663709804779E+00 -0.1066136605890E+01 -0.9082785632893E+00 -0.1167932491693E+01
-0.8848056380001E+00 -0.9635803381451E+00 -0.8687414065848E+00 -0.1101784107034E+01
-0.8951221795499E+00 -0.8586757857363E+00 -0.8242850415938E+00 -0.1028732178228E+01
-0.8956079542649E+00 -0.7521954219884E+00 -0.7744675848748E+00 -0.9485590550463E+00
-0.8843375934068E+00 -0.6451158754548E+00 -0.7188431285417E+00 -0.8611541662339E+00
-0.8591529201076E+00 -0.5386855987607E+00 -0.6569841022017E+00 -0.7665925253582E+00
-0.8176613914034E+00 -0.4345082927009E+00 -0.5885197500363E+00 -0.6652491877672E+00
-0.7572817062759E+00 -0.3346415863122E+00 -0.5132039462147E+00 -0.5579684405940E+00
-0.6753936099742E+00 -0.2417027333041E+00 -0.4310352802475E+00 -0.4463112492978E+00
-0.5696961541910E+00 -0.1589435495819E+00 -0.3424606599047E+00 -0.3329004752847E+00
-0.4389575100351E+00 -0.9017473193226E-01 -0.2486921530939E+00 -0.2218351789238E+00
-0.2839066791663E+00 -0.3887091419939E-01 -0.1517054684971E+00 -0.1189132201500E+00
-0.1082654321855E+00 -0.6580189392212E-02 -0.5397744200463E-01 -0.3114868737650E-01
-0.6257198979699E+00 -0.1740146903685E+01 -0.1111957393958E+01 -0.1487915796534E+01
-0.6721640329235E+00 -0.1669854392300E+01 -0.1100748657063E+01 -0.1467454031426E+01
-0.7178328666463E+00 -0.1594901445037E+01 -0.1086985123734E+01 -0.1441701718378E+01
-0.7622914339790E+00 -0.1515194384446E+01 -0.1070418331945E+01 -0.1410440480751E+01
-0.8049094031199E+00 -0.1430745421114E+01 -0.1050757764725E+01 -0.1373477001428E+01
-0.8448556413869E+00 -0.1341661126344E+01 -0.1027662878227E+01 -0.1330585559938E+01
-0.8811120438143E+00 -0.1248122794341E+01 -0.1000740371395E+01 -0.1281483765442E+01
-0.9124817498285E+00 -0.1150376125976E+01 -0.9695431991691E+00 -0.1225831334141E+01
-0.9375832090167E+00 -0.1048735955673E+01 -0.9335700050363E+00 -0.1163241645326E+01
-0.9548283486749E+00 -0.9436067280554E+00 -0.8922644838001E+00 -0.1093300864261E+01
-0.9623851649671E+00 -0.8355189431272E+00 -0.8450149286610E+00 -0.1015594515397E+01
-0.9581254934531E+00 -0.7251834866743E+00 -0.7911552186532E+00 -0.9297459485469E+00
-0.9395595673540E+00 -0.6135684556301E+00 -0.7299701689511E+00 -0.8354761155526E+00
-0.9037626214365E+00 -0.5020066155707E+00 -0.6607115397176E+00 -0.7327011229892E+00
-0.8473098412621E+00 -0.3923462777806E+00 -0.5826383744722E+00 -0.6216955942939E+00
-0.7662664795818E+00 -0.2871651055789E+00 -0.4951128437697E+00 -0.5033698360193E+00
-0.6563593749812E+00 -0.1900719546761E+00 -0.3978227239299E+00 -0.3797409626407E+00
-0.5136743896124E+00 -0.1061230777955E+00 -0.2913048089429E+00 -0.2547223531499E+00
-0.3367839221322E+00 -0.4221430903292E-01 -0.1781291681958E+00 -0.1352808116142E+00
-0.1285998266172E+00 -0.4098249741093E-02 -0.6236809573022E-01 -0.3202683138931E-01
-0.6335240147398E+00 -0.1804181521223E+01 -0.1145721598996E+01 -0.1516053969064E+01
-0.6839359637936E+00 -0.1738788626005E+01 -0.1138680554317E+01 -0.1499368769373E+01
-0.7340121788799E+00 -0.1668749804959E+01 -0.1129298129540E+01 -0.1477640812245E+01
-0.7832914859394E+00 -0.1593929109696E+01 -0.1117293677115E+01 -0.1450609308763E+01
-0.8311393636819E+00 -0.1514260904558E+01 -0.1102338123277E+01 -0.1418025327918E+01
-0.8767381141659E+00 -0.1429742632215E+01 -0.1084045948049E+01 -0.1379608140263E+01
-0.9190899223275E+00 -0.1340420276418E+01 -0.1061969790717E+01 -0.1335022072258E+01
-0.9570152055412E+00 -0.1246378621283E+01 -0.1035595095981E+01 -0.1283868674549E+01
-0.9891381659629E+00 -0.1147741410762E+01 -0.1004333398513E+01 -0.1225687331788E+01
-0.1013855764773E+01 -0.1044683321724E+01 -0.9675133681996E+00 -0.1159960094000E+01
-0.1029286997592E+01 -0.9374553666944E+00 -0.9243689088701E+00 -0.1086119798711E+01
-0.1033198044544E+01 -0.8264269945717E+00 -0.8740237661676E+00 -0.1003563938431E+01
-0.1022896461912E+01 -0.7121513696491E+00 -0.8154724787655E+00 -0.9116809789757E+00
-0.9950847536961E+00 -0.5954655472504E+00 -0.7475586395488E+00 -0.8099027495797E+00
-0.9456623434011E+00 -0.4776464444536E+00 -0.6689551285950E+00 -0.6978097386015E+00
-0.8694708075275E+00 -0.3606604236150E+00 -0.5781616771705E+00 -0.5753434880170E+00
-0.7600234753052E+00 -0.2475879780112E+00 -0.4735773818575E+00 -0.4432415828072E+00
-0.6094135070909E+00 -0.1433812983732E+00 -0.3538135576708E+00 -0.3039496045868E+00
-0.4097016101688E+00 -0.5668533140598E-01 -0.2192018619842E+00 -0.1636601523532E+00
-0.1607332508269E+00 -0.3542519638856E-02 -0.7720961192307E-01 -0.3623098669602E-01
-0.6398519090870E+00 -0.1870621056926E+01 -0.1179922291033E+01 -0.1542314347013E+01
-0.6940149736698E+00 -0.1810935766031E+01 -0.1177326844673E+01 -0.1529324707471E+01
-0.7483025124631E+00 -0.1746760500633E+01 -0.1172679613181E+01 -0.1511563025232E+01
-0.8022424302168E+00 -0.1677933907240E+01 -0.1165682875648E+01 -0.1488743685908E+01
-0.8552060880184E+00 -0.1604340870421E+01 -0.1155987067535E+01 -0.1460585205506E+01
-0.9063966341570E+00 -0.1525905781269E+01 -0.1143182132351E+01 -0.1426776388096E+01
-0.9548457192916E+00 -0.1442579641702E+01 -0.1126789916809E+01 -0.1386955559613E+01
-0.9994058808356E+00 -0.1354328701866E+01 -0.1106255251064E+01 -0.1340699674931E+01
-0.1038731512354E+01 -0.1261128413824E+01 -0.1080934162562E+01 -0.1287518159455E+01
-0.1071243678617E+01 -0.1162964267119E+01 -0.1050077731832E+01 -0.1226847508366E+01
-0.1095073601816E+01 -0.1059840744494E+01 -0.1012809740197E+01 -0.1158044358432E+01
-0.1107976865996E+01 -0.9518007428248E+00 -0.9680954736901E+00 -0.1080376414747E+01
-0.1107204948290E+01 -0.8389602939100E+00 -0.9146976615138E+00 -0.9930126243598E+00
-0.1089311103083E+01 -0.7215678865905E+00 -0.8511131229879E+00 -0.8950174780788E+00
-0.1049850397877E+01 -0.6001058024798E+00 -0.7754794122009E+00 -0.7853619428243E+00
-0.9829029776650E+00 -0.4754677955969E+00 -0.6854342616946E+00 -0.6629819975941E+00
-0.8802847695996E+00 -0.3492797079633E+00 -0.5778953029888E+00 -0.5269641174212E+00
-0.7302516586566E+00 -0.2245628604901E+00 -0.4487628228607E+00 -0.3770799654346E+00
-0.5150775968937E+00 -0.1070338180254E+00 -0.2923923642703E+00 -0.2153619202125E+00
-0.2132542290436E+00 -0.1306732800354E-01 -0.1063711315424E+00 -0.5206955425985E-01
-0.6446609727579E+00 -0.1939208567871E+01 -0.1214418681015E+01 -0.1566468854812E+01
-0.7023419112356E+00 -0.1885980977289E+01 -0.1216511754521E+01 -0.1557003750945E+01
-0.7606225726733E+00 -0.1828563262211E+01 -0.1216917339309E+01 -0.1543042236431E+01
-0.8190306936247E+00 -0.1766792298907E+01 -0.1215336803408E+01 -0.1524283858618E+01
-0.8769510159012E+00 -0.1700537136364E+01 -0.1211419428492E+01 -0.1500428426201E+01
-0.9336126786070E+00 -0.1629693225871E+01 -0.1204753772049E+01 -0.1471149686999E+01
-0.9880817906378E+00 -0.1554171140415E+01 -0.1194858874564E+01 -0.1436078078267E+01
-0.1039250144214E+01 -0.1473884917884E+01 -0.1181173476190E+01 -0.1394790140409E+01
-0.1085813947606E+01 -0.1388742567917E+01 -0.1163041559346E+01 -0.1346800573094E+01
-0.1126237674339E+01 -0.1298639674290E+01 -0.1139692350965E+01 -0.1291553299833E+01
-0.1158697104475E+01 -0.1203456494922E+01 -0.1110212188901E+01 -0.1228408505106E+01
-0.1180992258954E+01 -0.1103059343949E+01 -0.1073504250642E+01 -0.1156622809053E+01
-0.1190414167324E+01 -0.9973082449834E+00 -0.1028229531177E+01 -0.1075319361839E+01
-0.1183536498581E+01 -0.8860751349794E+00 -0.9727174653062E+00 -0.9834435918510E+00
-0.1155877261826E+01 -0.7692808620687E+00 -0.9048243159357E+00 -0.8796985333813E+00
-0.1101319925975E+01 -0.6469658498949E+00 -0.8216943125749E+00 -0.7624513059876E+00
-0.1011052998545E+01 -0.5194203167220E+00 -0.7193224563508E+00 -0.6296000777470E+00
-0.8713988638088E+00 -0.3873866817477E+00 -0.5916292049109E+00 -0.4784008744240E+00
-0.6588783592027E+00 -0.2523759988633E+00 -0.4282895472047E+00 -0.3052931644175E+00
-0.3216011318654E+00 -0.1139447243344E+00 -0.2047065518947E+00 -0.1066646491965E+00
-0.6479368439737E+00 -0.2009644582739E+01 -0.1249063267387E+01 -0.1588307627820E+01
-0.7088940223615E+00 -0.1963548487596E+01 -0.1256047976494E+01 -0.1582112863659E+01
-0.7709384703314E+00 -0.1913698882285E+01 -0.1261779552529E+01 -0.1571681841477E+01
-0.8336064731309E+00 -0.1859955680830E+01 -0.1265974209151E+01 -0.1556702072431E+01
-0.8963035206688E+00 -0.1802206246276E+01 -0.1268299587247E+01 -0.1536858024849E+01
-0.9582902545400E+00 -0.1740362241535E+01 -0.1268366669938E+01 -0.1511810515367E+01
-0.1018672081341E+01 -0.1674351978926E+01 -0.1265721305115E+01 -0.1481182938551E+01
-0.1076385503894E+01 -0.1604111949579E+01 -0.1259833799937E+01 -0.1444552175090E+01
-0.1130175974408E+01 -0.1529579651350E+01 -0.1250085140936E+01 -0.1401440942223E+01
-0.1178562679436E+01 -0.1450688652359E+01 -0.1235748122810E+01 -0.1351308383784E+01
-0.1219784684393E+01 -0.1367366397012E+01 -0.1215961005176E+01 -0.1293535643001E+01
-0.1251719967297E+01 -0.1279535405255E+01 -0.1189690022082E+01 -0.1227402374436E+01
-0.1271763211410E+01 -0.1187119134557E+01 -0.1155674699673E+01 -0.1152047980713E+01
-0.1276637513925E+01 -0.1090054737084E+01 -0.1112345355153E+01 -0.1066406578200E+01
-0.1262094415371E+01 -0.9883162807281E+00 -0.1057693024484E+01 -0.9690945468931E+00
-0.1222411734633E+01 -0.8819514593635E+00 -0.9890506986699E+00 -0.8582069157092E+00
-0.1149498889196E+01 -0.7711311100944E+00 -0.9026960973770E+00 -0.7309258545595E+00
-0.1031124331543E+01 -0.6561500402045E+00 -0.7930189527097E+00 -0.5826941602220E+00
-0.8469785503744E+00 -0.5371733713132E+00 -0.6505514015432E+00 -0.4052805109101E+00
-0.5552214132771E+00 -0.4101690894267E+00 -0.4537335351200E+00 -0.1801985821769E+00
-0.6496880845045E+00 -0.2081589489506E+01 -0.1283700456529E+01 -0.1607641263139E+01
-0.7136794780128E+00 -0.2043206124627E+01 -0.1295736229954E+01 -0.1604389303148E+01
-0.7792570381575E+00 -0.2001626601581E+01 -0.1307015307362E+01 -0.1597127250724E+01
-0.8459759131109E+00 -0.1956755344167E+01 -0.1317283687580E+01 -0.1585527296484E+01
-0.9132724903874E+00 -0.1908526686464E+01 -0.1326245609756E+01 -0.1569252465859E+01
-0.9804489076246E+00 -0.1856906020650E+01 -0.1333556812907E+01 -0.1547939831480E+01
-0.1046660964892E+01 -0.1801887348783E+01 -0.1338817704032E+01 -0.1521188585517E+01
-0.1110903993267E+01 -0.1743490588269E+01 -0.1341565449919E+01 -0.1488550665383E+01
-0.1171992400835E+01 -0.1681760730276E+01 -0.1341263968220E+01 -0.1449520875896E+01
-0.1228529339917E+01 -0.1616770220949E+01 -0.1337290790216E+01 -0.1403523108526E+01
-0.1278862651189E+01 -0.1548625693682E+01 -0.1328919518719E+01 -0.1349888526640E+01
-0.1321022018337E+01 -0.1477480349171E+01 -0.1315296109393E+01 -0.1287819805623E+01
-0.1352630053053E+01 -0.1403553687581E+01 -0.1295406354813E+01 -0.1216331775615E+01
-0.1370776798014E+01 -0.1327160837623E+01 -0.1268030685533E+01 -0.1134151358540E+01
-0.1371842489629E+01 -0.1248753610704E+01 -0.1231680164032E+01 -0.1039544665144E+01
-0.1351251452474E+01 -0.1168975725357E+01 -0.1184506770576E+01 -0.9300076735454E+00
-0.1303139325916E+01 -0.1088723872055E+01 -0.1124175700195E+01 -0.8016853202762E+00
-0.1220045741214E+01 -0.1009244576299E+01 -0.1047766446574E+01 -0.6482109423421E+00
-0.1092877288166E+01 -0.9320678600764E+00 -0.9517242172601E+00 -0.4581289497749E+00
-0.9203641765368E+00 -0.8631747482649E+00 -0.8382632925306E+00 -0.2084681964779E+00
-0.6499423387557E+00 -0.2154669286001E+01 -0.1318167460292E+01 -0.1624303103253E+01
-0.7167297883388E+00 -0.2124472604428E+01 -0.1335365121213E+01 -0.1623604693693E+01
-0.7856140157033E+00 -0.2091735055024E+01 -0.1352354059812E+01 -0.1619075047292E+01
-0.8561828742304E+00 -0.2056419854149E+01 -0.1368923278866E+01 -0.1610363825461E+01
-0.9279185649783E+00 -0.2018527219312E+01 -0.1384829515104E+01 -0.1597100769898E+01
-0.1000181326627E+01 -0.1978099810125E+01 -0.1399792130723E+01 -0.1578881186945E+01
-0.1072197763321E+01 -0.1935225532499E+01 -0.1413488945450E+01 -0.1555253961479E+01
-0.1143049139293E+01 -0.1890040513929E+01 -0.1425552133399E+01 -0.1525709627958E+01
-0.1211656663665E+01 -0.1842734294683E+01 -0.1435563746783E+01 -0.1489665290013E+01
-0.1276761965902E+01 -0.1793558691166E+01 -0.1443050705162E+01 -0.1446442501383E+01
-0.1336901831090E+01 -0.1742841475288E+01 -0.1447479350326E+01 -0.1395233022498E+01
-0.1390377328120E+01 -0.1691005869161E+01 -0.1448250099049E+01 -0.1335045077126E+01
-0.1435219662234E+01 -0.1638596683950E+01 -0.1444693679042E+01 -0.1264618582061E+01
-0.1469160274300E+01 -0.1586313320480E+01 -0.1436072585904E+01 -0.1182290466791E+01
-0.1489626404532E+01 -0.1535048858237E+01 -0.1421597369895E+01 -0.1085778146952E+01
-0.1493816340253E+01 -0.1485930495879E+01 -0.1400481009430E+01 -0.9718257456770E+00
-0.1479016748339E+01 -0.1440363636382E+01 -0.1372108777339E+01 -0.8356155847441E+00
-0.1443569555786E+01 -0.1400054029837E+01 -0.1336503081853E+01 -0.6697783987226E+00
-0.1390372627641E+01 -0.1367449841339E+01 -0.1296176557133E+01 -0.4627668781792E+00
-0.1336663957586E+01 -0.1346236317754E+01 -0.1260963126212E+01 -0.1975645562131E+00
-0.6487411241004E+00 -0.2228481161371E+01 -0.1352294470742E+01 -0.1638150154837E+01
-0.7180900383728E+00 -0.2206825959601E+01 -0.1374710515561E+01 -0.1639567195801E+01
-0.7900576675850E+00 -0.2183354762148E+01 -0.1397503838430E+01 -0.1637278181895E+01
-0.8642831536874E+00 -0.2158095678738E+01 -0.1420518047637E+01 -0.1630901594804E+01
-0.9403136893406E+00 -0.2131121872626E+01 -0.1443574710463E+01 -0.1620020927461E+01
-0.1017589783157E+01 -0.2102560635330E+01 -0.1466470692970E+01 -0.1604171534193E+01
-0.1095436313315E+01 -0.2072599982430E+01 -0.1488977055223E+01 -0.1582827708112E+01
-0.1173056128148E+01 -0.2041495010415E+01 -0.1510839031292E+01 -0.1555387622642E+01
-0.1249524777792E+01 -0.2009575756007E+01 -0.1531777247000E+01 -0.1521152959210E+01
-0.1323786553649E+01 -0.1977257550236E+01 -0.1551490724891E+01 -0.1479299377852E+01
-0.1394653957093E+01 -0.1945054216944E+01 -0.1569662837816E+01 -0.1428832911731E+01
-0.1460815662074E+01 -0.1913593735176E+01 -0.1585972412685E+01 -0.1368525586766E+01
-0.1520863307720E+01 -0.1883634845192E+01 -0.1600114127810E+01 -0.1296820811462E+01
-0.1573357872449E+01 -0.1856081156470E+01 -0.1611836339504E+01 -0.1211695104075E+01
-0.1616977171231E+01 -0.1831985422004E+01 -0.1621012414709E+01 -0.1110457655285E+01
-0.1650832516361E+01 -0.1812531647609E+01 -0.1627781152938E+01 -0.9894649309679E+00
-0.1675132268015E+01 -0.1798964826212E+01 -0.1632825630145E+01 -0.8437342023484E+00
-0.1692615169358E+01 -0.1792444998544E+01 -0.1637978274759E+01 -0.6664948979167E+00
-0.1711332750478E+01 -0.1793551767295E+01 -0.1647295719175E+01 -0.4490512654272E+00
-0.1746786379113E+01 -0.1799399141911E+01 -0.1666707190654E+01 -0.1823339110101E+00
-0.6461313013363E+00 -0.2302596096988E+01 -0.1385901873697E+01 -0.1649061657491E+01
-0.7178033431471E+00 -0.2289704804789E+01 -0.1413528825945E+01 -0.1652119759048E+01
-0.7926272445054E+00 -0.2275761651838E+01 -0.1442142777624E+01 -0.1651544066745E+01
-0.8703138659858E+00 -0.2260856681462E+01 -0.1471650153568E+01 -0.1646914071454E+01
-0.9504966833512E+00 -0.2245131290741E+01 -0.1501945144014E+01 -0.1637756801444E+01
-0.1032721000986E+01 -0.2228789900822E+01 -0.1532910119962E+01 -0.1623534538461E+01
-0.1116439278256E+01 -0.2212108021512E+01 -0.1564417226923E+01 -0.1603631412772E+01
-0.1201011829485E+01 -0.2195438931755E+01 -0.1596331853734E+01 -0.1577336498089E+01
-0.1285712738742E+01 -0.2179220167548E+01 -0.1628518461826E+01 -0.1543820653558E+01
-0.1369742715506E+01 -0.2163980105972E+01 -0.1660849721882E+01 -0.1502104044646E+01
-0.1452253091099E+01 -0.2150343927321E+01 -0.1693220594363E+01 -0.1451010775122E+01
-0.1532388798886E+01 -0.2139036982975E+01 -0.1725570113098E+01 -0.1389106423591E+01
-0.1609364097114E+01 -0.2130881755208E+01 -0.1757915546133E+01 -0.1314613763353E+01
-0.1682594718181E+01 -0.2126781501692E+01 -0.1790406818799E+01 -0.1225302314303E+01
-0.1751927282156E+01 -0.2127678585523E+01 -0.1823414753184E+01 -0.1118350674513E+01
-0.1818032899011E+01 -0.2134464688708E+01 -0.1857673861516E+01 -0.9901925409059E+00
-0.1883069180702E+01 -0.2147801936328E+01 -0.1894509420199E+01 -0.8363924569612E+00
-0.1951694754524E+01 -0.2167746647634E+01 -0.1936137454103E+01 -0.6517001045387E+00
-0.2032012847931E+01 -0.2192797368246E+01 -0.1985660796567E+01 -0.4306574399452E+00
-0.2135574697896E+01 -0.2218516530292E+01 -0.2046422872058E+01 -0.1691922500548E+00
-0.6421562695250E+00 -0.2376555890890E+01 -0.1418794711797E+01 -0.1656939007571E+01
-0.7159029802792E+00 -0.2372505840293E+01 -0.1451552141987E+01 -0.1661138517049E+01
-0.7933468173287E+00 -0.2368176977254E+01 -0.1485916179685E+01 -0.1661729913614E+01
-0.8742874020273E+00 -0.2363709140520E+01 -0.1521858371137E+01 -0.1658248458292E+01
-0.9584651627219E+00 -0.2359297719319E+01 -0.1559348550604E+01 -0.1650159337037E+01
-0.1045553158480E+01 -0.2355205547936E+01 -0.1598356587961E+01 -0.1636846267719E+01
-0.1135157144224E+01 -0.2351770269540E+01 -0.1638855880312E+01 -0.1617598971671E+01
-0.1226823561357E+01 -0.2349408647981E+01 -0.1680829134125E+01 -0.1591596812075E+01
-0.1320055997760E+01 -0.2348618599944E+01 -0.1724277056547E+01 -0.1557886545451E+01
-0.1414342500121E+01 -0.2349978619920E+01 -0.1769230921932E+01 -0.1515352379810E+01
-0.1509198519117E+01 -0.2354143051122E+01 -0.1815770533407E+01 -0.1462676746547E+01
-0.1604233423024E+01 -0.2361830173997E+01 -0.1864049885872E+01 -0.1398290719365E+01
-0.1699252850959E+01 -0.2373798013604E+01 -0.1914333901489E+01 -0.1320314444978E+01
-0.1794415049272E+01 -0.2390799638242E+01 -0.1967050898142E+01 -0.1226491439087E+01
-0.1890465797113E+01 -0.2413504451041E+01 -0.2022866011502E+01 -0.1114128535846E+01
-0.1989079079106E+01 -0.2442363308439E+01 -0.2082777916863E+01 -0.9800703010938E+00
-0.2093309230934E+01 -0.2477378639124E+01 -0.2148223293478E+01 -0.8207715751926E+00
-0.2208038170181E+01 -0.2517703175201E+01 -0.2221098426696E+01 -0.6325898639283E+00
-0.2340154262155E+01 -0.2561106858838E+01 -0.2303592721024E+01 -0.4124398998965E+00
-0.2498134612815E+01 -0.2603627590247E+01 -0.2397828229357E+01 -0.1588024339752E+00
-0.6368871206385E+00 -0.2449903781186E+01 -0.1450791720178E+01 -0.1661718677089E+01
-0.7124587556438E+00 -0.2454633946570E+01 -0.1488533566265E+01 -0.1666553755782E+01
-0.7922811584869E+00 -0.2459836395454E+01 -0.1528495246475E+01 -0.1667768038564E+01
-0.8762576524554E+00 -0.2465683688744E+01 -0.1570712426380E+01 -0.1664852214770E+01
-0.9642532615846E+00 -0.2472404639959E+01 -0.1615229209629E+01 -0.1657209810157E+01
-0.1056087323970E+01 -0.2480295335860E+01 -0.1662099845904E+01 -0.1644148106099E+01
-0.1151537447093E+01 -0.2489724199927E+01 -0.1711392969759E+01 -0.1624868375330E+01
-0.1250353577705E+01 -0.2501132264541E+01 -0.1763198341383E+01 -0.1598452704035E+01
-0.1352282509367E+01 -0.2515029249481E+01 -0.1817636522048E+01 -0.1563846180667E+01
-0.1457104920240E+01 -0.2531984836464E+01 -0.1874872180895E+01 -0.1519834045405E+01
-0.1564688940061E+01 -0.2552613264688E+01 -0.1935132031324E+01 -0.1465014162528E+01
-0.1675066209530E+01 -0.2577547983664E+01 -0.1998728665731E+01 -0.1397766448906E+01
-0.1788538271966E+01 -0.2607401399592E+01 -0.2066091640392E+01 -0.1316223298166E+01
-0.1905822118441E+01 -0.2642702477912E+01 -0.2137806554864E+01 -0.1218249524336E+01
-0.2028241361774E+01 -0.2683801975721E+01 -0.2214660363005E+01 -0.1101448296796E+01
-0.2157957664158E+01 -0.2730731721228E+01 -0.2297684005304E+01 -0.9632225311419E+00
-0.2298200316450E+01 -0.2783002144341E+01 -0.2388165150514E+01 -0.8009383509590E+00
-0.2453400426617E+01 -0.2839354818727E+01 -0.2487594959002E+01 -0.6122429001405E+00
-0.2629094636497E+01 -0.2897563336952E+01 -0.2597529240933E+01 -0.3955482711227E+00
-0.2831510175040E+01 -0.2954474084539E+01 -0.2719412595105E+01 -0.1505822540271E+00
-0.6303916875285E+00 -0.2522182322349E+01 -0.1481709780884E+01 -0.1663359555662E+01
-0.7075342218351E+00 -0.2535502479632E+01 -0.1524227245823E+01 -0.1668332493933E+01
-0.7894800931287E+00 -0.2549996783882E+01 -0.1569554128214E+01 -0.1669644946157E+01
-0.8762505489852E+00 -0.2565850701056E+01 -0.1617787583416E+01 -0.1666747700862E+01
-0.9678490690926E+00 -0.2583302808082E+01 -0.1669041378039E+01 -0.1658988212351E+01
-0.1064253941880E+01 -0.2602655075663E+01 -0.1723447233874E+01 -0.1645605954448E+01
-0.1165424643049E+01 -0.2624274855132E+01 -0.1781158759628E+01 -0.1625727485887E+01
-0.1271319927883E+01 -0.2648590525664E+01 -0.1842357908494E+01 -0.1598358711161E+01
-0.1381926962079E+01 -0.2676081611634E+01 -0.1907264024808E+01 -0.1562374030008E+01
-0.1497302577807E+01 -0.2707262879547E+01 -0.1976145759944E+01 -0.1516503243506E+01
-0.1617629059765E+01 -0.2742660721845E+01 -0.2049336192159E+01 -0.1459318079958E+01
-0.1743287588596E+01 -0.2782779081907E+01 -0.2127251329741E+01 -0.1389221630079E+01
-0.1874952189415E+01 -0.2828051205174E+01 -0.2210411589850E+01 -0.1304446320316E+01
-0.2013704746279E+01 -0.2878772702082E+01 -0.2299464394897E+01 -0.1203069731975E+01
-0.2161165366475E+01 -0.2935011347393E+01 -0.2395203049443E+01 -0.1083062769455E+01
-0.2319618698318E+01 -0.2996491252514E+01 -0.2498571670554E+01 -0.9423904276002E+00
-0.2492097358744E+01 -0.3062460974132E+01 -0.2610642409830E+01 -0.7791868501014E+00
-0.2682365721817E+01 -0.3131580538978E+01 -0.2732554735643E+01 -0.5920132391349E+00
-0.2894754071948E+01 -0.3201897732746E+01 -0.2865426340938E+01 -0.3801692885900E+00
-0.3133830135081E+01 -0.3270987115797E+01 -0.3010264100278E+01 -0.1439734366013E+00
-0.6227256592348E+00 -0.2592938672903E+01 -0.1511362232271E+01 -0.1661838907938E+01
-0.7011698500904E+00 -0.2614536573269E+01 -0.1558382015026E+01 -0.1666469949989E+01
-0.7849571541629E+00 -0.2637939959875E+01 -0.1608761639517E+01 -0.1667388175940E+01
-0.8742385862608E+00 -0.2663325047619E+01 -0.1662654903706E+01 -0.1664013022253E+01
-0.9691659788438E+00 -0.2690916016614E+01 -0.1720238533502E+01 -0.1655645733157E+01
-0.1069883039975E+01 -0.2720994428712E+01 -0.1781712405764E+01 -0.1641471272886E+01
-0.1176532718887E+01 -0.2753898058928E+01 -0.1847302460888E+01 -0.1620560048841E+01
-0.1289277077031E+01 -0.2790012135263E+01 -0.1917265924915E+01 -0.1591867106933E+01
-0.1408327614897E+01 -0.2829754515336E+01 -0.1991898596157E+01 -0.1554229416403E+01
-0.1533985774058E+01 -0.2873554745111E+01 -0.2071544038755E+01 -0.1506363156419E+01
-0.1666694268896E+01 -0.2921825841455E+01 -0.2156604446395E+01 -0.1446863774010E+01
-0.1807099768819E+01 -0.2974926992701E+01 -0.2247552572214E+01 -0.1374212652554E+01
-0.1956125973251E+01 -0.3033115201324E+01 -0.2344943346103E+01 -0.1286795794514E+01
-0.2115052707383E+01 -0.3096484458682E+01 -0.2449422461838E+01 -0.1182941958168E+01
-0.2285590482122E+01 -0.3164893032050E+01 -0.2561727245163E+01 -0.1060989645502E+01
-0.2469931447065E+01 -0.3237884805367E+01 -0.2682673631839E+01 -0.9193925254420E+00
-0.2670749670103E+01 -0.3314620751778E+01 -0.2813124091149E+01 -0.7568680806726E+00
-0.2891124091141E+01 -0.3393850479462E+01 -0.2953938040691E+01 -0.5725808620245E+00
-0.3134372703554E+01 -0.3473959991689E+01 -0.3105916358886E+01 -0.3663299496695E+00
-0.3403822350814E+01 -0.3553119995522E+01 -0.3269762894485E+01 -0.1386884530968E+00
-0.6139320131891E+00 -0.2661729890274E+01 -0.1539561090723E+01 -0.1657151258972E+01
-0.6933824631869E+00 -0.2691180095858E+01 -0.1590744398716E+01 -0.1660986370849E+01
-0.7786891164682E+00 -0.2722979808566E+01 -0.1645784390592E+01 -0.1661059617300E+01
-0.8701420153860E+00 -0.2757273380470E+01 -0.1704885231728E+01 -0.1656770311469E+01
-0.9680470034447E+00 -0.2794247711828E+01 -0.1768278511693E+01 -0.1647385965614E+01
-0.1072713817210E+01 -0.2834141063987E+01 -0.1836221789506E+01 -0.1632052840940E+01
-0.1184463113432E+01 -0.2877238786193E+01 -0.1908999887982E+01 -0.1609805704240E+01
-0.1303646289618E+01 -0.2923860776545E+01 -0.1986928316057E+01 -0.1579574545594E+01
-0.1430674244475E+01 -0.2974343189352E+01 -0.2070358188648E+01 -0.1540189842864E+01
-0.1566053456924E+01 -0.3029014970869E+01 -0.2159682155585E+01 -0.1490389149655E+01
-0.1710428631876E+01 -0.3088168697240E+01 -0.2255340738964E+01 -0.1428828198261E+01
-0.1864630715526E+01 -0.3152024871615E+01 -0.2357828119976E+01 -0.1354100103996E+01
-0.2029727356409E+01 -0.3220689267528E+01 -0.2467695806992E+01 -0.1264766786696E+01
-0.2207069815399E+01 -0.3294104249495E+01 -0.2585551803943E+01 -0.1159407142772E+01
-0.2398326150787E+01 -0.3371997768949E+01 -0.2712052235397E+01 -0.1036686117993E+01
-0.2605486118471E+01 -0.3453838244049E+01 -0.2847882443161E+01 -0.8954464938987E+00
-0.2830821252452E+01 -0.3538809497830E+01 -0.2993726445039E+01 -0.7348198231948E+00
-0.3076788413591E+01 -0.3625824687705E+01 -0.3150228149619E+01 -0.5543449743491E+00
-0.3345881400750E+01 -0.3713596186966E+01 -0.3317954457811E+01 -0.3540750913392E+00
-0.3640460010004E+01 -0.3800761188466E+01 -0.3497373954410E+01 -0.1346510372516E+00
-0.6040409677013E+00 -0.2728127666303E+01 -0.1566119254010E+01 -0.1649306178092E+01
-0.6841656604548E+00 -0.2764900826708E+01 -0.1621061244855E+01 -0.1651923174316E+01
-0.7706180045152E+00 -0.2804467606090E+01 -0.1680290232723E+01 -0.1650748777961E+01
-0.8638334338507E+00 -0.2846918545505E+01 -0.1744053425874E+01 -0.1645174791532E+01
-0.9642735264589E+00 -0.2892383250606E+01 -0.1812628680623E+01 -0.1634448297875E+01
-0.1072409390839E+01 -0.2941038613451E+01 -0.1886320557232E+01 -0.1617693082977E+01
-0.1188727696170E+01 -0.2993101455100E+01 -0.1965459696112E+01 -0.1593928352866E+01
-0.1313749365729E+01 -0.3048812751545E+01 -0.2050404189918E+01 -0.1562082682611E+01
-0.1448055051700E+01 -0.3108417293624E+01 -0.2141541996871E+01 -0.1521005983960E+01
-0.1592314652237E+01 -0.3172139995491E+01 -0.2239293678753E+01 -0.1469483133714E+01
-0.1747319340985E+01 -0.3240158813319E+01 -0.2344114726577E+01 -0.1406252641133E+01
-0.1914014268507E+01 -0.3312574081391E+01 -0.2456496518221E+01 -0.1330033320448E+01
-0.2093528708041E+01 -0.3389374795743E+01 -0.2576964640243E+01 -0.1239561498151E+01
-0.2287198333617E+01 -0.3470403936936E+01 -0.2706073060296E+01 -0.1133640549771E+01
-0.2496572010149E+01 -0.3555327275622E+01 -0.2844392657098E+01 -0.1011203018719E+01
-0.2723393915869E+01 -0.3643613082602E+01 -0.2992493281691E+01 -0.8713826927239E+00
-0.2969551316492E+01 -0.3734532202862E+01 -0.3150919246104E+01 -0.7135897637010E+00
-0.3236979560482E+01 -0.3827187594081E+01 -0.3320158554224E+01 -0.5375785185237E+00
-0.3527525394599E+01 -0.3920580915573E+01 -0.3500609956902E+01 -0.3434990033552E+00
-0.3842792143075E+01 -0.4013715744062E+01 -0.3692558697589E+01 -0.1319345577198E+00
-0.5930712777719E+00 -0.2791722010819E+01 -0.1590852841603E+01 -0.1638326951368E+01
-0.6734939592048E+00 -0.2835195327875E+01 -0.1649083960745E+01 -0.1639340566589E+01
-0.7606581816443E+00 -0.2881797186412E+01 -0.1711954018644E+01 -0.1636568120937E+01
-0.8551492159299E+00 -0.2931544354028E+01 -0.1779745973366E+01 -0.1629406595599E+01
-0.9575824768143E+00 -0.2984492870539E+01 -0.1852775408557E+01 -0.1617094985300E+01
-0.1068581276639E+01 -0.3040745887759E+01 -0.1931383762368E+01 -0.1598749420341E+01
-0.1188782090678E+01 -0.3100442623371E+01 -0.2015935610490E+01 -0.1573391490827E+01
-0.1318852124109E+01 -0.3163739421760E+01 -0.2106818021215E+01 -0.1539968370012E+01
-0.1459510923627E+01 -0.3230788350320E+01 -0.2204440653163E+01 -0.1497369336882E+01
-0.1611552579784E+01 -0.3301715033124E+01 -0.2309235772210E+01 -0.1444443482858E+01
-0.1775866912053E+01 -0.3376595797017E+01 -0.2421657467121E+01 -0.1380022210336E+01
-0.1953458101543E+01 -0.3455434063028E+01 -0.2542179310900E+01 -0.1302948872744E+01
-0.2145458401141E+01 -0.3538136718350E+01 -0.2671289699385E+01 -0.1212116712426E+01
-0.2353133394042E+01 -0.3624492592070E+01 -0.2809484206347E+01 -0.1106514893467E+01
-0.2577874427066E+01 -0.3714156897158E+01 -0.2957254714885E+01 -0.9852805885754E+00
-0.2821173617112E+01 -0.3806646905717E+01 -0.3115075637828E+01 -0.8477525558402E+00
-0.3084578097413E+01 -0.3901355116057E+01 -0.3283388602003E+01 -0.6935185655752E+00
-0.3369616659074E+01 -0.3997582452587E+01 -0.3462583573698E+01 -0.5224459314632E+00
-0.3677677034413E+01 -0.4094586876337E+01 -0.3652964028787E+01 -0.3346868548064E+00
-0.4009824941275E+01 -0.4191658357815E+01 -0.3854697140795E+01 -0.1306728058023E+00
-0.5810323596720E+00 -0.2852126618201E+01 -0.1613584715508E+01 -0.1624247541143E+01
-0.6613281509812E+00 -0.2901595561274E+01 -0.1674574140513E+01 -0.1623312447420E+01
-0.7487071322205E+00 -0.2954413565144E+01 -0.1740466723347E+01 -0.1618645123019E+01
-0.8439070460378E+00 -0.3010505159970E+01 -0.1811573732229E+01 -0.1609659001355E+01
-0.9476922483463E+00 -0.3069840917062E+01 -0.1888240582953E+01 -0.1595594418540E+01
-0.1060825152064E+01 -0.3132444133135E+01 -0.1970836559045E+01 -0.1575571693403E+01
-0.1184072476090E+01 -0.3198374332471E+01 -0.2059749994799E+01 -0.1548629624347E+01
-0.1318222924688E+01 -0.3267704276061E+01 -0.2155385778885E+01 -0.1513750010601E+01
-0.1464105464720E+01 -0.3340497855907E+01 -0.2258163554967E+01 -0.1469875865617E+01
-0.1622604510069E+01 -0.3416790605426E+01 -0.2368515698275E+01 -0.1415929864805E+01
-0.1794671019665E+01 -0.3496572409643E+01 -0.2486884405467E+01 -0.1350837113094E+01
-0.1981329012723E+01 -0.3579771871552E+01 -0.2613717408980E+01 -0.1273554168000E+01
-0.2183676592184E+01 -0.3666242589481E+01 -0.2749462008409E+01 -0.1183104505712E+01
-0.2402880067514E+01 -0.3755752807433E+01 -0.2894557443883E+01 -0.1078619027261E+01
-0.2640159626458E+01 -0.3847981013011E+01 -0.3049426092816E+01 -0.9593785562607E+00
-0.2896766007244E+01 -0.3942520960441E+01 -0.3214464866659E+01 -0.8248534751466E+00
-0.3173948748082E+01 -0.4038898897851E+01 -0.3390038384990E+01 -0.6747336119634E+00
-0.3472923542257E+01 -0.4136608969406E+01 -0.3576480271411E+01 -0.5089383812120E+00
-0.3794819930892E+01 -0.4235157377270E+01 -0.3774089325263E+01 -0.3275879273755E+00
-0.4140483752317E+01 -0.4334075732679E+01 -0.3983042947845E+01 -0.1309208410279E+00
-0.5679295132092E+00 -0.2908982734216E+01 -0.1634148752145E+01 -0.1607109920253E+01
-0.6476299588364E+00 -0.2963678231132E+01 -0.1697314844980E+01 -0.1603920860095E+01
-0.7346702907065E+00 -0.3021827556122E+01 -0.1765553983531E+01 -0.1597113161825E+01
-0.8299432796806E+00 -0.3083244644402E+01 -0.1839198319654E+01 -0.1586124566430E+01
-0.9343547807443E+00 -0.3147807438865E+01 -0.1918616238350E+01 -0.1570200743096E+01
-0.1048789605995E+01 -0.3215460462067E+01 -0.2004197526906E+01 -0.1548473633498E+01
-0.1174122452609E+01 -0.3286188460944E+01 -0.2096346124053E+01 -0.1520010617309E+01
-0.1311238474372E+01 -0.3359987264149E+01 -0.2195476091536E+01 -0.1483840711665E+01
-0.1461049710629E+01 -0.3436840788288E+01 -0.2302008528652E+01 -0.1438970893564E+01
-0.1624504174440E+01 -0.3516704941314E+01 -0.2416368278275E+01 -0.1384401754977E+01
-0.1802588023398E+01 -0.3599496723414E+01 -0.2538979824562E+01 -0.1319147353008E+01
-0.1996321815874E+01 -0.3685086781562E+01 -0.2670262034022E+01 -0.1242260958559E+01
-0.2206751680065E+01 -0.3773294745379E+01 -0.2810621812830E+01 -0.1152866244657E+01
-0.2434935885583E+01 -0.3863887750118E+01 -0.2960447101271E+01 -0.1050191867148E+01
-0.2681927436458E+01 -0.3956583439067E+01 -0.3120100103583E+01 -0.9336061222585E+00
-0.2948754023499E+01 -0.4051058907569E+01 -0.3289912069257E+01 -0.8026474135553E+00
-0.3236400372483E+01 -0.4146967768638E+01 -0.3470183017525E+01 -0.6570455028880E+00
-0.3545800301553E+01 -0.4243963560734E+01 -0.3661189005989E+01 -0.4967274741828E+00
-0.3877905712671E+01 -0.4341764004073E+01 -0.3863244757071E+01 -0.3217928580098E+00
-0.4233779160387E+01 -0.4440213323626E+01 -0.4076776457146E+01 -0.1323778302066E+00
-0.5537732341616E+00 -0.2961966641551E+01 -0.1652397737394E+01 -0.1586957177096E+01
-0.6323877345285E+00 -0.3021088143212E+01 -0.1717133658183E+01 -0.1581242321594E+01
-0.7185053577419E+00 -0.3083654087650E+01 -0.1787014934802E+01 -0.1572091957039E+01
-0.8131795580462E+00 -0.3149346169275E+01 -0.1862387087117E+01 -0.1558967880635E+01
-0.9174487500557E+00 -0.3217949564406E+01 -0.1943637202867E+01 -0.1541115875300E+01
-0.1032299531896E+01 -0.3289340012554E+01 -0.2031170580740E+01 -0.1517681287846E+01
-0.1158689791443E+01 -0.3363439665449E+01 -0.2125400839348E+01 -0.1487768337581E+01
-0.1297576664836E+01 -0.3440178595276E+01 -0.2226744966605E+01 -0.1450463655197E+01
-0.1449933122484E+01 -0.3519470520889E+01 -0.2335619706461E+01 -0.1404846239578E+01
-0.1616752190034E+01 -0.3601201024334E+01 -0.2452438004533E+01 -0.1349996736451E+01
-0.1799041228331E+01 -0.3685223669076E+01 -0.2577604495244E+01 -0.1285011749574E+01
-0.1997809408903E+01 -0.3771360692016E+01 -0.2711509940554E+01 -0.1209024599621E+01
-0.2214050821024E+01 -0.3859406204519E+01 -0.2854524794765E+01 -0.1121231508628E+01
-0.2448725331763E+01 -0.3949131268675E+01 -0.3006992594579E+01 -0.1020920723681E+01
-0.2702739066825E+01 -0.4040290896869E+01 -0.3169224074898E+01 -0.9075011996856E+00
-0.2976926572417E+01 -0.4132633205434E+01 -0.3341493087115E+01 -0.7805270957762E+00
-0.3272037129849E+01 -0.4225909762727E+01 -0.3524035030573E+01 -0.6397150509916E+00
-0.3588737072931E+01 -0.4319888661663E+01 -0.3717054085831E+01 -0.4849530177095E+00
-0.3927635732336E+01 -0.4414344280804E+01 -0.3920730596231E+01 -0.3163081603923E+00
-0.4289823486377E+01 -0.4509281931290E+01 -0.4135579535814E+01 -0.1340137213515E+00
-0.5385967908770E+00 -0.3010805517965E+01 -0.1668219080925E+01 -0.1563817572898E+01
-0.6156600914609E+00 -0.3073587762130E+01 -0.1733946486790E+01 -0.1555322316005E+01
-0.7002943175999E+00 -0.3139684872403E+01 -0.1804790214724E+01 -0.1543654964383E+01
-0.7937317351650E+00 -0.3208625174911E+01 -0.1881107742964E+01 -0.1528282377404E+01
-0.8971323744592E+00 -0.3280112649914E+01 -0.1963305156476E+01 -0.1508431234553E+01
-0.1011559178779E+01 -0.3353976124599E+01 -0.2051801587383E+01 -0.1483255940415E+01
-0.1138026180128E+01 -0.3430095067139E+01 -0.2147016980770E+01 -0.1451903996122E+01
-0.1277539262284E+01 -0.3508347774799E+01 -0.2249366901724E+01 -0.1413529530985E+01
-0.1431115412706E+01 -0.3588587184852E+01 -0.2359260214868E+01 -0.1367291311800E+01
-0.1599782514568E+01 -0.3670634822793E+01 -0.2477096142277E+01 -0.1312352279450E+01
-0.1784566659085E+01 -0.3754285391392E+01 -0.2603260457121E+01 -0.1247886660627E+01
-0.1986471663005E+01 -0.3839315475630E+01 -0.2738119948214E+01 -0.1173095315517E+01
-0.2206455241955E+01 -0.3925493474579E+01 -0.2882015889462E+01 -0.1087227581964E+01
-0.2445405189796E+01 -0.4012589042920E+01 -0.3035257281678E+01 -0.9896068103349E+00
-0.2704118372700E+01 -0.4100381050918E+01 -0.3198114720989E+01 -0.8796561588050E+00
-0.2983284665444E+01 -0.4188663249353E+01 -0.3370815511405E+01 -0.7569210819116E+00
-0.3283475591872E+01 -0.4277245732970E+01 -0.3553539013663E+01 -0.6210857426459E+00
-0.3605132103328E+01 -0.4365945908801E+01 -0.3746406656198E+01 -0.4719852088692E+00
-0.3948539479967E+01 -0.4454557474624E+01 -0.3949455558640E+01 -0.3096273382510E+00
-0.4313585745336E+01 -0.4542537865221E+01 -0.4162378086404E+01 -0.1343527457132E+00
-0.5224755909253E+00 -0.3055292020750E+01 -0.1681550773223E+01 -0.1537698333542E+01
-0.5975892951686E+00 -0.3121066460053E+01 -0.1747768200521E+01 -0.1526178898001E+01
-0.6802612585607E+00 -0.3189879624904E+01 -0.1818966210615E+01 -0.1511848574803E+01
-0.7719377082991E+00 -0.3261092774028E+01 -0.1895524321886E+01 -0.1494126197481E+01
-0.8738851193225E+00 -0.3334362192413E+01 -0.1977876231499E+01 -0.1472182994947E+01
-0.9872114375312E+00 -0.3409508522312E+01 -0.2066458375885E+01 -0.1445175215259E+01
-0.1112956975496E+01 -0.3486394347949E+01 -0.2161695116536E+01 -0.1412302331601E+01
-0.1252156448430E+01 -0.3564860964475E+01 -0.2263998178323E+01 -0.1372798387968E+01
-0.1405859517987E+01 -0.3644706175916E+01 -0.2373765870114E+01 -0.1325911082775E+01
-0.1575127054119E+01 -0.3725689921587E+01 -0.2491383972263E+01 -0.1270888846580E+01
-0.1761010461555E+01 -0.3807548951775E+01 -0.2617222917627E+01 -0.1206980477791E+01
-0.1964523620391E+01 -0.3890014633124E+01 -0.2751632972173E+01 -0.1133446054743E+01
-0.2186612054775E+01 -0.3972829093528E+01 -0.2894937332360E+01 -0.1049576480628E+01
-0.2428124146827E+01 -0.4055758138014E+01 -0.3047424666146E+01 -0.9547188312336E+00
-0.2689788812613E+01 -0.4138599602059E+01 -0.3209342546756E+01 -0.8483046177726E+00
-0.2972201911515E+01 -0.4221184607680E+01 -0.3380891655446E+01 -0.7298775908536E+00
-0.3275822775545E+01 -0.4303371297160E+01 -0.3562221205136E+01 -0.5991177546703E+00
-0.3600966132941E+01 -0.4385024855376E+01 -0.3753415754989E+01 -0.4558593831963E+00
-0.3947760134866E+01 -0.4465985632960E+01 -0.3954460500848E+01 -0.3001088173340E+00
-0.4315655423814E+01 -0.4545864469744E+01 -0.4164914339409E+01 -0.1320875700186E+00
-0.5054537314910E+00 -0.3095205434195E+01 -0.1692309803580E+01 -0.1508634519734E+01
-0.5782278478806E+00 -0.3163339908446E+01 -0.1758536841013E+01 -0.1493898470398E+01
-0.6584792061039E+00 -0.3234012783125E+01 -0.1829471230297E+01 -0.1476848076151E+01
-0.7479294170270E+00 -0.3306439577616E+01 -0.1905553422649E+01 -0.1456746064644E+01
-0.8479243419732E+00 -0.3380304098351E+01 -0.1987267361912E+01 -0.1432659535434E+01
-0.9595693399432E+00 -0.3455473126524E+01 -0.2075069953976E+01 -0.1403747473866E+01
-0.1083901814667E+01 -0.3531825633627E+01 -0.2169391895196E+01 -0.1369282004163E+01
-0.1221965879622E+01 -0.3609171943116E+01 -0.2270634770928E+01 -0.1328597536017E+01
-0.1374839441404E+01 -0.3687254898932E+01 -0.2379184333924E+01 -0.1281043205888E+01
-0.1543619397793E+01 -0.3765770020854E+01 -0.2495413020435E+01 -0.1225956403541E+01
-0.1729393680033E+01 -0.3844396849869E+01 -0.2619681542410E+01 -0.1162655925615E+01
-0.1933203173483E+01 -0.3922825807252E+01 -0.2752333613964E+01 -0.1090449598273E+01
-0.2156001836172E+01 -0.4000781615644E+01 -0.2893688215014E+01 -0.1008652170006E+01
-0.2398619498579E+01 -0.4078042158535E+01 -0.3044030971123E+01 -0.9166112877316E+00
-0.2661731531534E+01 -0.4154450498359E+01 -0.3203605545924E+01 -0.8137396264950E+00
-0.2945843260196E+01 -0.4229920448495E+01 -0.3372608934531E+01 -0.6995504721148E+00
-0.3251287290678E+01 -0.4304429587547E+01 -0.3551186923759E+01 -0.5736913985288E+00
-0.3578244382851E+01 -0.4378014511558E+01 -0.3739441670888E+01 -0.4359674979509E+00
-0.3926735488276E+01 -0.4450754138982E+01 -0.3937420114825E+01 -0.2863362723559E+00
-0.4296904887873E+01 -0.4523127753054E+01 -0.4145415330721E+01 -0.1247687395649E+00
-0.4875111165490E+00 -0.3130382615564E+01 -0.1700410049780E+01 -0.1476667878091E+01
-0.5574242188444E+00 -0.3200219017393E+01 -0.1766092316552E+01 -0.1458608957250E+01
-0.6346955582798E+00 -0.3271747210956E+01 -0.1836028096884E+01 -0.1438907133933E+01
-0.7213876216947E+00 -0.3344151190037E+01 -0.1910803236667E+01 -0.1416477282257E+01
-0.8188391645728E+00 -0.3417260138396E+01 -0.1990966667345E+01 -0.1390232592128E+01
-0.9281055688579E+00 -0.3491087544883E+01 -0.2077020758190E+01 -0.1359363795703E+01
-0.1050172998870E+01 -0.3565536632542E+01 -0.2169383521262E+01 -0.1323258495107E+01
-0.1186086832271E+01 -0.3640386209567E+01 -0.2268442323910E+01 -0.1281382160006E+01
-0.1336947236510E+01 -0.3715305064931E+01 -0.2374558575655E+01 -0.1233199886792E+01
-0.1503895161225E+01 -0.3789916747211E+01 -0.2488091590654E+01 -0.1178140271796E+01
-0.1688069000715E+01 -0.3863840619102E+01 -0.2609397514696E+01 -0.1115586536150E+01
-0.1890557955823E+01 -0.3936727427692E+01 -0.2738824123305E+01 -0.1044881748541E+01
-0.2112351592088E+01 -0.4008288550413E+01 -0.2876700859679E+01 -0.9653441321338E+00
-0.2354289902775E+01 -0.4078320837740E+01 -0.3023327040374E+01 -0.8762920144280E+00
-0.2617021852228E+01 -0.4146727114051E+01 -0.3178962006088E+01 -0.7770788382790E+00
-0.2900973185771E+01 -0.4213522745132E+01 -0.3343813079043E+01 -0.6671365250353E+00
-0.3206351077009E+01 -0.4278841684994E+01 -0.3518040589218E+01 -0.5460229716373E+00
-0.3533166690638E+01 -0.4342913630430E+01 -0.3701757741513E+01 -0.4134596838679E+00
-0.3881380545303E+01 -0.4406104400204E+01 -0.3895117914509E+01 -0.2693319174989E+00
-0.4251125873740E+01 -0.4468869498794E+01 -0.4098397814696E+01 -0.1136124643691E+00
-0.4686416095112E+00 -0.3160794090236E+01 -0.1705834774555E+01 -0.1441836056489E+01
-0.5350047743411E+00 -0.3231627171600E+01 -0.1770317010102E+01 -0.1420492549710E+01
-0.6086831254147E+00 -0.3302804438119E+01 -0.1838399150198E+01 -0.1398365856194E+01
-0.6919996265115E+00 -0.3373670390223E+01 -0.1910864903019E+01 -0.1373702568192E+01
-0.7862448623459E+00 -0.3444547763959E+01 -0.1988472529320E+01 -0.1345261483335E+01
-0.8922744070275E+00 -0.3515600873069E+01 -0.2071701376391E+01 -0.1312350492978E+01
-0.1011037018062E+01 -0.3586791388644E+01 -0.2160979345671E+01 -0.1274545567799E+01
-0.1143544105571E+01 -0.3657788228295E+01 -0.2256626191193E+01 -0.1231476853615E+01
-0.1290927251888E+01 -0.3728164526151E+01 -0.2358973129695E+01 -0.1182731766598E+01
-0.1454377357223E+01 -0.3797458435236E+01 -0.2468362816195E+01 -0.1127828272092E+01
-0.1635098961644E+01 -0.3865225930775E+01 -0.2585152692880E+01 -0.1066208922697E+01
-0.1834255216648E+01 -0.3931075471314E+01 -0.2709705416469E+01 -0.9972436739949E+00
-0.2052908669011E+01 -0.3994700467934E+01 -0.2842376287155E+01 -0.9202394012832E+00
-0.2291957596593E+01 -0.4055910841054E+01 -0.2983498158127E+01 -0.8344596673022E+00
-0.2552070779731E+01 -0.4114658589992E+01 -0.3133362795823E+01 -0.7391593829089E+00
-0.2833647904564E+01 -0.4171063851530E+01 -0.3292214517014E+01 -0.6336363135562E+00
-0.3136771663858E+01 -0.4225392068327E+01 -0.3460216945351E+01 -0.5172943577884E+00
-0.3461282696074E+01 -0.4278074618170E+01 -0.3637497928469E+01 -0.3897168156197E+00
-0.3806833269763E+01 -0.4329584631143E+01 -0.3824116403726E+01 -0.2507223669152E+00
-0.4173135062751E+01 -0.4380330358058E+01 -0.4020128737584E+01 -0.1004215236923E+00
-0.4488317477990E+00 -0.3186611573825E+01 -0.1708658356830E+01 -0.1404170043279E+01
-0.5109609956790E+00 -0.3257767929990E+01 -0.1771302590572E+01 -0.1379857921911E+01
-0.5802791416990E+00 -0.3326787970182E+01 -0.1836321537927E+01 -0.1355687278753E+01
-0.6597239937821E+00 -0.3394414619461E+01 -0.1905445143391E+01 -0.1328830840745E+01
-0.7499362381783E+00 -0.3461385730645E+01 -0.1979321320327E+01 -0.1298025124473E+01
-0.8518084490221E+00 -0.3528375100072E+01 -0.2058686262853E+01 -0.1262900223026E+01
-0.9660630634707E+00 -0.3595042794790E+01 -0.2143719747945E+01 -0.1223306576174E+01
-0.1093727834812E+01 -0.3660911460843E+01 -0.2234680463290E+01 -0.1179035899888E+01
-0.1235956532559E+01 -0.3725423376371E+01 -0.2331848551283E+01 -0.1129786291742E+01
-0.1393994410431E+01 -0.3788032911240E+01 -0.2435552835008E+01 -0.1075157382296E+01
-0.1569120887278E+01 -0.3848234228284E+01 -0.2546156897856E+01 -0.1014650360636E+01
-0.1762598276139E+01 -0.3905591244703E+01 -0.2664049068039E+01 -0.9476643357520E+00
-0.1975608423052E+01 -0.3959770193291E+01 -0.2789627942606E+01 -0.8734942475330E+00
-0.2209173516426E+01 -0.4010576367470E+01 -0.2923282438017E+01 -0.7913382650045E+00
-0.2464068383243E+01 -0.4057995141413E+01 -0.3065369848814E+01 -0.7003245137124E+00
-0.2740718766007E+01 -0.4102210704570E+01 -0.3216176843014E+01 -0.5995677799619E+00
-0.3039209985126E+01 -0.4143668340701E+01 -0.3375952804576E+01 -0.4882553494345E+00
-0.3359094923992E+01 -0.4182887835101E+01 -0.3544731887783E+01 -0.3657430200269E+00
-0.3699690929367E+01 -0.4220610436769E+01 -0.3722541632642E+01 -0.2317133788701E+00
-0.4059944303239E+01 -0.4257327872001E+01 -0.3909117912448E+01 -0.8630662117181E-01
-0.4285871135966E+00 -0.3208845502054E+01 -0.1709593325020E+01 -0.1363766628865E+01
-0.4850746092930E+00 -0.3278590850576E+01 -0.1768922761652E+01 -0.1337257523766E+01
-0.5500178327381E+00 -0.3343490516265E+01 -0.1829948919390E+01 -0.1311539963984E+01
-0.6243900986761E+00 -0.3405005970266E+01 -0.1893816147599E+01 -0.1282166524857E+01
-0.7100233140327E+00 -0.3467070174326E+01 -0.1963233934549E+01 -0.1248583253542E+01
-0.8066586066110E+00 -0.3528925629646E+01 -0.2037724585872E+01 -0.1211033993776E+01
-0.9151239708457E+00 -0.3589987722561E+01 -0.2117402490531E+01 -0.1169568679546E+01
-0.1036408294738E+01 -0.3649535711546E+01 -0.2202393677367E+01 -0.1124085324761E+01
-0.1171689778262E+01 -0.3706916843209E+01 -0.2292945106276E+01 -0.1074360203123E+01
-0.1322247108216E+01 -0.3761522186900E+01 -0.2389371562644E+01 -0.1020068668275E+01
-0.1489428751678E+01 -0.3812798758459E+01 -0.2492046923443E+01 -0.9607807360861E+00
-0.1674610929651E+01 -0.3860267186636E+01 -0.2601392708057E+01 -0.8959443148345E+00
-0.1879140078933E+01 -0.3903555065310E+01 -0.2717866710901E+01 -0.8248645869002E+00
-0.2104248279745E+01 -0.3942443308327E+01 -0.2841945039186E+01 -0.7466894895153E+00
-0.2350927992973E+01 -0.3976914773501E+01 -0.2974086092699E+01 -0.6604156549792E+00
-0.2619799101788E+01 -0.4007219450635E+01 -0.3114698711739E+01 -0.5649334284965E+00
-0.2910886213443E+01 -0.4033828915050E+01 -0.3264016102113E+01 -0.4591399025145E+00
-0.3224014232826E+01 -0.4057772140695E+01 -0.3422439586874E+01 -0.3420822432175E+00
-0.3557585300314E+01 -0.4079550541945E+01 -0.3589453836757E+01 -0.2130331839494E+00
-0.3910087595229E+01 -0.4100494244373E+01 -0.3764973455064E+01 -0.7189663554659E-01
-0.4073198745598E+00 -0.3228659376097E+01 -0.1708910243474E+01 -0.1320795087481E+01
-0.4607263200785E+00 -0.3297122583401E+01 -0.1766188980155E+01 -0.1294277125940E+01
-0.5163297525711E+00 -0.3348307990773E+01 -0.1816379734765E+01 -0.1266413823231E+01
-0.5866018889892E+00 -0.3404493991328E+01 -0.1875815058991E+01 -0.1233401080106E+01
-0.6665776240351E+00 -0.3461091223309E+01 -0.1940004353331E+01 -0.1196700978472E+01
-0.7569395550220E+00 -0.3517160507732E+01 -0.2008827024399E+01 -0.1156650880254E+01
-0.8583133398536E+00 -0.3571605824274E+01 -0.2082062001859E+01 -0.1113320043627E+01
-0.9717016299068E+00 -0.3623664631215E+01 -0.2159822137249E+01 -0.1066622307088E+01
-0.1098240957736E+01 -0.3672656863653E+01 -0.2242321970366E+01 -0.1016392885619E+01
-0.1239201974907E+01 -0.3717960421318E+01 -0.2329866320316E+01 -0.9623919799902E+00
-0.1395969223571E+01 -0.3758996614646E+01 -0.2422833937817E+01 -0.9042849453745E+00
-0.1570023093916E+01 -0.3795247732680E+01 -0.2521677282104E+01 -0.8416083364506E+00
-0.1762901850511E+01 -0.3826293344948E+01 -0.2626921735203E+01 -0.7737282016226E+00
-0.1976127897667E+01 -0.3851864296912E+01 -0.2739156324505E+01 -0.6997966350972E+00
-0.2211081716406E+01 -0.3871918157347E+01 -0.2859009933412E+01 -0.6187181535109E+00
-0.2468764166792E+01 -0.3886694148653E+01 -0.2987065400683E+01 -0.5291541122206E+00
-0.2749585101895E+01 -0.3896852095085E+01 -0.3123825474657E+01 -0.4296026516057E+00
-0.3052594361725E+01 -0.3902977951853E+01 -0.3269118979090E+01 -0.3186729943420E+00
-0.3378684485582E+01 -0.3907925505568E+01 -0.3424706687154E+01 -0.1951889543140E+00
-0.3722472437560E+01 -0.3910225468290E+01 -0.3587368006651E+01 -0.5763786832598E-01
-0.4108322758499E+00 -0.3270563206386E+01 -0.1730255872262E+01 -0.1278629536501E+01
-0.4262063630263E+00 -0.3290287292415E+01 -0.1746752013627E+01 -0.1251630568080E+01
-0.4819088542409E+00 -0.3340725052441E+01 -0.1796637931584E+01 -0.1218353690551E+01
-0.5460277019808E+00 -0.3392585597082E+01 -0.1851148245864E+01 -0.1181628094550E+01
-0.6197001795295E+00 -0.3444028846080E+01 -0.1909952637192E+01 -0.1142088662370E+01
-0.7027671361477E+00 -0.3493458902459E+01 -0.1972226233143E+01 -0.1099789639673E+01
-0.7959415418239E+00 -0.3540146556121E+01 -0.2037961400865E+01 -0.1054697607745E+01
-0.9000759653229E+00 -0.3583442189432E+01 -0.2107253527390E+01 -0.1006754174077E+01
-0.1016206811696E+01 -0.3622738400219E+01 -0.2180304244070E+01 -0.9558777651712E+00
-0.1145526451056E+01 -0.3657433297784E+01 -0.2257391076229E+01 -0.9019412729557E+00
-0.1289392661102E+01 -0.3686940374797E+01 -0.2338876520941E+01 -0.8447404103164E+00
-0.1449336035070E+01 -0.3710710982800E+01 -0.2425222092248E+01 -0.7839520138259E+00
-0.1627059870586E+01 -0.3728273145609E+01 -0.2517006511228E+01 -0.7190797781469E+00
-0.1824415189376E+01 -0.3739291789155E+01 -0.2614942273277E+01 -0.6493848844776E+00
-0.2043313010879E+01 -0.3743651066860E+01 -0.2719873109639E+01 -0.5738030443720E+00
-0.2285538240820E+01 -0.3741583080844E+01 -0.2832747013997E+01 -0.4908568970569E+00
-0.2552206485927E+01 -0.3733665790020E+01 -0.2954359962202E+01 -0.3986207848616E+00
-0.2843394150146E+01 -0.3721190578566E+01 -0.3085354814669E+01 -0.2947904229261E+00
-0.3154126426801E+01 -0.3702562854441E+01 -0.3222643954010E+01 -0.1775628234666E+00
-0.3496964340661E+01 -0.3689596652501E+01 -0.3377683658219E+01 -0.4447810243321E-01
</DataArray>
<DataArray type="Float64" Name="S_Mises" NumberOfComponents="1" ComponentName0="S_Mises" format="ascii">
 0.1536815457532E+02
 0.1373067176890E+02
 0.1244390324007E+02
 0.1194343232480E+02
 0.1155877151592E+02
 0.1127652003954E+02
 0.1104118944197E+02
 0.1083631062289E+02
 0.1065044528707E+02
 0.1047786060062E+02
 0.1031540484721E+02
 0.1016183392890E+02
 0.1001738028864E+02
 0.9883877741051E+01
 0.9765847958815E+01
 0.9673488078015E+01
 0.9607665284845E+01
 0.9540700489021E+01
 0.9445555668549E+01
 0.9321473850991E+01
 0.9179905030310E+01
 0.9033154300870E+01
 0.8890987091343E+01
 0.8760607058952E+01
 0.8647231884826E+01
 0.8554084608635E+01
 0.8481489281580E+01
 0.8431375246151E+01
 0.8412190550632E+01
 0.8433715517676E+01
 0.8503242116792E+01
 0.8626822593910E+01
 0.8808924815730E+01
 0.9050549724533E+01
 0.9350254765550E+01
 0.9716419828004E+01
 0.1026003119493E+02
 0.1105268895320E+02
 0.1273045913532E+02
 0.1340335703145E+02
 0.2312679318163E+02
 0.1306165322630E+02
 0.1342810386642E+02
 0.1242977067599E+02
 0.1181616179822E+02
 0.1142823243444E+02
 0.1112426957899E+02
 0.1087807116875E+02
 0.1066507699629E+02
 0.1047425188200E+02
 0.1029875973929E+02
 0.1013495240374E+02
 0.9981111917329E+01
 0.9837029172608E+01
 0.9704012338971E+01
 0.9584769708019E+01
 0.9480917004375E+01
 0.9387956548897E+01
 0.9294248000429E+01
 0.9188312627718E+01
 0.9066320411937E+01
 0.8932133675444E+01
 0.8792890357094E+01
 0.8655598793364E+01
 0.8525974434847E+01
 0.8408198391801E+01
 0.8304982991626E+01
 0.8218313297131E+01
 0.8150901349497E+01
 0.8106918340748E+01
 0.8091072510051E+01
 0.8107078095665E+01
 0.8156683335117E+01
 0.8239092013239E+01
 0.8351253489656E+01
 0.8491159746177E+01
 0.8671751137040E+01
 0.8899303982466E+01
 0.9210020776660E+01
 0.9361938446431E+01
 0.8008747203038E+01
 0.1579493916601E+02
 0.1170529072008E+02
 0.1257325443502E+02
 0.1220116756293E+02
 0.1163943409871E+02
 0.1125481271432E+02
 0.1095209882517E+02
 0.1070153333885E+02
 0.1048536944681E+02
 0.1029207730094E+02
 0.1011512375947E+02
 0.9950619739986E+01
 0.9796576371717E+01
 0.9652369559839E+01
 0.9518472962783E+01
 0.9395226141328E+01
 0.9280377788936E+01
 0.9169292112768E+01
 0.9057700847867E+01
 0.8941770772169E+01
 0.8818346644702E+01
 0.8687461494250E+01
 0.8552381412835E+01
 0.8417546609650E+01
 0.8287095625403E+01
 0.8164237381342E+01
 0.8051371300562E+01
 0.7950772546079E+01
 0.7864682437576E+01
 0.7794837607205E+01
 0.7742501908953E+01
 0.7708084179383E+01
 0.7690001055335E+01
 0.7684103160367E+01
 0.7684480852849E+01
 0.7687426163593E+01
 0.7688570570672E+01
 0.7660102877122E+01
 0.7525710227724E+01
 0.6852053779293E+01
 0.6009893131041E+01
 0.1349466773976E+02
 0.1078160779351E+02
 0.1173182879905E+02
 0.1177533096234E+02
 0.1139545690603E+02
 0.1104418625823E+02
 0.1075651422251E+02
 0.1051087701328E+02
 0.1029612163377E+02
 0.1010324005122E+02
 0.9926415803113E+01
 0.9762033045733E+01
 0.9608009592453E+01
 0.9463364990011E+01
 0.9327647761918E+01
 0.9199490253841E+01
 0.9075304909363E+01
 0.8951501322851E+01
 0.8827428915247E+01
 0.8703029540178E+01
 0.8576389588129E+01
 0.8445955589959E+01
 0.8312406955537E+01
 0.8178024109103E+01
 0.8045456302630E+01
 0.7917000187990E+01
 0.7794609701091E+01
 0.7680215576712E+01
 0.7575234796447E+01
 0.7479753346848E+01
 0.7392709576716E+01
 0.7311985373673E+01
 0.7233636848671E+01
 0.7151475104900E+01
 0.7058065709307E+01
 0.6946044676918E+01
 0.6800538391625E+01
 0.6577764827014E+01
 0.6157220351340E+01
 0.5369425560493E+01
 0.5542531307672E+01
 0.1236555349448E+02
 0.1008968247714E+02
 0.1099398636210E+02
 0.1127008945007E+02
 0.1108116342566E+02
 0.1079889099341E+02
 0.1053802447431E+02
 0.1030547476376E+02
 0.1009690471606E+02
 0.9907275767583E+01
 0.9732288065002E+01
 0.9568949967747E+01
 0.9415311029315E+01
 0.9270126234673E+01
 0.9132201995909E+01
 0.8999228815844E+01
 0.8867471952994E+01
 0.8734473253850E+01
 0.8601389659311E+01
 0.8469984782743E+01
 0.8339379275588E+01
 0.8207528370691E+01
 0.8073542182389E+01
 0.7938029711828E+01
 0.7802335933657E+01
 0.7667890538846E+01
 0.7536072602311E+01
 0.7408207229172E+01
 0.7284845059765E+01
 0.7164882547022E+01
 0.7045719686561E+01
 0.6923549585796E+01
 0.6792989143486E+01
 0.6646952457887E+01
 0.6477409501343E+01
 0.6275064474462E+01
 0.6022420395448E+01
 0.5675789400027E+01
 0.5160408450754E+01
 0.4609099589019E+01
 0.5644611973077E+01
 0.1161998139730E+02
 0.9535719114394E+01
 0.1035818607049E+02
 0.1075198400679E+02
 0.1071903047704E+02
 0.1052131122931E+02
 0.1029860108348E+02
 0.1008561660301E+02
 0.9887652473877E+01
 0.9704012970476E+01
 0.9532563663768E+01
 0.9371261046261E+01
 0.9218488301950E+01
 0.9072887864585E+01
 0.8932814860859E+01
 0.8795601108951E+01
 0.8657872476767E+01
 0.8518112957392E+01
 0.8378359556126E+01
 0.8241188663976E+01
 0.8106430688019E+01
 0.7972026556940E+01
 0.7836212708782E+01
 0.7698391761560E+01
 0.7558828037018E+01
 0.7418146029561E+01
 0.7277091508314E+01
 0.7136315145981E+01
 0.6995586560440E+01
 0.6852956256443E+01
 0.6704880898524E+01
 0.6546613425545E+01
 0.6372179720468E+01
 0.6174547210736E+01
 0.5946228677715E+01
 0.5678819764583E+01
 0.5358537572391E+01
 0.4959603257851E+01
 0.4488881353955E+01
 0.4293538382078E+01
 0.5885585752720E+01
 0.1104577724253E+02
 0.9070342257665E+01
 0.9806569055811E+01
 0.1025115347593E+02
 0.1033240695239E+02
 0.1021807190864E+02
 0.1004065205323E+02
 0.9852387612430E+01
 0.9668687856814E+01
 0.9493532641620E+01
 0.9327239196410E+01
 0.9168979260000E+01
 0.9017647349093E+01
 0.8871952431041E+01
 0.8730088852461E+01
 0.8589414486860E+01
 0.8447098373951E+01
 0.8302343609815E+01
 0.8157576939055E+01
 0.8015661978408E+01
 0.7876865036901E+01
 0.7739290431090E+01
 0.7600739642910E+01
 0.7459795602930E+01
 0.7315869033370E+01
 0.7168867207929E+01
 0.7018912556146E+01
 0.6866015111182E+01
 0.6709303795512E+01
 0.6546273022995E+01
 0.6372907790657E+01
 0.6184151134413E+01
 0.5974167191916E+01
 0.5736797881869E+01
 0.5466319386965E+01
 0.5157741520439E+01
 0.4806174753077E+01
 0.4414167168892E+01
 0.4067955552354E+01
 0.4226877382788E+01
 0.6113250795481E+01
 0.1057027100104E+02
 0.8665254888935E+01
 0.9321412463628E+01
 0.9779045998860E+01
 0.9938432573202E+01
 0.9897476835323E+01
 0.9767413804955E+01
 0.9607319072480E+01
 0.9440702980348E+01
 0.9276139631502E+01
 0.9116469729682E+01
 0.8962229938893E+01
 0.8812974323546E+01
 0.8667650711551E+01
 0.8524534605913E+01
 0.8381243456911E+01
 0.8235524262253E+01
 0.8087111063582E+01
 0.7938559406796E+01
 0.7792749934231E+01
 0.7650188717221E+01
 0.7509187019257E+01
 0.7367374181654E+01
 0.7222810207184E+01
 0.7074262069244E+01
 0.6921029058762E+01
 0.6762670453730E+01
 0.6598644248243E+01
 0.6427600414771E+01
 0.6246732189721E+01
 0.6051934900169E+01
 0.5838353108971E+01
 0.5600885109909E+01
 0.5334942984911E+01
 0.5037611546233E+01
 0.4709203448112E+01
 0.4356940708324E+01
 0.4013856159887E+01
 0.3827243041900E+01
 0.4283731227183E+01
 0.6286861468082E+01
 0.1016129760403E+02
 0.8303154863887E+01
 0.8888312546179E+01
 0.9338306185035E+01
 0.9548016497035E+01
 0.9567277678341E+01
 0.9482652082383E+01
 0.9352269061031E+01
 0.9204658896449E+01
 0.9052335298775E+01
 0.8900547668743E+01
 0.8751236608170E+01
 0.8604717215437E+01
 0.8460320157870E+01
 0.8316582229267E+01
 0.8171511112725E+01
 0.8023404516100E+01
 0.7872385592833E+01
 0.7721002888175E+01
 0.7572021805087E+01
 0.7426059250393E+01
 0.7281623244871E+01
 0.7136322432988E+01
 0.6987911080639E+01
 0.6834695430121E+01
 0.6675487226146E+01
 0.6509374252875E+01
 0.6335378322154E+01
 0.6151835587631E+01
 0.5955862309778E+01
 0.5743572940337E+01
 0.5510713953552E+01
 0.5253380308547E+01
 0.4969091222424E+01
 0.4658487720073E+01
 0.4328314038096E+01
 0.3998963330761E+01
 0.3730726264230E+01
 0.3709443781444E+01
 0.4391038681993E+01
 0.6403875737757E+01
 0.9801241946758E+01
 0.7972897717920E+01
 0.8496196506831E+01
 0.8927702203737E+01
 0.9167439820239E+01
 0.9233728738202E+01
 0.9190150910180E+01
 0.9089292863925E+01
 0.8961698981265E+01
 0.8822774612363E+01
 0.8679880156481E+01
 0.8536304045058E+01
 0.8393170092441E+01
 0.8250295240160E+01
 0.8106598988563E+01
 0.7960543117118E+01
 0.7810926837602E+01
 0.7658161289584E+01
 0.7504722073567E+01
 0.7353202507855E+01
 0.7204251479397E+01
 0.7056547052078E+01
 0.6907761594769E+01
 0.6755498415362E+01
 0.6597756895039E+01
 0.6432983217836E+01
 0.6259901336233E+01
 0.6077222964772E+01
 0.5883128251831E+01
 0.5674849847921E+01
 0.5448965757105E+01
 0.5202123941238E+01
 0.4931948232582E+01
 0.4638423452241E+01
 0.4326163887064E+01
 0.4008728524565E+01
 0.3719041638262E+01
 0.3538792321373E+01
 0.3671016954658E+01
 0.4509848507780E+01
 0.6472651708887E+01
 0.9478826707602E+01
 0.7666988141207E+01
 0.8136679325186E+01
 0.8544494363964E+01
 0.8799910304449E+01
 0.8901442841852E+01
 0.8893333063636E+01
 0.8820484219023E+01
 0.8713071773487E+01
 0.8588220211039E+01
 0.8454963465563E+01
 0.8317800855669E+01
 0.8178660163168E+01
 0.8037904026235E+01
 0.7894905919948E+01
 0.7748603057440E+01
 0.7598242659291E+01
 0.7444454056042E+01
 0.7289613231957E+01
 0.7136125761621E+01
 0.6984628539370E+01
 0.6833942483104E+01
 0.6681849419612E+01
 0.6525910673224E+01
 0.6363945186296E+01
 0.6194149929530E+01
 0.6014997111542E+01
 0.5825013672317E+01
 0.5622367600451E+01
 0.5404569619795E+01
 0.5168847379083E+01
 0.4912959440847E+01
 0.4636267915562E+01
 0.4341405367265E+01
 0.4037067130674E+01
 0.3743399830700E+01
 0.3504150515116E+01
 0.3415638460773E+01
 0.3680587249578E+01
 0.4621101240042E+01
 0.6503099781557E+01
 0.9186132311013E+01
 0.7380196945629E+01
 0.7803408364565E+01
 0.8185541793662E+01
 0.8446716952656E+01
 0.8573595263024E+01
 0.8595071498631E+01
 0.8547833703509E+01
 0.8460057811761E+01
 0.8349498720032E+01
 0.8226356391280E+01
 0.8096142329385E+01
 0.7961537188334E+01
 0.7823467389165E+01
 0.7681791111793E+01
 0.7535915372079E+01
 0.7385484552330E+01
 0.7231298880565E+01
 0.7075629838812E+01
 0.6920701606188E+01
 0.6767118419532E+01
 0.6613822352923E+01
 0.6458729009767E+01
 0.6299434367034E+01
 0.6133679311505E+01
 0.5959517778892E+01
 0.5775278672617E+01
 0.5579421571931E+01
 0.5370228127050E+01
 0.5145616889098E+01
 0.4903598195576E+01
 0.4643170359602E+01
 0.4365533068062E+01
 0.4075991716703E+01
 0.3787176289405E+01
 0.3525168027280E+01
 0.3342273054768E+01
 0.3342765134912E+01
 0.3716593395018E+01
 0.4716510872323E+01
 0.6503872961999E+01
 0.8917300394965E+01
 0.7108759249507E+01
 0.7491535837357E+01
 0.7847794676298E+01
 0.8108007327165E+01
 0.8252226742063E+01
 0.8297644367134E+01
 0.8273131069970E+01
 0.8203905253753E+01
 0.8107460880882E+01
 0.7994654716089E+01
 0.7871774159352E+01
 0.7742164555559E+01
 0.7607298927212E+01
 0.7467519396038E+01
 0.7322679991432E+01
 0.7172776062668E+01
 0.7018746819992E+01
 0.6862765901494E+01
 0.6706893515413E+01
 0.6551695588198E+01
 0.6396220500654E+01
 0.6238530656892E+01
 0.6076310959502E+01
 0.5907306359174E+01
 0.5729521380362E+01
 0.5541241183047E+01
 0.5340963006186E+01
 0.5127187765487E+01
 0.4898340396349E+01
 0.4653299336351E+01
 0.4392362877496E+01
 0.4118574293935E+01
 0.3839809493457E+01
 0.3572301712571E+01
 0.3347157276534E+01
 0.3222766573986E+01
 0.3305406352062E+01
 0.3764820791919E+01
 0.4793335370331E+01
 0.6481826827913E+01
 0.8667862130466E+01
 0.6849889393353E+01
 0.7197324081204E+01
 0.7528490368955E+01
 0.7783285682609E+01
 0.7938535441591E+01
 0.8002773273042E+01
 0.7997913957105E+01
 0.7945779946299E+01
 0.7862946935377E+01
 0.7760468009468E+01
 0.7645157530974E+01
 0.7520911509602E+01
 0.7389704708271E+01
 0.7252338901966E+01
 0.7109081435793E+01
 0.6960237010750E+01
 0.6806861933331E+01
 0.6651044115953E+01
 0.6494702001743E+01
 0.6338366795775E+01
 0.6181184589219E+01
 0.6021371993097E+01
 0.5856741732781E+01
 0.5685108164771E+01
 0.5504506593867E+01
 0.5313266068485E+01
 0.5110011570581E+01
 0.4893547895361E+01
 0.4662875431906E+01
 0.4417784341780E+01
 0.4159875777829E+01
 0.3893968400094E+01
 0.3630312401489E+01
 0.3388294248978E+01
 0.3203006461607E+01
 0.3136463540010E+01
 0.3292112822843E+01
 0.3816240582139E+01
 0.4851547533228E+01
 0.6442193040954E+01
 0.8434336000070E+01
 0.6601476439511E+01
 0.6917857781130E+01
 0.7225209753840E+01
 0.7471722212909E+01
 0.7633119529668E+01
 0.7711699633910E+01
 0.7723453413958E+01
 0.7686732089859E+01
 0.7616758628061E+01
 0.7524399534997E+01
 0.7416755912025E+01
 0.7298146269863E+01
 0.7170982528295E+01
 0.7036485112602E+01
 0.6895294197219E+01
 0.6747986024992E+01
 0.6595718304912E+01
 0.6440507179203E+01
 0.6284152683637E+01
 0.6127160187356E+01
 0.5968769861738E+01
 0.5807357313980E+01
 0.5640891321446E+01
 0.5467307164088E+01
 0.5284737776860E+01
 0.5091630333561E+01
 0.4886811601499E+01
 0.4669454206032E+01
 0.4439176104445E+01
 0.4196687269083E+01
 0.3944848983850E+01
 0.3690132241797E+01
 0.3444903355416E+01
 0.3231187105033E+01
 0.3086980524466E+01
 0.3075635744840E+01
 0.3294232781635E+01
 0.3865330927168E+01
 0.4892354196857E+01
 0.6388917903924E+01
 0.8213963022770E+01
 0.6361886727862E+01
 0.6650835638950E+01
 0.6935870564943E+01
 0.7172339938283E+01
 0.7336164379888E+01
 0.7425271545574E+01
 0.7450764012582E+01
 0.7427678297388E+01
 0.7369638501878E+01
 0.7287029732500E+01
 0.7187023735715E+01
 0.7074229934888E+01
 0.6951420675884E+01
 0.6820183046788E+01
 0.6681485637418E+01
 0.6536141378605E+01
 0.6385397233395E+01
 0.6231211241575E+01
 0.6075287477116E+01
 0.5918116990485E+01
 0.5759033966584E+01
 0.5596576621209E+01
 0.5428890426136E+01
 0.5254071670776E+01
 0.5070405093650E+01
 0.4876516486450E+01
 0.4671492359297E+01
 0.4454917612811E+01
 0.4227046074267E+01
 0.3989486526436E+01
 0.3746283393010E+01
 0.3505400037896E+01
 0.3281025724107E+01
 0.3097282335636E+01
 0.2994005951770E+01
 0.3033889098398E+01
 0.3305375072133E+01
 0.3908868070370E+01
 0.4917439180966E+01
 0.6324989545723E+01
 0.8004522308897E+01
 0.6129832111198E+01
 0.6394419284794E+01
 0.6658695084198E+01
 0.6884124292801E+01
 0.7047580807974E+01
 0.7144026536679E+01
 0.7180627971281E+01
 0.7169396043217E+01
 0.7122256299543E+01
 0.7048903455884E+01
 0.6956397064385E+01
 0.6849511163344E+01
 0.6731296333530E+01
 0.6603648104401E+01
 0.6467817243704E+01
 0.6324820796399E+01
 0.6175984627974E+01
 0.6023220862338E+01
 0.5868158016186E+01
 0.5711285194297E+01
 0.5552032816771E+01
 0.5389104709775E+01
 0.5220838069130E+01
 0.5045520747910E+01
 0.4861631763880E+01
 0.4668022679174E+01
 0.4464082333473E+01
 0.4249834596212E+01
 0.4026167173101E+01
 0.3795543939798E+01
 0.3563091629037E+01
 0.3338084432682E+01
 0.3136226834979E+01
 0.2983196218851E+01
 0.2919661409482E+01
 0.3006023182642E+01
 0.3320914149771E+01
 0.3945093777808E+01
 0.4928581034815E+01
 0.6252711822233E+01
 0.7804197964617E+01
 0.5904279733091E+01
 0.6147123010557E+01
 0.6392170061212E+01
 0.6606084730753E+01
 0.6767104145048E+01
 0.6868263743460E+01
 0.6913625577675E+01
 0.6912527026022E+01
 0.6875201623206E+01
 0.6810520865814E+01
 0.6725286233515E+01
 0.6624321655387E+01
 0.6510873790633E+01
 0.6387086011997E+01
 0.6254444825750E+01
 0.6114140658409E+01
 0.5967568633274E+01
 0.5816605058298E+01
 0.5662820694870E+01
 0.5506714769100E+01
 0.5347817384443E+01
 0.5185000475503E+01
 0.5016803628619E+01
 0.4841728787937E+01
 0.4658481155699E+01
 0.4466172767500E+01
 0.4264523238559E+01
 0.4054006491123E+01
 0.3836125495571E+01
 0.3614138797377E+01
 0.3394139828970E+01
 0.3186522613790E+01
 0.3008198726628E+01
 0.2885876305377E+01
 0.2860143348596E+01
 0.2987873843978E+01
 0.3337572436977E+01
 0.3973158702882E+01
 0.4927448661817E+01
 0.6173928326372E+01
 0.7611475108702E+01
 0.5684388809710E+01
 0.5907732598575E+01
 0.6135007005543E+01
 0.6337287013046E+01
 0.6494363623410E+01
 0.6598103623222E+01
 0.6650166897178E+01
 0.6657586275773E+01
 0.6628981659483E+01
 0.6572331645839E+01
 0.6494070393529E+01
 0.6398972457781E+01
 0.6290402638446E+01
 0.6170692211585E+01
 0.6041518060334E+01
 0.5904214879660E+01
 0.5760237493031E+01
 0.5611434173501E+01
 0.5459332912464E+01
 0.5304454082238E+01
 0.5146431308781E+01
 0.4984306521943E+01
 0.4816828795581E+01
 0.4642729871516E+01
 0.4460963647868E+01
 0.4270926069184E+01
 0.4072683383361E+01
 0.3867157388885E+01
 0.3656434708127E+01
 0.3444496846639E+01
 0.3238281000895E+01
 0.3049109431896E+01
 0.2894801441314E+01
 0.2802600038560E+01
 0.2812217883172E+01
 0.2976154267244E+01
 0.3353078867941E+01
 0.3992793219201E+01
 0.4915428286414E+01
 0.6090225570594E+01
 0.7425052269875E+01
 0.5469465403123E+01
 0.5675244980356E+01
 0.5886106218508E+01
 0.6076867891141E+01
 0.6228929983712E+01
 0.6333535655547E+01
 0.6390521833112E+01
 0.6404974463735E+01
 0.6384022700790E+01
 0.6334732061730E+01
 0.6263093795375E+01
 0.6173751095764E+01
 0.6070116088759E+01
 0.5954650952929E+01
 0.5829179669898E+01
 0.5695153651679E+01
 0.5554077655801E+01
 0.5407777385253E+01
 0.5257750229150E+01
 0.5104547248245E+01
 0.4947909194432E+01
 0.4787049086209E+01
 0.4620929531421E+01
 0.4448521942868E+01
 0.4269043199949E+01
 0.4082186658712E+01
 0.3888370189167E+01
 0.3688950433535E+01
 0.3486556465824E+01
 0.3285814423996E+01
 0.3094380769898E+01
 0.2924319800677E+01
 0.2794073480533E+01
 0.2730962400823E+01
 0.2773164137672E+01
 0.2968308999947E+01
 0.3365889862998E+01
 0.4004127307556E+01
 0.4893593164565E+01
 0.6002761893000E+01
 0.7243907449092E+01
 0.5258929451937E+01
 0.5448822915749E+01
 0.5644525624855E+01
 0.5824039472736E+01
 0.5970347454044E+01
 0.6074455495998E+01
 0.6134847045385E+01
 0.6154991554112E+01
 0.6140674292874E+01
 0.6098064318999E+01
 0.6032663613177E+01
 0.5948919506642E+01
 0.5850229521419E+01
 0.5739134281373E+01
 0.5617564435514E+01
 0.5487062170311E+01
 0.5349172121914E+01
 0.5205700717994E+01
 0.5058124223807E+01
 0.4907032213689E+01
 0.4752275486572E+01
 0.4593238268863E+01
 0.4429098060680E+01
 0.4259070816727E+01
 0.4082643582825E+01
 0.3899812085016E+01
 0.3711341709771E+01
 0.3519002393622E+01
 0.3325917953806E+01
 0.3137278048622E+01
 0.2961336525815E+01
 0.2810722552575E+01
 0.2704233541704E+01
 0.2668856266255E+01
 0.2740717295740E+01
 0.2962371618742E+01
 0.3375021027946E+01
 0.4007405763916E+01
 0.4863344625065E+01
 0.5910394845059E+01
 0.7073992059149E+01
 0.5052290323600E+01
 0.5227760597255E+01
 0.5409454400600E+01
 0.5578087755064E+01
 0.5718154695052E+01
 0.5820693349615E+01
 0.5883209154851E+01
 0.5907850533395E+01
 0.5899215023447E+01
 0.5862617674522E+01
 0.5803049065423E+01
 0.5724712720587E+01
 0.5630939326707E+01
 0.5524301055270E+01
 0.5406798181269E+01
 0.5280039430754E+01
 0.5145599025561E+01
 0.5005265470792E+01
 0.4860500900886E+01
 0.4711939420982E+01
 0.4559543818577E+01
 0.4402868531518E+01
 0.4241304902071E+01
 0.4074314014347E+01
 0.3901654230169E+01
 0.3723621434651E+01
 0.3541317065829E+01
 0.3356896471317E+01
 0.3173926664966E+01
 0.2998079925249E+01
 0.2838091010557E+01
 0.2706987854008E+01
 0.2623676164155E+01
 0.2614449858809E+01
 0.2713008133796E+01
 0.2956857433347E+01
 0.3379850162005E+01
 0.4003117711151E+01
 0.4825390965767E+01
 0.5814979724777E+01
 0.6906747453255E+01
 0.4849128401482E+01
 0.5011457275923E+01
 0.5180190948925E+01
 0.5338368059842E+01
 0.5471898059190E+01
 0.5572035282344E+01
 0.5635604208388E+01
 0.5663690428714E+01
 0.5659859181127E+01
 0.5628630807997E+01
 0.5574481590305E+01
 0.5501338214691E+01
 0.5412422078288E+01
 0.5310296085668E+01
 0.5196996825550E+01
 0.5074177145402E+01
 0.4943430447221E+01
 0.4806526992421E+01
 0.4664919536813E+01
 0.4519290934247E+01
 0.4369716746032E+01
 0.4215919421867E+01
 0.4057500929054E+01
 0.3894164422496E+01
 0.3725935686951E+01
 0.3553402699640E+01
 0.3377985762033E+01
 0.3202193380580E+01
 0.3029982606133E+01
 0.2867429854970E+01
 0.2723641401825E+01
 0.2611889804886E+01
 0.2550963844046E+01
 0.2566161409990E+01
 0.2688509597213E+01
 0.2950653844710E+01
 0.3380054493562E+01
 0.3991714030093E+01
 0.4780784212882E+01
 0.5716634572170E+01
 0.6742421018982E+01
 0.4649081018260E+01
 0.4799396834064E+01
 0.4956124631655E+01
 0.5104299011431E+01
 0.5231139561990E+01
 0.5328238983989E+01
 0.5391973673398E+01
 0.5422588173144E+01
 0.5422763713899E+01
 0.5396295029011E+01
 0.5347155838625E+01
 0.5278975850307E+01
 0.5194834043558E+01
 0.5097249454061E+01
 0.4988265559565E+01
 0.4869558817414E+01
 0.4742731447387E+01
 0.4609533751943E+01
 0.4471411881555E+01
 0.4329099933754E+01
 0.4182785790994E+01
 0.4032356481071E+01
 0.3877619439693E+01
 0.3718513763003E+01
 0.3555324638004E+01
 0.3388919432136E+01
 0.3221015892634E+01
 0.3054440773844E+01
 0.2893488168408E+01
 0.2744564080657E+01
 0.2617044813630E+01
 0.2524305711202E+01
 0.2484816668591E+01
 0.2522634289893E+01
 0.2665983104505E+01
 0.2942947761572E+01
 0.3375489087942E+01
 0.3973728566564E+01
 0.4730279269466E+01
 0.5616002893926E+01
 0.6581092314092E+01
 0.4451831567979E+01
 0.4591131809235E+01
 0.4736720659198E+01
 0.4875356022286E+01
 0.4995461261369E+01
 0.5089045245134E+01
 0.5152217364554E+01
 0.5184569115613E+01
 0.5188035087725E+01
 0.5165757973621E+01
 0.5121231267547E+01
 0.5057778295576E+01
 0.4978311015930E+01
 0.4885276035423E+01
 0.4780698186918E+01
 0.4666258985858E+01
 0.4543559308586E+01
 0.4414326661525E+01
 0.4280001648006E+01
 0.4141370502485E+01
 0.3998731729435E+01
 0.3852132287294E+01
 0.3701578209374E+01
 0.3547235857253E+01
 0.3389638505861E+01
 0.3229916685669E+01
 0.3070061268715E+01
 0.2913181128295E+01
 0.2763855923764E+01
 0.2628751565880E+01
 0.2517421058280E+01
 0.2443213003866E+01
 0.2424100903802E+01
 0.2482711730368E+01
 0.2644433441323E+01
 0.2933153462701E+01
 0.3366148990512E+01
 0.3949667411227E+01
 0.4674588044480E+01
 0.5513505011324E+01
 0.6422357205727E+01
 0.4257100975965E+01
 0.4386270782072E+01
 0.4521507597573E+01
 0.4651064834063E+01
 0.4764467234852E+01
 0.4854186168044E+01
 0.4916203747657E+01
 0.4949616133072E+01
 0.4955735787003E+01
 0.4937127524462E+01
 0.4896834149811E+01
 0.4837871838484E+01
 0.4762968442732E+01
 0.4674475237304E+01
 0.4574376643494E+01
 0.4464342651059E+01
 0.4345962975082E+01
 0.4220938619875E+01
 0.4090704240087E+01
 0.3956097647673E+01
 0.3817525069689E+01
 0.3675187597799E+01
 0.3529281505099E+01
 0.3380189677190E+01
 0.3228679620697E+01
 0.3076126264555E+01
 0.2924767528489E+01
 0.2777958231592E+01
 0.2640514621524E+01
 0.2519298185444E+01
 0.2423953345741E+01
 0.2367684684347E+01
 0.2367816916469E+01
 0.2445413142458E+01
 0.2623067011990E+01
 0.2920862198756E+01
 0.3352116096998E+01
 0.3920015446665E+01
 0.4614315897790E+01
 0.5409374116044E+01
 0.6265872152533E+01
 0.4064640940434E+01
 0.4184468329472E+01
 0.4310067025241E+01
 0.4430995407672E+01
 0.4537783981085E+01
 0.4623390914853E+01
 0.4683778051262E+01
 0.4717677398248E+01
 0.4725890303090E+01
 0.4710475756240E+01
 0.4674059842770E+01
 0.4619357499850E+01
 0.4548901812264E+01
 0.4464930949949E+01
 0.4369370701917E+01
 0.4263864878840E+01
 0.4149982676370E+01
 0.4029394247872E+01
 0.3903526678252E+01
 0.3773267509263E+01
 0.3639126676225E+01
 0.3501452554193E+01
 0.3360622039617E+01
 0.3217222174831E+01
 0.3072238969705E+01
 0.2927271312450E+01
 0.2784777304491E+01
 0.2648322415443E+01
 0.2522913651744E+01
 0.2415549245423E+01
 0.2335887495177E+01
 0.2296883832070E+01
 0.2315087108285E+01
 0.2409911692531E+01
 0.2601256584379E+01
 0.2905799594732E+01
 0.3333528539133E+01
 0.3885224320577E+01
 0.4549958173597E+01
 0.5303776926064E+01
 0.6111355813249E+01
 0.3874228521242E+01
 0.3985416951419E+01
 0.4102024947950E+01
 0.4214756302361E+01
 0.4315059815401E+01
 0.4396389616224E+01
 0.4454768577194E+01
 0.4488672910762E+01
 0.4498490534486E+01
 0.4485842767461E+01
 0.4452975192816E+01
 0.4402312365170E+01
 0.4336187260102E+01
 0.4256711693491E+01
 0.4165737856120E+01
 0.4064870577135E+01
 0.3955649720238E+01
 0.3839709792449E+01
 0.3718467689320E+01
 0.3592857716854E+01
 0.3463488501517E+01
 0.3330847921343E+01
 0.3195482847820E+01
 0.3058170886864E+01
 0.2920099540211E+01
 0.2783070280859E+01
 0.2649734531602E+01
 0.2523834689921E+01
 0.2410526226295E+01
 0.2316890700290E+01
 0.2252530096859E+01
 0.2230057619195E+01
 0.2265144097176E+01
 0.2375513779294E+01
 0.2578511060626E+01
 0.2887792764988E+01
 0.3310558593992E+01
 0.3845705290682E+01
 0.4481928269867E+01
 0.5196853067262E+01
 0.5958574792726E+01
 0.3685661764065E+01
 0.3788840528822E+01
 0.3897044648326E+01
 0.4001989593301E+01
 0.4095963648639E+01
 0.4172915917920E+01
 0.4228991550616E+01
 0.4262499925086E+01
 0.4273500576271E+01
 0.4263240306670E+01
 0.4233620979364E+01
 0.4186791065402E+01
 0.4124882354492E+01
 0.4049870942715E+01
 0.3963523375508E+01
 0.3867394434822E+01
 0.3762986440916E+01
 0.3651893177964E+01
 0.3535517933553E+01
 0.3414837864110E+01
 0.3290554395797E+01
 0.3163286335973E+01
 0.3033739072030E+01
 0.2902866315128E+01
 0.2772039276214E+01
 0.2643240324649E+01
 0.2519287984643E+01
 0.2404069928208E+01
 0.2302851507181E+01
 0.2222749375311E+01
 0.2173245971527E+01
 0.2166531119751E+01
 0.2217319405124E+01
 0.2341640480877E+01
 0.2554450061921E+01
 0.2866744971450E+01
 0.3283396800648E+01
 0.3801830474412E+01
 0.4410579980333E+01
 0.5088727820268E+01
 0.5807333644823E+01
 0.3498756128321E+01
 0.3594488978235E+01
 0.3694820705862E+01
 0.3792366325292E+01
 0.3880183412118E+01
 0.3952708527621E+01
 0.4006254798279E+01
 0.4039037416211E+01
 0.4050860912356E+01
 0.4042655138540E+01
 0.4016014327773E+01
 0.3972827348662E+01
 0.3915027022951E+01
 0.3844447607349E+01
 0.3762760514689E+01
 0.3671461010396E+01
 0.3572006288007E+01
 0.3465944187046E+01
 0.3354660346827E+01
 0.3239170075856E+01
 0.3120260970736E+01
 0.2998673546340E+01
 0.2875259647285E+01
 0.2751134087939E+01
 0.2627833672291E+01
 0.2507500175476E+01
 0.2393094135003E+01
 0.2288619243817E+01
 0.2199415885841E+01
 0.2132592449744E+01
 0.2097455187474E+01
 0.2105701122268E+01
 0.2171032805131E+01
 0.2307811016001E+01
 0.2528782836282E+01
 0.2842616074048E+01
 0.3252241562972E+01
 0.3753936882298E+01
 0.4336222200849E+01
 0.4979516230578E+01
 0.5657467864735E+01
 0.3313341544517E+01
 0.3402133848898E+01
 0.3495073972063E+01
 0.3585582472017E+01
 0.3667424303851E+01
 0.3735512034847E+01
 0.3786360494809E+01
 0.3818149720321E+01
 0.3830492046724E+01
 0.3824052123219E+01
 0.3800151042090E+01
 0.3760435696673E+01
 0.3706644586245E+01
 0.3640466645501E+01
 0.3563470863186E+01
 0.3477084957343E+01
 0.3382714042707E+01
 0.3281854755520E+01
 0.3175870580113E+01
 0.3065809648566E+01
 0.2952538498887E+01
 0.2836909629661E+01
 0.2719908882260E+01
 0.2602796911086E+01
 0.2487258032110E+01
 0.2375572545824E+01
 0.2270819413715E+01
 0.2177091691444E+01
 0.2099773590702E+01
 0.2045926407635E+01
 0.2024629829841E+01
 0.2047030090314E+01
 0.2125782423717E+01
 0.2273628189862E+01
 0.2501290884134E+01
 0.2815407629363E+01
 0.3217292569103E+01
 0.3702330695100E+01
 0.4259128430405E+01
 0.4869324661180E+01
 0.5508839029978E+01
 0.3129259968405E+01
 0.3211564666394E+01
 0.3297547325825E+01
 0.3381355356478E+01
 0.3457406970250E+01
 0.3521077208154E+01
 0.3569107173651E+01
 0.3599689478121E+01
 0.3612297622991E+01
 0.3607377003006E+01
 0.3586007826377E+01
 0.3549612951019E+01
 0.3499742871108E+01
 0.3437939789396E+01
 0.3365664819698E+01
 0.3284271373456E+01
 0.3195106149260E+01
 0.3099609368864E+01
 0.2999117522639E+01
 0.2894705750099E+01
 0.2787311836186E+01
 0.2677890179205E+01
 0.2567547936013E+01
 0.2457676321079E+01
 0.2350089421289E+01
 0.2247186116634E+01
 0.2152141964082E+01
 0.2069115409996E+01
 0.2003506774196E+01
 0.1962295620870E+01
 0.1954290665151E+01
 0.1990040368930E+01
 0.2081135655517E+01
 0.2238765718221E+01
 0.2471813752528E+01
 0.2785151619499E+01
 0.3178746661233E+01
 0.3647291021261E+01
 0.4179543178045E+01
 0.4758251762306E+01
 0.5361331222433E+01
 0.2946363329913E+01
 0.3022585871124E+01
 0.3102002066691E+01
 0.3179420482850E+01
 0.3249865695727E+01
 0.3309160921495E+01
 0.3354291162289E+01
 0.3383499996063E+01
 0.3396167088256E+01
 0.3392558905378E+01
 0.3373544378084E+01
 0.3340339924825E+01
 0.3294315379080E+01
 0.3236866365487E+01
 0.3169342177158E+01
 0.3093016262996E+01
 0.3009171151953E+01
 0.2919185550954E+01
 0.2824363899481E+01
 0.2725802169802E+01
 0.2624501360496E+01
 0.2521507458372E+01
 0.2418036195437E+01
 0.2315594256725E+01
 0.2216108346176E+01
 0.2122077160562E+01
 0.2036752961348E+01
 0.1964338312917E+01
 0.1910225206151E+01
 0.1881280693692E+01
 0.1886003804664E+01
 0.1934308702764E+01
 0.2036720910517E+01
 0.2202957285039E+01
 0.2440237491442E+01
 0.2751901951221E+01
 0.3136795260958E+01
 0.3589073050954E+01
 0.4097686587462E+01
 0.4646389396157E+01
 0.5214848302754E+01
 0.2764511797505E+01
 0.2835014232742E+01
 0.2908214829888E+01
 0.2979528729553E+01
 0.3044546644018E+01
 0.3099525822229E+01
 0.3141707570696E+01
 0.3169417127755E+01
 0.3181977959764E+01
 0.3179512582142E+01
 0.3162705349112E+01
 0.3132582985310E+01
 0.3090342495558E+01
 0.3037234195391E+01
 0.2974492808024E+01
 0.2903307103681E+01
 0.2824890231509E+01
 0.2740554440216E+01
 0.2651566939582E+01
 0.2559038116015E+01
 0.2464023925365E+01
 0.2367651525075E+01
 0.2271232563454E+01
 0.2176374468874E+01
 0.2085100191716E+01
 0.1999990851275E+01
 0.1924357570436E+01
 0.1862428417595E+01
 0.1819565678465E+01
 0.1802496668645E+01
 0.1819377440631E+01
 0.1879461107841E+01
 0.1992220187322E+01
 0.2165987168742E+01
 0.2406485315828E+01
 0.2715728049130E+01
 0.3091622803822E+01
 0.3527910714885E+01
 0.4013758010080E+01
 0.4533823613296E+01
 0.5069311750647E+01
 0.2583572295599E+01
 0.2648676646608E+01
 0.2715974928092E+01
 0.2781443855485E+01
 0.2841206175800E+01
 0.2891939823933E+01
 0.2931150937083E+01
 0.2957270765684E+01
 0.2969597753340E+01
 0.2968140412592E+01
 0.2953422180731E+01
 0.2926295602360E+01
 0.2887792730835E+01
 0.2839020570068E+01
 0.2781097444376E+01
 0.2715123515474E+01
 0.2642237840084E+01
 0.2563681454319E+01
 0.2480679116958E+01
 0.2394349065450E+01
 0.2305793835883E+01
 0.2216211337038E+01
 0.2126996674187E+01
 0.2039843792455E+01
 0.1956856453159E+01
 0.1880682307203E+01
 0.1814675606035E+01
 0.1763073892851E+01
 0.1731191206736E+01
 0.1725591170440E+01
 0.1754058707724E+01
 0.1825168121285E+01
 0.1947362445967E+01
 0.2127682264895E+01
 0.2370510077847E+01
 0.2676710032556E+01
 0.3043405851364E+01
 0.3464018973422E+01
 0.3927938919981E+01
 0.4420635649897E+01
 0.4924658909810E+01
 0.2403417225417E+01
 0.2463408237265E+01
 0.2525082041579E+01
 0.2584940274862E+01
 0.2639609254428E+01
 0.2686175485651E+01
 0.2722415615714E+01
 0.2746886023225E+01
 0.2758885632457E+01
 0.2758334205484E+01
 0.2745614828583E+01
 0.2721419868513E+01
 0.2686623994183E+01
 0.2642193297963E+01
 0.2589128555171E+01
 0.2528438036012E+01
 0.2461182442437E+01
 0.2388527053593E+01
 0.2311648977638E+01
 0.2231667679240E+01
 0.2149723863875E+01
 0.2067075858355E+01
 0.1985190059525E+01
 0.1905833310669E+01
 0.1831175798754E+01
 0.1763917416362E+01
 0.1707441952717E+01
 0.1665982891725E+01
 0.1644790097944E+01
 0.1650242545618E+01
 0.1689730705834E+01
 0.1771140440215E+01
 0.1901917739764E+01
 0.2087905336250E+01
 0.2332288216847E+01
 0.2634935097306E+01
 0.2992312673297E+01
 0.3397595833239E+01
 0.3840395380340E+01
 0.4306902900360E+01
 0.4780841538922E+01
 0.2223923349361E+01
 0.2279050708341E+01
 0.2335344191836E+01
 0.2389801060154E+01
 0.2439527943650E+01
 0.2482009324120E+01
 0.2515295977422E+01
 0.2538084179708E+01
 0.2549693837990E+01
 0.2549976842387E+01
 0.2539193405261E+01
 0.2517888008303E+01
 0.2486784914562E+01
 0.2446711840077E+01
 0.2398551335268E+01
 0.2343217020151E+01
 0.2281687384152E+01
 0.2215047627499E+01
 0.2144422079859E+01
 0.2070924815956E+01
 0.1995726335109E+01
 0.1920135201963E+01
 0.1845677303495E+01
 0.1774179449621E+01
 0.1707865004449E+01
 0.1649473487726E+01
 0.1602406796632E+01
 0.1570883226112E+01
 0.1560074939418E+01
 0.1576158041475E+01
 0.1626109708725E+01
 0.1717124951352E+01
 0.1855692056844E+01
 0.2046549331597E+01
 0.2291814913553E+01
 0.2590494821414E+01
 0.2938503164121E+01
 0.3328824156803E+01
 0.3751280176820E+01
 0.4192699829821E+01
 0.4637824613673E+01
 0.2044970806318E+01
 0.2095450889389E+01
 0.2146575944228E+01
 0.2195816136778E+01
 0.2240739996779E+01
 0.2279221096028E+01
 0.2309586485001E+01
 0.2330683458672E+01
 0.2341868963572E+01
 0.2342943816192E+01
 0.2334059783435E+01
 0.2315623912511E+01
 0.2288216240213E+01
 0.2252528564286E+01
 0.2209324840978E+01
 0.2159421702241E+01
 0.2103711930123E+01
 0.2043196552069E+01
 0.1978942099686E+01
 0.1912050696999E+01
 0.1843714345741E+01
 0.1775281865286E+01
 0.1708327239730E+01
 0.1644725055174E+01
 0.1586739808643E+01
 0.1537139775075E+01
 0.1499335715084E+01
 0.1477521930475E+01
 0.1476781552823E+01
 0.1503072056724E+01
 0.1562942574636E+01
 0.1662901145840E+01
 0.1808522817373E+01
 0.2003532629402E+01
 0.2249100225979E+01
 0.2543483185488E+01
 0.2882129001134E+01
 0.3257873306636E+01
 0.3660734684782E+01
 0.4078098809517E+01
 0.4495585324375E+01
 0.1866442230940E+01
 0.1912459438549E+01
 0.1958596793704E+01
 0.2002780637490E+01
 0.2043027535690E+01
 0.2077593083647E+01
 0.2105081704214E+01
 0.2124499714295E+01
 0.2135253154077E+01
 0.2137104738295E+01
 0.2130109227505E+01
 0.2114544761531E+01
 0.2090852380500E+01
 0.2059590184352E+01
 0.2021403341887E+01
 0.1977009496797E+01
 0.1927212555642E+01
 0.1872925507295E+01
 0.1815152196682E+01
 0.1754976322719E+01
 0.1693603206891E+01
 0.1632412154272E+01
 0.1573014278913E+01
 0.1517320526587E+01
 0.1467625747725E+01
 0.1426717922410E+01
 0.1398009666294E+01
 0.1385664753768E+01
 0.1394667947617E+01
 0.1430744488120E+01
 0.1500004368924E+01
 0.1608277908873E+01
 0.1760274971161E+01
 0.1958795078475E+01
 0.2204166027386E+01
 0.2493995150136E+01
 0.2823333977746E+01
 0.3184900651272E+01
 0.3568890513881E+01
 0.3963170865650E+01
 0.4354112237646E+01
 0.1688221954151E+01
 0.1729929666357E+01
 0.1771229694086E+01
 0.1810493388948E+01
 0.1846175820724E+01
 0.1876909421148E+01
 0.1901576320681E+01
 0.1919347119439E+01
 0.1929685333409E+01
 0.1932324926028E+01
 0.1927232167596E+01
 0.1914562853890E+01
 0.1894623209972E+01
 0.1867839509740E+01
 0.1834738023367E+01
 0.1795935681676E+01
 0.1752144644477E+01
 0.1704186218588E+01
 0.1652996811506E+01
 0.1599635314864E+01
 0.1545312290542E+01
 0.1491427958307E+01
 0.1439620008685E+01
 0.1391825121656E+01
 0.1350359056344E+01
 0.1318022388170E+01
 0.1298224919576E+01
 0.1295095611948E+01
 0.1313513300983E+01
 0.1358959191433E+01
 0.1437096204827E+01
 0.1553090670577E+01
 0.1710837641532E+01
 0.1912294724209E+01
 0.2157043601544E+01
 0.2442125670969E+01
 0.2762254464156E+01
 0.3110052951569E+01
 0.3475870960910E+01
 0.3847986340601E+01
 0.4213404591979E+01
 0.1510195265354E+01
 0.1547716450847E+01
 0.1584299696616E+01
 0.1618755508588E+01
 0.1649972121621E+01
 0.1676955516196E+01
 0.1698865263383E+01
 0.1715038995425E+01
 0.1725002631154E+01
 0.1728467260669E+01
 0.1725316321407E+01
 0.1715587858316E+01
 0.1699456365941E+01
 0.1677217751701E+01
 0.1649279300823E+01
 0.1616155741466E+01
 0.1578464888249E+01
 0.1536932931385E+01
 0.1492424214986E+01
 0.1445966507593E+01
 0.1398767589563E+01
 0.1352239163541E+01
 0.1308035310986E+01
 0.1268108621671E+01
 0.1234787759410E+01
 0.1210880922683E+01
 0.1199792967026E+01
 0.1205616027936E+01
 0.1233116985523E+01
 0.1287522571134E+01
 0.1374043305976E+01
 0.1497198902967E+01
 0.1660121264202E+01
 0.1864005124398E+01
 0.2107771778908E+01
 0.2387969059997E+01
 0.2699019960613E+01
 0.3033467641823E+01
 0.3381792295542E+01
 0.3732615468449E+01
 0.4073471700229E+01
 0.1332247719213E+01
 0.1365675217651E+01
 0.1397632667637E+01
 0.1427369098832E+01
 0.1454204721855E+01
 0.1477517666943E+01
 0.1496744111836E+01
 0.1511389034155E+01
 0.1521042321496E+01
 0.1525394679705E+01
 0.1524249567683E+01
 0.1517529926608E+01
 0.1505280507057E+01
 0.1487667882380E+01
 0.1464980271864E+01
 0.1437628926433E+01
 0.1406134969611E+01
 0.1371126223935E+01
 0.1333390426949E+01
 0.1293917902712E+01
 0.1253905581223E+01
 0.1214767237159E+01
 0.1178163440086E+01
 0.1146053685301E+01
 0.1120773164847E+01
 0.1105135207469E+01
 0.1102540463550E+01
 0.1117044581609E+01
 0.1153297661661E+01
 0.1216262311009E+01
 0.1310693293201E+01
 0.1440483947468E+01
 0.1608055173938E+01
 0.1813913172769E+01
 0.2056395520113E+01
 0.2331618623444E+01
 0.2633753718333E+01
 0.2955274018502E+01
 0.3286764900143E+01
 0.3617128867920E+01
 0.3934332433305E+01
 0.1154264471751E+01
 0.1183660961524E+01
 0.1211054059111E+01
 0.1236136043627E+01
 0.1258662143800E+01
 0.1278383090006E+01
 0.1295010155492E+01
 0.1308213435134E+01
 0.1317644935113E+01
 0.1322974079374E+01
 0.1323924440494E+01
 0.1320304612535E+01
 0.1312030543014E+01
 0.1299140115614E+01
 0.1281802429779E+01
 0.1260324201147E+01
 0.1235127747501E+01
 0.1206739408787E+01
 0.1175865767250E+01
 0.1143453230128E+01
 0.1110679565306E+01
 0.1078951023212E+01
 0.1049924909565E+01
 0.1025559503321E+01
 0.1008192128511E+01
 0.1000641833126E+01
 0.1006309256783E+01
 0.1029216389538E+01
 0.1073892448747E+01
 0.1145026257433E+01
 0.1246914698545E+01
 0.1382847158286E+01
 0.1554585596544E+01
 0.1762017361022E+01
 0.2002964871604E+01
 0.2273166522277E+01
 0.2566573410874E+01
 0.2875594349310E+01
 0.3190894283113E+01
 0.3501597955772E+01
 0.3796014760340E+01
 0.9761296323652E+00
 0.1001527288053E+01
 0.1024387710741E+01
 0.1044856957225E+01
 0.1063132829887E+01
 0.1079340887814E+01
 0.1093464990514E+01
 0.1105335207714E+01
 0.1114660125010E+01
 0.1121083483422E+01
 0.1124246317914E+01
 0.1123841840466E+01
 0.1119657215048E+01
 0.1111602002693E+01
 0.1099726229825E+01
 0.1084231257952E+01
 0.1065438683539E+01
 0.1043770296453E+01
 0.1019846799628E+01
 0.9945637875596E+00
 0.9690709603390E+00
 0.9447569174319E+00
 0.9232659174545E+00
 0.9065479680600E+00
 0.8969408001857E+00
 0.8972739315436E+00
 0.9109566003465E+00
 0.9419826330104E+00
 0.9947561872237E+00
 0.1073681468742E+01
 0.1182595711308E+01
 0.1324208348932E+01
 0.1499674008918E+01
 0.1708326421447E+01
 0.1947534232982E+01
 0.2212703814007E+01
 0.2497591844679E+01
 0.2794544916096E+01
 0.3094281984768E+01
 0.3386095283188E+01
 0.3658555319525E+01
 0.7977256215225E+00
 0.8191254578546E+00
 0.8374546740211E+00
 0.8533304690138E+00
 0.8674059656446E+00
 0.8801854414328E+00
 0.8919211170708E+00
 0.9025940972830E+00
 0.9119596325052E+00
 0.9196275396978E+00
 0.9251509035922E+00
 0.9281049089686E+00
 0.9281472891242E+00
 0.9250596068572E+00
 0.9187731214256E+00
 0.9093833103129E+00
 0.8971092699119E+00
 0.8822650498058E+00
 0.8653802500904E+00
 0.8472918208025E+00
 0.8291112627130E+00
 0.8121982954373E+00
 0.7981741053997E+00
 0.7889749457613E+00
 0.7869413067818E+00
 0.7949240761857E+00
 0.8163557121358E+00
 0.8552101541934E+00
 0.9157608041935E+00
 0.1002113448631E+01
 0.1117643165013E+01
 0.1264504532402E+01
 0.1443295835585E+01
 0.1652858302096E+01
 0.1890161887537E+01
 0.2150320643623E+01
 0.2426917701934E+01
 0.2712237006391E+01
 0.2997026395576E+01
 0.3270694797666E+01
 0.3521998991628E+01
 0.6189325341109E+00
 0.6363034264249E+00
 0.6500720879672E+00
 0.6613535137856E+00
 0.6712757767833E+00
 0.6807272188640E+00
 0.6902207543354E+00
 0.6998735812323E+00
 0.7094715748376E+00
 0.7185776682313E+00
 0.7266487476100E+00
 0.7331381391199E+00
 0.7375734323891E+00
 0.7396090209148E+00
 0.7390583237201E+00
 0.7359108053454E+00
 0.7302812948248E+00
 0.7223724550986E+00
 0.7126164207036E+00
 0.7017817283651E+00
 0.6909291470888E+00
 0.6813762437151E+00
 0.6747107636464E+00
 0.6728526577658E+00
 0.6781546157767E+00
 0.6935097456204E+00
 0.7223969893267E+00
 0.7687811462472E+00
 0.8367947969992E+00
 0.9302255907657E+00
 0.1051981781279E+01
 0.1203688950266E+01
 0.1385439455989E+01
 0.1595639435396E+01
 0.1830909757041E+01
 0.2086106558258E+01
 0.2354656311729E+01
 0.2628777869948E+01
 0.2899223509210E+01
 0.3155472033509E+01
 0.3386398446022E+01
 0.4396275568210E+00
 0.4529049243784E+00
 0.4620523220970E+00
 0.4687255933564E+00
 0.4745594688359E+00
 0.4808326893816E+00
 0.4883023610816E+00
 0.4971937447547E+00
 0.5072955707245E+00
 0.5181035573327E+00
 0.5289673298595E+00
 0.5392149135839E+00
 0.5482449963603E+00
 0.5555878781269E+00
 0.5609418047216E+00
 0.5641908860292E+00
 0.5653437155125E+00
 0.5644868112607E+00
 0.5619460043622E+00
 0.5584076162061E+00
 0.5548644625550E+00
 0.5525751640682E+00
 0.5530839374921E+00
 0.5582986299842E+00
 0.5706075295388E+00
 0.5929843412144E+00
 0.6289905424207E+00
 0.6825929785333E+00
 0.7577628557484E+00
 0.8579388791061E+00
 0.9855536987327E+00
 0.1141730392774E+01
 0.1326105503336E+01
 0.1536704269137E+01
 0.1769843349691E+01
 0.2020150924705E+01
 0.2280910446444E+01
 0.2544271657936E+01
 0.2800967637568E+01
 0.3040504236842E+01
 0.3251813624506E+01
 0.2596848448596E+00
 0.2687690023482E+00
 0.2732039598099E+00
 0.2752769026758E+00
 0.2771973574303E+00
 0.2806395478214E+00
 0.2865511231714E+00
 0.2951868213223E+00
 0.3062710196945E+00
 0.3191947697965E+00
 0.3331914728878E+00
 0.3474725103197E+00
 0.3613228917151E+00
 0.3741632302701E+00
 0.3855863397636E+00
 0.3953743756234E+00
 0.4034273340876E+00
 0.4097083524364E+00
 0.4144224384233E+00
 0.4181508439484E+00
 0.4217917181160E+00
 0.4265225757906E+00
 0.4338382210672E+00
 0.4456566133895E+00
 0.4644557810894E+00
 0.4933614478486E+00
 0.5360716039897E+00
 0.5965582358754E+00
 0.6785856602248E+00
 0.7851919214821E+00
 0.9183183356701E+00
 0.1078612822064E+01
 0.1265306442957E+01
 0.1476095036463E+01
 0.1707031876740E+01
 0.1952543431521E+01
 0.2205781138771E+01
 0.2458820362582E+01
 0.2702352122982E+01
 0.2925870437453E+01
 0.3118311121946E+01
 0.7898402768698E-01
 0.8373847197901E-01
 0.8336556045420E-01
 0.8132371444002E-01
 0.8086240526792E-01
 0.8393457784629E-01
 0.9094019407747E-01
 0.1013870818214E+00
 0.1146133975232E+00
 0.1300165735285E+00
 0.1469988228352E+00
 0.1649195552753E+00
 0.1831258090912E+00
 0.2010197611248E+00
 0.2181211700854E+00
 0.2341065197710E+00
 0.2487470476467E+00
 0.2618556994412E+00
 0.2734759550117E+00
 0.2840292218322E+00
 0.2942659867814E+00
 0.3052517940101E+00
 0.3184453424840E+00
 0.3358480787823E+00
 0.3601541968262E+00
 0.3947749925016E+00
 0.4436129185504E+00
 0.5106051480075E+00
 0.5991999197438E+00
 0.7119414588186E+00
 0.8502526713796E+00
 0.1014335325703E+01
 0.1203066426591E+01
 0.1413861749026E+01
 0.1642548519488E+01
 0.1883374658516E+01
 0.2129368509697E+01
 0.2372524772445E+01
 0.2603470093459E+01
 0.2811651496007E+01
 0.2985963406559E+01
 0.1026805479455E+00
 0.1024375528011E+00
 0.1079368294590E+00
 0.1165479146472E+00
 0.1254372083014E+00
 0.1320401052822E+00
 0.1346706091013E+00
 0.1327566866681E+00
 0.1267635034899E+00
 0.1179951924102E+00
 0.1083947101439E+00
 0.1003239837600E+00
 0.9612634615283E-01
 0.9730581456765E-01
 0.1038283872189E+00
 0.1144032288873E+00
 0.1273789249619E+00
 0.1413054001018E+00
 0.1552072592858E+00
 0.1687144172257E+00
 0.1820184073964E+00
 0.1958643171695E+00
 0.2116601268690E+00
 0.2316528658015E+00
 0.2590171857354E+00
 0.2976554948307E+00
 0.3516566996105E+00
 0.4246788616345E+00
 0.5195588047050E+00
 0.6381636267112E+00
 0.7813520967691E+00
 0.9489124515324E+00
 0.1139421429440E+01
 0.1350062405483E+01
 0.1576470834805E+01
 0.1812736696826E+01
 0.2051772588145E+01
 0.2285485449007E+01
 0.2504415322846E+01
 0.2697930176727E+01
 0.2854847829928E+01
 0.2853461669976E+00
 0.2898292826479E+00
 0.3005244525761E+00
 0.3137721048564E+00
 0.3259932961805E+00
 0.3342393321550E+00
 0.3366211512094E+00
 0.3324122261329E+00
 0.3218762468360E+00
 0.3059657265569E+00
 0.2860158691066E+00
 0.2635013453747E+00
 0.2398751895395E+00
 0.2164787151251E+00
 0.1944957907673E+00
 0.1749229795083E+00
 0.1586026267385E+00
 0.1461354125058E+00
 0.1375457228390E+00
 0.1322770999924E+00
 0.1296800961434E+00
 0.1296663930471E+00
 0.1334132966016E+00
 0.1439042080061E+00
 0.1656768390670E+00
 0.2033912894989E+00
 0.2604135790253E+00
 0.3387449168601E+00
 0.4396331317365E+00
 0.5638565429592E+00
 0.7116321103542E+00
 0.8823750141762E+00
 0.1074419690532E+01
 0.1284763416212E+01
 0.1508881295412E+01
 0.1740723804241E+01
 0.1973094087482E+01
 0.2197803708149E+01
 0.2405283272733E+01
 0.2584791350407E+01
 0.2725045330450E+01
 0.4692241183767E+00
 0.4787015617313E+00
 0.4948646601009E+00
 0.5132411990661E+00
 0.5295707380601E+00
 0.5404740006757E+00
 0.5438749981372E+00
 0.5390409596648E+00
 0.5263333810463E+00
 0.5068380477137E+00
 0.4820077947956E+00
 0.4533860248113E+00
 0.4224258368923E+00
 0.3903891795743E+00
 0.3582982058043E+00
 0.3269154855163E+00
 0.2968431142051E+00
 0.2685694450449E+00
 0.2421654106912E+00
 0.2170996100477E+00
 0.1924354556693E+00
 0.1671856428852E+00
 0.1410180415766E+00
 0.1161467356601E+00
 0.1021866687206E+00
 0.1179680758455E+00
 0.1706730707428E+00
 0.2527999843995E+00
 0.3594143094806E+00
 0.4890455066191E+00
 0.6411313880503E+00
 0.8147715319713E+00
 0.1008122496223E+01
 0.1218040254741E+01
 0.1439867971833E+01
 0.1667433086751E+01
 0.1893435083900E+01
 0.2109582543370E+01
 0.2306172400871E+01
 0.2472322520644E+01
 0.2596638718856E+01
 0.6544679843215E+00
 0.6692581368760E+00
 0.6911868296312E+00
 0.7149391588103E+00
 0.7355503279991E+00
 0.7492022432348E+00
 0.7536539038625E+00
 0.7482155919126E+00
 0.7334110457096E+00
 0.7105301731582E+00
 0.6812204616016E+00
 0.6471846608433E+00
 0.6099924443814E+00
 0.5709824534638E+00
 0.5312205307798E+00
 0.4914871741012E+00
 0.4523967455521E+00
 0.4144667024368E+00
 0.3777887762369E+00
 0.3417883327615E+00
 0.3053472362405E+00
 0.2669693775589E+00
 0.2249685297693E+00
 0.1778428916482E+00
 0.1255997278400E+00
 0.7776855547435E-01
 0.8670227824889E-01
 0.1669157214529E+00
 0.2789223824622E+00
 0.4137939821057E+00
 0.5699172961022E+00
 0.7461705783044E+00
 0.9406053759152E+00
 0.1149978356769E+01
 0.1369525376698E+01
 0.1592965214633E+01
 0.1812899522274E+01
 0.2020927340335E+01
 0.2207185792289E+01
 0.2360615029021E+01
 0.2469710396092E+01
 0.8412485842283E+00
 0.8617263831202E+00
 0.8897643918377E+00
 0.9191298614485E+00
 0.9441096074515E+00
 0.9604451309609E+00
 0.9657669919243E+00
 0.9594851481748E+00
 0.9423431925037E+00
 0.9158824253278E+00
 0.8819793777028E+00
 0.8425209506557E+00
 0.7992143596211E+00
 0.7534980160887E+00
 0.7065116464075E+00
 0.6590946273150E+00
 0.6119245708274E+00
 0.5656019999409E+00
 0.5202991460146E+00
 0.4754938382722E+00
 0.4300881441774E+00
 0.3825524705469E+00
 0.3310367412162E+00
 0.2734858732226E+00
 0.2078346202001E+00
 0.1326557749512E+00
 0.5398302539838E-01
 0.8155877277839E-01
 0.1982334056293E+00
 0.3382292354686E+00
 0.4980961649942E+00
 0.6766645730896E+00
 0.8719598271585E+00
 0.1080674298534E+01
 0.1297955506557E+01
 0.1517425218596E+01
 0.1731593477044E+01
 0.1931946081846E+01
 0.2108433044853E+01
 0.2249766560778E+01
 0.2344339317750E+01
 0.1029750198463E+01
 0.1056353630599E+01
 0.1090896380047E+01
 0.1126126711621E+01
 0.1155528608869E+01
 0.1174408959804E+01
 0.1180321656959E+01
 0.1172846153661E+01
 0.1153009784456E+01
 0.1122651145468E+01
 0.1083902363990E+01
 0.1038846232015E+01
 0.9893307008895E+00
 0.9368942762525E+00
 0.8827522353450E+00
 0.8278084220244E+00
 0.7728133502836E+00
 0.7184616776184E+00
 0.6650177489382E+00
 0.6120288214984E+00
 0.5584510587075E+00
 0.5028000576998E+00
 0.4432581332551E+00
 0.3777639033188E+00
 0.3041065171537E+00
 0.2200472269624E+00
 0.1235527652617E+00
 0.1810808882862E-01
 0.1176185873059E+00
 0.2626118587786E+00
 0.4258337932281E+00
 0.6063760342764E+00
 0.8022957717967E+00
 0.1010237299240E+01
 0.1225269122797E+01
 0.1440923475363E+01
 0.1649625166443E+01
 0.1842748525394E+01
 0.2010031954634E+01
 0.2139886049705E+01
 0.2220596801516E+01
 0.1220172438850E+01
 0.1253410224987E+01
 0.1294909617240E+01
 0.1336274761608E+01
 0.1370125286014E+01
 0.1391349728614E+01
 0.1397495063315E+01
 0.1388395580564E+01
 0.1365434650480E+01
 0.1330795431717E+01
 0.1286888684176E+01
 0.1235998613872E+01
 0.1180109549488E+01
 0.1120852103035E+01
 0.1059509807896E+01
 0.9970468508200E+00
 0.9342861629079E+00
 0.8720181169994E+00
 0.8106011315469E+00
 0.7496541596890E+00
 0.6881916996848E+00
 0.6247857128253E+00
 0.5576805712593E+00
 0.4848860586554E+00
 0.4042692158292E+00
 0.3136601669114E+00
 0.2109839552343E+00
 0.9447624453768E-01
 0.3941510141193E-01
 0.1875710809071E+00
 0.3534005299499E+00
 0.5354683877662E+00
 0.7317451007595E+00
 0.9387911164385E+00
 0.1151587294593E+01
 0.1363577062340E+01
 0.1567104967603E+01
 0.1753443606832E+01
 0.1912108601293E+01
 0.2031102699999E+01
 0.2098540634417E+01
 0.1412733029446E+01
 0.1453193822214E+01
 0.1502163162219E+01
 0.1549949767011E+01
 0.1588242439633E+01
 0.1611542674280E+01
 0.1617482481234E+01
 0.1606254113183E+01
 0.1579678104788E+01
 0.1540330465791E+01
 0.1490920027856E+01
 0.1433932495355E+01
 0.1371478522334E+01
 0.1305267518622E+01
 0.1236639176067E+01
 0.1166609600083E+01
 0.1096069973004E+01
 0.1025905219200E+01
 0.9565676460638E+00
 0.8877473122694E+00
 0.8185157443554E+00
 0.7475002921600E+00
 0.6730091197022E+00
 0.5931315436613E+00
 0.5058353195494E+00
 0.4090808355680E+00
 0.3009824424894E+00
 0.1801614924729E+00
 0.5066940218912E-01
 0.1152345083671E+00
 0.2812840535211E+00
 0.4641659780283E+00
 0.6604669604213E+00
 0.8664764629902E+00
 0.1077043180239E+01
 0.1285511617201E+01
 0.1484146283623E+01
 0.1664134467729E+01
 0.1814792099891E+01
 0.1923581858530E+01
 0.1978205746161E+01
 0.1607671329030E+01
 0.1656034774757E+01
 0.1713053970074E+01
 0.1767560661518E+01
 0.1810243958192E+01
 0.1835270976030E+01
 0.1840478405123E+01
 0.1826539697965E+01
 0.1795802146863E+01
 0.1751282422336E+01
 0.1696001915551E+01
 0.1632641828224E+01
 0.1563423499578E+01
 0.1490117213277E+01
 0.1414103085820E+01
 0.1336437982806E+01
 0.1258075331713E+01
 0.1179992507058E+01
 0.1102735131996E+01
 0.1026063317171E+01
 0.9491032865263E+00
 0.8705345814802E+00
 0.7887260921588E+00
 0.7018443132435E+00
 0.6079549329404E+00
 0.5051393654573E+00
 0.3916585417876E+00
 0.2662701738911E+00
 0.1301657572538E+00
 0.5857495139671E-01
 0.2105245148697E+00
 0.3927944858797E+00
 0.5886560528695E+00
 0.7934541239093E+00
 0.1001784173736E+01
 0.1206863186316E+01
 0.1400869242011E+01
 0.1574912358209E+01
 0.1718195087144E+01
 0.1817551088198E+01
 0.1859585536823E+01
 0.1805252745829E+01
 0.1862302843041E+01
 0.1928023780024E+01
 0.1989553174556E+01
 0.2036513042123E+01
 0.2062818744736E+01
 0.2066665722023E+01
 0.2049354148030E+01
 0.2013854876123E+01
 0.1963670157197E+01
 0.1902141458118E+01
 0.1832132267601E+01
 0.1755953032475E+01
 0.1675412503360E+01
 0.1591912247944E+01
 0.1506536571232E+01
 0.1420293986027E+01
 0.1334251932454E+01
 0.1249048918329E+01
 0.1164514114524E+01
 0.1079825945667E+01
 0.9937126518614E+00
 0.9046004324240E+00
 0.8107300700040E+00
 0.7102614963527E+00
 0.6013878064447E+00
 0.4824879420631E+00
 0.3523811435658E+00
 0.2113933838630E+00
 0.7584264214734E-01
 0.1439679265438E+00
 0.3218718267984E+00
 0.5165566687531E+00
 0.7199089125907E+00
 0.9259748266005E+00
 0.1127779675409E+01
 0.1317404929082E+01
 0.1485867267069E+01
 0.1622347670167E+01
 0.1713352567961E+01
 0.1742579451442E+01
 0.2005774307350E+01
 0.2072415607651E+01
 0.2147567438452E+01
 0.2216413951026E+01
 0.2267450297226E+01
 0.2294464284114E+01
 0.2296206604074E+01
 0.2274773579215E+01
 0.2233861168481E+01
 0.2177495845047E+01
 0.2109337180824E+01
 0.2032409243632E+01
 0.1949083667132E+01
 0.1861180811004E+01
 0.1770101671272E+01
 0.1676942772630E+01
 0.1582759729163E+01
 0.1488707707822E+01
 0.1395518037397E+01
 0.1303088111713E+01
 0.1210645947947E+01
 0.1116964952942E+01
 0.1020525679720E+01
 0.9196416252935E+00
 0.8125659922173E+00
 0.6976003198846E+00
 0.5732309559780E+00
 0.4383256555035E+00
 0.2927932025086E+00
 0.1423835415344E+00
 0.9215569916418E-01
 0.2523418228840E+00
 0.4444882187790E+00
 0.6460556341217E+00
 0.8497986125438E+00
 0.1048427780330E+01
 0.1233885239812E+01
 0.1397134565279E+01
 0.1527146519510E+01
 0.1611250223494E+01
 0.1627252606389E+01
 0.2209571760945E+01
 0.2286849102556E+01
 0.2372242946232E+01
 0.2448674811117E+01
 0.2503470620714E+01
 0.2530471981315E+01
 0.2529232953164E+01
 0.2502839795629E+01
 0.2455815698843E+01
 0.2392739226075E+01
 0.2317573691082E+01
 0.2233472273523E+01
 0.2142833264652E+01
 0.2047457442485E+01
 0.1948720328825E+01
 0.1847713705974E+01
 0.1745531676323E+01
 0.1643415062663E+01
 0.1542188458411E+01
 0.1441816771989E+01
 0.1341574745192E+01
 0.1240277258595E+01
 0.1136456770570E+01
 0.1028499482816E+01
 0.9147538645104E+00
 0.7936319916841E+00
 0.6637277632749E+00
 0.5239644106917E+00
 0.3740286274401E+00
 0.2166184877097E+00
 0.8758368313849E-01
 0.1862806861191E+00
 0.3728970322251E+00
 0.5721470412971E+00
 0.7734630888997E+00
 0.9689882476738E+00
 0.1150479353686E+01
 0.1308771452400E+01
 0.1432910622278E+01
 0.1509601369729E+01
 0.1520308097925E+01
 0.2417028734157E+01
 0.2506151380465E+01
 0.2602683575860E+01
 0.2686916731616E+01
 0.2744997917343E+01
 0.2771081764811E+01
 0.2765835422481E+01
 0.2733551611878E+01
 0.2679677013597E+01
 0.2609353658590E+01
 0.2526818697314E+01
 0.2435312149708E+01
 0.2337217852965E+01
 0.2234281790041E+01
 0.2127826450322E+01
 0.2018920280941E+01
 0.1908686754903E+01
 0.1798450723970E+01
 0.1689131106055E+01
 0.1580759669065E+01
 0.1472654533906E+01
 0.1363667997619E+01
 0.1252382401774E+01
 0.1137258203944E+01
 0.1016743931747E+01
 0.8893685794498E+00
 0.7538403314552E+00
 0.6091520407103E+00
 0.4548764821303E+00
 0.2924238621951E+00
 0.1348807753743E+00
 0.1294071563866E+00
 0.3024732795246E+00
 0.4984879040846E+00
 0.6972015383143E+00
 0.8896685893453E+00
 0.1067354128309E+01
 0.1220966761651E+01
 0.1339465495534E+01
 0.1409490822816E+01
 0.1416720295622E+01
 0.2628588707144E+01
 0.2730959986315E+01
 0.2839612439321E+01
 0.2931772896008E+01
 0.2992456475882E+01
 0.3016495156946E+01
 0.3006050474365E+01
 0.2966855809323E+01
 0.2905362300574E+01
 0.2827263383906E+01
 0.2737021452034E+01
 0.2637909688722E+01
 0.2532250242809E+01
 0.2421695645245E+01
 0.2307485451860E+01
 0.2190644627737E+01
 0.2072316453082E+01
 0.1953908766286E+01
 0.1836436570193E+01
 0.1719997768432E+01
 0.1603949773449E+01
 0.1487177668216E+01
 0.1368312037805E+01
 0.1245890755400E+01
 0.1118469911600E+01
 0.9847054734534E+00
 0.8434312218939E+00
 0.6937269646254E+00
 0.5351209849407E+00
 0.3683780620347E+00
 0.1996160128133E+00
 0.9873700393531E-01
 0.2344546013522E+00
 0.4254586281175E+00
 0.6212799291983E+00
 0.8106963016274E+00
 0.9847187517956E+00
 0.1133864145811E+01
 0.1246979751966E+01
 0.1311242245194E+01
 0.1314342048698E+01
 0.2844770883898E+01
 0.2962024690225E+01
 0.3083859882589E+01
 0.3183929739164E+01
 0.3246257437684E+01
 0.3266856889524E+01
 0.3249845181585E+01
 0.3202637812594E+01
 0.3132742940772E+01
 0.3046361900867E+01
 0.2948112288254E+01
 0.2841235484490E+01
 0.2727939624325E+01
 0.2609742596560E+01
 0.2487769196510E+01
 0.2362979231765E+01
 0.2236525751643E+01
 0.2109899214187E+01
 0.1984213215316E+01
 0.1859630816179E+01
 0.1735543574780E+01
 0.1610863968872E+01
 0.1484269622236E+01
 0.1354380765487E+01
 0.1219871338523E+01
 0.1079537725599E+01
 0.9323542509521E+00
 0.7775070087244E+00
 0.6145297831098E+00
 0.4438403817246E+00
 0.2687999342249E+00
 0.1161227207658E+00
 0.1715426791204E+00
 0.3535638235671E+00
 0.5460015950129E+00
 0.7323278302694E+00
 0.9028001988669E+00
 0.1047659578006E+01
 0.1155685571999E+01
 0.1214722481734E+01
 0.1213803311152E+01
 0.3066191560201E+01
 0.3200237366242E+01
 0.3336383984462E+01
 0.3444124217519E+01
 0.3506778209848E+01
 0.3522230970343E+01
 0.3497099737982E+01
 0.3440712492829E+01
 0.3361641190167E+01
 0.3266511575753E+01
 0.3160003165296E+01
 0.3045250414741E+01
 0.2924291751329E+01
 0.2798467990005E+01
 0.2668755941761E+01
 0.2536026995051E+01
 0.2401433294458E+01
 0.2266548236511E+01
 0.2132587249321E+01
 0.1999777039155E+01
 0.1867536726509E+01
 0.1734799894113E+01
 0.1600290630056E+01
 0.1462718575497E+01
 0.1320888789555E+01
 0.1173754815913E+01
 0.1020449653339E+01
 0.8602867374523E+00
 0.6928451416906E+00
 0.5183587606123E+00
 0.3388849891478E+00
 0.1659645015598E+00
 0.1209640627162E+00
 0.2835410230555E+00
 0.4717179254412E+00
 0.6548466452656E+00
 0.8218519488977E+00
 0.9625907222776E+00
 0.1065763416649E+01
 0.1119877328145E+01
 0.1115128760630E+01
 0.3293593384787E+01
 0.3446671669486E+01
 0.3598294141564E+01
 0.3713134415996E+01
 0.3774331900580E+01
 0.3782570085938E+01
 0.3747588024443E+01
 0.3680815845515E+01
 0.3591828531167E+01
 0.3487544721373E+01
 0.3372589238632E+01
 0.3249906771035E+01
 0.3121309476360E+01
 0.2987919134176E+01
 0.2850530599412E+01
 0.2709901809861E+01
 0.2567172336925E+01
 0.2423999399501E+01
 0.2281704103590E+01
 0.2140574337185E+01
 0.2000048315559E+01
 0.1859073496970E+01
 0.1716420891912E+01
 0.1570899228500E+01
 0.1421461239063E+01
 0.1267237649688E+01
 0.1107541185752E+01
 0.9418353854878E+00
 0.7697791222258E+00
 0.5915238178846E+00
 0.4084453338095E+00
 0.2265173052101E+00
 0.1007995129612E+00
 0.2166465442524E+00
 0.3988445928484E+00
 0.5785647061388E+00
 0.7421528556708E+00
 0.8789135425122E+00
 0.9773764216549E+00
 0.1026613326474E+01
 0.1018192747469E+01
 0.3527886186522E+01
 0.3702636264470E+01
 0.3870877024963E+01
 0.3991758820830E+01
 0.4049122890574E+01
 0.4047677445966E+01
 0.4000957179939E+01
 0.3922598688577E+01
 0.3823026377632E+01
 0.3709266418774E+01
 0.3585751499816E+01
 0.3455149930681E+01
 0.3318993461644E+01
 0.3178145508396E+01
 0.3033185041336E+01
 0.2884729389876E+01
 0.2733892241328E+01
 0.2582415754454E+01
 0.2431730862673E+01
 0.2282182607340E+01
 0.2133217435287E+01
 0.1983788652645E+01
 0.1832716386152E+01
 0.1678921477331E+01
 0.1521524525338E+01
 0.1359856699419E+01
 0.1193434173922E+01
 0.1021895044369E+01
 0.8450100352857E+00
 0.6629191857090E+00
 0.4766292179416E+00
 0.2897034417056E+00
 0.1239741106631E+00
 0.1555375529072E+00
 0.3278943941023E+00
 0.5038235106673E+00
 0.6639995082709E+00
 0.7968960680574E+00
 0.8906813894648E+00
 0.9348319337171E+00
 0.9227583834175E+00
 0.3770205131498E+01
 0.3969746928276E+01
 0.4155622694899E+01
 0.4280776771542E+01
 0.4331183574412E+01
 0.4317160847095E+01
 0.4256708048377E+01
 0.4165623958928E+01
 0.4054909888598E+01
 0.3931459330836E+01
 0.3799360522186E+01
 0.3660920500110E+01
 0.3517342907183E+01
 0.3369198745377E+01
 0.3216818207244E+01
 0.3060648163541E+01
 0.2901760403800E+01
 0.2741982710176E+01
 0.2582859700168E+01
 0.2424787079496E+01
 0.2267205726295E+01
 0.2109066438975E+01
 0.1949243531612E+01
 0.1786787309629E+01
 0.1621010418658E+01
 0.1451470795042E+01
 0.1277914096484E+01
 0.1100179004486E+01
 0.9181793545180E+00
 0.7320996441431E+00
 0.5427570031340E+00
 0.3525363971456E+00
 0.1713924605013E+00
 0.1073098199461E+00
 0.2595520203526E+00
 0.4309951894565E+00
 0.5876970772020E+00
 0.7168124890880E+00
 0.8058531565702E+00
 0.8444411048573E+00
 0.8284680226379E+00
 0.4021995494680E+01
 0.4250025059450E+01
 0.4454245570978E+01
 0.4580878211194E+01
 0.4620286371583E+01
 0.4590380243058E+01
 0.4514179687017E+01
 0.4409369575064E+01
 0.4287115598484E+01
 0.4153890671761E+01
 0.4013281313896E+01
 0.3867156857933E+01
 0.3716356135643E+01
 0.3561132136958E+01
 0.3401535740476E+01
 0.3237810036333E+01
 0.3070964562794E+01
 0.2902911768592E+01
 0.2735312435007E+01
 0.2568602687756E+01
 0.2402200614079E+01
 0.2235046864355E+01
 0.2066079658056E+01
 0.1894501679932E+01
 0.1719846021687E+01
 0.1541926339875E+01
 0.1360745554950E+01
 0.1176370254252E+01
 0.9888888319129E+00
 0.7985789255581E+00
 0.6061861550725E+00
 0.4134825596578E+00
 0.2258930322245E+00
 0.8958167462260E-01
 0.1948726224613E+00
 0.3604868794349E+00
 0.5135466712844E+00
 0.6389351582562E+00
 0.7231023353340E+00
 0.7553647743000E+00
 0.7348206023237E+00
 0.4285139439328E+01
 0.4546033104306E+01
 0.4768688714950E+01
 0.4892544138585E+01
 0.4915824997192E+01
 0.4866393045176E+01
 0.4772542809175E+01
 0.4653239007296E+01
 0.4519253350819E+01
 0.4376321357374E+01
 0.4227379233582E+01
 0.4073798026588E+01
 0.3916030872101E+01
 0.3753999365384E+01
 0.3587448800237E+01
 0.3416380783524E+01
 0.3241715481139E+01
 0.3065445329308E+01
 0.2889346473679E+01
 0.2713879607112E+01
 0.2538419150727E+01
 0.2361890695437E+01
 0.2183313377384E+01
 0.2002072228407E+01
 0.1817953360698E+01
 0.1631056876067E+01
 0.1441671609677E+01
 0.1250120190791E+01
 0.1056697749760E+01
 0.8618213263767E+00
 0.6662545725463E+00
 0.4714577693164E+00
 0.2808693522769E+00
 0.1121946072165E+00
 0.1359193511254E+00
 0.2927544615164E+00
 0.4418282133178E+00
 0.5635144893036E+00
 0.6426831200025E+00
 0.6675607300983E+00
 0.6411432049903E+00
 0.4562151156920E+01
 0.4861061064197E+01
 0.5101087368626E+01
 0.5215849297989E+01
 0.5216661274711E+01
 0.5143906551708E+01
 0.5030808799842E+01
 0.4896581369841E+01
 0.4750922604854E+01
 0.4598517191821E+01
 0.4441526872513E+01
 0.4280786817077E+01
 0.4116364073328E+01
 0.3947852100702E+01
 0.3774671563906E+01
 0.3596539732858E+01
 0.3414250026721E+01
 0.3229862933646E+01
 0.3045262587216E+01
 0.2860910171964E+01
 0.2676112351034E+01
 0.2489781091889E+01
 0.2301044569279E+01
 0.2109508807489E+01
 0.1915249106212E+01
 0.1718683019380E+01
 0.1520413544430E+01
 0.1321047631597E+01
 0.1121120325538E+01
 0.9212349576968E+00
 0.7222512205949E+00
 0.5255056799404E+00
 0.3334809810981E+00
 0.1542801578443E+00
 0.8822904968041E-01
 0.2283420412380E+00
 0.3727780183126E+00
 0.4907363981584E+00
 0.5648846616682E+00
 0.5810534527306E+00
 0.5465642306948E+00
 0.4856487140661E+01
 0.5199381537562E+01
 0.5453642575157E+01
 0.5550145292012E+01
 0.5520941868349E+01
 0.5421255098603E+01
 0.5287861891608E+01
 0.5138721674731E+01
 0.4981732646996E+01
 0.4820261777763E+01
 0.4655611747374E+01
 0.4488073236710E+01
 0.4317351222472E+01
 0.4142736037717E+01
 0.3963316716070E+01
 0.3778478205383E+01
 0.3588834708581E+01
 0.3396489567815E+01
 0.3203415225876E+01
 0.3010037465862E+01
 0.2815569827705E+01
 0.2618924650065E+01
 0.2419383652249E+01
 0.2216822659415E+01
 0.2011644425623E+01
 0.1804612864577E+01
 0.1596671190259E+01
 0.1388738243581E+01
 0.1181623319789E+01
 0.9761657677159E+00
 0.7733975282194E+00
 0.5746712571610E+00
 0.3820092478980E+00
 0.1999654580150E+00
 0.6786273683616E-01
 0.1679980306367E+00
 0.3065643631704E+00
 0.4206449756374E+00
 0.4899886166623E+00
 0.4959857631692E+00
 0.4500141631143E+00
 0.5173058104409E+01
 0.5566589536280E+01
 0.5828305050021E+01
 0.5893567780412E+01
 0.5825910060021E+01
 0.5696430473415E+01
 0.5542520250103E+01
 0.5378999753658E+01
 0.5211325824132E+01
 0.5041370662897E+01
 0.4869544569121E+01
 0.4695618242398E+01
 0.4518985150323E+01
 0.4338684898804E+01
 0.4153487877192E+01
 0.3962395834209E+01
 0.3765769762770E+01
 0.3565707057020E+01
 0.3364226449351E+01
 0.3161665911062E+01
 0.2957124342731E+01
 0.2749551290052E+01
 0.2538449752620E+01
 0.2324025106130E+01
 0.2107045034498E+01
 0.1888643050555E+01
 0.1670124010914E+01
 0.1452744525446E+01
 0.1237623899851E+01
 0.1025891987637E+01
 0.8188334748238E+00
 0.6179395740786E+00
 0.4250607214766E+00
 0.2432485342820E+00
 0.8606328653933E-01
 0.1130691610527E+00
 0.2432752959323E+00
 0.3530173266068E+00
 0.4181552290606E+00
 0.4126853432258E+00
 0.3503648163365E+00
 0.5519110454197E+01
 0.5970023345533E+01
 0.6226066662440E+01
 0.6242307611359E+01
 0.6127783491660E+01
 0.5967203354270E+01
 0.5793623934789E+01
 0.5616814153935E+01
 0.5439402901644E+01
 0.5261705945113E+01
 0.5083267769306E+01
 0.4903398064487E+01
 0.4721254736706E+01
 0.4535711967581E+01
 0.4345267379373E+01
 0.4148493234220E+01
 0.3945393935357E+01
 0.3737970305095E+01
 0.3528205115732E+01
 0.3316274130093E+01
 0.3101155541942E+01
 0.2881912195547E+01
 0.2658367333784E+01
 0.2431125637327E+01
 0.2201351583516E+01
 0.1970560786162E+01
 0.1740433243392E+01
 0.1512586485394E+01
 0.1288487777352E+01
 0.1069618882400E+01
 0.8576060233864E+00
 0.6541995754160E+00
 0.4612861843895E+00
 0.2812642116221E+00
 0.1201007372198E+00
 0.6724860568423E-01
 0.1829612961668E+00
 0.2871873489061E+00
 0.3491659283653E+00
 0.3317161384405E+00
 0.2472864958696E+00
 0.5905822606614E+01
 0.6419175996125E+01
 0.6645448484891E+01
 0.6589635597399E+01
 0.6421856646298E+01
 0.6231364419374E+01
 0.6040132143196E+01
 0.5851668002895E+01
 0.5665749601271E+01
 0.5481190070187E+01
 0.5296763950783E+01
 0.5111409446712E+01
 0.4924144391141E+01
 0.4733799006695E+01
 0.4538696932891E+01
 0.4336958251922E+01
 0.4128090201206E+01
 0.3913831468965E+01
 0.3695973817447E+01
 0.3474430045253E+01
 0.3248091535988E+01
 0.3016274764790E+01
 0.2779260843153E+01
 0.2538129311717E+01
 0.2294460589003E+01
 0.2050147296981E+01
 0.1807245523899E+01
 0.1567753132059E+01
 0.1333527536500E+01
 0.1106473807557E+01
 0.8886591514325E+00
 0.6822187796564E+00
 0.4892572183971E+00
 0.3119755601646E+00
 0.1538281380145E+00
 0.4462610855409E-01
 0.1258650089368E+00
 0.2218649768016E+00
 0.2819031509125E+00
 0.2538129228341E+00
 0.1472625493157E+00
 0.6351379230092E+01
 0.6925685519812E+01
 0.7079364444772E+01
 0.6924912875476E+01
 0.6703114722685E+01
 0.6487044504788E+01
 0.6281200121990E+01
 0.6083220501994E+01
 0.5890260981841E+01
 0.5699817632881E+01
 0.5510063877355E+01
 0.5319676075505E+01
 0.5127636154696E+01
 0.4932883345582E+01
 0.4733747394300E+01
 0.4527940508703E+01
 0.4314292852689E+01
 0.4093977755879E+01
 0.3868307243861E+01
 0.3636807268591E+01
 0.3398406037054E+01
 0.3152913350260E+01
 0.2901247026075E+01
 0.2645033401960E+01
 0.2386266158007E+01
 0.2127183401866E+01
 0.1870198665104E+01
 0.1617704800771E+01
 0.1372000841309E+01
 0.1135501677802E+01
 0.9108256592999E+00
 0.7006239613208E+00
 0.5073983461854E+00
 0.3334825152931E+00
 0.1814840371133E+00
 0.5972585886336E-01
 0.7343997219086E-01
 0.1551985895927E+00
 0.2134513653956E+00
 0.1794529963487E+00
 0.1117778225157E+00
 0.6887374297007E+01
 0.7501296106934E+01
 0.7508845777370E+01
 0.7233663400750E+01
 0.6967659107679E+01
 0.6732891689331E+01
 0.6516248966104E+01
 0.6311346750827E+01
 0.6112955771846E+01
 0.5917666294859E+01
 0.5723252670423E+01
 0.5528256211518E+01
 0.5331717483844E+01
 0.5132846534830E+01
 0.4930271954327E+01
 0.4721503516920E+01
 0.4504496913241E+01
 0.4279293903171E+01
 0.4046187005627E+01
 0.3804199541504E+01
 0.3552607490125E+01
 0.3292094649961E+01
 0.3024424795242E+01
 0.2751823180236E+01
 0.2476662681844E+01
 0.2201458349904E+01
 0.1928930720300E+01
 0.1661876048202E+01
 0.1403107743982E+01
 0.1155661127738E+01
 0.9228218924003E+00
 0.7078864890891E+00
 0.5139426158476E+00
 0.3437609753559E+00
 0.1999118715287E+00
 0.8607551446912E-01
 0.3566999193108E-01
 0.8645621719050E-01
 0.1383909459119E+00
 0.1079989140432E+00
 0.2234515775981E+00
 0.7573630539235E+01
 0.8147340654048E+01
 0.7891848268321E+01
 0.7502183171205E+01
 0.7214310712175E+01
 0.6967802076881E+01
 0.6745183127182E+01
 0.6536145367968E+01
 0.6333991812298E+01
 0.6134903891633E+01
 0.5936473550982E+01
 0.5737250140711E+01
 0.5536398424793E+01
 0.5333514737870E+01
 0.5127935260962E+01
 0.4917530813221E+01
 0.4699272512690E+01
 0.4470972310182E+01
 0.4230878021403E+01
 0.3977524882143E+01
 0.3711215672939E+01
 0.3434057140246E+01
 0.3148862974969E+01
 0.2858466666941E+01
 0.2565548177320E+01
 0.2272783827612E+01
 0.1983094554195E+01
 0.1699677991359E+01
 0.1425985387181E+01
 0.1165822279472E+01
 0.9232475541812E+00
 0.7023139219177E+00
 0.5068984091095E+00
 0.3405389476662E+00
 0.2063545601960E+00
 0.1072456507650E+00
 0.4818811773741E-01
 0.3918288889663E-01
 0.6270311423956E-01
 0.5028639123259E-01
 0.4125348675447E+00
 0.8538045993859E+01
 0.8806567709037E+01
 0.8154107607228E+01
 0.7733353100739E+01
 0.7441698660640E+01
 0.7191575907539E+01
 0.6968457872087E+01
 0.6757917223420E+01
 0.6553689405775E+01
 0.6351784539385E+01
 0.6149932014324E+01
 0.5946803025258E+01
 0.5741737927382E+01
 0.5534697188494E+01
 0.5326114658980E+01
 0.5115528018973E+01
 0.4899293425887E+01
 0.4670722426184E+01
 0.4424023031215E+01
 0.4157802223859E+01
 0.3874722595400E+01
 0.3578984405102E+01
 0.3274587073856E+01
 0.2964908340225E+01
 0.2652826063944E+01
 0.2341016567873E+01
 0.2032383083445E+01
 0.1730496202465E+01
 0.1439696657533E+01
 0.1164769393704E+01
 0.9105934696071E+00
 0.6820532778759E+00
 0.4840250346827E+00
 0.3212278131471E+00
 0.1978376047743E+00
 0.1175602670459E+00
 0.8212797193055E-01
 0.9265315770111E-01
 0.1347236532249E+00
 0.1354971389067E+00
 0.6905209806030E+00
 0.1010996378582E+02
 0.9117608715779E+01
 0.8287521945970E+01
 0.7939186572618E+01
 0.7646355807851E+01
 0.7406532264870E+01
 0.7186523830108E+01
 0.6977340148335E+01
 0.6772479836483E+01
 0.6568658731202E+01
 0.6363892684787E+01
 0.6157107473550E+01
 0.5947853448435E+01
 0.5736319212158E+01
 0.5523813401493E+01
 0.5314150142176E+01
 0.5105420457320E+01
 0.4881206055146E+01
 0.4627699351395E+01
 0.4346084671790E+01
 0.4043536190951E+01
 0.3726973104173E+01
 0.3401566546989E+01
 0.3071064783201E+01
 0.2738396278107E+01
 0.2406095682468E+01
 0.2076580479474E+01
 0.1753669077238E+01
 0.1443208864769E+01
 0.1151216862171E+01
 0.8832630414479E+00
 0.6451071576167E+00
 0.4428571910788E+00
 0.2828205683244E+00
 0.1711385808247E+00
 0.1124410187304E+00
 0.1109895648322E+00
 0.1628144901629E+00
 0.3032812601463E+00
 0.4173449932775E+00
 0.1201946310418E+01
 0.3828081089475E+00
 0.5512080721073E+00
 0.7437715169327E+00
 0.9332843285913E+00
 0.1103082972689E+01
 0.1244749995610E+01
 0.1355406325887E+01
 0.1435665162127E+01
 0.1488000428242E+01
 0.1515459174160E+01
 0.1520707801650E+01
 0.1505359104296E+01
 0.1470314321891E+01
 0.1416496193306E+01
 0.1344869759387E+01
 0.1256489538230E+01
 0.1152507290731E+01
 0.1034060916992E+01
 0.9036121350493E+00
 0.7541333187408E+00
 0.3762496439437E+00
 0.5409563225572E+00
 0.7287268070758E+00
 0.9150132514910E+00
 0.1084051563487E+01
 0.1227287140171E+01
 0.1341295175435E+01
 0.1426007361950E+01
 0.1483263866916E+01
 0.1515624259755E+01
 0.1525436108300E+01
 0.1514161757220E+01
 0.1482662810916E+01
 0.1431777961651E+01
 0.1362380221322E+01
 0.1275567402875E+01
 0.1172510734155E+01
 0.1054616349287E+01
 0.9188900613499E+00
 0.7582624472854E+00
 0.3710078929844E+00
 0.5332478215850E+00
 0.7171630735378E+00
 0.9006539425933E+00
 0.1068903830576E+01
 0.1213393891400E+01
 0.1330293050732E+01
 0.1418973392409E+01
 0.1480723505835E+01
 0.1517649393788E+01
 0.1531771944278E+01
 0.1524403686666E+01
 0.1496339262783E+01
 0.1448329817529E+01
 0.1381195705866E+01
 0.1295962519527E+01
 0.1193692150994E+01
 0.1074307638032E+01
 0.9338891542093E+00
 0.7737014229336E+00
 0.3667422377570E+00
 0.5277456323414E+00
 0.7086907970396E+00
 0.8898291438700E+00
 0.1057329678034E+01
 0.1202834313043E+01
 0.1322239723744E+01
 0.1414464599687E+01
 0.1480318821209E+01
 0.1521490572356E+01
 0.1539690527067E+01
 0.1536071226239E+01
 0.1511345386650E+01
 0.1466179257930E+01
 0.1401310301125E+01
 0.1317617802505E+01
 0.1215658208710E+01
 0.1094629047789E+01
 0.9525406786994E+00
 0.7937586576170E+00
 0.3632751037994E+00
 0.5240972883721E+00
 0.7029387173702E+00
 0.8821809406550E+00
 0.1049022031259E+01
 0.1195369303258E+01
 0.1316962145061E+01
 0.1412362676150E+01
 0.1481969437984E+01
 0.1527093276693E+01
 0.1549154368136E+01
 0.1549141547768E+01
 0.1527674658563E+01
 0.1485323688900E+01
 0.1422708869939E+01
 0.1340460399275E+01
 0.1238741591484E+01
 0.1116908999358E+01
 0.9744792302783E+00
 0.8169135584537E+00
 0.3604744143419E+00
 0.5220247902451E+00
 0.6995606950703E+00
 0.8773700363957E+00
 0.1043682074921E+01
 0.1190757207114E+01
 0.1314277087794E+01
 0.1412534209346E+01
 0.1485580088918E+01
 0.1534389603280E+01
 0.1560114807480E+01
 0.1563581414173E+01
 0.1545305862380E+01
 0.1505747352432E+01
 0.1445374456036E+01
 0.1364580389128E+01
 0.1263386330787E+01
 0.1141492849459E+01
 0.9994027491246E+00
 0.8427109437752E+00
 0.3582357910072E+00
 0.5212968609244E+00
 0.6982497304784E+00
 0.8750777166129E+00
 0.1041020644298E+01
 0.1188756147231E+01
 0.1313993582026E+01
 0.1414833945751E+01
 0.1491042350410E+01
 0.1543299033184E+01
 0.1572511553308E+01
 0.1579345739452E+01
 0.1564206017730E+01
 0.1527428266189E+01
 0.1469325300855E+01
 0.1390124600866E+01
 0.1289833140894E+01
 0.1168471664646E+01
 0.1027114247358E+01
 0.8710596272004E+00
 0.3564724365289E+00
 0.5217173908049E+00
 0.6987329129367E+00
 0.8750084268691E+00
 0.1040759517471E+01
 0.1189125770545E+01
 0.1315915178659E+01
 0.1419106884706E+01
 0.1498236192367E+01
 0.1553729052879E+01
 0.1586272549812E+01
 0.1596378148962E+01
 0.1584333101156E+01
 0.1550347083191E+01
 0.1494595764955E+01
 0.1417199149713E+01
 0.1318197200013E+01
 0.1197845498652E+01
 0.1057505755135E+01
 0.9019907724169E+00
 0.3551098542806E+00
 0.5231164496921E+00
 0.7007662387745E+00
 0.8768885103358E+00
 0.1042632390646E+01
 0.1191628628508E+01
 0.1319841655102E+01
 0.1425189931210E+01
 0.1507031186443E+01
 0.1565575811400E+01
 0.1601314413445E+01
 0.1614611943132E+01
 0.1605638407430E+01
 0.1574483406725E+01
 0.1521207810369E+01
 0.1445859849058E+01
 0.1348516485897E+01
 0.1229581501314E+01
 0.1090519941933E+01
 0.9355826402172E+00
 0.3540825483466E+00
 0.5253441191854E+00
 0.7041296168281E+00
 0.8804640839968E+00
 0.1046384827150E+01
 0.1196031168991E+01
 0.1325570338656E+01
 0.1432913205519E+01
 0.1517287538881E+01
 0.1578724846239E+01
 0.1617543050414E+01
 0.1633970849531E+01
 0.1628065715305E+01
 0.1599807312061E+01
 0.1549160136832E+01
 0.1476117979810E+01
 0.1380780665767E+01
 0.1263629425974E+01
 0.1126119064831E+01
 0.9719288569454E+00
 0.3533318319506E+00
 0.5282660120982E+00
 0.7086226592097E+00
 0.8854986324118E+00
 0.1051773658006E+01
 0.1202104246511E+01
 0.1332897100056E+01
 0.1442101103941E+01
 0.1528857007856E+01
 0.1593051811626E+01
 0.1634854198786E+01
 0.1654368917529E+01
 0.1651548686755E+01
 0.1626273950436E+01
 0.1578425550685E+01
 0.1507948487936E+01
 0.1414945918697E+01
 0.1299923839493E+01
 0.1164261861394E+01
 0.1011094037610E+01
 0.3528043022885E+00
 0.5317599728976E+00
 0.7140612234428E+00
 0.8917707044549E+00
 0.1058566101216E+01
 0.1209623292532E+01
 0.1341617067188E+01
 0.1452573171009E+01
 0.1541583713553E+01
 0.1608423117602E+01
 0.1653133689591E+01
 0.1675709793629E+01
 0.1676008624911E+01
 0.1653820996800E+01
 0.1608951833291E+01
 0.1541296489032E+01
 0.1450942243118E+01
 0.1338382597798E+01
 0.1204887043823E+01
 0.1053094149776E+01
 0.3524507401058E+00
 0.5357136029170E+00
 0.7202746090193E+00
 0.8990718395121E+00
 0.1066538786342E+01
 0.1218368264982E+01
 0.1351525130138E+01
 0.1464144823507E+01
 0.1555304851613E+01
 0.1624696455653E+01
 0.1672257511321E+01
 0.1697886009384E+01
 0.1701353143484E+01
 0.1682368015855E+01
 0.1640663719121E+01
 0.1576081885218E+01
 0.1488677114970E+01
 0.1378904630582E+01
 0.1247908003589E+01
 0.1097896412874E+01
 0.3522252985794E+00
 0.5400223829140E+00
 0.7271032966407E+00
 0.9072047632644E+00
 0.1075476789389E+01
 0.1228123471550E+01
 0.1362416293327E+01
 0.1476627947985E+01
 0.1569851304377E+01
 0.1641721220707E+01
 0.1692091832975E+01
 0.1720778536504E+01
 0.1727475650596E+01
 0.1711816832318E+01
 0.1673464975171E+01
 0.1612202543376E+01
 0.1528037404809E+01
 0.1421369056995E+01
 0.1293212742379E+01
 0.1145422120975E+01
 0.3520848968670E+00
 0.5445882378557E+00
 0.7343971329100E+00
 0.9159818532133E+00
 0.1085172739568E+01
 0.1238677338336E+01
 0.1374085928887E+01
 0.1489831404883E+01
 0.1585048178882E+01
 0.1659338898826E+01
 0.1712493115402E+01
 0.1744256686795E+01
 0.1754255429385E+01
 0.1742052386175E+01
 0.1707240298507E+01
 0.1649536578487E+01
 0.1568890774221E+01
 0.1465635405779E+01
 0.1340663931225E+01
 0.1195548791879E+01
 0.3519887636016E+00
 0.5493184367953E+00
 0.7420138803619E+00
 0.9252238578760E+00
 0.1095426031838E+01
 0.1249822175864E+01
 0.1386329978776E+01
 0.1503561478075E+01
 0.1600715315535E+01
 0.1677383486435E+01
 0.1733308377687E+01
 0.1768178334041E+01
 0.1781558120916E+01
 0.1772943810411E+01
 0.1741857015745E+01
 0.1687944183618E+01
 0.1611086984820E+01
 0.1511544125519E+01
 0.1390098999687E+01
 0.1248112510979E+01
 0.3518980901736E+00
 0.5541247487378E+00
 0.7498180640986E+00
 0.9347588423197E+00
 0.1106042156035E+01
 0.1261353972191E+01
 0.1398945137828E+01
 0.1517622299839E+01
 0.1616667799707E+01
 0.1695681974152E+01
 0.1754375623831E+01
 0.1792390385868E+01
 0.1809236451904E+01
 0.1804345588820E+01
 0.1777166620945E+01
 0.1727269220799E+01
 0.1654459127979E+01
 0.1558917233667E+01
 0.1441330729268E+01
 0.1302911050941E+01
 0.3517757692979E+00
 0.5589227980005E+00
 0.7576800617577E+00
 0.9444213339791E+00
 0.1116832145590E+01
 0.1273072233893E+01
 0.1411729044665E+01
 0.1531816278540E+01
 0.1632716501624E+01
 0.1714054910116E+01
 0.1775524412445E+01
 0.1816729436370E+01
 0.1837131103716E+01
 0.1836098727091E+01
 0.1813006188840E+01
 0.1767340655841E+01
 0.1698824805993E+01
 0.1607559164506E+01
 0.1494148492377E+01
 0.1359707542877E+01
 0.3515861988557E+00
 0.5636315760622E+00
 0.7654753928942E+00
 0.9540516437751E+00
 0.1127612143822E+01
 0.1284779889620E+01
 0.1424480503554E+01
 0.1545944554452E+01
 0.1648668666962E+01
 0.1732317053233E+01
 0.1796576555474E+01
 0.1841022557555E+01
 0.1865071674648E+01
 0.1868031925280E+01
 0.1849199706319E+01
 0.1807973911969E+01
 0.1743987359753E+01
 0.1657257908070E+01
 0.1548320024738E+01
 0.1418234753183E+01
 0.3512951365791E+00
 0.5681730767966E+00
 0.7730841713262E+00
 0.9634953382746E+00
 0.1138203080677E+01
 0.1296283262885E+01
 0.1436999751302E+01
 0.1559807498982E+01
 0.1664328568315E+01
 0.1750278114049E+01
 0.1817346924803E+01
 0.1865088192253E+01
 0.1892877699258E+01
 0.1899962738595E+01
 0.1885559337996E+01
 0.1848972172061E+01
 0.1789737195694E+01
 0.1707786485386E+01
 0.1603593582524E+01
 0.1478199577196E+01
 0.3508695943808E+00
 0.5724720288213E+00
 0.7803906900257E+00
 0.9726028406742E+00
 0.1148430450844E+01
 0.1307392116494E+01
 0.1449088778301E+01
 0.1573205267615E+01
 0.1679498223566E+01
 0.1767743579790E+01
 0.1837644351318E+01
 0.1888737125436E+01
 0.1920359705872E+01
 0.1931698724066E+01
 0.1921886642548E+01
 0.1890127648346E+01
 0.1835853199620E+01
 0.1758904820271E+01
 0.1659700516752E+01
 0.1539286661606E+01
 0.3502777633988E+00
 0.5764557036128E+00
 0.7872831126445E+00
 0.9812291400853E+00
 0.1158124182773E+01
 0.1317919767511E+01
 0.1460551708397E+01
 0.1585938412543E+01
 0.1693978184083E+01
 0.1784515620345E+01
 0.1857272606405E+01
 0.1911773520847E+01
 0.1947320303531E+01
 0.1963038575483E+01
 0.1957973754153E+01
 0.1931222834123E+01
 0.1882104188159E+01
 0.1810361853822E+01
 0.1716358670558E+01
 0.1601161586420E+01
 0.3494889621225E+00
 0.5800537812960E+00
 0.7936532488947E+00
 0.9892335897667E+00
 0.1167118586850E+01
 0.1327683268551E+01
 0.1471195238284E+01
 0.1597808557230E+01
 0.1707568393598E+01
 0.1800394072808E+01
 0.1876031460458E+01
 0.1933996017096E+01
 0.1973555296063E+01
 0.1993773250548E+01
 0.1993604538327E+01
 0.1972031744168E+01
 0.1928250380056E+01
 0.1861897616358E+01
 0.1773276401889E+01
 0.1663479025647E+01
 0.3484736009558E+00
 0.5831982582189E+00
 0.7993963932783E+00
 0.9964797758829E+00
 0.1175252370066E+01
 0.1336503648692E+01
 0.1480829133845E+01
 0.1608619132091E+01
 0.1720069116925E+01
 0.1815177503064E+01
 0.1893717816694E+01
 0.1955198882601E+01
 0.1998854824964E+01
 0.2023687093633E+01
 0.2028555723955E+01
 0.2012321139780E+01
 0.1974044875996E+01
 0.1913245260029E+01
 0.1830156135305E+01
 0.1725891490241E+01
 0.3472031571667E+00
 0.5858233817864E+00
 0.8044112082834E+00
 0.1002835439228E+01
 0.1182368704095E+01
 0.1344206205636E+01
 0.1489266778471E+01
 0.1618176168366E+01
 0.1731281936994E+01
 0.1828664344596E+01
 0.1910126922884E+01
 0.1975173234869E+01
 0.2023004548332E+01
 0.2052558959819E+01
 0.2062598010086E+01
 0.2051851726039E+01
 0.2019235132354E+01
 0.1964133108756E+01
 0.1886697139454E+01
 0.1788053221055E+01
 0.3456501540715E+00
 0.5878655984789E+00
 0.8085996339736E+00
 0.1008172432840E+01
 0.1188315333241E+01
 0.1350620839172E+01
 0.1496325766034E+01
 0.1626289144822E+01
 0.1741010817226E+01
 0.1840654115203E+01
 0.1925053666644E+01
 0.1993708334378E+01
 0.2045786868034E+01
 0.2080163348234E+01
 0.2095497143879E+01
 0.2090379299369E+01
 0.2063564397678E+01
 0.2014286615627E+01
 0.1942598091883E+01
 0.1849623158480E+01
 0.3437881379841E+00
 0.5892635008356E+00
 0.8118668062871E+00
 0.1012366698992E+01
 0.1192944708710E+01
 0.1355582414876E+01
 0.1501828528895E+01
 0.1632771879082E+01
 0.1749063223903E+01
 0.1850948711592E+01
 0.1938293961532E+01
 0.2010592967294E+01
 0.2066982222083E+01
 0.2106271556390E+01
 0.2127014964734E+01
 0.2127655816537E+01
 0.2106773039507E+01
 0.2063430196890E+01
 0.1997559532455E+01
 0.1910267586855E+01
 0.3415916454931E+00
 0.5899577579046E+00
 0.8141209663101E+00
 0.1015298249905E+01
 0.1196114136319E+01
 0.1358931146435E+01
 0.1505602989236E+01
 0.1637443452135E+01
 0.1755251299817E+01
 0.1859353779573E+01
 0.1949646231362E+01
 0.2025616934111E+01
 0.2086370464113E+01
 0.2130652871773E+01
 0.2156910411387E+01
 0.2163430343450E+01
 0.2148599689907E+01
 0.2111288872622E+01
 0.2051286113664E+01
 0.1969662443821E+01
 0.3390361533278E+00
 0.5898910120915E+00
 0.8152733431216E+00
 0.1016851138339E+01
 0.1197685926765E+01
 0.1360512985564E+01
 0.1507483220483E+01
 0.1640129151492E+01
 0.1759393077316E+01
 0.1865680156440E+01
 0.1958913003273E+01
 0.2038572670934E+01
 0.2103732368708E+01
 0.2153075839658E+01
 0.2184940514573E+01
 0.2197449872688E+01
 0.2188782150260E+01
 0.2157589637154E+01
 0.2103488572281E+01
 0.2027495256790E+01
 0.3360979953868E+00
 0.5890077201377E+00
 0.8152379901464E+00
 0.1016913405066E+01
 0.1197527539067E+01
 0.1360180007979E+01
 0.1507310101542E+01
 0.1640661410894E+01
 0.1761313708775E+01
 0.1869745370893E+01
 0.1965902609406E+01
 0.2049257021528E+01
 0.2118851296465E+01
 0.2173309642620E+01
 0.2210861388528E+01
 0.2229459986170E+01
 0.2227057964082E+01
 0.2202062360779E+01
 0.2153885329045E+01
 0.2083466372641E+01
 0.3327542332812E+00
 0.5872539124981E+00
 0.8139315583474E+00
 0.1015376998592E+01
 0.1195511717085E+01
 0.1357790790007E+01
 0.1504931948029E+01
 0.1638880721643E+01
 0.1760846687173E+01
 0.1871375180414E+01
 0.1970430993812E+01
 0.2057473179854E+01
 0.2131515062805E+01
 0.2191125649894E+01
 0.2234429258822E+01
 0.2259205345576E+01
 0.2263164610174E+01
 0.2244440015384E+01
 0.2202203247858E+01
 0.2137289066517E+01
 0.3289824537783E+00
 0.5845768331923E+00
 0.8112729875774E+00
 0.1012137669374E+01
 0.1191516626868E+01
 0.1353210773864E+01
 0.1500205101968E+01
 0.1634636482951E+01
 0.1757835019028E+01
 0.1870405116712E+01
 0.1972323617281E+01
 0.2063032826769E+01
 0.2141518072796E+01
 0.2206299238589E+01
 0.2255401641987E+01
 0.2286430047445E+01
 0.2296839284671E+01
 0.2284458334211E+01
 0.2248176787309E+01
 0.2188685321366E+01
 0.3247604500021E+00
 0.5809244067980E+00
 0.8071831007728E+00
 0.1007094855844E+01
 0.1185426016058E+01
 0.1346312622730E+01
 0.1492994455483E+01
 0.1627787744454E+01
 0.1752132290383E+01
 0.1866681984935E+01
 0.1971417430457E+01
 0.2065758465463E+01
 0.2148663765464E+01
 0.2218611991139E+01
 0.2273538836530E+01
 0.2310877971854E+01
 0.2327818095897E+01
 0.2321854875825E+01
 0.2291546275779E+01
 0.2237376489216E+01
 0.3200657081041E+00
 0.5762444541423E+00
 0.8015841000096E+00
 0.1000151620439E+01
 0.1177129448004E+01
 0.1336976586702E+01
 0.1483173895323E+01
 0.1618203802083E+01
 0.1743603562480E+01
 0.1860065246991E+01
 0.1967562874511E+01
 0.2065485951764E+01
 0.2152767385320E+01
 0.2227854325953E+01
 0.2288605908113E+01
 0.2332293330624E+01
 0.2355834650676E+01
 0.2356366374247E+01
 0.2332057302112E+01
 0.2283086155800E+01
 0.3148745830980E+00
 0.5704835303353E+00
 0.7943990146435E+00
 0.9912147457809E+00
 0.1166522691424E+01
 0.1325090878754E+01
 0.1470626638380E+01
 0.1605764586595E+01
 0.1732126001834E+01
 0.1850428165455E+01
 0.1960625824957E+01
 0.2062067240249E+01
 0.2153659119557E+01
 0.2233828606710E+01
 0.2300375394785E+01
 0.2350422044237E+01
 0.2380618395926E+01
 0.2387724341052E+01
 0.2369458482305E+01
 0.2325550855439E+01
 0.3091608503385E+00
 0.5635852301337E+00
 0.7855512097148E+00
 0.9801952928933E+00
 0.1153508333564E+01
 0.1310552074426E+01
 0.1455245433773E+01
 0.1590360843520E+01
 0.1717589162593E+01
 0.1837658556985E+01
 0.1950489321366E+01
 0.2055373342583E+01
 0.2151187788580E+01
 0.2236352554971E+01
 0.2308630696093E+01
 0.2365014622075E+01
 0.2401894061605E+01
 0.2415648335457E+01
 0.2403495346098E+01
 0.2364518686835E+01
 0.3028931556259E+00
 0.5554873672657E+00
 0.7749648432188E+00
 0.9670098870352E+00
 0.1137996817533E+01
 0.1293265256546E+01
 0.1436932678926E+01
 0.1571894103452E+01
 0.1699894812788E+01
 0.1821658883242E+01
 0.1937054803514E+01
 0.2045297289499E+01
 0.2145225408332E+01
 0.2235263481685E+01
 0.2313168534686E+01
 0.2375831686463E+01
 0.2419384831276E+01
 0.2439838301883E+01
 0.2433894085237E+01
 0.2399748773538E+01
 0.2960288632186E+00
 0.5461198700936E+00
 0.7625662852396E+00
 0.9515853138979E+00
 0.1119906316949E+01
 0.1273143985806E+01
 0.1415600659278E+01
 0.1550276618863E+01
 0.1678956237292E+01
 0.1802345523069E+01
 0.1920242338625E+01
 0.2031756937941E+01
 0.2135672401065E+01
 0.2230425037433E+01
 0.2313800987866E+01
 0.2382643333429E+01
 0.2432832806978E+01
 0.2459966948994E+01
 0.2460330319476E+01
 0.2431024472958E+01
 0.2885039734815E+00
 0.5353884697078E+00
 0.7483095274083E+00
 0.9338573435121E+00
 0.1099160602423E+01
 0.1250111707320E+01
 0.1391171627252E+01
 0.1525430950155E+01
 0.1654698328257E+01
 0.1779645985258E+01
 0.1899989667310E+01
 0.2014696885734E+01
 0.2122463794570E+01
 0.2221735191558E+01
 0.2310365628773E+01
 0.2385216097689E+01
 0.2441999511310E+01
 0.2475775073925E+01
 0.2482301148671E+01
 0.2458136582650E+01
 0.2801092392244E+00
 0.5233293513924E+00
 0.7321810134103E+00
 0.9137527162398E+00
 0.1075693100910E+01
 0.1224103457366E+01
 0.1363578591313E+01
 0.1497287595068E+01
 0.1627056816548E+01
 0.1753502419612E+01
 0.1876237421082E+01
 0.1994095359190E+01
 0.2105576423371E+01
 0.2209131395321E+01
 0.2302740682952E+01
 0.2383333274911E+01
 0.2446569604204E+01
 0.2487162932021E+01
 0.2499526009664E+01
 0.2481249992803E+01
 0.3219081863850E+01
 0.3716289987107E+01
 0.2537343973456E+01
 0.1923217266393E+01
 0.1526039642276E+01
 0.1242089312262E+01
 0.1019123384395E+01
 0.8340245764252E+00
 0.6741706862764E+00
 0.5330799344655E+00
 0.4066850312261E+00
 0.2918547895785E+00
 0.1973959005189E+00
 0.1279315568067E+00
 0.7946721473567E-01
 0.4824175232001E-01
 0.2766037825048E-01
 0.1341226968601E-01
 0.3765944212963E-02
 0.1903556485515E-02
 0.2470967000994E+01
 0.3691415591158E+01
 0.2891467126030E+01
 0.2184898613477E+01
 0.1729211009774E+01
 0.1407938146554E+01
 0.1162298804923E+01
 0.9617922912711E+00
 0.7908923558590E+00
 0.6410656231207E+00
 0.5071229671116E+00
 0.3866611812314E+00
 0.2861490250769E+00
 0.2070768575765E+00
 0.1458100632698E+00
 0.1001330023380E+00
 0.6521903942865E-01
 0.3721364307671E-01
 0.1465694790957E-01
 0.3955438327304E-02
 0.1971816630179E+01
 0.3211814253250E+01
 0.2955950405603E+01
 0.2382667349323E+01
 0.1908599681571E+01
 0.1563247391152E+01
 0.1299166500664E+01
 0.1085696780532E+01
 0.9050913531687E+00
 0.7474513163014E+00
 0.6069398020352E+00
 0.4806787743453E+00
 0.3726100221798E+00
 0.2840733961069E+00
 0.2117861060539E+00
 0.1533501884648E+00
 0.1052031839437E+00
 0.6424275580388E-01
 0.2939315263305E-01
 0.4852036605138E-02
 0.1619385300288E+01
 0.2762444531694E+01
 0.2816696797310E+01
 0.2461805636650E+01
 0.2045295110988E+01
 0.1699267433247E+01
 0.1425821440943E+01
 0.1203301943745E+01
 0.1015211083143E+01
 0.8511996593865E+00
 0.7050070870614E+00
 0.5731681144095E+00
 0.4577438934629E+00
 0.3601312180011E+00
 0.2776679623942E+00
 0.2077673269964E+00
 0.1475370172104E+00
 0.9448023429811E-01
 0.4792157396396E-01
 0.1036550422712E-01
 0.1358309617234E+01
 0.2376024026653E+01
 0.2608763284575E+01
 0.2438225783373E+01
 0.2121563087825E+01
 0.1806403916769E+01
 0.1537101449976E+01
 0.1311784540404E+01
 0.1119449993645E+01
 0.9510319377480E+00
 0.8003722259350E+00
 0.6636816364957E+00
 0.5416333997342E+00
 0.4356920596877E+00
 0.3438438249081E+00
 0.2634946092418E+00
 0.1922154848867E+00
 0.1279127567403E+00
 0.7011261396066E-01
 0.2073334008427E-01
 0.1159392816262E+01
 0.2052638596617E+01
 0.2383193867885E+01
 0.2352778619731E+01
 0.2139917804944E+01
 0.1877475232351E+01
 0.1627866087193E+01
 0.1407940966509E+01
 0.1215790911957E+01
 0.1045566151724E+01
 0.8920946774162E+00
 0.7516908731079E+00
 0.6241039619914E+00
 0.5108358093799E+00
 0.4105061633375E+00
 0.3206776497105E+00
 0.2393053528889E+00
 0.1645641801609E+00
 0.9605976538700E-01
 0.3546896366764E-01
 0.1004759782401E+01
 0.1783694818796E+01
 0.2163025353609E+01
 0.2233586322405E+01
 0.2113831051194E+01
 0.1912388323365E+01
 0.1694614614483E+01
 0.1488820196209E+01
 0.1302152021150E+01
 0.1133365801442E+01
 0.9791930772909E+00
 0.8365860259685E+00
 0.7048207489679E+00
 0.5854457768716E+00
 0.4776898680580E+00
 0.3794013963378E+00
 0.2888910131567E+00
 0.2045328040990E+00
 0.1259328227708E+00
 0.5466618595154E-01
 0.8827459181558E+00
 0.1560267623476E+01
 0.1958113606367E+01
 0.2098878439433E+01
 0.2056818456229E+01
 0.1916042949408E+01
 0.1736848693160E+01
 0.1552479949966E+01
 0.1376730296617E+01
 0.1213048159338E+01
 0.1060676450648E+01
 0.9176980990160E+00
 0.7833479815281E+00
 0.6592770961489E+00
 0.5453087074857E+00
 0.4396750601532E+00
 0.3410391369657E+00
 0.2479399441783E+00
 0.1599321055564E+00
 0.7854049096724E-01
 0.7853459148437E+00
 0.1374516364159E+01
 0.1772258318749E+01
 0.1959970090503E+01
 0.1980037996160E+01
 0.1894945985613E+01
 0.1756546787287E+01
 0.1598469678669E+01
 0.1438359851552E+01
 0.1283469561948E+01
 0.1135624599500E+01
 0.9943474233133E+00
 0.8591935513548E+00
 0.7320001568064E+00
 0.6131819083044E+00
 0.5014307357227E+00
 0.3957705230944E+00
 0.2948898914561E+00
 0.1982475443237E+00
 0.1073088443159E+00
 0.7068659965283E+00
 0.1219904477837E+01
 0.1606312858766E+01
 0.1823747678428E+01
 0.1891966637151E+01
 0.1855540023425E+01
 0.1757008935725E+01
 0.1627686426866E+01
 0.1486713071189E+01
 0.1343903448338E+01
 0.1203298228737E+01
 0.1065910619488E+01
 0.9318565305623E+00
 0.8032365655924E+00
 0.6810558819843E+00
 0.5645237841373E+00
 0.4530398323902E+00
 0.3454371934267E+00
 0.2410293025431E+00
 0.1411482720076E+00
 0.6431424033895E+00
 0.1091064503019E+01
 0.1459694281581E+01
 0.1694275062385E+01
 0.1798789979686E+01
 0.1803485909982E+01
 0.1741992387003E+01
 0.1641934646263E+01
 0.1522257290701E+01
 0.1394135757598E+01
 0.1263236728864E+01
 0.1131894182558E+01
 0.1000879326434E+01
 0.8725957838023E+00
 0.7486255046681E+00
 0.6287352785379E+00
 0.5127195899982E+00
 0.3995600752716E+00
 0.2883650053913E+00
 0.1801789619785E+00
 0.5910622327241E+00
 0.9836034539526E+00
 0.1331140493518E+01
 0.1573816038942E+01
 0.1704898318156E+01
 0.1743459071031E+01
 0.1715182723368E+01
 0.1643495365473E+01
 0.1546066321863E+01
 0.1434450818030E+01
 0.1315310126133E+01
 0.1191995266488E+01
 0.1065899213044E+01
 0.9397140475091E+00
 0.8155585113396E+00
 0.6937780031336E+00
 0.5745875280376E+00
 0.4571363430430E+00
 0.3402608403003E+00
 0.2244594023496E+00
 0.5482558994549E+00
 0.8939199478428E+00
 0.1219103465719E+01
 0.1463481757277E+01
 0.1613327685399E+01
 0.1679173881665E+01
 0.1679919913680E+01
 0.1634797483188E+01
 0.1559598282210E+01
 0.1465541085221E+01
 0.1359714916650E+01
 0.1246134575544E+01
 0.1126690385606E+01
 0.1004293799783E+01
 0.8815251724074E+00
 0.7593086816525E+00
 0.6383173252133E+00
 0.5179183343863E+00
 0.3966218462032E+00
 0.2739907912138E+00
 0.5128922546863E+00
 0.8190507188530E+00
 0.1121956474527E+01
 0.1363645142051E+01
 0.1526110303586E+01
 0.1613496667731E+01
 0.1639083534590E+01
 0.1618200094506E+01
 0.1564497487869E+01
 0.1488385365680E+01
 0.1396926010056E+01
 0.1294456230432E+01
 0.1183189009300E+01
 0.1066140304443E+01
 0.9462354944527E+00
 0.8249511537004E+00
 0.7034752179868E+00
 0.5815030613471E+00
 0.4572234975908E+00
 0.3287285011903E+00
 0.4835375122189E+00
 0.7565464160959E+00
 0.1038103225899E+01
 0.1274209792082E+01
 0.1444541490273E+01
 0.1548581642083E+01
 0.1595068717730E+01
 0.1595863822598E+01
 0.1562441208187E+01
 0.1504126781594E+01
 0.1427624160205E+01
 0.1337298278412E+01
 0.1235496143551E+01
 0.1125191139423E+01
 0.1009486687608E+01
 0.8903407562695E+00
 0.7695306777537E+00
 0.6472949612555E+00
 0.5216598078210E+00
 0.3885959336035E+00
 0.4590549062646E+00
 0.7043721305100E+00
 0.9660339727074E+00
 0.1194787380943E+01
 0.1369379590137E+01
 0.1486001696055E+01
 0.1549809454264E+01
 0.1569685147335E+01
 0.1555032094111E+01
 0.1513967194515E+01
 0.1452615941627E+01
 0.1375142209755E+01
 0.1283854237987E+01
 0.1181528129152E+01
 0.1071221942566E+01
 0.9552078347881E+00
 0.8359082143287E+00
 0.7144636917764E+00
 0.5892424154880E+00
 0.4534849279149E+00
 0.4385306042570E+00
 0.6608270351260E+00
 0.9043537312545E+00
 0.1124816933422E+01
 0.1300995303473E+01
 0.1426863369347E+01
 0.1504823955556E+01
 0.1541272059529E+01
 0.1543729038654E+01
 0.1519084246808E+01
 0.1472758793562E+01
 0.1408552193271E+01
 0.1328598251301E+01
 0.1235346417561E+01
 0.1131573771258E+01
 0.1019533846781E+01
 0.9021387724623E+00
 0.7819454467321E+00
 0.6587929369806E+00
 0.5232009561567E+00
 0.4212138651782E+00
 0.6244813815368E+00
 0.8517961702416E+00
 0.1063649779630E+01
 0.1239481193505E+01
 0.1371903818739E+01
 0.1461268332994E+01
 0.1511945302980E+01
 0.1529807188911E+01
 0.1520570648833E+01
 0.1488898376895E+01
 0.1438117562427E+01
 0.1370092565197E+01
 0.1286873670629E+01
 0.1190781291185E+01
 0.1083711220401E+01
 0.9683397646877E+00
 0.8485965839215E+00
 0.7283156529957E+00
 0.5971672172522E+00
 0.4064650887201E+00
 0.5941100346420E+00
 0.8072608817431E+00
 0.1010600647506E+01
 0.1184730231227E+01
 0.1321571834075E+01
 0.1419991742901E+01
 0.1482755223486E+01
 0.1514337974271E+01
 0.1519391782298E+01
 0.1501819722252E+01
 0.1464408482937E+01
 0.1408684312449E+01
 0.1336269599362E+01
 0.1248982235895E+01
 0.1148194581469E+01
 0.1035843029125E+01
 0.9148517104598E+00
 0.7941780758704E+00
 0.6734491385203E+00
 0.3935670333062E+00
 0.5688674504251E+00
 0.7698194520535E+00
 0.9649613036139E+00
 0.1136497296766E+01
 0.1276093994220E+01
 0.1381590675909E+01
 0.1454509595784E+01
 0.1498182915711E+01
 0.1516351570501E+01
 0.1512211561902E+01
 0.1487945156129E+01
 0.1444688194176E+01
 0.1383613896384E+01
 0.1306017087703E+01
 0.1212901894348E+01
 0.1105465798343E+01
 0.9852484253830E+00
 0.8573028067613E+00
 0.7418707869861E+00
 0.2715597968457E+00
 0.5128353761658E+00
 0.7181070316557E+00
 0.8960777221337E+00
 0.1054851037931E+01
 0.1200868893371E+01
 0.1338926812166E+01
 0.1472317000635E+01
 0.1602888589783E+01
 0.1731211423847E+01
 0.1856832601098E+01
 0.1978545493342E+01
 0.2094526964476E+01
 0.2203288300005E+01
 0.2302677051464E+01
 0.2389288473922E+01
 0.2458345992420E+01
 0.2504011256020E+01
 0.2520800297115E+01
 0.2506316603877E+01
 0.2644760446905E+00
 0.5042046966976E+00
 0.7062985700939E+00
 0.8806511257433E+00
 0.1036086345738E+01
 0.1179475028561E+01
 0.1315897679681E+01
 0.1448839383425E+01
 0.1580276068890E+01
 0.1710849438103E+01
 0.1840100480941E+01
 0.1966644766882E+01
 0.2088292084183E+01
 0.2203496857804E+01
 0.2309768077919E+01
 0.2402888058571E+01
 0.2476964056161E+01
 0.2525052480701E+01
 0.2541693913935E+01
 0.2519049733278E+01
 0.2565180164331E+00
 0.4934832669656E+00
 0.6913650824870E+00
 0.8611979487513E+00
 0.1012564345463E+01
 0.1152763315903E+01
 0.1287121765064E+01
 0.1419275131134E+01
 0.1551286497261E+01
 0.1683842278156E+01
 0.1816466924395E+01
 0.1947654551243E+01
 0.2074986291593E+01
 0.2196952469188E+01
 0.2310797321399E+01
 0.2411443199727E+01
 0.2491556704378E+01
 0.2542396129123E+01
 0.2555689171964E+01
 0.2522514959959E+01
 0.2476145847617E+00
 0.4805165859022E+00
 0.6730426361370E+00
 0.8374633748821E+00
 0.9840804022212E+00
 0.1120580874530E+01
 0.1252482303709E+01
 0.1383512766688E+01
 0.1515778166716E+01
 0.1649989933657E+01
 0.1785676901961E+01
 0.1921272966474E+01
 0.2054209267636E+01
 0.2183144983462E+01
 0.2305127510245E+01
 0.2414071840583E+01
 0.2500672538157E+01
 0.2553290937502E+01
 0.2561472207085E+01
 0.2517724058289E+01
 0.2376821018578E+00
 0.4650931104557E+00
 0.6510765765611E+00
 0.8092067078230E+00
 0.9504561955700E+00
 0.1082818910825E+01
 0.1211921172782E+01
 0.1341510500595E+01
 0.1473685471183E+01
 0.1609169101459E+01
 0.1747522918035E+01
 0.1887176105147E+01
 0.2025494502781E+01
 0.2161434617277E+01
 0.2291904090237E+01
 0.2409639846698E+01
 0.2502809055511E+01
 0.2556523523751E+01
 0.2558924960994E+01
 0.2504311160105E+01
 0.2266117785219E+00
 0.4469684261784E+00
 0.6251943882019E+00
 0.7762008379345E+00
 0.9115487920680E+00
 0.1039425001115E+01
 0.1165453301245E+01
 0.1293309513455E+01
 0.1425027403894E+01
 0.1561327966211E+01
 0.1701834936558E+01
 0.1845032197871E+01
 0.1988315634945E+01
 0.2131075739339E+01
 0.2270160099965E+01
 0.2397015838086E+01
 0.2496881634754E+01
 0.2551299776634E+01
 0.2547313072055E+01
 0.2481281279447E+01
 0.2142682859876E+00
 0.4258556692673E+00
 0.5951032833277E+00
 0.7382308634315E+00
 0.8672598894225E+00
 0.9904167538374E+00
 0.1113181278740E+01
 0.1239046735803E+01
 0.1369915210274E+01
 0.1506489116871E+01
 0.1648485251714E+01
 0.1794508980155E+01
 0.1942104333702E+01
 0.2091257976660E+01
 0.2238891804493E+01
 0.2375151160278E+01
 0.2481927593303E+01
 0.2536680407276E+01
 0.2525538924940E+01
 0.2447379370318E+01
 0.2004842372238E+00
 0.4014173438389E+00
 0.5604867486870E+00
 0.6950988342532E+00
 0.8175468501646E+00
 0.9358970208531E+00
 0.1055310602946E+01
 0.1178967546601E+01
 0.1308561808695E+01
 0.1444757452362E+01
 0.1587396940988E+01
 0.1735285421214E+01
 0.1886268048506E+01
 0.2041128923373E+01
 0.2197067018422E+01
 0.2342989186008E+01
 0.2456916319383E+01
 0.2511522176031E+01
 0.2492242195038E+01
 0.2401190995654E+01
 0.1850522383888E+00
 0.3732543100290E+00
 0.5210029241194E+00
 0.6466318392046E+00
 0.7624377143105E+00
 0.8760712290185E+00
 0.9921656011563E+00
 0.1113438552579E+01
 0.1241292267353E+01
 0.1376330416708E+01
 0.1518555633464E+01
 0.1667064802368E+01
 0.1820201547450E+01
 0.1979793768632E+01
 0.2143587400361E+01
 0.2299385117078E+01
 0.2420676293810E+01
 0.2474462813132E+01
 0.2445842638171E+01
 0.2341164348803E+01
 0.1677139869365E+00
 0.3408921433779E+00
 0.4762846389488E+00
 0.5926947990200E+00
 0.7020509003144E+00
 0.8112674277849E+00
 0.9242055980347E+00
 0.1042959484095E+01
 0.1168553983138E+01
 0.1301509706577E+01
 0.1442023931980E+01
 0.1589588885992E+01
 0.1743293644970E+01
 0.1906301907069E+01
 0.2077245714135E+01
 0.2243048547047E+01
 0.2371847625063E+01
 0.2423900206547E+01
 0.2384535783218E+01
 0.2265607447997E+01
 0.1481456920237E+00
 0.3037643713491E+00
 0.4259424139614E+00
 0.5332098495558E+00
 0.6366210262360E+00
 0.7419589998310E+00
 0.8520400737018E+00
 0.9681723854213E+00
 0.1090925131249E+01
 0.1220713969697E+01
 0.1357959412967E+01
 0.1502655947506E+01
 0.1654935119120E+01
 0.1819632997652E+01
 0.1996684940139E+01
 0.2172489527468E+01
 0.2308829562574E+01
 0.2357946667558E+01
 0.2306260341483E+01
 0.2172677705987E+01
 0.1259386928050E+00
 0.2611921811404E+00
 0.3695728665626E+00
 0.4681856323439E+00
 0.5665325514631E+00
 0.6687892243632E+00
 0.7764403187216E+00
 0.8898655025314E+00
 0.1009119842457E+01
 0.1134492717086E+01
 0.1266638746361E+01
 0.1406147976490E+01
 0.1554535643796E+01
 0.1718688724948E+01
 0.1900356091579E+01
 0.2085954067620E+01
 0.2229704864268E+01
 0.2274351774415E+01
 0.2208643190744E+01
 0.2060371663892E+01
 0.1005743324001E+00
 0.2123604930076E+00
 0.3067771541492E+00
 0.3977617765149E+00
 0.4923629735063E+00
 0.5925952507568E+00
 0.6983434667389E+00
 0.8089686138277E+00
 0.9239887976143E+00
 0.1043542384308E+01
 0.1168491838045E+01
 0.1300074437365E+01
 0.1441558614139E+01
 0.1602295503917E+01
 0.1786471087119E+01
 0.1981336119418E+01
 0.2132125415482E+01
 0.2170384430636E+01
 0.2088922774541E+01
 0.1926521013180E+01
 0.7139701334780E-01
 0.1562918339977E+00
 0.2371983667278E+00
 0.3222768800561E+00
 0.4149361849859E+00
 0.5144258401460E+00
 0.6188427623902E+00
 0.7265367210824E+00
 0.8365146993793E+00
 0.9487258512787E+00
 0.1064150523018E+01
 0.1184642234475E+01
 0.1315586487122E+01
 0.1469227034014E+01
 0.1652948186314E+01
 0.1856050312147E+01
 0.2013136869988E+01
 0.2042658286947E+01
 0.1943850206856E+01
 0.1768805739423E+01
 0.3765430146817E-01
 0.9182824876044E-01
 0.1605961441177E+00
 0.2423723132770E+00
 0.3353823916427E+00
 0.4355409132090E+00
 0.5391567983533E+00
 0.6437211833688E+00
 0.7478036631557E+00
 0.8510956850271E+00
 0.9545154698778E+00
 0.1060364529451E+01
 0.1176437559515E+01
 0.1318265001379E+01
 0.1497350314569E+01
 0.1706840814188E+01
 0.1868903506149E+01
 0.1886874136077E+01
 0.1769571479170E+01
 0.1584809419212E+01
 0.7301145454996E-02
 0.1790912127072E-01
 0.7699967076387E-01
 0.1591494544054E+00
 0.2551859088171E+00
 0.3573724252131E+00
 0.4605726605597E+00
 0.5617346370417E+00
 0.6590739897417E+00
 0.7519178206172E+00
 0.8408409765631E+00
 0.9282244726094E+00
 0.1024370471193E+01
 0.1148337882433E+01
 0.1316824952219E+01
 0.1529481300701E+01
 0.1694259028871E+01
 0.1697433906354E+01
 0.1561514845440E+01
 0.1372173783178E+01
 0.5099264710006E-01
 0.6837697542649E-01
 0.1321746550491E-01
 0.7438340217843E-01
 0.1761724786277E+00
 0.2814108454795E+00
 0.3843829537259E+00
 0.4818209123350E+00
 0.5716407051276E+00
 0.6526865343283E+00
 0.7248293909624E+00
 0.7899061878826E+00
 0.8604418411062E+00
 0.9588279792434E+00
 0.1108081974856E+01
 0.1318280587523E+01
 0.1481917182030E+01
 0.1466854745417E+01
 0.1314372511461E+01
 0.1129020988976E+01
 0.1083611511655E+00
 0.1668634057704E+00
 0.1076908725515E+00
 0.9334171789920E-02
 0.1002282418153E+00
 0.2090756238930E+00
 0.3118580804618E+00
 0.4052281452353E+00
 0.4868893228500E+00
 0.5551250040420E+00
 0.6087032439109E+00
 0.6480894405910E+00
 0.6871010813013E+00
 0.7502789012834E+00
 0.8675549416513E+00
 0.1065197094038E+01
 0.1220961619021E+01
 0.1184820788601E+01
 0.1022571389782E+01
 0.8550808875163E+00
 0.1794746704121E+00
 0.2788924955828E+00
 0.2019094278584E+00
 0.8892426634328E-01
 0.2893353974843E-01
 0.1417237207038E+00
 0.2442310870264E+00
 0.3331922758148E+00
 0.4062198260099E+00
 0.4611526930284E+00
 0.4952803920092E+00
 0.5066219947543E+00
 0.5091347627116E+00
 0.5259998696381E+00
 0.5923873148293E+00
 0.7582441892362E+00
 0.8932619737257E+00
 0.8368644098921E+00
 0.6827350987678E+00
 0.5558262747134E+00
 0.2697350773523E+00
 0.3920474211261E+00
 0.2901658931189E+00
 0.1631708040042E+00
 0.3620268690971E-01
 0.8064685792276E-01
 0.1826737961078E+00
 0.2669368794476E+00
 0.3310201990605E+00
 0.3726441319336E+00
 0.3881171129496E+00
 0.3709057711994E+00
 0.3332334238997E+00
 0.2961151673903E+00
 0.2856463544131E+00
 0.3783379296575E+00
 0.4635263994596E+00
 0.4032483563914E+00
 0.3123249226043E+00
 0.2649635736050E+00
 0.6422760061030E+00
 0.5610068843451E+00
 0.4928590390842E+00
 0.4295783238409E+00
 0.3693379577811E+00
 0.3124589358084E+00
 0.2595039144284E+00
 0.2110077072737E+00
 0.1673910813610E+00
 0.1289546830702E+00
 0.9588461826224E-01
 0.6826327904959E-01
 0.4608512720296E-01
 0.2927743275570E-01
 0.1769422694451E-01
 0.1087541937536E-01
 0.7297342378663E-02
 0.5053296274324E-02
 0.6332749563671E-02
 0.1304755894491E-01
 0.6570735899683E+00
 0.5823466106404E+00
 0.5050385665951E+00
 0.4324358264143E+00
 0.3647437586234E+00
 0.3018173462559E+00
 0.2438422217695E+00
 0.1911721536777E+00
 0.1442098554250E+00
 0.1033459905935E+00
 0.6896869114989E-01
 0.4161874703198E-01
 0.2271907348717E-01
 0.1602126583661E-01
 0.1879693124083E-01
 0.2116466427250E-01
 0.1987081164698E-01
 0.1469526477229E-01
 0.6249120540736E-02
 0.3072073405880E-02
 0.6692979115317E+00
 0.5958153238312E+00
 0.5168821864060E+00
 0.4387367414239E+00
 0.3646280791632E+00
 0.2955630206845E+00
 0.2320578348971E+00
 0.1745904316140E+00
 0.1236995074458E+00
 0.8007298298326E-01
 0.4502613904438E-01
 0.2352993446781E-01
 0.2566327835839E-01
 0.3644165121514E-01
 0.4349141781504E-01
 0.4488269134096E-01
 0.4069380536858E-01
 0.3155985370258E-01
 0.1863999417271E-01
 0.3144916861247E-02
 0.6840005282445E+00
 0.6080578437317E+00
 0.5274843622035E+00
 0.4460535528352E+00
 0.3670719975346E+00
 0.2925191188256E+00
 0.2235381024817E+00
 0.1610060626216E+00
 0.1058635196853E+00
 0.5974160455428E-01
 0.2908006521426E-01
 0.3285084839712E-01
 0.5126159085290E-01
 0.6522975341067E-01
 0.7198745853471E-01
 0.7135675648498E-01
 0.6382539626893E-01
 0.5024480957903E-01
 0.3162243769271E-01
 0.8835363163943E-02
 0.7019995822422E+00
 0.6221079960010E+00
 0.5389550857812E+00
 0.4545291998576E+00
 0.3715183454209E+00
 0.2920994905551E+00
 0.2178875514539E+00
 0.1502368493528E+00
 0.9078354946573E-01
 0.4389468062489E-01
 0.3268940994947E-01
 0.5732559322120E-01
 0.8088278482196E-01
 0.9637128330517E-01
 0.1027842555277E+00
 0.1002020523735E+00
 0.8920477591587E-01
 0.7070186517978E-01
 0.4577365191713E-01
 0.1545684059326E-01
 0.7234025421237E+00
 0.6391888635301E+00
 0.5527873580620E+00
 0.4651557565295E+00
 0.3783274269531E+00
 0.2943666226505E+00
 0.2151057762245E+00
 0.1423303643260E+00
 0.7871167088919E-01
 0.3570096619667E-01
 0.5042490041275E-01
 0.8448834951712E-01
 0.1119182806179E+00
 0.1293013690700E+00
 0.1358799464219E+00
 0.1316743477535E+00
 0.1172171270448E+00
 0.9346685068989E-01
 0.6171321109913E-01
 0.2340760594519E-01
 0.7481818422544E+00
 0.6598191496432E+00
 0.5698783704736E+00
 0.4788070401264E+00
 0.3881391044351E+00
 0.2997297103639E+00
 0.2154809793546E+00
 0.1375344745605E+00
 0.6999428211306E-01
 0.3730861677885E-01
 0.7117852048022E-01
 0.1119604676947E+00
 0.1437132908358E+00
 0.1638208750473E+00
 0.1713503136955E+00
 0.1660687987460E+00
 0.1483321468961E+00
 0.1190796344636E+00
 0.7982063203403E-01
 0.3259995721963E-01
 0.7763025863485E+00
 0.6841946218783E+00
 0.5907060952449E+00
 0.4960794386103E+00
 0.4015127877880E+00
 0.3086553635713E+00
 0.2194018461915E+00
 0.1361807343276E+00
 0.6486020068770E-01
 0.4505649126813E-01
 0.9142035044517E-01
 0.1387682358559E+00
 0.1756993075216E+00
 0.1995788882076E+00
 0.2090656243777E+00
 0.2034886091739E+00
 0.1828540751661E+00
 0.1479418553380E+00
 0.1003757094567E+00
 0.4270835435870E-01
 0.8077408211947E+00
 0.7123856841965E+00
 0.6155312192774E+00
 0.5173764972628E+00
 0.4189100793465E+00
 0.3216073021268E+00
 0.2273167888717E+00
 0.1386742760589E+00
 0.6331364139460E-01
 0.5397320067387E-01
 0.1097093328174E+00
 0.1640709138308E+00
 0.2071719707427E+00
 0.2360113532708E+00
 0.2486586985870E+00
 0.2437994431602E+00
 0.2208551424214E+00
 0.1802227849408E+00
 0.1234805764439E+00
 0.5342587748383E-01
 0.8425295890405E+00
 0.7445637024373E+00
 0.6447381753958E+00
 0.5432964314813E+00
 0.4410970952282E+00
 0.3394694634523E+00
 0.2401851169074E+00
 0.1459716864679E+00
 0.6560750652337E-01
 0.6100814828946E-01
 0.1246479949927E+00
 0.1866888539529E+00
 0.2371209266838E+00
 0.2723615241717E+00
 0.2897157107282E+00
 0.2869594296285E+00
 0.2625549558786E+00
 0.2160830264843E+00
 0.1487138716152E+00
 0.6338696842009E-01
 0.8807516972707E+00
 0.7809567367910E+00
 0.6788168713981E+00
 0.5746338799508E+00
 0.4691761513903E+00
 0.3636386168888E+00
 0.2596760115532E+00
 0.1599413099246E+00
 0.7304152898009E-01
 0.6375065325082E-01
 0.1336028872134E+00
 0.2038742128293E+00
 0.2628587646944E+00
 0.3062339921621E+00
 0.3304133279238E+00
 0.3319976092383E+00
 0.3080037985366E+00
 0.2565032936891E+00
 0.1775581357633E+00
 0.7413518216543E-01
 0.9224782888243E+00
 0.8217108638484E+00
 0.7180966943955E+00
 0.6119660738685E+00
 0.5040099066009E+00
 0.3952898900156E+00
 0.2873026797257E+00
 0.1824578200671E+00
 0.8791454900471E-01
 0.6135537066345E-01
 0.1336753394415E+00
 0.2121923138201E+00
 0.2806831584733E+00
 0.3339399031595E+00
 0.3674800268949E+00
 0.3765936690558E+00
 0.3563931830422E+00
 0.3024715731808E+00
 0.2124280147002E+00
 0.8812937658642E-01
 0.9677284003542E+00
 0.8668772032768E+00
 0.7627259237627E+00
 0.6556030715880E+00
 0.5461239590651E+00
 0.4352178049806E+00
 0.3241958443166E+00
 0.2151165853919E+00
 0.1132127092723E+00
 0.5777624080263E-01
 0.1223948208785E+00
 0.2079583138626E+00
 0.2861357018181E+00
 0.3504775096369E+00
 0.3957612357797E+00
 0.4161157787229E+00
 0.4046143474947E+00
 0.3534392279597E+00
 0.2553580200907E+00
 0.1078949947229E+00
 0.1016453351606E+01
 0.9164159752234E+00
 0.8127095183738E+00
 0.7056458588955E+00
 0.5957701673266E+00
 0.4838887952902E+00
 0.3711257179553E+00
 0.2591675906535E+00
 0.1515779375933E+00
 0.6727985476613E-01
 0.9902552487312E-01
 0.1875582185213E+00
 0.2741007777618E+00
 0.3493544017685E+00
 0.4075566077377E+00
 0.4421853748739E+00
 0.4448104731170E+00
 0.4042270954915E+00
 0.3060410673759E+00
 0.1362203448696E+00
 0.1068534860904E+01
 0.9701965487173E+00
 0.8679237129761E+00
 0.7620123488742E+00
 0.6529522388380E+00
 0.5414500655426E+00
 0.4284695651256E+00
 0.3153786880871E+00
 0.2045866731431E+00
 0.1039327511118E+00
 0.7148640615084E-01
 0.1486998715802E+00
 0.2395312076917E+00
 0.3230753157325E+00
 0.3926229373437E+00
 0.4416242848096E+00
 0.4613409017686E+00
 0.4388751236945E+00
 0.3538687814485E+00
 0.1734998438534E+00
 0.1123787725111E+01
 0.1027998323604E+01
 0.9281198644118E+00
 0.8244433748343E+00
 0.7174257275129E+00
 0.6077084663907E+00
 0.4961447463996E+00
 0.3838812360229E+00
 0.2726451891089E+00
 0.1660839087662E+00
 0.8077341975176E-01
 0.9617877809709E-01
 0.1796522743875E+00
 0.2649856798310E+00
 0.3397472485775E+00
 0.3969623066432E+00
 0.4282349054624E+00
 0.4208645047349E+00
 0.3531012217979E+00
 0.1803097830919E+00
 0.1181965498650E+01
 0.1089516463819E+01
 0.9929313016543E+00
 0.8925100963002E+00
 0.7887005586301E+00
 0.6821157511140E+00
 0.5735540404543E+00
 0.4640452149932E+00
 0.3549779477125E+00
 0.2485177572290E+00
 0.1495302228638E+00
 0.7966682361466E-01
 0.1039949873525E+00
 0.1764963423157E+00
 0.2465233540450E+00
 0.3015301139211E+00
 0.3327034266360E+00
 0.3286586297391E+00
 0.2714935096001E+00
 0.1289143649789E+00
 0.1242767120275E+01
 0.1154370479954E+01
 0.1061885349356E+01
 0.9656308721015E+00
 0.8660626318055E+00
 0.7637920715062E+00
 0.6596044068375E+00
 0.5544881985218E+00
 0.4496969302743E+00
 0.3468924811660E+00
 0.2485443545921E+00
 0.1593984362423E+00
 0.9371129542075E-01
 0.8931822467157E-01
 0.1324534865773E+00
 0.1750277735146E+00
 0.1990713418647E+00
 0.1944237909573E+00
 0.1519378721164E+00
 0.7291010385217E-01
 0.1305845186696E+01
 0.1222117042553E+01
 0.1134422915634E+01
 0.1043101881777E+01
 0.9486220621437E+00
 0.8516023506230E+00
 0.7528298837176E+00
 0.6532815285569E+00
 0.5541575648307E+00
 0.4569390814442E+00
 0.3634922057996E+00
 0.2762762577806E+00
 0.1988093876917E+00
 0.1367331519397E+00
 0.9889992179212E-01
 0.8965290083361E-01
 0.9376060769407E-01
 0.9326187277963E-01
 0.8508300321600E-01
 0.8091280228065E-01
 0.1370815270881E+01
 0.1292265686000E+01
 0.1209923410489E+01
 0.1124137195614E+01
 0.1035378405454E+01
 0.9442632673231E+00
 0.8515688090054E+00
 0.7582477003161E+00
 0.6654454752522E+00
 0.5745219415073E+00
 0.4870766068594E+00
 0.4049740279673E+00
 0.3303542629283E+00
 0.2655829233687E+00
 0.2130192959542E+00
 0.1743713274648E+00
 0.1495436166261E+00
 0.1356671548375E+00
 0.1269872822689E+00
 0.1157323056928E+00
 0.1437265531831E+01
 0.1364293314949E+01
 0.1287726392799E+01
 0.1207903472159E+01
 0.1125277703526E+01
 0.1040437080584E+01
 0.9541167650853E+00
 0.8672059946283E+00
 0.7807508110136E+00
 0.6959513291060E+00
 0.6141489618901E+00
 0.5367941374052E+00
 0.4653772629926E+00
 0.4012937047703E+00
 0.3455980180534E+00
 0.2985913976127E+00
 0.2592020541082E+00
 0.2242356669224E+00
 0.1882893172298E+00
 0.1490698205806E+00
 0.1504761740739E+01
 0.1437648851311E+01
 0.1367136874861E+01
 0.1293529665883E+01
 0.1217232798190E+01
 0.1138771566441E+01
 0.1058798101575E+01
 0.9780891838591E+00
 0.8975349725196E+00
 0.8181163209852E+00
 0.7408652475124E+00
 0.6667993126489E+00
 0.5968158447405E+00
 0.5315264382000E+00
 0.4710083017948E+00
 0.4144561005669E+00
 0.3597694443248E+00
 0.3033458113028E+00
 0.2413196297912E+00
 0.1782463404850E+00
 0.1572846944083E+01
 0.1511756668975E+01
 0.1447437043099E+01
 0.1380129725481E+01
 0.1310160292366E+01
 0.1237954663478E+01
 0.1164040698509E+01
 0.1089037086151E+01
 0.1013629852323E+01
 0.9385343255538E+00
 0.8644378602919E+00
 0.7919162016940E+00
 0.7213144077009E+00
 0.6525830736495E+00
 0.5850664985112E+00
 0.5172639051445E+00
 0.4466669538866E+00
 0.3700439553264E+00
 0.2855628443055E+00
 0.2036417126739E+00
 0.1641066331933E+01
 0.1586053757831E+01
 0.1527940168934E+01
 0.1466875850633E+01
 0.1403074374259E+01
 0.1336828387209E+01
 0.1268506443442E+01
 0.1198534460873E+01
 0.1127363244091E+01
 0.1055420998332E+01
 0.9830478605610E+00
 0.9104085217750E+00
 0.8373796742213E+00
 0.7634131449315E+00
 0.6873878955033E+00
 0.6074967205660E+00
 0.5213001045187E+00
 0.4263416944150E+00
 0.3228082570811E+00
 0.2258949901370E+00
 0.1708979501792E+01
 0.1660007133114E+01
 0.1608012301484E+01
 0.1553024692776E+01
 0.1495116709683E+01
 0.1434419844859E+01
 0.1371117982001E+01
 0.1305423620084E+01
 0.1237540315457E+01
 0.1167611898120E+01
 0.1095657571942E+01
 0.1021492203699E+01
 0.9446335927578E+00
 0.8642050228137E+00
 0.7788560369805E+00
 0.6867572514800E+00
 0.5858068564845E+00
 0.4744482941045E+00
 0.3546726698385E+00
 0.2455126995239E+00
 0.1776165553834E+01
 0.1733120386469E+01
 0.1687078907207E+01
 0.1637922745725E+01
 0.1585558622965E+01
 0.1529936803896E+01
 0.1471042076213E+01
 0.1408866875687E+01
 0.1343372294137E+01
 0.1274439281976E+01
 0.1201810987686E+01
 0.1125027971475E+01
 0.1043361344179E+01
 0.9557559951841E+00
 0.8608102530274E+00
 0.7568486439924E+00
 0.6422230888894E+00
 0.5162491124255E+00
 0.3824437579519E+00
 0.2628820086177E+00
 0.1842227250152E+01
 0.1804937832332E+01
 0.1764627798063E+01
 0.1721006285073E+01
 0.1673795612873E+01
 0.1622753329452E+01
 0.1567661450452E+01
 0.1508297871564E+01
 0.1444398621746E+01
 0.1375614812836E+01
 0.1301466370639E+01
 0.1221295487511E+01
 0.1134226089525E+01
 0.1039142248530E+01
 0.9347111710114E+00
 0.8195043558897E+00
 0.6923489603151E+00
 0.5533275319306E+00
 0.4071809729598E+00
 0.2783224874283E+00
 0.1906793100552E+01
 0.1875045177276E+01
 0.1840207526913E+01
 0.1801795693617E+01
 0.1759335178837E+01
 0.1712388055901E+01
 0.1660539731319E+01
 0.1603368679214E+01
 0.1540411246992E+01
 0.1471126445792E+01
 0.1394863007266E+01
 0.1310831547818E+01
 0.1218087682338E+01
 0.1115537749944E+01
 0.1001990061865E+01
 0.8763009810861E+00
 0.7377441722624E+00
 0.5870296778908E+00
 0.4297995395636E+00
 0.2921223096819E+00
 0.1969520188192E+01
 0.1943070646159E+01
 0.1913425578581E+01
 0.1879888663098E+01
 0.1841782491424E+01
 0.1798479652339E+01
 0.1749383958388E+01
 0.1693896635418E+01
 0.1631383491915E+01
 0.1561148219489E+01
 0.1482413164146E+01
 0.1394309126650E+01
 0.1295878410073E+01
 0.1186100490483E+01
 0.1063959938829E+01
 0.9286015461713E+00
 0.7796965621044E+00
 0.6184442176467E+00
 0.4510601807265E+00
 0.3045402090046E+00
 0.2030093018917E+01
 0.2008680435708E+01
 0.1983939620309E+01
 0.1954944249088E+01
 0.1920814188579E+01
 0.1880747828922E+01
 0.1833990745668E+01
 0.1779794094602E+01
 0.1717382655915E+01
 0.1645936401130E+01
 0.1564584586043E+01
 0.1472411592455E+01
 0.1368476431619E+01
 0.1251852721961E+01
 0.1121705750575E+01
 0.9774480495400E+00
 0.8190924573579E+00
 0.6482178149511E+00
 0.4713598030553E+00
 0.3157144821627E+00
 0.2088221971107E+01
 0.2071576773904E+01
 0.2051452451746E+01
 0.2026669010178E+01
 0.1996151138101E+01
 0.1958949389686E+01
 0.1914182905577E+01
 0.1860983333687E+01
 0.1798461636963E+01
 0.1725697602735E+01
 0.1641746812789E+01
 0.1545661058913E+01
 0.1436521475076E+01
 0.1313488788205E+01
 0.1175884894271E+01
 0.1023344822641E+01
 0.8561553834910E+00
 0.6761868925536E+00
 0.4901975936569E+00
 0.3252742579066E+00
 0.2143641860175E+01
 0.2131503183532E+01
 0.2115712789195E+01
 0.2094803026514E+01
 0.2067522837733E+01
 0.2032815774006E+01
 0.1989715004002E+01
 0.1937264620420E+01
 0.1874484198455E+01
 0.1800367055038E+01
 0.1713900495749E+01
 0.1614099892857E+01
 0.1500053349772E+01
 0.1370979228748E+01
 0.1226308767977E+01
 0.1065831274073E+01
 0.8900181910213E+00
 0.7009368842489E+00
 0.5055605777980E+00
 0.3315149217980E+00
 0.2196107848054E+01
 0.2188240917455E+01
 0.2176492235456E+01
 0.2159064266871E+01
 0.2134572318420E+01
 0.2101913511149E+01
 0.2060083093365E+01
 0.2008067460680E+01
 0.1944809286938E+01
 0.1869218896159E+01
 0.1780210047923E+01
 0.1676748278330E+01
 0.1557906713702E+01
 0.1422930415198E+01
 0.1271319680707E+01
 0.1102968115516E+01
 0.9184725046659E+00
 0.7200413263073E+00
 0.5149080124458E+00
 0.3322966153591E+00
 0.2245390541522E+01
 0.2241584857106E+01
 0.2233532236247E+01
 0.2219070706333E+01
 0.2196770481487E+01
 0.2165570392594E+01
 0.2124481752096E+01
 0.2072455185824E+01
 0.2008360340475E+01
 0.1931019342237E+01
 0.1839263231655E+01
 0.1731996662508E+01
 0.1608267612369E+01
 0.1467343786466E+01
 0.1308805463956E+01
 0.1132688438688E+01
 0.9397933277932E+00
 0.7325954194797E+00
 0.5187588687867E+00
 0.3292358916047E+00
 0.2291365872295E+01
 0.2291501943237E+01
 0.2286758695370E+01
 0.2274652126809E+01
 0.2253884148034E+01
 0.2223563311324E+01
 0.2182765437830E+01
 0.2130411799285E+01
 0.2065287437578E+01
 0.1986112539805E+01
 0.1891620451920E+01
 0.1780637150736E+01
 0.1652164860816E+01
 0.1505474222411E+01
 0.1340213458513E+01
 0.1156565696392E+01
 0.9555639077449E+00
 0.7399979468990E+00
 0.5179918087082E+00
 0.3224805536691E+00
 0.2334013551524E+01
 0.2338075711062E+01
 0.2336126494485E+01
 0.2325595680747E+01
 0.2305654003628E+01
 0.2275712578513E+01
 0.2234929296006E+01
 0.2182158368703E+01
 0.2116073322015E+01
 0.2035275241055E+01
 0.1938382816300E+01
 0.1824118012029E+01
 0.1691399646457E+01
 0.1539452558444E+01
 0.1367940515593E+01
 0.1177145043321E+01
 0.9682985603543E+00
 0.7444928970509E+00
 0.5143276297608E+00
 0.3131182151606E+00
 0.2373493961678E+01
 0.2381489919723E+01
 0.2381432702360E+01
 0.2371432489175E+01
 0.2351580420349E+01
 0.2321696402771E+01
 0.2280871355478E+01
 0.2227817264563E+01
 0.2161073260704E+01
 0.2079118401122E+01
 0.1980449742045E+01
 0.1863660292269E+01
 0.1727535614037E+01
 0.1571179791219E+01
 0.1394179137417E+01
 0.1196824273982E+01
 0.9804619141143E+00
 0.7484446725762E+00
 0.5098783293477E+00
 0.3024558226490E+00
 0.2410245911793E+01
 0.2421889428457E+01
 0.2422036476362E+01
 0.2411116110762E+01
 0.2390958770587E+01
 0.2361137622307E+01
 0.2320439289739E+01
 0.2267396841763E+01
 0.2200443802314E+01
 0.2117972479327E+01
 0.2018375187677E+01
 0.1900102982907E+01
 0.1761756974447E+01
 0.1602225625868E+01
 0.1420884300487E+01
 0.1217878096873E+01
 0.9945634208849E+00
 0.7543779967655E+00
 0.5067830391409E+00
 0.2914506868861E+00
 0.2445785303077E+01
 0.2458976841797E+01
 0.2455303940391E+01
 0.2443301636751E+01
 0.2423285698946E+01
 0.2393857957430E+01
 0.2353535393049E+01
 0.2300801267756E+01
 0.2234098982482E+01
 0.2151812884899E+01
 0.2052276819935E+01
 0.1933811273036E+01
 0.1794799024783E+01
 0.1633817378331E+01
 0.1449857187461E+01
 0.1242677248260E+01
 0.1013372479930E+01
 0.7654450854361E+00
 0.5077964782974E+00
 0.2808392318888E+00
 0.2479060941707E+01
 0.2482871476967E+01
 0.2478461986666E+01
 0.2468021534748E+01
 0.2448976687913E+01
 0.2420086338098E+01
 0.2380108687793E+01
 0.2327752663514E+01
 0.2261608503792E+01
 0.2180141873077E+01
 0.2081697332176E+01
 0.1964516726646E+01
 0.1826782569148E+01
 0.1666710427252E+01
 0.1482734699389E+01
 0.1273869501559E+01
 0.1040406429954E+01
 0.7852893261639E+00
 0.5175902422231E+00
 0.2726030124286E+00
</DataArray>
<DataArray type="Float64" Name="S_Hyd" NumberOfComponents="1" ComponentName0="S_Hyd" format="ascii">
 0.8313006000639E+01
 0.5752175441541E+01
 0.5476645722815E+01
 0.5204812603184E+01
 0.5046995015101E+01
 0.4921315031939E+01
 0.4819024964809E+01
 0.4729428176713E+01
 0.4648309222631E+01
 0.4572966550833E+01
 0.4502065401170E+01
 0.4435050341360E+01
 0.4372029238844E+01
 0.4313804556257E+01
 0.4262410456851E+01
 0.4223579697799E+01
 0.4198888428250E+01
 0.4174118389812E+01
 0.4135643559286E+01
 0.4084032446881E+01
 0.4025181279473E+01
 0.3964861323933E+01
 0.3907501959368E+01
 0.3856397011393E+01
 0.3814064648534E+01
 0.3782306689744E+01
 0.3761284245440E+01
 0.3751526056057E+01
 0.3757155890255E+01
 0.3783465545097E+01
 0.3834779853517E+01
 0.3915326708478E+01
 0.4029121920711E+01
 0.4179057013328E+01
 0.4363711629251E+01
 0.4582759261107E+01
 0.4856329322836E+01
 0.5322979403273E+01
 0.5829355209468E+01
 0.8104439802109E+01
 0.2116576025202E+01
 0.7373955785055E+01
 0.6092828273321E+01
 0.5427418207465E+01
 0.5184676687159E+01
 0.4994880765752E+01
 0.4860705419175E+01
 0.4750635156609E+01
 0.4656675010258E+01
 0.4572742733762E+01
 0.4495836031936E+01
 0.4424223441065E+01
 0.4357126361984E+01
 0.4294472663476E+01
 0.4236885543229E+01
 0.4186320979308E+01
 0.4145850126877E+01
 0.4114360445611E+01
 0.4082994562596E+01
 0.4042946155411E+01
 0.3992923768367E+01
 0.3936695812391E+01
 0.3878788415005E+01
 0.3823012530221E+01
 0.3772305812451E+01
 0.3728893755058E+01
 0.3694201787421E+01
 0.3668809460709E+01
 0.3653697860924E+01
 0.3651576135042E+01
 0.3666045107569E+01
 0.3700237926790E+01
 0.3756594754098E+01
 0.3836668959973E+01
 0.3939897373835E+01
 0.4062937394902E+01
 0.4200981534206E+01
 0.4374237149467E+01
 0.4563592831926E+01
 0.4912146855595E+01
 0.4704929224321E+01
-0.8477556877117E+00
 0.6845572037871E+01
 0.6045008800844E+01
 0.5438246538942E+01
 0.5134376306789E+01
 0.4941591799677E+01
 0.4795815451254E+01
 0.4680473477688E+01
 0.4582549310699E+01
 0.4496269008135E+01
 0.4418000090308E+01
 0.4345780764767E+01
 0.4278611790177E+01
 0.4216238591495E+01
 0.4159129986115E+01
 0.4108678108393E+01
 0.4066230169344E+01
 0.4029984955827E+01
 0.3993938101175E+01
 0.3952133619535E+01
 0.3902952817035E+01
 0.3848619474281E+01
 0.3792567646134E+01
 0.3737973633410E+01
 0.3687390325471E+01
 0.3642727538643E+01
 0.3605211141596E+01
 0.3575557101669E+01
 0.3554714077551E+01
 0.3544480906053E+01
 0.3547119224162E+01
 0.3564464689097E+01
 0.3597380666771E+01
 0.3645220291281E+01
 0.3704951966552E+01
 0.3770036497174E+01
 0.3834380652095E+01
 0.3886406445259E+01
 0.3906663572656E+01
 0.3787289246370E+01
 0.2621588442973E+01
-0.1989915830432E+01
 0.6466504770793E+01
 0.5905071264877E+01
 0.5399216171011E+01
 0.5082360589263E+01
 0.4879017261865E+01
 0.4728041073499E+01
 0.4607826601458E+01
 0.4506961705027E+01
 0.4418723528494E+01
 0.4339363014221E+01
 0.4266662475176E+01
 0.4199453431668E+01
 0.4137311473642E+01
 0.4080482869508E+01
 0.4029757088705E+01
 0.3985466306079E+01
 0.3945716109093E+01
 0.3906231026901E+01
 0.3862835252711E+01
 0.3814002812868E+01
 0.3760990285762E+01
 0.3706314579897E+01
 0.3652548657279E+01
 0.3601847445975E+01
 0.3555824192673E+01
 0.3515531329760E+01
 0.3481650884505E+01
 0.3454927167302E+01
 0.3436443889796E+01
 0.3427378891992E+01
 0.3428363331951E+01
 0.3438827702148E+01
 0.3456333724253E+01
 0.3475591177841E+01
 0.3487898814829E+01
 0.3480421595028E+01
 0.3429219287937E+01
 0.3278666548015E+01
 0.2815098300532E+01
 0.1320494932023E+01
-0.2347793433170E+01
 0.6161047834309E+01
 0.5739932524567E+01
 0.5321539484599E+01
 0.5018499580011E+01
 0.4810437881112E+01
 0.4655999263422E+01
 0.4532787991022E+01
 0.4429679075999E+01
 0.4340010924177E+01
 0.4259834287041E+01
 0.4186807643167E+01
 0.4119613182356E+01
 0.4057670812529E+01
 0.4000975765996E+01
 0.3949817092723E+01
 0.3903936834306E+01
 0.3861538066173E+01
 0.3819470617379E+01
 0.3774720663367E+01
 0.3725951392919E+01
 0.3673821022293E+01
 0.3620123456034E+01
 0.3566881361382E+01
 0.3515862133942E+01
 0.3468396963273E+01
 0.3425354039193E+01
 0.3387285704802E+01
 0.3354663451683E+01
 0.3327963697963E+01
 0.3307465938611E+01
 0.3292737371965E+01
 0.3281966541836E+01
 0.3271196668163E+01
 0.3253382855106E+01
 0.3217332869426E+01
 0.3145203549478E+01
 0.3002876481959E+01
 0.2708756224087E+01
 0.2039077153964E+01
 0.5002131018204E+00
-0.2445263279645E+01
 0.5899277055087E+01
 0.5569085980801E+01
 0.5220195313627E+01
 0.4941026922963E+01
 0.4735526774627E+01
 0.4579836865448E+01
 0.4455102701709E+01
 0.4350628187271E+01
 0.4260029676555E+01
 0.4179348380221E+01
 0.4106166502200E+01
 0.4039062600501E+01
 0.3977312067531E+01
 0.3920673620548E+01
 0.3869056043981E+01
 0.3821859592216E+01
 0.3777438552861E+01
 0.3733408156234E+01
 0.3687538188721E+01
 0.3638678966039E+01
 0.3587110146981E+01
 0.3534070073228E+01
 0.3481099126938E+01
 0.3429600383441E+01
 0.3380633994715E+01
 0.3334869539090E+01
 0.3292677882596E+01
 0.3254234033790E+01
 0.3219485039237E+01
 0.3187955924231E+01
 0.3158304296398E+01
 0.3127664331814E+01
 0.3090853943173E+01
 0.3039377634468E+01
 0.2959964664437E+01
 0.2831137126907E+01
 0.2611666747612E+01
 0.2211225311932E+01
 0.1436606326007E+01
-0.3476089200601E-01
-0.2443943571851E+01
 0.5666485564953E+01
 0.5399185411109E+01
 0.5104910284842E+01
 0.4851898787734E+01
 0.4654045773844E+01
 0.4499640622835E+01
 0.4374711153764E+01
 0.4269730752062E+01
 0.4178719738274E+01
 0.4097852495958E+01
 0.4024703172524E+01
 0.3957783178465E+01
 0.3896245483698E+01
 0.3839646995916E+01
 0.3787620153082E+01
 0.3739369972947E+01
 0.3693406071818E+01
 0.3647879905747E+01
 0.3601102326085E+01
 0.3552081212136E+01
 0.3500848098431E+01
 0.3448216134929E+01
 0.3395313911588E+01
 0.3343210433507E+01
 0.3292706185698E+01
 0.3244263373334E+01
 0.3198046304122E+01
 0.3153933085931E+01
 0.3111407013283E+01
 0.3069359449928E+01
 0.3025686879042E+01
 0.2976659680008E+01
 0.2916129795225E+01
 0.2834481275906E+01
 0.2716952576978E+01
 0.2539744926010E+01
 0.2258568607079E+01
 0.1786695777214E+01
 0.9707798871379E+00
-0.3947465963711E+00
-0.2405647359630E+01
 0.5454326798919E+01
 0.5232616745703E+01
 0.4981548529679E+01
 0.4753751923731E+01
 0.4566403323608E+01
 0.4415501601851E+01
 0.4291640121862E+01
 0.4186953599504E+01
 0.4096043303448E+01
 0.4015312546463E+01
 0.3942393503138E+01
 0.3875766874875E+01
 0.3814490596424E+01
 0.3757961644742E+01
 0.3705617755110E+01
 0.3656556787054E+01
 0.3609430337492E+01
 0.3562773527537E+01
 0.3515277126570E+01
 0.3466072922310E+01
 0.3415022902521E+01
 0.3362612618524E+01
 0.3309623920283E+01
 0.3256824982318E+01
 0.3204770320972E+01
 0.3153713198715E+01
 0.3103603335850E+01
 0.3054034801163E+01
 0.3004087045353E+01
 0.2952123332174E+01
 0.2895418549722E+01
 0.2829560507047E+01
 0.2747676925847E+01
 0.2639377540680E+01
 0.2489016429076E+01
 0.2271814705761E+01
 0.1943982259316E+01
 0.1428567360149E+01
 0.6090029755223E+00
-0.6434675640242E+00
-0.2353942362518E+01
 0.5257588821788E+01
 0.5070141765624E+01
 0.4853652408312E+01
 0.4648932408259E+01
 0.4473377900396E+01
 0.4327628262378E+01
 0.4205964603167E+01
 0.4102307203409E+01
 0.4011986258992E+01
 0.3931710984746E+01
 0.3859225246155E+01
 0.3793014754447E+01
 0.3732072112391E+01
 0.3675675597005E+01
 0.3623130346983E+01
 0.3573480958990E+01
 0.3525502852500E+01
 0.3478009979104E+01
 0.3429962964527E+01
 0.3380587259853E+01
 0.3329623752842E+01
 0.3277302633162E+01
 0.3224115503381E+01
 0.3170563139730E+01
 0.3116970394460E+01
 0.3063386497938E+01
 0.3009549784656E+01
 0.2954791135874E+01
 0.2897842571508E+01
 0.2836633801936E+01
 0.2767946749793E+01
 0.2686854927963E+01
 0.2585988712313E+01
 0.2454517845272E+01
 0.2276488840513E+01
 0.2027346726590E+01
 0.1666204695387E+01
 0.1127908831369E+01
 0.3259951391296E+00
-0.8186967160506E+00
-0.2297919473576E+01
 0.5072794918277E+01
 0.4911857509661E+01
 0.4723393370078E+01
 0.4539300471346E+01
 0.4375853637593E+01
 0.4236341270754E+01
 0.4117807295431E+01
 0.4015836186880E+01
 0.3926557776443E+01
 0.3847045595521E+01
 0.3775197220443E+01
 0.3709535576143E+01
 0.3649017348987E+01
 0.3592839254800E+01
 0.3540220545411E+01
 0.3490186112260E+01
 0.3441617227842E+01
 0.3393532927566E+01
 0.3345086908085E+01
 0.3295573351753E+01
 0.3244642789834E+01
 0.3192323674451E+01
 0.3138864961300E+01
 0.3084531979279E+01
 0.3029438260290E+01
 0.2973439048313E+01
 0.2916071976405E+01
 0.2856430362832E+01
 0.2792952369064E+01
 0.2723219671682E+01
 0.2643638262779E+01
 0.2548921144852E+01
 0.2431409298448E+01
 0.2280137159450E+01
 0.2079351449576E+01
 0.1805645838129E+01
 0.1422327861910E+01
 0.8758197548452E+00
 0.1029763958413E+00
-0.9435690160634E+00
-0.2240951592451E+01
 0.4897511616324E+01
 0.4757585839703E+01
 0.4592119777948E+01
 0.4426268179794E+01
 0.4274675946024E+01
 0.4142025576249E+01
 0.4027334063041E+01
 0.3927613249280E+01
 0.3839787482740E+01
 0.3761328323128E+01
 0.3690318190955E+01
 0.3625344451383E+01
 0.3565354875588E+01
 0.3509496495565E+01
 0.3456937701011E+01
 0.3406704904625E+01
 0.3357769280488E+01
 0.3309302145258E+01
 0.3260595822420E+01
 0.3210993546694E+01
 0.3160075699700E+01
 0.3107709243652E+01
 0.3053940093671E+01
 0.2998827767458E+01
 0.2942294050959E+01
 0.2884013980511E+01
 0.2823340084389E+01
 0.2759156384033E+01
 0.2689657920782E+01
 0.2612155760226E+01
 0.2522785266080E+01
 0.2416036899804E+01
 0.2284146884434E+01
 0.2116277706251E+01
 0.1897283955379E+01
 0.1605516805045E+01
 0.1208951327351E+01
 0.6643586347922E+00
-0.7384716934170E-01
-0.1032733086323E+01
-0.2184165960184E+01
 0.4729971613522E+01
 0.4607043202995E+01
 0.4460674568708E+01
 0.4310888182820E+01
 0.4170591092206E+01
 0.4045084630056E+01
 0.3934741623226E+01
 0.3837734012888E+01
 0.3751722183306E+01
 0.3674583641631E+01
 0.3604605672123E+01
 0.3540461691600E+01
 0.3481113860968E+01
 0.3425685985374E+01
 0.3373321843443E+01
 0.3323062969158E+01
 0.3273956984280E+01
 0.3225289167906E+01
 0.3176451400315E+01
 0.3126820861487E+01
 0.3075921643248E+01
 0.3023489916610E+01
 0.2969401442493E+01
 0.2913536952776E+01
 0.2855646537636E+01
 0.2795241285067E+01
 0.2731507281287E+01
 0.2663148657801E+01
 0.2588165004859E+01
 0.2503666561313E+01
 0.2405611646774E+01
 0.2288389312204E+01
 0.2144289308699E+01
 0.1962816862611E+01
 0.1729729805426E+01
 0.1425466840120E+01
 0.1022628058838E+01
 0.4867844573984E+00
-0.2146293507307E+00
-0.1095774095159E+01
-0.2127824361432E+01
 0.4568852830462E+01
 0.4459917213958E+01
 0.4329583745776E+01
 0.4193939134751E+01
 0.4064230428715E+01
 0.3945909000966E+01
 0.3840242934752E+01
 0.3746311236455E+01
 0.3662422590302E+01
 0.3586846652322E+01
 0.3518084671132E+01
 0.3454911853456E+01
 0.3396323789461E+01
 0.3341442389363E+01
 0.3289406457384E+01
 0.3239281429705E+01
 0.3190180333211E+01
 0.3141474313941E+01
 0.3092626533453E+01
 0.3043036778424E+01
 0.2992182846597E+01
 0.2939693992467E+01
 0.2885303245895E+01
 0.2828736974652E+01
 0.2769593498997E+01
 0.2707237660059E+01
 0.2640709466982E+01
 0.2568562613138E+01
 0.2488645551001E+01
 0.2397930091566E+01
 0.2292279481726E+01
 0.2166085148963E+01
 0.2011820825175E+01
 0.1819498036212E+01
 0.1575966434119E+01
 0.1263869272852E+01
 0.8601042231243E+00
 0.3375091702440E+00
-0.3269088693963E+00
-0.1139163249645E+01
-0.2071874794270E+01
 0.4413141589353E+01
 0.4315901094688E+01
 0.4199171061238E+01
 0.4075994927704E+01
 0.3956115221781E+01
 0.3844858609116E+01
 0.3744054338092E+01
 0.3653468657290E+01
 0.3571960036328E+01
 0.3498161097184E+01
 0.3430786411583E+01
 0.3368722930713E+01
 0.3311014347256E+01
 0.3256797375076E+01
 0.3205220437170E+01
 0.3155378530642E+01
 0.3106441155789E+01
 0.3057844562452E+01
 0.3009102621745E+01
 0.2959629409938E+01
 0.2908864049721E+01
 0.2856347847154E+01
 0.2801694149958E+01
 0.2744496935800E+01
 0.2684222120011E+01
 0.2620106619266E+01
 0.2551065413369E+01
 0.2475530444404E+01
 0.2391239732715E+01
 0.2295081863074E+01
 0.2182895605926E+01
 0.2049161279902E+01
 0.1886639308215E+01
 0.1685962110782E+01
 0.1435169154741E+01
 0.1119078807917E+01
 0.7184276224115E+00
 0.2119485075911E+00
-0.4163482551300E+00
-0.1167398143182E+01
-0.2016167843802E+01
 0.4262044143534E+01
 0.4174708277204E+01
 0.4069629404856E+01
 0.3957477479464E+01
 0.3846669496639E+01
 0.3742254669749E+01
 0.3646385970243E+01
 0.3559335200310E+01
 0.3480413235920E+01
 0.3408577387049E+01
 0.3342747083283E+01
 0.3281925644122E+01
 0.3225215367362E+01
 0.3171780393581E+01
 0.3120789459433E+01
 0.3071370697731E+01
 0.3022742904706E+01
 0.2974391994894E+01
 0.2925867547363E+01
 0.2876591994043E+01
 0.2825971921879E+01
 0.2773476092891E+01
 0.2718617733627E+01
 0.2660878171830E+01
 0.2599609423950E+01
 0.2533938798455E+01
 0.2462677215803E+01
 0.2384162195227E+01
 0.2296058242433E+01
 0.2195218923752E+01
 0.2077518160775E+01
 0.1937595030767E+01
 0.1768573129207E+01
 0.1561776913891E+01
 0.1306463245967E+01
 0.9895048823310E+00
 0.5949805309640E+00
 0.1063532064507E+00
-0.4872565147452E+00
-0.1183688550182E+01
-0.1960537030135E+01
 0.4114927442343E+01
 0.4036077500157E+01
 0.3941066129811E+01
 0.3838696007089E+01
 0.3736234855417E+01
 0.3638377701031E+01
 0.3547435467067E+01
 0.3464040087570E+01
 0.3387865250085E+01
 0.3318150709327E+01
 0.3254006650312E+01
 0.3194552798405E+01
 0.3138956775707E+01
 0.3086419258210E+01
 0.3036136939562E+01
 0.2987273223918E+01
 0.2939090436792E+01
 0.2891112619956E+01
 0.2842914127072E+01
 0.2793921670089E+01
 0.2743514501302E+01
 0.2691101618653E+01
 0.2636112897566E+01
 0.2577934745087E+01
 0.2515822734142E+01
 0.2448812410933E+01
 0.2375630969542E+01
 0.2294547054255E+01
 0.2203184690442E+01
 0.2098403900815E+01
 0.1976163002116E+01
 0.1831314154627E+01
 0.1657396985866E+01
 0.1446462956060E+01
 0.1188963114498E+01
 0.8736537667669E+00
 0.4874727364298E+00
 0.1765302278144E-01
-0.5429581917211E+00
-0.1190381157100E+01
-0.1904823179131E+01
 0.3971278306909E+01
 0.3899773383751E+01
 0.3813532312827E+01
 0.3719875976704E+01
 0.3625084600338E+01
 0.3533468963599E+01
 0.3447384356577E+01
 0.3367709059236E+01
 0.3294400804823E+01
 0.3226939273333E+01
 0.3164607738858E+01
 0.3106638690043E+01
 0.3052268513505E+01
 0.3000740552244E+01
 0.2951284688392E+01
 0.2903100702927E+01
 0.2855489792484E+01
 0.2808005466817E+01
 0.2760238914193E+01
 0.2711618485689E+01
 0.2661500686795E+01
 0.2609245564220E+01
 0.2554214159014E+01
 0.2495713884222E+01
 0.2432920159952E+01
 0.2364793813491E+01
 0.2289997608062E+01
 0.2206754797332E+01
 0.2112678069239E+01
 0.2004668980735E+01
 0.1878809848717E+01
 0.1730206180330E+01
 0.1552846114715E+01
 0.1339514687069E+01
 0.1081799782343E+01
 0.7701491392550E+00
 0.3939161343811E+00
-0.5667583562358E-01
-0.5860566452779E+00
-0.1189231251243E+01
-0.1848875245515E+01
 0.3830674593918E+01
 0.3765584946495E+01
 0.3687041904032E+01
 0.3601180398470E+01
 0.3513436152267E+01
 0.3427733630058E+01
 0.3346396426562E+01
 0.3270461682404E+01
 0.3200104055903E+01
 0.3135002742399E+01
 0.3074594621097E+01
 0.3018218559339E+01
 0.2965180429555E+01
 0.2914769898413E+01
 0.2866253351947E+01
 0.2818867290996E+01
 0.2771947980564E+01
 0.2725071871644E+01
 0.2677841260276E+01
 0.2629684592024E+01
 0.2579939792367E+01
 0.2527927263236E+01
 0.2472951885125E+01
 0.2414256386180E+01
 0.2350951101240E+01
 0.2281938151525E+01
 0.2205833853216E+01
 0.2120837320797E+01
 0.2024575229504E+01
 0.1914019760214E+01
 0.1785408073078E+01
 0.1634126927243E+01
 0.1454628623806E+01
 0.1240417066297E+01
 0.9841393139424E+00
 0.6777378914187E+00
 0.3125932932544E+00
-0.1187179417827E+00
-0.6186248438830E+00
-0.1181588618594E+01
-0.1792530709558E+01
 0.3692764387381E+01
 0.3633323293242E+01
 0.3561584399113E+01
 0.3482725513305E+01
 0.3401461529787E+01
 0.3321344656335E+01
 0.3244617434122E+01
 0.3172409601409E+01
 0.3105056826634E+01
 0.3042400885673E+01
 0.2984012307935E+01
 0.2929328086119E+01
 0.2877722145852E+01
 0.2828532120587E+01
 0.2781062694100E+01
 0.2734586850683E+01
 0.2688472771757E+01
 0.2642314906711E+01
 0.2595722572661E+01
 0.2548123592131E+01
 0.2498841166980E+01
 0.2447164178236E+01
 0.2392352488675E+01
 0.2333596992991E+01
 0.2269956765767E+01
 0.2200290058050E+01
 0.2123183236911E+01
 0.2036830219717E+01
 0.1938893319113E+01
 0.1826438914131E+01
 0.1695882044444E+01
 0.1542908093913E+01
 0.1362435734148E+01
 0.1148658269169E+01
 0.8951930806921E+00
 0.5952907399039E+00
 0.2420153878859E+00
-0.1701833837976E+00
-0.6423677091459E+00
-0.1168514862482E+01
-0.1735622962273E+01
 0.3557250697673E+01
 0.3502819083012E+01
 0.3437133296355E+01
 0.3364592385334E+01
 0.3289295991284E+01
 0.3214446768736E+01
 0.3142175666523E+01
 0.3073655541205E+01
 0.3009337295586E+01
 0.2949192463190E+01
 0.2892905759195E+01
 0.2840002931539E+01
 0.2789922904356E+01
 0.2742051324145E+01
 0.2695731765954E+01
 0.2650273013839E+01
 0.2605072503463E+01
 0.2559738917277E+01
 0.2513885722037E+01
 0.2466940013521E+01
 0.2418213876786E+01
 0.2366971841824E+01
 0.2312438602918E+01
 0.2253764752124E+01
 0.2189970694393E+01
 0.2119884385978E+01
 0.2042077161700E+01
 0.1954754372369E+01
 0.1855632145290E+01
 0.1741889631736E+01
 0.1610135980810E+01
 0.1456363819387E+01
 0.1275950187886E+01
 0.1063738439658E+01
 0.8142245080060E+00
 0.5217915770704E+00
 0.1809057731527E+00
-0.2125358931984E+00
-0.6585149563249E+00
-0.1151353340821E+01
-0.1677176458257E+01
 0.3423880019050E+01
 0.3373920067644E+01
 0.3313651774000E+01
 0.3246835503301E+01
 0.3177045068478E+01
 0.3107160255102E+01
 0.3039182999722E+01
 0.2974292879196E+01
 0.2913019081979E+01
 0.2855434340606E+01
 0.2801319214904E+01
 0.2750278329448E+01
 0.2701811404268E+01
 0.2655350917412E+01
 0.2610278994603E+01
 0.2565939189910E+01
 0.2521755897232E+01
 0.2477349141880E+01
 0.2432334566734E+01
 0.2386138882357E+01
 0.2338066445168E+01
 0.2287363812396E+01
 0.2233229247124E+01
 0.2174783366440E+01
 0.2111019289441E+01
 0.2040746957107E+01
 0.1962535974108E+01
 0.1874617500185E+01
 0.1774776426336E+01
 0.1660318792415E+01
 0.1528058264727E+01
 0.1374296291656E+01
 0.1194852739215E+01
 0.9851761926543E+00
 0.7405497755122E+00
 0.4563341450688E+00
 0.1281473521182E+00
-0.2469493302938E+00
-0.6683031751023E+00
-0.1130095757351E+01
-0.1621191860100E+01
 0.3292433641371E+01
 0.3246488828951E+01
 0.3191096513267E+01
 0.3129489190236E+01
 0.3064790247147E+01
 0.2999584412075E+01
 0.2935736211779E+01
 0.2874405625051E+01
 0.2816170663415E+01
 0.2761180816719E+01
 0.2709295645512E+01
 0.2660188729561E+01
 0.2613415638156E+01
 0.2568453591819E+01
 0.2524722214914E+01
 0.2481598537499E+01
 0.2438531889204E+01
 0.2395151397726E+01
 0.2351073568241E+01
 0.2305725380042E+01
 0.2258406643936E+01
 0.2208351647666E+01
 0.2154739989012E+01
 0.2096671536253E+01
 0.2033122340760E+01
 0.1962895313035E+01
 0.1884570028557E+01
 0.1796415676855E+01
 0.1696297908245E+01
 0.1581659854329E+01
 0.1449525237236E+01
 0.1296500375223E+01
 0.1118827281696E+01
 0.9125121644036E+00
 0.6735390695916E+00
 0.3981053423922E+00
 0.8278555726506E-01
-0.2744742753046E+00
-0.6724846527848E+00
-0.1105930458206E+01
-0.1564612910182E+01
 0.3162720961130E+01
 0.3120400759128E+01
 0.3069420272510E+01
 0.3012572400891E+01
 0.2952593536390E+01
 0.2891800595623E+01
 0.2831918392383E+01
 0.2774068679867E+01
 0.2718855060425E+01
 0.2666483140235E+01
 0.2616876315567E+01
 0.2569767494406E+01
 0.2524762735259E+01
 0.2481381276150E+01
 0.2439078663354E+01
 0.2397263913369E+01
 0.2355409474877E+01
 0.2313151819212E+01
 0.2270107480344E+01
 0.2225704568476E+01
 0.2179241330690E+01
 0.2129944898528E+01
 0.2076983109356E+01
 0.2019443296370E+01
 0.1956293546446E+01
 0.1886339458098E+01
 0.1808180726408E+01
 0.1720134769296E+01
 0.1620157329110E+01
 0.1505835454181E+01
 0.1374404464952E+01
 0.1222767432946E+01
 0.1047564487377E+01
 0.8453116696599E+00
 0.6126129880023E+00
 0.3463822263477E+00
 0.4397667971466E-01
-0.2959467755179E+00
-0.6719131902860E+00
-0.1078873236606E+01
-0.1508440970479E+01
 0.3034574265830E+01
 0.2995542287625E+01
 0.2948573613348E+01
 0.2896092327541E+01
 0.2840501136657E+01
 0.2783874873604E+01
 0.2727800348466E+01
 0.2673348275512E+01
 0.2621129727124E+01
 0.2571389188308E+01
 0.2524100451465E+01
 0.2479046649714E+01
 0.2435878818013E+01
 0.2394155076387E+01
 0.2353364947602E+01
 0.2312947808683E+01
 0.2272397568481E+01
 0.2231356640055E+01
 0.2189441097831E+01
 0.2146081172166E+01
 0.2100576326539E+01
 0.2052151122978E+01
 0.1999967770758E+01
 0.1943108348563E+01
 0.1880541024416E+01
 0.1811082585358E+01
 0.1733361517321E+01
 0.1645751796291E+01
 0.1546306222532E+01
 0.1432759713892E+01
 0.1302557533538E+01
 0.1152888347351E+01
 0.9807645720867E+00
 0.7831653399030E+00
 0.5572412133135E+00
 0.3005161773504E+00
 0.1099467592357E-01
-0.3121213464828E+00
-0.6671515954570E+00
-0.1049458663697E+01
-0.1451799037702E+01
 0.2907844619240E+01
 0.2871809338404E+01
 0.2828506047065E+01
 0.2780047120474E+01
 0.2728546382532E+01
 0.2675860305515E+01
 0.2623441946178E+01
 0.2572302520275E+01
 0.2523046595124E+01
 0.2475943278542E+01
 0.2431005001326E+01
 0.2388056685626E+01
 0.2346788875369E+01
 0.2306795209185E+01
 0.2267597001441E+01
 0.2228662278742E+01
 0.2189504876111E+01
 0.2149772010817E+01
 0.2109079052929E+01
 0.2066859406540E+01
 0.2022416327713E+01
 0.1974975917697E+01
 0.1923700190005E+01
 0.1867672387880E+01
 0.1805867810144E+01
 0.1737121777284E+01
 0.1660098851958E+01
 0.1573236194523E+01
 0.1474688553176E+01
 0.1362340267579E+01
 0.1233842385076E+01
 0.1086655928860E+01
 0.9181390449111E+00
 0.7256895283756E+00
 0.5069380124008E+00
 0.2599285759917E+00
-0.1680270226323E-01
-0.3236253951191E+00
-0.6587474423937E+00
-0.1017905294149E+01
-0.1394703092154E+01
 0.2782398579678E+01
 0.2749105993911E+01
 0.2709166782992E+01
 0.2664427947911E+01
 0.2616752104949E+01
 0.2567798887188E+01
 0.2518893357373E+01
 0.2470981998598E+01
 0.2424652227954E+01
 0.2380186088915E+01
 0.2337624475266E+01
 0.2296826406017E+01
 0.2257516656157E+01
 0.2219320936109E+01
 0.2181790033193E+01
 0.2144418872039E+01
 0.2106739783165E+01
 0.2068403846986E+01
 0.2029025651765E+01
 0.1988042845434E+01
 0.1944764846904E+01
 0.1898422966217E+01
 0.1848183814493E+01
 0.1793137422815E+01
 0.1732272338554E+01
 0.1664448676715E+01
 0.1588373080424E+01
 0.1502550987558E+01
 0.1405242187757E+01
 0.1294480021248E+01
 0.1168115264033E+01
 0.1023866740552E+01
 0.8594119122311E+00
 0.6725256123138E+00
 0.4612594125547E+00
 0.2241000656020E+00
-0.3997798844913E-01
-0.3310100398198E+00
-0.6471485542791E+00
-0.9844575316569E+00
-0.1337218341756E+01
 0.2658115555938E+01
 0.2627343340126E+01
 0.2590505202726E+01
 0.2549220560497E+01
 0.2505132529550E+01
 0.2459723201522E+01
 0.2414196196010E+01
 0.2369430388282E+01
 0.2325988051478E+01
 0.2284154662343E+01
 0.2243990853786E+01
 0.2205382821653E+01
 0.2168084583674E+01
 0.2131750503143E+01
 0.2095958473100E+01
 0.2060228562139E+01
 0.2024110255609E+01
 0.1987257702963E+01
 0.1949284743936E+01
 0.1909634321056E+01
 0.1867624179682E+01
 0.1822494101212E+01
 0.1773419501492E+01
 0.1719502087876E+01
 0.1659748907302E+01
 0.1593050123900E+01
 0.1518159291834E+01
 0.1433653855700E+01
 0.1337900205239E+01
 0.1229078668099E+01
 0.1105232305490E+01
 0.9643224837249E+00
 0.8043202882658E+00
 0.6233391728403E+00
 0.4197993067514E+00
 0.1925644440899E+00
-0.5902900733360E-01
-0.3347548870207E+00
-0.6327453126812E+00
-0.9493529002352E+00
-0.1279427292513E+01
 0.2534885656525E+01
 0.2506438468016E+01
 0.2472471145312E+01
 0.2434406482591E+01
 0.2393694804862E+01
 0.2351657815562E+01
 0.2309384541082E+01
 0.2267685070753E+01
 0.2227090633648E+01
 0.2187882476016E+01
 0.2150133552770E+01
 0.2113751082540E+01
 0.2078513691691E+01
 0.2044101088607E+01
 0.2010115923639E+01
 0.1976101684948E+01
 0.1941623754631E+01
 0.1906338668386E+01
 0.1869859619761E+01
 0.1831635851053E+01
 0.1790995391939E+01
 0.1747189378551E+01
 0.1699405698922E+01
 0.1646761947249E+01
 0.1588288119425E+01
 0.1522908756851E+01
 0.1449428092727E+01
 0.1366498107238E+01
 0.1272592054805E+01
 0.1166033979275E+01
 0.1045050820790E+01
 0.9078309949113E+00
 0.7526146572462E+00
 0.5778187763659E+00
 0.3821861377268E+00
 0.1649019195087E+00
-0.7439780837878E-01
-0.3352814248453E+00
-0.6158836317666E+00
-0.9128144647736E+00
-0.1221412873730E+01
 0.2412607924241E+01
 0.2386313608974E+01
 0.2355015062287E+01
 0.2319963921250E+01
 0.2282440235062E+01
 0.2243620461194E+01
 0.2204485849395E+01
 0.2165777718836E+01
 0.2127991993459E+01
 0.2091399558928E+01
 0.2056079434643E+01
 0.2021954444624E+01
 0.1988823581243E+01
 0.1956388761414E+01
 0.1924275115443E+01
 0.1892047883036E+01
 0.1859287164084E+01
 0.1825651283824E+01
 0.1790752930803E+01
 0.1754048588157E+01
 0.1714878324820E+01
 0.1672507160803E+01
 0.1626138626167E+01
 0.1574909788273E+01
 0.1517877303787E+01
 0.1454003573387E+01
 0.1382146323713E+01
 0.1301033553933E+01
 0.1209244571236E+01
 0.1105242894520E+01
 0.9874303198808E+00
 0.8542069433784E+00
 0.7040588323605E+00
 0.5356746589839E+00
 0.3480796384252E+00
 0.1407334752169E+00
-0.8647876970902E-01
-0.3329632602133E+00
-0.5968726061428E+00
-0.8750482941181E+00
-0.1163256175584E+01
 0.2291188874476E+01
 0.2266895384472E+01
 0.2238088083536E+01
 0.2205868460825E+01
 0.2171365276919E+01
 0.2135623032746E+01
 0.2099521765379E+01
 0.2063734852856E+01
 0.2028719924273E+01
 0.1994732644176E+01
 0.1961852856442E+01
 0.1930014266079E+01
 0.1899032396989E+01
 0.1868628450674E+01
 0.1838447870580E+01
 0.1808076058034E+01
 0.1777106730079E+01
 0.1745199473327E+01
 0.1711966629965E+01
 0.1676872788573E+01
 0.1639271613953E+01
 0.1598444207956E+01
 0.1553612453440E+01
 0.1503935903552E+01
 0.1448500912252E+01
 0.1386310454147E+01
 0.1316277715087E+01
 0.1237207295005E+01
 0.1147782859181E+01
 0.1046602435132E+01
 0.9322333128454E+00
 0.8032722844565E+00
 0.6584297127446E+00
 0.4966373374841E+00
 0.3171678236888E+00
 0.1197159298605E+00
-0.9562547811880E-01
-0.3281339352316E+00
-0.5759900270361E+00
-0.8362440719572E+00
-0.1105036574596E+01
 0.2170541274743E+01
 0.2148114152771E+01
 0.2121642022516E+01
 0.2092093594225E+01
 0.2060462348352E+01
 0.2027672430590E+01
 0.1994508837014E+01
 0.1961578360375E+01
 0.1929298320913E+01
 0.1897905345301E+01
 0.1867475746887E+01
 0.1837950028660E+01
 0.1809156821524E+01
 0.1780833926913E+01
 0.1752645074137E+01
 0.1724194331588E+01
 0.1695088011906E+01
 0.1664986491660E+01
 0.1633501928081E+01
 0.1600107795870E+01
 0.1564172720194E+01
 0.1524995773302E+01
 0.1481819478294E+01
 0.1433828360729E+01
 0.1380140892922E+01
 0.1319802646590E+01
 0.1251783483174E+01
 0.1174964415054E+01
 0.1088131058177E+01
 0.9900104616711E+00
 0.8793259262879E+00
 0.7548565228095E+00
 0.6155168974932E+00
 0.4604562143159E+00
 0.2891642383862E+00
 0.1015376190254E+00
-0.1021564637457E+00
-0.3210930613296E+00
-0.5534869284002E+00
-0.7965767927859E+00
-0.1046832602704E+01
 0.2050583117230E+01
 0.2029903437990E+01
 0.2005629340853E+01
 0.1978611129407E+01
 0.1949720486414E+01
 0.1919771275824E+01
 0.1889459147747E+01
 0.1859325977985E+01
 0.1829747503231E+01
 0.1800938348371E+01
 0.1772967705771E+01
 0.1745779379983E+01
 0.1719212085832E+01
 0.1693017794698E+01
 0.1666876654499E+01
 0.1640410014948E+01
 0.1613235843472E+01
 0.1585014884310E+01
 0.1555359264354E+01
 0.1523752037540E+01
 0.1489577969421E+01
 0.1452155702603E+01
 0.1410750297990E+01
 0.1364573259111E+01
 0.1312777039159E+01
 0.1254451210670E+01
 0.1188622869974E+01
 0.1114248602034E+01
 0.1030213000483E+01
 0.9353662971868E+00
 0.8285783667898E+00
 0.7087968288690E+00
 0.5751222061074E+00
 0.4268982171759E+00
 0.2638054600228E+00
 0.8591464465741E-01
-0.1063599749840E+00
-0.3121112873974E+00
-0.5295914565550E+00
-0.7562087620128E+00
-0.9887227608045E+00
 0.1931236746677E+01
 0.1912199428962E+01
 0.1890003086281E+01
 0.1865391500330E+01
 0.1839125884892E+01
 0.1811918517487E+01
 0.1784380874274E+01
 0.1756991735637E+01
 0.1730084531343E+01
 0.1703849613475E+01
 0.1678346120152E+01
 0.1653518193021E+01
 0.1629211993991E+01
 0.1605191496060E+01
 0.1581151572303E+01
 0.1556729586964E+01
 0.1531554304312E+01
 0.1505286458546E+01
 0.1477538288349E+01
 0.1447803031826E+01
 0.1415482599205E+01
 0.1379916534878E+01
 0.1340393976584E+01
 0.1296154972556E+01
 0.1246387314489E+01
 0.1190225427339E+01
 0.1126753629259E+01
 0.1055002691818E+01
 0.9739527735717E+00
 0.8825712351678E+00
 0.7798652593950E+00
 0.6649380441257E+00
 0.5370591432792E+00
 0.3957464989979E+00
 0.2408488493706E+00
 0.7258762932494E-01
-0.1084979786941E+00
-0.3014344050158E+00
-0.5045121867570E+00
-0.7152915290474E+00
-0.9307861570568E+00
 0.1812428113892E+01
 0.1794940537187E+01
 0.1774716813717E+01
 0.1752404004728E+01
 0.1728662335652E+01
 0.1704109950520E+01
 0.1679278779686E+01
 0.1654586365374E+01
 0.1630323509677E+01
 0.1606654580937E+01
 0.1583626292895E+01
 0.1561180639545E+01
 0.1539168960229E+01
 0.1517365323872E+01
 0.1495477817672E+01
 0.1473158680043E+01
 0.1450046699244E+01
 0.1425802263956E+01
 0.1400037851540E+01
 0.1372257402676E+01
 0.1341880810448E+01
 0.1308269603291E+01
 0.1270738205777E+01
 0.1228556378248E+01
 0.1180948153735E+01
 0.1127093171414E+01
 0.1066132462591E+01
 0.9971691459819E+00
 0.9192751985544E+00
 0.8315289496088E+00
 0.7330658851778E+00
 0.6231326043996E+00
 0.5011523364724E+00
 0.3667992145790E+00
 0.2200705369256E+00
 0.6131890948159E-01
-0.1088095339797E+00
-0.2892867822731E+00
-0.4784409566785E+00
-0.6739676199565E+00
-0.8731029544046E+00
 0.1694086131234E+01
 0.1678067004731E+01
 0.1659724496265E+01
 0.1639616985819E+01
 0.1618311593165E+01
 0.1596338659959E+01
 0.1574154650867E+01
 0.1552117677169E+01
 0.1530475878350E+01
 0.1509366378893E+01
 0.1488821580001E+01
 0.1468779274705E+01
 0.1449094056537E+01
 0.1429548444208E+01
 0.1409862415178E+01
 0.1389702073420E+01
 0.1368715545655E+01
 0.1346562581030E+01
 0.1322856006633E+01
 0.1297110900986E+01
 0.1268765822319E+01
 0.1237205134884E+01
 0.1201769458705E+01
 0.1161759071140E+01
 0.1116434740986E+01
 0.1065021250644E+01
 0.1006715409021E+01
 0.9406904694431E+00
 0.8661062351745E+00
 0.7821458227376E+00
 0.6880643384100E+00
 0.5832404046005E+00
 0.4672369674444E+00
 0.3398683831164E+00
 0.2012636286549E+00
 0.5189010701932E-01
-0.1075136535060E+00
-0.2758742556407E+00
-0.4515552771716E+00
-0.6323720315368E+00
-0.8157546720229E+00
 0.1576142110994E+01
 0.1561520554254E+01
 0.1544980430846E+01
 0.1526997971173E+01
 0.1508053677861E+01
 0.1488595404477E+01
 0.1469007688300E+01
 0.1449590905058E+01
 0.1430550691471E+01
 0.1411996029915E+01
 0.1393943533941E+01
 0.1376325130359E+01
 0.1358997069136E+01
 0.1341748926590E+01
 0.1324311435767E+01
 0.1306363693014E+01
 0.1287562567430E+01
 0.1267566916445E+01
 0.1245990013076E+01
 0.1222358430475E+01
 0.1196129929014E+01
 0.1166712347987E+01
 0.1133473136042E+01
 0.1095743564055E+01
 0.1052821265212E+01
 0.1003975712964E+01
 0.9484581922607E+00
 0.8855095743329E+00
 0.8143733231697E+00
 0.7343312041703E+00
 0.6447496206717E+00
 0.5451286237845E+00
 0.4351582131828E+00
 0.3147788407863E+00
 0.1842366126464E+00
 0.4410002637141E-01
-0.1048117399159E+00
-0.2613865747837E+00
-0.4240203753928E+00
-0.5906334956179E+00
-0.7588243789998E+00
 0.1458529271145E+01
 0.1445244074444E+01
 0.1430439141676E+01
 0.1414513779040E+01
 0.1397867131045E+01
 0.1380868950438E+01
 0.1363834855764E+01
 0.1347009027024E+01
 0.1330554882698E+01
 0.1314552655206E+01
 0.1299002050882E+01
 0.1283827815138E+01
 0.1268886562247E+01
 0.1253973781036E+01
 0.1238830014821E+01
 0.1223146617031E+01
 0.1206588694509E+01
 0.1188814003789E+01
 0.1169436347326E+01
 0.1147994076754E+01
 0.1123964557039E+01
 0.1096779546366E+01
 0.1065833703899E+01
 0.1030489473529E+01
 0.9900811544552E+00
 0.9439221240877E+00
 0.8913165291352E+00
 0.8315700962045E+00
 0.7640056689791E+00
 0.6879976135662E+00
 0.6030156864752E+00
 0.5086715254487E+00
 0.4047707073344E+00
 0.2913672839359E+00
 0.1688119481637E+00
 0.3776283249802E-01
-0.1008896658078E+00
-0.2459994734344E+00
-0.3959909215452E+00
-0.5488755371781E+00
-0.7023968174969E+00
 0.1341182295646E+01
 0.1329181335012E+01
 0.1316055283729E+01
 0.1302130600178E+01
 0.1287729231801E+01
 0.1273146366025E+01
 0.1258631196678E+01
 0.1244373062184E+01
 0.1230493518915E+01
 0.1217043675541E+01
 0.1204005520214E+01
 0.1191295619581E+01
 0.1178769947749E+01
 0.1166229000810E+01
 0.1153422375454E+01
 0.1140053086430E+01
 0.1125794067066E+01
 0.1110301808546E+01
 0.1093190716558E+01
 0.1074011138276E+01
 0.1052260321896E+01
 0.1027394209280E+01
 0.9988348231466E+00
 0.9659756916525E+00
 0.9281872896540E+00
 0.8848258175802E+00
 0.8352464030295E+00
 0.7788166683003E+00
 0.7149344859012E+00
 0.6430608972938E+00
 0.5627614525539E+00
 0.4737502448470E+00
 0.3759380298470E+00
 0.2694814011120E+00
 0.1548248195701E+00
 0.3270647222212E-01
-0.9591955183485E-01
-0.2298764249208E+00
-0.3676124847453E+00
-0.5072173557375E+00
-0.6465584749617E+00
 0.1224036938542E+01
 0.1213276726157E+01
 0.1201783547604E+01
 0.1189814061610E+01
 0.1177616184523E+01
 0.1165413283676E+01
 0.1153390123262E+01
 0.1141682348812E+01
 0.1130370043275E+01
 0.1119475008604E+01
 0.1108960975220E+01
 0.1098735624961E+01
 0.1088653559451E+01
 0.1078519609788E+01
 0.1068091856100E+01
 0.1057084519352E+01
 0.1045178043313E+01
 0.1032027536235E+01
 0.1017248074641E+01
 0.1000402158008E+01
 0.9810070831445E+00
 0.9585430767221E+00
 0.9324594699054E+00
 0.9021805442172E+00
 0.8671121992128E+00
 0.8266521196132E+00
 0.7802043058987E+00
 0.7271951591867E+00
 0.6670931949764E+00
 0.5994403482044E+00
 0.5238907809101E+00
 0.4402525725380E+00
 0.3485322299964E+00
 0.2489790907273E+00
 0.1421220389655E+00
 0.2877130734238E-01
-0.9006128718050E-01
-0.2131701300623E+00
-0.3390227581025E+00
-0.4657745562263E+00
-0.5913976256006E+00
 0.1107029662720E+01
 0.1097475017972E+01
 0.1087578566672E+01
 0.1077529277451E+01
 0.1067503284339E+01
 0.1057654138004E+01
 0.1048103684143E+01
 0.1038934806702E+01
 0.1030186509099E+01
 0.1021851262763E+01
 0.1013874244079E+01
 0.1006153814658E+01
 0.9985427308309E+00
 0.9908497134307E+00
 0.9828409414869E+00
 0.9742415285801E+00
 0.9647392099597E+00
 0.9539876426164E+00
 0.9416026392455E+00
 0.9271589547631E+00
 0.9101939969700E+00
 0.8902122292753E+00
 0.8666900470143E+00
 0.8390819355733E+00
 0.8068282354629E+00
 0.7693665505166E+00
 0.7261474522252E+00
 0.6766528786398E+00
 0.6204175930755E+00
 0.5570587963471E+00
 0.4863124439669E+00
 0.4080727413345E+00
 0.3224333861040E+00
 0.2297277603701E+00
 0.1305610829610E+00
 0.2580893289343E-01
-0.8346382873142E-01
-0.1960237768190E+00
-0.3103525868991E+00
-0.4246597532679E+00
-0.5370043506288E+00
 0.9900973053625E+00
 0.9817211357545E+00
 0.9733948270369E+00
 0.9652408910849E+00
 0.9573650666554E+00
 0.9498523855799E+00
 0.9427628155827E+00
 0.9361271872526E+00
 0.9299438062776E+00
 0.9241759275572E+00
 0.9187501006748E+00
 0.9135551871626E+00
 0.9084418752123E+00
 0.9032225523485E+00
 0.8976712960257E+00
 0.8915239411315E+00
 0.8844753943582E+00
 0.8761778449891E+00
 0.8662479090948E+00
 0.8542726532356E+00
 0.8398095654503E+00
 0.8223871620579E+00
 0.8015084863905E+00
 0.7766574806432E+00
 0.7473077341754E+00
 0.7129350051942E+00
 0.6730339680937E+00
 0.6271387562276E+00
 0.5748459939260E+00
 0.5158426773407E+00
 0.4499400786994E+00
 0.3771112221714E+00
 0.2975292038813E+00
 0.2116037034129E+00
 0.1200092505384E+00
 0.2368115797107E-01
-0.7626630907404E-01
-0.1785721042644E+00
-0.2817268284785E+00
-0.3839830681599E+00
-0.4834705441652E+00
 0.8731767629953E+00
 0.8659599475068E+00
 0.8591865806074E+00
 0.8529131122976E+00
 0.8471754463038E+00
 0.8419907122981E+00
 0.8373575811385E+00
 0.8332553146121E+00
 0.8296418819391E+00
 0.8264515614186E+00
 0.8235924148341E+00
 0.8209438698993E+00
 0.8183545674396E+00
 0.8156405575332E+00
 0.8125837987392E+00
 0.8089308190525E+00
 0.8043836774179E+00
 0.7985931335935E+00
 0.7911766803658E+00
 0.7817337118485E+00
 0.7698416818130E+00
 0.7550528523281E+00
 0.7368963422362E+00
 0.7148846245671E+00
 0.6885231582680E+00
 0.6573239143710E+00
 0.6208230583350E+00
 0.5786034966195E+00
 0.5303193471314E+00
 0.4757220841421E+00
 0.4146921353959E+00
 0.3472745331348E+00
 0.2737146543653E+00
 0.1944915484748E+00
 0.1103429304142E+00
 0.2225912992276E-01
-0.6859897844878E-01
-0.1609422979075E+00
-0.2532650674332E+00
-0.3438525339918E+00
-0.4308899079137E+00
 0.7562046896581E+00
 0.7501360602017E+00
 0.7449077614453E+00
 0.7405097525809E+00
 0.7369078512428E+00
 0.7340512336588E+00
 0.7318774043315E+00
 0.7303143210749E+00
 0.7292799571570E+00
 0.7286799771901E+00
 0.7284043018001E+00
 0.7283232332137E+00
 0.7282836261861E+00
 0.7281054063437E+00
 0.7275785788113E+00
 0.7264604805438E+00
 0.7244604063734E+00
 0.7212277822057E+00
 0.7163810613582E+00
 0.7095319475963E+00
 0.7002776710336E+00
 0.6881938203701E+00
 0.6728348750902E+00
 0.6537407504763E+00
 0.6304472268065E+00
 0.6025003885180E+00
 0.5694751544440E+00
 0.5309997152411E+00
 0.4867813396203E+00
 0.4366308071086E+00
 0.3804918256876E+00
 0.3184750648858E+00
 0.2508916517391E+00
 0.1782837774304E+00
 0.1014469676650E+00
 0.2142258549544E-01
-0.6058400174965E-01
-0.1432547387949E+00
-0.2250822053517E+00
-0.3043744206409E+00
-0.3793579353998E+00
 0.6391172020566E+00
 0.6341936215421E+00
 0.6305119055040E+00
 0.6279942615869E+00
 0.6265353555051E+00
 0.6260156929942E+00
 0.6263112986814E+00
 0.6272988798943E+00
 0.6288567415180E+00
 0.6308624261279E+00
 0.6331882707830E+00
 0.6356960039083E+00
 0.6382311960856E+00
 0.6406180783782E+00
 0.6426550508976E+00
 0.6441105205417E+00
 0.6447012065316E+00
 0.6440753570375E+00
 0.6418524845621E+00
 0.6376565571124E+00
 0.6311043251765E+00
 0.6217941833299E+00
 0.6093051267546E+00
 0.5932032758809E+00
 0.5730530303695E+00
 0.5484323461932E+00
 0.5189520457633E+00
 0.4842820575222E+00
 0.4441784833996E+00
 0.3985063665165E+00
 0.3472670736548E+00
 0.2906309249336E+00
 0.2289687708798E+00
 0.1628803078597E+00
 0.9321412059400E-01
 0.2105921489233E-01
-0.5233612836133E-01
-0.1256236250476E+00
-0.1972889406773E+00
-0.2656534880817E+00
-0.3289718841897E+00
 0.5218495857123E+00
 0.5180761240400E+00
 0.5159520738900E+00
 0.5153297676685E+00
 0.5160308159596E+00
 0.5178656625843E+00
 0.5206480994022E+00
 0.5242034385871E+00
 0.5283706473172E+00
 0.5329997810380E+00
 0.5379463724720E+00
 0.5430643777530E+00
 0.5481988289039E+00
 0.5531789103932E+00
 0.5578119493524E+00
 0.5618778299109E+00
 0.5651009911436E+00
 0.5671287230858E+00
 0.5675817153035E+00
 0.5660961332290E+00
 0.5623079329180E+00
 0.5558377016960E+00
 0.5462879861408E+00
 0.5332497381548E+00
 0.5163141337694E+00
 0.4950886283943E+00
 0.4692169961766E+00
 0.4384073046234E+00
 0.4024601929992E+00
 0.3612900410862E+00
 0.3149504731323E+00
 0.2636658026272E+00
 0.2078610042103E+00
 0.1481881361674E+00
 0.8554459993933E-01
 0.2106412666748E-01
-0.4396324995355E-01
-0.1081574814359E+00
-0.1699921510478E+00
-0.2277931734377E+00
-0.2798307321524E+00
 0.4043359960462E+00
 0.4017262082538E+00
 0.4011807798737E+00
 0.4024791255666E+00
 0.4053670175787E+00
 0.4095827526489E+00
 0.4148767010335E+00
 0.4210224557698E+00
 0.4278200050974E+00
 0.4350927191606E+00
 0.4426803453572E+00
 0.4504301303860E+00
 0.4581875629801E+00
 0.4657876494465E+00
 0.4730473605511E+00
 0.4797586124319E+00
 0.4856539685761E+00
 0.4903800471036E+00
 0.4935588561697E+00
 0.4948386763266E+00
 0.4938743027210E+00
 0.4903078181494E+00
 0.4837642460877E+00
 0.4738578695727E+00
 0.4602046670655E+00
 0.4424391003942E+00
 0.4202348483483E+00
 0.3933344682015E+00
 0.3615788555499E+00
 0.3249268955270E+00
 0.2834792537965E+00
 0.2375088562973E+00
 0.1874895572879E+00
 0.1341210379655E+00
 0.7834568356041E-01
 0.2133940305351E-01
-0.3556685923409E-01
-0.9095957022970E-01
-0.1432951879785E+00
-0.1908957142977E+00
-0.2320351115530E+00
 0.2865091480347E+00
 0.2850854619591E+00
 0.2861499200514E+00
 0.2894049746136E+00
 0.2945168322002E+00
 0.3011488334081E+00
 0.3089863053571E+00
 0.3177506445278E+00
 0.3272032821577E+00
 0.3371419053111E+00
 0.3473917606249E+00
 0.3577947259765E+00
 0.3681980001561E+00
 0.3784435034616E+00
 0.3883587525182E+00
 0.3977483987994E+00
 0.4063536459841E+00
 0.4138207963842E+00
 0.4197733464370E+00
 0.4238715997876E+00
 0.4257887791400E+00
 0.4251876885037E+00
 0.4217146511921E+00
 0.4150056623255E+00
 0.4046994057347E+00
 0.3904547423976E+00
 0.3719721173347E+00
 0.3490248764826E+00
 0.3214898960522E+00
 0.2893658096681E+00
 0.2527952581617E+00
 0.2120946236467E+00
 0.1677816825221E+00
 0.1205993227374E+00
 0.7153140070939E-01
 0.2179373675405E-01
-0.2724242101164E-01
-0.7412821493033E-01
-0.1172980916988E+00
-0.1550622082543E+00
-0.1856872108714E+00
 0.1682999875413E+00
 0.1680942118830E+00
 0.1708107103268E+00
 0.1760698113340E+00
 0.1834533962981E+00
 0.1925462757706E+00
 0.2029666840995E+00
 0.2143832252843E+00
 0.2265193055107E+00
 0.2391481756186E+00
 0.2520821652614E+00
 0.2651594229376E+00
 0.2782303793837E+00
 0.2911451884171E+00
 0.3037430010997E+00
 0.3158420568725E+00
 0.3271928287073E+00
 0.3374417325666E+00
 0.3462139557284E+00
 0.3531817288683E+00
 0.3580362517446E+00
 0.3604602044715E+00
 0.3601199366924E+00
 0.3566714239090E+00
 0.3497738407803E+00
 0.3391077302235E+00
 0.3243970751894E+00
 0.3054422536254E+00
 0.2821518400520E+00
 0.2545595113732E+00
 0.2228449312721E+00
 0.1873629562646E+00
 0.1486705504520E+00
 0.1075496402584E+00
 0.6502228094877E-01
 0.2234214150935E-01
-0.1907966576489E-01
-0.5775704755954E-01
-0.9209773316145E-01
-0.1203926048849E+00
-0.1408906321213E+00
 0.4963733660800E-01
 0.5069130440959E-01
 0.5511362777404E-01
 0.6243608107177E-01
 0.7215031404528E-01
 0.8375821674678E-01
 0.9680846114116E-01
 0.1109161910951E+00
 0.1257674905760E+00
 0.1411127219695E+00
 0.1567532227998E+00
 0.1725253758613E+00
 0.1882846461586E+00
 0.2038909713766E+00
 0.2191964119543E+00
 0.2340337974648E+00
 0.2481636146451E+00
 0.2612328996802E+00
 0.2728687711288E+00
 0.2827552923037E+00
 0.2906011561387E+00
 0.2961080079747E+00
 0.2989608584241E+00
 0.2988338232361E+00
 0.2954042394990E+00
 0.2883715070974E+00
 0.2774798280011E+00
 0.2625527941240E+00
 0.2435263756512E+00
 0.2204646151115E+00
 0.1935793245837E+00
 0.1632589789725E+00
 0.1300951580809E+00
 0.9490483673379E-01
 0.5874516377772E-01
 0.2290572998863E-01
-0.1116281505626E-01
-0.4193519041401E-01
-0.6778788985781E-01
-0.8698562557922E-01
-0.9775017643516E-01
-0.6955249615379E-01
-0.6718612864994E-01
-0.6099164000579E-01
-0.5153370567501E-01
-0.3941810699306E-01
-0.2523114359365E-01
-0.9496580760884E-02
 0.7346588212791E-02
 0.2494807662143E-01
 0.4303727694928E-01
 0.6140685089468E-01
 0.7989373269452E-01
 0.9836051687092E-01
 0.1166787085890E+00
 0.1347147376864E+00
 0.1523171750036E+00
 0.1692573828882E+00
 0.1851836056494E+00
 0.1997251769707E+00
 0.2125779059338E+00
 0.2234674665405E+00
 0.2321134967068E+00
 0.2382182138440E+00
 0.2414719277927E+00
 0.2415676975390E+00
 0.2382208475129E+00
 0.2311923866297E+00
 0.2203252337581E+00
 0.2055784164995E+00
 0.1870416677954E+00
 0.1649541153247E+00
 0.1397330746118E+00
 0.1120002738866E+00
 0.8260385910244E-01
 0.5263306608268E-01
 0.2341155396968E-01
-0.3570747583405E-02
-0.2674738441966E-01
-0.4445926486996E-01
-0.5493860133087E-01
-0.5637153132156E-01
-0.1893461504937E+00
-0.1856029235400E+00
-0.1775562356533E+00
-0.1658768251190E+00
-0.1512765787986E+00
-0.1344362058716E+00
-0.1159551633982E+00
-0.9632718536264E-01
-0.7593763041249E-01
-0.5507570134066E-01
-0.3395464541636E-01
-0.1273427401078E-01
 0.8457537106935E-02
 0.2950587791280E-01
 0.5029318949947E-01
 0.7068508244301E-01
 0.9046477591192E-01
 0.1092823964708E+00
 0.1267698264741E+00
 0.1426345476125E+00
 0.1566186793540E+00
 0.1684588206359E+00
 0.1778728541058E+00
 0.1845652321103E+00
 0.1882421828211E+00
 0.1886319140043E+00
 0.1855087322353E+00
 0.1787309184044E+00
 0.1682761672101E+00
 0.1542552032874E+00
 0.1369296424579E+00
 0.1167408948188E+00
 0.9433641919564E-01
 0.7059170636961E-01
 0.4662510569863E-01
 0.2379250362064E-01
 0.3622886219083E-02
-0.1227407930833E-01
-0.2219946375741E-01
-0.2434722033883E-01
-0.1686080038226E-01
-0.3098237072694E+00
-0.3046261621245E+00
-0.2946321594934E+00
-0.2806301512506E+00
-0.2634485039189E+00
-0.2438695869575E+00
-0.2225721409808E+00
-0.2001050608662E+00
-0.1768870075836E+00
-0.1532228457432E+00
-0.1293284463010E+00
-0.1053572431581E+00
-0.8142486712825E-01
-0.5763039514288E-01
-0.3407355716664E-01
-0.1087026011102E-01
 0.1177567466685E-01
 0.3351702226773E-01
 0.5398860438498E-01
 0.7290952260336E-01
 0.9003778713385E-01
 0.1051258691138E+00
 0.1179056871443E+00
 0.1280936778040E+00
 0.1354065718237E+00
 0.1395823075651E+00
 0.1404048775417E+00
 0.1377438718206E+00
 0.1315911924147E+00
 0.1220738067787E+00
 0.1094709602467E+00
 0.9424339733303E-01
 0.7705988573262E-01
 0.5881942710840E-01
 0.4066648048567E-01
 0.2398726541755E-01
 0.1034959493952E-01
 0.1408494785825E-02
-0.1092957058980E-02
 0.4694821998182E-02
 0.2067620754357E-01
-0.4310692542566E+00
-0.4243254789877E+00
-0.4122722787138E+00
-0.3958299145846E+00
-0.3759555816816E+00
-0.3535416770452E+00
-0.3293500863966E+00
-0.3039849571817E+00
-0.2778958576868E+00
-0.2513996996099E+00
-0.2247110975832E+00
-0.1979735301011E+00
-0.1712873463431E+00
-0.1447333183964E+00
-0.1183913634449E+00
-0.9235732352523E-01
-0.6682083406715E-01
-0.4212560561206E-01
-0.1863342031471E-01
 0.3386418606526E-02
 0.2370724228578E-01
 0.4209624822580E-01
 0.5829767171335E-01
 0.7203766538923E-01
 0.8304067867057E-01
 0.9105111233941E-01
 0.9585892462302E-01
 0.9734086333745E-01
 0.9549849050388E-01
 0.9047019010931E-01
 0.8254791036119E-01
 0.7220691042562E-01
 0.6013278926379E-01
 0.4724416226940E-01
 0.3470850304924E-01
 0.2394034207647E-01
 0.1654602139638E-01
 0.1422824871564E-01
 0.1877892150172E-01
 0.3209625626552E-01
 0.5613508630601E-01
-0.5531715439057E+00
-0.5447734042721E+00
-0.5305303112671E+00
-0.5115113936973E+00
-0.4888173337445E+00
-0.4634601262851E+00
-0.4362888295141E+00
-0.4079624151948E+00
-0.3789581465679E+00
-0.3496005421345E+00
-0.3200984016252E+00
-0.2905811824534E+00
-0.2611305937487E+00
-0.2318064215200E+00
-0.2026666345780E+00
-0.1737852948544E+00
-0.1453364986654E+00
-0.1176594673251E+00
-0.9111205263480E-01
-0.6595195053847E-01
-0.4239109020875E-01
-0.2064875200280E-01
-0.9701976857508E-03
 0.1637805807886E-01
 0.3112527741488E-01
 0.4301893510954E-01
 0.5185111985648E-01
 0.5750147621459E-01
 0.5997657291990E-01
 0.5942127897375E-01
 0.5613521340066E-01
 0.5060322508910E-01
 0.4352315954073E-01
 0.3582923224181E-01
 0.2870869059601E-01
 0.2360214259847E-01
 0.2215397316243E-01
 0.2611712103693E-01
 0.3733784455896E-01
 0.5776870201361E-01
 0.8941455515484E-01
-0.6762247667441E+00
-0.6660457493144E+00
-0.6494607745771E+00
-0.6277085201873E+00
-0.6020505293526E+00
-0.5736292470992E+00
-0.5433849410398E+00
-0.5120302075269E+00
-0.4800657377541E+00
-0.4478182231555E+00
-0.4154853218483E+00
-0.3831778888501E+00
-0.3509553217920E+00
-0.3188535524802E+00
-0.2869063342699E+00
-0.2551641098602E+00
-0.2237839525497E+00
-0.1930994980317E+00
-0.1634640418819E+00
-0.1351236135420E+00
-0.1082759918336E+00
-0.8312820095556E-01
-0.5991691504268E-01
-0.3890382224047E-01
-0.2035788213646E-01
-0.4532059989549E-02
 0.8363906532920E-02
 0.1820817724902E-01
 0.2500754970533E-01
 0.2890831284334E-01
 0.3021258076138E-01
 0.2940971565726E-01
 0.2720506712498E-01
 0.2454426754339E-01
 0.2263090594402E-01
 0.2292915299018E-01
 0.2712054449703E-01
 0.3701091439757E-01
 0.5450805917295E-01
 0.8162696336570E-01
 0.1204192386707E+00
-0.8003294705490E+00
-0.7882220431042E+00
-0.7691188850324E+00
-0.7444533717098E+00
-0.7156684858967E+00
-0.6840493161146E+00
-0.6506311555790E+00
-0.6161779244880E+00
-0.5812081287685E+00
-0.5460440123759E+00
-0.5108659048010E+00
-0.4757609430379E+00
-0.4407622500445E+00
-0.4058788820238E+00
-0.3711180056782E+00
-0.3365044928613E+00
-0.3021767735190E+00
-0.2684616632044E+00
-0.2357071653412E+00
-0.2041475239714E+00
-0.1739669622210E+00
-0.1453615817544E+00
-0.1185614962775E+00
-0.9382620664157E-01
-0.7142606474118E-01
-0.5161812119777E-01
-0.3461802453117E-01
-0.2055361197372E-01
-0.9422778123037E-02
-0.1083041721030E-02
 0.4764847907980E-02
 0.8609489657936E-02
 0.1115878738694E-01
 0.1336538515961E-01
 0.1644554088620E-01
 0.2188418418226E-01
 0.3139841720349E-01
 0.4684911931339E-01
 0.7021538079657E-01
 0.1035886218156E+00
 0.1490641767858E+00
-0.9255936640321E+00
-0.9113860286118E+00
-0.8895603884436E+00
-0.8617755197131E+00
-0.8296802143617E+00
-0.7947157572797E+00
-0.7580157281728E+00
-0.7203915391303E+00
-0.6823721956017E+00
-0.6442674694313E+00
-0.6062332244415E+00
-0.5683272258606E+00
-0.5305521053011E+00
-0.4928869160152E+00
-0.4553097985365E+00
-0.4178180037283E+00
-0.3805295530249E+00
-0.3437630469305E+00
-0.3078603268647E+00
-0.2730436575935E+00
-0.2394843044525E+00
-0.2073688569955E+00
-0.1769230218595E+00
-0.1484068981397E+00
-0.1220955458867E+00
-0.9825388306360E-01
-0.7710768620551E-01
-0.5879544194711E-01
-0.4332481910284E-01
-0.3056256342044E-01
-0.2021787081505E-01
-0.1180842958001E-01
-0.4629002492592E-02
 0.2275418740600E-02
 0.1012973823458E-01
 0.2043664108907E-01
 0.3494646288875E-01
 0.5557504777271E-01
 0.8438501752950E-01
 0.1235719752858E+00
 0.1752813409808E+00
-0.1052134155450E+01
-0.1035626229017E+01
-0.1010841293341E+01
-0.9797011877073E+00
-0.9440893717060E+00
-0.9056181852894E+00
-0.8655217199765E+00
-0.8246529572127E+00
-0.7835419544960E+00
-0.7424763429526E+00
-0.7015793540615E+00
-0.6608732078115E+00
-0.6203256344703E+00
-0.5798825149890E+00
-0.5394905014602E+00
-0.4991170915574E+00
-0.4588579758624E+00
-0.4190219545837E+00
-0.3799436721861E+00
-0.3418331264291E+00
-0.3048492250686E+00
-0.2691705462960E+00
-0.2350206884964E+00
-0.2026632976981E+00
-0.1723816135016E+00
-0.1444523444487E+00
-0.1191157480732E+00
-0.9652576029600E-01
-0.7670508435774E-01
-0.5953533445101E-01
-0.4474000216642E-01
-0.3184889447401E-01
-0.2016496587985E-01
-0.8735870465542E-02
 0.3667830131390E-02
 0.1856246356806E-01
 0.3773089664705E-01
 0.6313692214526E-01
 0.9693841436465E-01
 0.1414871326228E+00
 0.1990349346354E+00
-0.1180078192517E+01
-0.1161036594629E+01
-0.1133017467054E+01
-0.1098252161280E+01
-0.1058892972815E+01
-0.1016739286204E+01
-0.9731262113723E+00
-0.9289395620012E+00
-0.8846983535614E+00
-0.8406565086748E+00
-0.7968953719902E+00
-0.7533949748090E+00
-0.7100836304330E+00
-0.6668709197056E+00
-0.6236695779296E+00
-0.5804151542111E+00
-0.5371789107419E+00
-0.4942580315277E+00
-0.4519787231881E+00
-0.4105383115020E+00
-0.3700839500032E+00
-0.3307878159955E+00
-0.2928738696340E+00
-0.2566124367991E+00
-0.2222985749087E+00
-0.1902248505751E+00
-0.1606504915018E+00
-0.1337498351622E+00
-0.1095660735867E+00
-0.8800158268340E-01
-0.6880031315408E-01
-0.5151037693281E-01
-0.3544885638212E-01
-0.1967136132476E-01
-0.2948782201583E-02
 0.1624602231205E-01
 0.3972099000856E-01
 0.6950170843832E-01
 0.1077750421618E+00
 0.1572350686860E+00
 0.2203048556972E+00
-0.1309565492086E+01
-0.1287717241472E+01
-0.1256144037177E+01
-0.1217444371215E+01
-0.1174079803062E+01
-0.1128053510593E+01
-0.1080799445302E+01
-0.1033223769529E+01
-0.9858191108453E+00
-0.9387919586750E+00
-0.8921714077843E+00
-0.8458882796456E+00
-0.7998269704675E+00
-0.7538577807493E+00
-0.7078572037320E+00
-0.6617266024739E+00
-0.6155105121938E+00
-0.5694923998924E+00
-0.5239885338777E+00
-0.4791830166877E+00
-0.4352118577925E+00
-0.3922425812458E+00
-0.3505021842930E+00
-0.3102710159593E+00
-0.2718597686649E+00
-0.2355810792146E+00
-0.2017177671662E+00
-0.1704696776193E+00
-0.1419061536937E+00
-0.1159565099124E+00
-0.9239167878730E-01
-0.7078469763643E-01
-0.5047313528762E-01
-0.3052642717836E-01
-0.9720432017709E-02
 0.1347727259505E-01
 0.4090192332247E-01
 0.7461115259795E-01
 0.1169267964358E+00
 0.1703178762990E+00
 0.2397582205235E+00
-0.1440750778990E+01
-0.1415775291415E+01
-0.1380274515606E+01
-0.1337286043852E+01
-0.1289628458347E+01
-0.1239525554437E+01
-0.1188503910829E+01
-0.1137472617552E+01
-0.1086878620214E+01
-0.1036864855674E+01
-0.9873967357873E+00
-0.9383486209992E+00
-0.8895566659396E+00
-0.8408491891273E+00
-0.7920643025870E+00
-0.7430669268605E+00
-0.6938723341268E+00
-0.6447478158432E+00
-0.5959978713754E+00
-0.5477926463979E+00
-0.5002576313633E+00
-0.4535576203538E+00
-0.4079255732749E+00
-0.3636554481591E+00
-0.3210775807519E+00
-0.2805290311216E+00
-0.2423209556816E+00
-0.2066839636685E+00
-0.1737194313990E+00
-0.1433901026879E+00
-0.1155008302605E+00
-0.8965668524277E-01
-0.6522266111379E-01
-0.4128824186410E-01
-0.1663995291697E-01
 0.1025700641503E-01
 0.4125502887765E-01
 0.7846748855930E-01
 0.1242060067574E+00
 0.1813242531885E+00
 0.2531936293350E+00
-0.1573806997415E+01
-0.1545325820360E+01
-0.1505459524933E+01
-0.1457775275859E+01
-0.1405504923059E+01
-0.1351108606371E+01
-0.1296193388864E+01
-0.1241647422142E+01
-0.1187847952397E+01
-0.1134855668600E+01
-0.1082559923463E+01
-0.1030771351872E+01
-0.9792739217167E+00
-0.9278517044146E+00
-0.8763025763050E+00
-0.8244527651942E+00
-0.7722854562360E+00
-0.7200488513495E+00
-0.6680334270350E+00
-0.6163944113585E+00
-0.5652474306750E+00
-0.5147567017666E+00
-0.4651643821404E+00
-0.4167819066258E+00
-0.3699634652605E+00
-0.3250750257448E+00
-0.2824609329184E+00
-0.2423879578552E+00
-0.2049956202898E+00
-0.1702869303652E+00
-0.1381080663614E+00
-0.1081038285922E+00
-0.7967417530549E-01
-0.5193563434468E-01
-0.2369086515489E-01
 0.6591452878756E-02
 0.4078318545834E-01
 0.8102370182844E-01
 0.1297110877984E+00
 0.1895552968194E+00
 0.2635083198709E+00
-0.1708929421492E+01
-0.1676492912706E+01
-0.1631744950439E+01
-0.1578896838722E+01
-0.1521659576884E+01
-0.1462742347579E+01
-0.1403811998672E+01
-0.1345703548103E+01
-0.1288694983209E+01
-0.1232743405474E+01
-0.1177649040049E+01
-0.1123151817118E+01
-0.1068980201346E+01
-0.1014872374234E+01
-0.9605845229432E+00
-0.9059019666813E+00
-0.8507726230796E+00
-0.7954221039998E+00
-0.7401240625946E+00
-0.6850175660231E+00
-0.6302090870155E+00
-0.5758647220616E+00
-0.5222394482216E+00
-0.4696663745320E+00
-0.4185279682711E+00
-0.3692237021606E+00
-0.3221360409082E+00
-0.2775734393572E+00
-0.2357199042392E+00
-0.1966259259276E+00
-0.1601869446262E+00
-0.1260958435255E+00
-0.9379588049447E-01
-0.6243821832077E-01
-0.3084824556229E-01
 0.2498494339663E-02
 0.3948589816719E-01
 0.8229430999453E-01
 0.1333347509272E+00
 0.1952674362647E+00
 0.2707080251682E+00
-0.1846340984711E+01
-0.1809410803755E+01
-0.1759169255874E+01
-0.1700617947486E+01
-0.1638023501820E+01
-0.1574350708991E+01
-0.1511293310252E+01
-0.1449590356053E+01
-0.1389384686594E+01
-0.1330505959927E+01
-0.1272651930299E+01
-0.1215485519195E+01
-0.1158677293520E+01
-0.1101918737936E+01
-0.1044923435318E+01
-0.9874336477669E+00
-0.9293583966505E+00
-0.8708964407476E+00
-0.8123010989074E+00
-0.7536936831006E+00
-0.6951723205915E+00
-0.6369078534110E+00
-0.5791721888981E+00
-0.5223246944495E+00
-0.4667807543725E+00
-0.4129780263367E+00
-0.3613420663949E+00
-0.3122286331980E+00
-0.2658727980699E+00
-0.2223801551346E+00
-0.1817039331429E+00
-0.1435942252460E+00
-0.1075467931758E+00
-0.7275605867958E-01
-0.3807692349298E-01
-0.1997064060897E-02
 0.3738044603478E-01
 0.8226916220001E-01
 0.1351028054037E+00
 0.1984793398329E+00
 0.2750037947232E+00
-0.1986299286565E+01
-0.1944225059547E+01
-0.1887759570648E+01
-0.1822882630252E+01
-0.1754503944140E+01
-0.1685839425008E+01
-0.1618559625718E+01
-0.1553251408121E+01
-0.1489879633754E+01
-0.1428120585904E+01
-0.1367556556401E+01
-0.1307768310592E+01
-0.1248367374766E+01
-0.1188998806068E+01
-0.1129333370453E+01
-0.1069068234081E+01
-0.1008069324325E+01
-0.9465032843825E+00
-0.8845986580791E+00
-0.8224569728140E+00
-0.7601689836622E+00
-0.6979136986335E+00
-0.6359846879296E+00
-0.5747726154674E+00
-0.5147306359757E+00
-0.4563393069638E+00
-0.4000722305497E+00
-0.3463381499346E+00
-0.2954300095498E+00
-0.2475165717388E+00
-0.2026180402665E+00
-0.1605517129459E+00
-0.1208761437183E+00
-0.8283869050782E-01
-0.4533176154115E-01
-0.6859393918688E-02
 0.3448762057236E-01
 0.8096180053734E-01
 0.1350266667669E+00
 0.1992660826813E+00
 0.2763295144457E+00
-0.2129105946326E+01
-0.2081093681888E+01
-0.2017525951798E+01
-0.1945604198492E+01
-0.1870978779395E+01
-0.1797093483525E+01
-0.1725521584567E+01
-0.1656625032373E+01
-0.1590140737520E+01
-0.1525564509009E+01
-0.1462351407053E+01
-0.1399996608948E+01
-0.1338053060878E+01
-0.1276121003538E+01
-0.1213829075805E+01
-0.1150827478890E+01
-0.1086934122973E+01
-0.1022276953052E+01
-0.9570540717406E+00
-0.8913446546600E+00
-0.8252333294239E+00
-0.7589114487481E+00
-0.6926997735617E+00
-0.6270258336585E+00
-0.5623856043143E+00
-0.4993072215534E+00
-0.4383171929452E+00
-0.3798829373292E+00
-0.3243623044443E+00
-0.2719957641845E+00
-0.2228804076591E+00
-0.1769117220031E+00
-0.1337225754951E+00
-0.9262440541433E-01
-0.5255623319114E-01
-0.1204335173524E-01
 0.3083785022092E-01
 0.7839060018987E-01
 0.1331323652070E+00
 0.1976643838198E+00
 0.2746436089856E+00
-0.2275119304091E+01
-0.2220187910695E+01
-0.2148452901030E+01
-0.2068655132302E+01
-0.1987289851229E+01
-0.1907974677611E+01
-0.1832078317927E+01
-0.1759645361211E+01
-0.1690128273356E+01
-0.1622815675383E+01
-0.1557025969831E+01
-0.1492167630744E+01
-0.1427737439597E+01
-0.1363294062428E+01
-0.1298425854268E+01
-0.1232734445649E+01
-0.1165983881349E+01
-0.1098255068362E+01
-0.1029708373789E+01
-0.9603973922857E+00
-0.8904023065900E+00
-0.8199320362584E+00
-0.7493410807880E+00
-0.6791000214335E+00
-0.6097528620401E+00
-0.5418798561868E+00
-0.4760650748011E+00
-0.4128402485744E+00
-0.3526353791571E+00
-0.2957716937089E+00
-0.2424338797325E+00
-0.1926076971336E+00
-0.1460133042668E+00
-0.1020391142589E+00
-0.5968167809045E-01
-0.1749321061741E-01
 0.2646872415096E-01
 0.7457873890418E-01
 0.1294441734237E+00
 0.1937050145559E+00
 0.2699486438818E+00
-0.2424771998475E+01
-0.2361692276922E+01
-0.2280486694956E+01
-0.2191853444320E+01
-0.2103235141056E+01
-0.2018319639005E+01
-0.1938118461838E+01
-0.1862243959856E+01
-0.1789803189221E+01
-0.1719853627978E+01
-0.1651571259534E+01
-0.1584279639323E+01
-0.1517424076955E+01
-0.1450526847219E+01
-0.1383139343379E+01
-0.1314813436689E+01
-0.1245252283413E+01
-0.1174479053909E+01
-0.1102606902505E+01
-0.1029659804305E+01
-0.9557158773723E+00
-0.8810082735527E+00
-0.8059330872248E+00
-0.7310108401688E+00
-0.6568388576993E+00
-0.5840537635698E+00
-0.5133015077612E+00
-0.4451836327902E+00
-0.3802097445495E+00
-0.3187914292876E+00
-0.2612125443879E+00
-0.2075624160311E+00
-0.1576631220224E+00
-0.1109951226115E+00
-0.6662591239079E-01
-0.2314204432051E-01
 0.2142409245942E-01
 0.6954883640626E-01
 0.1239807626574E+00
 0.1874261036114E+00
 0.2623045687284E+00
-0.2578595825657E+01
-0.2505803040651E+01
-0.2413516224858E+01
-0.2314944264870E+01
-0.2218559947927E+01
-0.2127939013188E+01
-0.2043522426210E+01
-0.1964352132544E+01
-0.1889128684866E+01
-0.1816660488178E+01
-0.1745980392549E+01
-0.1676332204253E+01
-0.1607116991292E+01
-0.1537828092017E+01
-0.1467985174957E+01
-0.1397089841725E+01
-0.1324775856201E+01
-0.1250994755857E+01
-0.1175800046610E+01
-0.1099181066452E+01
-0.1021217352829E+01
-0.9421749605397E+00
-0.8625011086298E+00
-0.7827739295622E+00
-0.7036493233235E+00
-0.6258240459878E+00
-0.5500097164021E+00
-0.4768829542401E+00
-0.4070406256643E+00
-0.3409948819738E+00
-0.2791412539748E+00
-0.2216872309331E+00
-0.1685732920721E+00
-0.1193896292794E+00
-0.7329150687531E-01
-0.2891053419629E-01
 0.1575276738896E-01
 0.6331750518410E-01
 0.1167498214881E+00
 0.1788772430690E+00
 0.2518421418464E+00
-0.2737257786084E+01
-0.2652723330512E+01
-0.2547343585454E+01
-0.2437575022540E+01
-0.2332947759612E+01
-0.2236618859413E+01
-0.2148166364012E+01
-0.2065903914232E+01
-0.1988071999837E+01
-0.1913222011006E+01
-0.1840249195234E+01
-0.1768326471957E+01
-0.1696820593276E+01
-0.1625206026448E+01
-0.1552978468087E+01
-0.1479589866663E+01
-0.1404594247194E+01
-0.1327853232315E+01
-0.1249344183770E+01
-0.1169015622806E+01
-0.1086953733024E+01
-0.1003468938215E+01
-0.9190712360695E+00
-0.8344048664815E+00
-0.7501893178721E+00
-0.6671844724743E+00
-0.5861706451120E+00
-0.5079044478176E+00
-0.4330778812426E+00
-0.3623145433216E+00
-0.2961351305848E+00
-0.2348812610916E+00
-0.1786303209424E+00
-0.1271029658321E+00
-0.7956352676325E-01
-0.3470501236276E-01
 0.9507697542958E-02
 0.5588875923691E-01
 0.1077371713891E+00
 0.1681153074263E+00
 0.2387823251308E+00
-0.2901613917659E+01
-0.2802651651498E+01
-0.2681638122848E+01
-0.2559262305760E+01
-0.2446012557441E+01
-0.2344125939346E+01
-0.2251928200487E+01
-0.2166839605397E+01
-0.2086606313418E+01
-0.2009528677587E+01
-0.1934376831570E+01
-0.1860265452849E+01
-0.1786539599230E+01
-0.1712667865403E+01
-0.1638133088569E+01
-0.1562340081576E+01
-0.1484750537985E+01
-0.1405111782304E+01
-0.1323302880491E+01
-0.1239224024793E+01
-0.1152976028172E+01
-0.1064929054711E+01
-0.9756701924912E+00
-0.8859190859017E+00
-0.7964632814420E+00
-0.7081276432426E+00
-0.6217631433503E+00
-0.5382108190466E+00
-0.4582659460050E+00
-0.3826752314078E+00
-0.3120990650283E+00
-0.2470305455187E+00
-0.1877046200387E+00
-0.1339965742438E+00
-0.8530663529514E-01
-0.4041422111002E-01
 0.2746443537276E-02
 0.4724560261111E-01
 0.9688694652090E-01
 0.1551891026953E+00
 0.2234637253628E+00
-0.3072792607667E+01
-0.2955756963085E+01
-0.2815863134150E+01
-0.2679348722323E+01
-0.2557296446214E+01
-0.2450219179068E+01
-0.2354695684322E+01
-0.2267109503777E+01
-0.2184712659099E+01
-0.2105576785342E+01
-0.2028366429591E+01
-0.1952154338883E+01
-0.1876278941694E+01
-0.1800219140519E+01
-0.1723460578258E+01
-0.1645366690253E+01
-0.1565291603827E+01
-0.1482835324725E+01
-0.1397748452387E+01
-0.1309873913447E+01
-0.1219339517908E+01
-0.1126595997262E+01
-0.1032325082856E+01
-0.9373317571396E+00
-0.8424751079551E+00
-0.7486452196488E+00
-0.6567642280203E+00
-0.5677613972441E+00
-0.4825437956631E+00
-0.4019938471223E+00
-0.3269272216283E+00
-0.2580071726315E+00
-0.1956490715564E+00
-0.1399107557066E+00
-0.9036153573483E-01
-0.4590420256906E-01
-0.4465594461371E-02
 0.3734019412177E-01
 0.8406832508604E-01
 0.1401041182788E+00
 0.2063796228253E+00
-0.3252329362173E+01
-0.3112125833683E+01
-0.2949156119960E+01
-0.2796950199412E+01
-0.2666280634977E+01
-0.2554669711957E+01
-0.2456375453620E+01
-0.2366677362817E+01
-0.2282381817564E+01
-0.2201369475825E+01
-0.2122225679608E+01
-0.2044000876861E+01
-0.1966043729538E+01
-0.1887862864949E+01
-0.1808968612481E+01
-0.1728694359649E+01
-0.1646268533139E+01
-0.1561098305430E+01
-0.1472764028078E+01
-0.1381041146823E+01
-0.1286103874115E+01
-0.1188511928241E+01
-0.1089063010879E+01
-0.9886576100155E+00
-0.8882282469710E+00
-0.7887282453594E+00
-0.6911494488937E+00
-0.5965123499169E+00
-0.5058449287188E+00
-0.4201791410296E+00
-0.3405025660581E+00
-0.2676684128202E+00
-0.2022975126552E+00
-0.1446622377464E+00
-0.9454090933994E-01
-0.5101088723878E-01
-0.1204661038100E-01
 0.2608533222537E-01
 0.6902258202878E-01
 0.1227487633429E+00
 0.1882234926176E+00
-0.3442397513011E+01
-0.3271648798259E+01
-0.3080128006313E+01
-0.2910902334227E+01
-0.2772425013919E+01
-0.2657289845550E+01
-0.2556900508791E+01
-0.2465523423132E+01
-0.2379616204443E+01
-0.2296917583797E+01
-0.2215967384066E+01
-0.2135815826853E+01
-0.2055839357598E+01
-0.1975598563589E+01
-0.1894658774596E+01
-0.1812344330052E+01
-0.1727737129231E+01
-0.1639987431952E+01
-0.1548446323875E+01
-0.1452811036288E+01
-0.1353333021932E+01
-0.1250719849717E+01
-0.1145910539854E+01
-0.1039910707023E+01
-0.9337258470163E+00
-0.8283675953807E+00
-0.7248933949074E+00
-0.6244169638690E+00
-0.5280973472692E+00
-0.4371314879540E+00
-0.3526964404570E+00
-0.2758558949151E+00
-0.2074631564124E+00
-0.1480415578562E+00
-0.9762524768894E-01
-0.5553069545833E-01
-0.1988056601020E-01
 0.1335531507776E-01
 0.5128362216456E-01
 0.1027441225141E+00
 0.1699323309507E+00
-0.3646233579998E+01
-0.3433764848166E+01
-0.3206518350660E+01
-0.3019741013470E+01
-0.2875261045248E+01
-0.2757962903750E+01
-0.2656232623780E+01
-0.2563648030980E+01
-0.2476431462589E+01
-0.2392240195340E+01
-0.2309609958786E+01
-0.2227613504869E+01
-0.2145671946202E+01
-0.2063421302858E+01
-0.1980523334109E+01
-0.1896331298202E+01
-0.1809758534209E+01
-0.1719605765098E+01
-0.1624909422272E+01
-0.1525279561432E+01
-0.1421094537893E+01
-0.1313262618634E+01
-0.1202892988893E+01
-0.1091104156784E+01
-0.9789709500152E+00
-0.8675546068456E+00
-0.7579704006826E+00
-0.6514259913394E+00
-0.5492234953383E+00
-0.4527426639085E+00
-0.3633682240762E+00
-0.2823948771127E+00
-0.2109370126573E+00
-0.1498101294326E+00
-0.9935895462258E-01
-0.5921140814235E-01
-0.2778618118152E-01
-0.9841874593084E-03
 0.3007095090480E-01
 0.7914037253936E-01
 0.1526856494069E+00
-0.3869003029286E+01
-0.3596840662343E+01
-0.3324599164079E+01
-0.3121833795181E+01
-0.2974559989988E+01
-0.2856645097116E+01
-0.2754362260267E+01
-0.2661077437009E+01
-0.2572856496508E+01
-0.2487365241069E+01
-0.2403177762901E+01
-0.2319412356621E+01
-0.2235549390726E+01
-0.2151321103606E+01
-0.2066540578669E+01
-0.1980658087126E+01
-0.1892400061188E+01
-0.1800079160046E+01
-0.1702289934986E+01
-0.1598554216489E+01
-0.1489458291679E+01
-0.1376181562576E+01
-0.1260033581606E+01
-0.1142249757800E+01
-0.1023966730493E+01
-0.9062819741944E+00
-0.7903555560265E+00
-0.6774880401647E+00
-0.5691400673559E+00
-0.4668956181236E+00
-0.3723651601841E+00
-0.2870936395805E+00
-0.2124864480073E+00
-0.1496969097211E+00
-0.9944591242736E-01
-0.6174867530119E-01
-0.3547556374813E-01
-0.1697551443224E-01
 0.4185244545456E-02
 0.4980284396876E-01
 0.1377252021721E+00
-0.4119811623628E+01
-0.3756473993873E+01
-0.3428214433473E+01
-0.3216008412927E+01
-0.3070505346771E+01
-0.2953291578704E+01
-0.2851332830989E+01
-0.2757864340726E+01
-0.2668932353021E+01
-0.2582330714303E+01
-0.2496700796798E+01
-0.2411235540567E+01
-0.2325483244283E+01
-0.2239283771860E+01
-0.2152668125283E+01
-0.2065306024020E+01
-0.1975736460669E+01
-0.1881567059443E+01
-0.1780753894715E+01
-0.1672753672954E+01
-0.1558493995297E+01
-0.1439514721459E+01
-0.1317352498718E+01
-0.1193357553101E+01
-0.1068716718775E+01
-0.9445450410377E+00
-0.8220262226094E+00
-0.7025499261503E+00
-0.5877575170481E+00
-0.4794642392992E+00
-0.3795225070560E+00
-0.2897430587589E+00
-0.2118537382442E+00
-0.1473957532449E+00
-0.9754096659371E-01
-0.6279193154624E-01
-0.4253492511470E-01
-0.3432542875122E-01
-0.2794793344115E-01
 0.1018217881810E-01
 0.1255465160799E+00
-0.4417275199345E+01
-0.3900013156571E+01
-0.3507944208356E+01
-0.3303499607538E+01
-0.3163324480984E+01
-0.3047816154027E+01
-0.2947310022386E+01
-0.2854055244348E+01
-0.2764724488527E+01
-0.2677180633629E+01
-0.2590215914393E+01
-0.2503110408733E+01
-0.2415491466893E+01
-0.2327295583323E+01
-0.2238833979310E+01
-0.2150216086785E+01
-0.2059852363998E+01
-0.1964282044701E+01
-0.1860504963834E+01
-0.1748004584926E+01
-0.1628267569052E+01
-0.1503294799863E+01
-0.1374865935404E+01
-0.1244435303294E+01
-0.1113224769646E+01
-0.9823437130149E+00
-0.8529645216318E+00
-0.7265567364715E+00
-0.6049788646909E+00
-0.4903133893927E+00
-0.3846638425365E+00
-0.2901173341343E+00
-0.2087527177548E+00
-0.1425664805550E+00
-0.9323732096197E-01
-0.6193341373080E-01
-0.4852873567328E-01
-0.5200058890387E-01
-0.6749347231320E-01
-0.4916265126268E-01
 0.1131942635015E+00
-0.4808891729853E+01
-0.3984454737218E+01
-0.3557000604406E+01
-0.3390875803511E+01
-0.3250910739827E+01
-0.3141117494332E+01
-0.3042228884859E+01
-0.2949797339637E+01
-0.2860291639628E+01
-0.2771972919198E+01
-0.2683764830102E+01
-0.2595068221751E+01
-0.2505598999302E+01
-0.2415357503535E+01
-0.2324928270037E+01
-0.2235247014929E+01
-0.2144848931732E+01
-0.2048528866390E+01
-0.1941789308398E+01
-0.1824433358501E+01
-0.1698837107058E+01
-0.1567546644053E+01
-0.1432585416275E+01
-0.1295488094152E+01
-0.1157493983600E+01
-0.1019685332127E+01
-0.8831621228915E+00
-0.7494505901441E+00
-0.6206972392927E+00
-0.4992995377597E+00
-0.3876027117412E+00
-0.2879721994278E+00
-0.2028753382984E+00
-0.1348062378930E+00
-0.8613433493270E-01
-0.5850383020196E-01
-0.5341591269701E-01
-0.6809924938768E-01
-0.1120584460678E+00
-0.1461432753590E+00
 0.8299619226574E-01
-0.5460224726805E+01
-0.3819965894644E+01
-0.3646756911865E+01
-0.3459666368636E+01
-0.3338554143356E+01
-0.3232276308389E+01
-0.3136545802128E+01
-0.3045140387241E+01
-0.2955734859850E+01
-0.2866766326023E+01
-0.2777396019860E+01
-0.2687146835718E+01
-0.2595825949444E+01
-0.2503515382130E+01
-0.2410820718661E+01
-0.2320061302969E+01
-0.2230870415133E+01
-0.2134791795732E+01
-0.2024870947105E+01
-0.1902160151523E+01
-0.1770246401484E+01
-0.1632285317594E+01
-0.1490516580935E+01
-0.1346520089915E+01
-0.1201521774142E+01
-0.1056588596510E+01
-0.9126322640076E+00
-0.7711634984724E+00
-0.6347918463424E+00
-0.5062746960779E+00
-0.3881421357251E+00
-0.2830501274760E+00
-0.1938757378798E+00
-0.1237058586213E+00
-0.7560124251643E-01
-0.5237178650151E-01
-0.5488039045138E-01
-0.8794367803820E-01
-0.1379442648472E+00
-0.3202372707529E+00
-0.1333410435356E-01
 0.1786193659165E+01
 0.1728274755360E+01
 0.1658970827047E+01
 0.1583000002784E+01
 0.1504832625163E+01
 0.1427436913548E+01
 0.1353069618432E+01
 0.1283348371963E+01
 0.1219319503900E+01
 0.1161468665858E+01
 0.1109752360749E+01
 0.1064002476822E+01
 0.1023645401784E+01
 0.9879456045599E+00
 0.9562286350021E+00
 0.9275318598250E+00
 0.9006130969226E+00
 0.8761465976503E+00
 0.8482554874957E+00
 0.8739028006528E+00
 0.1764583216310E+01
 0.1709948805826E+01
 0.1643874034364E+01
 0.1571773631773E+01
 0.1497301279299E+01
 0.1423373386874E+01
 0.1352138034341E+01
 0.1285179067417E+01
 0.1223549728611E+01
 0.1167791347181E+01
 0.1118020965477E+01
 0.1074050735627E+01
 0.1035411999435E+01
 0.1001443711695E+01
 0.9714147470980E+00
 0.9444008053490E+00
 0.9199137022880E+00
 0.8966071498787E+00
 0.8858868847760E+00
 0.8701673005519E+00
 0.1746288125392E+01
 0.1693221598447E+01
 0.1630093413445E+01
 0.1561217157440E+01
 0.1490082435629E+01
 0.1419337360195E+01
 0.1351046260722E+01
 0.1286739759092E+01
 0.1227470062709E+01
 0.1173833837668E+01
 0.1126013063169E+01
 0.1083880480108E+01
 0.1047022649111E+01
 0.1014830722531E+01
 0.9865932318845E+00
 0.9616247321902E+00
 0.9392076066109E+00
 0.9212143752233E+00
 0.9058871648162E+00
 0.8869599622043E+00
 0.1730238105726E+01
 0.1678256258733E+01
 0.1617383165177E+01
 0.1551321285591E+01
 0.1483145724626E+01
 0.1415327291450E+01
 0.1349801162686E+01
 0.1288042404817E+01
 0.1231092544011E+01
 0.1179576676256E+01
 0.1133730712038E+01
 0.1093476863774E+01
 0.1058456358968E+01
 0.1028111926414E+01
 0.1001825994709E+01
 0.9789521712910E+00
 0.9594108977645E+00
 0.9427615766780E+00
 0.9270663692881E+00
 0.9082129704139E+00
 0.1716082959660E+01
 0.1664765278292E+01
 0.1605679856826E+01
 0.1542002649087E+01
 0.1476467531980E+01
 0.1411329539907E+01
 0.1348401927832E+01
 0.1289090296221E+01
 0.1234414273137E+01
 0.1185013117046E+01
 0.1141161673692E+01
 0.1102826187169E+01
 0.1069699479337E+01
 0.1041292758601E+01
 0.1017048079834E+01
 0.9964852685770E+00
 0.9791248701440E+00
 0.9640004753769E+00
 0.9492361857525E+00
 0.9318904696372E+00
 0.1703523209178E+01
 0.1652538770021E+01
 0.1594850046757E+01
 0.1533197172194E+01
 0.1470005502494E+01
 0.1407325394418E+01
 0.1346839343686E+01
 0.1289878089974E+01
 0.1237428566513E+01
 0.1190132436776E+01
 0.1148292323225E+01
 0.1111912722907E+01
 0.1080739347527E+01
 0.1054344287321E+01
 0.1032243732856E+01
 0.1013915067344E+01
 0.9986715046024E+00
 0.9853703681009E+00
 0.9723486120782E+00
 0.9571480617160E+00
 0.1692310783981E+01
 0.1641383107301E+01
 0.1584765493539E+01
 0.1524825474930E+01
 0.1463714024140E+01
 0.1403287435685E+01
 0.1345097595358E+01
 0.1290394335585E+01
 0.1240124028282E+01
 0.1194921017049E+01
 0.1155106559611E+01
 0.1120719108477E+01
 0.1091553090699E+01
 0.1067239068989E+01
 0.1047320921164E+01
 0.1031232833300E+01
 0.1018187669067E+01
 0.1007034399356E+01
 0.9962499648265E+00
 0.9836229555956E+00
 0.1682226348501E+01
 0.1631122809151E+01
 0.1575300167824E+01
 0.1516804468788E+01
 0.1457540309805E+01
 0.1399182523768E+01
 0.1343154659847E+01
 0.1290622397335E+01
 0.1242485135566E+01
 0.1199362125142E+01
 0.1161585818275E+01
 0.1129223607433E+01
 0.1102114301557E+01
 0.1079932906514E+01
 0.1062239762309E+01
 0.1048446891652E+01
 0.1037741605882E+01
 0.1029011409122E+01
 0.1020828118906E+01
 0.1011113861585E+01
 0.1673071895744E+01
 0.1621595654989E+01
 0.1566332658007E+01
 0.1509049011456E+01
 0.1451427037104E+01
 0.1394972167949E+01
 0.1340983520397E+01
 0.1290541106522E+01
 0.1244492658868E+01
 0.1203436046077E+01
 0.1167708467062E+01
 0.1137401297185E+01
 0.1112391051727E+01
 0.1092389364299E+01
 0.1076974152620E+01
 0.1065559676085E+01
 0.1057346038024E+01
 0.1051273720973E+01
 0.1045984792138E+01
 0.1039502957914E+01
 0.1664665594611E+01
 0.1612650210921E+01
 0.1557745981990E+01
 0.1501473507745E+01
 0.1445313615256E+01
 0.1390613636361E+01
 0.1338552833799E+01
 0.1290125369272E+01
 0.1246123988673E+01
 0.1207120099972E+01
 0.1173450061479E+01
 0.1145224109341E+01
 0.1122351059338E+01
 0.1104575890615E+01
 0.1091500174797E+01
 0.1082558331380E+01
 0.1076983231218E+01
 0.1073771575026E+01
 0.1071629976033E+01
 0.1068679713858E+01
 0.1656838548367E+01
 0.1604143951377E+01
 0.1549427387541E+01
 0.1493992700756E+01
 0.1439137320604E+01
 0.1386060890646E+01
 0.1335827675578E+01
 0.1289346694907E+01
 0.1247353472609E+01
 0.1210388883716E+01
 0.1178783574733E+01
 0.1152662128067E+01
 0.1131961873592E+01
 0.1116460626738E+01
 0.1105790004960E+01
 0.1099416701522E+01
 0.1096616793822E+01
 0.1096445001702E+01
 0.1097672879547E+01
 0.1098545817718E+01
 0.1649432423280E+01
 0.1595941856650E+01
 0.1541268005500E+01
 0.1486522115647E+01
 0.1432834063902E+01
 0.1381265360280E+01
 0.1332770167370E+01
 0.1288173664223E+01
 0.1248152750262E+01
 0.1213214533798E+01
 0.1183679858946E+01
 0.1159683966042E+01
 0.1141190250950E+01
 0.1128010021804E+01
 0.1119810301240E+01
 0.1116098013312E+01
 0.1116198644023E+01
 0.1119226779322E+01
 0.1124025801027E+01
 0.1128977225351E+01
 0.1642297718840E+01
 0.1587915348133E+01
 0.1533162541919E+01
 0.1478978332255E+01
 0.1426338971467E+01
 0.1376176585649E+01
 0.1329340046137E+01
 0.1286572381501E+01
 0.1248491104295E+01
 0.1215567053758E+01
 0.1188107947601E+01
 0.1166256785056E+01
 0.1150001445922E+01
 0.1139187715182E+01
 0.1133522147380E+01
 0.1132557320428E+01
 0.1135672358851E+01
 0.1142044747515E+01
 0.1150595377232E+01
 0.1159840102225E+01
 0.1635292443000E+01
 0.1579941456439E+01
 0.1525009000880E+01
 0.1471279154361E+01
 0.1419586819103E+01
 0.1370742742569E+01
 0.1325495161688E+01
 0.1284506895762E+01
 0.1248335810022E+01
 0.1217414604867E+01
 0.1192035234603E+01
 0.1172346192471E+01
 0.1158358763876E+01
 0.1149954151690E+01
 0.1146881571847E+01
 0.1148743180647E+01
 0.1154975204541E+01
 0.1164821067353E+01
 0.1177282139654E+01
 0.1191003029606E+01
 0.1628281081870E+01
 0.1571902160626E+01
 0.1516708446958E+01
 0.1463343720156E+01
 0.1412512366895E+01
 0.1364911074928E+01
 0.1321191912780E+01
 0.1281939591310E+01
 0.1247652464448E+01
 0.1218723757433E+01
 0.1195427596377E+01
 0.1177916173800E+01
 0.1166223375141E+01
 0.1160266607184E+01
 0.1159840163669E+01
 0.1164598861961E+01
 0.1174039012040E+01
 0.1187472513908E+01
 0.1203982860151E+01
 0.1222337069600E+01
 0.1621133780174E+01
 0.1563683854906E+01
 0.1508164800397E+01
 0.1455092574772E+01
 0.1405050621048E+01
 0.1358628253218E+01
 0.1316385627398E+01
 0.1278831542512E+01
 0.1246405288621E+01
 0.1219459715959E+01
 0.1198249512135E+01
 0.1182929108797E+01
 0.1173554329210E+01
 0.1170079411742E+01
 0.1172345673176E+01
 0.1180063166663E+01
 0.1192790895257E+01
 0.1209911454645E+01
 0.1230591528723E+01
 0.1253714782779E+01
 0.1613725703242E+01
 0.1555176926206E+01
 0.1499284675382E+01
 0.1446447732352E+01
 0.1397137055818E+01
 0.1351840686909E+01
 0.1311030905570E+01
 0.1275142843471E+01
 0.1244557414269E+01
 0.1219586540889E+01
 0.1200464212204E+01
 0.1187345873001E+01
 0.1180308697481E+01
 0.1179344259637E+01
 0.1184342542697E+01
 0.1195071090531E+01
 0.1211153978311E+01
 0.1232046591150E+01
 0.1256999809149E+01
 0.1285008771317E+01
 0.1605936520535E+01
 0.1546275409742E+01
 0.1489977243875E+01
 0.1437332724099E+01
 0.1388707798303E+01
 0.1344494793233E+01
 0.1305081923839E+01
 0.1270832909822E+01
 0.1242071155274E+01
 0.1219067373601E+01
 0.1202033859053E+01
 0.1191126006363E+01
 0.1186441794506E+01
 0.1188010551954E+01
 0.1195772387622E+01
 0.1209554413166E+01
 0.1229048029317E+01
 0.1253783504020E+01
 0.1283097054863E+01
 0.1316091209414E+01
 0.1597649994675E+01
 0.1536876711067E+01
 0.1480154126951E+01
 0.1427672642525E+01
 0.1379699790402E+01
 0.1336537236162E+01
 0.1298492712531E+01
 0.1265860761990E+01
 0.1238908273684E+01
 0.1217864674198E+01
 0.1202919763676E+01
 0.1194227935897E+01
 0.1191907450655E+01
 0.1196025756944E+01
 0.1206574450479E+01
 0.1223442221008E+01
 0.1246390025045E+01
 0.1275025058728E+01
 0.1308770300770E+01
 0.1346832961730E+01
 0.1588753652104E+01
 0.1526881381290E+01
 0.1469729308345E+01
 0.1417394183847E+01
 0.1370050933675E+01
 0.1327915142225E+01
 0.1291217411629E+01
 0.1260185294809E+01
 0.1235030244497E+01
 0.1215940473993E+01
 0.1203082632810E+01
 0.1196609238457E+01
 0.1196658318473E+01
 0.1203335780711E+01
 0.1216686033327E+01
 0.1236661368991E+01
 0.1263094608223E+01
 0.1295671896731E+01
 0.1333904164769E+01
 0.1377102636210E+01
 0.1579138518862E+01
 0.1516192934872E+01
 0.1458619066702E+01
 0.1406425690094E+01
 0.1359700221781E+01
 0.1318576298831E+01
 0.1283210510604E+01
 0.1253765537995E+01
 0.1230398522321E+01
 0.1213256642996E+01
 0.1202482842624E+01
 0.1198226934609E+01
 0.1200646203483E+01
 0.1209885344895E+01
 0.1226042914173E+01
 0.1249136901648E+01
 0.1279074440936E+01
 0.1315622822405E+01
 0.1358381604630E+01
 0.1406765325885E+01
 0.1568698906805E+01
 0.1504717700769E+01
 0.1446741922527E+01
 0.1394697191114E+01
 0.1348587863256E+01
 0.1308469338933E+01
 0.1274427075942E+01
 0.1246560910365E+01
 0.1224974811308E+01
 0.1209775171395E+01
 0.1201080734928E+01
 0.1199037807645E+01
 0.1203822414372E+01
 0.1215618370319E+01
 0.1234579753517E+01
 0.1260792451553E+01
 0.1294240535808E+01
 0.1334774890902E+01
 0.1382084811862E+01
 0.1435684958789E+01
 0.1557332239229E+01
 0.1492364699638E+01
 0.1434018596907E+01
 0.1382140446913E+01
 0.1336655397127E+01
 0.1297543915318E+01
 0.1264822969436E+01
 0.1238531469982E+01
 0.1218721339054E+01
 0.1205458463953E+01
 0.1198836933144E+01
 0.1198998744374E+01
 0.1206138130316E+01
 0.1220478367291E+01
 0.1242230495772E+01
 0.1271550630220E+01
 0.1308502591169E+01
 0.1353023569794E+01
 0.1404894300295E+01
 0.1463726153074E+01
 0.1544938905503E+01
 0.1479045540253E+01
 0.1420371978914E+01
 0.1368688990073E+01
 0.1323845802882E+01
 0.1285750866716E+01
 0.1254355059192E+01
 0.1229638161237E+01
 0.1211601134332E+01
 0.1200269645984E+01
 0.1195712676083E+01
 0.1198067096000E+01
 0.1207544785202E+01
 0.1224408834699E+01
 0.1248928769809E+01
 0.1281333416514E+01
 0.1321769343860E+01
 0.1370262983423E+01
 0.1426688257476E+01
 0.1490751913620E+01
 0.1531422134185E+01
 0.1464674328245E+01
 0.1405727098113E+01
 0.1354278167329E+01
 0.1310103605363E+01
 0.1273042376713E+01
 0.1242981423874E+01
 0.1219843058544E+01
 0.1203578307380E+01
 0.1194172879180E+01
 0.1191670168043E+01
 0.1196201058890E+01
 0.1207994470553E+01
 0.1227353671427E+01
 0.1254608294194E+01
 0.1290062542523E+01
 0.1333948941841E+01
 0.1386386182974E+01
 0.1447343351569E+01
 0.1516621894159E+01
 0.1516687876073E+01
 0.1449167581272E+01
 0.1390011099637E+01
 0.1338845180056E+01
 0.1295374975614E+01
 0.1259372126526E+01
 0.1230661550466E+01
 0.1209109605812E+01
 0.1194618331115E+01
 0.1187133685524E+01
 0.1186672944378E+01
 0.1193360076210E+01
 0.1207440360486E+01
 0.1229257605798E+01
 0.1259203290339E+01
 0.1297659884508E+01
 0.1344949306061E+01
 0.1401285656212E+01
 0.1466735117446E+01
 0.1541193146397E+01
 0.1500644687238E+01
 0.1432444144644E+01
 0.1373153218770E+01
 0.1322329123405E+01
 0.1279607828443E+01
 0.1244695442195E+01
 0.1217356524950E+01
 0.1197402849762E+01
 0.1184688320529E+01
 0.1179119276789E+01
 0.1180686251512E+01
 0.1189505262053E+01
 0.1205837163445E+01
 0.1230066649575E+01
 0.1262648912273E+01
 0.1304047850882E+01
 0.1354678529615E+01
 0.1414853760911E+01
 0.1484738617887E+01
 0.1564321163363E+01
 0.1483203606156E+01
 0.1414425101790E+01
 0.1355084754805E+01
 0.1304671026200E+01
 0.1262751919996E+01
 0.1228969438649E+01
 0.1203029216533E+01
 0.1184689665906E+01
 0.1173757308073E+01
 0.1170098887687E+01
 0.1173677441256E+01
 0.1184599851279E+01
 0.1203141607455E+01
 0.1229728586315E+01
 0.1264881701048E+01
 0.1309149781826E+01
 0.1363045239092E+01
 0.1426983184657E+01
 0.1501229113872E+01
 0.1585861448485E+01
 0.1464277994389E+01
 0.1395033664487E+01
 0.1335739031982E+01
 0.1285813884207E+01
 0.1244758939224E+01
 0.1212153153586E+01
 0.1187644446126E+01
 0.1170938965887E+01
 0.1161796503079E+01
 0.1160044101852E+01
 0.1165616371619E+01
 0.1178609672410E+01
 0.1199312963928E+01
 0.1228193503514E+01
 0.1265840078190E+01
 0.1312890367947E+01
 0.1369958929872E+01
 0.1437567317595E+01
 0.1516082932895E+01
 0.1605670818083E+01
 0.1443783360756E+01
 0.1374195050639E+01
 0.1315051364017E+01
 0.1265702705903E+01
 0.1225582612116E+01
 0.1194207686250E+01
 0.1171169149120E+01
 0.1156121891835E+01
 0.1148779538157E+01
 0.1148929172719E+01
 0.1156475816872E+01
 0.1171503649285E+01
 0.1194313620694E+01
 0.1225414388337E+01
 0.1265464884904E+01
 0.1315196095962E+01
 0.1375330296979E+01
 0.1446500457111E+01
 0.1529178088172E+01
 0.1623609903310E+01
 0.1421637115740E+01
 0.1351836323849E+01
 0.1292959006550E+01
 0.1244284565067E+01
 0.1205178815207E+01
 0.1175096335066E+01
 0.1153572522395E+01
 0.1140211984454E+01
 0.1134682688360E+01
 0.1136731326766E+01
 0.1146231877604E+01
 0.1163254326763E+01
 0.1188109709665E+01
 0.1221347805501E+01
 0.1263700011795E+01
 0.1315995687587E+01
 0.1379071611700E+01
 0.1453678002896E+01
 0.1540394145658E+01
 0.1639546362388E+01
 0.1397758234382E+01
 0.1327886179813E+01
 0.1269401103009E+01
 0.1221508673784E+01
 0.1183505709834E+01
 0.1154784737892E+01
 0.1134826150983E+01
 0.1123185314575E+01
 0.1119485049276E+01
 0.1123431035717E+01
 0.1134864381117E+01
 0.1153838413135E+01
 0.1180671786001E+01
 0.1215954678595E+01
 0.1260493158650E+01
 0.1315220649353E+01
 0.1381096800205E+01
 0.1458997143763E+01
 0.1549612121321E+01
 0.1653356683769E+01
 0.1372066760346E+01
 0.1302274654817E+01
 0.1244318625671E+01
 0.1197326491602E+01
 0.1160523908230E+01
 0.1133241009840E+01
 0.1114904103148E+01
 0.1105020559521E+01
 0.1103168649763E+01
 0.1109012232755E+01
 0.1122357253639E+01
 0.1143237327855E+01
 0.1171975536600E+01
 0.1209201165895E+01
 0.1255796796947E+01
 0.1312805983593E+01
 0.1381321614997E+01
 0.1462355926298E+01
 0.1556718622135E+01
 0.1664921359949E+01
 0.1344483141309E+01
 0.1274932761332E+01
 0.1217654376281E+01
 0.1171691965844E+01
 0.1136196724747E+01
 0.1110435924790E+01
 0.1093783020699E+01
 0.1085699059306E+01
 0.1085718516141E+01
 0.1093462476510E+01
 0.1108698889160E+01
 0.1131437785454E+01
 0.1162002542403E+01
 0.1201059584381E+01
 0.1249569395621E+01
 0.1308691344351E+01
 0.1379663791916E+01
 0.1463652427073E+01
 0.1561601198514E+01
 0.1674132455656E+01
 0.1314927029160E+01
 0.1245791855677E+01
 0.1189353068956E+01
 0.1144561839970E+01
 0.1110490494125E+01
 0.1086342993553E+01
 0.1071442152812E+01
 0.1065204758711E+01
 0.1067122611172E+01
 0.1076772948127E+01
 0.1093882382799E+01
 0.1118432449184E+01
 0.1150741014993E+01
 0.1191509306034E+01
 0.1241776630423E+01
 0.1302823091411E+01
 0.1376043859248E+01
 0.1462782655043E+01
 0.1564143433909E+01
 0.1680882297477E+01
 0.1283315229954E+01
 0.1214783087201E+01
 0.1159361530512E+01
 0.1115896690581E+01
 0.1083374755125E+01
 0.1060938721206E+01
 0.1047863298858E+01
 0.1043524288657E+01
 0.1047371669259E+01
 0.1058938344018E+01
 0.1077905654179E+01
 0.1104220522463E+01
 0.1138187257960E+01
 0.1180536981233E+01
 0.1232392710287E+01
 0.1295156493167E+01
 0.1370389295430E+01
 0.1459636612626E+01
 0.1564218807928E+01
 0.1685064474142E+01
 0.1249558634248E+01
 0.1181834608528E+01
 0.1127631698005E+01
 0.1085660741240E+01
 0.1054823481669E+01
 0.1034201505386E+01
 0.1023031385359E+01
 0.1020646666615E+01
 0.1026458997713E+01
 0.1039956285989E+01
 0.1060771292860E+01
 0.1088808172367E+01
 0.1124346722053E+01
 0.1168140172155E+01
 0.1221394968047E+01
 0.1285662737458E+01
 0.1362638345173E+01
 0.1454105571038E+01
 0.1561665255983E+01
 0.1686573202018E+01
 0.1213544149079E+01
 0.1146880257208E+01
 0.1094115352655E+01
 0.1053833048819E+01
 0.1024807214342E+01
 0.1006115007216E+01
 0.9969335419080E+00
 0.9965641567319E+00
 0.1004379576537E+01
 0.1019827180584E+01
 0.1042485310045E+01
 0.1072209338694E+01
 0.1109235306730E+01
 0.1154328582505E+01
 0.1208776992831E+01
 0.1274287963568E+01
 0.1352802961623E+01
 0.1446058219658E+01
 0.1556294867028E+01
 0.1685169370345E+01
 0.1175158179711E+01
 0.1109787705551E+01
 0.1058858275156E+01
 0.1020351701943E+01
 0.9933114403018E+00
 0.9766643803190E+00
 0.9695608842862E+00
 0.9712694450945E+00
 0.9811350071267E+00
 0.9985476079960E+00
 0.1023059510163E+01
 0.1054443120380E+01
 0.1092882726369E+01
 0.1139125884714E+01
 0.1194546941900E+01
 0.1261014231850E+01
 0.1340716780386E+01
 0.1435841990639E+01
 0.1547424820942E+01
 0.1680668685895E+01
 0.1133446793054E+01
 0.1071088022091E+01
 0.1021631862476E+01
 0.9852210925529E+00
 0.9603111186351E+00
 0.9458460932323E+00
 0.9409060014987E+00
 0.9447562224488E+00
 0.9567219236458E+00
 0.9761447288295E+00
 0.1002455956037E+01
 0.1035575006173E+01
 0.1075321616356E+01
 0.1122559685501E+01
 0.1178750128060E+01
 0.1245833499610E+01
 0.1326332099893E+01
 0.1422830013398E+01
 0.1537430458587E+01
 0.1666629406646E+01
 0.7988331664236E+01
 0.1729113840435E+01
 0.1273596650614E+01
 0.9993175108317E+00
 0.8228872181465E+00
 0.6785638523418E+00
 0.5601933912830E+00
 0.4600790063332E+00
 0.3724640642190E+00
 0.2946187230318E+00
 0.2257777147858E+00
 0.1605301599705E+00
 0.9800356146014E-01
 0.5740213713128E-01
 0.3695502898404E-01
 0.2612916690601E-01
 0.2099186979956E-01
 0.1622747392765E-01
 0.9219186452269E-02
 0.4415784444863E-03
 0.4788257718189E+01
 0.3062892251477E+01
 0.1476803237496E+01
 0.1123990994841E+01
 0.9048860204502E+00
 0.7506755092453E+00
 0.6249199726981E+00
 0.5199201263572E+00
 0.4294322621280E+00
 0.3500068281750E+00
 0.2789440146453E+00
 0.2131833746492E+00
 0.1550628787809E+00
 0.1116169530937E+00
 0.8513240644596E-01
 0.7048495108177E-01
 0.6204003839247E-01
 0.5534954164861E-01
 0.4756094616444E-01
 0.3882187047608E-01
 0.3895289234286E+01
 0.2854842408314E+01
 0.1896176215264E+01
 0.1263700435338E+01
 0.1000232256897E+01
 0.8236262300856E+00
 0.6901262813796E+00
 0.5800794129124E+00
 0.4865745323456E+00
 0.4051442079651E+00
 0.3327693058014E+00
 0.2670038765857E+00
 0.2094086316805E+00
 0.1648898219807E+00
 0.1347565693423E+00
 0.1161356846690E+00
 0.1046945700922E+00
 0.9599057036312E-01
 0.8725718993975E-01
 0.7914605868784E-01
 0.3386315930267E+01
 0.2690972579143E+01
 0.1998225683514E+01
 0.1443641068681E+01
 0.1101338788514E+01
 0.9011640300850E+00
 0.7558174882053E+00
 0.6404341458416E+00
 0.5436877510853E+00
 0.4602960779465E+00
 0.3868332398022E+00
 0.3206721528357E+00
 0.2630696282661E+00
 0.2174785668056E+00
 0.1847972972862E+00
 0.1629896911838E+00
 0.1486972803931E+00
 0.1380061499404E+00
 0.1283434652313E+00
 0.1197276281789E+00
 0.3060065608178E+01
 0.2547312360260E+01
 0.2022232603206E+01
 0.1550476232582E+01
 0.1207800539806E+01
 0.9803942828845E+00
 0.8227442817668E+00
 0.7008293339321E+00
 0.6006968270821E+00
 0.5153416650805E+00
 0.4407965926110E+00
 0.3741252323945E+00
 0.3162622640103E+00
 0.2697294850997E+00
 0.2350416359008E+00
 0.2106580516744E+00
 0.1938462375965E+00
 0.1812440293571E+00
 0.1703998609749E+00
 0.1610317956401E+00
 0.2825697714366E+01
 0.2429545870429E+01
 0.2011644961957E+01
 0.1613797703940E+01
 0.1292969776408E+01
 0.1058605648940E+01
 0.8895683660211E+00
 0.7611870332423E+00
 0.6574286416633E+00
 0.5701057485801E+00
 0.4944840511490E+00
 0.4272664766732E+00
 0.3690764024693E+00
 0.3217245822542E+00
 0.2854131860068E+00
 0.2589010053690E+00
 0.2398969509498E+00
 0.2254693470215E+00
 0.2133452567405E+00
 0.2030348508359E+00
 0.2646693959160E+01
 0.2330837493919E+01
 0.1987706328021E+01
 0.1649183882530E+01
 0.1357593624538E+01
 0.1128245573433E+01
 0.9544461717082E+00
 0.8207342261514E+00
 0.7136215661682E+00
 0.6243807901699E+00
 0.5477317614471E+00
 0.4800013558247E+00
 0.4214998006119E+00
 0.3734657817188E+00
 0.3358284796226E+00
 0.3075408624748E+00
 0.2866220438533E+00
 0.2704894972224E+00
 0.2570516684767E+00
 0.2457115642098E+00
 0.2504052334677E+01
 0.2246625567949E+01
 0.1958569928650E+01
 0.1667490772887E+01
 0.1405259642621E+01
 0.1187489496094E+01
 0.1014648104778E+01
 0.8783819622718E+00
 0.7687540486123E+00
 0.6778962076022E+00
 0.6003547647679E+00
 0.5322102095892E+00
 0.4734701872044E+00
 0.4249002963862E+00
 0.3861904914005E+00
 0.3564170482741E+00
 0.3338250985701E+00
 0.3161166442902E+00
 0.3013826750699E+00
 0.2889781308155E+00
 0.2387023060530E+01
 0.2173615844547E+01
 0.1927935736591E+01
 0.1675141767170E+01
 0.1440010302309E+01
 0.1236652436397E+01
 0.1068839324032E+01
 0.9328801835991E+00
 0.8221586990951E+00
 0.7302755358840E+00
 0.6521245107949E+00
 0.5837413731306E+00
 0.5248867807558E+00
 0.4759400018119E+00
 0.4363852657426E+00
 0.4053752303224E+00
 0.3813228187378E+00
 0.3621683934492E+00
 0.3461824453029E+00
 0.3327178336029E+00
 0.2288973790267E+01
 0.2109540496822E+01
 0.1897504550349E+01
 0.1676064093546E+01
 0.1465122722849E+01
 0.1276965746574E+01
 0.1116668134592E+01
 0.9833989622974E+00
 0.8731449692679E+00
 0.7810797258014E+00
 0.7027602206395E+00
 0.6344070984857E+00
 0.5756160859075E+00
 0.5264696315424E+00
 0.4862845067083E+00
 0.4542599530058E+00
 0.4289370484722E+00
 0.4084606377039E+00
 0.3912788804832E+00
 0.3767846359527E+00
 0.2205560074512E+01
 0.2052798305691E+01
 0.1868088399671E+01
 0.1672696321105E+01
 0.1483078503072E+01
 0.1309839531318E+01
 0.1158384392892E+01
 0.1029543670425E+01
 0.9211824122379E+00
 0.8298721291754E+00
 0.7519510225024E+00
 0.6839868951725E+00
 0.6254962829069E+00
 0.5763523678293E+00
 0.5357479293836E+00
 0.5029124298637E+00
 0.4764894364950E+00
 0.4548042717451E+00
 0.4364830941721E+00
 0.4210071467654E+00
 0.2133790463262E+01
 0.2002228886112E+01
 0.1840074685058E+01
 0.1666596330335E+01
 0.1495706008435E+01
 0.1336586026559E+01
 0.1194521196443E+01
 0.1071256642969E+01
 0.9659451844050E+00
 0.8762895135164E+00
 0.7993897850800E+00
 0.7322418724230E+00
 0.6743441244209E+00
 0.6254352118546E+00
 0.5846268352442E+00
 0.5511711558215E+00
 0.5237997940512E+00
 0.5010031648459E+00
 0.4815885387237E+00
 0.4651885856150E+00
 0.2071517935122E+01
 0.1956963733460E+01
 0.1813640717691E+01
 0.1658786648813E+01
 0.1504347215472E+01
 0.1358329254887E+01
 0.1225708544081E+01
 0.1108694633590E+01
 0.1007292910139E+01
 0.9200720391477E+00
 0.8448057370431E+00
 0.7789334915333E+00
 0.7219649657392E+00
 0.6735557630666E+00
 0.6327696757217E+00
 0.5988761971515E+00
 0.5706876915085E+00
 0.5468538295620E+00
 0.5263687234666E+00
 0.5091023084472E+00
 0.2017145051041E+01
 0.1916330636057E+01
 0.1788855039940E+01
 0.1649956118997E+01
 0.1509992277734E+01
 0.1375997087477E+01
 0.1252573908561E+01
 0.1142132238026E+01
 0.1045225752621E+01
 0.9610637358391E+00
 0.8879822225541E+00
 0.8238397570929E+00
 0.7681629048717E+00
 0.7205490565847E+00
 0.6800307993026E+00
 0.6458782811966E+00
 0.6169796973817E+00
 0.5921465003758E+00
 0.5705730466660E+00
 0.5524791238049E+00
 0.1969444585136E+01
 0.1879791426205E+01
 0.1765727277704E+01
 0.1640579481649E+01
 0.1513378952934E+01
 0.1390342617719E+01
 0.1275695872215E+01
 0.1171895875507E+01
 0.1079838556960E+01
 0.9991969395738E+00
 0.9287608513435E+00
 0.8667649886865E+00
 0.8127451575576E+00
 0.7662523399941E+00
 0.7262776736877E+00
 0.6920591187501E+00
 0.6625247055552E+00
 0.6366725220211E+00
 0.6139163872363E+00
 0.5949800377198E+00
 0.1927444891944E+01
 0.1846901228169E+01
 0.1744233323347E+01
 0.1630990636299E+01
 0.1515062889458E+01
 0.1401973147233E+01
 0.1295586576011E+01
 0.1198322948882E+01
 0.1111283038898E+01
 0.1034471499084E+01
 0.9670375745033E+00
 0.9075432441661E+00
 0.8555246657805E+00
 0.8104893971060E+00
 0.7714008456348E+00
 0.7373484672988E+00
 0.7072501020926E+00
 0.6802336052294E+00
 0.6560672524337E+00
 0.6361295213266E+00
 0.1890353738372E+01
 0.1817278753473E+01
 0.1724332278165E+01
 0.1621426902751E+01
 0.1515468203368E+01
 0.1411376448770E+01
 0.1312689686739E+01
 0.1221738506627E+01
 0.1139739778646E+01
 0.1066934547871E+01
 0.1002754445805E+01
 0.9460415063129E+00
 0.8963193784669E+00
 0.8530663489046E+00
 0.8152266892089E+00
 0.7818098061438E+00
 0.7512019289429E+00
 0.7227831649380E+00
 0.6965652261574E+00
 0.6751874121781E+00
 0.1857486188879E+01
 0.1790600331779E+01
 0.1705966500845E+01
 0.1612071368260E+01
 0.1514911896087E+01
 0.1418947043377E+01
 0.1327384613290E+01
 0.1242443630685E+01
 0.1165399127464E+01
 0.1096662326617E+01
 0.1035889905230E+01
 0.9821595857723E+00
 0.9349691920452E+00
 0.8937569086120E+00
 0.8575270777558E+00
 0.8251973390674E+00
 0.7951823567511E+00
 0.7643887780039E+00
 0.7350509116107E+00
 0.7105816296711E+00
 0.1828262089606E+01
 0.1766493869428E+01
 0.1689187646121E+01
 0.1603004645978E+01
 0.1513645599556E+01
 0.1425000438486E+01
 0.1339995499520E+01
 0.1260712736961E+01
 0.1188447073524E+01
 0.1123746604603E+01
 0.1066445391467E+01
 0.1015827568395E+01
 0.9713451494760E+00
 0.9323717086712E+00
 0.8979452891202E+00
 0.8671927676114E+00
 0.8383009187824E+00
 0.8095536047431E+00
 0.7696225273491E+00
 0.7392491086902E+00
 0.1801054009390E+01
 0.1745484969557E+01
 0.1673714734284E+01
 0.1594331812556E+01
 0.1511843650522E+01
 0.1429795177510E+01
 0.1350798471936E+01
 0.1276794249981E+01
 0.1209068503070E+01
 0.1148266704924E+01
 0.1094441604815E+01
 0.1046994793340E+01
 0.1005342957430E+01
 0.9687824077226E+00
 0.9362861361945E+00
 0.9070389429034E+00
 0.8801262898069E+00
 0.8528328837603E+00
 0.8252907309070E+00
 0.7371269110210E+00
 0.1097753060643E+01
 0.1032874932855E+01
 0.9837925768292E+00
 0.9478862346143E+00
 0.9239550681336E+00
 0.9108142861338E+00
 0.9075169879594E+00
 0.9132155720551E+00
 0.9271557447958E+00
 0.9486762766418E+00
 0.9773300212321E+00
 0.1012977205663E+01
 0.1056356282203E+01
 0.1108160265550E+01
 0.1169362841049E+01
 0.1241309071295E+01
 0.1325439620378E+01
 0.1423075287669E+01
 0.1535263583710E+01
 0.1651718794097E+01
 0.1052723238588E+01
 0.9873586562644E+00
 0.9382904376576E+00
 0.9034111089193E+00
 0.8810029306439E+00
 0.8698119943661E+00
 0.8687766719786E+00
 0.8770146820160E+00
 0.8937772322440E+00
 0.9184764938703E+00
 0.9507533863880E+00
 0.9906674418057E+00
 0.1038938092467E+01
 0.1096579650831E+01
 0.1164656304534E+01
 0.1244474172231E+01
 0.1337380097292E+01
 0.1444743075964E+01
 0.1566045333808E+01
 0.1712176547794E+01
 0.1005250378957E+01
 0.9394326459619E+00
 0.8908765568929E+00
 0.8571932537419E+00
 0.8365525338020E+00
 0.8274903095433E+00
 0.8288528470921E+00
 0.8397030746773E+00
 0.8593033024324E+00
 0.8871320442064E+00
 0.9229517958833E+00
 0.9668902229071E+00
 0.1019943544352E+01
 0.1083396289631E+01
 0.1158471870093E+01
 0.1246549901797E+01
 0.1349116603066E+01
 0.1467499462025E+01
 0.1604642535565E+01
 0.1763154172978E+01
 0.9551843291878E+00
 0.8892048393457E+00
 0.8414473539285E+00
 0.8092790106769E+00
 0.7906470074150E+00
 0.7839211259816E+00
 0.7878202370218E+00
 0.8013477908258E+00
 0.8237690839663E+00
 0.8546356703916E+00
 0.8938164250614E+00
 0.9415616930373E+00
 0.9991939178431E+00
 0.1068377961320E+01
 0.1150577838743E+01
 0.1247407748610E+01
 0.1360559035557E+01
 0.1491995356027E+01
 0.1643164885469E+01
 0.1814514923726E+01
 0.9024825371802E+00
 0.8366344369949E+00
 0.7900148446646E+00
 0.7596854242006E+00
 0.7433525453399E+00
 0.7391871108216E+00
 0.7457700143781E+00
 0.7620278492080E+00
 0.7872237993926E+00
 0.8209806900838E+00
 0.8632920157640E+00
 0.9145541796416E+00
 0.9764960359928E+00
 0.1051263644106E+01
 0.1140688091195E+01
 0.1246723215134E+01
 0.1371415732320E+01
 0.1516447513287E+01
 0.1682281184223E+01
 0.1867420042806E+01
 0.8470674432875E+00
 0.7816911310657E+00
 0.7365803393252E+00
 0.7084549816802E+00
 0.6947434670652E+00
 0.6933892714124E+00
 0.7028099263817E+00
 0.7218395150368E+00
 0.7497303480458E+00
 0.7861809824741E+00
 0.8313253446720E+00
 0.8857351982269E+00
 0.9516243910419E+00
 0.1031739711129E+01
 0.1128400547968E+01
 0.1244027947472E+01
 0.1380941510671E+01
 0.1540524207985E+01
 0.1722093564496E+01
 0.1922406276925E+01
 0.7888430980908E+00
 0.7243353536366E+00
 0.6811511559533E+00
 0.6556396490426E+00
 0.6449123340363E+00
 0.6466469279549E+00
 0.6590681135767E+00
 0.6808980710953E+00
 0.7113704586587E+00
 0.7502635848670E+00
 0.7978686333442E+00
 0.8549594540868E+00
 0.9243177760765E+00
 0.1009419280044E+01
 0.1113213506473E+01
 0.1238707970092E+01
 0.1388605943033E+01
 0.1563921151976E+01
 0.1762654974808E+01
 0.1979666876731E+01
 0.7276900798836E+00
 0.6645196599954E+00
 0.6237366542600E+00
 0.6013039846637E+00
 0.5939705665938E+00
 0.5991020066354E+00
 0.6146952318461E+00
 0.6393403150387E+00
 0.6722444988095E+00
 0.7132694118562E+00
 0.7628776526576E+00
 0.8220680845854E+00
 0.8942737491073E+00
 0.9838454549056E+00
 0.1094531080005E+01
 0.1230119924591E+01
 0.1393864549851E+01
 0.1586339213819E+01
 0.1803926643755E+01
 0.2039328627190E+01
 0.6634598463334E+00
 0.6021859918020E+00
 0.5643483953755E+00
 0.5455268819315E+00
 0.5420524982294E+00
 0.5509223220155E+00
 0.5698669023267E+00
 0.5973252153299E+00
 0.6324718621894E+00
 0.6752535397843E+00
 0.7263130675413E+00
 0.7868895635786E+00
 0.8611505784882E+00
 0.9544919568141E+00
 0.1071678668937E+01
 0.1217544044340E+01
 0.1396122041240E+01
 0.1607434076111E+01
 0.1845835247492E+01
 0.2101512083313E+01
 0.5959654010478E+00
 0.5372622715485E+00
 0.5030004901932E+00
 0.4884057680276E+00
 0.4893207339943E+00
 0.5023056407974E+00
 0.5247850670418E+00
 0.5550335159879E+00
 0.5921904891669E+00
 0.6362865251272E+00
 0.6881439263940E+00
 0.7492448241633E+00
 0.8245703734461E+00
 0.9207627778997E+00
 0.1043883085797E+01
 0.1200154121708E+01
 0.1394696115027E+01
 0.1626813597681E+01
 0.1888298271347E+01
 0.2166373739248E+01
 0.5249674143491E+00
 0.4696573850361E+00
 0.4397112564433E+00
 0.4300636495099E+00
 0.4359739341511E+00
 0.4534839708584E+00
 0.4796779231447E+00
 0.5126653677003E+00
 0.5515554732770E+00
 0.5964565312713E+00
 0.6483541377551E+00
 0.7089558637224E+00
 0.7841239574198E+00
 0.8819835166023E+00
 0.1010247525959E+01
 0.1176980971879E+01
 0.1388791774309E+01
 0.1644035970868E+01
 0.1931249032673E+01
 0.2234136870173E+01
 0.4501531637363E+00
 0.3992539937329E+00
 0.3745073178075E+00
 0.3706609681949E+00
 0.3822576840676E+00
 0.4047274767451E+00
 0.4347971273015E+00
 0.4704351840767E+00
 0.5107363413010E+00
 0.5558724076673E+00
 0.6069522109318E+00
 0.6658590938068E+00
 0.7393778976306E+00
 0.8373905324871E+00
 0.9697182414399E+00
 0.1146868657709E+01
 0.1377471086262E+01
 0.1658610042295E+01
 0.1974664633234E+01
 0.2305126380147E+01
 0.3711034724142E+00
 0.3258981736054E+00
 0.3074329227137E+00
 0.3104154877697E+00
 0.3284790886625E+00
 0.3563460935095E+00
 0.3904103630883E+00
 0.4285629005482E+00
 0.4699129606978E+00
 0.5146675717662E+00
 0.5639848214123E+00
 0.6198254621837E+00
 0.6898880536451E+00
 0.7861195088759E+00
 0.9210404377996E+00
 0.1108414244653E+01
 0.1359612715636E+01
 0.1669997924847E+01
 0.2018605445298E+01
 0.2379812894744E+01
 0.2872380555069E+00
 0.2493847033111E+00
 0.2385704410554E+00
 0.2496360366380E+00
 0.2750241171943E+00
 0.3086847062251E+00
 0.3467865011406E+00
 0.3872621612938E+00
 0.4292703889469E+00
 0.4730041339812E+00
 0.5195539207610E+00
 0.5707909399906E+00
 0.6352258943314E+00
 0.7271967189017E+00
 0.8626970334095E+00
 0.1059878631673E+01
 0.1333853572947E+01
 0.1677624471508E+01
 0.2063277554004E+01
 0.2458870590945E+01
 0.1977195523965E+00
 0.1694360310581E+00
 0.1680875185203E+00
 0.1887780390750E+00
 0.2223733217178E+00
 0.2621013742420E+00
 0.3041732351383E+00
 0.3467277368437E+00
 0.3889946908936E+00
 0.4310738792753E+00
 0.4738357712562E+00
 0.5188012836757E+00
 0.5750294068079E+00
 0.6595404586208E+00
 0.7928203159755E+00
 0.9990460203929E+00
 0.1298499666135E+01
 0.1680906562742E+01
 0.2109136862282E+01
 0.2543253328837E+01
 0.1012642429653E+00
 0.8568205818720E-01
 0.9634027570220E-01
 0.1285414410181E+00
 0.1710848828590E+00
 0.2169215718241E+00
 0.2627664372728E+00
 0.3071368850723E+00
 0.3492646833967E+00
 0.3890932705043E+00
 0.4270937117498E+00
 0.4640758299265E+00
 0.5090984263854E+00
 0.5819949099261E+00
 0.7090610701980E+00
 0.9229831170486E+00
 0.1251386082504E+01
 0.1679327569404E+01
 0.2157084681794E+01
 0.2634272152818E+01
-0.4248018024503E-02
-0.2378702623188E-02
 0.2418661764469E-01
 0.6995048643785E-01
 0.1217307693190E+00
 0.1733078494886E+00
 0.2227476237641E+00
 0.2686420394940E+00
 0.3102459491422E+00
 0.3472812236548E+00
 0.3796794259648E+00
 0.4070703095399E+00
 0.4375834343464E+00
 0.4934491042286E+00
 0.6083992461395E+00
 0.8275923653716E+00
 0.1189612726266E+01
 0.1672677970769E+01
 0.2208804485128E+01
 0.2733682254310E+01
-0.1230475548512E+00
-0.9497364269223E-01
-0.4657907891692E-01
 0.1469588602726E-01
 0.7418466126913E-01
 0.1314733297026E+00
 0.1842705097308E+00
 0.2313799002592E+00
 0.2720581414852E+00
 0.3058626998650E+00
 0.3319544870264E+00
 0.3485463808933E+00
 0.3612359275410E+00
 0.3932931658995E+00
 0.4868815681941E+00
 0.7066278051927E+00
 0.1109085904055E+01
 0.1661587986818E+01
 0.2267715165729E+01
 0.2843270161024E+01
-0.2636719291419E+00
-0.1930631633937E+00
-0.1080979418467E+00
-0.3903266146040E-01
 0.2880801188439E-01
 0.9155072561258E-01
 0.1474964774689E+00
 0.1954845583082E+00
 0.2347487257380E+00
 0.2649355181676E+00
 0.2845265349607E+00
 0.2890259716663E+00
 0.2820240406470E+00
 0.2823909541002E+00
 0.3399330583475E+00
 0.5491770611633E+00
 0.1002771385694E+01
 0.1650442908825E+01
 0.2339815503600E+01
 0.2964624357310E+01
-0.4849078335600E+00
-0.2531886625280E+00
-0.1711041645974E+00
-0.9014946558466E-01
-0.1434919872877E-01
 0.5380471550066E-01
 0.1124885164024E+00
 0.1610839133162E+00
 0.1985141767838E+00
 0.2240458080081E+00
 0.2378984661835E+00
 0.2309948141141E+00
 0.1979845277653E+00
 0.1693371655595E+00
 0.1654928961588E+00
 0.3308570281214E+00
 0.8559358136960E+00
 0.1654840867371E+01
 0.2443406374152E+01
 0.3082707874943E+01
 0.8147404292364E+00
 0.7479452705025E+00
 0.7047363152166E+00
 0.6631345749473E+00
 0.6221655074029E+00
 0.5808947570315E+00
 0.5391758945973E+00
 0.4970041401145E+00
 0.4544657576989E+00
 0.4116828257121E+00
 0.3687944206179E+00
 0.3259435744066E+00
 0.2832683591823E+00
 0.2408936534574E+00
 0.1989249665754E+00
 0.1574315268299E+00
 0.1164709195771E+00
 0.7585030519893E-01
 0.3606556221006E-01
-0.9538075974509E-02
 0.8373020944584E+00
 0.7870929536943E+00
 0.7380634897536E+00
 0.6944744616864E+00
 0.6518576919284E+00
 0.6093686957034E+00
 0.5664959267658E+00
 0.5231168812330E+00
 0.4792454826550E+00
 0.4349739909832E+00
 0.3904331815084E+00
 0.3457731248960E+00
 0.3011498866025E+00
 0.2567160199064E+00
 0.2126102726598E+00
 0.1689594394071E+00
 0.1258289777563E+00
 0.8342003203733E-01
 0.4101201554035E-01
 0.2454850382739E-02
 0.8594620835004E+00
 0.8158171949944E+00
 0.7709629601521E+00
 0.7267197263184E+00
 0.6834364244573E+00
 0.6400998723328E+00
 0.5963210072031E+00
 0.5519006531951E+00
 0.5068124193325E+00
 0.4611215059691E+00
 0.4149508944783E+00
 0.3684578541784E+00
 0.3218190322241E+00
 0.2752184900093E+00
 0.2288404869721E+00
 0.1828552794267E+00
 0.1374568202276E+00
 0.9272254760427E-01
 0.4944185137129E-01
 0.7416243874883E-02
 0.8836092324931E+00
 0.8440427414594E+00
 0.8021727192079E+00
 0.7595121306619E+00
 0.7164331954610E+00
 0.6728855248017E+00
 0.6285838678586E+00
 0.5833909680706E+00
 0.5372707912284E+00
 0.4902782112604E+00
 0.4425319727095E+00
 0.3941973651784E+00
 0.3454720515198E+00
 0.2965748022673E+00
 0.2477337592236E+00
 0.1991850668460E+00
 0.1511455045555E+00
 0.1039300761774E+00
 0.5768290442179E-01
 0.1262611131846E-01
 0.9094085910655E+00
 0.8729236158126E+00
 0.8337465000896E+00
 0.7929003156140E+00
 0.7508428400122E+00
 0.7076555757434E+00
 0.6632867057087E+00
 0.6176575411593E+00
 0.5707541220288E+00
 0.5226295064350E+00
 0.4734007207294E+00
 0.4232392361601E+00
 0.3723617906474E+00
 0.3210201238624E+00
 0.2694910426969E+00
 0.2180603195742E+00
 0.1670255625674E+00
 0.1166328056594E+00
 0.6709587553926E-01
 0.1851811065932E-01
 0.9366791598852E+00
 0.9029045981692E+00
 0.8662574103894E+00
 0.8274359675478E+00
 0.7867992181130E+00
 0.7444806236463E+00
 0.7004874101762E+00
 0.6547970649982E+00
 0.6074079539550E+00
 0.5583703404183E+00
 0.5077938248654E+00
 0.4558487802305E+00
 0.4027635045515E+00
 0.3488184987969E+00
 0.2943357238568E+00
 0.2396656443874E+00
 0.1851583759394E+00
 0.1311427816957E+00
 0.7785829719666E-01
 0.2542550982583E-01
 0.9652548877106E+00
 0.9340976062753E+00
 0.8999880222589E+00
 0.8633690124091E+00
 0.8244895815710E+00
 0.7834484623255E+00
 0.7402575158788E+00
 0.6948963622572E+00
 0.6473566798214E+00
 0.5976693657064E+00
 0.5459218115243E+00
 0.4922673367999E+00
 0.4369305869203E+00
 0.3802083192302E+00
 0.3224643739609E+00
 0.2641142926872E+00
 0.2056027573118E+00
 0.1473686995214E+00
 0.8982332483472E-01
 0.3318545568847E-01
 0.9949905110783E+00
 0.9664969994617E+00
 0.9350239398225E+00
 0.9008131253344E+00
 0.8639981421129E+00
 0.8246135362141E+00
 0.7826315897029E+00
 0.7379997046686E+00
 0.6906723941415E+00
 0.6406372874791E+00
 0.5879351327062E+00
 0.5326763956575E+00
 0.4750553234248E+00
 0.4153611221605E+00
 0.3539826396577E+00
 0.2914023871979E+00
 0.2281744510032E+00
 0.1648930421541E+00
 0.1021663433567E+00
 0.4071965986519E-01
 0.1025798242367E+01
 0.1000101157950E+01
 0.9714224631950E+00
 0.9398519591719E+00
 0.9054093012372E+00
 0.8680492566841E+00
 0.8276801651743E+00
 0.7841890031182E+00
 0.7374659096103E+00
 0.6874268261687E+00
 0.6340349188968E+00
 0.5773220412546E+00
 0.5174116485382E+00
 0.4545429449438E+00
 0.3890934194574E+00
 0.3215907916135E+00
 0.2527040133932E+00
 0.1832035741429E+00
 0.1139066401556E+00
 0.4575257152995E-01
 0.1057776623642E+01
 0.1035072890966E+01
 0.1009426582195E+01
 0.9807850624203E+00
 0.9490666466357E+00
 0.9141406940750E+00
 0.8758377104001E+00
 0.8339652658609E+00
 0.7883261936806E+00
 0.7387375929441E+00
 0.6850513224230E+00
 0.6271778327229E+00
 0.5651157197686E+00
 0.4989892851290E+00
 0.4290941115720E+00
 0.3559450422234E+00
 0.2802999516373E+00
 0.2031313004454E+00
 0.1255141289270E+00
 0.4833023873307E-01
 0.1090788689473E+01
 0.1071402602833E+01
 0.1049121605777E+01
 0.1023799949762E+01
 0.9952651171544E+00
 0.9633029806710E+00
 0.9276598961152E+00
 0.8880522859007E+00
 0.8441787732030E+00
 0.7957342353263E+00
 0.7424266206714E+00
 0.6839988556913E+00
 0.6202596959786E+00
 0.5511290612252E+00
 0.4767050255625E+00
 0.3973572897394E+00
 0.3138410493886E+00
 0.2273319001307E+00
 0.1393129680464E+00
 0.5119800765056E-01
 0.1124667460202E+01
 0.1108958314097E+01
 0.1090438295170E+01
 0.1068897089716E+01
 0.1044088814362E+01
 0.1015722568174E+01
 0.9834619126518E+00
 0.9469287165525E+00
 0.9057091275767E+00
 0.8593610022933E+00
 0.8074236537094E+00
 0.7494321991345E+00
 0.6849408736900E+00
 0.6135631447135E+00
 0.5350424129343E+00
 0.4493772078420E+00
 0.3570334545592E+00
 0.2592747983538E+00
 0.1581610206210E+00
 0.5627435452746E-01
 0.1159274731871E+01
 0.1147589027429E+01
 0.1133239811806E+01
 0.1115968050123E+01
 0.1095470862986E+01
 0.1071393215319E+01
 0.1043325069850E+01
 0.1010800358325E+01
 0.9732963899087E+00
 0.9302331868435E+00
 0.8809730122518E+00
 0.8248213995935E+00
 0.7610327306451E+00
 0.6888269255749E+00
 0.6074314978383E+00
 0.5161814763101E+00
 0.4147513511957E+00
 0.3037007587836E+00
 0.1857091331203E+00
 0.6502205736285E-01
 0.1194475711653E+01
 0.1187135048038E+01
 0.1177353371126E+01
 0.1164838090917E+01
 0.1149246130505E+01
 0.1130175564810E+01
 0.1107159996487E+01
 0.1079662974268E+01
 0.1047070991746E+01
 0.1008684151566E+01
 0.9637037577189E+00
 0.9112162684278E+00
 0.8501734367756E+00
 0.7793696468318E+00
 0.6974213054832E+00
 0.6027643027710E+00
 0.4937296117246E+00
 0.3688694543783E+00
 0.2285296011863E+00
 0.8049512746294E-01
 0.1230131752349E+01
 0.1227425861458E+01
 0.1222580875426E+01
 0.1215286404368E+01
 0.1205178008658E+01
 0.1191828182592E+01
 0.1174738425934E+01
 0.1153329944588E+01
 0.1126931362913E+01
 0.1094761892523E+01
 0.1055908028836E+01
 0.1009291027504E+01
 0.9536209679045E+00
 0.8873307042206E+00
 0.8084785375193E+00
 0.7146016783188E+00
 0.6024865935172E+00
 0.4678591140025E+00
 0.3048345930631E+00
 0.1108975628632E+00
 0.1266096073881E+01
 0.1268278214349E+01
 0.1268701058064E+01
 0.1267053265313E+01
 0.1262969193586E+01
 0.1256019892175E+01
 0.1245703935206E+01
 0.1231436179429E+01
 0.1212532691623E+01
 0.1188189899864E+01
 0.1157455262766E+01
 0.1119185284515E+01
 0.1071983981161E+01
 0.1014109699622E+01
 0.9433274799435E+00
 0.8566600294818E+00
 0.7499319238725E+00
 0.6168049168224E+00
 0.4465146350902E+00
 0.2134174693648E+00
 0.1302214898033E+01
 0.1309496828817E+01
 0.1315472301715E+01
 0.1319845454371E+01
 0.1322269784731E+01
 0.1322339722004E+01
 0.1319581788461E+01
 0.1313443751137E+01
 0.1303280255565E+01
 0.1288333151535E+01
 0.1267704028860E+01
 0.1240315131545E+01
 0.1204852348547E+01
 0.1159679202054E+01
 0.1102701240194E+01
 0.1031137964222E+01
 0.9411086988891E+00
 0.8267644414856E+00
 0.6782344410770E+00
 0.4730413459413E+00
 0.1338326010180E+01
 0.1350873944198E+01
 0.1362632982367E+01
 0.1373338314953E+01
 0.1382681595536E+01
 0.1390303913727E+01
 0.1395788672569E+01
 0.1398653343818E+01
 0.1398339033110E+01
 0.1394196783694E+01
 0.1385469287863E+01
 0.1371266158967E+01
 0.1350530031816E+01
 0.1321989440390E+01
 0.1284092088122E+01
 0.1234911316136E+01
 0.1172012966055E+01
 0.1092352254696E+01
 0.9922231218342E+00
 0.8739340724441E+00
 0.1374259695016E+01
 0.1392189171326E+01
 0.1409901043513E+01
 0.1427175335748E+01
 0.1443758433132E+01
 0.1459357755825E+01
 0.1473637413757E+01
 0.1486213928874E+01
 0.1496651568377E+01
 0.1504457120743E+01
 0.1509074218902E+01
 0.1509877765443E+01
 0.1506170008409E+01
 0.1497182060228E+01
 0.1482090877555E+01
 0.1460075948520E+01
 0.1430496387353E+01
 0.1393375555825E+01
 0.1351333008704E+01
 0.1314621133851E+01
 0.1409838918738E+01
 0.1433208837845E+01
 0.1456972089388E+01
 0.1480965626687E+01
 0.1505003424143E+01
 0.1528873703819E+01
 0.1552337783656E+01
 0.1575130056618E+01
 0.1596959260266E+01
 0.1617511609592E+01
 0.1636457003951E+01
 0.1653460603312E+01
 0.1668204093574E+01
 0.1680425122808E+01
 0.1689991669315E+01
 0.1697048438969E+01
 0.1702307574791E+01
 0.1707679480887E+01
 0.1717393412316E+01
 0.1737630903892E+01
 0.1444876424007E+01
 0.1473678991294E+01
 0.1503510557989E+01
 0.1534273567005E+01
 0.1565857706036E+01
 0.1598140340590E+01
 0.1630988175564E+01
 0.1664260871658E+01
 0.1697817122706E+01
 0.1731524181120E+01
 0.1765272537595E+01
 0.1798998631653E+01
 0.1832720466152E+01
 0.1866594346224E+01
 0.1901006873621E+01
 0.1936723816411E+01
 0.1975126845743E+01
 0.2018526285420E+01
 0.2070157004248E+01
 0.2133504700082E+01
 0.1479168957404E+01
 0.1513320320853E+01
 0.1549146658089E+01
 0.1586618304562E+01
 0.1625703810881E+01
 0.1666371764792E+01
 0.1708594431359E+01
 0.1752353781154E+01
 0.1797650551417E+01
 0.1844517347324E+01
 0.1893037367882E+01
 0.1943371160964E+01
 0.1995794922018E+01
 0.2050755195219E+01
 0.2108945419885E+01
 0.2171406768136E+01
 0.2239637054512E+01
 0.2315613257359E+01
 0.2401617947339E+01
 0.2499863477473E+01
 0.1512527540667E+01
 0.1551875422826E+01
 0.1593537600139E+01
 0.1637551255860E+01
 0.1683962370391E+01
 0.1732827501911E+01
 0.1784218205593E+01
 0.1838228061210E+01
 0.1894982760299E+01
 0.1954653979200E+01
 0.2017478078691E+01
 0.2083780952975E+01
 0.2154010437317E+01
 0.2228777050406E+01
 0.2308901233500E+01
 0.2395457796896E+01
 0.2489789203768E+01
 0.2593450068115E+01
 0.2708062404794E+01
 0.2835132284894E+01
 0.1544761263587E+01
 0.1589087982430E+01
 0.1636343668408E+01
 0.1686629611153E+01
 0.1740064418404E+01
 0.1796785417139E+01
 0.1856952752603E+01
 0.1920756120680E+01
 0.1988424199507E+01
 0.2060237072433E+01
 0.2136541991256E+01
 0.2217772666748E+01
 0.2304471661480E+01
 0.2397313947753E+01
 0.2497126587770E+01
 0.2604893873795E+01
 0.2721733580902E+01
 0.2848833665479E+01
 0.2987359381877E+01
 0.3138360450385E+01
 0.1575675521470E+01
 0.1624696146129E+01
 0.1677219584518E+01
 0.1733406179195E+01
 0.1793440176320E+01
 0.1857529958151E+01
 0.1925911079568E+01
 0.1998851712403E+01
 0.2076660242130E+01
 0.2159694852641E+01
 0.2248374852248E+01
 0.2343193111245E+01
 0.2444728173559E+01
 0.2553653209301E+01
 0.2670736919778E+01
 0.2796829961423E+01
 0.2932831504343E+01
 0.3079637537098E+01
 0.3238083018043E+01
 0.3408901746940E+01
 0.1605074331395E+01
 0.1658435652587E+01
 0.1715817771875E+01
 0.1777433542528E+01
 0.1843524408989E+01
 0.1914358890234E+01
 0.1990233929202E+01
 0.2071478460740E+01
 0.2158458540825E+01
 0.2251583527793E+01
 0.2351312689360E+01
 0.2458161235705E+01
 0.2572704143643E+01
 0.2695575289613E+01
 0.2827458718377E+01
 0.2969068935227E+01
 0.3121119065107E+01
 0.3284280416972E+01
 0.3459144015175E+01
 0.3646198384293E+01
 0.1632762629338E+01
 0.1690042577339E+01
 0.1751791947776E+01
 0.1818268468410E+01
 0.1889761819229E+01
 0.1966589520507E+01
 0.2049096282461E+01
 0.2137655435731E+01
 0.2232671447398E+01
 0.2334582775494E+01
 0.2443864293627E+01
 0.2561028289373E+01
 0.2686622714676E+01
 0.2821225110283E+01
 0.2965430647623E+01
 0.3119833426721E+01
 0.3285000921819E+01
 0.3461441902929E+01
 0.3649572089025E+01
 0.3849688861575E+01
 0.1658548710064E+01
 0.1719257749275E+01
 0.1784803128900E+01
 0.1855479847775E+01
 0.1931616918637E+01
 0.2013570308922E+01
 0.2101720108179E+01
 0.2196469855695E+01
 0.2298246642370E+01
 0.2407501128373E+01
 0.2524706725397E+01
 0.2650357158490E+01
 0.2784961606292E+01
 0.2929036730819E+01
 0.3083095346369E+01
 0.3247632053552E+01
 0.3423107271824E+01
 0.3609927561787E+01
 0.3808409313179E+01
 0.4018726813295E+01
 0.1682247897794E+01
 0.1745832617589E+01
 0.1814529140237E+01
 0.1888661979412E+01
 0.1968591249454E+01
 0.2054701948081E+01
 0.2147398934453E+01
 0.2247104326545E+01
 0.2354255625198E+01
 0.2469303604590E+01
 0.2592709278258E+01
 0.2724939431085E+01
 0.2866460396691E+01
 0.3017730106277E+01
 0.3179188910762E+01
 0.3351250611448E+01
 0.3534295343641E+01
 0.3728670927692E+01
 0.3934688877808E+01
 0.4152534144280E+01
 0.1703686999857E+01
 0.1769541011650E+01
 0.1840683943453E+01
 0.1917462081245E+01
 0.2000259485987E+01
 0.2089482531656E+01
 0.2185552345869E+01
 0.2288900610019E+01
 0.2399966342523E+01
 0.2519192464676E+01
 0.2647021523791E+01
 0.2783890210486E+01
 0.2930222746091E+01
 0.3086423578991E+01
 0.3252870326369E+01
 0.3429908333442E+01
 0.3617850386215E+01
 0.3816984289425E+01
 0.4027638157938E+01
 0.4250256313720E+01
 0.1722712537702E+01
 0.1790203178641E+01
 0.1863058126731E+01
 0.1941637604813E+01
 0.2026345172443E+01
 0.2117603375064E+01
 0.2215843432080E+01
 0.2321500075572E+01
 0.2435007783278E+01
 0.2556797072967E+01
 0.2687289797550E+01
 0.2826893347158E+01
 0.2975993940103E+01
 0.3134949731673E+01
 0.3304084679531E+01
 0.3483684288322E+01
 0.3673993974383E+01
 0.3875226606809E+01
 0.4087570203124E+01
 0.4311561651160E+01
 0.1739207129922E+01
 0.1807731446794E+01
 0.1881589801576E+01
 0.1961154884347E+01
 0.2046850060283E+01
 0.2139112296920E+01
 0.2238379409346E+01
 0.2345084646269E+01
 0.2459654270809E+01
 0.2582504493212E+01
 0.2714037502533E+01
 0.2854635695616E+01
 0.3004654868665E+01
 0.3164417171465E+01
 0.3334204714869E+01
 0.3514254475400E+01
 0.3704753446168E+01
 0.3905828222776E+01
 0.4117517504410E+01
 0.4339500565654E+01
 0.1753106128299E+01
 0.1822141318581E+01
 0.1896369031360E+01
 0.1976184934738E+01
 0.2062041181078E+01
 0.2154392778576E+01
 0.2253682146660E+01
 0.2360338530409E+01
 0.2474777188005E+01
 0.2597400315989E+01
 0.2728594110319E+01
 0.2868723741896E+01
 0.3018126160221E+01
 0.3177102316996E+01
 0.3345910320476E+01
 0.3524759391547E+01
 0.3713805092614E+01
 0.3913135581102E+01
 0.4122735422891E+01
 0.4342144744322E+01
 0.1764322989755E+01
 0.1833368199113E+01
 0.1907321073175E+01
 0.1986640805764E+01
 0.2071831934079E+01
 0.2163370806815E+01
 0.2261706447830E+01
 0.2367257531222E+01
 0.2480426224754E+01
 0.2601600813027E+01
 0.2731157357437E+01
 0.2869454198233E+01
 0.3016823888943E+01
 0.3173564209412E+01
 0.3339929191939E+01
 0.3516124214407E+01
 0.3702301267328E+01
 0.3898566855099E+01
 0.4104969914028E+01
 0.4321815990549E+01
 0.1772767927298E+01
 0.1841245184263E+01
 0.1914156955373E+01
 0.1992114016133E+01
 0.2075688656771E+01
 0.2165404623977E+01
 0.2261697717558E+01
 0.2364971788583E+01
 0.2475603625699E+01
 0.2593967833030E+01
 0.2720435711504E+01
 0.2855369835607E+01
 0.2999113667393E+01
 0.3151979260296E+01
 0.3314236990789E+01
 0.3486103003316E+01
 0.3667744450407E+01
 0.3859279354194E+01
 0.4060867620005E+01
 0.4272797729077E+01
 0.1778423491434E+01
 0.1845649652014E+01
 0.1916628904577E+01
 0.1992178306584E+01
 0.2073088385208E+01
 0.2159858885496E+01
 0.2252935917459E+01
 0.2352652841686E+01
 0.2459354969245E+01
 0.2573399536218E+01
 0.2695159195100E+01
 0.2825012034811E+01
 0.2963328474700E+01
 0.3110455531925E+01
 0.3266697388515E+01
 0.3432308757703E+01
 0.3607460225845E+01
 0.3792285080905E+01
 0.3986844768211E+01
 0.4191198052797E+01
 0.1781367226151E+01
 0.1846677172080E+01
 0.1914462883269E+01
 0.1986527918878E+01
 0.2063547763050E+01
 0.2146289937316E+01
 0.2234941868735E+01
 0.2329773252981E+01
 0.2431076153404E+01
 0.2539193385560E+01
 0.2654504004472E+01
 0.2777412862960E+01
 0.2908335519650E+01
 0.3047677440638E+01
 0.3195811124490E+01
 0.3353035437864E+01
 0.3519610376801E+01
 0.3695571548959E+01
 0.3880947666260E+01
 0.4075463362563E+01
 0.1782341980223E+01
 0.1844196073840E+01
 0.1907819089464E+01
 0.1974404072180E+01
 0.2046775807636E+01
 0.2124436274043E+01
 0.2207504727979E+01
 0.2296112561217E+01
 0.2390517242583E+01
 0.2491046952586E+01
 0.2598091477860E+01
 0.2712090274781E+01
 0.2833520618381E+01
 0.2962878875753E+01
 0.3100642953058E+01
 0.3247239088054E+01
 0.3402910410202E+01
 0.3568075320132E+01
 0.3742196559672E+01
 0.3925185098222E+01
 0.1781629831377E+01
 0.1841345961211E+01
 0.1893672492703E+01
 0.1955636979770E+01
 0.2022557733558E+01
 0.2094309029051E+01
 0.2170660388662E+01
 0.2251729466124E+01
 0.2337739930585E+01
 0.2429009572181E+01
 0.2525933258678E+01
 0.2628982702900E+01
 0.2738705643554E+01
 0.2855716173028E+01
 0.2980669935722E+01
 0.3114174572043E+01
 0.3256754223879E+01
 0.3408230430889E+01
 0.3570438892768E+01
 0.3740021970833E+01
 0.1803883784833E+01
 0.1821081889690E+01
 0.1873090612755E+01
 0.1929920514976E+01
 0.1991227220934E+01
 0.2056150757250E+01
 0.2124683166270E+01
 0.2196923894048E+01
 0.2273083151995E+01
 0.2353450275023E+01
 0.2438403185614E+01
 0.2528423036706E+01
 0.2624113175808E+01
 0.2726216417269E+01
 0.2835612395793E+01
 0.2953289445221E+01
 0.3080077412716E+01
 0.3216646514460E+01
 0.3359777745084E+01
 0.3521414883794E+01
</DataArray>
<DataArray type="Float64" Name="S_Oct" NumberOfComponents="1" ComponentName0="S_Oct" format="ascii">
 0.7244617543023E+01
 0.6472700745360E+01
 0.5866112243656E+01
 0.5630187991674E+01
 0.5448857147395E+01
 0.5315802525431E+01
 0.5204866617854E+01
 0.5108285816325E+01
 0.5020668056763E+01
 0.4939310855351E+01
 0.4862728478763E+01
 0.4790334453612E+01
 0.4722238354549E+01
 0.4659304650077E+01
 0.4603664877143E+01
 0.4560126011794E+01
 0.4529096849523E+01
 0.4497529342038E+01
 0.4452677643537E+01
 0.4394184913792E+01
 0.4327448731720E+01
 0.4258269774433E+01
 0.4191251509154E+01
 0.4129789772464E+01
 0.4076344202835E+01
 0.4032434155740E+01
 0.3998212390377E+01
 0.3974588407521E+01
 0.3965544655324E+01
 0.3975691622098E+01
 0.4008466775236E+01
 0.4066723170832E+01
 0.4152566981444E+01
 0.4266470055789E+01
 0.4407752367028E+01
 0.4580364232825E+01
 0.4836625088747E+01
 0.5210287539438E+01
 0.6001195988134E+01
 0.6318403098403E+01
 0.1090207485722E+02
 0.6157322379880E+01
 0.6330068868281E+01
 0.5859450089059E+01
 0.5570192090078E+01
 0.5387320434246E+01
 0.5244030970035E+01
 0.5127971926437E+01
 0.5027565510637E+01
 0.4937609689078E+01
 0.4854881899644E+01
 0.4777662381123E+01
 0.4705141280350E+01
 0.4637220023121E+01
 0.4574515286403E+01
 0.4518303771101E+01
 0.4469347137107E+01
 0.4425525158140E+01
 0.4381350524755E+01
 0.4331412111148E+01
 0.4273904429127E+01
 0.4210648194914E+01
 0.4145008265154E+01
 0.4080288401345E+01
 0.4019182892736E+01
 0.3963662733603E+01
 0.3915006527345E+01
 0.3874150041545E+01
 0.3842371744675E+01
 0.3821637955512E+01
 0.3814168159286E+01
 0.3821713264702E+01
 0.3845097398835E+01
 0.3883945222254E+01
 0.3936818649296E+01
 0.4002771091106E+01
 0.4087902689175E+01
 0.4195172129228E+01
 0.4341645430697E+01
 0.4413260107015E+01
 0.3775359637384E+01
 0.7445805728477E+01
 0.5517926962621E+01
 0.5927088981724E+01
 0.5751685548094E+01
 0.5486881853583E+01
 0.5305569594187E+01
 0.5162868898336E+01
 0.5044751195332E+01
 0.4942850559391E+01
 0.4851731767993E+01
 0.4768315068575E+01
 0.4690767130102E+01
 0.4618150389902E+01
 0.4550170646854E+01
 0.4487051185683E+01
 0.4428952076876E+01
 0.4374812044353E+01
 0.4322445754413E+01
 0.4269841127657E+01
 0.4215191165877E+01
 0.4157008474215E+01
 0.4095308622587E+01
 0.4031631261539E+01
 0.3968069525758E+01
 0.3906574342043E+01
 0.3848658410376E+01
 0.3795452829652E+01
 0.3748030122003E+01
 0.3707446855659E+01
 0.3674521686869E+01
 0.3649850402114E+01
 0.3633625728799E+01
 0.3625101262373E+01
 0.3622320968022E+01
 0.3622499013965E+01
 0.3623887446765E+01
 0.3624426925435E+01
 0.3611007126000E+01
 0.3547653823512E+01
 0.3230089128262E+01
 0.2833090791444E+01
 0.6361447379098E+01
 0.5082498655258E+01
 0.5530437133016E+01
 0.5550944249460E+01
 0.5371869901984E+01
 0.5206279330587E+01
 0.5070669432444E+01
 0.4954874941541E+01
 0.4853638284775E+01
 0.4762713034783E+01
 0.4679357284839E+01
 0.4601866509870E+01
 0.4529259157686E+01
 0.4461073038187E+01
 0.4397095323315E+01
 0.4336681294634E+01
 0.4278139761831E+01
 0.4219778191459E+01
 0.4161289897609E+01
 0.4102647469818E+01
 0.4042948823909E+01
 0.3981461647507E+01
 0.3918506217495E+01
 0.3855157536169E+01
 0.3792664472887E+01
 0.3732109679722E+01
 0.3674414250896E+01
 0.3620488343512E+01
 0.3570999929099E+01
 0.3525989542106E+01
 0.3484956715359E+01
 0.3446902961107E+01
 0.3409969112224E+01
 0.3371237694775E+01
 0.3327204083407E+01
 0.3274396862316E+01
 0.3205804541625E+01
 0.3100788076155E+01
 0.2902541509128E+01
 0.2531171483268E+01
 0.2612774315062E+01
 0.5829177819383E+01
 0.4756321933072E+01
 0.5182614872611E+01
 0.5312771116482E+01
 0.5223710534482E+01
 0.5090646033825E+01
 0.4967672377398E+01
 0.4858047392535E+01
 0.4759726529148E+01
 0.4670334585562E+01
 0.4587844591482E+01
 0.4510846274019E+01
 0.4438420183873E+01
 0.4369979415328E+01
 0.4304961305648E+01
 0.4242277147422E+01
 0.4180166366629E+01
 0.4117470178593E+01
 0.4054733970484E+01
 0.3992789117617E+01
 0.3931221091103E+01
 0.3869065978464E+01
 0.3805904283575E+01
 0.3742023092329E+01
 0.3678056431856E+01
 0.3614678264943E+01
 0.3552538693739E+01
 0.3492262378788E+01
 0.3434108894436E+01
 0.3377558023603E+01
 0.3321384112471E+01
 0.3263792574665E+01
 0.3202245791924E+01
 0.3133403438131E+01
 0.3053480121948E+01
 0.2958093761516E+01
 0.2838996200518E+01
 0.2675592782230E+01
 0.2432639872814E+01
 0.2172750383040E+01
 0.2660895602220E+01
 0.5477711762197E+01
 0.4495181099519E+01
 0.4882895740823E+01
 0.5068533868274E+01
 0.5052999425373E+01
 0.4959793678146E+01
 0.4854807108574E+01
 0.4754405261623E+01
 0.4661084076196E+01
 0.4574515584097E+01
 0.4493693605829E+01
 0.4417654822720E+01
 0.4345637060398E+01
 0.4277000355996E+01
 0.4210969308798E+01
 0.4146286125834E+01
 0.4081360225980E+01
 0.4015476956723E+01
 0.3949596571570E+01
 0.3884933592890E+01
 0.3821408073811E+01
 0.3758049358808E+01
 0.3694026096800E+01
 0.3629056679220E+01
 0.3563265708532E+01
 0.3496947574223E+01
 0.3430453835229E+01
 0.3364091221605E+01
 0.3297751130177E+01
 0.3230514560070E+01
 0.3160711166930E+01
 0.3086103164673E+01
 0.3003874327521E+01
 0.2910709468979E+01
 0.2803079080332E+01
 0.2677021309782E+01
 0.2526038836454E+01
 0.2337979397081E+01
 0.2116078963549E+01
 0.2023993403501E+01
 0.2774491731336E+01
 0.5207029327779E+01
 0.4275800345385E+01
 0.4622860986359E+01
 0.4832440091874E+01
 0.4870743348010E+01
 0.4816845291501E+01
 0.4733208769580E+01
 0.4644460061085E+01
 0.4557863165819E+01
 0.4475294205537E+01
 0.4396902723687E+01
 0.4322298274203E+01
 0.4250959727262E+01
 0.4182278484236E+01
 0.4115403351958E+01
 0.4049088820054E+01
 0.3982000361047E+01
 0.3913762310827E+01
 0.3845518647771E+01
 0.3778619293754E+01
 0.3713189788056E+01
 0.3648336496931E+01
 0.3583023029023E+01
 0.3516581371398E+01
 0.3448733735846E+01
 0.3379436410768E+01
 0.3308747110004E+01
 0.3236670563231E+01
 0.3162796140565E+01
 0.3085942697372E+01
 0.3004217543100E+01
 0.2915236802017E+01
 0.2816249422231E+01
 0.2704352456377E+01
 0.2576847671103E+01
 0.2431382669807E+01
 0.2265652506312E+01
 0.2080858358943E+01
 0.1917652637756E+01
 0.1992569107076E+01
 0.2881814061719E+01
 0.4982873535875E+01
 0.4084840328450E+01
 0.4394155975512E+01
 0.4609886492886E+01
 0.4685022044584E+01
 0.4665715324596E+01
 0.4604403024093E+01
 0.4528933643449E+01
 0.4450390064382E+01
 0.4372814157779E+01
 0.4297545044227E+01
 0.4224835709563E+01
 0.4154475937735E+01
 0.4085969730063E+01
 0.4018504150867E+01
 0.3950956055438E+01
 0.3882263368310E+01
 0.3812300715512E+01
 0.3742272792932E+01
 0.3673537548391E+01
 0.3606333546202E+01
 0.3539864708343E+01
 0.3473013495591E+01
 0.3404865384482E+01
 0.3334839120702E+01
 0.3262604386827E+01
 0.3187953424508E+01
 0.3110630729714E+01
 0.3029999893362E+01
 0.2944737794405E+01
 0.2852909471473E+01
 0.2752226049543E+01
 0.2640282561242E+01
 0.2514916241249E+01
 0.2374752856883E+01
 0.2219939794764E+01
 0.2053881546723E+01
 0.1892149939576E+01
 0.1804179672118E+01
 0.2019370266348E+01
 0.2963654917641E+01
 0.4790081627641E+01
 0.3914144739664E+01
 0.4189990716472E+01
 0.4402119752156E+01
 0.4500978141290E+01
 0.4510057949233E+01
 0.4470165060724E+01
 0.4408701915024E+01
 0.4339117816126E+01
 0.4267311783559E+01
 0.4195758408562E+01
 0.4125372499603E+01
 0.4056302595485E+01
 0.3988233169760E+01
 0.3920474460407E+01
 0.3852087280233E+01
 0.3782269161025E+01
 0.3711078157872E+01
 0.3639715666526E+01
 0.3569485310446E+01
 0.3500677902297E+01
 0.3432590116329E+01
 0.3364094656733E+01
 0.3294132874299E+01
 0.3221906323989E+01
 0.3146854856888E+01
 0.3068548450326E+01
 0.2986525981985E+01
 0.2900003107172E+01
 0.2807620418038E+01
 0.2707546249568E+01
 0.2597775470491E+01
 0.2476467226884E+01
 0.2342452066473E+01
 0.2196032171292E+01
 0.2040386804962E+01
 0.1885129392598E+01
 0.1758681226792E+01
 0.1748648568193E+01
 0.2069955485660E+01
 0.3018815973363E+01
 0.4620349763068E+01
 0.3758460028032E+01
 0.4005145442849E+01
 0.4208559179118E+01
 0.4321572575341E+01
 0.4352821470947E+01
 0.4332278685811E+01
 0.4284733746848E+01
 0.4224585413737E+01
 0.4159095838188E+01
 0.4091734745690E+01
 0.4024052317687E+01
 0.3956578325345E+01
 0.3889226474072E+01
 0.3821487411449E+01
 0.3752636013361E+01
 0.3682106222814E+01
 0.3610091852857E+01
 0.3537759912760E+01
 0.3466332904495E+01
 0.3396116716303E+01
 0.3326488181524E+01
 0.3256350044321E+01
 0.3184572493198E+01
 0.3110212427401E+01
 0.3032537371061E+01
 0.2950945789606E+01
 0.2864830379449E+01
 0.2773333254307E+01
 0.2675149873120E+01
 0.2568667091535E+01
 0.2452304743615E+01
 0.2324942693147E+01
 0.2186573784729E+01
 0.2039373214045E+01
 0.1889732749104E+01
 0.1753173041287E+01
 0.1668202698436E+01
 0.1730533988326E+01
 0.2125962974650E+01
 0.3051237277075E+01
 0.4468361761758E+01
 0.3614252870616E+01
 0.3835667418119E+01
 0.4027913271046E+01
 0.4148317500073E+01
 0.4196180397212E+01
 0.4192357411098E+01
 0.4158016136413E+01
 0.4107381423998E+01
 0.4048525833033E+01
 0.3985708000789E+01
 0.3921048926402E+01
 0.3855457374931E+01
 0.3789104295652E+01
 0.3721694341883E+01
 0.3652726511092E+01
 0.3581845939657E+01
 0.3509349296839E+01
 0.3436356632363E+01
 0.3364001944962E+01
 0.3292585469505E+01
 0.3221551381361E+01
 0.3149854023650E+01
 0.3076343793636E+01
 0.2999992530886E+01
 0.2919950279238E+01
 0.2835496830926E+01
 0.2745937778800E+01
 0.2650409504402E+01
 0.2547738551701E+01
 0.2436618021778E+01
 0.2315991290878E+01
 0.2185557654994E+01
 0.2046558116715E+01
 0.1903091696137E+01
 0.1764655603321E+01
 0.1651872394358E+01
 0.1610147411796E+01
 0.1735045468617E+01
 0.2178408015589E+01
 0.3065590636181E+01
 0.4330384299996E+01
 0.3479058204497E+01
 0.3678561980635E+01
 0.3858701406656E+01
 0.3981820557324E+01
 0.4041631566422E+01
 0.4051755560977E+01
 0.4029487450804E+01
 0.3988109498618E+01
 0.3935991442962E+01
 0.3877941592488E+01
 0.3816558095040E+01
 0.3753104623026E+01
 0.3688017895514E+01
 0.3621231057871E+01
 0.3552464574697E+01
 0.3481550806201E+01
 0.3408866983489E+01
 0.3335483893460E+01
 0.3262450024203E+01
 0.3190050215695E+01
 0.3117785756877E+01
 0.3044674053768E+01
 0.2969581839046E+01
 0.2891444156526E+01
 0.2809343622704E+01
 0.2722492475100E+01
 0.2630164552407E+01
 0.2531549816771E+01
 0.2425667063779E+01
 0.2311578357537E+01
 0.2188811498319E+01
 0.2057932023947E+01
 0.1921440921961E+01
 0.1785292023858E+01
 0.1661780144608E+01
 0.1575562627735E+01
 0.1575794596540E+01
 0.1752018928354E+01
 0.2223384547573E+01
 0.3065955116937E+01
 0.4203655719438E+01
 0.3351101247433E+01
 0.3531543861398E+01
 0.3699485888647E+01
 0.3822151308632E+01
 0.3890136992801E+01
 0.3911547066583E+01
 0.3899991387480E+01
 0.3867358024760E+01
 0.3821893711384E+01
 0.3768716375328E+01
 0.3710789925365E+01
 0.3649691372199E+01
 0.3586115105296E+01
 0.3520222402387E+01
 0.3451944452267E+01
 0.3381279062564E+01
 0.3308668981232E+01
 0.3235138871095E+01
 0.3161659923630E+01
 0.3088498919123E+01
 0.3015207259984E+01
 0.2940871554752E+01
 0.2864400456041E+01
 0.2784730923412E+01
 0.2700922280671E+01
 0.2612166144482E+01
 0.2517754106494E+01
 0.2416979491595E+01
 0.2309099807212E+01
 0.2193586343750E+01
 0.2070579717406E+01
 0.1941514541375E+01
 0.1810103554192E+01
 0.1683999176936E+01
 0.1577865071957E+01
 0.1519226732431E+01
 0.1558183497414E+01
 0.1774753541279E+01
 0.2259599963242E+01
 0.3055562469663E+01
 0.4086069393895E+01
 0.3229068826945E+01
 0.3392851109478E+01
 0.3548964394657E+01
 0.3669076057390E+01
 0.3742261495626E+01
 0.3772543499778E+01
 0.3770252796277E+01
 0.3745676587896E+01
 0.3706628732077E+01
 0.3658319703117E+01
 0.3603961822261E+01
 0.3545391686096E+01
 0.3483540206790E+01
 0.3418785344695E+01
 0.3351253127504E+01
 0.3281087192645E+01
 0.3208785487773E+01
 0.3135332264241E+01
 0.3061631884812E+01
 0.2987934761960E+01
 0.2913838359202E+01
 0.2838501978910E+01
 0.2760894529939E+01
 0.2679985690059E+01
 0.2594849293073E+01
 0.2504697644850E+01
 0.2408882555667E+01
 0.2306840600581E+01
 0.2198100558486E+01
 0.2082563510595E+01
 0.1960984247598E+01
 0.1835634307622E+01
 0.1711345677946E+01
 0.1597257226738E+01
 0.1509911726124E+01
 0.1478543092057E+01
 0.1551916867642E+01
 0.1798993062847E+01
 0.2287041439996E+01
 0.3036878923314E+01
 0.3975984120303E+01
 0.3111965837481E+01
 0.3261109432214E+01
 0.3405996541624E+01
 0.3522203629260E+01
 0.3598287054024E+01
 0.3635330070408E+01
 0.3640870855459E+01
 0.3623560257269E+01
 0.3590574451042E+01
 0.3547035957036E+01
 0.3496292266532E+01
 0.3440379145008E+01
 0.3380433582352E+01
 0.3317030892559E+01
 0.3250472856753E+01
 0.3181031118416E+01
 0.3109251426800E+01
 0.3036084200463E+01
 0.2962377984408E+01
 0.2888371011930E+01
 0.2813705096385E+01
 0.2737614491659E+01
 0.2659141670221E+01
 0.2577313313704E+01
 0.2491249279207E+01
 0.2400217557437E+01
 0.2303665081201E+01
 0.2201201822350E+01
 0.2092647684223E+01
 0.1978337350992E+01
 0.1859619644825E+01
 0.1739545021100E+01
 0.1623943015431E+01
 0.1523196208834E+01
 0.1455216574827E+01
 0.1449868594424E+01
 0.1552916225801E+01
 0.1822134473420E+01
 0.2306277885709E+01
 0.3011764782872E+01
 0.3872099302544E+01
 0.2999022164275E+01
 0.3135233987239E+01
 0.3269600739936E+01
 0.3381073471557E+01
 0.3458301053945E+01
 0.3500306574685E+01
 0.3512323838878E+01
 0.3501441128370E+01
 0.3474080906381E+01
 0.3435138759039E+01
 0.3387995480048E+01
 0.3334823972422E+01
 0.3276931132532E+01
 0.3215065120878E+01
 0.3149682535079E+01
 0.3081166594404E+01
 0.3010105122869E+01
 0.2937421149282E+01
 0.2863917981818E+01
 0.2789827103885E+01
 0.2714834647237E+01
 0.2638251520191E+01
 0.2559203489759E+01
 0.2476793138164E+01
 0.2390211883388E+01
 0.2298811917425E+01
 0.2202162617013E+01
 0.2100068302431E+01
 0.1992648629001E+01
 0.1880661984197E+01
 0.1766014927629E+01
 0.1652461425045E+01
 0.1546690359176E+01
 0.1460072895185E+01
 0.1411387940940E+01
 0.1430189036564E+01
 0.1558168751914E+01
 0.1842658079548E+01
 0.2318103060622E+01
 0.2981628665810E+01
 0.3773368003187E+01
 0.2889630568909E+01
 0.3014358158685E+01
 0.3138938965260E+01
 0.3245207313314E+01
 0.3322261453519E+01
 0.3367726406042E+01
 0.3384980487780E+01
 0.3379685706114E+01
 0.3357463817837E+01
 0.3322884955723E+01
 0.3279277024568E+01
 0.3228890527609E+01
 0.3173163522410E+01
 0.3112989570128E+01
 0.3048958288332E+01
 0.2981549116616E+01
 0.2911387073963E+01
 0.2839373544229E+01
 0.2766276217546E+01
 0.2692325660119E+01
 0.2617253369406E+01
 0.2540448323204E+01
 0.2461126668106E+01
 0.2378481290310E+01
 0.2291795191914E+01
 0.2200526994118E+01
 0.2104388593182E+01
 0.2003391241268E+01
 0.1897953406860E+01
 0.1789236572082E+01
 0.1679657501921E+01
 0.1573588092348E+01
 0.1478431508235E+01
 0.1406292183973E+01
 0.1376341587609E+01
 0.1417052917900E+01
 0.1565493943361E+01
 0.1859735041803E+01
 0.2323355380897E+01
 0.2947556620204E+01
 0.3678934201669E+01
 0.2783304158194E+01
 0.2897781577035E+01
 0.3013297864521E+01
 0.3114138206806E+01
 0.3190043486639E+01
 0.3237730578652E+01
 0.3259114352372E+01
 0.3258596490157E+01
 0.3241001126529E+01
 0.3210510325087E+01
 0.3170330334093E+01
 0.3122735175523E+01
 0.3069255339204E+01
 0.3010901220737E+01
 0.2948373565897E+01
 0.2882233547126E+01
 0.2813138831856E+01
 0.2741973920138E+01
 0.2669479275991E+01
 0.2595890236860E+01
 0.2520985291391E+01
 0.2444232664456E+01
 0.2364943910452E+01
 0.2282412839078E+01
 0.2196029076816E+01
 0.2105374033233E+01
 0.2010315533675E+01
 0.1911076987231E+01
 0.1808366900934E+01
 0.1703721367850E+01
 0.1600012859573E+01
 0.1502141165744E+01
 0.1418078479170E+01
 0.1360415136799E+01
 0.1348284504639E+01
 0.1408497237605E+01
 0.1573346735258E+01
 0.1872964974359E+01
 0.2322821575146E+01
 0.2910417724092E+01
 0.3588083776131E+01
 0.2679646582831E+01
 0.2784931854593E+01
 0.2892070037498E+01
 0.2987425747500E+01
 0.3061472371736E+01
 0.3110375876634E+01
 0.3134918739345E+01
 0.3138416267956E+01
 0.3124931922521E+01
 0.3098226849987E+01
 0.3061334141845E+01
 0.3016504545015E+01
 0.2965324241359E+01
 0.2908892204951E+01
 0.2847998926082E+01
 0.2783273585994E+01
 0.2715401995045E+01
 0.2645255437510E+01
 0.2573554215439E+01
 0.2500543634696E+01
 0.2426050984900E+01
 0.2349624627452E+01
 0.2270674870113E+01
 0.2188603850244E+01
 0.2102918430689E+01
 0.2013333856978E+01
 0.1919881358667E+01
 0.1822995475731E+01
 0.1723659851388E+01
 0.1623751385356E+01
 0.1526540303414E+01
 0.1437363970583E+01
 0.1364622486228E+01
 0.1321158328147E+01
 0.1325692223577E+01
 0.1402972576150E+01
 0.1580656536916E+01
 0.1882220774115E+01
 0.2317155115840E+01
 0.2870959866615E+01
 0.3500203207129E+01
 0.2578330717342E+01
 0.2675336140337E+01
 0.2774737081261E+01
 0.2864662996134E+01
 0.2936345754013E+01
 0.2985657340616E+01
 0.3012520882343E+01
 0.3019333917756E+01
 0.3009457161985E+01
 0.2986221331900E+01
 0.2952450729278E+01
 0.2910334176782E+01
 0.2861480165967E+01
 0.2807049378943E+01
 0.2747901648893E+01
 0.2684721178001E+01
 0.2618217315769E+01
 0.2549250706840E+01
 0.2478527227212E+01
 0.2406306649414E+01
 0.2332466762719E+01
 0.2256636580488E+01
 0.2178327071369E+01
 0.2097053354706E+01
 0.2012446263908E+01
 0.1924361245629E+01
 0.1832995285682E+01
 0.1738987911342E+01
 0.1643578479982E+01
 0.1548947773952E+01
 0.1458705083979E+01
 0.1378537574278E+01
 0.1317138870146E+01
 0.1287388021859E+01
 0.1307282111394E+01
 0.1399274281680E+01
 0.1586695697902E+01
 0.1887563714605E+01
 0.2306861940688E+01
 0.2829729093592E+01
 0.3414810719694E+01
 0.2479083118164E+01
 0.2568599755474E+01
 0.2660854897278E+01
 0.2745478536713E+01
 0.2814448780529E+01
 0.2863525782157E+01
 0.2891994631556E+01
 0.2901490844039E+01
 0.2894741622366E+01
 0.2874655088051E+01
 0.2843824899663E+01
 0.2804347549253E+01
 0.2757824644062E+01
 0.2705453845666E+01
 0.2648145270736E+01
 0.2586625912946E+01
 0.2521623920760E+01
 0.2453990852347E+01
 0.2384422625825E+01
 0.2313197169200E+01
 0.2240244148415E+01
 0.2165273285013E+01
 0.2087896848831E+01
 0.2007745237374E+01
 0.1924576641722E+01
 0.1838389047112E+01
 0.1749543260186E+01
 0.1658873637028E+01
 0.1567852759204E+01
 0.1478927055099E+01
 0.1395987425853E+01
 0.1324987317973E+01
 0.1274787916834E+01
 0.1258110909254E+01
 0.1291986523422E+01
 0.1396475373338E+01
 0.1591000170338E+01
 0.1889109193754E+01
 0.2292602642421E+01
 0.2786186849621E+01
 0.3334711836723E+01
 0.2381672498894E+01
 0.2464389979159E+01
 0.2550041259456E+01
 0.2629535785106E+01
 0.2695563973830E+01
 0.2743901159147E+01
 0.2773371392356E+01
 0.2784987449600E+01
 0.2780916631171E+01
 0.2763664475439E+01
 0.2735583563813E+01
 0.2698655456715E+01
 0.2654450254910E+01
 0.2604180491665E+01
 0.2548789105655E+01
 0.2489034457612E+01
 0.2425658642827E+01
 0.2359504770691E+01
 0.2291262097986E+01
 0.2221229544745E+01
 0.2149389568822E+01
 0.2075532130206E+01
 0.1999370304890E+01
 0.1920650045485E+01
 0.1839257442665E+01
 0.1755331978009E+01
 0.1669392874386E+01
 0.1582456172406E+01
 0.1496203378524E+01
 0.1413308430455E+01
 0.1337888932793E+01
 0.1276086312106E+01
 0.1236812804874E+01
 0.1232463482824E+01
 0.1278924299214E+01
 0.1393875961414E+01
 0.1593276645965E+01
 0.1887087786295E+01
 0.2274711115847E+01
 0.2741207730568E+01
 0.3255871973426E+01
 0.2285901050355E+01
 0.2362423615621E+01
 0.2441965431884E+01
 0.2516530837056E+01
 0.2579477482410E+01
 0.2626682622104E+01
 0.2656649301223E+01
 0.2669889272457E+01
 0.2668083205024E+01
 0.2653362008754E+01
 0.2627835822736E+01
 0.2593355704806E+01
 0.2551440236134E+01
 0.2503297581523E+01
 0.2449887798101E+01
 0.2391990045637E+01
 0.2330355461036E+01
 0.2265818553531E+01
 0.2199064158780E+01
 0.2130414177174E+01
 0.2059904228656E+01
 0.1987403474759E+01
 0.1912724281070E+01
 0.1835726713468E+01
 0.1756422927006E+01
 0.1675090096802E+01
 0.1592397759390E+01
 0.1509528436052E+01
 0.1428347498449E+01
 0.1351719396684E+01
 0.1283936869834E+01
 0.1231256661831E+01
 0.1202535888458E+01
 0.1209700089749E+01
 0.1267375578316E+01
 0.1390951561686E+01
 0.1593372968785E+01
 0.1881712039491E+01
 0.2253683290879E+01
 0.2694847381031E+01
 0.3178407749424E+01
 0.2191597809531E+01
 0.2262457364648E+01
 0.2336339556966E+01
 0.2406189629458E+01
 0.2465982838411E+01
 0.2511755944907E+01
 0.2541800765626E+01
 0.2556232579208E+01
 0.2556315329914E+01
 0.2543837872198E+01
 0.2520673435702E+01
 0.2488533080981E+01
 0.2448868252893E+01
 0.2402866436244E+01
 0.2351490935685E+01
 0.2295532040787E+01
 0.2235745045196E+01
 0.2172955049405E+01
 0.2107843775284E+01
 0.2040757279728E+01
 0.1971784131375E+01
 0.1900871074618E+01
 0.1827927333778E+01
 0.1752924198503E+01
 0.1675996107235E+01
 0.1597551940906E+01
 0.1518401453328E+01
 0.1439877189278E+01
 0.1364003403443E+01
 0.1293799915223E+01
 0.1233686756258E+01
 0.1189969124119E+01
 0.1171353810911E+01
 0.1189181208558E+01
 0.1256756487816E+01
 0.1387318879257E+01
 0.1591220815937E+01
 0.1873233610675E+01
 0.2229875032230E+01
 0.2647409152972E+01
 0.3102356668606E+01
 0.2098613526946E+01
 0.2164280290421E+01
 0.2232911532470E+01
 0.2298264869372E+01
 0.2354883022046E+01
 0.2398998935066E+01
 0.2428778557749E+01
 0.2444029319454E+01
 0.2445663194376E+01
 0.2435161662077E+01
 0.2414171571538E+01
 0.2384259553693E+01
 0.2346798318813E+01
 0.2302941208411E+01
 0.2253642737851E+01
 0.2199695581115E+01
 0.2141854398550E+01
 0.2080933544491E+01
 0.2017612125863E+01
 0.1952260777142E+01
 0.1885020214686E+01
 0.1815912574915E+01
 0.1744940701961E+01
 0.1672183019421E+01
 0.1597890915510E+01
 0.1522597327403E+01
 0.1447240761178E+01
 0.1373286753761E+01
 0.1302894177277E+01
 0.1239205372192E+01
 0.1186723667608E+01
 0.1151741655278E+01
 0.1142732124906E+01
 0.1170361533517E+01
 0.1246597879171E+01
 0.1382701802491E+01
 0.1586817851784E+01
 0.1861891073274E+01
 0.2203621937004E+01
 0.2599091187742E+01
 0.3027528220915E+01
 0.2006816645534E+01
 0.2067707876082E+01
 0.2131459122287E+01
 0.2192532989270E+01
 0.2245991393670E+01
 0.2288285304377E+01
 0.2317520671775E+01
 0.2333271421311E+01
 0.2336156253839E+01
 0.2327384234753E+01
 0.2308389755785E+01
 0.2280594655669E+01
 0.2245284856289E+01
 0.2203568759191E+01
 0.2156381829544E+01
 0.2104511308069E+01
 0.2048706593644E+01
 0.1989769547391E+01
 0.1928376471996E+01
 0.1864922315804E+01
 0.1799598576085E+01
 0.1732500048358E+01
 0.1663719256648E+01
 0.1593436694958E+01
 0.1522014169383E+01
 0.1450099827635E+01
 0.1378748635193E+01
 0.1309542068941E+01
 0.1244750529801E+01
 0.1187608553839E+01
 0.1142662565369E+01
 0.1116137264009E+01
 0.1116199598829E+01
 0.1152778810557E+01
 0.1236525647790E+01
 0.1376907645101E+01
 0.1580202682341E+01
 0.1847913003128E+01
 0.2175209374576E+01
 0.2550003412953E+01
 0.2953760459403E+01
 0.1916090114713E+01
 0.1972577287620E+01
 0.2031785080611E+01
 0.2088791266781E+01
 0.2139131883056E+01
 0.2179487378646E+01
 0.2207954147747E+01
 0.2223934453168E+01
 0.2227806053639E+01
 0.2220539566568E+01
 0.2203372940329E+01
 0.2177586008579E+01
 0.2144372878936E+01
 0.2104788634826E+01
 0.2059741101896E+01
 0.2010005179927E+01
 0.1956320594845E+01
 0.1899474664496E+01
 0.1840140123156E+01
 0.1778735362020E+01
 0.1715500766904E+01
 0.1650600563382E+01
 0.1584212422145E+01
 0.1516613077605E+01
 0.1448267339270E+01
 0.1379928930271E+01
 0.1312756610733E+01
 0.1248431159152E+01
 0.1189312900997E+01
 0.1138700834486E+01
 0.1101147925286E+01
 0.1082761422170E+01
 0.1091342528871E+01
 0.1136043266566E+01
 0.1226244113614E+01
 0.1369807065469E+01
 0.1571440423533E+01
 0.1831512309007E+01
 0.2144870852444E+01
 0.2500224420214E+01
 0.2880920758528E+01
 0.1826328839491E+01
 0.1878743568136E+01
 0.1933713104861E+01
 0.1986855174965E+01
 0.2034138704464E+01
 0.2072477940247E+01
 0.2099998046367E+01
 0.2115980702486E+01
 0.2120608774692E+01
 0.2114646560139E+01
 0.2099152636864E+01
 0.2075269950876E+01
 0.2044098277409E+01
 0.2006633136016E+01
 0.1963747657805E+01
 0.1916198366492E+01
 0.1864711160786E+01
 0.1810056554686E+01
 0.1752902479161E+01
 0.1693689370284E+01
 0.1632704137323E+01
 0.1570176768188E+01
 0.1506365060573E+01
 0.1441635581419E+01
 0.1376548124415E+01
 0.1311951912076E+01
 0.1249096837093E+01
 0.1189747082558E+01
 0.1136332960561E+01
 0.1092192750295E+01
 0.1061852870877E+01
 0.1051259243313E+01
 0.1067799167652E+01
 0.1119827934761E+01
 0.1215521770889E+01
 0.1361318564523E+01
 0.1560612287552E+01
 0.1812882859658E+01
 0.2112801248276E+01
 0.2449820029794E+01
 0.2808899094763E+01
 0.1737437617687E+01
 0.1786076553843E+01
 0.1837084464945E+01
 0.1886555986441E+01
 0.1930855780964E+01
 0.1967131428588E+01
 0.1993565735347E+01
 0.2009361734557E+01
 0.2014547491257E+01
 0.2009710753783E+01
 0.1995748068988E+01
 0.1973672235838E+01
 0.1944488189639E+01
 0.1909127471016E+01
 0.1868422837475E+01
 0.1823107220257E+01
 0.1773888819923E+01
 0.1721518953538E+01
 0.1666659137215E+01
 0.1609770006910E+01
 0.1551182218087E+01
 0.1491187479334E+01
 0.1430118313456E+01
 0.1368424304204E+01
 0.1306751846618E+01
 0.1246035438577E+01
 0.1187603745135E+01
 0.1133289432455E+01
 0.1085574611195E+01
 0.1047814104107E+01
 0.1024477975769E+01
 0.1021312564285E+01
 0.1045254391613E+01
 0.1103859908752E+01
 0.1204179307324E+01
 0.1351396539496E+01
 0.1547808095376E+01
 0.1792200072919E+01
 0.2079167342039E+01
 0.2398849299550E+01
 0.2737603333911E+01
 0.1649329456036E+01
 0.1694458354273E+01
 0.1741755184255E+01
 0.1787738630238E+01
 0.1829136001971E+01
 0.1863324669290E+01
 0.1888566623349E+01
 0.1904020497646E+01
 0.1909594147180E+01
 0.1905725908307E+01
 0.1893167309674E+01
 0.1872808772482E+01
 0.1845561437638E+01
 0.1812289982049E+01
 0.1773782317278E+01
 0.1730743318209E+01
 0.1683859912460E+01
 0.1633861758583E+01
 0.1581402053212E+01
 0.1526959417370E+01
 0.1470905127653E+01
 0.1413588266121E+01
 0.1355410396178E+01
 0.1296897046357E+01
 0.1238772673005E+01
 0.1182046918604E+01
 0.1128115393919E+01
 0.1078865457905E+01
 0.1036814591685E+01
 0.1005313721814E+01
 0.9887498575320E+00
 0.9926370284720E+00
 0.1023434679124E+01
 0.1087912546074E+01
 0.1192079661122E+01
 0.1340022068180E+01
 0.1533121375489E+01
 0.1769622817079E+01
 0.2044114748635E+01
 0.2347366462447E+01
 0.2666955927666E+01
 0.1561924183010E+01
 0.1603781276707E+01
 0.1647593670929E+01
 0.1690259786978E+01
 0.1728840396494E+01
 0.1760937260696E+01
 0.1784907454598E+01
 0.1799893039216E+01
 0.1805711267680E+01
 0.1802675458626E+01
 0.1791408380930E+01
 0.1772686387556E+01
 0.1747329014922E+01
 0.1716132434478E+01
 0.1679836274613E+01
 0.1639113568066E+01
 0.1594626692275E+01
 0.1547081168332E+01
 0.1497119748913E+01
 0.1445236528219E+01
 0.1391839996185E+01
 0.1337332024498E+01
 0.1282177343237E+01
 0.1226970230587E+01
 0.1172504680711E+01
 0.1119855637569E+01
 0.1070474537525E+01
 0.1026290865523E+01
 0.9898427632946E+00
 0.9644589577647E+00
 0.9544196547153E+00
 0.9649792387691E+00
 0.1002103444758E+01
 0.1071798607299E+01
 0.1179119830594E+01
 0.1327195884351E+01
 0.1516646261782E+01
 0.1745295427134E+01
 0.2007772396722E+01
 0.2295421658480E+01
 0.2596891623042E+01
 0.1475147295837E+01
 0.1513946102551E+01
 0.1554478716917E+01
 0.1593986201445E+01
 0.1629837275990E+01
 0.1659851713978E+01
 0.1682493256847E+01
 0.1696909893430E+01
 0.1702853429921E+01
 0.1700533827415E+01
 0.1690460300946E+01
 0.1673303592169E+01
 0.1649794611047E+01
 0.1620660358929E+01
 0.1586589611473E+01
 0.1548220372952E+01
 0.1506187483168E+01
 0.1461169869169E+01
 0.1413797558556E+01
 0.1364577376956E+01
 0.1313951400433E+01
 0.1262369536659E+01
 0.1210353704384E+01
 0.1158559728398E+01
 0.1107842777459E+01
 0.1059333694440E+01
 0.1014529451252E+01
 0.9753903583103E+00
 0.9444621507915E+00
 0.9250350268065E+00
 0.9212614544919E+00
 0.9381140264701E+00
 0.9810567563901E+00
 0.1055364280561E+01
 0.1165224177495E+01
 0.1312933064520E+01
 0.1498475546554E+01
 0.1719349476063E+01
 0.1970255548972E+01
 0.2243061391813E+01
 0.2527355775713E+01
 0.1388928993614E+01
 0.1424860644127E+01
 0.1462297797741E+01
 0.1498793189111E+01
 0.1532001380929E+01
 0.1559953418418E+01
 0.1581228017952E+01
 0.1594997194241E+01
 0.1600968518766E+01
 0.1599267605045E+01
 0.1590304070918E+01
 0.1574651341541E+01
 0.1552955162610E+01
 0.1525873437887E+01
 0.1494042230246E+01
 0.1458061849257E+01
 0.1418536884865E+01
 0.1376117265748E+01
 0.1331417910574E+01
 0.1284955465627E+01
 0.1237201806160E+01
 0.1188650015085E+01
 0.1139873193965E+01
 0.1091581600938E+01
 0.1044683492950E+01
 0.1000356766956E+01
 0.9601345537141E+00
 0.9259979610720E+00
 0.9004887979084E+00
 0.8868442238831E+00
 0.8890707197475E+00
 0.9118418670882E+00
 0.9601194448072E+00
 0.1038484023277E+01
 0.1150338985269E+01
 0.1297259020579E+01
 0.1478699466812E+01
 0.1691905261669E+01
 0.1931667982114E+01
 0.2190328966704E+01
 0.2458303065158E+01
 0.1303203359124E+01
 0.1336438525821E+01
 0.1370945618241E+01
 0.1404563312938E+01
 0.1435213051749E+01
 0.1461130484907E+01
 0.1481015151829E+01
 0.1494077562296E+01
 0.1499998795290E+01
 0.1498836605134E+01
 0.1490913599501E+01
 0.1476713781028E+01
 0.1456801423199E+01
 0.1431765930408E+01
 0.1402189356763E+01
 0.1368632093920E+01
 0.1331666025872E+01
 0.1291909752592E+01
 0.1249960642499E+01
 0.1206342136766E+01
 0.1161552017754E+01
 0.1116121632578E+01
 0.1070669298180E+01
 0.1025952763561E+01
 0.9829256566773E+00
 0.9428047288317E+00
 0.9071508583221E+00
 0.8779571757040E+00
 0.8577514867047E+00
 0.8497050783099E+00
 0.8576627505384E+00
 0.8859864628870E+00
 0.9391416027148E+00
 0.1021056143320E+01
 0.1134428057099E+01
 0.1280206479599E+01
 0.1457404966302E+01
 0.1663073059944E+01
 0.1892103671313E+01
 0.2137264947777E+01
 0.2389696476554E+01
 0.1217907659936E+01
 0.1248598145325E+01
 0.1280322859457E+01
 0.1311185207802E+01
 0.1339357435772E+01
 0.1363273506858E+01
 0.1381757802862E+01
 0.1394070808146E+01
 0.1399881805855E+01
 0.1399194808838E+01
 0.1392256567801E+01
 0.1379468976123E+01
 0.1361318548423E+01
 0.1338327131349E+01
 0.1311021908039E+01
 0.1279921499701E+01
 0.1245562862821E+01
 0.1208531027434E+01
 0.1169403350366E+01
 0.1128706973805E+01
 0.1086961638247E+01
 0.1044732043308E+01
 0.1002675847919E+01
 0.9615915854707E+00
 0.9224709785581E+00
 0.8865621417873E+00
 0.8554462844542E+00
 0.8311210035788E+00
 0.8160913612092E+00
 0.8134514787825E+00
 0.8268712045541E+00
 0.8603925035775E+00
 0.9179954606475E+00
 0.1002999038479E+01
 0.1117469167278E+01
 0.1261813210194E+01
 0.1434675276935E+01
 0.1632954204177E+01
 0.1851648164270E+01
 0.2083907630131E+01
 0.2321506473438E+01
 0.1132981745409E+01
 0.1161261779600E+01
 0.1190335089769E+01
 0.1218552531545E+01
 0.1244323735659E+01
 0.1266275267574E+01
 0.1283359028720E+01
 0.1294894489446E+01
 0.1300551159486E+01
 0.1300291214318E+01
 0.1294295242545E+01
 0.1282889628987E+01
 0.1266486696524E+01
 0.1245541865464E+01
 0.1220526905817E+01
 0.1191917120716E+01
 0.1160212529856E+01
 0.1125962451096E+01
 0.1089721778541E+01
 0.1052018232897E+01
 0.1013389547883E+01
 0.9744289044467E+00
 0.9358275686897E+00
 0.8984184385236E+00
 0.8632245498956E+00
 0.8315186443751E+00
 0.8048958554991E+00
 0.7853518667196E+00
 0.7753614879233E+00
 0.7779317964059E+00
 0.7965466936496E+00
 0.8349236104732E+00
 0.8965726206973E+00
 0.9842480144919E+00
 0.1099451209209E+01
 0.1242120316861E+01
 0.1410589721812E+01
 0.1601642035609E+01
 0.1810379743917E+01
 0.2030293497838E+01
 0.2253710314634E+01
 0.1048367520781E+01
 0.1074354807024E+01
 0.1100891809635E+01
 0.1126563023548E+01
 0.1150004501232E+01
 0.1170030416036E+01
 0.1185721894884E+01
 0.1196464356462E+01
 0.1201937201861E+01
 0.1202070611413E+01
 0.1196987250403E+01
 0.1186943789960E+01
 0.1172281650960E+01
 0.1153391022485E+01
 0.1130687942795E+01
 0.1104603096494E+01
 0.1075597747921E+01
 0.1044183465370E+01
 0.1010890262930E+01
 0.9762433204598E+00
 0.9407944166321E+00
 0.9051604147355E+00
 0.8700606247891E+00
 0.8363562132459E+00
 0.8050952839980E+00
 0.7775692590389E+00
 0.7553818080787E+00
 0.7405214544240E+00
 0.7354263792143E+00
 0.7430080262327E+00
 0.7665554679952E+00
 0.8094604648303E+00
 0.8747816247922E+00
 0.9647526069366E+00
 0.1080371911065E+01
 0.1221170969900E+01
 0.1385223675925E+01
 0.1569222756435E+01
 0.1768370434107E+01
 0.1976457654098E+01
 0.2186291489521E+01
 0.9640084829839E+00
 0.9878050223535E+00
 0.1011905604330E+01
 0.1035117653703E+01
 0.1056294964399E+01
 0.1074435128550E+01
 0.1088749510188E+01
 0.1098694718951E+01
 0.1103967616528E+01
 0.1104474306912E+01
 0.1100286333708E+01
 0.1091595580809E+01
 0.1078675480184E+01
 0.1061852148415E+01
 0.1041485717933E+01
 0.1017961152730E+01
 0.9916993143022E+00
 0.9631720915099E+00
 0.9328822521758E+00
 0.9013493425472E+00
 0.8691352776296E+00
 0.8368758969740E+00
 0.8053131837992E+00
 0.7753308264671E+00
 0.7479963191133E+00
 0.7246146390582E+00
 0.7067936342743E+00
 0.6965105175940E+00
 0.6961615002216E+00
 0.7085549626144E+00
 0.7367781954204E+00
 0.7838991177774E+00
 0.8525458320632E+00
 0.9444743390526E+00
 0.1060236014239E+01
 0.1199009472195E+01
 0.1358648640638E+01
 0.1535776204913E+01
 0.1725686879823E+01
 0.1922434215039E+01
 0.2119239245512E+01
 0.8798493054603E+00
 0.9015420251613E+00
 0.9232913829591E+00
 0.9441198466654E+00
 0.9630924164249E+00
 0.9793867719955E+00
 0.9923450320009E+00
 0.1001498769738E+01
 0.1006567989865E+01
 0.1007440835036E+01
 0.1004143119625E+01
 0.9968059600006E+00
 0.9856372644745E+00
 0.9709001238803E+00
 0.9528986737075E+00
 0.9319712144369E+00
 0.9084967112548E+00
 0.8829055512438E+00
 0.8556709514398E+00
 0.8273037724109E+00
 0.7983722081548E+00
 0.7695264693181E+00
 0.7415260423485E+00
 0.7152717557220E+00
 0.6918454123067E+00
 0.6725612785177E+00
 0.6590280768004E+00
 0.6532086292270E+00
 0.6574527755090E+00
 0.6744594197967E+00
 0.7071088407171E+00
 0.7581494769311E+00
 0.8298015792406E+00
 0.9233848552963E+00
 0.1039053829884E+01
 0.1175680588605E+01
 0.1330932400812E+01
 0.1501376565280E+01
 0.1682391122452E+01
 0.1868256662735E+01
 0.2052548192858E+01
 0.7958354612853E+00
 0.8154966653713E+00
 0.8349656851516E+00
 0.8534747684122E+00
 0.8702956280645E+00
 0.8847835862445E+00
 0.8964116741983E+00
 0.9047889090706E+00
 0.9096623898731E+00
 0.9109067057670E+00
 0.9085059564187E+00
 0.9025335846621E+00
 0.8931339463765E+00
 0.8805079890037E+00
 0.8649037986825E+00
 0.8466121993918E+00
 0.8259689064865E+00
 0.8033610877121E+00
 0.7792301697971E+00
 0.7540753190438E+00
 0.7284671997955E+00
 0.7030658819801E+00
 0.6786433803155E+00
 0.6561126544993E+00
 0.6365653638519E+00
 0.6213217122872E+00
 0.6119890960919E+00
 0.6105139263290E+00
 0.6191961082025E+00
 0.6406195064119E+00
 0.6774536477672E+00
 0.7321339633081E+00
 0.8064965985578E+00
 0.9014643780769E+00
 0.1016840105311E+01
 0.1151229081635E+01
 0.1302139241979E+01
 0.1466093021269E+01
 0.1638541284659E+01
 0.1813958156902E+01
 0.1986217972581E+01
 0.7119128753653E+00
 0.7296005318320E+00
 0.7468460392725E+00
 0.7630886648040E+00
 0.7778043173114E+00
 0.7905244115002E+00
 0.8008527653734E+00
 0.8084771357762E+00
 0.8131740387024E+00
 0.8148072807187E+00
 0.8133219137058E+00
 0.8087358722245E+00
 0.8011314137918E+00
 0.7906480305029E+00
 0.7774777184549E+00
 0.7618631228295E+00
 0.7440954842303E+00
 0.7245171320077E+00
 0.7035355218822E+00
 0.6816351485918E+00
 0.6593853652558E+00
 0.6374516548841E+00
 0.6166137589530E+00
 0.5977921371097E+00
 0.5820845320033E+00
 0.5708147410924E+00
 0.5655878286695E+00
 0.5683328459073E+00
 0.5812969216397E+00
 0.6069439606531E+00
 0.6477302261997E+00
 0.7057863313820E+00
 0.7825886690060E+00
 0.8787004424191E+00
 0.9936131453730E+00
 0.1125699410392E+01
 0.1272330211138E+01
 0.1429990360029E+01
 0.1594192176495E+01
 0.1759571806201E+01
 0.1920252974802E+01
 0.6280275976507E+00
 0.6437854715330E+00
 0.6588503579294E+00
 0.6728682460269E+00
 0.6855186800381E+00
 0.6965085077454E+00
 0.7055719407869E+00
 0.7124756233748E+00
 0.7170262266676E+00
 0.7190779480035E+00
 0.7185381370193E+00
 0.7153704678387E+00
 0.7095960360855E+00
 0.7012933651896E+00
 0.6905983230264E+00
 0.6777047751403E+00
 0.6628583815169E+00
 0.6463551005382E+00
 0.6285662752434E+00
 0.6099587488710E+00
 0.5910967596338E+00
 0.5726467673055E+00
 0.5553915718873E+00
 0.5402548883200E+00
 0.5283375366903E+00
 0.5209657328863E+00
 0.5197425588727E+00
 0.5265798656954E+00
 0.5436697315248E+00
 0.5733515518772E+00
 0.6178667437854E+00
 0.6790506449635E+00
 0.7580444786760E+00
 0.8550868699659E+00
 0.9693941447156E+00
 0.1099135559852E+01
 0.1241563409472E+01
 0.1393129532498E+01
 0.1549395832704E+01
 0.1705130900621E+01
 0.1854662095355E+01
 0.5441254901720E+00
 0.5579831283465E+00
 0.5708963583873E+00
 0.5827201192787E+00
 0.5933390247358E+00
 0.6026355679317E+00
 0.6104736417694E+00
 0.6166977274816E+00
 0.6211437792095E+00
 0.6236559619065E+00
 0.6241039664344E+00
 0.6223975631702E+00
 0.6184971293927E+00
 0.6124205236415E+00
 0.6042474601588E+00
 0.5941225260829E+00
 0.5822448039266E+00
 0.5688624127190E+00
 0.5543084385251E+00
 0.5390290219955E+00
 0.5235793682355E+00
 0.5086223900543E+00
 0.4949393488599E+00
 0.4834533862058E+00
 0.4752663272059E+00
 0.4717070838280E+00
 0.4743787329616E+00
 0.4851772589005E+00
 0.5062377551827E+00
 0.5397705541786E+00
 0.5878012259349E+00
 0.6518804019792E+00
 0.7328386781672E+00
 0.8306229496982E+00
 0.9442066954598E+00
 0.1071580975112E+01
 0.1209894308828E+01
 0.1355568176226E+01
 0.1504201990426E+01
 0.1650669106344E+01
 0.1789458519014E+01
 0.4601519215750E+00
 0.4721244912839E+00
 0.4829009978859E+00
 0.4925502932156E+00
 0.5011656222102E+00
 0.5088061739904E+00
 0.5154643398550E+00
 0.5210600139059E+00
 0.5254558220754E+00
 0.5284838222694E+00
 0.5299747967471E+00
 0.5297841242496E+00
 0.5278114729101E+00
 0.5240142093898E+00
 0.5184159163719E+00
 0.5111115165814E+00
 0.5022526120458E+00
 0.4920380364155E+00
 0.4807603918588E+00
 0.4688418656706E+00
 0.4568244316711E+00
 0.4453626819260E+00
 0.4352317273803E+00
 0.4273508104574E+00
 0.4228219480895E+00
 0.4229789877176E+00
 0.4294290596478E+00
 0.4440548717077E+00
 0.4689325637421E+00
 0.5061382982545E+00
 0.5574809645789E+00
 0.6242378021557E+00
 0.7069531075168E+00
 0.8053127980568E+00
 0.9180764418229E+00
 0.1043078581094E+01
 0.1177376086673E+01
 0.1317361107001E+01
 0.1458658516222E+01
 0.1596220624324E+01
 0.1724659517188E+01
 0.3760514643366E+00
 0.3861394439277E+00
 0.3947799192911E+00
 0.4022638408218E+00
 0.4088990935660E+00
 0.4149233962259E+00
 0.4204556467762E+00
 0.4254869378985E+00
 0.4299018935419E+00
 0.4335165796575E+00
 0.4361203183673E+00
 0.4375128498561E+00
 0.4375328280531E+00
 0.4360772806737E+00
 0.4331138030213E+00
 0.4286874036134E+00
 0.4229013654800E+00
 0.4159037330144E+00
 0.4079441620959E+00
 0.3994171947556E+00
 0.3908467974817E+00
 0.3828739482479E+00
 0.3762628816637E+00
 0.3719263562227E+00
 0.3709676896142E+00
 0.3747308031996E+00
 0.3848337732744E+00
 0.4031499329132E+00
 0.4316937830601E+00
 0.4724008100302E+00
 0.5268620406182E+00
 0.5960931531349E+00
 0.6803761817337E+00
 0.7791648758352E+00
 0.8910308588118E+00
 0.1013670872554E+01
 0.1144059976280E+01
 0.1278560786269E+01
 0.1412811791805E+01
 0.1541820313747E+01
 0.1660286246875E+01
 0.2917675946445E+00
 0.2999563118115E+00
 0.3064469211078E+00
 0.3117650362396E+00
 0.3164424358731E+00
 0.3208978883980E+00
 0.3253731839375E+00
 0.3299235701751E+00
 0.3344481077512E+00
 0.3387407613437E+00
 0.3425455046505E+00
 0.3456046331455E+00
 0.3476954504436E+00
 0.3486550360771E+00
 0.3483954349299E+00
 0.3469116805388E+00
 0.3442579038295E+00
 0.3405296410284E+00
 0.3359306023096E+00
 0.3308230793598E+00
 0.3257071234840E+00
 0.3212038416469E+00
 0.3180617042093E+00
 0.3171857846971E+00
 0.3196851516724E+00
 0.3269236292981E+00
 0.3405412065744E+00
 0.3624069078398E+00
 0.3944688502798E+00
 0.4385125488425E+00
 0.4959089674848E+00
 0.5674244127818E+00
 0.6531024228353E+00
 0.7521916433979E+00
 0.8630991366297E+00
 0.9834000624146E+00
 0.1109995630258E+01
 0.1239217772049E+01
 0.1366707069025E+01
 0.1487503781826E+01
 0.1596363536654E+01
 0.2072424177498E+00
 0.2135014288405E+00
 0.2178135534785E+00
 0.2209593637186E+00
 0.2237094789934E+00
 0.2266667035186E+00
 0.2301879405268E+00
 0.2343793789864E+00
 0.2391414254168E+00
 0.2442363591646E+00
 0.2493575906465E+00
 0.2541883479414E+00
 0.2584451697853E+00
 0.2619066374457E+00
 0.2644305026464E+00
 0.2659621342633E+00
 0.2665055832934E+00
 0.2661016347552E+00
 0.2649038868968E+00
 0.2632358747237E+00
 0.2615656160747E+00
 0.2604864304186E+00
 0.2607262685107E+00
 0.2631844981260E+00
 0.2689869690220E+00
 0.2795354992068E+00
 0.2965089852319E+00
 0.3217774159408E+00
 0.3572128358873E+00
 0.4044362661730E+00
 0.4645944690649E+00
 0.5382168686780E+00
 0.6251321293185E+00
 0.7244093395902E+00
 0.8343121561363E+00
 0.9523082785863E+00
 0.1075231495973E+01
 0.1199381161671E+01
 0.1320388806939E+01
 0.1433307442732E+01
 0.1532919643362E+01
 0.1224166098477E+00
 0.1266989227554E+00
 0.1287895817524E+00
 0.1297667763907E+00
 0.1306720874440E+00
 0.1322947515557E+00
 0.1350814949008E+00
 0.1391524020493E+00
 0.1443775432713E+00
 0.1504698574949E+00
 0.1570679666083E+00
 0.1638001122153E+00
 0.1703292446198E+00
 0.1763822382631E+00
 0.1817671437198E+00
 0.1863812680738E+00
 0.1901774690996E+00
 0.1931383695443E+00
 0.1953606109900E+00
 0.1971181982099E+00
 0.1988345227521E+00
 0.2010646704471E+00
 0.2045132987030E+00
 0.2100845422722E+00
 0.2189465549131E+00
 0.2325728168999E+00
 0.2527065775884E+00
 0.2812202493068E+00
 0.3198883479739E+00
 0.3701430214753E+00
 0.4328994149602E+00
 0.5084629605039E+00
 0.5964711773959E+00
 0.6958378733060E+00
 0.8047025438298E+00
 0.9204378006597E+00
 0.1039815200692E+01
 0.1159099034734E+01
 0.1273901007543E+01
 0.1379268551464E+01
 0.1469985960118E+01
 0.3723342772193E-01
 0.3947469425504E-01
 0.3929890207639E-01
 0.3833636663454E-01
 0.3811890340534E-01
 0.3956713944743E-01
 0.4286961860973E-01
 0.4779432872041E-01
 0.5402927373564E-01
 0.6129040053908E-01
 0.6929590963549E-01
 0.7774382392363E-01
 0.8632633427910E-01
 0.9476162416259E-01
 0.1028233056585E+00
 0.1103588717667E+00
 0.1172604827941E+00
 0.1234399605115E+00
 0.1289178015202E+00
 0.1338926592085E+00
 0.1387183164838E+00
 0.1438970756759E+00
 0.1501165740718E+00
 0.1583203026370E+00
 0.1697783165657E+00
 0.1860987161605E+00
 0.2091211352860E+00
 0.2407015751099E+00
 0.2824655510249E+00
 0.3356124222257E+00
 0.4008129531030E+00
 0.4781622581344E+00
 0.5671309523070E+00
 0.6665008202643E+00
 0.7743047977054E+00
 0.8878313283677E+00
 0.1003793941901E+01
 0.1118418903419E+01
 0.1227287571801E+01
 0.1325425226107E+01
 0.1407596648768E+01
 0.4840407449882E-01
 0.4828952548919E-01
 0.5088190936681E-01
 0.5494121385347E-01
 0.5913166706870E-01
 0.6224430255573E-01
 0.6348433394805E-01
 0.6258210226057E-01
 0.5975688861643E-01
 0.5562346713378E-01
 0.5109775639166E-01
 0.4729317948821E-01
 0.4531439414357E-01
 0.4587040088645E-01
 0.4894517112141E-01
 0.5393019929054E-01
 0.6004700108053E-01
 0.6661200442018E-01
 0.7316540368690E-01
 0.7953273900280E-01
 0.8580430011385E-01
 0.9233132457534E-01
 0.9977754067726E-01
 0.1092022081930E+00
 0.1221018723182E+00
 0.1403161459015E+00
 0.1657725579629E+00
 0.2001955352589E+00
 0.2449223693547E+00
 0.3008332186360E+00
 0.3683329107465E+00
 0.4473216194873E+00
 0.5371284129241E+00
 0.6364255212946E+00
 0.7431554784224E+00
 0.8545322738875E+00
 0.9672148736865E+00
 0.1077388172864E+01
 0.1180592705128E+01
 0.1271816482087E+01
 0.1345788173198E+01
 0.1345134731131E+00
 0.1366268340979E+00
 0.1416685855526E+00
 0.1479135887274E+00
 0.1536747135670E+00
 0.1575619322041E+00
 0.1586847324740E+00
 0.1567006261653E+00
 0.1517339178937E+00
 0.1442336267060E+00
 0.1348291737149E+00
 0.1242157254442E+00
 0.1130782487745E+00
 0.1020490449650E+00
 0.9168619504253E-01
 0.8245948333046E-01
 0.7476599525388E-01
 0.6888889410291E-01
 0.6483967556179E-01
 0.6235602293356E-01
 0.6113178357860E-01
 0.6112532387708E-01
 0.6289163115162E-01
 0.6783709421492E-01
 0.7810081092656E-01
 0.9587957335931E-01
 0.1227601384279E+00
 0.1596858852028E+00
 0.2072450457901E+00
 0.2658045234286E+00
 0.3354665939610E+00
 0.4159555707157E+00
 0.5064862993438E+00
 0.6056432825493E+00
 0.7112934639943E+00
 0.8205850707677E+00
 0.9301254727852E+00
 0.1036054603833E+01
 0.1133861408549E+01
 0.1218482327883E+01
 0.1284598688134E+01
 0.2211943706670E+00
 0.2256620803099E+00
 0.2332814379513E+00
 0.2419442214960E+00
 0.2496420400002E+00
 0.2547818872885E+00
 0.2563851328671E+00
 0.2541063452775E+00
 0.2481159352685E+00
 0.2389257470012E+00
 0.2272206535232E+00
 0.2137282217595E+00
 0.1991334492100E+00
 0.1840312241192E+00
 0.1689033940075E+00
 0.1541094377890E+00
 0.1399331860020E+00
 0.1266048505405E+00
 0.1141578693790E+00
 0.1023417376384E+00
 0.9071494376297E-01
 0.7881206786744E-01
 0.6647654231230E-01
 0.5475209626529E-01
 0.4817125759945E-01
 0.5561068426257E-01
 0.8045605712543E-01
 0.1191710555018E+00
 0.1694295303261E+00
 0.2305382626928E+00
 0.3022322347479E+00
 0.3840869835831E+00
 0.4752335022306E+00
 0.5741896825904E+00
 0.6787602712645E+00
 0.7860354952111E+00
 0.8925738583746E+00
 0.9944667479263E+00
 0.1087140095494E+01
 0.1165464013085E+01
 0.1224067230930E+01
 0.3085191665221E+00
 0.3154913112995E+00
 0.3258285961993E+00
 0.3370255515537E+00
 0.3467417498881E+00
 0.3531773244477E+00
 0.3552758573926E+00
 0.3527122125539E+00
 0.3457332825456E+00
 0.3349471357852E+00
 0.3211304052543E+00
 0.3050857749082E+00
 0.2875531959298E+00
 0.2691637098552E+00
 0.2504197597466E+00
 0.2316892757821E+00
 0.2132618710444E+00
 0.1953814772461E+00
 0.1780913370222E+00
 0.1611205652174E+00
 0.1439420675748E+00
 0.1258505714940E+00
 0.1060511819689E+00
 0.8383594311352E-01
 0.5920827951389E-01
 0.3666044862599E-01
 0.4087184592941E-01
 0.7868482568402E-01
 0.1314852720425E+00
 0.1950643538407E+00
 0.2686615898596E+00
 0.3517481838939E+00
 0.4434056264868E+00
 0.5421049961927E+00
 0.6456004539136E+00
 0.7509310036408E+00
 0.8546090305401E+00
 0.9526742844239E+00
 0.1040477360711E+01
 0.1112804596528E+01
 0.1164232645763E+01
 0.3965683857143E+00
 0.4062217126878E+00
 0.4194389567512E+00
 0.4332819718809E+00
 0.4450575370749E+00
 0.4527581767067E+00
 0.4552669260239E+00
 0.4523056364814E+00
 0.4442248410829E+00
 0.4317511158126E+00
 0.4157690658935E+00
 0.3971681850003E+00
 0.3767532622065E+00
 0.3552023711913E+00
 0.3330527841080E+00
 0.3107001869454E+00
 0.2884640090711E+00
 0.2666273397406E+00
 0.2452713695950E+00
 0.2241499449698E+00
 0.2027454955038E+00
 0.1803369640556E+00
 0.1560522163572E+00
 0.1289224770096E+00
 0.9797417953923E-01
 0.6253453202102E-01
 0.2544784221878E-01
 0.3844717419790E-01
 0.9344812358543E-01
 0.1594427906636E+00
 0.2348047839669E+00
 0.3189827388136E+00
 0.4110458044707E+00
 0.5094347498318E+00
 0.6118620935766E+00
 0.7153211080083E+00
 0.8162809932506E+00
 0.9107281169067E+00
 0.9939248691290E+00
 0.1060550127475E+01
 0.1105132152655E+01
 0.4854288988410E+00
 0.4979698770183E+00
 0.5142534852685E+00
 0.5308612228419E+00
 0.5447214101240E+00
 0.5536216929091E+00
 0.5564089650779E+00
 0.5528849790282E+00
 0.5435340249091E+00
 0.5292228252449E+00
 0.5109564744812E+00
 0.4897168101786E+00
 0.4663749649567E+00
 0.4416561973287E+00
 0.4161333944800E+00
 0.3902326324912E+00
 0.3643077070513E+00
 0.3386860828444E+00
 0.3134923732557E+00
 0.2885131533088E+00
 0.2632563537153E+00
 0.2370222202537E+00
 0.2089538878939E+00
 0.1780796118161E+00
 0.1433571869883E+00
 0.1037312575776E+00
 0.5824333210058E-01
 0.8536234936699E-02
 0.5544593378504E-01
 0.1237964174416E+00
 0.2007399752333E+00
 0.2858484038572E+00
 0.3782058538365E+00
 0.4762304299334E+00
 0.5775974036724E+00
 0.6792578404000E+00
 0.7776407610719E+00
 0.8686799855517E+00
 0.9475381503491E+00
 0.1008751957809E+01
 0.1046799371089E+01
 0.5751948038187E+00
 0.5908632464647E+00
 0.6104262475828E+00
 0.6299259636412E+00
 0.6458832538773E+00
 0.6558885520699E+00
 0.6587854906298E+00
 0.6544959533240E+00
 0.6436720670810E+00
 0.6273429827596E+00
 0.6066451434754E+00
 0.5826553342708E+00
 0.5563089766575E+00
 0.5283747485090E+00
 0.4994577132646E+00
 0.4700123929170E+00
 0.4404267209073E+00
 0.4110732825652E+00
 0.3821210379696E+00
 0.3533903599072E+00
 0.3244166784023E+00
 0.2945268095515E+00
 0.2628931424490E+00
 0.2285774801187E+00
 0.1905743359585E+00
 0.1478608206741E+00
 0.9945879031184E-01
 0.4453652878242E-01
 0.1858045699302E-01
 0.8842185550927E-01
 0.1665946074683E+00
 0.2524222187337E+00
 0.3449479485647E+00
 0.4425503763676E+00
 0.5428634567565E+00
 0.6427963916342E+00
 0.7387403662822E+00
 0.8265812432127E+00
 0.9013766388928E+00
 0.9574709949705E+00
 0.9892615421278E+00
 0.6659687367518E+00
 0.6850421373775E+00
 0.7081265056356E+00
 0.7306533271678E+00
 0.7487046661551E+00
 0.7596885021034E+00
 0.7624885539541E+00
 0.7571954504938E+00
 0.7446673999917E+00
 0.7261187450863E+00
 0.7028264412694E+00
 0.6759622608197E+00
 0.6465211755961E+00
 0.6153090091199E+00
 0.5829572981854E+00
 0.5499450394775E+00
 0.5166923403775E+00
 0.4836163582341E+00
 0.4509303127969E+00
 0.4184880963239E+00
 0.3858520222278E+00
 0.3523750170169E+00
 0.3172595415612E+00
 0.2796048911057E+00
 0.2384530564113E+00
 0.1928425552557E+00
 0.1418844840682E+00
 0.8492894202419E-01
 0.2388578525773E-01
 0.5432206819538E-01
 0.1325985744563E+00
 0.2188099404399E+00
 0.3113471109757E+00
 0.4084609218126E+00
 0.5077230242518E+00
 0.6059959878778E+00
 0.6996332676149E+00
 0.7844805112917E+00
 0.8555012001844E+00
 0.9067851842226E+00
 0.9325351317952E+00
 0.7578635324509E+00
 0.7806622794075E+00
 0.8075413858517E+00
 0.8332360866118E+00
 0.8533571856264E+00
 0.8651550349770E+00
 0.8676098405932E+00
 0.8610390710249E+00
 0.8465492504777E+00
 0.8255624510711E+00
 0.7995029702608E+00
 0.7696347386574E+00
 0.7370049056119E+00
 0.7024479908473E+00
 0.6666145875202E+00
 0.6300029068515E+00
 0.5930623988654E+00
 0.5562538023266E+00
 0.5198343264581E+00
 0.4836908863321E+00
 0.4474115799661E+00
 0.4103739372147E+00
 0.3718090455095E+00
 0.3308525821544E+00
 0.2865927038253E+00
 0.2381249805061E+00
 0.1846296072051E+00
 0.1255209637241E+00
 0.6136072642162E-01
 0.2761249689352E-01
 0.9924220804693E-01
 0.1851650963855E+00
 0.2774951245137E+00
 0.3740378610511E+00
 0.4722455883559E+00
 0.5689207620055E+00
 0.6603760937213E+00
 0.7424208055094E+00
 0.8099649316807E+00
 0.8568017997451E+00
 0.8766170288558E+00
 0.8510043055544E+00
 0.8778979792913E+00
 0.9088791260958E+00
 0.9378843608400E+00
 0.9600214547069E+00
 0.9724220818410E+00
 0.9742355643257E+00
 0.9660748100830E+00
 0.9493402928214E+00
 0.9256829894451E+00
 0.8966780825409E+00
 0.8636754336343E+00
 0.8277641978056E+00
 0.7897970282739E+00
 0.7504346303835E+00
 0.7101881504159E+00
 0.6695330058656E+00
 0.6289723928331E+00
 0.5888073067892E+00
 0.5489572181114E+00
 0.5090348324547E+00
 0.4684406364547E+00
 0.4264327333542E+00
 0.3821818201411E+00
 0.3348204803245E+00
 0.2834969307066E+00
 0.2274469971157E+00
 0.1661140641184E+00
 0.9965179681834E-01
 0.3575256437699E-01
 0.6786713142166E-01
 0.1517318342680E+00
 0.2435071488950E+00
 0.3393683159530E+00
 0.4365087193982E+00
 0.5316404374440E+00
 0.6210306392815E+00
 0.7004445469919E+00
 0.7647820260115E+00
 0.8076821462457E+00
 0.8214598312471E+00
 0.9455310761713E+00
 0.9769460864047E+00
 0.1012372999190E+01
 0.1044827556458E+01
 0.1068886320781E+01
 0.1081620836325E+01
 0.1082442173831E+01
 0.1072338549018E+01
 0.1053052253641E+01
 0.1026481385359E+01
 0.9943510829132E+00
 0.9580869055455E+00
 0.9188068520860E+00
 0.8773690483168E+00
 0.8344339300973E+00
 0.7905184041256E+00
 0.7461200916533E+00
 0.7017835436039E+00
 0.6578535116745E+00
 0.6142816268504E+00
 0.5707039729398E+00
 0.5265423283821E+00
 0.4810804190035E+00
 0.4335232196710E+00
 0.3830472821723E+00
 0.3288519444989E+00
 0.2702236641054E+00
 0.2066286955830E+00
 0.1380240393194E+00
 0.6712024516555E-01
 0.4344261320265E-01
 0.1189550760922E+00
 0.2095337557708E+00
 0.3045535466075E+00
 0.4005989077151E+00
 0.4942335953705E+00
 0.5816590801846E+00
 0.6586155502259E+00
 0.7199037732075E+00
 0.7595506394806E+00
 0.7670942351206E+00
 0.1041602117122E+01
 0.1078031005312E+01
 0.1118286049268E+01
 0.1154316375908E+01
 0.1180147368272E+01
 0.1192875931727E+01
 0.1192291848255E+01
 0.1179849994475E+01
 0.1157682622664E+01
 0.1127948088246E+01
 0.1092514715243E+01
 0.1052868926800E+01
 0.1010141288258E+01
 0.9651806945145E+00
 0.9186355727655E+00
 0.8710205941235E+00
 0.8228515234026E+00
 0.7747132900754E+00
 0.7269946112065E+00
 0.6796789444678E+00
 0.6324243998628E+00
 0.5846723067361E+00
 0.5357308593302E+00
 0.4848393058309E+00
 0.4312191071412E+00
 0.3741217087243E+00
 0.3128842681823E+00
 0.2469991919337E+00
 0.1763187858805E+00
 0.1021149343932E+00
 0.4128734417901E-01
 0.8781355757258E-01
 0.1757853467805E+00
 0.2697127018247E+00
 0.3646139967723E+00
 0.4567854405468E+00
 0.5423411684044E+00
 0.6169607793434E+00
 0.6754805452315E+00
 0.7116329102828E+00
 0.7166801103570E+00
 0.1139398272163E+01
 0.1181411090538E+01
 0.1226916803849E+01
 0.1266624694273E+01
 0.1294004427798E+01
 0.1306300471413E+01
 0.1303827321922E+01
 0.1288608587655E+01
 0.1263211858469E+01
 0.1230061111002E+01
 0.1191153757133E+01
 0.1148017156910E+01
 0.1101775061961E+01
 0.1053250536547E+01
 0.1003067008141E+01
 0.9517281475524E+00
 0.8997635650351E+00
 0.8477978016993E+00
 0.7962640396029E+00
 0.7451772542816E+00
 0.6942160048467E+00
 0.6428392589355E+00
 0.5903787259556E+00
 0.5361086586458E+00
 0.4792976859123E+00
 0.4192523690021E+00
 0.3553637402026E+00
 0.2871570258399E+00
 0.2144308300778E+00
 0.1378499306259E+00
 0.6358340727925E-01
 0.6100311854337E-01
 0.1425872713864E+00
 0.2349894515451E+00
 0.3286639570638E+00
 0.4193937950231E+00
 0.5031555613699E+00
 0.5755692511778E+00
 0.6314300900385E+00
 0.6644403458890E+00
 0.6678483520525E+00
 0.1239128599848E+01
 0.1287386883649E+01
 0.1338606141191E+01
 0.1382050997111E+01
 0.1410657511001E+01
 0.1421989453929E+01
 0.1417065783342E+01
 0.1398589241050E+01
 0.1369600923026E+01
 0.1332784740640E+01
 0.1290244285991E+01
 0.1243522552702E+01
 0.1193714212234E+01
 0.1141598275149E+01
 0.1087759073666E+01
 0.1032679780962E+01
 0.9768993444926E+00
 0.9210814256406E+00
 0.8657045013352E+00
 0.8108147237895E+00
 0.7561091743257E+00
 0.7010622760166E+00
 0.6450284804741E+00
 0.5873185345071E+00
 0.5272517726972E+00
 0.4641946118336E+00
 0.3975972909771E+00
 0.3270260273190E+00
 0.2522584514712E+00
 0.1736550838034E+00
 0.9409989086249E-01
 0.4654507002447E-01
 0.1105229589977E+00
 0.2005631207042E+00
 0.2928741673008E+00
 0.3821659015757E+00
 0.4642008713041E+00
 0.5345086842981E+00
 0.5878318924118E+00
 0.6181255222367E+00
 0.6195867836220E+00
 0.1341037855284E+01
 0.1396311829667E+01
 0.1453745490138E+01
 0.1500918872923E+01
 0.1530300431776E+01
 0.1540011106499E+01
 0.1531991710470E+01
 0.1509737943313E+01
 0.1476789184756E+01
 0.1436068772034E+01
 0.1389753460482E+01
 0.1339371252020E+01
 0.1285963071352E+01
 0.1230244458119E+01
 0.1172745645920E+01
 0.1113919092389E+01
 0.1054308350190E+01
 0.9946160279813E+00
 0.9353670799131E+00
 0.8766383737490E+00
 0.8181430871809E+00
 0.7593685573055E+00
 0.6996914099950E+00
 0.6384612157229E+00
 0.5750528637634E+00
 0.5088989642117E+00
 0.4395160088776E+00
 0.3665203188594E+00
 0.2896921179187E+00
 0.2092283624546E+00
 0.1267135041820E+00
 0.5474077553553E-01
 0.8086599444594E-01
 0.1666715848177E+00
 0.2573876202482E+00
 0.3452226498901E+00
 0.4255840951169E+00
 0.4938714613221E+00
 0.5447954032534E+00
 0.5726256693958E+00
 0.5721923682284E+00
 0.1445416563090E+01
 0.1508606362051E+01
 0.1572786493370E+01
 0.1623575726304E+01
 0.1653111101534E+01
 0.1660395602690E+01
 0.1648548626142E+01
 0.1621967423862E+01
 0.1584692854322E+01
 0.1539848324026E+01
 0.1489639777835E+01
 0.1435544812450E+01
 0.1378524351688E+01
 0.1319210461777E+01
 0.1258063615834E+01
 0.1195494590315E+01
 0.1132046511386E+01
 0.1068461085282E+01
 0.1005311270311E+01
 0.9427039368317E+00
 0.8803652556198E+00
 0.8177925127526E+00
 0.7543842375880E+00
 0.6895321491345E+00
 0.6226729468582E+00
 0.5533133265217E+00
 0.4810445798236E+00
 0.4055430572116E+00
 0.3266103320011E+00
 0.2443566631443E+00
 0.1597519159125E+00
 0.7823641632613E-01
 0.5702300601765E-01
 0.1336625200981E+00
 0.2223699625912E+00
 0.3086976690031E+00
 0.3874247241313E+00
 0.4537696181532E+00
 0.5024056927019E+00
 0.5279152352188E+00
 0.5256767390253E+00
 0.1552614811236E+01
 0.1624776606678E+01
 0.1696252125469E+01
 0.1750388350005E+01
 0.1779237120899E+01
 0.1783120638720E+01
 0.1766629936785E+01
 0.1735153229775E+01
 0.1693204207498E+01
 0.1644044348116E+01
 0.1589853813862E+01
 0.1532020744015E+01
 0.1471399397944E+01
 0.1408518587608E+01
 0.1343753011216E+01
 0.1277459964068E+01
 0.1210176645276E+01
 0.1142684275320E+01
 0.1075605629540E+01
 0.1009076419638E+01
 0.9428318177548E+00
 0.8763756509546E+00
 0.8091285680273E+00
 0.7405289980219E+00
 0.6700832542234E+00
 0.5973815569796E+00
 0.5220999219255E+00
 0.4439854585599E+00
 0.3628773582278E+00
 0.2788470019064E+00
 0.1925429768538E+00
 0.1067812817134E+00
 0.4751734610346E-01
 0.1021281603744E+00
 0.1880171441618E+00
 0.2727380180440E+00
 0.3498542112812E+00
 0.4143238173247E+00
 0.4607396636827E+00
 0.4839501632040E+00
 0.4799806641937E+00
 0.1663061497163E+01
 0.1745439473916E+01
 0.1824748928994E+01
 0.1881733154047E+01
 0.1908774835855E+01
 0.1908093446732E+01
 0.1886069302114E+01
 0.1849130755044E+01
 0.1802191917519E+01
 0.1748564958628E+01
 0.1690339467447E+01
 0.1628773297334E+01
 0.1564588522295E+01
 0.1498192160390E+01
 0.1429857140881E+01
 0.1359874475646E+01
 0.1288769161917E+01
 0.1217362461212E+01
 0.1146328922011E+01
 0.1075831198371E+01
 0.1005608342825E+01
 0.9351669391510E+00
 0.8639507897599E+00
 0.7914511744668E+00
 0.7172535397385E+00
 0.6410425957339E+00
 0.5625902648534E+00
 0.4817259436894E+00
 0.3983415507475E+00
 0.3125031010624E+00
 0.2246851680788E+00
 0.1365675121087E+00
 0.5844195622763E-01
 0.7332110559321E-01
 0.1545708997219E+00
 0.2375046806094E+00
 0.3130123700019E+00
 0.3756604090829E+00
 0.4198712335782E+00
 0.4406839997341E+00
 0.4349924735408E+00
 0.1777291743298E+01
 0.1871356648385E+01
 0.1958979325077E+01
 0.2017977522602E+01
 0.2041739517353E+01
 0.2035129140303E+01
 0.2006631417692E+01
 0.1963693966154E+01
 0.1911502852885E+01
 0.1853307701862E+01
 0.1791035726274E+01
 0.1725774474008E+01
 0.1658091347618E+01
 0.1588255520014E+01
 0.1516422645458E+01
 0.1442803380844E+01
 0.1367902972604E+01
 0.1292583045508E+01
 0.1217571739228E+01
 0.1143055591230E+01
 0.1068771028939E+01
 0.9942234539813E+00
 0.9188822129244E+00
 0.8422996154514E+00
 0.7641516396048E+00
 0.6842298945788E+00
 0.6024144822650E+00
 0.5186293563941E+00
 0.4328338986168E+00
 0.3451150819185E+00
 0.2558581049684E+00
 0.1661872513578E+00
 0.8079518070983E-01
 0.5058633424788E-01
 0.1223539957746E+00
 0.2031730807490E+00
 0.2770430590487E+00
 0.3379086479156E+00
 0.3798828211009E+00
 0.3980733543715E+00
 0.3905435712023E+00
 0.1895986858793E+01
 0.2003481026500E+01
 0.2099751498872E+01
 0.2159446697950E+01
 0.2178023882914E+01
 0.2163925998727E+01
 0.2128004712123E+01
 0.2078596751524E+01
 0.2020965674279E+01
 0.1958162841540E+01
 0.1891878954577E+01
 0.1822995225438E+01
 0.1751907083212E+01
 0.1678733788496E+01
 0.1603499325693E+01
 0.1526318288590E+01
 0.1447666578090E+01
 0.1368445731172E+01
 0.1289438647638E+01
 0.1210850919124E+01
 0.1132408229324E+01
 0.1053611196037E+01
 0.9739592911221E+00
 0.8930766565661E+00
 0.8107431896876E+00
 0.7268710473437E+00
 0.6414616062499E+00
 0.5545462559786E+00
 0.4661666659235E+00
 0.3764537157165E+00
 0.2857588939421E+00
 0.1949175478909E+00
 0.1064869966058E+00
 0.4222920639712E-01
 0.9186383520666E-01
 0.1699351446515E+00
 0.2420882224807E+00
 0.3011969220943E+00
 0.3408737098710E+00
 0.3560823694513E+00
 0.3463977539058E+00
 0.2020034103919E+01
 0.2143020557036E+01
 0.2247981418473E+01
 0.2306367425099E+01
 0.2317342127094E+01
 0.2294039681442E+01
 0.2249798255914E+01
 0.2193557904361E+01
 0.2130396460176E+01
 0.2063017672300E+01
 0.1992805681809E+01
 0.1920406806523E+01
 0.1846034656666E+01
 0.1769652271889E+01
 0.1691139582538E+01
 0.1610497346097E+01
 0.1528159332927E+01
 0.1445064786474E+01
 0.1362050989824E+01
 0.1279335115675E+01
 0.1196622263315E+01
 0.1113405951443E+01
 0.1029223796403E+01
 0.9437858994214E+00
 0.8569914328204E+00
 0.7688875850455E+00
 0.6796105142980E+00
 0.5893123094711E+00
 0.4981320963467E+00
 0.4062664693681E+00
 0.3140754174960E+00
 0.2222473238178E+00
 0.1324030824150E+00
 0.5288904505022E-01
 0.6407299658352E-01
 0.1380057766406E+00
 0.2082798171711E+00
 0.2656432777890E+00
 0.3029637282053E+00
 0.3146911460709E+00
 0.3022378053069E+00
 0.2150618679904E+01
 0.2291526161504E+01
 0.2404675646520E+01
 0.2458774938837E+01
 0.2459157708334E+01
 0.2424860803002E+01
 0.2371546011481E+01
 0.2308270594164E+01
 0.2239606393856E+01
 0.2167761793159E+01
 0.2093755846917E+01
 0.2017982258113E+01
 0.1940472633388E+01
 0.1861035327685E+01
 0.1779397239727E+01
 0.1695425089274E+01
 0.1609492897707E+01
 0.1522571988456E+01
 0.1435550550609E+01
 0.1348645988641E+01
 0.1261531460422E+01
 0.1173694062497E+01
 0.1084722812500E+01
 0.9944319884986E+00
 0.9028570871095E+00
 0.8101949451424E+00
 0.7167298183163E+00
 0.6227478257153E+00
 0.5285011898094E+00
 0.4342743237690E+00
 0.3404724905353E+00
 0.2477257532253E+00
 0.1572044420875E+00
 0.7272836387614E-01
 0.4159157288444E-01
 0.1076414705263E+00
 0.1757292430841E+00
 0.2313353566086E+00
 0.2662891832359E+00
 0.2739112244385E+00
 0.2576528492522E+00
 0.2289369993271E+01
 0.2451011962124E+01
 0.2570871764707E+01
 0.2616363581701E+01
 0.2602596955764E+01
 0.2555604161843E+01
 0.2492722001023E+01
 0.2422416628555E+01
 0.2348411291166E+01
 0.2272293193434E+01
 0.2194676424760E+01
 0.2115698013426E+01
 0.2035218884116E+01
 0.1952904496624E+01
 0.1868325417282E+01
 0.1781191707728E+01
 0.1691792905997E+01
 0.1601120537088E+01
 0.1510104419449E+01
 0.1418945269158E+01
 0.1327272345383E+01
 0.1234572919652E+01
 0.1140508391198E+01
 0.1045020223440E+01
 0.9482982764628E+00
 0.8507026626392E+00
 0.7526780173050E+00
 0.6546574862194E+00
 0.5570225748207E+00
 0.4601689559427E+00
 0.3645830911712E+00
 0.2709026285943E+00
 0.1800808864431E+00
 0.9426462091033E-01
 0.3199080093782E-01
 0.7919503112612E-01
 0.1445158267119E+00
 0.1982939431635E+00
 0.2309828490307E+00
 0.2338099310060E+00
 0.2121387109121E+00
 0.2438602976733E+01
 0.2624115472791E+01
 0.2747489349129E+01
 0.2778254495275E+01
 0.2746360340016E+01
 0.2685323077540E+01
 0.2612769102475E+01
 0.2535684801208E+01
 0.2456642552811E+01
 0.2376524921473E+01
 0.2295525324077E+01
 0.2213535667375E+01
 0.2130270029250E+01
 0.2045275675584E+01
 0.1957972962359E+01
 0.1867891309410E+01
 0.1775200890428E+01
 0.1680890426496E+01
 0.1585911557189E+01
 0.1490423603705E+01
 0.1394001783705E+01
 0.1296150908277E+01
 0.1196636689186E+01
 0.1095555941461E+01
 0.9932705547726E+00
 0.8903148721922E+00
 0.7873040090263E+00
 0.6848303368495E+00
 0.5834215014288E+00
 0.4836101208152E+00
 0.3860018018070E+00
 0.2912995087963E+00
 0.2003755457147E+00
 0.1146684587363E+00
 0.4057062234878E-01
 0.5330131368228E-01
 0.1146810742993E+00
 0.1664139636800E+00
 0.1971202653716E+00
 0.1945417364608E+00
 0.1651635583471E+00
 0.2601733618853E+01
 0.2814295994312E+01
 0.2934995971420E+01
 0.2942652028163E+01
 0.2888664840397E+01
 0.2812966637682E+01
 0.2731140514623E+01
 0.2647791584608E+01
 0.2564159118239E+01
 0.2480391969599E+01
 0.2396275406842E+01
 0.2311484014837E+01
 0.2225620826689E+01
 0.2138155126524E+01
 0.2048378686682E+01
 0.1955618465083E+01
 0.1859876537429E+01
 0.1762096100405E+01
 0.1663211841834E+01
 0.1563306617108E+01
 0.1461898742148E+01
 0.1358546437504E+01
 0.1253166379069E+01
 0.1146043616047E+01
 0.1037727088320E+01
 0.9289312630902E+00
 0.8204480990700E+00
 0.7130401073020E+00
 0.6073989632276E+00
 0.5042231766869E+00
 0.4042793564820E+00
 0.3083926373507E+00
 0.2174523926996E+00
 0.1325892208954E+00
 0.5661603047574E-01
 0.3170129673644E-01
 0.8624878214280E-01
 0.1353814145883E+00
 0.1645983971376E+00
 0.1563724872802E+00
 0.1165719720835E+00
 0.2784031475748E+01
 0.3026028584327E+01
 0.3132694458462E+01
 0.3106384010979E+01
 0.3027292254937E+01
 0.2937493357989E+01
 0.2847345598478E+01
 0.2758502750733E+01
 0.2670859975709E+01
 0.2583857778401E+01
 0.2496918471962E+01
 0.2409541520794E+01
 0.2321263927012E+01
 0.2231534252272E+01
 0.2139562252665E+01
 0.2044461726438E+01
 0.1946000383082E+01
 0.1844997848084E+01
 0.1742298766270E+01
 0.1637862030505E+01
 0.1531165034008E+01
 0.1421885560070E+01
 0.1310156125920E+01
 0.1196485631896E+01
 0.1081619094433E+01
 0.9664487040845E+00
 0.8519437101455E+00
 0.7390459139370E+00
 0.6286309093055E+00
 0.5215967550193E+00
 0.4189179414276E+00
 0.3216010168986E+00
 0.2306380645820E+00
 0.1470666894379E+00
 0.7251527968488E-01
 0.2103694931771E-01
 0.5933333422219E-01
 0.1045881530695E+00
 0.1328904197654E+00
 0.1196485592592E+00
 0.6942023149065E-01
 0.2994068882324E+01
 0.3264799463616E+01
 0.3337244403593E+01
 0.3264435235583E+01
 0.3159878583654E+01
 0.3058022106130E+01
 0.2960986133499E+01
 0.2867657645609E+01
 0.2776695655479E+01
 0.2686919799825E+01
 0.2597469021633E+01
 0.2507719351137E+01
 0.2417190864295E+01
 0.2325383509642E+01
 0.2231509921956E+01
 0.2134491625676E+01
 0.2033777154774E+01
 0.1929919622139E+01
 0.1823537522565E+01
 0.1714407387659E+01
 0.1602023969351E+01
 0.1486297606975E+01
 0.1367660964024E+01
 0.1246880703327E+01
 0.1124896654695E+01
 0.1002763872191E+01
 0.8816201055073E+00
 0.7625933563887E+00
 0.6467673991222E+00
 0.5352806242814E+00
 0.4293673334464E+00
 0.3302773027412E+00
 0.2391898742337E+00
 0.1572051653139E+00
 0.8555239554660E-01
 0.2815503987632E-01
 0.3461993489754E-01
 0.7316131675437E-01
 0.1006219386165E+00
 0.8459495374826E-01
 0.5269257085806E-01
 0.3246739379989E+01
 0.3536144896601E+01
 0.3539703845375E+01
 0.3409981628994E+01
 0.3284586002691E+01
 0.3173915580347E+01
 0.3071789221221E+01
 0.2975197390620E+01
 0.2881674986244E+01
 0.2789614643929E+01
 0.2697967182467E+01
 0.2606044970201E+01
 0.2513395725465E+01
 0.2419647061045E+01
 0.2324152487999E+01
 0.2225738102807E+01
 0.2123440208791E+01
 0.2017278491749E+01
 0.1907390846418E+01
 0.1793316861856E+01
 0.1674715231441E+01
 0.1551908300864E+01
 0.1425727521269E+01
 0.1297221887581E+01
 0.1167509984696E+01
 0.1037777418478E+01
 0.9093066618423E+00
 0.7834158821170E+00
 0.6614313336700E+00
 0.5447838801179E+00
 0.4350224119624E+00
 0.3337008911635E+00
 0.2422748725377E+00
 0.1620504778543E+00
 0.9423935999844E-01
 0.4057638665016E-01
 0.1681499545289E-01
 0.4075585163409E-01
 0.6523811753940E-01
 0.5091117632046E-01
 0.1053360838577E+00
 0.3570243674996E+01
 0.3840693216743E+01
 0.3720252951083E+01
 0.3536563062708E+01
 0.3400858684111E+01
 0.3284653399019E+01
 0.3179709819717E+01
 0.3081168475008E+01
 0.2985872374971E+01
 0.2892021429134E+01
 0.2798480469489E+01
 0.2704565653240E+01
 0.2609883246348E+01
 0.2514242959137E+01
 0.2417331864341E+01
 0.2318146256481E+01
 0.2215258306911E+01
 0.2107636559351E+01
 0.1994455026205E+01
 0.1875023211001E+01
 0.1749483845854E+01
 0.1618830060567E+01
 0.1484388241752E+01
 0.1347494109326E+01
 0.1209411009096E+01
 0.1071400571117E+01
 0.9348397380037E+00
 0.8012358890159E+00
 0.6722159580990E+00
 0.5495738929819E+00
 0.4352230708503E+00
 0.3310739578065E+00
 0.2389542016360E+00
 0.1605315994353E+00
 0.9727647256224E-01
 0.5055608460578E-01
 0.2271609654982E-01
 0.1847099096352E-01
 0.2955853152020E-01
 0.2370523216131E-01
 0.1944708015445E+00
 0.4024873480227E+01
 0.4151455830692E+01
 0.3843883189064E+01
 0.3645537612562E+01
 0.3508050390990E+01
 0.3390141394426E+01
 0.3284962543844E+01
 0.3185712730252E+01
 0.3089438813743E+01
 0.2994259946957E+01
 0.2899105754110E+01
 0.2803349830360E+01
 0.2706681216165E+01
 0.2609081275865E+01
 0.2510754528494E+01
 0.2411483034377E+01
 0.2309549069645E+01
 0.2201799667063E+01
 0.2085504456999E+01
 0.1960006764882E+01
 0.1826561748283E+01
 0.1687149428406E+01
 0.1543655150340E+01
 0.1397671195313E+01
 0.1250554199416E+01
 0.1103565793342E+01
 0.9580745735153E+00
 0.8157637330535E+00
 0.6786795129290E+00
 0.5490775578713E+00
 0.4292578781756E+00
 0.3215229986110E+00
 0.2281715895255E+00
 0.1514282433214E+00
 0.9326154127308E-01
 0.5541844135083E-01
 0.3871549725146E-01
 0.4367711740587E-01
 0.6350933918769E-01
 0.6387396383488E-01
 0.3255147119573E+00
 0.4765882633669E+01
 0.4298081967422E+01
 0.3906775311485E+01
 0.3742568441736E+01
 0.3604526695398E+01
 0.3491472793044E+01
 0.3387759822285E+01
 0.3289149689022E+01
 0.3192577611884E+01
 0.3096495421422E+01
 0.2999967781438E+01
 0.2902488298028E+01
 0.2803845004595E+01
 0.2704126809312E+01
 0.2603950609470E+01
 0.2505114401184E+01
 0.2406718284119E+01
 0.2301022601308E+01
 0.2181518395109E+01
 0.2048763962022E+01
 0.1906141240397E+01
 0.1756911970174E+01
 0.1603513848022E+01
 0.1447713822443E+01
 0.1290892385217E+01
 0.1134244382171E+01
 0.9789094258103E+00
 0.8266875309815E+00
 0.6803351832979E+00
 0.5426888332384E+00
 0.4163741907862E+00
 0.3041064304951E+00
 0.2087648819394E+00
 0.1333228944808E+00
 0.8067550068252E-01
 0.5300520455185E-01
 0.5232098262251E-01
 0.7675148671307E-01
 0.1429681571041E+00
 0.1967383165605E+00
 0.5666029244790E+00
 0.1804574731533E+00
 0.2598419770879E+00
 0.3506172555177E+00
 0.4399544516814E+00
 0.5199983001333E+00
 0.5867807751854E+00
 0.6389446695320E+00
 0.6767790477690E+00
 0.7014501288123E+00
 0.7143943057731E+00
 0.7168685324998E+00
 0.7096330871793E+00
 0.6931128183233E+00
 0.6677427092079E+00
 0.6339776844503E+00
 0.5923148486482E+00
 0.5432971470953E+00
 0.4874609910434E+00
 0.4259668455039E+00
 0.3555018557336E+00
 0.1773657831011E+00
 0.2550092560039E+00
 0.3435251112771E+00
 0.4313413833366E+00
 0.5110268077982E+00
 0.5785487061853E+00
 0.6322926094152E+00
 0.6722263171043E+00
 0.6992172923903E+00
 0.7144721278692E+00
 0.7190974776305E+00
 0.7137826975623E+00
 0.6989339518748E+00
 0.6749466038912E+00
 0.6422321953673E+00
 0.6013082402891E+00
 0.5527268607565E+00
 0.4971509147538E+00
 0.4331689290303E+00
 0.3574483455964E+00
 0.1748947980020E+00
 0.2513754337972E+00
 0.3380739150101E+00
 0.4245723402068E+00
 0.5038860980242E+00
 0.5719993659061E+00
 0.6271061580917E+00
 0.6689104720637E+00
 0.6980197546923E+00
 0.7154267852075E+00
 0.7220842193536E+00
 0.7186107894050E+00
 0.7053810931130E+00
 0.6827492235794E+00
 0.6511018998422E+00
 0.6109225904809E+00
 0.5627118764114E+00
 0.5064334772887E+00
 0.4402395692120E+00
 0.3647263485134E+00
 0.1728839488437E+00
 0.2487816769135E+00
 0.3340800455675E+00
 0.4194694811519E+00
 0.4984299901918E+00
 0.5670215329310E+00
 0.6233097833424E+00
 0.6667850067913E+00
 0.6978289845301E+00
 0.7172375341495E+00
 0.7258170750787E+00
 0.7241109203060E+00
 0.7124550477436E+00
 0.6911635304781E+00
 0.6605840109816E+00
 0.6211309887757E+00
 0.5730667753224E+00
 0.5160130817171E+00
 0.4490319821762E+00
 0.3741814196177E+00
 0.1712495262219E+00
 0.2470618310729E+00
 0.3313684892074E+00
 0.4158640835804E+00
 0.4945137279449E+00
 0.5635024935706E+00
 0.6208219088923E+00
 0.6657941505337E+00
 0.6986070927396E+00
 0.7198786743029E+00
 0.7302783725427E+00
 0.7302723289631E+00
 0.7201527403445E+00
 0.7001883017856E+00
 0.6706713930589E+00
 0.6318990921595E+00
 0.5839483863174E+00
 0.5265159516094E+00
 0.4593739145701E+00
 0.3850967445505E+00
 0.1699292685503E+00
 0.2460848460865E+00
 0.3297760742238E+00
 0.4135962015635E+00
 0.4919964483861E+00
 0.5613283305982E+00
 0.6195561607581E+00
 0.6658750120579E+00
 0.7003091699130E+00
 0.7233181956411E+00
 0.7354451731989E+00
 0.7370793472661E+00
 0.7284641695307E+00
 0.7098161091057E+00
 0.6813560528112E+00
 0.6432693644176E+00
 0.5955660278384E+00
 0.5381048896855E+00
 0.4711229740283E+00
 0.3972577486157E+00
 0.1688739713900E+00
 0.2457416969139E+00
 0.3291580795886E+00
 0.4125155916548E+00
 0.4907418379587E+00
 0.5603850219227E+00
 0.6194225148574E+00
 0.6669591181958E+00
 0.7028841046743E+00
 0.7275181411755E+00
 0.7412890552256E+00
 0.7445107214697E+00
 0.7373737882066E+00
 0.7200365898657E+00
 0.6926465893356E+00
 0.6553110213108E+00
 0.6080331736835E+00
 0.5508228251302E+00
 0.4841862995733E+00
 0.4106214461408E+00
 0.1680427181171E+00
 0.2459399366007E+00
 0.3293858539838E+00
 0.4124829281563E+00
 0.4906187415922E+00
 0.5605592640238E+00
 0.6203283641976E+00
 0.6689734009362E+00
 0.7062753142945E+00
 0.7324348996115E+00
 0.7477760511882E+00
 0.7525398763128E+00
 0.7468617863237E+00
 0.7308406238112E+00
 0.7045592003551E+00
 0.6680740860360E+00
 0.6214041193804E+00
 0.5646697832738E+00
 0.4985129937333E+00
 0.4252025278291E+00
 0.1674003906853E+00
 0.2465994592850E+00
 0.3303443729760E+00
 0.4133692080020E+00
 0.4915016224739E+00
 0.5617391225825E+00
 0.6221793229434E+00
 0.6718409765582E+00
 0.7104213142621E+00
 0.7380195151352E+00
 0.7548668537057E+00
 0.7611353693157E+00
 0.7569052040184E+00
 0.7422185958406E+00
 0.7171042388708E+00
 0.6815848692760E+00
 0.6356967678131E+00
 0.5796302784003E+00
 0.5140760306399E+00
 0.4410378861720E+00
 0.1669161140238E+00
 0.2476495927550E+00
 0.3319298845956E+00
 0.4150547495902E+00
 0.4932705380055E+00
 0.5638145000695E+00
 0.6248798502689E+00
 0.6754817629830E+00
 0.7152562051683E+00
 0.7442180296021E+00
 0.7625171065391E+00
 0.7702612453098E+00
 0.7674775383395E+00
 0.7541563993002E+00
 0.7302810919321E+00
 0.6958486889034E+00
 0.6509062480635E+00
 0.5956806240087E+00
 0.5308576181105E+00
 0.4581716570513E+00
 0.1665622229209E+00
 0.2490269862833E+00
 0.3340479250864E+00
 0.4174280584732E+00
 0.4958108572332E+00
 0.5666773762676E+00
 0.6283337187155E+00
 0.6798129798355E+00
 0.7207101051464E+00
 0.7509718258547E+00
 0.7706776601420E+00
 0.7798769867792E+00
 0.7785475172427E+00
 0.7666328922802E+00
 0.7440769403250E+00
 0.7108537343329E+00
 0.6670119027485E+00
 0.6127899746213E+00
 0.5488383048459E+00
 0.4766343002740E+00
 0.1663135430533E+00
 0.2506740551997E+00
 0.3366116888525E+00
 0.4203847415890E+00
 0.4990128456692E+00
 0.5702218885537E+00
 0.6324443506427E+00
 0.6847495595933E+00
 0.7267095317469E+00
 0.7582179289823E+00
 0.7792946947451E+00
 0.7899371722505E+00
 0.7900780426676E+00
 0.7796186944704E+00
 0.7584671679483E+00
 0.7265741328090E+00
 0.6839807328123E+00
 0.6309196071503E+00
 0.5679891995009E+00
 0.4964333430229E+00
 0.1661468722420E+00
 0.2525378142643E+00
 0.3395407069027E+00
 0.4238265296619E+00
 0.5027712054805E+00
 0.5743443081006E+00
 0.6371150563098E+00
 0.6902044888941E+00
 0.7331777382587E+00
 0.7658892541081E+00
 0.7883097507635E+00
 0.8003911406116E+00
 0.8020255633004E+00
 0.7930758883082E+00
 0.7734162942913E+00
 0.7429721258284E+00
 0.7017691219950E+00
 0.6500218765961E+00
 0.5882694744231E+00
 0.5175533323891E+00
 0.1660405980873E+00
 0.2545689926340E+00
 0.3427597811185E+00
 0.4276604266860E+00
 0.5069846205236E+00
 0.5789429565783E+00
 0.6422491998738E+00
 0.6960890902067E+00
 0.7400350018530E+00
 0.7739148053196E+00
 0.7976597396581E+00
 0.8111827813880E+00
 0.8143398312474E+00
 0.8069581935209E+00
 0.7888789546811E+00
 0.7599995673781E+00
 0.7203237405649E+00
 0.6700397991800E+00
 0.6096263331022E+00
 0.5399571660417E+00
 0.1659744120853E+00
 0.2567213572948E+00
 0.3461981285098E+00
 0.4317979865673E+00
 0.5115553352715E+00
 0.5839180970930E+00
 0.6477503188328E+00
 0.7023132594781E+00
 0.7471988771965E+00
 0.7822198584312E+00
 0.8072769964241E+00
 0.8222504875751E+00
 0.8269639400344E+00
 0.8212113702978E+00
 0.8048007947929E+00
 0.7775990003089E+00
 0.7395822035952E+00
 0.6909071561157E+00
 0.6319950380410E+00
 0.5635871053181E+00
 0.1659290944294E+00
 0.2589511944592E+00
 0.3497886976923E+00
 0.4361547093465E+00
 0.5163887836008E+00
 0.5891718238872E+00
 0.6535222193030E+00
 0.7087856780518E+00
 0.7545844362427E+00
 0.7907261586057E+00
 0.8170894051667E+00
 0.8335272602317E+00
 0.8398345522516E+00
 0.8357737273363E+00
 0.8211192717935E+00
 0.7957045190006E+00
 0.7594736880319E+00
 0.7125487341446E+00
 0.6552989527994E+00
 0.5883658801315E+00
 0.1658863505656E+00
 0.2612169116372E+00
 0.3534676251869E+00
 0.4406495441189E+00
 0.5213932725403E+00
 0.5946079648088E+00
 0.6594690623108E+00
 0.7154140129975E+00
 0.7621045093990E+00
 0.7993521484392E+00
 0.8270206002397E+00
 0.8449409309207E+00
 0.8528822426074E+00
 0.8505766676389E+00
 0.8377643793123E+00
 0.8142425193080E+00
 0.7799195123931E+00
 0.7348806314898E+00
 0.6794498217321E+00
 0.6141981596021E+00
 0.1658286879518E+00
 0.2634787337506E+00
 0.3571738064258E+00
 0.4452044863692E+00
 0.5264797223957E+00
 0.6001320063505E+00
 0.6654954537870E+00
 0.7221051187249E+00
 0.7696699400358E+00
 0.8080132335128E+00
 0.8369902348014E+00
 0.8564144693591E+00
 0.8660319075774E+00
 0.8655452405693E+00
 0.8546593136412E+00
 0.8331323749414E+00
 0.8008336935772E+00
 0.7578106575873E+00
 0.7043483540396E+00
 0.6409722826657E+00
 0.1657393235883E+00
 0.2656984730163E+00
 0.3608485607646E+00
 0.4497442579437E+00
 0.5315614622967E+00
 0.6056510481883E+00
 0.6715065491541E+00
 0.7287652518609E+00
 0.7771898628922E+00
 0.8166220903376E+00
 0.8469143101977E+00
 0.8678663565096E+00
 0.8792032190282E+00
 0.8805986945589E+00
 0.8717211014041E+00
 0.8522870755743E+00
 0.8221235255901E+00
 0.7812388699810E+00
 0.7298850592929E+00
 0.6685622741935E+00
 0.1656021155153E+00
 0.2678393569937E+00
 0.3644353733151E+00
 0.4541960582237E+00
 0.5365540778094E+00
 0.6110737903499E+00
 0.6774081791395E+00
 0.7353003065838E+00
 0.7845720111856E+00
 0.8250890156044E+00
 0.8567055561977E+00
 0.8792110055023E+00
 0.8923111047349E+00
 0.8956510243084E+00
 0.8888611961511E+00
 0.8716138407264E+00
 0.8436902050778E+00
 0.8050582697569E+00
 0.7559412643135E+00
 0.6968299633215E+00
 0.1654015129992E+00
 0.2698659024128E+00
 0.3678796992613E+00
 0.4584893760280E+00
 0.5413753063420E+00
 0.6163105541619E+00
 0.6831070011189E+00
 0.7416160752858E+00
 0.7917230552496E+00
 0.8333223151124E+00
 0.8662738548174E+00
 0.8903592195165E+00
 0.9052662468931E+00
 0.9106115113310E+00
 0.9059860517452E+00
 0.8910147183026E+00
 0.8654294978093E+00
 0.8291556839170E+00
 0.7823903267559E+00
 0.7256266910743E+00
 0.1651225211988E+00
 0.2717438247189E+00
 0.3711288184430E+00
 0.4625558525681E+00
 0.5459449753968E+00
 0.6212733364445E+00
 0.6885106781872E+00
 0.7476185373689E+00
 0.7985489740981E+00
 0.8412287308531E+00
 0.8755267030005E+00
 0.9012186804560E+00
 0.9179755945125E+00
 0.9253852589696E+00
 0.9229976792981E+00
 0.9103871746607E+00
 0.8872324228981E+00
 0.8534127621594E+00
 0.8090992365999E+00
 0.7547948103552E+00
 0.1647506767111E+00
 0.2734399748048E+00
 0.3741317294694E+00
 0.4663291863344E+00
 0.5501849781404E+00
 0.6258758949733E+00
 0.6935280862933E+00
 0.7532141772369E+00
 0.8049554603022E+00
 0.8487139051270E+00
 0.8843697116063E+00
 0.9116944656508E+00
 0.9303428885953E+00
 0.9398737237405E+00
 0.9397941920369E+00
 0.9296246793442E+00
 0.9089859463752E+00
 0.8777069536013E+00
 0.8359305124626E+00
 0.7841715329311E+00
 0.1642720308669E+00
 0.2749222954419E+00
 0.3768390736954E+00
 0.4697450712281E+00
 0.5540192803196E+00
 0.6300338620472E+00
 0.6980695482138E+00
 0.7583103310988E+00
 0.8108483577916E+00
 0.8556828809824E+00
 0.8927071398923E+00
 0.9216895923039E+00
 0.9422692008930E+00
 0.9539752446051E+00
 0.9562703389488E+00
 0.9486172825757E+00
 0.9305736787888E+00
 0.9019124649596E+00
 0.8627438759362E+00
 0.8135930508941E+00
 0.1636731379213E+00
 0.2761597905592E+00
 0.3792030801598E+00
 0.4727411596615E+00
 0.5573739523523E+00
 0.6336648822120E+00
 0.7020470920351E+00
 0.7628155612040E+00
 0.8161341318628E+00
 0.8620406390518E+00
 0.9004424667324E+00
 0.9311055922625E+00
 0.9536534896646E+00
 0.9675855728487E+00
 0.9723180265290E+00
 0.9672521796475E+00
 0.9518765699316E+00
 0.9259012269027E+00
 0.8893975609021E+00
 0.8428963718201E+00
 0.1629410452414E+00
 0.2771225007405E+00
 0.3811775229651E+00
 0.4752570425776E+00
 0.5601772202153E+00
 0.6366887694603E+00
 0.7053747306845E+00
 0.7666400549825E+00
 0.8207203699863E+00
 0.8676926711193E+00
 0.9074790012212E+00
 0.9398431219644E+00
 0.9643931781662E+00
 0.9805984063413E+00
 0.9878268269293E+00
 0.9854142518904E+00
 0.9727735860089E+00
 0.9495438167754E+00
 0.9157495225936E+00
 0.8719207186671E+00
 0.1620632824401E+00
 0.2777814782311E+00
 0.3827176827639E+00
 0.4772342386033E+00
 0.5623595287397E+00
 0.6390276786776E+00
 0.7079687579739E+00
 0.7696960452196E+00
 0.8245163108973E+00
 0.8725455903969E+00
 0.9137205360882E+00
 0.9478026142531E+00
 0.9743847638848E+00
 0.9929059336960E+00
 0.1002684470166E+01
 0.1002986570603E+01
 0.9931423351043E+00
 0.9727103231505E+00
 0.9416585941484E+00
 0.9005087763638E+00
 0.1610278459499E+00
 0.2781087541519E+00
 0.3837803039893E+00
 0.4786161849566E+00
 0.5638536112429E+00
 0.6406062858730E+00
 0.7097480556423E+00
 0.7718982458761E+00
 0.8274333978580E+00
 0.8765077774407E+00
 0.9190720474071E+00
 0.9548849801307E+00
 0.9835244688279E+00
 0.1004399395990E+01
 0.1016777318869E+01
 0.1019850844319E+01
 0.1012859607192E+01
 0.9952711192496E+00
 0.9669855474173E+00
 0.9285077804496E+00
 0.1598231753903E+00
 0.2780772898739E+00
 0.3843235396280E+00
 0.4793482235845E+00
 0.5645945603650E+00
 0.6413519719900E+00
 0.7106344051523E+00
 0.7731642966946E+00
 0.8293858504950E+00
 0.8794900600961E+00
 0.9234404455794E+00
 0.9609923730394E+00
 0.9917089491435E+00
 0.1014969684421E+01
 0.1029990836229E+01
 0.1035887804197E+01
 0.1031801800659E+01
 0.1017097508966E+01
 0.9915940224057E+00
 0.9557704299333E+00
 0.1584381144542E+00
 0.2776609020537E+00
 0.3843068740756E+00
 0.4793775764009E+00
 0.5645198956881E+00
 0.6411950048509E+00
 0.7105527961008E+00
 0.7734152061827E+00
 0.8302912448479E+00
 0.8814064205673E+00
 0.9267353775089E+00
 0.9660290242108E+00
 0.9988360800376E+00
 0.1024507990610E+01
 0.1042210053395E+01
 0.1050977516403E+01
 0.1049845192332E+01
 0.1038062151935E+01
 0.1015351281378E+01
 0.9821554669790E+00
 0.1568618498811E+00
 0.2768341492038E+00
 0.3836910162195E+00
 0.4786533074434E+00
 0.5635696280925E+00
 0.6400687166978E+00
 0.7094317237839E+00
 0.7725757812199E+00
 0.8300710887532E+00
 0.8821747201431E+00
 0.9288700783899E+00
 0.9699021583897E+00
 0.1004805836740E+01
 0.1032906536981E+01
 0.1053320053996E+01
 0.1064999613300E+01
 0.1066866028530E+01
 0.1058039169896E+01
 0.1038128566741E+01
 0.1007527728194E+01
 0.1550838159720E+00
 0.2755721619165E+00
 0.3824377539396E+00
 0.4771262730057E+00
 0.5616863245034E+00
 0.6379096763825E+00
 0.7072034671813E+00
 0.7705750279130E+00
 0.8286513747746E+00
 0.8817174277287E+00
 0.9297622696493E+00
 0.9725230010794E+00
 0.1009521300872E+01
 0.1040059435289E+01
 0.1063206530232E+01
 0.1077833460838E+01
 0.1082740422324E+01
 0.1076903986306E+01
 0.1059800701075E+01
 0.1031756155081E+01
 0.1530935443051E+00
 0.2738503916024E+00
 0.3805097628104E+00
 0.4747490679101E+00
 0.5588151830333E+00
 0.6346578567530E+00
 0.7038043358306E+00
 0.7673465016240E+00
 0.8259630827103E+00
 0.8799623265775E+00
 0.9293350890835E+00
 0.9738078794816E+00
 0.1012889812700E+01
 0.1045863722504E+01
 0.1071756485734E+01
 0.1089358322928E+01
 0.1097343973985E+01
 0.1094532885085E+01
 0.1080245274004E+01
 0.1054709391728E+01
 0.1508804217504E+00
 0.2716442407634E+00
 0.3778703685387E+00
 0.4714759953514E+00
 0.5549041433452E+00
 0.6302568071631E+00
 0.6991748793744E+00
 0.7628285878632E+00
 0.8219426018203E+00
 0.8768431663976E+00
 0.9275180339850E+00
 0.9736794152918E+00
 0.1014824277651E+01
 0.1050220600918E+01
 0.1078859171394E+01
 0.1099453619867E+01
 0.1110551104565E+01
 0.1110801761460E+01
 0.1099342354959E+01
 0.1076257135200E+01
 0.1484333019546E+00
 0.2689285152369E+00
 0.3744832868149E+00
 0.4672631122358E+00
 0.5499040703425E+00
 0.6246538307038E+00
 0.6932600457281E+00
 0.7569646854468E+00
 0.8165320278440E+00
 0.8723002025944E+00
 0.9242478774644E+00
 0.9720678192286E+00
 0.1015244645202E+01
 0.1053036903875E+01
 0.1084407360618E+01
 0.1107999577420E+01
 0.1122234274118E+01
 0.1125584048775E+01
 0.1116973440385E+01
 0.1096275186583E+01
 0.1457398225012E+00
 0.2656766253361E+00
 0.3703123915724E+00
 0.4620684923280E+00
 0.5437690432123E+00
 0.6178001726165E+00
 0.6860092763409E+00
 0.7497032913242E+00
 0.8096792961080E+00
 0.8662805514330E+00
 0.9194694838465E+00
 0.9689122856068E+00
 0.1014079648607E+01
 0.1054226704496E+01
 0.1088298946975E+01
 0.1114878584583E+01
 0.1132263719102E+01
 0.1138747545976E+01
 0.1133018571851E+01
 0.1114644798469E+01
 0.1427852028787E+00
 0.2618592561713E+00
 0.3653219305474E+00
 0.4558528323980E+00
 0.5364568444309E+00
 0.6096510885176E+00
 0.6773765609180E+00
 0.7409979865722E+00
 0.8013380996173E+00
 0.8587382328992E+00
 0.9131363913963E+00
 0.9641623886313E+00
 0.1011268955604E+01
 0.1053713310425E+01
 0.1090438104602E+01
 0.1119977797637E+01
 0.1140508946997E+01
 0.1150150805507E+01
 0.1147348674907E+01
 0.1131252420608E+01
 0.1395493444059E+00
 0.2574433756559E+00
 0.3594771942648E+00
 0.4485816188898E+00
 0.5279289006720E+00
 0.6001658305269E+00
 0.6673205504183E+00
 0.7308074066088E+00
 0.7914675604697E+00
 0.8496338276021E+00
 0.9052109194424E+00
 0.9577794056940E+00
 0.1006765624791E+01
 0.1051432445931E+01
 0.1090736245891E+01
 0.1123188838811E+01
 0.1146848383538E+01
 0.1159639540752E+01
 0.1159810835240E+01
 0.1145995926706E+01
 0.1360020773653E+00
 0.2523845449997E+00
 0.3527564941713E+00
 0.4402245735055E+00
 0.5181492770575E+00
 0.5893083103242E+00
 0.6558045942827E+00
 0.7190950460577E+00
 0.7800322724855E+00
 0.8389331628580E+00
 0.8956637186260E+00
 0.9497372199588E+00
 0.1000539027976E+01
 0.1047336013301E+01
 0.1089116802084E+01
 0.1124401651514E+01
 0.1151169609401E+01
 0.1167091562310E+01
 0.1170167983448E+01
 0.1158776697783E+01
 0.1320447616857E+00
 0.2466998221090E+00
 0.3451534397590E+00
 0.4307471613205E+00
 0.5070865907527E+00
 0.5770479037184E+00
 0.6427971123988E+00
 0.7058281412392E+00
 0.7670019389048E+00
 0.8266089678230E+00
 0.8844668023755E+00
 0.9400255672107E+00
 0.9925782448483E+00
 0.1041394526776E+01
 0.1085522368153E+01
 0.1123514080345E+01
 0.1153323971852E+01
 0.1172459850099E+01
 0.1178287860791E+01
 0.1169672463820E+01
 0.1517489743415E+01
 0.1751875900492E+01
 0.1196115419889E+01
 0.9066133138410E+00
 0.7193819862750E+00
 0.5855265170263E+00
 0.4804193706476E+00
 0.3931629557777E+00
 0.3178071092955E+00
 0.2512962910500E+00
 0.1917131622580E+00
 0.1375816672218E+00
 0.9305331989021E-01
 0.6030751423052E-01
 0.3746120428107E-01
 0.2274138013453E-01
 0.1303922735407E-01
 0.6322604564051E-02
 0.1775283127037E-02
 0.8973451328530E-03
 0.1164825014994E+01
 0.1740149997790E+01
 0.1363050674929E+01
 0.1029971083863E+01
 0.8151578874090E+00
 0.6637084072795E+00
 0.5479129111505E+00
 0.4533932341672E+00
 0.3728302320110E+00
 0.3022012328628E+00
 0.2390600592934E+00
 0.1822738288469E+00
 0.1348919440412E+00
 0.9761696681276E-01
 0.6873552300220E-01
 0.4720314998250E-01
 0.3074455002831E-01
 0.1754267958146E-01
 0.6909351505572E-02
 0.1864611509201E-02
 0.9295232736375E+00
 0.1514063758923E+01
 0.1393448384435E+01
 0.1123200160012E+01
 0.8997225182730E+00
 0.7369218873037E+00
 0.6124329616731E+00
 0.5118023705509E+00
 0.4266641556126E+00
 0.3523519295757E+00
 0.2861141665274E+00
 0.2265941472747E+00
 0.1756500489476E+00
 0.1339134831613E+00
 0.9983692783456E-01
 0.7228997210645E-01
 0.4959325651268E-01
 0.3028432551402E-01
 0.1385606503152E-01
 0.2287271990705E-02
 0.7633855514582E+00
 0.1302228840675E+01
 0.1327803603949E+01
 0.1160506306426E+01
 0.9641613616716E+00
 0.8010423500654E+00
 0.6721386731014E+00
 0.5672419761580E+00
 0.4785750941505E+00
 0.4012593675306E+00
 0.3323435280305E+00
 0.2701940403059E+00
 0.2157825407429E+00
 0.1697674842437E+00
 0.1308939327514E+00
 0.9794245721876E-01
 0.6954961689701E-01
 0.4453840957353E-01
 0.2259044661003E-01
 0.4886345552942E-02
 0.6403132941979E+00
 0.1120068467672E+01
 0.1229782806022E+01
 0.1149390656991E+01
 0.1000114430744E+01
 0.8515469727396E+00
 0.7245965724333E+00
 0.6183811626501E+00
 0.5277137878036E+00
 0.4483207548710E+00
 0.3772990856213E+00
 0.3128625238101E+00
 0.2553284332461E+00
 0.2053872066096E+00
 0.1620895335077E+00
 0.1242125500006E+00
 0.9061124854165E-01
 0.6029865179420E-01
 0.3305140318553E-01
 0.9773790246823E-02
 0.5465430149585E+00
 0.9676231139952E+00
 0.1123448363242E+01
 0.1109110477762E+01
 0.1008766927372E+01
 0.8850503122034E+00
 0.7673834327451E+00
 0.6637097366192E+00
 0.5731293322331E+00
 0.4928846107088E+00
 0.4205374639076E+00
 0.3543504758204E+00
 0.2942054291263E+00
 0.2408103099236E+00
 0.1935144612099E+00
 0.1511688937902E+00
 0.1128096252013E+00
 0.7757629848813E-01
 0.4528300766956E-01
 0.1672022982070E-01
 0.4736483037330E+00
 0.8408418012919E+00
 0.1019659930277E+01
 0.1052922689959E+01
 0.9964695137212E+00
 0.9015085011420E+00
 0.7988489902661E+00
 0.7018365711379E+00
 0.6138403495273E+00
 0.5342737625097E+00
 0.4615960433622E+00
 0.3943704346722E+00
 0.3322556874108E+00
 0.2759817858953E+00
 0.2251851633386E+00
 0.1788515334281E+00
 0.1361845296180E+00
 0.9641768850232E-01
 0.5936530197013E-01
 0.2576988719196E-01
 0.4161304165285E+00
 0.7355172113506E+00
 0.9230636062639E+00
 0.9894207849393E+00
 0.9695935187128E+00
 0.9032313083806E+00
 0.8187583258855E+00
 0.7318460668512E+00
 0.6489968857351E+00
 0.5718363862493E+00
 0.5000076739319E+00
 0.4326070325975E+00
 0.3692737798449E+00
 0.3107862035786E+00
 0.2570609899355E+00
 0.2072648110353E+00
 0.1607673909323E+00
 0.1168800105703E+00
 0.7539271757893E-01
 0.3702434250710E-01
 0.3702156146421E+00
 0.6479532279656E+00
 0.8354505834679E+00
 0.9239387612785E+00
 0.9333988627280E+00
 0.8932861042727E+00
 0.8280440965080E+00
 0.7535258328720E+00
 0.6780493365461E+00
 0.6050333538000E+00
 0.5353385701257E+00
 0.4687398705868E+00
 0.4050277243432E+00
 0.3450681831383E+00
 0.2890567236420E+00
 0.2363767156833E+00
 0.1865680137825E+00
 0.1390124279680E+00
 0.9345478862989E-01
 0.5058587433136E-01
 0.3332198263569E+00
 0.5750684857855E+00
 0.7572231434270E+00
 0.8597229003929E+00
 0.8918816259389E+00
 0.8747099555512E+00
 0.8282619553712E+00
 0.7672987400548E+00
 0.7008432628777E+00
 0.6335221610533E+00
 0.5672402248864E+00
 0.5024750847860E+00
 0.4392813812357E+00
 0.3786493482849E+00
 0.3210528216787E+00
 0.2661190639364E+00
 0.2135650250872E+00
 0.1628406546307E+00
 0.1136223028619E+00
 0.6653793352623E-01
 0.3031802364702E+00
 0.5143327391979E+00
 0.6881064833101E+00
 0.7986889238716E+00
 0.8479577283775E+00
 0.8501714111483E+00
 0.8211830864168E+00
 0.7740154150918E+00
 0.7175989686437E+00
 0.6572018987282E+00
 0.5954955048158E+00
 0.5335800347148E+00
 0.4718190392471E+00
 0.4113455973076E+00
 0.3529054472800E+00
 0.2963886526836E+00
 0.2416983326233E+00
 0.1883544258107E+00
 0.1359365671794E+00
 0.8493717722812E-01
 0.2786294085750E+00
 0.4636751148589E+00
 0.6275056464522E+00
 0.7419039956509E+00
 0.8036967746678E+00
 0.8218744878984E+00
 0.8085448897783E+00
 0.7747511451831E+00
 0.7288226535691E+00
 0.6762066004719E+00
 0.6200431397015E+00
 0.5619119573840E+00
 0.5024697077367E+00
 0.4429854502466E+00
 0.3844579692151E+00
 0.3270500871025E+00
 0.2708631583071E+00
 0.2154961387284E+00
 0.1604004983657E+00
 0.1058111770016E+00
 0.2584503095534E+00
 0.4213979046384E+00
 0.5746908850521E+00
 0.6898919164757E+00
 0.7605299644144E+00
 0.7915701590112E+00
 0.7919218418757E+00
 0.7706509241525E+00
 0.7352016808517E+00
 0.6908626929780E+00
 0.6409757586956E+00
 0.5874334724254E+00
 0.5311269413065E+00
 0.4734286374200E+00
 0.4155549514640E+00
 0.3579415452069E+00
 0.3009056728048E+00
 0.2441490442303E+00
 0.1869693313447E+00
 0.1291604976333E+00
 0.2417797275378E+00
 0.3861042116244E+00
 0.5288953542226E+00
 0.6428284847178E+00
 0.7194152963364E+00
 0.7606096234495E+00
 0.7726713881596E+00
 0.7628268400946E+00
 0.7375111885476E+00
 0.7016315900609E+00
 0.6585172363508E+00
 0.6102125189917E+00
 0.5577606479341E+00
 0.5025833593118E+00
 0.4460596898180E+00
 0.3888857032862E+00
 0.3316213980234E+00
 0.2741231719729E+00
 0.2155372237762E+00
 0.1549641015740E+00
 0.2279417692320E+00
 0.3566394007358E+00
 0.4893665537368E+00
 0.6006682564235E+00
 0.6809633889850E+00
 0.7300083868920E+00
 0.7519226045105E+00
 0.7522974205397E+00
 0.7365418490095E+00
 0.7090521646864E+00
 0.6729884831110E+00
 0.6304084540895E+00
 0.5824184674896E+00
 0.5304201898782E+00
 0.4758765882168E+00
 0.4197106575499E+00
 0.3627602403805E+00
 0.3051377710211E+00
 0.2459127917218E+00
 0.1831858798617E+00
 0.2164005581045E+00
 0.3320442066416E+00
 0.4553927819720E+00
 0.5632281727608E+00
 0.6455317294696E+00
 0.7005079174236E+00
 0.7305871831049E+00
 0.7399566746724E+00
 0.7330491591390E+00
 0.7136909798239E+00
 0.6847697218561E+00
 0.6482482544089E+00
 0.6052146918240E+00
 0.5569777015239E+00
 0.5049788664960E+00
 0.4502892916141E+00
 0.3940509112009E+00
 0.3368014142444E+00
 0.2777715385029E+00
 0.2137748451297E+00
 0.2067253093520E+00
 0.3115168518193E+00
 0.4263164373076E+00
 0.5302437874774E+00
 0.6132950675852E+00
 0.6726298428611E+00
 0.7093808156437E+00
 0.7265626166310E+00
 0.7277208476978E+00
 0.7161031814075E+00
 0.6942651533199E+00
 0.6639978716781E+00
 0.6263072219782E+00
 0.5823478859813E+00
 0.5334289913798E+00
 0.4806128644720E+00
 0.4252722957196E+00
 0.3686126186015E+00
 0.3105579687578E+00
 0.2466392960144E+00
 0.1985621202649E+00
 0.2943833464063E+00
 0.4015405654444E+00
 0.5014093146559E+00
 0.5842970380537E+00
 0.6467216622442E+00
 0.6888484982621E+00
 0.7127378510135E+00
 0.7211580247915E+00
 0.7168038780418E+00
 0.7018734258668E+00
 0.6779351203569E+00
 0.6458678291362E+00
 0.6066380660213E+00
 0.5613396839380E+00
 0.5108663685291E+00
 0.4564797427355E+00
 0.4000322659884E+00
 0.3433312913851E+00
 0.2815073258809E+00
 0.1916094803664E+00
 0.2800661561776E+00
 0.3805464291114E+00
 0.4764017139487E+00
 0.5584871869182E+00
 0.6229949371329E+00
 0.6693905270893E+00
 0.6989775155776E+00
 0.7138657670770E+00
 0.7162481550278E+00
 0.7079646064828E+00
 0.6903287791411E+00
 0.6640601532560E+00
 0.6299235301348E+00
 0.5887758723886E+00
 0.5412641164521E+00
 0.4883010867592E+00
 0.4312652321642E+00
 0.3743791352784E+00
 0.3174669684213E+00
 0.1855292787349E+00
 0.2681666878613E+00
 0.3628963698909E+00
 0.4548871209120E+00
 0.5357499635621E+00
 0.6015564778295E+00
 0.6512880905064E+00
 0.6856623989866E+00
 0.7062501994380E+00
 0.7148149854429E+00
 0.7128633666729E+00
 0.7014240732883E+00
 0.6810325458681E+00
 0.6522418457845E+00
 0.6156623593735E+00
 0.5717674362718E+00
 0.5211215749188E+00
 0.4644505618278E+00
 0.4041364187941E+00
 0.3497212428281E+00
 0.1280145158982E+00
 0.2417529147461E+00
 0.3385189011343E+00
 0.4224150891939E+00
 0.4972615480419E+00
 0.5660950252126E+00
 0.6311761522632E+00
 0.6940568901367E+00
 0.7556089275480E+00
 0.8161008916468E+00
 0.8753192825099E+00
 0.9326952901523E+00
 0.9873694799728E+00
 0.1038640065228E+01
 0.1085492371982E+01
 0.1126321388081E+01
 0.1158875414495E+01
 0.1180402226200E+01
 0.1188316656072E+01
 0.1181488977601E+01
 0.1246752031080E+00
 0.2376843734273E+00
 0.3329523389705E+00
 0.4151429219151E+00
 0.4884157873106E+00
 0.5560098606239E+00
 0.6203201150999E+00
 0.6829894352467E+00
 0.7449492829725E+00
 0.8065021595146E+00
 0.8674316854253E+00
 0.9270852338984E+00
 0.9844303292161E+00
 0.1038738380317E+01
 0.1088835113910E+01
 0.1132732293765E+01
 0.1167652053911E+01
 0.1190321154637E+01
 0.1198166001496E+01
 0.1187491432364E+01
 0.1209237526109E+00
 0.2326302429823E+00
 0.3259126254014E+00
 0.4059726063373E+00
 0.4773274100431E+00
 0.5434178385187E+00
 0.6067550188599E+00
 0.6690527130631E+00
 0.7312834678509E+00
 0.7937708622220E+00
 0.8562907200270E+00
 0.9181331603950E+00
 0.9781579184364E+00
 0.1035653325938E+01
 0.1089320303939E+01
 0.1136765225982E+01
 0.1174531094251E+01
 0.1198497028910E+01
 0.1204763429400E+01
 0.1189124955888E+01
 0.1167266346705E+00
 0.2265176909094E+00
 0.3172753413601E+00
 0.3947840209163E+00
 0.4638999504289E+00
 0.5282468901654E+00
 0.5904258201790E+00
 0.6521941727890E+00
 0.7145446803061E+00
 0.7778127139855E+00
 0.8417761642567E+00
 0.9056967620696E+00
 0.9683635354143E+00
 0.1029144414746E+01
 0.1086647529329E+01
 0.1138004379165E+01
 0.1178828339505E+01
 0.1203632890833E+01
 0.1207489578301E+01
 0.1186866503182E+01
 0.1120444173269E+00
 0.2192469948576E+00
 0.3069204415720E+00
 0.3814637003222E+00
 0.4480493474055E+00
 0.5104457297609E+00
 0.5713051196917E+00
 0.6323941146691E+00
 0.6947019933396E+00
 0.7585695891448E+00
 0.8237902037475E+00
 0.8896233474952E+00
 0.9548272654482E+00
 0.1018910049979E+01
 0.1080413949357E+01
 0.1135915117212E+01
 0.1179835503445E+01
 0.1205156746605E+01
 0.1206288794978E+01
 0.1180543602341E+01
 0.1068258168597E+00
 0.2107029367513E+00
 0.2947194609716E+00
 0.3659045840441E+00
 0.4297082215025E+00
 0.4899896445487E+00
 0.5493999549778E+00
 0.6096719514249E+00
 0.6717643604470E+00
 0.7360170617092E+00
 0.8022526827337E+00
 0.8697565190814E+00
 0.9373009790726E+00
 0.1004598737673E+01
 0.1070163734043E+01
 0.1129964102481E+01
 0.1177041290503E+01
 0.1202694248598E+01
 0.1200814898037E+01
 0.1169687212486E+01
 0.1010070386767E+00
 0.2007502876971E+00
 0.2805343780983E+00
 0.3480053664091E+00
 0.4088302325745E+00
 0.4668869352261E+00
 0.5247586872581E+00
 0.5840922327289E+00
 0.6457842232235E+00
 0.7101657802157E+00
 0.7771034001154E+00
 0.8459396458450E+00
 0.9155167627551E+00
 0.9858284643381E+00
 0.1055423718200E+01
 0.1119656994517E+01
 0.1169991887759E+01
 0.1195802611792E+01
 0.1190550466650E+01
 0.1153705699259E+01
 0.9450917577462E-01
 0.1892299506096E+00
 0.2642159871745E+00
 0.3276727328635E+00
 0.3853952811261E+00
 0.4411860866250E+00
 0.4974781890672E+00
 0.5557706313334E+00
 0.6168619523535E+00
 0.6810651944900E+00
 0.7483060942715E+00
 0.8180213924228E+00
 0.8891952854893E+00
 0.9621974019955E+00
 0.1035707324965E+01
 0.1104495694449E+01
 0.1158201460162E+01
 0.1183942907848E+01
 0.1174854237647E+01
 0.1131932290634E+01
 0.8723446175897E-01
 0.1759537691524E+00
 0.2456031337753E+00
 0.3048251722885E+00
 0.3594165853476E+00
 0.4129839378943E+00
 0.4677113497584E+00
 0.5248799673088E+00
 0.5851507864530E+00
 0.6488083805383E+00
 0.7158539906878E+00
 0.7858618842880E+00
 0.8580512382187E+00
 0.9332837327668E+00
 0.1010496791241E+01
 0.1083940539230E+01
 0.1141117748274E+01
 0.1166472956640E+01
 0.1152981276777E+01
 0.1103635457940E+01
 0.7906113164176E-01
 0.1606980974905E+00
 0.2245227319838E+00
 0.2793990077073E+00
 0.3309499682336E+00
 0.3824351330283E+00
 0.4356746970540E+00
 0.4916558158041E+00
 0.5508616304397E+00
 0.6135375595336E+00
 0.6797766006241E+00
 0.7493393870560E+00
 0.8217965053053E+00
 0.8986393369849E+00
 0.9792230204369E+00
 0.1057383225432E+01
 0.1118099693082E+01
 0.1142637515313E+01
 0.1124080948197E+01
 0.1068017593324E+01
 0.6983654895570E-01
 0.1431958979092E+00
 0.2007911795380E+00
 0.2513575336109E+00
 0.3001060297983E+00
 0.3497628267619E+00
 0.4016555426382E+00
 0.4564008393926E+00
 0.5142670387155E+00
 0.5754500839081E+00
 0.6401482063235E+00
 0.7083588068478E+00
 0.7801438967689E+00
 0.8577832212735E+00
 0.9412463073768E+00
 0.1024121384620E+01
 0.1088392693533E+01
 0.1111546718871E+01
 0.1087181551096E+01
 0.1024210092824E+01
 0.5936806913081E-01
 0.1231271749849E+00
 0.1742183200593E+00
 0.2207048236563E+00
 0.2670660059350E+00
 0.3152702638211E+00
 0.3660174763698E+00
 0.4194866207893E+00
 0.4757036557542E+00
 0.5348049956390E+00
 0.5970992312435E+00
 0.6628645130185E+00
 0.7328151302164E+00
 0.8101976347729E+00
 0.8958364526829E+00
 0.9833281776386E+00
 0.1051092953046E+01
 0.1072139708329E+01
 0.1041164384931E+01
 0.9712685168683E+00
 0.4741119496894E-01
 0.1001076964412E+00
 0.1446161373413E+00
 0.1875066996470E+00
 0.2321021315810E+00
 0.2793520802060E+00
 0.3292022672856E+00
 0.3813514617364E+00
 0.4355724963556E+00
 0.4919305975999E+00
 0.5508323349620E+00
 0.6128609671388E+00
 0.6795572476904E+00
 0.7553293441895E+00
 0.8421505467306E+00
 0.9340108039002E+00
 0.1005093559752E+01
 0.1023129032456E+01
 0.9847276395018E+00
 0.9081707150119E+00
 0.3365687486313E-01
 0.7367667710922E-01
 0.1118163823998E+00
 0.1519227782049E+00
 0.1956027934421E+00
 0.2425026666566E+00
 0.2917252758496E+00
 0.3424926948389E+00
 0.3943368109955E+00
 0.4472336552841E+00
 0.5016453673530E+00
 0.5584457048515E+00
 0.6201734175210E+00
 0.6926002659028E+00
 0.7792072476616E+00
 0.8749505079617E+00
 0.9490018214835E+00
 0.9629183508983E+00
 0.9163397752527E+00
 0.8338230219650E+00
 0.1775040793932E-01
 0.4328825160199E-01
 0.7570574835871E-01
 0.1142554041934E+00
 0.1581007756141E+00
 0.2053159554762E+00
 0.2541609521590E+00
 0.3034530759690E+00
 0.3525180274757E+00
 0.4012103535475E+00
 0.4499629076654E+00
 0.4998606328697E+00
 0.5545779839836E+00
 0.6214360812505E+00
 0.7058577074957E+00
 0.8046124760791E+00
 0.8810095617209E+00
 0.8894809979105E+00
 0.8341839951436E+00
 0.7470863248089E+00
 0.3441792974438E-02
 0.8442440730412E-02
 0.3629799289751E-01
 0.7502377228811E-01
 0.1202957910585E+00
 0.1684669768515E+00
 0.2171160343406E+00
 0.2648042473864E+00
 0.3106904583000E+00
 0.3544574599023E+00
 0.3963762376182E+00
 0.4375692126970E+00
 0.4828928710854E+00
 0.5413316691743E+00
 0.6207572355667E+00
 0.7210043996157E+00
 0.7986813656010E+00
 0.8001780171992E+00
 0.7361051574226E+00
 0.6468489247012E+00
 0.2403816437007E-01
 0.3223321533406E-01
 0.6230772992414E-02
 0.3506467205873E-01
 0.8304850286407E-01
 0.1326583447587E+00
 0.1811998621014E+00
 0.2271325562864E+00
 0.2694740126653E+00
 0.3076793829418E+00
 0.3416878517019E+00
 0.3723653479687E+00
 0.4056161737752E+00
 0.4519958440763E+00
 0.5223548523542E+00
 0.6214434286294E+00
 0.6985824590467E+00
 0.6914819583332E+00
 0.6196011439061E+00
 0.5322255982715E+00
 0.5108193653752E-01
 0.7866016383477E-01
 0.5076596416870E-01
 0.4400170779608E-02
 0.4724804630267E-01
 0.9855919429036E-01
 0.1470113089749E+00
 0.1910263796157E+00
 0.2295218279164E+00
 0.2616884365095E+00
 0.2869454609997E+00
 0.3055122921715E+00
 0.3239025559658E+00
 0.3536848659191E+00
 0.4089693215290E+00
 0.5021387256631E+00
 0.5755668269187E+00
 0.5585298760737E+00
 0.4820447759750E+00
 0.4030889960172E+00
 0.8460517099973E-01
 0.1314711832324E+00
 0.9518101708279E-01
 0.4191930116225E-01
 0.1363940143990E-01
 0.6680920264310E-01
 0.1151316385420E+00
 0.1570683451118E+00
 0.1914938624160E+00
 0.2173894642685E+00
 0.2334774158523E+00
 0.2388238986593E+00
 0.2400084288341E+00
 0.2479587164829E+00
 0.2792540582698E+00
 0.3574397386695E+00
 0.4210877326650E+00
 0.3945016661122E+00
 0.3218444120619E+00
 0.2620190186744E+00
 0.1271543348798E+00
 0.1848129266833E+00
 0.1367855137956E+00
 0.7691945466871E-01
 0.1706611027402E-01
 0.3801729341238E-01
 0.8611325331526E-01
 0.1258352517375E+00
 0.1560444183103E+00
 0.1756661284398E+00
 0.1829601616408E+00
 0.1748466573309E+00
 0.1570877425050E+00
 0.1395900285826E+00
 0.1346549828178E+00
 0.1783502104272E+00
 0.2185084402112E+00
 0.1900930982045E+00
 0.1472313804714E+00
 0.1249050264423E+00
 0.3027718128726E+00
 0.2644611814752E+00
 0.2323359791370E+00
 0.2025051638924E+00
 0.1741075829978E+00
 0.1472945549016E+00
 0.1223313184245E+00
 0.9946998713059E-01
 0.7890891249367E-01
 0.6078982057648E-01
 0.4520044252314E-01
 0.3217961834800E-01
 0.2172473730470E-01
 0.1380151415819E-01
 0.8341138573544E-02
 0.5126721859042E-02
 0.3440000187062E-02
 0.2382146708613E-02
 0.2985286773352E-02
 0.6150678271917E-02
 0.3097474608035E+00
 0.2745208249232E+00
 0.2380774634667E+00
 0.2038522035237E+00
 0.1719418567454E+00
 0.1422780614782E+00
 0.1149483257019E+00
 0.9011941749303E-01
 0.6798117778998E-01
 0.4871776717140E-01
 0.3251215280110E-01
 0.1961926550053E-01
 0.1070987395004E-01
 0.7552497144175E-02
 0.8860958363924E-02
 0.9977118419079E-02
 0.9367190442174E-02
 0.6927414247878E-02
 0.2945863673871E-02
 0.1448189291734E-02
 0.3155100612520E+00
 0.2808700372106E+00
 0.2436605993882E+00
 0.2068224833444E+00
 0.1718873249249E+00
 0.1393297441293E+00
 0.1093931124555E+00
 0.8230271874970E-01
 0.5831250702957E-01
 0.3774676617153E-01
 0.2122552549929E-01
 0.1109211748204E-01
 0.1209778543646E-01
 0.1717875912791E-01
 0.2050205097362E-01
 0.2115790360340E-01
 0.1918324381894E-01
 0.1487745771090E-01
 0.8786977520534E-02
 0.1482528025904E-02
 0.3224409412379E+00
 0.2866412164376E+00
 0.2486585129893E+00
 0.2102716613214E+00
 0.1730393990936E+00
 0.1378948350322E+00
 0.1053768720789E+00
 0.7589898579458E-01
 0.4990454176650E-01
 0.2816246246620E-01
 0.1370847420690E-01
 0.1548603844622E-01
 0.2416494567100E-01
 0.3074960064787E-01
 0.3393521339352E-01
 0.3363789759601E-01
 0.3008758034245E-01
 0.2368563038184E-01
 0.1490696008678E-01
 0.4165030138313E-02
 0.3309257766624E+00
 0.2932645217351E+00
 0.2540658639406E+00
 0.2142671196444E+00
 0.1751354275882E+00
 0.1376970203684E+00
 0.1027131767795E+00
 0.7082232997432E-01
 0.4279577563160E-01
 0.2069215088525E-01
 0.1540993563217E-01
 0.2702354380150E-01
 0.3812851041924E-01
 0.4542985862449E-01
 0.4845296272188E-01
 0.4723570048141E-01
 0.4205153464289E-01
 0.3332917887411E-01
 0.2157790644685E-01
 0.7286424532807E-02
 0.3410152287088E+00
 0.3013165199074E+00
 0.2605864596266E+00
 0.2192765265000E+00
 0.1783452594049E+00
 0.1387657566874E+00
 0.1014018353605E+00
 0.6709517718910E-01
 0.3710503749618E-01
 0.1682959686172E-01
 0.2377052601501E-01
 0.3982818991654E-01
 0.5275878344244E-01
 0.6095324992409E-01
 0.6405442102812E-01
 0.6207188280323E-01
 0.5525668360304E-01
 0.4406069595931E-01
 0.2909188670466E-01
 0.1103445126346E-01
 0.3526963028125E+00
 0.3110417300463E+00
 0.2686432401423E+00
 0.2257118033022E+00
 0.1829705285265E+00
 0.1412939404809E+00
 0.1015787078122E+00
 0.6483437307242E-01
 0.3299562101762E-01
 0.1758745061401E-01
 0.3355387633759E-01
 0.5277867062117E-01
 0.6774709499773E-01
 0.7722590109725E-01
 0.8077531251504E-01
 0.7828558249118E-01
 0.6992444462545E-01
 0.5613467802027E-01
 0.3762780679324E-01
 0.1536776721093E-01
 0.3659525487065E+00
 0.3225324378543E+00
 0.2784615237573E+00
 0.2338540900324E+00
 0.1892749433187E+00
 0.1455015337539E+00
 0.1034270221646E+00
 0.6419621380668E-01
 0.3057539182360E-01
 0.2123983367478E-01
 0.4309596649215E-01
 0.6541597372465E-01
 0.8282544786552E-01
 0.9408239015553E-01
 0.9855448047364E-01
 0.9592545029404E-01
 0.8619823767834E-01
 0.6974045942053E-01
 0.4731756321550E-01
 0.2013291132024E-01
 0.3807726747386E+00
 0.3358218320771E+00
 0.2901641994554E+00
 0.2438936197607E+00
 0.1974761052089E+00
 0.1516071361420E+00
 0.1071581619258E+00
 0.6537168065158E-01
 0.2984633678116E-01
 0.2544321079922E-01
 0.5171747546310E-01
 0.7734377051017E-01
 0.9766180358928E-01
 0.1112568188899E+00
 0.1172188346479E+00
 0.1149281596721E+00
 0.1041121125774E+00
 0.8495783557066E-01
 0.5820930196552E-01
 0.2518520017311E-01
 0.3971722571739E+00
 0.3509906953459E+00
 0.3039324906081E+00
 0.2561123939299E+00
 0.2079351647984E+00
 0.1600274397419E+00
 0.1132243499369E+00
 0.6881171290847E-01
 0.3092767517294E-01
 0.2875951690874E-01
 0.5875962834710E-01
 0.8800596973469E-01
 0.1117798768129E+00
 0.1283924537841E+00
 0.1365732957814E+00
 0.1352739724105E+00
 0.1237695931573E+00
 0.1018625155509E+00
 0.7010439138375E-01
 0.2988090347247E-01
 0.4151903317878E+00
 0.3681465362655E+00
 0.3199973419663E+00
 0.2708850088085E+00
 0.2211717588127E+00
 0.1714208879356E+00
 0.1224124457872E+00
 0.7539705655969E-01
 0.3443210696670E-01
 0.3005234614582E-01
 0.6298100502315E-01
 0.9610722560042E-01
 0.1239128100065E+00
 0.1443600883251E+00
 0.1557583365129E+00
 0.1565051738867E+00
 0.1451943830510E+00
 0.1209168122428E+00
 0.8370170790206E-01
 0.3494766002245E-01
 0.4348604356834E+00
 0.3873582160013E+00
 0.3385140281031E+00
 0.2884835737924E+00
 0.2375925484951E+00
 0.1863414411764E+00
 0.1354357820581E+00
 0.8601144123330E-01
 0.4144331584412E-01
 0.2892319910556E-01
 0.6301515933098E-01
 0.1000284160119E+00
 0.1323153098142E+00
 0.1574207800219E+00
 0.1732317459787E+00
 0.1775279580942E+00
 0.1680053576652E+00
 0.1425864670082E+00
 0.1001395264723E+00
 0.4154458653734E-01
 0.4561915428249E+00
 0.4086498325954E+00
 0.3595524485863E+00
 0.3090542517911E+00
 0.2574453032156E+00
 0.2051636407966E+00
 0.1528273866325E+00
 0.1014069308509E+00
 0.5336898296194E-01
 0.2723598110867E-01
 0.5769747188352E-01
 0.9803248929090E-01
 0.1348856633968E+00
 0.1652166824784E+00
 0.1865636357004E+00
 0.1961588592625E+00
 0.1907370325859E+00
 0.1666128498851E+00
 0.1203769250910E+00
 0.5086218828312E-01
 0.4791607051201E+00
 0.4320026336454E+00
 0.3831149410513E+00
 0.3326446479608E+00
 0.2808487502302E+00
 0.2281073656599E+00
 0.1749503412259E+00
 0.1221727738766E+00
 0.7145452503367E-01
 0.3171602769492E-01
 0.4668108009890E-01
 0.8841579212245E-01
 0.1292123457892E+00
 0.1646872443519E+00
 0.1921240273658E+00
 0.2084481847432E+00
 0.2096856679226E+00
 0.1905544802409E+00
 0.1442691427087E+00
 0.6421488639524E-01
 0.5037121640527E+00
 0.4573550391212E+00
 0.4091431619987E+00
 0.3592160661579E+00
 0.3078046372488E+00
 0.2552420086794E+00
 0.2019824900216E+00
 0.1486709393254E+00
 0.9644308261327E-01
 0.4899436873237E-01
 0.3369901503461E-01
 0.7009779170397E-01
 0.1129160941764E+00
 0.1522991643923E+00
 0.1850842276301E+00
 0.2081836843504E+00
 0.2174781867195E+00
 0.2068877173723E+00
 0.1668153433416E+00
 0.8178861074902E-01
 0.5297586140267E+00
 0.4846030571127E+00
 0.4375198999197E+00
 0.3886463340331E+00
 0.3381977312814E+00
 0.2864765183795E+00
 0.2338848764195E+00
 0.1809633501080E+00
 0.1285261747178E+00
 0.7829270542304E-01
 0.3807695523073E-01
 0.4533911079912E-01
 0.8468889431664E-01
 0.1249154474172E+00
 0.1601583889057E+00
 0.1871298259352E+00
 0.2018718703955E+00
 0.1983974301725E+00
 0.1664535122524E+00
 0.8499884689236E-01
 0.5571838794829E+00
 0.5136029865205E+00
 0.4680723044348E+00
 0.4207332942475E+00
 0.3717970088886E+00
 0.3215524487779E+00
 0.2703759675881E+00
 0.2187530121993E+00
 0.1673382093328E+00
 0.1171523942546E+00
 0.7048922305289E-01
 0.3755530080901E-01
 0.4902370717758E-01
 0.8320117367069E-01
 0.1162122235774E+00
 0.1421426588570E+00
 0.1568378993989E+00
 0.1549311638560E+00
 0.1279832677909E+00
 0.6077081444596E-01
 0.5858460387879E+00
 0.5441754629182E+00
 0.5005775542483E+00
 0.4552027585241E+00
 0.4082658399213E+00
 0.3600550354524E+00
 0.3109404993169E+00
 0.2613882435085E+00
 0.2119891659172E+00
 0.1635266838500E+00
 0.1171649323718E+00
 0.7514114345164E-01
 0.4417592831052E-01
 0.4210501489921E-01
 0.6243917236709E-01
 0.8250888369879E-01
 0.9384313051497E-01
 0.9165225400661E-01
 0.7162419979504E-01
 0.3437015256726E-01
 0.6155813244615E+00
 0.5761114987950E+00
 0.5347720909189E+00
 0.4917229427155E+00
 0.4471847286166E+00
 0.4014491980000E+00
 0.3548874105711E+00
 0.3079598659110E+00
 0.2612323812917E+00
 0.2154031487189E+00
 0.1713518690862E+00
 0.1302378769050E+00
 0.9371964413359E-01
 0.6445662596639E-01
 0.4662187023868E-01
 0.4226278275499E-01
 0.4419917433910E-01
 0.4396406844576E-01
 0.4010851235850E-01
 0.3814266078497E-01
 0.6462085158629E+00
 0.6091798864436E+00
 0.5703633655155E+00
 0.5299233560017E+00
 0.4880820610603E+00
 0.4451299730330E+00
 0.4014333863298E+00
 0.3574413938084E+00
 0.3136940053738E+00
 0.2708322405202E+00
 0.2296101144451E+00
 0.1909065875867E+00
 0.1557304930070E+00
 0.1251969907209E+00
 0.1004182591285E+00
 0.8219943206323E-01
 0.7049553693297E-01
 0.6395411011327E-01
 0.5986237894452E-01
 0.5455673210514E-01
 0.6775334692821E+00
 0.6431340363522E+00
 0.6070400431073E+00
 0.5694111574549E+00
 0.5304609965877E+00
 0.4904667433858E+00
 0.4497749564237E+00
 0.4088048263249E+00
 0.3680494619231E+00
 0.3280746027911E+00
 0.2895125970741E+00
 0.2530471831069E+00
 0.2193809456481E+00
 0.1891716665937E+00
 0.1629164680868E+00
 0.1407573347040E+00
 0.1221890201049E+00
 0.1057057071098E+00
 0.8876043535880E-01
 0.7027218733522E-01
 0.7093514872978E+00
 0.6777141678179E+00
 0.6444745033497E+00
 0.6097757322746E+00
 0.5738090439221E+00
 0.5368220645686E+00
 0.4991222116874E+00
 0.4610756630080E+00
 0.4231020436138E+00
 0.3856637322454E+00
 0.3492472269743E+00
 0.3143322104431E+00
 0.2813416872904E+00
 0.2505639658874E+00
 0.2220354427962E+00
 0.1953764794766E+00
 0.1695969424972E+00
 0.1429985868112E+00
 0.1137591644392E+00
 0.8402613071908E-01
 0.7414471599532E+00
 0.7126489280910E+00
 0.6823283656773E+00
 0.6505993918700E+00
 0.6176154847824E+00
 0.5835774248980E+00
 0.5487340476621E+00
 0.5133770057205E+00
 0.4778296947936E+00
 0.4424293239836E+00
 0.4074999152845E+00
 0.3733128775662E+00
 0.3400308727019E+00
 0.3076306111101E+00
 0.2758029923615E+00
 0.2438405433271E+00
 0.2105608213501E+00
 0.1744403934323E+00
 0.1346156157756E+00
 0.9599762397612E-01
 0.7736060877913E+00
 0.7476729116590E+00
 0.7202779031339E+00
 0.6914919074276E+00
 0.6614156030318E+00
 0.6301869452521E+00
 0.5979796720913E+00
 0.5649945631794E+00
 0.5314441298381E+00
 0.4975302299516E+00
 0.4634132056224E+00
 0.4291706929314E+00
 0.3947445640464E+00
 0.3598764077520E+00
 0.3240377614773E+00
 0.2863767004405E+00
 0.2457432259589E+00
 0.2009794021490E+00
 0.1521732717367E+00
 0.1064879195746E+00
 0.8056206630842E+00
 0.7825348670954E+00
 0.7580242684072E+00
 0.7321028610748E+00
 0.7048047760547E+00
 0.6761919995788E+00
 0.6463512152532E+00
 0.6153825960552E+00
 0.5833820993676E+00
 0.5504175273032E+00
 0.5164979326524E+00
 0.4815360427767E+00
 0.4453045461171E+00
 0.4073901546447E+00
 0.3671562568780E+00
 0.3237404730337E+00
 0.2761520004572E+00
 0.2236570707224E+00
 0.1671942999629E+00
 0.1157357964672E+00
 0.8372924717507E+00
 0.8170007852565E+00
 0.7952966237887E+00
 0.7721241870413E+00
 0.7474395028449E+00
 0.7212191258810E+00
 0.6934558850007E+00
 0.6641462143918E+00
 0.6332717725615E+00
 0.6007764389971E+00
 0.5665391327315E+00
 0.5303432717697E+00
 0.4918452544646E+00
 0.4505476969029E+00
 0.4057898448204E+00
 0.3567818723326E+00
 0.3027468674589E+00
 0.2433621654518E+00
 0.1802857164468E+00
 0.1239237672970E+00
 0.8684342540460E+00
 0.8508558539079E+00
 0.8318535215203E+00
 0.8112901430934E+00
 0.7890348187887E+00
 0.7649732556324E+00
 0.7390026948129E+00
 0.7110184353548E+00
 0.6808960401154E+00
 0.6484710416381E+00
 0.6135171307765E+00
 0.5757242140345E+00
 0.5346793062011E+00
 0.4898563537020E+00
 0.4406270716486E+00
 0.3863180581743E+00
 0.3263764298575E+00
 0.2608411000302E+00
 0.1919469514333E+00
 0.1312024788115E+00
 0.8988708878132E+00
 0.8839047732554E+00
 0.8674821473804E+00
 0.8493746355129E+00
 0.8293585568905E+00
 0.8072274709002E+00
 0.7827859362971E+00
 0.7558352438762E+00
 0.7261568257093E+00
 0.6934956572017E+00
 0.6575447275095E+00
 0.6179319176370E+00
 0.5742120401739E+00
 0.5258695384369E+00
 0.4723426449508E+00
 0.4130922440576E+00
 0.3477759379917E+00
 0.2767284439962E+00
 0.2026094459842E+00
 0.1377077774080E+00
 0.9284407205031E+00
 0.9159722868157E+00
 0.9019974679404E+00
 0.8861880143681E+00
 0.8682245927710E+00
 0.8478114386635E+00
 0.8246675065835E+00
 0.7985105316886E+00
 0.7690415532326E+00
 0.7359323282919E+00
 0.6988162672587E+00
 0.6572836256829E+00
 0.6108829409037E+00
 0.5591331333262E+00
 0.5015555251046E+00
 0.4377469668787E+00
 0.3675524842212E+00
 0.2915374000557E+00
 0.2126318083433E+00
 0.1435616312874E+00
 0.9569950267437E+00
 0.9469010382172E+00
 0.9352381059901E+00
 0.9215695569144E+00
 0.9054804920958E+00
 0.8865930290217E+00
 0.8645515285970E+00
 0.8390029822724E+00
 0.8095819479265E+00
 0.7759018604271E+00
 0.7375522470207E+00
 0.6941014811483E+00
 0.6451059764611E+00
 0.5901290324970E+00
 0.5287771618182E+00
 0.4607734293915E+00
 0.3861238873443E+00
 0.3055728084252E+00
 0.2222011420795E+00
 0.1488292341707E+00
 0.9843972775950E+00
 0.9765506563839E+00
 0.9670639599410E+00
 0.9553809335449E+00
 0.9409946706828E+00
 0.9234575982987E+00
 0.9023544753098E+00
 0.8772759566170E+00
 0.8478029461335E+00
 0.8135016514474E+00
 0.7739268695428E+00
 0.7286316107824E+00
 0.6771827175641E+00
 0.6191845527681E+00
 0.5543174550894E+00
 0.4824093757210E+00
 0.4035955182772E+00
 0.3187575580494E+00
 0.2310813617307E+00
 0.1533357556741E+00
 0.1010522463843E+01
 0.1004800236798E+01
 0.9973565735219E+00
 0.9874996168655E+00
 0.9746396125460E+00
 0.9582785458018E+00
 0.9379606479723E+00
 0.9132353000344E+00
 0.8836403253030E+00
 0.8487011688283E+00
 0.8079404418823E+00
 0.7608939865010E+00
 0.7071319305103E+00
 0.6462858063426E+00
 0.5780874971099E+00
 0.5024376809985E+00
 0.4195585988337E+00
 0.3304248160241E+00
 0.2383235419077E+00
 0.1562776328453E+00
 0.1035255167717E+01
 0.1031546661068E+01
 0.1026008279261E+01
 0.1017792656081E+01
 0.1006247040858E+01
 0.9908515314673E+00
 0.9711324834173E+00
 0.9466120790177E+00
 0.9167918899387E+00
 0.8811582379974E+00
 0.8391990645488E+00
 0.7904267186336E+00
 0.7344042678096E+00
 0.6707758304952E+00
 0.5993058448561E+00
 0.5199441559425E+00
 0.4329720909217E+00
 0.3394307363777E+00
 0.2427299648585E+00
 0.1566461267238E+00
 0.1058487252215E+01
 0.1056693235377E+01
 0.1052897193499E+01
 0.1046079962920E+01
 0.1035567536113E+01
 0.1020859673160E+01
 0.1001490302276E+01
 0.9769647437344E+00
 0.9467501438774E+00
 0.9102912476655E+00
 0.8670370023268E+00
 0.8164710567011E+00
 0.7581446231127E+00
 0.6917124944946E+00
 0.6169768125450E+00
 0.5339544506451E+00
 0.4430228233309E+00
 0.3453487926535E+00
 0.2445452759465E+00
 0.1552032877091E+00
 0.1080160230986E+01
 0.1080224375443E+01
 0.1077988386956E+01
 0.1072281295805E+01
 0.1062491176723E+01
 0.1048197797223E+01
 0.1028965495220E+01
 0.1004285753329E+01
 0.9735858348072E+00
 0.9362624300638E+00
 0.8917184326559E+00
 0.8394004027453E+00
 0.7788379844808E+00
 0.7096873543788E+00
 0.6317826831682E+00
 0.5452102978709E+00
 0.4504571460157E+00
 0.3488383775443E+00
 0.2441836803578E+00
 0.1520187908668E+00
 0.1100264539776E+01
 0.1102179460146E+01
 0.1101260590640E+01
 0.1096296317436E+01
 0.1086895720690E+01
 0.1072781197532E+01
 0.1053555773785E+01
 0.1028679320089E+01
 0.9975265303232E+00
 0.9594379496874E+00
 0.9137624226277E+00
 0.8598974773266E+00
 0.7973334398042E+00
 0.7257048955937E+00
 0.6448533432239E+00
 0.5549114950485E+00
 0.4564603188265E+00
 0.3509573173666E+00
 0.2424563698370E+00
 0.1476053421687E+00
 0.1118875783605E+01
 0.1122645114376E+01
 0.1122618141852E+01
 0.1117903996148E+01
 0.1108545641156E+01
 0.1094458180170E+01
 0.1075213068315E+01
 0.1050203130012E+01
 0.1018739704857E+01
 0.9801058135485E+00
 0.9335929615993E+00
 0.8785378869945E+00
 0.8143680982844E+00
 0.7406612565562E+00
 0.6572223481709E+00
 0.5641883733477E+00
 0.4621941787769E+00
 0.3528202022144E+00
 0.2403589495079E+00
 0.1425790421363E+00
 0.1136200819037E+01
 0.1141689625431E+01
 0.1141758944478E+01
 0.1136611034765E+01
 0.1127108773480E+01
 0.1113050949365E+01
 0.1093865571404E+01
 0.1068861121634E+01
 0.1037299156157E+01
 0.9984218016656E+00
 0.9514711881236E+00
 0.8957171361109E+00
 0.8305002022894E+00
 0.7552964033616E+00
 0.6698112827708E+00
 0.5741132406382E+00
 0.4688416928185E+00
 0.3556171980605E+00
 0.2388998157113E+00
 0.1373911713858E+00
 0.1152954248755E+01
 0.1159172799744E+01
 0.1157441377417E+01
 0.1151783437221E+01
 0.1142347833651E+01
 0.1128475463264E+01
 0.1109467224125E+01
 0.1084608119062E+01
 0.1053164360237E+01
 0.1014374321838E+01
 0.9674525708318E+00
 0.9116073764657E+00
 0.8460763741939E+00
 0.7701888982922E+00
 0.6834692326704E+00
 0.5858036727139E+00
 0.4777083682842E+00
 0.3608342736919E+00
 0.2393775555112E+00
 0.1323888835278E+00
 0.1168640535237E+01
 0.1170436838785E+01
 0.1168358185123E+01
 0.1163436508890E+01
 0.1154458681994E+01
 0.1140839640484E+01
 0.1121993995400E+01
 0.1097313128864E+01
 0.1066132472947E+01
 0.1027728734934E+01
 0.9813215333065E+00
 0.9260820661105E+00
 0.8611535615986E+00
 0.7856948302560E+00
 0.6989678404255E+00
 0.6005078419326E+00
 0.4904522945406E+00
 0.3701889384826E+00
 0.2439943801013E+00
 0.1285062924401E+00
</DataArray>
<DataArray type="Float64" Name="OI" NumberOfComponents="1" ComponentName0="OI" format="ascii">
 0.7244617543023E+01
 0.6472700745360E+01
 0.5866112243656E+01
 0.5630187991674E+01
 0.5448857147395E+01
 0.5315802525431E+01
 0.5204866617854E+01
 0.5108285816325E+01
 0.5020668056763E+01
 0.4939310855351E+01
 0.4862728478763E+01
 0.4790334453612E+01
 0.4722238354549E+01
 0.4659304650077E+01
 0.4603664877143E+01
 0.4560126011794E+01
 0.4529096849523E+01
 0.4497529342038E+01
 0.4452677643537E+01
 0.4394184913792E+01
 0.4327448731720E+01
 0.4258269774433E+01
 0.4191251509154E+01
 0.4129789772464E+01
 0.4076344202835E+01
 0.4032434155740E+01
 0.3998212390377E+01
 0.3974588407521E+01
 0.3965544655324E+01
 0.3975691622098E+01
 0.4008466775236E+01
 0.4066723170832E+01
 0.4152566981444E+01
 0.4266470055789E+01
 0.4407752367028E+01
 0.4580364232825E+01
 0.4836625088747E+01
 0.5210287539438E+01
 0.6001195988134E+01
 0.6318403098403E+01
 0.1090207485722E+02
 0.6157322379880E+01
 0.6330068868281E+01
 0.5859450089059E+01
 0.5570192090078E+01
 0.5387320434246E+01
 0.5244030970035E+01
 0.5127971926437E+01
 0.5027565510637E+01
 0.4937609689078E+01
 0.4854881899644E+01
 0.4777662381123E+01
 0.4705141280350E+01
 0.4637220023121E+01
 0.4574515286403E+01
 0.4518303771101E+01
 0.4469347137107E+01
 0.4425525158140E+01
 0.4381350524755E+01
 0.4331412111148E+01
 0.4273904429127E+01
 0.4210648194914E+01
 0.4145008265154E+01
 0.4080288401345E+01
 0.4019182892736E+01
 0.3963662733603E+01
 0.3915006527345E+01
 0.3874150041545E+01
 0.3842371744675E+01
 0.3821637955512E+01
 0.3814168159286E+01
 0.3821713264702E+01
 0.3845097398835E+01
 0.3883945222254E+01
 0.3936818649296E+01
 0.4002771091106E+01
 0.4087902689175E+01
 0.4195172129228E+01
 0.4341645430697E+01
 0.4413260107015E+01
 0.3775359637384E+01
 0.7445805728477E+01
 0.5517926962621E+01
 0.5927088981724E+01
 0.5751685548094E+01
 0.5486881853583E+01
 0.5305569594187E+01
 0.5162868898336E+01
 0.5044751195332E+01
 0.4942850559391E+01
 0.4851731767993E+01
 0.4768315068575E+01
 0.4690767130102E+01
 0.4618150389902E+01
 0.4550170646854E+01
 0.4487051185683E+01
 0.4428952076876E+01
 0.4374812044353E+01
 0.4322445754413E+01
 0.4269841127657E+01
 0.4215191165877E+01
 0.4157008474215E+01
 0.4095308622587E+01
 0.4031631261539E+01
 0.3968069525758E+01
 0.3906574342043E+01
 0.3848658410376E+01
 0.3795452829652E+01
 0.3748030122003E+01
 0.3707446855659E+01
 0.3674521686869E+01
 0.3649850402114E+01
 0.3633625728799E+01
 0.3625101262373E+01
 0.3622320968022E+01
 0.3622499013965E+01
 0.3623887446765E+01
 0.3624426925435E+01
 0.3611007126000E+01
 0.3547653823512E+01
 0.3230089128262E+01
 0.2833090791444E+01
 0.6361447379098E+01
 0.5082498655258E+01
 0.5530437133016E+01
 0.5550944249460E+01
 0.5371869901984E+01
 0.5206279330587E+01
 0.5070669432444E+01
 0.4954874941541E+01
 0.4853638284775E+01
 0.4762713034783E+01
 0.4679357284839E+01
 0.4601866509870E+01
 0.4529259157686E+01
 0.4461073038187E+01
 0.4397095323315E+01
 0.4336681294634E+01
 0.4278139761831E+01
 0.4219778191459E+01
 0.4161289897609E+01
 0.4102647469818E+01
 0.4042948823909E+01
 0.3981461647507E+01
 0.3918506217495E+01
 0.3855157536169E+01
 0.3792664472887E+01
 0.3732109679722E+01
 0.3674414250896E+01
 0.3620488343512E+01
 0.3570999929099E+01
 0.3525989542106E+01
 0.3484956715359E+01
 0.3446902961107E+01
 0.3409969112224E+01
 0.3371237694775E+01
 0.3327204083407E+01
 0.3274396862316E+01
 0.3205804541625E+01
 0.3100788076155E+01
 0.2902541509128E+01
 0.2531171483268E+01
 0.2612774315062E+01
 0.5829177819383E+01
 0.4756321933072E+01
 0.5182614872611E+01
 0.5312771116482E+01
 0.5223710534482E+01
 0.5090646033825E+01
 0.4967672377398E+01
 0.4858047392535E+01
 0.4759726529148E+01
 0.4670334585562E+01
 0.4587844591482E+01
 0.4510846274019E+01
 0.4438420183873E+01
 0.4369979415328E+01
 0.4304961305648E+01
 0.4242277147422E+01
 0.4180166366629E+01
 0.4117470178593E+01
 0.4054733970484E+01
 0.3992789117617E+01
 0.3931221091103E+01
 0.3869065978464E+01
 0.3805904283575E+01
 0.3742023092329E+01
 0.3678056431856E+01
 0.3614678264943E+01
 0.3552538693739E+01
 0.3492262378788E+01
 0.3434108894436E+01
 0.3377558023603E+01
 0.3321384112471E+01
 0.3263792574665E+01
 0.3202245791924E+01
 0.3133403438131E+01
 0.3053480121948E+01
 0.2958093761516E+01
 0.2838996200518E+01
 0.2675592782230E+01
 0.2432639872814E+01
 0.2172750383040E+01
 0.2660895602220E+01
 0.5477711762197E+01
 0.4495181099519E+01
 0.4882895740823E+01
 0.5068533868274E+01
 0.5052999425373E+01
 0.4959793678146E+01
 0.4854807108574E+01
 0.4754405261623E+01
 0.4661084076196E+01
 0.4574515584097E+01
 0.4493693605829E+01
 0.4417654822720E+01
 0.4345637060398E+01
 0.4277000355996E+01
 0.4210969308798E+01
 0.4146286125834E+01
 0.4081360225980E+01
 0.4015476956723E+01
 0.3949596571570E+01
 0.3884933592890E+01
 0.3821408073811E+01
 0.3758049358808E+01
 0.3694026096800E+01
 0.3629056679220E+01
 0.3563265708532E+01
 0.3496947574223E+01
 0.3430453835229E+01
 0.3364091221605E+01
 0.3297751130177E+01
 0.3230514560070E+01
 0.3160711166930E+01
 0.3086103164673E+01
 0.3003874327521E+01
 0.2910709468979E+01
 0.2803079080332E+01
 0.2677021309782E+01
 0.2526038836454E+01
 0.2337979397081E+01
 0.2116078963549E+01
 0.2023993403501E+01
 0.2774491731336E+01
 0.5207029327779E+01
 0.4275800345385E+01
 0.4622860986359E+01
 0.4832440091874E+01
 0.4870743348010E+01
 0.4816845291501E+01
 0.4733208769580E+01
 0.4644460061085E+01
 0.4557863165819E+01
 0.4475294205537E+01
 0.4396902723687E+01
 0.4322298274203E+01
 0.4250959727262E+01
 0.4182278484236E+01
 0.4115403351958E+01
 0.4049088820054E+01
 0.3982000361047E+01
 0.3913762310827E+01
 0.3845518647771E+01
 0.3778619293754E+01
 0.3713189788056E+01
 0.3648336496931E+01
 0.3583023029023E+01
 0.3516581371398E+01
 0.3448733735846E+01
 0.3379436410768E+01
 0.3308747110004E+01
 0.3236670563231E+01
 0.3162796140565E+01
 0.3085942697372E+01
 0.3004217543100E+01
 0.2915236802017E+01
 0.2816249422231E+01
 0.2704352456377E+01
 0.2576847671103E+01
 0.2431382669807E+01
 0.2265652506312E+01
 0.2080858358943E+01
 0.1917652637756E+01
 0.1992569107076E+01
 0.2881814061719E+01
 0.4982873535875E+01
 0.4084840328450E+01
 0.4394155975512E+01
 0.4609886492886E+01
 0.4685022044584E+01
 0.4665715324596E+01
 0.4604403024093E+01
 0.4528933643449E+01
 0.4450390064382E+01
 0.4372814157779E+01
 0.4297545044227E+01
 0.4224835709563E+01
 0.4154475937735E+01
 0.4085969730063E+01
 0.4018504150867E+01
 0.3950956055438E+01
 0.3882263368310E+01
 0.3812300715512E+01
 0.3742272792932E+01
 0.3673537548391E+01
 0.3606333546202E+01
 0.3539864708343E+01
 0.3473013495591E+01
 0.3404865384482E+01
 0.3334839120702E+01
 0.3262604386827E+01
 0.3187953424508E+01
 0.3110630729714E+01
 0.3029999893362E+01
 0.2944737794405E+01
 0.2852909471473E+01
 0.2752226049543E+01
 0.2640282561242E+01
 0.2514916241249E+01
 0.2374752856883E+01
 0.2219939794764E+01
 0.2053881546723E+01
 0.1892149939576E+01
 0.1804179672118E+01
 0.2019370266348E+01
 0.2963654917641E+01
 0.4790081627641E+01
 0.3914144739664E+01
 0.4189990716472E+01
 0.4402119752156E+01
 0.4500978141290E+01
 0.4510057949233E+01
 0.4470165060724E+01
 0.4408701915024E+01
 0.4339117816126E+01
 0.4267311783559E+01
 0.4195758408562E+01
 0.4125372499603E+01
 0.4056302595485E+01
 0.3988233169760E+01
 0.3920474460407E+01
 0.3852087280233E+01
 0.3782269161025E+01
 0.3711078157872E+01
 0.3639715666526E+01
 0.3569485310446E+01
 0.3500677902297E+01
 0.3432590116329E+01
 0.3364094656733E+01
 0.3294132874299E+01
 0.3221906323989E+01
 0.3146854856888E+01
 0.3068548450326E+01
 0.2986525981985E+01
 0.2900003107172E+01
 0.2807620418038E+01
 0.2707546249568E+01
 0.2597775470491E+01
 0.2476467226884E+01
 0.2342452066473E+01
 0.2196032171292E+01
 0.2040386804962E+01
 0.1885129392598E+01
 0.1758681226792E+01
 0.1748648568193E+01
 0.2069955485660E+01
 0.3018815973363E+01
 0.4620349763068E+01
 0.3758460028032E+01
 0.4005145442849E+01
 0.4208559179118E+01
 0.4321572575341E+01
 0.4352821470947E+01
 0.4332278685811E+01
 0.4284733746848E+01
 0.4224585413737E+01
 0.4159095838188E+01
 0.4091734745690E+01
 0.4024052317687E+01
 0.3956578325345E+01
 0.3889226474072E+01
 0.3821487411449E+01
 0.3752636013361E+01
 0.3682106222814E+01
 0.3610091852857E+01
 0.3537759912760E+01
 0.3466332904495E+01
 0.3396116716303E+01
 0.3326488181524E+01
 0.3256350044321E+01
 0.3184572493198E+01
 0.3110212427401E+01
 0.3032537371061E+01
 0.2950945789606E+01
 0.2864830379449E+01
 0.2773333254307E+01
 0.2675149873120E+01
 0.2568667091535E+01
 0.2452304743615E+01
 0.2324942693147E+01
 0.2186573784729E+01
 0.2039373214045E+01
 0.1889732749104E+01
 0.1753173041287E+01
 0.1668202698436E+01
 0.1730533988326E+01
 0.2125962974650E+01
 0.3051237277075E+01
 0.4468361761758E+01
 0.3614252870616E+01
 0.3835667418119E+01
 0.4027913271046E+01
 0.4148317500073E+01
 0.4196180397212E+01
 0.4192357411098E+01
 0.4158016136413E+01
 0.4107381423998E+01
 0.4048525833033E+01
 0.3985708000789E+01
 0.3921048926402E+01
 0.3855457374931E+01
 0.3789104295652E+01
 0.3721694341883E+01
 0.3652726511092E+01
 0.3581845939657E+01
 0.3509349296839E+01
 0.3436356632363E+01
 0.3364001944962E+01
 0.3292585469505E+01
 0.3221551381361E+01
 0.3149854023650E+01
 0.3076343793636E+01
 0.2999992530886E+01
 0.2919950279238E+01
 0.2835496830926E+01
 0.2745937778800E+01
 0.2650409504402E+01
 0.2547738551701E+01
 0.2436618021778E+01
 0.2315991290878E+01
 0.2185557654994E+01
 0.2046558116715E+01
 0.1903091696137E+01
 0.1764655603321E+01
 0.1651872394358E+01
 0.1610147411796E+01
 0.1735045468617E+01
 0.2178408015589E+01
 0.3065590636181E+01
 0.4330384299996E+01
 0.3479058204497E+01
 0.3678561980635E+01
 0.3858701406656E+01
 0.3981820557324E+01
 0.4041631566422E+01
 0.4051755560977E+01
 0.4029487450804E+01
 0.3988109498618E+01
 0.3935991442962E+01
 0.3877941592488E+01
 0.3816558095040E+01
 0.3753104623026E+01
 0.3688017895514E+01
 0.3621231057871E+01
 0.3552464574697E+01
 0.3481550806201E+01
 0.3408866983489E+01
 0.3335483893460E+01
 0.3262450024203E+01
 0.3190050215695E+01
 0.3117785756877E+01
 0.3044674053768E+01
 0.2969581839046E+01
 0.2891444156526E+01
 0.2809343622704E+01
 0.2722492475100E+01
 0.2630164552407E+01
 0.2531549816771E+01
 0.2425667063779E+01
 0.2311578357537E+01
 0.2188811498319E+01
 0.2057932023947E+01
 0.1921440921961E+01
 0.1785292023858E+01
 0.1661780144608E+01
 0.1575562627735E+01
 0.1575794596540E+01
 0.1752018928354E+01
 0.2223384547573E+01
 0.3065955116937E+01
 0.4203655719438E+01
 0.3351101247433E+01
 0.3531543861398E+01
 0.3699485888647E+01
 0.3822151308632E+01
 0.3890136992801E+01
 0.3911547066583E+01
 0.3899991387480E+01
 0.3867358024760E+01
 0.3821893711384E+01
 0.3768716375328E+01
 0.3710789925365E+01
 0.3649691372199E+01
 0.3586115105296E+01
 0.3520222402387E+01
 0.3451944452267E+01
 0.3381279062564E+01
 0.3308668981232E+01
 0.3235138871095E+01
 0.3161659923630E+01
 0.3088498919123E+01
 0.3015207259984E+01
 0.2940871554752E+01
 0.2864400456041E+01
 0.2784730923412E+01
 0.2700922280671E+01
 0.2612166144482E+01
 0.2517754106494E+01
 0.2416979491595E+01
 0.2309099807212E+01
 0.2193586343750E+01
 0.2070579717406E+01
 0.1941514541375E+01
 0.1810103554192E+01
 0.1683999176936E+01
 0.1577865071957E+01
 0.1519226732431E+01
 0.1558183497414E+01
 0.1774753541279E+01
 0.2259599963242E+01
 0.3055562469663E+01
 0.4086069393895E+01
 0.3229068826945E+01
 0.3392851109478E+01
 0.3548964394657E+01
 0.3669076057390E+01
 0.3742261495626E+01
 0.3772543499778E+01
 0.3770252796277E+01
 0.3745676587896E+01
 0.3706628732077E+01
 0.3658319703117E+01
 0.3603961822261E+01
 0.3545391686096E+01
 0.3483540206790E+01
 0.3418785344695E+01
 0.3351253127504E+01
 0.3281087192645E+01
 0.3208785487773E+01
 0.3135332264241E+01
 0.3061631884812E+01
 0.2987934761960E+01
 0.2913838359202E+01
 0.2838501978910E+01
 0.2760894529939E+01
 0.2679985690059E+01
 0.2594849293073E+01
 0.2504697644850E+01
 0.2408882555667E+01
 0.2306840600581E+01
 0.2198100558486E+01
 0.2082563510595E+01
 0.1960984247598E+01
 0.1835634307622E+01
 0.1711345677946E+01
 0.1597257226738E+01
 0.1509911726124E+01
 0.1478543092057E+01
 0.1551916867642E+01
 0.1798993062847E+01
 0.2287041439996E+01
 0.3036878923314E+01
 0.3975984120303E+01
 0.3111965837481E+01
 0.3261109432214E+01
 0.3405996541624E+01
 0.3522203629260E+01
 0.3598287054024E+01
 0.3635330070408E+01
 0.3640870855459E+01
 0.3623560257269E+01
 0.3590574451042E+01
 0.3547035957036E+01
 0.3496292266532E+01
 0.3440379145008E+01
 0.3380433582352E+01
 0.3317030892559E+01
 0.3250472856753E+01
 0.3181031118416E+01
 0.3109251426800E+01
 0.3036084200463E+01
 0.2962377984408E+01
 0.2888371011930E+01
 0.2813705096385E+01
 0.2737614491659E+01
 0.2659141670221E+01
 0.2577313313704E+01
 0.2491249279207E+01
 0.2400217557437E+01
 0.2303665081201E+01
 0.2201201822350E+01
 0.2092647684223E+01
 0.1978337350992E+01
 0.1859619644825E+01
 0.1739545021100E+01
 0.1623943015431E+01
 0.1523196208834E+01
 0.1455216574827E+01
 0.1449868594424E+01
 0.1552916225801E+01
 0.1822134473420E+01
 0.2306277885709E+01
 0.3011764782872E+01
 0.3872099302544E+01
 0.2999022164275E+01
 0.3135233987239E+01
 0.3269600739936E+01
 0.3381073471557E+01
 0.3458301053945E+01
 0.3500306574685E+01
 0.3512323838878E+01
 0.3501441128370E+01
 0.3474080906381E+01
 0.3435138759039E+01
 0.3387995480048E+01
 0.3334823972422E+01
 0.3276931132532E+01
 0.3215065120878E+01
 0.3149682535079E+01
 0.3081166594404E+01
 0.3010105122869E+01
 0.2937421149282E+01
 0.2863917981818E+01
 0.2789827103885E+01
 0.2714834647237E+01
 0.2638251520191E+01
 0.2559203489759E+01
 0.2476793138164E+01
 0.2390211883388E+01
 0.2298811917425E+01
 0.2202162617013E+01
 0.2100068302431E+01
 0.1992648629001E+01
 0.1880661984197E+01
 0.1766014927629E+01
 0.1652461425045E+01
 0.1546690359176E+01
 0.1460072895185E+01
 0.1411387940940E+01
 0.1430189036564E+01
 0.1558168751914E+01
 0.1842658079548E+01
 0.2318103060622E+01
 0.2981628665810E+01
 0.3773368003187E+01
 0.2889630568909E+01
 0.3014358158685E+01
 0.3138938965260E+01
 0.3245207313314E+01
 0.3322261453519E+01
 0.3367726406042E+01
 0.3384980487780E+01
 0.3379685706114E+01
 0.3357463817837E+01
 0.3322884955723E+01
 0.3279277024568E+01
 0.3228890527609E+01
 0.3173163522410E+01
 0.3112989570128E+01
 0.3048958288332E+01
 0.2981549116616E+01
 0.2911387073963E+01
 0.2839373544229E+01
 0.2766276217546E+01
 0.2692325660119E+01
 0.2617253369406E+01
 0.2540448323204E+01
 0.2461126668106E+01
 0.2378481290310E+01
 0.2291795191914E+01
 0.2200526994118E+01
 0.2104388593182E+01
 0.2003391241268E+01
 0.1897953406860E+01
 0.1789236572082E+01
 0.1679657501921E+01
 0.1573588092348E+01
 0.1478431508235E+01
 0.1406292183973E+01
 0.1376341587609E+01
 0.1417052917900E+01
 0.1565493943361E+01
 0.1859735041803E+01
 0.2323355380897E+01
 0.2947556620204E+01
 0.3678934201669E+01
 0.2783304158194E+01
 0.2897781577035E+01
 0.3013297864521E+01
 0.3114138206806E+01
 0.3190043486639E+01
 0.3237730578652E+01
 0.3259114352372E+01
 0.3258596490157E+01
 0.3241001126529E+01
 0.3210510325087E+01
 0.3170330334093E+01
 0.3122735175523E+01
 0.3069255339204E+01
 0.3010901220737E+01
 0.2948373565897E+01
 0.2882233547126E+01
 0.2813138831856E+01
 0.2741973920138E+01
 0.2669479275991E+01
 0.2595890236860E+01
 0.2520985291391E+01
 0.2444232664456E+01
 0.2364943910452E+01
 0.2282412839078E+01
 0.2196029076816E+01
 0.2105374033233E+01
 0.2010315533675E+01
 0.1911076987231E+01
 0.1808366900934E+01
 0.1703721367850E+01
 0.1600012859573E+01
 0.1502141165744E+01
 0.1418078479170E+01
 0.1360415136799E+01
 0.1348284504639E+01
 0.1408497237605E+01
 0.1573346735258E+01
 0.1872964974359E+01
 0.2322821575146E+01
 0.2910417724092E+01
 0.3588083776131E+01
 0.2679646582831E+01
 0.2784931854593E+01
 0.2892070037498E+01
 0.2987425747500E+01
 0.3061472371736E+01
 0.3110375876634E+01
 0.3134918739345E+01
 0.3138416267956E+01
 0.3124931922521E+01
 0.3098226849987E+01
 0.3061334141845E+01
 0.3016504545015E+01
 0.2965324241359E+01
 0.2908892204951E+01
 0.2847998926082E+01
 0.2783273585994E+01
 0.2715401995045E+01
 0.2645255437510E+01
 0.2573554215439E+01
 0.2500543634696E+01
 0.2426050984900E+01
 0.2349624627452E+01
 0.2270674870113E+01
 0.2188603850244E+01
 0.2102918430689E+01
 0.2013333856978E+01
 0.1919881358667E+01
 0.1822995475731E+01
 0.1723659851388E+01
 0.1623751385356E+01
 0.1526540303414E+01
 0.1437363970583E+01
 0.1364622486228E+01
 0.1321158328147E+01
 0.1325692223577E+01
 0.1402972576150E+01
 0.1580656536916E+01
 0.1882220774115E+01
 0.2317155115840E+01
 0.2870959866615E+01
 0.3500203207129E+01
 0.2578330717342E+01
 0.2675336140337E+01
 0.2774737081261E+01
 0.2864662996134E+01
 0.2936345754013E+01
 0.2985657340616E+01
 0.3012520882343E+01
 0.3019333917756E+01
 0.3009457161985E+01
 0.2986221331900E+01
 0.2952450729278E+01
 0.2910334176782E+01
 0.2861480165967E+01
 0.2807049378943E+01
 0.2747901648893E+01
 0.2684721178001E+01
 0.2618217315769E+01
 0.2549250706840E+01
 0.2478527227212E+01
 0.2406306649414E+01
 0.2332466762719E+01
 0.2256636580488E+01
 0.2178327071369E+01
 0.2097053354706E+01
 0.2012446263908E+01
 0.1924361245629E+01
 0.1832995285682E+01
 0.1738987911342E+01
 0.1643578479982E+01
 0.1548947773952E+01
 0.1458705083979E+01
 0.1378537574278E+01
 0.1317138870146E+01
 0.1287388021859E+01
 0.1307282111394E+01
 0.1399274281680E+01
 0.1586695697902E+01
 0.1887563714605E+01
 0.2306861940688E+01
 0.2829729093592E+01
 0.3414810719694E+01
 0.2479083118164E+01
 0.2568599755474E+01
 0.2660854897278E+01
 0.2745478536713E+01
 0.2814448780529E+01
 0.2863525782157E+01
 0.2891994631556E+01
 0.2901490844039E+01
 0.2894741622366E+01
 0.2874655088051E+01
 0.2843824899663E+01
 0.2804347549253E+01
 0.2757824644062E+01
 0.2705453845666E+01
 0.2648145270736E+01
 0.2586625912946E+01
 0.2521623920760E+01
 0.2453990852347E+01
 0.2384422625825E+01
 0.2313197169200E+01
 0.2240244148415E+01
 0.2165273285013E+01
 0.2087896848831E+01
 0.2007745237374E+01
 0.1924576641722E+01
 0.1838389047112E+01
 0.1749543260186E+01
 0.1658873637028E+01
 0.1567852759204E+01
 0.1478927055099E+01
 0.1395987425853E+01
 0.1324987317973E+01
 0.1274787916834E+01
 0.1258110909254E+01
 0.1291986523422E+01
 0.1396475373338E+01
 0.1591000170338E+01
 0.1889109193754E+01
 0.2292602642421E+01
 0.2786186849621E+01
 0.3334711836723E+01
 0.2381672498894E+01
 0.2464389979159E+01
 0.2550041259456E+01
 0.2629535785106E+01
 0.2695563973830E+01
 0.2743901159147E+01
 0.2773371392356E+01
 0.2784987449600E+01
 0.2780916631171E+01
 0.2763664475439E+01
 0.2735583563813E+01
 0.2698655456715E+01
 0.2654450254910E+01
 0.2604180491665E+01
 0.2548789105655E+01
 0.2489034457612E+01
 0.2425658642827E+01
 0.2359504770691E+01
 0.2291262097986E+01
 0.2221229544745E+01
 0.2149389568822E+01
 0.2075532130206E+01
 0.1999370304890E+01
 0.1920650045485E+01
 0.1839257442665E+01
 0.1755331978009E+01
 0.1669392874386E+01
 0.1582456172406E+01
 0.1496203378524E+01
 0.1413308430455E+01
 0.1337888932793E+01
 0.1276086312106E+01
 0.1236812804874E+01
 0.1232463482824E+01
 0.1278924299214E+01
 0.1393875961414E+01
 0.1593276645965E+01
 0.1887087786295E+01
 0.2274711115847E+01
 0.2741207730568E+01
 0.3255871973426E+01
 0.2285901050355E+01
 0.2362423615621E+01
 0.2441965431884E+01
 0.2516530837056E+01
 0.2579477482410E+01
 0.2626682622104E+01
 0.2656649301223E+01
 0.2669889272457E+01
 0.2668083205024E+01
 0.2653362008754E+01
 0.2627835822736E+01
 0.2593355704806E+01
 0.2551440236134E+01
 0.2503297581523E+01
 0.2449887798101E+01
 0.2391990045637E+01
 0.2330355461036E+01
 0.2265818553531E+01
 0.2199064158780E+01
 0.2130414177174E+01
 0.2059904228656E+01
 0.1987403474759E+01
 0.1912724281070E+01
 0.1835726713468E+01
 0.1756422927006E+01
 0.1675090096802E+01
 0.1592397759390E+01
 0.1509528436052E+01
 0.1428347498449E+01
 0.1351719396684E+01
 0.1283936869834E+01
 0.1231256661831E+01
 0.1202535888458E+01
 0.1209700089749E+01
 0.1267375578316E+01
 0.1390951561686E+01
 0.1593372968785E+01
 0.1881712039491E+01
 0.2253683290879E+01
 0.2694847381031E+01
 0.3178407749424E+01
 0.2191597809531E+01
 0.2262457364648E+01
 0.2336339556966E+01
 0.2406189629458E+01
 0.2465982838411E+01
 0.2511755944907E+01
 0.2541800765626E+01
 0.2556232579208E+01
 0.2556315329914E+01
 0.2543837872198E+01
 0.2520673435702E+01
 0.2488533080981E+01
 0.2448868252893E+01
 0.2402866436244E+01
 0.2351490935685E+01
 0.2295532040787E+01
 0.2235745045196E+01
 0.2172955049405E+01
 0.2107843775284E+01
 0.2040757279728E+01
 0.1971784131375E+01
 0.1900871074618E+01
 0.1827927333778E+01
 0.1752924198503E+01
 0.1675996107235E+01
 0.1597551940906E+01
 0.1518401453328E+01
 0.1439877189278E+01
 0.1364003403443E+01
 0.1293799915223E+01
 0.1233686756258E+01
 0.1189969124119E+01
 0.1171353810911E+01
 0.1189181208558E+01
 0.1256756487816E+01
 0.1387318879257E+01
 0.1591220815937E+01
 0.1873233610675E+01
 0.2229875032230E+01
 0.2647409152972E+01
 0.3102356668606E+01
 0.2098613526946E+01
 0.2164280290421E+01
 0.2232911532470E+01
 0.2298264869372E+01
 0.2354883022046E+01
 0.2398998935066E+01
 0.2428778557749E+01
 0.2444029319454E+01
 0.2445663194376E+01
 0.2435161662077E+01
 0.2414171571538E+01
 0.2384259553693E+01
 0.2346798318813E+01
 0.2302941208411E+01
 0.2253642737851E+01
 0.2199695581115E+01
 0.2141854398550E+01
 0.2080933544491E+01
 0.2017612125863E+01
 0.1952260777142E+01
 0.1885020214686E+01
 0.1815912574915E+01
 0.1744940701961E+01
 0.1672183019421E+01
 0.1597890915510E+01
 0.1522597327403E+01
 0.1447240761178E+01
 0.1373286753761E+01
 0.1302894177277E+01
 0.1239205372192E+01
 0.1186723667608E+01
 0.1151741655278E+01
 0.1142732124906E+01
 0.1170361533517E+01
 0.1246597879171E+01
 0.1382701802491E+01
 0.1586817851784E+01
 0.1861891073274E+01
 0.2203621937004E+01
 0.2599091187742E+01
 0.3027528220915E+01
 0.2006816645534E+01
 0.2067707876082E+01
 0.2131459122287E+01
 0.2192532989270E+01
 0.2245991393670E+01
 0.2288285304377E+01
 0.2317520671775E+01
 0.2333271421311E+01
 0.2336156253839E+01
 0.2327384234753E+01
 0.2308389755785E+01
 0.2280594655669E+01
 0.2245284856289E+01
 0.2203568759191E+01
 0.2156381829544E+01
 0.2104511308069E+01
 0.2048706593644E+01
 0.1989769547391E+01
 0.1928376471996E+01
 0.1864922315804E+01
 0.1799598576085E+01
 0.1732500048358E+01
 0.1663719256648E+01
 0.1593436694958E+01
 0.1522014169383E+01
 0.1450099827635E+01
 0.1378748635193E+01
 0.1309542068941E+01
 0.1244750529801E+01
 0.1187608553839E+01
 0.1142662565369E+01
 0.1116137264009E+01
 0.1116199598829E+01
 0.1152778810557E+01
 0.1236525647790E+01
 0.1376907645101E+01
 0.1580202682341E+01
 0.1847913003128E+01
 0.2175209374576E+01
 0.2550003412953E+01
 0.2953760459403E+01
 0.1916090114713E+01
 0.1972577287620E+01
 0.2031785080611E+01
 0.2088791266781E+01
 0.2139131883056E+01
 0.2179487378646E+01
 0.2207954147747E+01
 0.2223934453168E+01
 0.2227806053639E+01
 0.2220539566568E+01
 0.2203372940329E+01
 0.2177586008579E+01
 0.2144372878936E+01
 0.2104788634826E+01
 0.2059741101896E+01
 0.2010005179927E+01
 0.1956320594845E+01
 0.1899474664496E+01
 0.1840140123156E+01
 0.1778735362020E+01
 0.1715500766904E+01
 0.1650600563382E+01
 0.1584212422145E+01
 0.1516613077605E+01
 0.1448267339270E+01
 0.1379928930271E+01
 0.1312756610733E+01
 0.1248431159152E+01
 0.1189312900997E+01
 0.1138700834486E+01
 0.1101147925286E+01
 0.1082761422170E+01
 0.1091342528871E+01
 0.1136043266566E+01
 0.1226244113614E+01
 0.1369807065469E+01
 0.1571440423533E+01
 0.1831512309007E+01
 0.2144870852444E+01
 0.2500224420214E+01
 0.2880920758528E+01
 0.1826328839491E+01
 0.1878743568136E+01
 0.1933713104861E+01
 0.1986855174965E+01
 0.2034138704464E+01
 0.2072477940247E+01
 0.2099998046367E+01
 0.2115980702486E+01
 0.2120608774692E+01
 0.2114646560139E+01
 0.2099152636864E+01
 0.2075269950876E+01
 0.2044098277409E+01
 0.2006633136016E+01
 0.1963747657805E+01
 0.1916198366492E+01
 0.1864711160786E+01
 0.1810056554686E+01
 0.1752902479161E+01
 0.1693689370284E+01
 0.1632704137323E+01
 0.1570176768188E+01
 0.1506365060573E+01
 0.1441635581419E+01
 0.1376548124415E+01
 0.1311951912076E+01
 0.1249096837093E+01
 0.1189747082558E+01
 0.1136332960561E+01
 0.1092192750295E+01
 0.1061852870877E+01
 0.1051259243313E+01
 0.1067799167652E+01
 0.1119827934761E+01
 0.1215521770889E+01
 0.1361318564523E+01
 0.1560612287552E+01
 0.1812882859658E+01
 0.2112801248276E+01
 0.2449820029794E+01
 0.2808899094763E+01
 0.1737437617687E+01
 0.1786076553843E+01
 0.1837084464945E+01
 0.1886555986441E+01
 0.1930855780964E+01
 0.1967131428588E+01
 0.1993565735347E+01
 0.2009361734557E+01
 0.2014547491257E+01
 0.2009710753783E+01
 0.1995748068988E+01
 0.1973672235838E+01
 0.1944488189639E+01
 0.1909127471016E+01
 0.1868422837475E+01
 0.1823107220257E+01
 0.1773888819923E+01
 0.1721518953538E+01
 0.1666659137215E+01
 0.1609770006910E+01
 0.1551182218087E+01
 0.1491187479334E+01
 0.1430118313456E+01
 0.1368424304204E+01
 0.1306751846618E+01
 0.1246035438577E+01
 0.1187603745135E+01
 0.1133289432455E+01
 0.1085574611195E+01
 0.1047814104107E+01
 0.1024477975769E+01
 0.1021312564285E+01
 0.1045254391613E+01
 0.1103859908752E+01
 0.1204179307324E+01
 0.1351396539496E+01
 0.1547808095376E+01
 0.1792200072919E+01
 0.2079167342039E+01
 0.2398849299550E+01
 0.2737603333911E+01
 0.1649329456036E+01
 0.1694458354273E+01
 0.1741755184255E+01
 0.1787738630238E+01
 0.1829136001971E+01
 0.1863324669290E+01
 0.1888566623349E+01
 0.1904020497646E+01
 0.1909594147180E+01
 0.1905725908307E+01
 0.1893167309674E+01
 0.1872808772482E+01
 0.1845561437638E+01
 0.1812289982049E+01
 0.1773782317278E+01
 0.1730743318209E+01
 0.1683859912460E+01
 0.1633861758583E+01
 0.1581402053212E+01
 0.1526959417370E+01
 0.1470905127653E+01
 0.1413588266121E+01
 0.1355410396178E+01
 0.1296897046357E+01
 0.1238772673005E+01
 0.1182046918604E+01
 0.1128115393919E+01
 0.1078865457905E+01
 0.1036814591685E+01
 0.1005313721814E+01
 0.9887498575320E+00
 0.9926370284720E+00
 0.1023434679124E+01
 0.1087912546074E+01
 0.1192079661122E+01
 0.1340022068180E+01
 0.1533121375489E+01
 0.1769622817079E+01
 0.2044114748635E+01
 0.2347366462447E+01
 0.2666955927666E+01
 0.1561924183010E+01
 0.1603781276707E+01
 0.1647593670929E+01
 0.1690259786978E+01
 0.1728840396494E+01
 0.1760937260696E+01
 0.1784907454598E+01
 0.1799893039216E+01
 0.1805711267680E+01
 0.1802675458626E+01
 0.1791408380930E+01
 0.1772686387556E+01
 0.1747329014922E+01
 0.1716132434478E+01
 0.1679836274613E+01
 0.1639113568066E+01
 0.1594626692275E+01
 0.1547081168332E+01
 0.1497119748913E+01
 0.1445236528219E+01
 0.1391839996185E+01
 0.1337332024498E+01
 0.1282177343237E+01
 0.1226970230587E+01
 0.1172504680711E+01
 0.1119855637569E+01
 0.1070474537525E+01
 0.1026290865523E+01
 0.9898427632946E+00
 0.9644589577647E+00
 0.9544196547153E+00
 0.9649792387691E+00
 0.1002103444758E+01
 0.1071798607299E+01
 0.1179119830594E+01
 0.1327195884351E+01
 0.1516646261782E+01
 0.1745295427134E+01
 0.2007772396722E+01
 0.2295421658480E+01
 0.2596891623042E+01
 0.1475147295837E+01
 0.1513946102551E+01
 0.1554478716917E+01
 0.1593986201445E+01
 0.1629837275990E+01
 0.1659851713978E+01
 0.1682493256847E+01
 0.1696909893430E+01
 0.1702853429921E+01
 0.1700533827415E+01
 0.1690460300946E+01
 0.1673303592169E+01
 0.1649794611047E+01
 0.1620660358929E+01
 0.1586589611473E+01
 0.1548220372952E+01
 0.1506187483168E+01
 0.1461169869169E+01
 0.1413797558556E+01
 0.1364577376956E+01
 0.1313951400433E+01
 0.1262369536659E+01
 0.1210353704384E+01
 0.1158559728398E+01
 0.1107842777459E+01
 0.1059333694440E+01
 0.1014529451252E+01
 0.9753903583103E+00
 0.9444621507915E+00
 0.9250350268065E+00
 0.9212614544919E+00
 0.9381140264701E+00
 0.9810567563901E+00
 0.1055364280561E+01
 0.1165224177495E+01
 0.1312933064520E+01
 0.1498475546554E+01
 0.1719349476063E+01
 0.1970255548972E+01
 0.2243061391813E+01
 0.2527355775713E+01
 0.1388928993614E+01
 0.1424860644127E+01
 0.1462297797741E+01
 0.1498793189111E+01
 0.1532001380929E+01
 0.1559953418418E+01
 0.1581228017952E+01
 0.1594997194241E+01
 0.1600968518766E+01
 0.1599267605045E+01
 0.1590304070918E+01
 0.1574651341541E+01
 0.1552955162610E+01
 0.1525873437887E+01
 0.1494042230246E+01
 0.1458061849257E+01
 0.1418536884865E+01
 0.1376117265748E+01
 0.1331417910574E+01
 0.1284955465627E+01
 0.1237201806160E+01
 0.1188650015085E+01
 0.1139873193965E+01
 0.1091581600938E+01
 0.1044683492950E+01
 0.1000356766956E+01
 0.9601345537141E+00
 0.9259979610720E+00
 0.9004887979084E+00
 0.8868442238831E+00
 0.8890707197475E+00
 0.9118418670882E+00
 0.9601194448072E+00
 0.1038484023277E+01
 0.1150338985269E+01
 0.1297259020579E+01
 0.1478699466812E+01
 0.1691905261669E+01
 0.1931667982114E+01
 0.2190328966704E+01
 0.2458303065158E+01
 0.1303203359124E+01
 0.1336438525821E+01
 0.1370945618241E+01
 0.1404563312938E+01
 0.1435213051749E+01
 0.1461130484907E+01
 0.1481015151829E+01
 0.1494077562296E+01
 0.1499998795290E+01
 0.1498836605134E+01
 0.1490913599501E+01
 0.1476713781028E+01
 0.1456801423199E+01
 0.1431765930408E+01
 0.1402189356763E+01
 0.1368632093920E+01
 0.1331666025872E+01
 0.1291909752592E+01
 0.1249960642499E+01
 0.1206342136766E+01
 0.1161552017754E+01
 0.1116121632578E+01
 0.1070669298180E+01
 0.1025952763561E+01
 0.9829256566773E+00
 0.9428047288317E+00
 0.9071508583221E+00
 0.8779571757040E+00
 0.8577514867047E+00
 0.8497050783099E+00
 0.8576627505384E+00
 0.8859864628870E+00
 0.9391416027148E+00
 0.1021056143320E+01
 0.1134428057099E+01
 0.1280206479599E+01
 0.1457404966302E+01
 0.1663073059944E+01
 0.1892103671313E+01
 0.2137264947777E+01
 0.2389696476554E+01
 0.1217907659936E+01
 0.1248598145325E+01
 0.1280322859457E+01
 0.1311185207802E+01
 0.1339357435772E+01
 0.1363273506858E+01
 0.1381757802862E+01
 0.1394070808146E+01
 0.1399881805855E+01
 0.1399194808838E+01
 0.1392256567801E+01
 0.1379468976123E+01
 0.1361318548423E+01
 0.1338327131349E+01
 0.1311021908039E+01
 0.1279921499701E+01
 0.1245562862821E+01
 0.1208531027434E+01
 0.1169403350366E+01
 0.1128706973805E+01
 0.1086961638247E+01
 0.1044732043308E+01
 0.1002675847919E+01
 0.9615915854707E+00
 0.9224709785581E+00
 0.8865621417873E+00
 0.8554462844542E+00
 0.8311210035788E+00
 0.8160913612092E+00
 0.8134514787825E+00
 0.8268712045541E+00
 0.8603925035775E+00
 0.9179954606475E+00
 0.1002999038479E+01
 0.1117469167278E+01
 0.1261813210194E+01
 0.1434675276935E+01
 0.1632954204177E+01
 0.1851648164270E+01
 0.2083907630131E+01
 0.2321506473438E+01
 0.1132981745409E+01
 0.1161261779600E+01
 0.1190335089769E+01
 0.1218552531545E+01
 0.1244323735659E+01
 0.1266275267574E+01
 0.1283359028720E+01
 0.1294894489446E+01
 0.1300551159486E+01
 0.1300291214318E+01
 0.1294295242545E+01
 0.1282889628987E+01
 0.1266486696524E+01
 0.1245541865464E+01
 0.1220526905817E+01
 0.1191917120716E+01
 0.1160212529856E+01
 0.1125962451096E+01
 0.1089721778541E+01
 0.1052018232897E+01
 0.1013389547883E+01
 0.9744289044467E+00
 0.9358275686897E+00
 0.8984184385236E+00
 0.8632245498956E+00
 0.8315186443751E+00
 0.8048958554991E+00
 0.7853518667196E+00
 0.7753614879233E+00
 0.7779317964059E+00
 0.7965466936496E+00
 0.8349236104732E+00
 0.8965726206973E+00
 0.9842480144919E+00
 0.1099451209209E+01
 0.1242120316861E+01
 0.1410589721812E+01
 0.1601642035609E+01
 0.1810379743917E+01
 0.2030293497838E+01
 0.2253710314634E+01
 0.1048367520781E+01
 0.1074354807024E+01
 0.1100891809635E+01
 0.1126563023548E+01
 0.1150004501232E+01
 0.1170030416036E+01
 0.1185721894884E+01
 0.1196464356462E+01
 0.1201937201861E+01
 0.1202070611413E+01
 0.1196987250403E+01
 0.1186943789960E+01
 0.1172281650960E+01
 0.1153391022485E+01
 0.1130687942795E+01
 0.1104603096494E+01
 0.1075597747921E+01
 0.1044183465370E+01
 0.1010890262930E+01
 0.9762433204598E+00
 0.9407944166321E+00
 0.9051604147355E+00
 0.8700606247891E+00
 0.8363562132459E+00
 0.8050952839980E+00
 0.7775692590389E+00
 0.7553818080787E+00
 0.7405214544240E+00
 0.7354263792143E+00
 0.7430080262327E+00
 0.7665554679952E+00
 0.8094604648303E+00
 0.8747816247922E+00
 0.9647526069366E+00
 0.1080371911065E+01
 0.1221170969900E+01
 0.1385223675925E+01
 0.1569222756435E+01
 0.1768370434107E+01
 0.1976457654098E+01
 0.2186291489521E+01
 0.9640084829839E+00
 0.9878050223535E+00
 0.1011905604330E+01
 0.1035117653703E+01
 0.1056294964399E+01
 0.1074435128550E+01
 0.1088749510188E+01
 0.1098694718951E+01
 0.1103967616528E+01
 0.1104474306912E+01
 0.1100286333708E+01
 0.1091595580809E+01
 0.1078675480184E+01
 0.1061852148415E+01
 0.1041485717933E+01
 0.1017961152730E+01
 0.9916993143022E+00
 0.9631720915099E+00
 0.9328822521758E+00
 0.9013493425472E+00
 0.8691352776296E+00
 0.8368758969740E+00
 0.8053131837992E+00
 0.7753308264671E+00
 0.7479963191133E+00
 0.7246146390582E+00
 0.7067936342743E+00
 0.6965105175940E+00
 0.6961615002216E+00
 0.7085549626144E+00
 0.7367781954204E+00
 0.7838991177774E+00
 0.8525458320632E+00
 0.9444743390526E+00
 0.1060236014239E+01
 0.1199009472195E+01
 0.1358648640638E+01
 0.1535776204913E+01
 0.1725686879823E+01
 0.1922434215039E+01
 0.2119239245512E+01
 0.8798493054603E+00
 0.9015420251613E+00
 0.9232913829591E+00
 0.9441198466654E+00
 0.9630924164249E+00
 0.9793867719955E+00
 0.9923450320009E+00
 0.1001498769738E+01
 0.1006567989865E+01
 0.1007440835036E+01
 0.1004143119625E+01
 0.9968059600006E+00
 0.9856372644745E+00
 0.9709001238803E+00
 0.9528986737075E+00
 0.9319712144369E+00
 0.9084967112548E+00
 0.8829055512438E+00
 0.8556709514398E+00
 0.8273037724109E+00
 0.7983722081548E+00
 0.7695264693181E+00
 0.7415260423485E+00
 0.7152717557220E+00
 0.6918454123067E+00
 0.6725612785177E+00
 0.6590280768004E+00
 0.6532086292270E+00
 0.6574527755090E+00
 0.6744594197967E+00
 0.7071088407171E+00
 0.7581494769311E+00
 0.8298015792406E+00
 0.9233848552963E+00
 0.1039053829884E+01
 0.1175680588605E+01
 0.1330932400812E+01
 0.1501376565280E+01
 0.1682391122452E+01
 0.1868256662735E+01
 0.2052548192858E+01
 0.7958354612853E+00
 0.8154966653713E+00
 0.8349656851516E+00
 0.8534747684122E+00
 0.8702956280645E+00
 0.8847835862445E+00
 0.8964116741983E+00
 0.9047889090706E+00
 0.9096623898731E+00
 0.9109067057670E+00
 0.9085059564187E+00
 0.9025335846621E+00
 0.8931339463765E+00
 0.8805079890037E+00
 0.8649037986825E+00
 0.8466121993918E+00
 0.8259689064865E+00
 0.8033610877121E+00
 0.7792301697971E+00
 0.7540753190438E+00
 0.7284671997955E+00
 0.7030658819801E+00
 0.6786433803155E+00
 0.6561126544993E+00
 0.6365653638519E+00
 0.6213217122872E+00
 0.6119890960919E+00
 0.6105139263290E+00
 0.6191961082025E+00
 0.6406195064119E+00
 0.6774536477672E+00
 0.7321339633081E+00
 0.8064965985578E+00
 0.9014643780769E+00
 0.1016840105311E+01
 0.1151229081635E+01
 0.1302139241979E+01
 0.1466093021269E+01
 0.1638541284659E+01
 0.1813958156902E+01
 0.1986217972581E+01
 0.7119128753653E+00
 0.7296005318320E+00
 0.7468460392725E+00
 0.7630886648040E+00
 0.7778043173114E+00
 0.7905244115002E+00
 0.8008527653734E+00
 0.8084771357762E+00
 0.8131740387024E+00
 0.8148072807187E+00
 0.8133219137058E+00
 0.8087358722245E+00
 0.8011314137918E+00
 0.7906480305029E+00
 0.7774777184549E+00
 0.7618631228295E+00
 0.7440954842303E+00
 0.7245171320077E+00
 0.7035355218822E+00
 0.6816351485918E+00
 0.6593853652558E+00
 0.6374516548841E+00
 0.6166137589530E+00
 0.5977921371097E+00
 0.5820845320033E+00
 0.5708147410924E+00
 0.5655878286695E+00
 0.5683328459073E+00
 0.5812969216397E+00
 0.6069439606531E+00
 0.6477302261997E+00
 0.7057863313820E+00
 0.7825886690060E+00
 0.8787004424191E+00
 0.9936131453730E+00
 0.1125699410392E+01
 0.1272330211138E+01
 0.1429990360029E+01
 0.1594192176495E+01
 0.1759571806201E+01
 0.1920252974802E+01
 0.6280275976507E+00
 0.6437854715330E+00
 0.6588503579294E+00
 0.6728682460269E+00
 0.6855186800381E+00
 0.6965085077454E+00
 0.7055719407869E+00
 0.7124756233748E+00
 0.7170262266676E+00
 0.7190779480035E+00
 0.7185381370193E+00
 0.7153704678387E+00
 0.7095960360855E+00
 0.7012933651896E+00
 0.6905983230264E+00
 0.6777047751403E+00
 0.6628583815169E+00
 0.6463551005382E+00
 0.6285662752434E+00
 0.6099587488710E+00
 0.5910967596338E+00
 0.5726467673055E+00
 0.5553915718873E+00
 0.5402548883200E+00
 0.5283375366903E+00
 0.5209657328863E+00
 0.5197425588727E+00
 0.5265798656954E+00
 0.5436697315248E+00
 0.5733515518772E+00
 0.6178667437854E+00
 0.6790506449635E+00
 0.7580444786760E+00
 0.8550868699659E+00
 0.9693941447156E+00
 0.1099135559852E+01
 0.1241563409472E+01
 0.1393129532498E+01
 0.1549395832704E+01
 0.1705130900621E+01
 0.1854662095355E+01
 0.5441254901720E+00
 0.5579831283465E+00
 0.5708963583873E+00
 0.5827201192787E+00
 0.5933390247358E+00
 0.6026355679317E+00
 0.6104736417694E+00
 0.6166977274816E+00
 0.6211437792095E+00
 0.6236559619065E+00
 0.6241039664344E+00
 0.6223975631702E+00
 0.6184971293927E+00
 0.6124205236415E+00
 0.6042474601588E+00
 0.5941225260829E+00
 0.5822448039266E+00
 0.5688624127190E+00
 0.5543084385251E+00
 0.5390290219955E+00
 0.5235793682355E+00
 0.5086223900543E+00
 0.4949393488599E+00
 0.4834533862058E+00
 0.4752663272059E+00
 0.4717070838280E+00
 0.4743787329616E+00
 0.4851772589005E+00
 0.5062377551827E+00
 0.5397705541786E+00
 0.5878012259349E+00
 0.6518804019792E+00
 0.7328386781672E+00
 0.8306229496982E+00
 0.9442066954598E+00
 0.1071580975112E+01
 0.1209894308828E+01
 0.1355568176226E+01
 0.1504201990426E+01
 0.1650669106344E+01
 0.1789458519014E+01
 0.4601519215750E+00
 0.4721244912839E+00
 0.4829009978859E+00
 0.4925502932156E+00
 0.5011656222102E+00
 0.5088061739904E+00
 0.5154643398550E+00
 0.5210600139059E+00
 0.5254558220754E+00
 0.5284838222694E+00
 0.5299747967471E+00
 0.5297841242496E+00
 0.5278114729101E+00
 0.5240142093898E+00
 0.5184159163719E+00
 0.5111115165814E+00
 0.5022526120458E+00
 0.4920380364155E+00
 0.4807603918588E+00
 0.4688418656706E+00
 0.4568244316711E+00
 0.4453626819260E+00
 0.4352317273803E+00
 0.4273508104574E+00
 0.4228219480895E+00
 0.4229789877176E+00
 0.4294290596478E+00
 0.4440548717077E+00
 0.4689325637421E+00
 0.5061382982545E+00
 0.5574809645789E+00
 0.6242378021557E+00
 0.7069531075168E+00
 0.8053127980568E+00
 0.9180764418229E+00
 0.1043078581094E+01
 0.1177376086673E+01
 0.1317361107001E+01
 0.1458658516222E+01
 0.1596220624324E+01
 0.1724659517188E+01
 0.3760514643366E+00
 0.3861394439277E+00
 0.3947799192911E+00
 0.4022638408218E+00
 0.4088990935660E+00
 0.4149233962259E+00
 0.4204556467762E+00
 0.4254869378985E+00
 0.4299018935419E+00
 0.4335165796575E+00
 0.4361203183673E+00
 0.4375128498561E+00
 0.4375328280531E+00
 0.4360772806737E+00
 0.4331138030213E+00
 0.4286874036134E+00
 0.4229013654800E+00
 0.4159037330144E+00
 0.4079441620959E+00
 0.3994171947556E+00
 0.3908467974817E+00
 0.3828739482479E+00
 0.3762628816637E+00
 0.3719263562227E+00
 0.3709676896142E+00
 0.3747308031996E+00
 0.3848337732744E+00
 0.4031499329132E+00
 0.4316937830601E+00
 0.4724008100302E+00
 0.5268620406182E+00
 0.5960931531349E+00
 0.6803761817337E+00
 0.7791648758352E+00
 0.8910308588118E+00
 0.1013670872554E+01
 0.1144059976280E+01
 0.1278560786269E+01
 0.1412811791805E+01
 0.1541820313747E+01
 0.1660286246875E+01
 0.2917675946445E+00
 0.2999563118115E+00
 0.3064469211078E+00
 0.3117650362396E+00
 0.3164424358731E+00
 0.3208978883980E+00
 0.3253731839375E+00
 0.3299235701751E+00
 0.3344481077512E+00
 0.3387407613437E+00
 0.3425455046505E+00
 0.3456046331455E+00
 0.3476954504436E+00
 0.3486550360771E+00
 0.3483954349299E+00
 0.3469116805388E+00
 0.3442579038295E+00
 0.3405296410284E+00
 0.3359306023096E+00
 0.3308230793598E+00
 0.3257071234840E+00
 0.3212038416469E+00
 0.3180617042093E+00
 0.3171857846971E+00
 0.3196851516724E+00
 0.3269236292981E+00
 0.3405412065744E+00
 0.3624069078398E+00
 0.3944688502798E+00
 0.4385125488425E+00
 0.4959089674848E+00
 0.5674244127818E+00
 0.6531024228353E+00
 0.7521916433979E+00
 0.8630991366297E+00
 0.9834000624146E+00
 0.1109995630258E+01
 0.1239217772049E+01
 0.1366707069025E+01
 0.1487503781826E+01
 0.1596363536654E+01
 0.2072424177498E+00
 0.2135014288405E+00
 0.2178135534785E+00
 0.2209593637186E+00
 0.2237094789934E+00
 0.2266667035186E+00
 0.2301879405268E+00
 0.2343793789864E+00
 0.2391414254168E+00
 0.2442363591646E+00
 0.2493575906465E+00
 0.2541883479414E+00
 0.2584451697853E+00
 0.2619066374457E+00
 0.2644305026464E+00
 0.2659621342633E+00
 0.2665055832934E+00
 0.2661016347552E+00
 0.2649038868968E+00
 0.2632358747237E+00
 0.2615656160747E+00
 0.2604864304186E+00
 0.2607262685107E+00
 0.2631844981260E+00
 0.2689869690220E+00
 0.2795354992068E+00
 0.2965089852319E+00
 0.3217774159408E+00
 0.3572128358873E+00
 0.4044362661730E+00
 0.4645944690649E+00
 0.5382168686780E+00
 0.6251321293185E+00
 0.7244093395902E+00
 0.8343121561363E+00
 0.9523082785863E+00
 0.1075231495973E+01
 0.1199381161671E+01
 0.1320388806939E+01
 0.1433307442732E+01
 0.1532919643362E+01
 0.1224166098477E+00
 0.1266989227554E+00
 0.1287895817524E+00
 0.1297667763907E+00
 0.1306720874440E+00
 0.1322947515557E+00
 0.1350814949008E+00
 0.1391524020493E+00
 0.1443775432713E+00
 0.1504698574949E+00
 0.1570679666083E+00
 0.1638001122153E+00
 0.1703292446198E+00
 0.1763822382631E+00
 0.1817671437198E+00
 0.1863812680738E+00
 0.1901774690996E+00
 0.1931383695443E+00
 0.1953606109900E+00
 0.1971181982099E+00
 0.1988345227521E+00
 0.2010646704471E+00
 0.2045132987030E+00
 0.2100845422722E+00
 0.2189465549131E+00
 0.2325728168999E+00
 0.2527065775884E+00
 0.2812202493068E+00
 0.3198883479739E+00
 0.3701430214753E+00
 0.4328994149602E+00
 0.5084629605039E+00
 0.5964711773959E+00
 0.6958378733060E+00
 0.8047025438298E+00
 0.9204378006597E+00
 0.1039815200692E+01
 0.1159099034734E+01
 0.1273901007543E+01
 0.1379268551464E+01
 0.1469985960118E+01
 0.3723342772193E-01
 0.3947469425504E-01
 0.3929890207639E-01
 0.3833636663454E-01
 0.3811890340534E-01
 0.3956713944743E-01
 0.4286961860973E-01
 0.4779432872041E-01
 0.5402927373564E-01
 0.6129040053908E-01
 0.6929590963549E-01
 0.7774382392363E-01
 0.8632633427910E-01
 0.9476162416259E-01
 0.1028233056585E+00
 0.1103588717667E+00
 0.1172604827941E+00
 0.1234399605115E+00
 0.1289178015202E+00
 0.1338926592085E+00
 0.1387183164838E+00
 0.1438970756759E+00
 0.1501165740718E+00
 0.1583203026370E+00
 0.1697783165657E+00
 0.1860987161605E+00
 0.2091211352860E+00
 0.2407015751099E+00
 0.2824655510249E+00
 0.3356124222257E+00
 0.4008129531030E+00
 0.4781622581344E+00
 0.5671309523070E+00
 0.6665008202643E+00
 0.7743047977054E+00
 0.8878313283677E+00
 0.1003793941901E+01
 0.1118418903419E+01
 0.1227287571801E+01
 0.1325425226107E+01
 0.1407596648768E+01
 0.4840407449882E-01
 0.4828952548919E-01
 0.5088190936681E-01
 0.5494121385347E-01
 0.5913166706870E-01
 0.6224430255573E-01
 0.6348433394805E-01
 0.6258210226057E-01
 0.5975688861643E-01
 0.5562346713378E-01
 0.5109775639166E-01
 0.4729317948821E-01
 0.4531439414357E-01
 0.4587040088645E-01
 0.4894517112141E-01
 0.5393019929054E-01
 0.6004700108053E-01
 0.6661200442018E-01
 0.7316540368690E-01
 0.7953273900280E-01
 0.8580430011385E-01
 0.9233132457534E-01
 0.9977754067726E-01
 0.1092022081930E+00
 0.1221018723182E+00
 0.1403161459015E+00
 0.1657725579629E+00
 0.2001955352589E+00
 0.2449223693547E+00
 0.3008332186360E+00
 0.3683329107465E+00
 0.4473216194873E+00
 0.5371284129241E+00
 0.6364255212946E+00
 0.7431554784224E+00
 0.8545322738875E+00
 0.9672148736865E+00
 0.1077388172864E+01
 0.1180592705128E+01
 0.1271816482087E+01
 0.1345788173198E+01
 0.1345134731131E+00
 0.1366268340979E+00
 0.1416685855526E+00
 0.1479135887274E+00
 0.1536747135670E+00
 0.1575619322041E+00
 0.1586847324740E+00
 0.1567006261653E+00
 0.1517339178937E+00
 0.1442336267060E+00
 0.1348291737149E+00
 0.1242157254442E+00
 0.1130782487745E+00
 0.1020490449650E+00
 0.9168619504253E-01
 0.8245948333046E-01
 0.7476599525388E-01
 0.6888889410291E-01
 0.6483967556179E-01
 0.6235602293356E-01
 0.6113178357860E-01
 0.6112532387708E-01
 0.6289163115162E-01
 0.6783709421492E-01
 0.7810081092656E-01
 0.9587957335931E-01
 0.1227601384279E+00
 0.1596858852028E+00
 0.2072450457901E+00
 0.2658045234286E+00
 0.3354665939610E+00
 0.4159555707157E+00
 0.5064862993438E+00
 0.6056432825493E+00
 0.7112934639943E+00
 0.8205850707677E+00
 0.9301254727852E+00
 0.1036054603833E+01
 0.1133861408549E+01
 0.1218482327883E+01
 0.1284598688134E+01
 0.2211943706670E+00
 0.2256620803099E+00
 0.2332814379513E+00
 0.2419442214960E+00
 0.2496420400002E+00
 0.2547818872885E+00
 0.2563851328671E+00
 0.2541063452775E+00
 0.2481159352685E+00
 0.2389257470012E+00
 0.2272206535232E+00
 0.2137282217595E+00
 0.1991334492100E+00
 0.1840312241192E+00
 0.1689033940075E+00
 0.1541094377890E+00
 0.1399331860020E+00
 0.1266048505405E+00
 0.1141578693790E+00
 0.1023417376384E+00
 0.9071494376297E-01
 0.7881206786744E-01
 0.6647654231230E-01
 0.5475209626529E-01
 0.4817125759945E-01
 0.5561068426257E-01
 0.8045605712543E-01
 0.1191710555018E+00
 0.1694295303261E+00
 0.2305382626928E+00
 0.3022322347479E+00
 0.3840869835831E+00
 0.4752335022306E+00
 0.5741896825904E+00
 0.6787602712645E+00
 0.7860354952111E+00
 0.8925738583746E+00
 0.9944667479263E+00
 0.1087140095494E+01
 0.1165464013085E+01
 0.1224067230930E+01
 0.3085191665221E+00
 0.3154913112995E+00
 0.3258285961993E+00
 0.3370255515537E+00
 0.3467417498881E+00
 0.3531773244477E+00
 0.3552758573926E+00
 0.3527122125539E+00
 0.3457332825456E+00
 0.3349471357852E+00
 0.3211304052543E+00
 0.3050857749082E+00
 0.2875531959298E+00
 0.2691637098552E+00
 0.2504197597466E+00
 0.2316892757821E+00
 0.2132618710444E+00
 0.1953814772461E+00
 0.1780913370222E+00
 0.1611205652174E+00
 0.1439420675748E+00
 0.1258505714940E+00
 0.1060511819689E+00
 0.8383594311352E-01
 0.5920827951389E-01
 0.3666044862599E-01
 0.4087184592941E-01
 0.7868482568402E-01
 0.1314852720425E+00
 0.1950643538407E+00
 0.2686615898596E+00
 0.3517481838939E+00
 0.4434056264868E+00
 0.5421049961927E+00
 0.6456004539136E+00
 0.7509310036408E+00
 0.8546090305401E+00
 0.9526742844239E+00
 0.1040477360711E+01
 0.1112804596528E+01
 0.1164232645763E+01
 0.3965683857143E+00
 0.4062217126878E+00
 0.4194389567512E+00
 0.4332819718809E+00
 0.4450575370749E+00
 0.4527581767067E+00
 0.4552669260239E+00
 0.4523056364814E+00
 0.4442248410829E+00
 0.4317511158126E+00
 0.4157690658935E+00
 0.3971681850003E+00
 0.3767532622065E+00
 0.3552023711913E+00
 0.3330527841080E+00
 0.3107001869454E+00
 0.2884640090711E+00
 0.2666273397406E+00
 0.2452713695950E+00
 0.2241499449698E+00
 0.2027454955038E+00
 0.1803369640556E+00
 0.1560522163572E+00
 0.1289224770096E+00
 0.9797417953923E-01
 0.6253453202102E-01
 0.2544784221878E-01
 0.3844717419790E-01
 0.9344812358543E-01
 0.1594427906636E+00
 0.2348047839669E+00
 0.3189827388136E+00
 0.4110458044707E+00
 0.5094347498318E+00
 0.6118620935766E+00
 0.7153211080083E+00
 0.8162809932506E+00
 0.9107281169067E+00
 0.9939248691290E+00
 0.1060550127475E+01
 0.1105132152655E+01
 0.4854288988410E+00
 0.4979698770183E+00
 0.5142534852685E+00
 0.5308612228419E+00
 0.5447214101240E+00
 0.5536216929091E+00
 0.5564089650779E+00
 0.5528849790282E+00
 0.5435340249091E+00
 0.5292228252449E+00
 0.5109564744812E+00
 0.4897168101786E+00
 0.4663749649567E+00
 0.4416561973287E+00
 0.4161333944800E+00
 0.3902326324912E+00
 0.3643077070513E+00
 0.3386860828444E+00
 0.3134923732557E+00
 0.2885131533088E+00
 0.2632563537153E+00
 0.2370222202537E+00
 0.2089538878939E+00
 0.1780796118161E+00
 0.1433571869883E+00
 0.1037312575776E+00
 0.5824333210058E-01
 0.8536234936699E-02
 0.5544593378504E-01
 0.1237964174416E+00
 0.2007399752333E+00
 0.2858484038572E+00
 0.3782058538365E+00
 0.4762304299334E+00
 0.5775974036724E+00
 0.6792578404000E+00
 0.7776407610719E+00
 0.8686799855517E+00
 0.9475381503491E+00
 0.1008751957809E+01
 0.1046799371089E+01
 0.5751948038187E+00
 0.5908632464647E+00
 0.6104262475828E+00
 0.6299259636412E+00
 0.6458832538773E+00
 0.6558885520699E+00
 0.6587854906298E+00
 0.6544959533240E+00
 0.6436720670810E+00
 0.6273429827596E+00
 0.6066451434754E+00
 0.5826553342708E+00
 0.5563089766575E+00
 0.5283747485090E+00
 0.4994577132646E+00
 0.4700123929170E+00
 0.4404267209073E+00
 0.4110732825652E+00
 0.3821210379696E+00
 0.3533903599072E+00
 0.3244166784023E+00
 0.2945268095515E+00
 0.2628931424490E+00
 0.2285774801187E+00
 0.1905743359585E+00
 0.1478608206741E+00
 0.9945879031184E-01
 0.4453652878242E-01
 0.1858045699302E-01
 0.8842185550927E-01
 0.1665946074683E+00
 0.2524222187337E+00
 0.3449479485647E+00
 0.4425503763676E+00
 0.5428634567565E+00
 0.6427963916342E+00
 0.7387403662822E+00
 0.8265812432127E+00
 0.9013766388928E+00
 0.9574709949705E+00
 0.9892615421278E+00
 0.6659687367518E+00
 0.6850421373775E+00
 0.7081265056356E+00
 0.7306533271678E+00
 0.7487046661551E+00
 0.7596885021034E+00
 0.7624885539541E+00
 0.7571954504938E+00
 0.7446673999917E+00
 0.7261187450863E+00
 0.7028264412694E+00
 0.6759622608197E+00
 0.6465211755961E+00
 0.6153090091199E+00
 0.5829572981854E+00
 0.5499450394775E+00
 0.5166923403775E+00
 0.4836163582341E+00
 0.4509303127969E+00
 0.4184880963239E+00
 0.3858520222278E+00
 0.3523750170169E+00
 0.3172595415612E+00
 0.2796048911057E+00
 0.2384530564113E+00
 0.1928425552557E+00
 0.1418844840682E+00
 0.8492894202419E-01
 0.2388578525773E-01
 0.5432206819538E-01
 0.1325985744563E+00
 0.2188099404399E+00
 0.3113471109757E+00
 0.4084609218126E+00
 0.5077230242518E+00
 0.6059959878778E+00
 0.6996332676149E+00
 0.7844805112917E+00
 0.8555012001844E+00
 0.9067851842226E+00
 0.9325351317952E+00
 0.7578635324509E+00
 0.7806622794075E+00
 0.8075413858517E+00
 0.8332360866118E+00
 0.8533571856264E+00
 0.8651550349770E+00
 0.8676098405932E+00
 0.8610390710249E+00
 0.8465492504777E+00
 0.8255624510711E+00
 0.7995029702608E+00
 0.7696347386574E+00
 0.7370049056119E+00
 0.7024479908473E+00
 0.6666145875202E+00
 0.6300029068515E+00
 0.5930623988654E+00
 0.5562538023266E+00
 0.5198343264581E+00
 0.4836908863321E+00
 0.4474115799661E+00
 0.4103739372147E+00
 0.3718090455095E+00
 0.3308525821544E+00
 0.2865927038253E+00
 0.2381249805061E+00
 0.1846296072051E+00
 0.1255209637241E+00
 0.6136072642162E-01
 0.2761249689352E-01
 0.9924220804693E-01
 0.1851650963855E+00
 0.2774951245137E+00
 0.3740378610511E+00
 0.4722455883559E+00
 0.5689207620055E+00
 0.6603760937213E+00
 0.7424208055094E+00
 0.8099649316807E+00
 0.8568017997451E+00
 0.8766170288558E+00
 0.8510043055544E+00
 0.8778979792913E+00
 0.9088791260958E+00
 0.9378843608400E+00
 0.9600214547069E+00
 0.9724220818410E+00
 0.9742355643257E+00
 0.9660748100830E+00
 0.9493402928214E+00
 0.9256829894451E+00
 0.8966780825409E+00
 0.8636754336343E+00
 0.8277641978056E+00
 0.7897970282739E+00
 0.7504346303835E+00
 0.7101881504159E+00
 0.6695330058656E+00
 0.6289723928331E+00
 0.5888073067892E+00
 0.5489572181114E+00
 0.5090348324547E+00
 0.4684406364547E+00
 0.4264327333542E+00
 0.3821818201411E+00
 0.3348204803245E+00
 0.2834969307066E+00
 0.2274469971157E+00
 0.1661140641184E+00
 0.9965179681834E-01
 0.3575256437699E-01
 0.6786713142166E-01
 0.1517318342680E+00
 0.2435071488950E+00
 0.3393683159530E+00
 0.4365087193982E+00
 0.5316404374440E+00
 0.6210306392815E+00
 0.7004445469919E+00
 0.7647820260115E+00
 0.8076821462457E+00
 0.8214598312471E+00
 0.9455310761713E+00
 0.9769460864047E+00
 0.1012372999190E+01
 0.1044827556458E+01
 0.1068886320781E+01
 0.1081620836325E+01
 0.1082442173831E+01
 0.1072338549018E+01
 0.1053052253641E+01
 0.1026481385359E+01
 0.9943510829132E+00
 0.9580869055455E+00
 0.9188068520860E+00
 0.8773690483168E+00
 0.8344339300973E+00
 0.7905184041256E+00
 0.7461200916533E+00
 0.7017835436039E+00
 0.6578535116745E+00
 0.6142816268504E+00
 0.5707039729398E+00
 0.5265423283821E+00
 0.4810804190035E+00
 0.4335232196710E+00
 0.3830472821723E+00
 0.3288519444989E+00
 0.2702236641054E+00
 0.2066286955830E+00
 0.1380240393194E+00
 0.6712024516555E-01
 0.4344261320265E-01
 0.1189550760922E+00
 0.2095337557708E+00
 0.3045535466075E+00
 0.4005989077151E+00
 0.4942335953705E+00
 0.5816590801846E+00
 0.6586155502259E+00
 0.7199037732075E+00
 0.7595506394806E+00
 0.7670942351206E+00
 0.1041602117122E+01
 0.1078031005312E+01
 0.1118286049268E+01
 0.1154316375908E+01
 0.1180147368272E+01
 0.1192875931727E+01
 0.1192291848255E+01
 0.1179849994475E+01
 0.1157682622664E+01
 0.1127948088246E+01
 0.1092514715243E+01
 0.1052868926800E+01
 0.1010141288258E+01
 0.9651806945145E+00
 0.9186355727655E+00
 0.8710205941235E+00
 0.8228515234026E+00
 0.7747132900754E+00
 0.7269946112065E+00
 0.6796789444678E+00
 0.6324243998628E+00
 0.5846723067361E+00
 0.5357308593302E+00
 0.4848393058309E+00
 0.4312191071412E+00
 0.3741217087243E+00
 0.3128842681823E+00
 0.2469991919337E+00
 0.1763187858805E+00
 0.1021149343932E+00
 0.4128734417901E-01
 0.8781355757258E-01
 0.1757853467805E+00
 0.2697127018247E+00
 0.3646139967723E+00
 0.4567854405468E+00
 0.5423411684044E+00
 0.6169607793434E+00
 0.6754805452315E+00
 0.7116329102828E+00
 0.7166801103570E+00
 0.1139398272163E+01
 0.1181411090538E+01
 0.1226916803849E+01
 0.1266624694273E+01
 0.1294004427798E+01
 0.1306300471413E+01
 0.1303827321922E+01
 0.1288608587655E+01
 0.1263211858469E+01
 0.1230061111002E+01
 0.1191153757133E+01
 0.1148017156910E+01
 0.1101775061961E+01
 0.1053250536547E+01
 0.1003067008141E+01
 0.9517281475524E+00
 0.8997635650351E+00
 0.8477978016993E+00
 0.7962640396029E+00
 0.7451772542816E+00
 0.6942160048467E+00
 0.6428392589355E+00
 0.5903787259556E+00
 0.5361086586458E+00
 0.4792976859123E+00
 0.4192523690021E+00
 0.3553637402026E+00
 0.2871570258399E+00
 0.2144308300778E+00
 0.1378499306259E+00
 0.6358340727925E-01
 0.6100311854337E-01
 0.1425872713864E+00
 0.2349894515451E+00
 0.3286639570638E+00
 0.4193937950231E+00
 0.5031555613699E+00
 0.5755692511778E+00
 0.6314300900385E+00
 0.6644403458890E+00
 0.6678483520525E+00
 0.1239128599848E+01
 0.1287386883649E+01
 0.1338606141191E+01
 0.1382050997111E+01
 0.1410657511001E+01
 0.1421989453929E+01
 0.1417065783342E+01
 0.1398589241050E+01
 0.1369600923026E+01
 0.1332784740640E+01
 0.1290244285991E+01
 0.1243522552702E+01
 0.1193714212234E+01
 0.1141598275149E+01
 0.1087759073666E+01
 0.1032679780962E+01
 0.9768993444926E+00
 0.9210814256406E+00
 0.8657045013352E+00
 0.8108147237895E+00
 0.7561091743257E+00
 0.7010622760166E+00
 0.6450284804741E+00
 0.5873185345071E+00
 0.5272517726972E+00
 0.4641946118336E+00
 0.3975972909771E+00
 0.3270260273190E+00
 0.2522584514712E+00
 0.1736550838034E+00
 0.9409989086249E-01
 0.4654507002447E-01
 0.1105229589977E+00
 0.2005631207042E+00
 0.2928741673008E+00
 0.3821659015757E+00
 0.4642008713041E+00
 0.5345086842981E+00
 0.5878318924118E+00
 0.6181255222367E+00
 0.6195867836220E+00
 0.1341037855284E+01
 0.1396311829667E+01
 0.1453745490138E+01
 0.1500918872923E+01
 0.1530300431776E+01
 0.1540011106499E+01
 0.1531991710470E+01
 0.1509737943313E+01
 0.1476789184756E+01
 0.1436068772034E+01
 0.1389753460482E+01
 0.1339371252020E+01
 0.1285963071352E+01
 0.1230244458119E+01
 0.1172745645920E+01
 0.1113919092389E+01
 0.1054308350190E+01
 0.9946160279813E+00
 0.9353670799131E+00
 0.8766383737490E+00
 0.8181430871809E+00
 0.7593685573055E+00
 0.6996914099950E+00
 0.6384612157229E+00
 0.5750528637634E+00
 0.5088989642117E+00
 0.4395160088776E+00
 0.3665203188594E+00
 0.2896921179187E+00
 0.2092283624546E+00
 0.1267135041820E+00
 0.5474077553553E-01
 0.8086599444594E-01
 0.1666715848177E+00
 0.2573876202482E+00
 0.3452226498901E+00
 0.4255840951169E+00
 0.4938714613221E+00
 0.5447954032534E+00
 0.5726256693958E+00
 0.5721923682284E+00
 0.1445416563090E+01
 0.1508606362051E+01
 0.1572786493370E+01
 0.1623575726304E+01
 0.1653111101534E+01
 0.1660395602690E+01
 0.1648548626142E+01
 0.1621967423862E+01
 0.1584692854322E+01
 0.1539848324026E+01
 0.1489639777835E+01
 0.1435544812450E+01
 0.1378524351688E+01
 0.1319210461777E+01
 0.1258063615834E+01
 0.1195494590315E+01
 0.1132046511386E+01
 0.1068461085282E+01
 0.1005311270311E+01
 0.9427039368317E+00
 0.8803652556198E+00
 0.8177925127526E+00
 0.7543842375880E+00
 0.6895321491345E+00
 0.6226729468582E+00
 0.5533133265217E+00
 0.4810445798236E+00
 0.4055430572116E+00
 0.3266103320011E+00
 0.2443566631443E+00
 0.1597519159125E+00
 0.7823641632613E-01
 0.5702300601765E-01
 0.1336625200981E+00
 0.2223699625912E+00
 0.3086976690031E+00
 0.3874247241313E+00
 0.4537696181532E+00
 0.5024056927019E+00
 0.5279152352188E+00
 0.5256767390253E+00
 0.1552614811236E+01
 0.1624776606678E+01
 0.1696252125469E+01
 0.1750388350005E+01
 0.1779237120899E+01
 0.1783120638720E+01
 0.1766629936785E+01
 0.1735153229775E+01
 0.1693204207498E+01
 0.1644044348116E+01
 0.1589853813862E+01
 0.1532020744015E+01
 0.1471399397944E+01
 0.1408518587608E+01
 0.1343753011216E+01
 0.1277459964068E+01
 0.1210176645276E+01
 0.1142684275320E+01
 0.1075605629540E+01
 0.1009076419638E+01
 0.9428318177548E+00
 0.8763756509546E+00
 0.8091285680273E+00
 0.7405289980219E+00
 0.6700832542234E+00
 0.5973815569796E+00
 0.5220999219255E+00
 0.4439854585599E+00
 0.3628773582278E+00
 0.2788470019064E+00
 0.1925429768538E+00
 0.1067812817134E+00
 0.4751734610346E-01
 0.1021281603744E+00
 0.1880171441618E+00
 0.2727380180440E+00
 0.3498542112812E+00
 0.4143238173247E+00
 0.4607396636827E+00
 0.4839501632040E+00
 0.4799806641937E+00
 0.1663061497163E+01
 0.1745439473916E+01
 0.1824748928994E+01
 0.1881733154047E+01
 0.1908774835855E+01
 0.1908093446732E+01
 0.1886069302114E+01
 0.1849130755044E+01
 0.1802191917519E+01
 0.1748564958628E+01
 0.1690339467447E+01
 0.1628773297334E+01
 0.1564588522295E+01
 0.1498192160390E+01
 0.1429857140881E+01
 0.1359874475646E+01
 0.1288769161917E+01
 0.1217362461212E+01
 0.1146328922011E+01
 0.1075831198371E+01
 0.1005608342825E+01
 0.9351669391510E+00
 0.8639507897599E+00
 0.7914511744668E+00
 0.7172535397385E+00
 0.6410425957339E+00
 0.5625902648534E+00
 0.4817259436894E+00
 0.3983415507475E+00
 0.3125031010624E+00
 0.2246851680788E+00
 0.1365675121087E+00
 0.5844195622763E-01
 0.7332110559321E-01
 0.1545708997219E+00
 0.2375046806094E+00
 0.3130123700019E+00
 0.3756604090829E+00
 0.4198712335782E+00
 0.4406839997341E+00
 0.4349924735408E+00
 0.1777291743298E+01
 0.1871356648385E+01
 0.1958979325077E+01
 0.2017977522602E+01
 0.2041739517353E+01
 0.2035129140303E+01
 0.2006631417692E+01
 0.1963693966154E+01
 0.1911502852885E+01
 0.1853307701862E+01
 0.1791035726274E+01
 0.1725774474008E+01
 0.1658091347618E+01
 0.1588255520014E+01
 0.1516422645458E+01
 0.1442803380844E+01
 0.1367902972604E+01
 0.1292583045508E+01
 0.1217571739228E+01
 0.1143055591230E+01
 0.1068771028939E+01
 0.9942234539813E+00
 0.9188822129244E+00
 0.8422996154514E+00
 0.7641516396048E+00
 0.6842298945788E+00
 0.6024144822650E+00
 0.5186293563941E+00
 0.4328338986168E+00
 0.3451150819185E+00
 0.2558581049684E+00
 0.1661872513578E+00
 0.8079518070983E-01
 0.5058633424788E-01
 0.1223539957746E+00
 0.2031730807490E+00
 0.2770430590487E+00
 0.3379086479156E+00
 0.3798828211009E+00
 0.3980733543715E+00
 0.3905435712023E+00
 0.1895986858793E+01
 0.2003481026500E+01
 0.2099751498872E+01
 0.2159446697950E+01
 0.2178023882914E+01
 0.2163925998727E+01
 0.2128004712123E+01
 0.2078596751524E+01
 0.2020965674279E+01
 0.1958162841540E+01
 0.1891878954577E+01
 0.1822995225438E+01
 0.1751907083212E+01
 0.1678733788496E+01
 0.1603499325693E+01
 0.1526318288590E+01
 0.1447666578090E+01
 0.1368445731172E+01
 0.1289438647638E+01
 0.1210850919124E+01
 0.1132408229324E+01
 0.1053611196037E+01
 0.9739592911221E+00
 0.8930766565661E+00
 0.8107431896876E+00
 0.7268710473437E+00
 0.6414616062499E+00
 0.5545462559786E+00
 0.4661666659235E+00
 0.3764537157165E+00
 0.2857588939421E+00
 0.1949175478909E+00
 0.1064869966058E+00
 0.4222920639712E-01
 0.9186383520666E-01
 0.1699351446515E+00
 0.2420882224807E+00
 0.3011969220943E+00
 0.3408737098710E+00
 0.3560823694513E+00
 0.3463977539058E+00
 0.2020034103919E+01
 0.2143020557036E+01
 0.2247981418473E+01
 0.2306367425099E+01
 0.2317342127094E+01
 0.2294039681442E+01
 0.2249798255914E+01
 0.2193557904361E+01
 0.2130396460176E+01
 0.2063017672300E+01
 0.1992805681809E+01
 0.1920406806523E+01
 0.1846034656666E+01
 0.1769652271889E+01
 0.1691139582538E+01
 0.1610497346097E+01
 0.1528159332927E+01
 0.1445064786474E+01
 0.1362050989824E+01
 0.1279335115675E+01
 0.1196622263315E+01
 0.1113405951443E+01
 0.1029223796403E+01
 0.9437858994214E+00
 0.8569914328204E+00
 0.7688875850455E+00
 0.6796105142980E+00
 0.5893123094711E+00
 0.4981320963467E+00
 0.4062664693681E+00
 0.3140754174960E+00
 0.2222473238178E+00
 0.1324030824150E+00
 0.5288904505022E-01
 0.6407299658352E-01
 0.1380057766406E+00
 0.2082798171711E+00
 0.2656432777890E+00
 0.3029637282053E+00
 0.3146911460709E+00
 0.3022378053069E+00
 0.2150618679904E+01
 0.2291526161504E+01
 0.2404675646520E+01
 0.2458774938837E+01
 0.2459157708334E+01
 0.2424860803002E+01
 0.2371546011481E+01
 0.2308270594164E+01
 0.2239606393856E+01
 0.2167761793159E+01
 0.2093755846917E+01
 0.2017982258113E+01
 0.1940472633388E+01
 0.1861035327685E+01
 0.1779397239727E+01
 0.1695425089274E+01
 0.1609492897707E+01
 0.1522571988456E+01
 0.1435550550609E+01
 0.1348645988641E+01
 0.1261531460422E+01
 0.1173694062497E+01
 0.1084722812500E+01
 0.9944319884986E+00
 0.9028570871095E+00
 0.8101949451424E+00
 0.7167298183163E+00
 0.6227478257153E+00
 0.5285011898094E+00
 0.4342743237690E+00
 0.3404724905353E+00
 0.2477257532253E+00
 0.1572044420875E+00
 0.7272836387614E-01
 0.4159157288444E-01
 0.1076414705263E+00
 0.1757292430841E+00
 0.2313353566086E+00
 0.2662891832359E+00
 0.2739112244385E+00
 0.2576528492522E+00
 0.2289369993271E+01
 0.2451011962124E+01
 0.2570871764707E+01
 0.2616363581701E+01
 0.2602596955764E+01
 0.2555604161843E+01
 0.2492722001023E+01
 0.2422416628555E+01
 0.2348411291166E+01
 0.2272293193434E+01
 0.2194676424760E+01
 0.2115698013426E+01
 0.2035218884116E+01
 0.1952904496624E+01
 0.1868325417282E+01
 0.1781191707728E+01
 0.1691792905997E+01
 0.1601120537088E+01
 0.1510104419449E+01
 0.1418945269158E+01
 0.1327272345383E+01
 0.1234572919652E+01
 0.1140508391198E+01
 0.1045020223440E+01
 0.9482982764628E+00
 0.8507026626392E+00
 0.7526780173050E+00
 0.6546574862194E+00
 0.5570225748207E+00
 0.4601689559427E+00
 0.3645830911712E+00
 0.2709026285943E+00
 0.1800808864431E+00
 0.9426462091033E-01
 0.3199080093782E-01
 0.7919503112612E-01
 0.1445158267119E+00
 0.1982939431635E+00
 0.2309828490307E+00
 0.2338099310060E+00
 0.2121387109121E+00
 0.2438602976733E+01
 0.2624115472791E+01
 0.2747489349129E+01
 0.2778254495275E+01
 0.2746360340016E+01
 0.2685323077540E+01
 0.2612769102475E+01
 0.2535684801208E+01
 0.2456642552811E+01
 0.2376524921473E+01
 0.2295525324077E+01
 0.2213535667375E+01
 0.2130270029250E+01
 0.2045275675584E+01
 0.1957972962359E+01
 0.1867891309410E+01
 0.1775200890428E+01
 0.1680890426496E+01
 0.1585911557189E+01
 0.1490423603705E+01
 0.1394001783705E+01
 0.1296150908277E+01
 0.1196636689186E+01
 0.1095555941461E+01
 0.9932705547726E+00
 0.8903148721922E+00
 0.7873040090263E+00
 0.6848303368495E+00
 0.5834215014288E+00
 0.4836101208152E+00
 0.3860018018070E+00
 0.2912995087963E+00
 0.2003755457147E+00
 0.1146684587363E+00
 0.4057062234878E-01
 0.5330131368228E-01
 0.1146810742993E+00
 0.1664139636800E+00
 0.1971202653716E+00
 0.1945417364608E+00
 0.1651635583471E+00
 0.2601733618853E+01
 0.2814295994312E+01
 0.2934995971420E+01
 0.2942652028163E+01
 0.2888664840397E+01
 0.2812966637682E+01
 0.2731140514623E+01
 0.2647791584608E+01
 0.2564159118239E+01
 0.2480391969599E+01
 0.2396275406842E+01
 0.2311484014837E+01
 0.2225620826689E+01
 0.2138155126524E+01
 0.2048378686682E+01
 0.1955618465083E+01
 0.1859876537429E+01
 0.1762096100405E+01
 0.1663211841834E+01
 0.1563306617108E+01
 0.1461898742148E+01
 0.1358546437504E+01
 0.1253166379069E+01
 0.1146043616047E+01
 0.1037727088320E+01
 0.9289312630902E+00
 0.8204480990700E+00
 0.7130401073020E+00
 0.6073989632276E+00
 0.5042231766869E+00
 0.4042793564820E+00
 0.3083926373507E+00
 0.2174523926996E+00
 0.1325892208954E+00
 0.5661603047574E-01
 0.3170129673644E-01
 0.8624878214280E-01
 0.1353814145883E+00
 0.1645983971376E+00
 0.1563724872802E+00
 0.1165719720835E+00
 0.2784031475748E+01
 0.3026028584327E+01
 0.3132694458462E+01
 0.3106384010979E+01
 0.3027292254937E+01
 0.2937493357989E+01
 0.2847345598478E+01
 0.2758502750733E+01
 0.2670859975709E+01
 0.2583857778401E+01
 0.2496918471962E+01
 0.2409541520794E+01
 0.2321263927012E+01
 0.2231534252272E+01
 0.2139562252665E+01
 0.2044461726438E+01
 0.1946000383082E+01
 0.1844997848084E+01
 0.1742298766270E+01
 0.1637862030505E+01
 0.1531165034008E+01
 0.1421885560070E+01
 0.1310156125920E+01
 0.1196485631896E+01
 0.1081619094433E+01
 0.9664487040845E+00
 0.8519437101455E+00
 0.7390459139370E+00
 0.6286309093055E+00
 0.5215967550193E+00
 0.4189179414276E+00
 0.3216010168986E+00
 0.2306380645820E+00
 0.1470666894379E+00
 0.7251527968488E-01
 0.2103694931771E-01
 0.5933333422219E-01
 0.1045881530695E+00
 0.1328904197654E+00
 0.1196485592592E+00
 0.6942023149065E-01
 0.2994068882324E+01
 0.3264799463616E+01
 0.3337244403593E+01
 0.3264435235583E+01
 0.3159878583654E+01
 0.3058022106130E+01
 0.2960986133499E+01
 0.2867657645609E+01
 0.2776695655479E+01
 0.2686919799825E+01
 0.2597469021633E+01
 0.2507719351137E+01
 0.2417190864295E+01
 0.2325383509642E+01
 0.2231509921956E+01
 0.2134491625676E+01
 0.2033777154774E+01
 0.1929919622139E+01
 0.1823537522565E+01
 0.1714407387659E+01
 0.1602023969351E+01
 0.1486297606975E+01
 0.1367660964024E+01
 0.1246880703327E+01
 0.1124896654695E+01
 0.1002763872191E+01
 0.8816201055073E+00
 0.7625933563887E+00
 0.6467673991222E+00
 0.5352806242814E+00
 0.4293673334464E+00
 0.3302773027412E+00
 0.2391898742337E+00
 0.1572051653139E+00
 0.8555239554660E-01
 0.2815503987632E-01
 0.3461993489754E-01
 0.7316131675437E-01
 0.1006219386165E+00
 0.8459495374826E-01
 0.5269257085806E-01
 0.3246739379989E+01
 0.3536144896601E+01
 0.3539703845375E+01
 0.3409981628994E+01
 0.3284586002691E+01
 0.3173915580347E+01
 0.3071789221221E+01
 0.2975197390620E+01
 0.2881674986244E+01
 0.2789614643929E+01
 0.2697967182467E+01
 0.2606044970201E+01
 0.2513395725465E+01
 0.2419647061045E+01
 0.2324152487999E+01
 0.2225738102807E+01
 0.2123440208791E+01
 0.2017278491749E+01
 0.1907390846418E+01
 0.1793316861856E+01
 0.1674715231441E+01
 0.1551908300864E+01
 0.1425727521269E+01
 0.1297221887581E+01
 0.1167509984696E+01
 0.1037777418478E+01
 0.9093066618423E+00
 0.7834158821170E+00
 0.6614313336700E+00
 0.5447838801179E+00
 0.4350224119624E+00
 0.3337008911635E+00
 0.2422748725377E+00
 0.1620504778543E+00
 0.9423935999844E-01
 0.4057638665016E-01
 0.1681499545289E-01
 0.4075585163409E-01
 0.6523811753940E-01
 0.5091117632046E-01
 0.1053360838577E+00
 0.3570243674996E+01
 0.3840693216743E+01
 0.3720252951083E+01
 0.3536563062708E+01
 0.3400858684111E+01
 0.3284653399019E+01
 0.3179709819717E+01
 0.3081168475008E+01
 0.2985872374971E+01
 0.2892021429134E+01
 0.2798480469489E+01
 0.2704565653240E+01
 0.2609883246348E+01
 0.2514242959137E+01
 0.2417331864341E+01
 0.2318146256481E+01
 0.2215258306911E+01
 0.2107636559351E+01
 0.1994455026205E+01
 0.1875023211001E+01
 0.1749483845854E+01
 0.1618830060567E+01
 0.1484388241752E+01
 0.1347494109326E+01
 0.1209411009096E+01
 0.1071400571117E+01
 0.9348397380037E+00
 0.8012358890159E+00
 0.6722159580990E+00
 0.5495738929819E+00
 0.4352230708503E+00
 0.3310739578065E+00
 0.2389542016360E+00
 0.1605315994353E+00
 0.9727647256224E-01
 0.5055608460578E-01
 0.2271609654982E-01
 0.1847099096352E-01
 0.2955853152020E-01
 0.2370523216131E-01
 0.1944708015445E+00
 0.4024873480227E+01
 0.4151455830692E+01
 0.3843883189064E+01
 0.3645537612562E+01
 0.3508050390990E+01
 0.3390141394426E+01
 0.3284962543844E+01
 0.3185712730252E+01
 0.3089438813743E+01
 0.2994259946957E+01
 0.2899105754110E+01
 0.2803349830360E+01
 0.2706681216165E+01
 0.2609081275865E+01
 0.2510754528494E+01
 0.2411483034377E+01
 0.2309549069645E+01
 0.2201799667063E+01
 0.2085504456999E+01
 0.1960006764882E+01
 0.1826561748283E+01
 0.1687149428406E+01
 0.1543655150340E+01
 0.1397671195313E+01
 0.1250554199416E+01
 0.1103565793342E+01
 0.9580745735153E+00
 0.8157637330535E+00
 0.6786795129290E+00
 0.5490775578713E+00
 0.4292578781756E+00
 0.3215229986110E+00
 0.2281715895255E+00
 0.1514282433214E+00
 0.9326154127308E-01
 0.5541844135083E-01
 0.3871549725146E-01
 0.4367711740587E-01
 0.6350933918769E-01
 0.6387396383488E-01
 0.3255147119573E+00
 0.4765882633669E+01
 0.4298081967422E+01
 0.3906775311485E+01
 0.3742568441736E+01
 0.3604526695398E+01
 0.3491472793044E+01
 0.3387759822285E+01
 0.3289149689022E+01
 0.3192577611884E+01
 0.3096495421422E+01
 0.2999967781438E+01
 0.2902488298028E+01
 0.2803845004595E+01
 0.2704126809312E+01
 0.2603950609470E+01
 0.2505114401184E+01
 0.2406718284119E+01
 0.2301022601308E+01
 0.2181518395109E+01
 0.2048763962022E+01
 0.1906141240397E+01
 0.1756911970174E+01
 0.1603513848022E+01
 0.1447713822443E+01
 0.1290892385217E+01
 0.1134244382171E+01
 0.9789094258103E+00
 0.8266875309815E+00
 0.6803351832979E+00
 0.5426888332384E+00
 0.4163741907862E+00
 0.3041064304951E+00
 0.2087648819394E+00
 0.1333228944808E+00
 0.8067550068252E-01
 0.5300520455185E-01
 0.5232098262251E-01
 0.7675148671307E-01
 0.1429681571041E+00
 0.1967383165605E+00
 0.5666029244790E+00
 0.1804574731533E+00
 0.2598419770879E+00
 0.3506172555177E+00
 0.4399544516814E+00
 0.5199983001333E+00
 0.5867807751854E+00
 0.6389446695320E+00
 0.6767790477690E+00
 0.7014501288123E+00
 0.7143943057731E+00
 0.7168685324998E+00
 0.7096330871793E+00
 0.6931128183233E+00
 0.6677427092079E+00
 0.6339776844503E+00
 0.5923148486482E+00
 0.5432971470953E+00
 0.4874609910434E+00
 0.4259668455039E+00
 0.3555018557336E+00
 0.1773657831011E+00
 0.2550092560039E+00
 0.3435251112771E+00
 0.4313413833366E+00
 0.5110268077982E+00
 0.5785487061853E+00
 0.6322926094152E+00
 0.6722263171043E+00
 0.6992172923903E+00
 0.7144721278692E+00
 0.7190974776305E+00
 0.7137826975623E+00
 0.6989339518748E+00
 0.6749466038912E+00
 0.6422321953673E+00
 0.6013082402891E+00
 0.5527268607565E+00
 0.4971509147538E+00
 0.4331689290303E+00
 0.3574483455964E+00
 0.1748947980020E+00
 0.2513754337972E+00
 0.3380739150101E+00
 0.4245723402068E+00
 0.5038860980242E+00
 0.5719993659061E+00
 0.6271061580917E+00
 0.6689104720637E+00
 0.6980197546923E+00
 0.7154267852075E+00
 0.7220842193536E+00
 0.7186107894050E+00
 0.7053810931130E+00
 0.6827492235794E+00
 0.6511018998422E+00
 0.6109225904809E+00
 0.5627118764114E+00
 0.5064334772887E+00
 0.4402395692120E+00
 0.3647263485134E+00
 0.1728839488437E+00
 0.2487816769135E+00
 0.3340800455675E+00
 0.4194694811519E+00
 0.4984299901918E+00
 0.5670215329310E+00
 0.6233097833424E+00
 0.6667850067913E+00
 0.6978289845301E+00
 0.7172375341495E+00
 0.7258170750787E+00
 0.7241109203060E+00
 0.7124550477436E+00
 0.6911635304781E+00
 0.6605840109816E+00
 0.6211309887757E+00
 0.5730667753224E+00
 0.5160130817171E+00
 0.4490319821762E+00
 0.3741814196177E+00
 0.1712495262219E+00
 0.2470618310729E+00
 0.3313684892074E+00
 0.4158640835804E+00
 0.4945137279449E+00
 0.5635024935706E+00
 0.6208219088923E+00
 0.6657941505337E+00
 0.6986070927396E+00
 0.7198786743029E+00
 0.7302783725427E+00
 0.7302723289631E+00
 0.7201527403445E+00
 0.7001883017856E+00
 0.6706713930589E+00
 0.6318990921595E+00
 0.5839483863174E+00
 0.5265159516094E+00
 0.4593739145701E+00
 0.3850967445505E+00
 0.1699292685503E+00
 0.2460848460865E+00
 0.3297760742238E+00
 0.4135962015635E+00
 0.4919964483861E+00
 0.5613283305982E+00
 0.6195561607581E+00
 0.6658750120579E+00
 0.7003091699130E+00
 0.7233181956411E+00
 0.7354451731989E+00
 0.7370793472661E+00
 0.7284641695307E+00
 0.7098161091057E+00
 0.6813560528112E+00
 0.6432693644176E+00
 0.5955660278384E+00
 0.5381048896855E+00
 0.4711229740283E+00
 0.3972577486157E+00
 0.1688739713900E+00
 0.2457416969139E+00
 0.3291580795886E+00
 0.4125155916548E+00
 0.4907418379587E+00
 0.5603850219227E+00
 0.6194225148574E+00
 0.6669591181958E+00
 0.7028841046743E+00
 0.7275181411755E+00
 0.7412890552256E+00
 0.7445107214697E+00
 0.7373737882066E+00
 0.7200365898657E+00
 0.6926465893356E+00
 0.6553110213108E+00
 0.6080331736835E+00
 0.5508228251302E+00
 0.4841862995733E+00
 0.4106214461408E+00
 0.1680427181171E+00
 0.2459399366007E+00
 0.3293858539838E+00
 0.4124829281563E+00
 0.4906187415922E+00
 0.5605592640238E+00
 0.6203283641976E+00
 0.6689734009362E+00
 0.7062753142945E+00
 0.7324348996115E+00
 0.7477760511882E+00
 0.7525398763128E+00
 0.7468617863237E+00
 0.7308406238112E+00
 0.7045592003551E+00
 0.6680740860360E+00
 0.6214041193804E+00
 0.5646697832738E+00
 0.4985129937333E+00
 0.4252025278291E+00
 0.1674003906853E+00
 0.2465994592850E+00
 0.3303443729760E+00
 0.4133692080020E+00
 0.4915016224739E+00
 0.5617391225825E+00
 0.6221793229434E+00
 0.6718409765582E+00
 0.7104213142621E+00
 0.7380195151352E+00
 0.7548668537057E+00
 0.7611353693157E+00
 0.7569052040184E+00
 0.7422185958406E+00
 0.7171042388708E+00
 0.6815848692760E+00
 0.6356967678131E+00
 0.5796302784003E+00
 0.5140760306399E+00
 0.4410378861720E+00
 0.1669161140238E+00
 0.2476495927550E+00
 0.3319298845956E+00
 0.4150547495902E+00
 0.4932705380055E+00
 0.5638145000695E+00
 0.6248798502689E+00
 0.6754817629830E+00
 0.7152562051683E+00
 0.7442180296021E+00
 0.7625171065391E+00
 0.7702612453098E+00
 0.7674775383395E+00
 0.7541563993002E+00
 0.7302810919321E+00
 0.6958486889034E+00
 0.6509062480635E+00
 0.5956806240087E+00
 0.5308576181105E+00
 0.4581716570513E+00
 0.1665622229209E+00
 0.2490269862833E+00
 0.3340479250864E+00
 0.4174280584732E+00
 0.4958108572332E+00
 0.5666773762676E+00
 0.6283337187155E+00
 0.6798129798355E+00
 0.7207101051464E+00
 0.7509718258547E+00
 0.7706776601420E+00
 0.7798769867792E+00
 0.7785475172427E+00
 0.7666328922802E+00
 0.7440769403250E+00
 0.7108537343329E+00
 0.6670119027485E+00
 0.6127899746213E+00
 0.5488383048459E+00
 0.4766343002740E+00
 0.1663135430533E+00
 0.2506740551997E+00
 0.3366116888525E+00
 0.4203847415890E+00
 0.4990128456692E+00
 0.5702218885537E+00
 0.6324443506427E+00
 0.6847495595933E+00
 0.7267095317469E+00
 0.7582179289823E+00
 0.7792946947451E+00
 0.7899371722505E+00
 0.7900780426676E+00
 0.7796186944704E+00
 0.7584671679483E+00
 0.7265741328090E+00
 0.6839807328123E+00
 0.6309196071503E+00
 0.5679891995009E+00
 0.4964333430229E+00
 0.1661468722420E+00
 0.2525378142643E+00
 0.3395407069027E+00
 0.4238265296619E+00
 0.5027712054805E+00
 0.5743443081006E+00
 0.6371150563098E+00
 0.6902044888941E+00
 0.7331777382587E+00
 0.7658892541081E+00
 0.7883097507635E+00
 0.8003911406116E+00
 0.8020255633004E+00
 0.7930758883082E+00
 0.7734162942913E+00
 0.7429721258284E+00
 0.7017691219950E+00
 0.6500218765961E+00
 0.5882694744231E+00
 0.5175533323891E+00
 0.1660405980873E+00
 0.2545689926340E+00
 0.3427597811185E+00
 0.4276604266860E+00
 0.5069846205236E+00
 0.5789429565783E+00
 0.6422491998738E+00
 0.6960890902067E+00
 0.7400350018530E+00
 0.7739148053196E+00
 0.7976597396581E+00
 0.8111827813880E+00
 0.8143398312474E+00
 0.8069581935209E+00
 0.7888789546811E+00
 0.7599995673781E+00
 0.7203237405649E+00
 0.6700397991800E+00
 0.6096263331022E+00
 0.5399571660417E+00
 0.1659744120853E+00
 0.2567213572948E+00
 0.3461981285098E+00
 0.4317979865673E+00
 0.5115553352715E+00
 0.5839180970930E+00
 0.6477503188328E+00
 0.7023132594781E+00
 0.7471988771965E+00
 0.7822198584312E+00
 0.8072769964241E+00
 0.8222504875751E+00
 0.8269639400344E+00
 0.8212113702978E+00
 0.8048007947929E+00
 0.7775990003089E+00
 0.7395822035952E+00
 0.6909071561157E+00
 0.6319950380410E+00
 0.5635871053181E+00
 0.1659290944294E+00
 0.2589511944592E+00
 0.3497886976923E+00
 0.4361547093465E+00
 0.5163887836008E+00
 0.5891718238872E+00
 0.6535222193030E+00
 0.7087856780518E+00
 0.7545844362427E+00
 0.7907261586057E+00
 0.8170894051667E+00
 0.8335272602317E+00
 0.8398345522516E+00
 0.8357737273363E+00
 0.8211192717935E+00
 0.7957045190006E+00
 0.7594736880319E+00
 0.7125487341446E+00
 0.6552989527994E+00
 0.5883658801315E+00
 0.1658863505656E+00
 0.2612169116372E+00
 0.3534676251869E+00
 0.4406495441189E+00
 0.5213932725403E+00
 0.5946079648088E+00
 0.6594690623108E+00
 0.7154140129975E+00
 0.7621045093990E+00
 0.7993521484392E+00
 0.8270206002397E+00
 0.8449409309207E+00
 0.8528822426074E+00
 0.8505766676389E+00
 0.8377643793123E+00
 0.8142425193080E+00
 0.7799195123931E+00
 0.7348806314898E+00
 0.6794498217321E+00
 0.6141981596021E+00
 0.1658286879518E+00
 0.2634787337506E+00
 0.3571738064258E+00
 0.4452044863692E+00
 0.5264797223957E+00
 0.6001320063505E+00
 0.6654954537870E+00
 0.7221051187249E+00
 0.7696699400358E+00
 0.8080132335128E+00
 0.8369902348014E+00
 0.8564144693591E+00
 0.8660319075774E+00
 0.8655452405693E+00
 0.8546593136412E+00
 0.8331323749414E+00
 0.8008336935772E+00
 0.7578106575873E+00
 0.7043483540396E+00
 0.6409722826657E+00
 0.1657393235883E+00
 0.2656984730163E+00
 0.3608485607646E+00
 0.4497442579437E+00
 0.5315614622967E+00
 0.6056510481883E+00
 0.6715065491541E+00
 0.7287652518609E+00
 0.7771898628922E+00
 0.8166220903376E+00
 0.8469143101977E+00
 0.8678663565096E+00
 0.8792032190282E+00
 0.8805986945589E+00
 0.8717211014041E+00
 0.8522870755743E+00
 0.8221235255901E+00
 0.7812388699810E+00
 0.7298850592929E+00
 0.6685622741935E+00
 0.1656021155153E+00
 0.2678393569937E+00
 0.3644353733151E+00
 0.4541960582237E+00
 0.5365540778094E+00
 0.6110737903499E+00
 0.6774081791395E+00
 0.7353003065838E+00
 0.7845720111856E+00
 0.8250890156044E+00
 0.8567055561977E+00
 0.8792110055023E+00
 0.8923111047349E+00
 0.8956510243084E+00
 0.8888611961511E+00
 0.8716138407264E+00
 0.8436902050778E+00
 0.8050582697569E+00
 0.7559412643135E+00
 0.6968299633215E+00
 0.1654015129992E+00
 0.2698659024128E+00
 0.3678796992613E+00
 0.4584893760280E+00
 0.5413753063420E+00
 0.6163105541619E+00
 0.6831070011189E+00
 0.7416160752858E+00
 0.7917230552496E+00
 0.8333223151124E+00
 0.8662738548174E+00
 0.8903592195165E+00
 0.9052662468931E+00
 0.9106115113310E+00
 0.9059860517452E+00
 0.8910147183026E+00
 0.8654294978093E+00
 0.8291556839170E+00
 0.7823903267559E+00
 0.7256266910743E+00
 0.1651225211988E+00
 0.2717438247189E+00
 0.3711288184430E+00
 0.4625558525681E+00
 0.5459449753968E+00
 0.6212733364445E+00
 0.6885106781872E+00
 0.7476185373689E+00
 0.7985489740981E+00
 0.8412287308531E+00
 0.8755267030005E+00
 0.9012186804560E+00
 0.9179755945125E+00
 0.9253852589696E+00
 0.9229976792981E+00
 0.9103871746607E+00
 0.8872324228981E+00
 0.8534127621594E+00
 0.8090992365999E+00
 0.7547948103552E+00
 0.1647506767111E+00
 0.2734399748048E+00
 0.3741317294694E+00
 0.4663291863344E+00
 0.5501849781404E+00
 0.6258758949733E+00
 0.6935280862933E+00
 0.7532141772369E+00
 0.8049554603022E+00
 0.8487139051270E+00
 0.8843697116063E+00
 0.9116944656508E+00
 0.9303428885953E+00
 0.9398737237405E+00
 0.9397941920369E+00
 0.9296246793442E+00
 0.9089859463752E+00
 0.8777069536013E+00
 0.8359305124626E+00
 0.7841715329311E+00
 0.1642720308669E+00
 0.2749222954419E+00
 0.3768390736954E+00
 0.4697450712281E+00
 0.5540192803196E+00
 0.6300338620472E+00
 0.6980695482138E+00
 0.7583103310988E+00
 0.8108483577916E+00
 0.8556828809824E+00
 0.8927071398923E+00
 0.9216895923039E+00
 0.9422692008930E+00
 0.9539752446051E+00
 0.9562703389488E+00
 0.9486172825757E+00
 0.9305736787888E+00
 0.9019124649596E+00
 0.8627438759362E+00
 0.8135930508941E+00
 0.1636731379213E+00
 0.2761597905592E+00
 0.3792030801598E+00
 0.4727411596615E+00
 0.5573739523523E+00
 0.6336648822120E+00
 0.7020470920351E+00
 0.7628155612040E+00
 0.8161341318628E+00
 0.8620406390518E+00
 0.9004424667324E+00
 0.9311055922625E+00
 0.9536534896646E+00
 0.9675855728487E+00
 0.9723180265290E+00
 0.9672521796475E+00
 0.9518765699316E+00
 0.9259012269027E+00
 0.8893975609021E+00
 0.8428963718201E+00
 0.1629410452414E+00
 0.2771225007405E+00
 0.3811775229651E+00
 0.4752570425776E+00
 0.5601772202153E+00
 0.6366887694603E+00
 0.7053747306845E+00
 0.7666400549825E+00
 0.8207203699863E+00
 0.8676926711193E+00
 0.9074790012212E+00
 0.9398431219644E+00
 0.9643931781662E+00
 0.9805984063413E+00
 0.9878268269293E+00
 0.9854142518904E+00
 0.9727735860089E+00
 0.9495438167754E+00
 0.9157495225936E+00
 0.8719207186671E+00
 0.1620632824401E+00
 0.2777814782311E+00
 0.3827176827639E+00
 0.4772342386033E+00
 0.5623595287397E+00
 0.6390276786776E+00
 0.7079687579739E+00
 0.7696960452196E+00
 0.8245163108973E+00
 0.8725455903969E+00
 0.9137205360882E+00
 0.9478026142531E+00
 0.9743847638848E+00
 0.9929059336960E+00
 0.1002684470166E+01
 0.1002986570603E+01
 0.9931423351043E+00
 0.9727103231505E+00
 0.9416585941484E+00
 0.9005087763638E+00
 0.1610278459499E+00
 0.2781087541519E+00
 0.3837803039893E+00
 0.4786161849566E+00
 0.5638536112429E+00
 0.6406062858730E+00
 0.7097480556423E+00
 0.7718982458761E+00
 0.8274333978580E+00
 0.8765077774407E+00
 0.9190720474071E+00
 0.9548849801307E+00
 0.9835244688279E+00
 0.1004399395990E+01
 0.1016777318869E+01
 0.1019850844319E+01
 0.1012859607192E+01
 0.9952711192496E+00
 0.9669855474173E+00
 0.9285077804496E+00
 0.1598231753903E+00
 0.2780772898739E+00
 0.3843235396280E+00
 0.4793482235845E+00
 0.5645945603650E+00
 0.6413519719900E+00
 0.7106344051523E+00
 0.7731642966946E+00
 0.8293858504950E+00
 0.8794900600961E+00
 0.9234404455794E+00
 0.9609923730394E+00
 0.9917089491435E+00
 0.1014969684421E+01
 0.1029990836229E+01
 0.1035887804197E+01
 0.1031801800659E+01
 0.1017097508966E+01
 0.9915940224057E+00
 0.9557704299333E+00
 0.1584381144542E+00
 0.2776609020537E+00
 0.3843068740756E+00
 0.4793775764009E+00
 0.5645198956881E+00
 0.6411950048509E+00
 0.7105527961008E+00
 0.7734152061827E+00
 0.8302912448479E+00
 0.8814064205673E+00
 0.9267353775089E+00
 0.9660290242108E+00
 0.9988360800376E+00
 0.1024507990610E+01
 0.1042210053395E+01
 0.1050977516403E+01
 0.1049845192332E+01
 0.1038062151935E+01
 0.1015351281378E+01
 0.9821554669790E+00
 0.1568618498811E+00
 0.2768341492038E+00
 0.3836910162195E+00
 0.4786533074434E+00
 0.5635696280925E+00
 0.6400687166978E+00
 0.7094317237839E+00
 0.7725757812199E+00
 0.8300710887532E+00
 0.8821747201431E+00
 0.9288700783899E+00
 0.9699021583897E+00
 0.1004805836740E+01
 0.1032906536981E+01
 0.1053320053996E+01
 0.1064999613300E+01
 0.1066866028530E+01
 0.1058039169896E+01
 0.1038128566741E+01
 0.1007527728194E+01
 0.1550838159720E+00
 0.2755721619165E+00
 0.3824377539396E+00
 0.4771262730057E+00
 0.5616863245034E+00
 0.6379096763825E+00
 0.7072034671813E+00
 0.7705750279130E+00
 0.8286513747746E+00
 0.8817174277287E+00
 0.9297622696493E+00
 0.9725230010794E+00
 0.1009521300872E+01
 0.1040059435289E+01
 0.1063206530232E+01
 0.1077833460838E+01
 0.1082740422324E+01
 0.1076903986306E+01
 0.1059800701075E+01
 0.1031756155081E+01
 0.1530935443051E+00
 0.2738503916024E+00
 0.3805097628104E+00
 0.4747490679101E+00
 0.5588151830333E+00
 0.6346578567530E+00
 0.7038043358306E+00
 0.7673465016240E+00
 0.8259630827103E+00
 0.8799623265775E+00
 0.9293350890835E+00
 0.9738078794816E+00
 0.1012889812700E+01
 0.1045863722504E+01
 0.1071756485734E+01
 0.1089358322928E+01
 0.1097343973985E+01
 0.1094532885085E+01
 0.1080245274004E+01
 0.1054709391728E+01
 0.1508804217504E+00
 0.2716442407634E+00
 0.3778703685387E+00
 0.4714759953514E+00
 0.5549041433452E+00
 0.6302568071631E+00
 0.6991748793744E+00
 0.7628285878632E+00
 0.8219426018203E+00
 0.8768431663976E+00
 0.9275180339850E+00
 0.9736794152918E+00
 0.1014824277651E+01
 0.1050220600918E+01
 0.1078859171394E+01
 0.1099453619867E+01
 0.1110551104565E+01
 0.1110801761460E+01
 0.1099342354959E+01
 0.1076257135200E+01
 0.1484333019546E+00
 0.2689285152369E+00
 0.3744832868149E+00
 0.4672631122358E+00
 0.5499040703425E+00
 0.6246538307038E+00
 0.6932600457281E+00
 0.7569646854468E+00
 0.8165320278440E+00
 0.8723002025944E+00
 0.9242478774644E+00
 0.9720678192286E+00
 0.1015244645202E+01
 0.1053036903875E+01
 0.1084407360618E+01
 0.1107999577420E+01
 0.1122234274118E+01
 0.1125584048775E+01
 0.1116973440385E+01
 0.1096275186583E+01
 0.1457398225012E+00
 0.2656766253361E+00
 0.3703123915724E+00
 0.4620684923280E+00
 0.5437690432123E+00
 0.6178001726165E+00
 0.6860092763409E+00
 0.7497032913242E+00
 0.8096792961080E+00
 0.8662805514330E+00
 0.9194694838465E+00
 0.9689122856068E+00
 0.1014079648607E+01
 0.1054226704496E+01
 0.1088298946975E+01
 0.1114878584583E+01
 0.1132263719102E+01
 0.1138747545976E+01
 0.1133018571851E+01
 0.1114644798469E+01
 0.1427852028787E+00
 0.2618592561713E+00
 0.3653219305474E+00
 0.4558528323980E+00
 0.5364568444309E+00
 0.6096510885176E+00
 0.6773765609180E+00
 0.7409979865722E+00
 0.8013380996173E+00
 0.8587382328992E+00
 0.9131363913963E+00
 0.9641623886313E+00
 0.1011268955604E+01
 0.1053713310425E+01
 0.1090438104602E+01
 0.1119977797637E+01
 0.1140508946997E+01
 0.1150150805507E+01
 0.1147348674907E+01
 0.1131252420608E+01
 0.1395493444059E+00
 0.2574433756559E+00
 0.3594771942648E+00
 0.4485816188898E+00
 0.5279289006720E+00
 0.6001658305269E+00
 0.6673205504183E+00
 0.7308074066088E+00
 0.7914675604697E+00
 0.8496338276021E+00
 0.9052109194424E+00
 0.9577794056940E+00
 0.1006765624791E+01
 0.1051432445931E+01
 0.1090736245891E+01
 0.1123188838811E+01
 0.1146848383538E+01
 0.1159639540752E+01
 0.1159810835240E+01
 0.1145995926706E+01
 0.1360020773653E+00
 0.2523845449997E+00
 0.3527564941713E+00
 0.4402245735055E+00
 0.5181492770575E+00
 0.5893083103242E+00
 0.6558045942827E+00
 0.7190950460577E+00
 0.7800322724855E+00
 0.8389331628580E+00
 0.8956637186260E+00
 0.9497372199588E+00
 0.1000539027976E+01
 0.1047336013301E+01
 0.1089116802084E+01
 0.1124401651514E+01
 0.1151169609401E+01
 0.1167091562310E+01
 0.1170167983448E+01
 0.1158776697783E+01
 0.1320447616857E+00
 0.2466998221090E+00
 0.3451534397590E+00
 0.4307471613205E+00
 0.5070865907527E+00
 0.5770479037184E+00
 0.6427971123988E+00
 0.7058281412392E+00
 0.7670019389048E+00
 0.8266089678230E+00
 0.8844668023755E+00
 0.9400255672107E+00
 0.9925782448483E+00
 0.1041394526776E+01
 0.1085522368153E+01
 0.1123514080345E+01
 0.1153323971852E+01
 0.1172459850099E+01
 0.1178287860791E+01
 0.1169672463820E+01
 0.1517489743415E+01
 0.1751875900492E+01
 0.1196115419889E+01
 0.9066133138410E+00
 0.7193819862750E+00
 0.5855265170263E+00
 0.4804193706476E+00
 0.3931629557777E+00
 0.3178071092955E+00
 0.2512962910500E+00
 0.1917131622580E+00
 0.1375816672218E+00
 0.9305331989021E-01
 0.6030751423052E-01
 0.3746120428107E-01
 0.2274138013453E-01
 0.1303922735407E-01
 0.6322604564051E-02
 0.1775283127037E-02
 0.8973451328530E-03
 0.1164825014994E+01
 0.1740149997790E+01
 0.1363050674929E+01
 0.1029971083863E+01
 0.8151578874090E+00
 0.6637084072795E+00
 0.5479129111505E+00
 0.4533932341672E+00
 0.3728302320110E+00
 0.3022012328628E+00
 0.2390600592934E+00
 0.1822738288469E+00
 0.1348919440412E+00
 0.9761696681276E-01
 0.6873552300220E-01
 0.4720314998250E-01
 0.3074455002831E-01
 0.1754267958146E-01
 0.6909351505572E-02
 0.1864611509201E-02
 0.9295232736375E+00
 0.1514063758923E+01
 0.1393448384435E+01
 0.1123200160012E+01
 0.8997225182730E+00
 0.7369218873037E+00
 0.6124329616731E+00
 0.5118023705509E+00
 0.4266641556126E+00
 0.3523519295757E+00
 0.2861141665274E+00
 0.2265941472747E+00
 0.1756500489476E+00
 0.1339134831613E+00
 0.9983692783456E-01
 0.7228997210645E-01
 0.4959325651268E-01
 0.3028432551402E-01
 0.1385606503152E-01
 0.2287271990705E-02
 0.7633855514582E+00
 0.1302228840675E+01
 0.1327803603949E+01
 0.1160506306426E+01
 0.9641613616716E+00
 0.8010423500654E+00
 0.6721386731014E+00
 0.5672419761580E+00
 0.4785750941505E+00
 0.4012593675306E+00
 0.3323435280305E+00
 0.2701940403059E+00
 0.2157825407429E+00
 0.1697674842437E+00
 0.1308939327514E+00
 0.9794245721876E-01
 0.6954961689701E-01
 0.4453840957353E-01
 0.2259044661003E-01
 0.4886345552942E-02
 0.6403132941979E+00
 0.1120068467672E+01
 0.1229782806022E+01
 0.1149390656991E+01
 0.1000114430744E+01
 0.8515469727396E+00
 0.7245965724333E+00
 0.6183811626501E+00
 0.5277137878036E+00
 0.4483207548710E+00
 0.3772990856213E+00
 0.3128625238101E+00
 0.2553284332461E+00
 0.2053872066096E+00
 0.1620895335077E+00
 0.1242125500006E+00
 0.9061124854165E-01
 0.6029865179420E-01
 0.3305140318553E-01
 0.9773790246823E-02
 0.5465430149585E+00
 0.9676231139952E+00
 0.1123448363242E+01
 0.1109110477762E+01
 0.1008766927372E+01
 0.8850503122034E+00
 0.7673834327451E+00
 0.6637097366192E+00
 0.5731293322331E+00
 0.4928846107088E+00
 0.4205374639076E+00
 0.3543504758204E+00
 0.2942054291263E+00
 0.2408103099236E+00
 0.1935144612099E+00
 0.1511688937902E+00
 0.1128096252013E+00
 0.7757629848813E-01
 0.4528300766956E-01
 0.1672022982070E-01
 0.4736483037330E+00
 0.8408418012919E+00
 0.1019659930277E+01
 0.1052922689959E+01
 0.9964695137212E+00
 0.9015085011420E+00
 0.7988489902661E+00
 0.7018365711379E+00
 0.6138403495273E+00
 0.5342737625097E+00
 0.4615960433622E+00
 0.3943704346722E+00
 0.3322556874108E+00
 0.2759817858953E+00
 0.2251851633386E+00
 0.1788515334281E+00
 0.1361845296180E+00
 0.9641768850232E-01
 0.5936530197013E-01
 0.2576988719196E-01
 0.4161304165285E+00
 0.7355172113506E+00
 0.9230636062639E+00
 0.9894207849393E+00
 0.9695935187128E+00
 0.9032313083806E+00
 0.8187583258855E+00
 0.7318460668512E+00
 0.6489968857351E+00
 0.5718363862493E+00
 0.5000076739319E+00
 0.4326070325975E+00
 0.3692737798449E+00
 0.3107862035786E+00
 0.2570609899355E+00
 0.2072648110353E+00
 0.1607673909323E+00
 0.1168800105703E+00
 0.7539271757893E-01
 0.3702434250710E-01
 0.3702156146421E+00
 0.6479532279656E+00
 0.8354505834679E+00
 0.9239387612785E+00
 0.9333988627280E+00
 0.8932861042727E+00
 0.8280440965080E+00
 0.7535258328720E+00
 0.6780493365461E+00
 0.6050333538000E+00
 0.5353385701257E+00
 0.4687398705868E+00
 0.4050277243432E+00
 0.3450681831383E+00
 0.2890567236420E+00
 0.2363767156833E+00
 0.1865680137825E+00
 0.1390124279680E+00
 0.9345478862989E-01
 0.5058587433136E-01
 0.3332198263569E+00
 0.5750684857855E+00
 0.7572231434270E+00
 0.8597229003929E+00
 0.8918816259389E+00
 0.8747099555512E+00
 0.8282619553712E+00
 0.7672987400548E+00
 0.7008432628777E+00
 0.6335221610533E+00
 0.5672402248864E+00
 0.5024750847860E+00
 0.4392813812357E+00
 0.3786493482849E+00
 0.3210528216787E+00
 0.2661190639364E+00
 0.2135650250872E+00
 0.1628406546307E+00
 0.1136223028619E+00
 0.6653793352623E-01
 0.3031802364702E+00
 0.5143327391979E+00
 0.6881064833101E+00
 0.7986889238716E+00
 0.8479577283775E+00
 0.8501714111483E+00
 0.8211830864168E+00
 0.7740154150918E+00
 0.7175989686437E+00
 0.6572018987282E+00
 0.5954955048158E+00
 0.5335800347148E+00
 0.4718190392471E+00
 0.4113455973076E+00
 0.3529054472800E+00
 0.2963886526836E+00
 0.2416983326233E+00
 0.1883544258107E+00
 0.1359365671794E+00
 0.8493717722812E-01
 0.2786294085750E+00
 0.4636751148589E+00
 0.6275056464522E+00
 0.7419039956509E+00
 0.8036967746678E+00
 0.8218744878984E+00
 0.8085448897783E+00
 0.7747511451831E+00
 0.7288226535691E+00
 0.6762066004719E+00
 0.6200431397015E+00
 0.5619119573840E+00
 0.5024697077367E+00
 0.4429854502466E+00
 0.3844579692151E+00
 0.3270500871025E+00
 0.2708631583071E+00
 0.2154961387284E+00
 0.1604004983657E+00
 0.1058111770016E+00
 0.2584503095534E+00
 0.4213979046384E+00
 0.5746908850521E+00
 0.6898919164757E+00
 0.7605299644144E+00
 0.7915701590112E+00
 0.7919218418757E+00
 0.7706509241525E+00
 0.7352016808517E+00
 0.6908626929780E+00
 0.6409757586956E+00
 0.5874334724254E+00
 0.5311269413065E+00
 0.4734286374200E+00
 0.4155549514640E+00
 0.3579415452069E+00
 0.3009056728048E+00
 0.2441490442303E+00
 0.1869693313447E+00
 0.1291604976333E+00
 0.2417797275378E+00
 0.3861042116244E+00
 0.5288953542226E+00
 0.6428284847178E+00
 0.7194152963364E+00
 0.7606096234495E+00
 0.7726713881596E+00
 0.7628268400946E+00
 0.7375111885476E+00
 0.7016315900609E+00
 0.6585172363508E+00
 0.6102125189917E+00
 0.5577606479341E+00
 0.5025833593118E+00
 0.4460596898180E+00
 0.3888857032862E+00
 0.3316213980234E+00
 0.2741231719729E+00
 0.2155372237762E+00
 0.1549641015740E+00
 0.2279417692320E+00
 0.3566394007358E+00
 0.4893665537368E+00
 0.6006682564235E+00
 0.6809633889850E+00
 0.7300083868920E+00
 0.7519226045105E+00
 0.7522974205397E+00
 0.7365418490095E+00
 0.7090521646864E+00
 0.6729884831110E+00
 0.6304084540895E+00
 0.5824184674896E+00
 0.5304201898782E+00
 0.4758765882168E+00
 0.4197106575499E+00
 0.3627602403805E+00
 0.3051377710211E+00
 0.2459127917218E+00
 0.1831858798617E+00
 0.2164005581045E+00
 0.3320442066416E+00
 0.4553927819720E+00
 0.5632281727608E+00
 0.6455317294696E+00
 0.7005079174236E+00
 0.7305871831049E+00
 0.7399566746724E+00
 0.7330491591390E+00
 0.7136909798239E+00
 0.6847697218561E+00
 0.6482482544089E+00
 0.6052146918240E+00
 0.5569777015239E+00
 0.5049788664960E+00
 0.4502892916141E+00
 0.3940509112009E+00
 0.3368014142444E+00
 0.2777715385029E+00
 0.2137748451297E+00
 0.2067253093520E+00
 0.3115168518193E+00
 0.4263164373076E+00
 0.5302437874774E+00
 0.6132950675852E+00
 0.6726298428611E+00
 0.7093808156437E+00
 0.7265626166310E+00
 0.7277208476978E+00
 0.7161031814075E+00
 0.6942651533199E+00
 0.6639978716781E+00
 0.6263072219782E+00
 0.5823478859813E+00
 0.5334289913798E+00
 0.4806128644720E+00
 0.4252722957196E+00
 0.3686126186015E+00
 0.3105579687578E+00
 0.2466392960144E+00
 0.1985621202649E+00
 0.2943833464063E+00
 0.4015405654444E+00
 0.5014093146559E+00
 0.5842970380537E+00
 0.6467216622442E+00
 0.6888484982621E+00
 0.7127378510135E+00
 0.7211580247915E+00
 0.7168038780418E+00
 0.7018734258668E+00
 0.6779351203569E+00
 0.6458678291362E+00
 0.6066380660213E+00
 0.5613396839380E+00
 0.5108663685291E+00
 0.4564797427355E+00
 0.4000322659884E+00
 0.3433312913851E+00
 0.2815073258809E+00
 0.1916094803664E+00
 0.2800661561776E+00
 0.3805464291114E+00
 0.4764017139487E+00
 0.5584871869182E+00
 0.6229949371329E+00
 0.6693905270893E+00
 0.6989775155776E+00
 0.7138657670770E+00
 0.7162481550278E+00
 0.7079646064828E+00
 0.6903287791411E+00
 0.6640601532560E+00
 0.6299235301348E+00
 0.5887758723886E+00
 0.5412641164521E+00
 0.4883010867592E+00
 0.4312652321642E+00
 0.3743791352784E+00
 0.3174669684213E+00
 0.1855292787349E+00
 0.2681666878613E+00
 0.3628963698909E+00
 0.4548871209120E+00
 0.5357499635621E+00
 0.6015564778295E+00
 0.6512880905064E+00
 0.6856623989866E+00
 0.7062501994380E+00
 0.7148149854429E+00
 0.7128633666729E+00
 0.7014240732883E+00
 0.6810325458681E+00
 0.6522418457845E+00
 0.6156623593735E+00
 0.5717674362718E+00
 0.5211215749188E+00
 0.4644505618278E+00
 0.4041364187941E+00
 0.3497212428281E+00
 0.1280145158982E+00
 0.2417529147461E+00
 0.3385189011343E+00
 0.4224150891939E+00
 0.4972615480419E+00
 0.5660950252126E+00
 0.6311761522632E+00
 0.6940568901367E+00
 0.7556089275480E+00
 0.8161008916468E+00
 0.8753192825099E+00
 0.9326952901523E+00
 0.9873694799728E+00
 0.1038640065228E+01
 0.1085492371982E+01
 0.1126321388081E+01
 0.1158875414495E+01
 0.1180402226200E+01
 0.1188316656072E+01
 0.1181488977601E+01
 0.1246752031080E+00
 0.2376843734273E+00
 0.3329523389705E+00
 0.4151429219151E+00
 0.4884157873106E+00
 0.5560098606239E+00
 0.6203201150999E+00
 0.6829894352467E+00
 0.7449492829725E+00
 0.8065021595146E+00
 0.8674316854253E+00
 0.9270852338984E+00
 0.9844303292161E+00
 0.1038738380317E+01
 0.1088835113910E+01
 0.1132732293765E+01
 0.1167652053911E+01
 0.1190321154637E+01
 0.1198166001496E+01
 0.1187491432364E+01
 0.1209237526109E+00
 0.2326302429823E+00
 0.3259126254014E+00
 0.4059726063373E+00
 0.4773274100431E+00
 0.5434178385187E+00
 0.6067550188599E+00
 0.6690527130631E+00
 0.7312834678509E+00
 0.7937708622220E+00
 0.8562907200270E+00
 0.9181331603950E+00
 0.9781579184364E+00
 0.1035653325938E+01
 0.1089320303939E+01
 0.1136765225982E+01
 0.1174531094251E+01
 0.1198497028910E+01
 0.1204763429400E+01
 0.1189124955888E+01
 0.1167266346705E+00
 0.2265176909094E+00
 0.3172753413601E+00
 0.3947840209163E+00
 0.4638999504289E+00
 0.5282468901654E+00
 0.5904258201790E+00
 0.6521941727890E+00
 0.7145446803061E+00
 0.7778127139855E+00
 0.8417761642567E+00
 0.9056967620696E+00
 0.9683635354143E+00
 0.1029144414746E+01
 0.1086647529329E+01
 0.1138004379165E+01
 0.1178828339505E+01
 0.1203632890833E+01
 0.1207489578301E+01
 0.1186866503182E+01
 0.1120444173269E+00
 0.2192469948576E+00
 0.3069204415720E+00
 0.3814637003222E+00
 0.4480493474055E+00
 0.5104457297609E+00
 0.5713051196917E+00
 0.6323941146691E+00
 0.6947019933396E+00
 0.7585695891448E+00
 0.8237902037475E+00
 0.8896233474952E+00
 0.9548272654482E+00
 0.1018910049979E+01
 0.1080413949357E+01
 0.1135915117212E+01
 0.1179835503445E+01
 0.1205156746605E+01
 0.1206288794978E+01
 0.1180543602341E+01
 0.1068258168597E+00
 0.2107029367513E+00
 0.2947194609716E+00
 0.3659045840441E+00
 0.4297082215025E+00
 0.4899896445487E+00
 0.5493999549778E+00
 0.6096719514249E+00
 0.6717643604470E+00
 0.7360170617092E+00
 0.8022526827337E+00
 0.8697565190814E+00
 0.9373009790726E+00
 0.1004598737673E+01
 0.1070163734043E+01
 0.1129964102481E+01
 0.1177041290503E+01
 0.1202694248598E+01
 0.1200814898037E+01
 0.1169687212486E+01
 0.1010070386767E+00
 0.2007502876971E+00
 0.2805343780983E+00
 0.3480053664091E+00
 0.4088302325745E+00
 0.4668869352261E+00
 0.5247586872581E+00
 0.5840922327289E+00
 0.6457842232235E+00
 0.7101657802157E+00
 0.7771034001154E+00
 0.8459396458450E+00
 0.9155167627551E+00
 0.9858284643381E+00
 0.1055423718200E+01
 0.1119656994517E+01
 0.1169991887759E+01
 0.1195802611792E+01
 0.1190550466650E+01
 0.1153705699259E+01
 0.9450917577462E-01
 0.1892299506096E+00
 0.2642159871745E+00
 0.3276727328635E+00
 0.3853952811261E+00
 0.4411860866250E+00
 0.4974781890672E+00
 0.5557706313334E+00
 0.6168619523535E+00
 0.6810651944900E+00
 0.7483060942715E+00
 0.8180213924228E+00
 0.8891952854893E+00
 0.9621974019955E+00
 0.1035707324965E+01
 0.1104495694449E+01
 0.1158201460162E+01
 0.1183942907848E+01
 0.1174854237647E+01
 0.1131932290634E+01
 0.8723446175897E-01
 0.1759537691524E+00
 0.2456031337753E+00
 0.3048251722885E+00
 0.3594165853476E+00
 0.4129839378943E+00
 0.4677113497584E+00
 0.5248799673088E+00
 0.5851507864530E+00
 0.6488083805383E+00
 0.7158539906878E+00
 0.7858618842880E+00
 0.8580512382187E+00
 0.9332837327668E+00
 0.1010496791241E+01
 0.1083940539230E+01
 0.1141117748274E+01
 0.1166472956640E+01
 0.1152981276777E+01
 0.1103635457940E+01
 0.7906113164176E-01
 0.1606980974905E+00
 0.2245227319838E+00
 0.2793990077073E+00
 0.3309499682336E+00
 0.3824351330283E+00
 0.4356746970540E+00
 0.4916558158041E+00
 0.5508616304397E+00
 0.6135375595336E+00
 0.6797766006241E+00
 0.7493393870560E+00
 0.8217965053053E+00
 0.8986393369849E+00
 0.9792230204369E+00
 0.1057383225432E+01
 0.1118099693082E+01
 0.1142637515313E+01
 0.1124080948197E+01
 0.1068017593324E+01
 0.6983654895570E-01
 0.1431958979092E+00
 0.2007911795380E+00
 0.2513575336109E+00
 0.3001060297983E+00
 0.3497628267619E+00
 0.4016555426382E+00
 0.4564008393926E+00
 0.5142670387155E+00
 0.5754500839081E+00
 0.6401482063235E+00
 0.7083588068478E+00
 0.7801438967689E+00
 0.8577832212735E+00
 0.9412463073768E+00
 0.1024121384620E+01
 0.1088392693533E+01
 0.1111546718871E+01
 0.1087181551096E+01
 0.1024210092824E+01
 0.5936806913081E-01
 0.1231271749849E+00
 0.1742183200593E+00
 0.2207048236563E+00
 0.2670660059350E+00
 0.3152702638211E+00
 0.3660174763698E+00
 0.4194866207893E+00
 0.4757036557542E+00
 0.5348049956390E+00
 0.5970992312435E+00
 0.6628645130185E+00
 0.7328151302164E+00
 0.8101976347729E+00
 0.8958364526829E+00
 0.9833281776386E+00
 0.1051092953046E+01
 0.1072139708329E+01
 0.1041164384931E+01
 0.9712685168683E+00
 0.4741119496894E-01
 0.1001076964412E+00
 0.1446161373413E+00
 0.1875066996470E+00
 0.2321021315810E+00
 0.2793520802060E+00
 0.3292022672856E+00
 0.3813514617364E+00
 0.4355724963556E+00
 0.4919305975999E+00
 0.5508323349620E+00
 0.6128609671388E+00
 0.6795572476904E+00
 0.7553293441895E+00
 0.8421505467306E+00
 0.9340108039002E+00
 0.1005093559752E+01
 0.1023129032456E+01
 0.9847276395018E+00
 0.9081707150119E+00
 0.3365687486313E-01
 0.7367667710922E-01
 0.1118163823998E+00
 0.1519227782049E+00
 0.1956027934421E+00
 0.2425026666566E+00
 0.2917252758496E+00
 0.3424926948389E+00
 0.3943368109955E+00
 0.4472336552841E+00
 0.5016453673530E+00
 0.5584457048515E+00
 0.6201734175210E+00
 0.6926002659028E+00
 0.7792072476616E+00
 0.8749505079617E+00
 0.9490018214835E+00
 0.9629183508983E+00
 0.9163397752527E+00
 0.8338230219650E+00
 0.1775040793932E-01
 0.4328825160199E-01
 0.7570574835871E-01
 0.1142554041934E+00
 0.1581007756141E+00
 0.2053159554762E+00
 0.2541609521590E+00
 0.3034530759690E+00
 0.3525180274757E+00
 0.4012103535475E+00
 0.4499629076654E+00
 0.4998606328697E+00
 0.5545779839836E+00
 0.6214360812505E+00
 0.7058577074957E+00
 0.8046124760791E+00
 0.8810095617209E+00
 0.8894809979105E+00
 0.8341839951436E+00
 0.7470863248089E+00
 0.3441792974438E-02
 0.8442440730412E-02
 0.3629799289751E-01
 0.7502377228811E-01
 0.1202957910585E+00
 0.1684669768515E+00
 0.2171160343406E+00
 0.2648042473864E+00
 0.3106904583000E+00
 0.3544574599023E+00
 0.3963762376182E+00
 0.4375692126970E+00
 0.4828928710854E+00
 0.5413316691743E+00
 0.6207572355667E+00
 0.7210043996157E+00
 0.7986813656010E+00
 0.8001780171992E+00
 0.7361051574226E+00
 0.6468489247012E+00
 0.2403816437007E-01
 0.3223321533406E-01
 0.6230772992414E-02
 0.3506467205873E-01
 0.8304850286407E-01
 0.1326583447587E+00
 0.1811998621014E+00
 0.2271325562864E+00
 0.2694740126653E+00
 0.3076793829418E+00
 0.3416878517019E+00
 0.3723653479687E+00
 0.4056161737752E+00
 0.4519958440763E+00
 0.5223548523542E+00
 0.6214434286294E+00
 0.6985824590467E+00
 0.6914819583332E+00
 0.6196011439061E+00
 0.5322255982715E+00
 0.5108193653752E-01
 0.7866016383477E-01
 0.5076596416870E-01
 0.4400170779608E-02
 0.4724804630267E-01
 0.9855919429036E-01
 0.1470113089749E+00
 0.1910263796157E+00
 0.2295218279164E+00
 0.2616884365095E+00
 0.2869454609997E+00
 0.3055122921715E+00
 0.3239025559658E+00
 0.3536848659191E+00
 0.4089693215290E+00
 0.5021387256631E+00
 0.5755668269187E+00
 0.5585298760737E+00
 0.4820447759750E+00
 0.4030889960172E+00
 0.8460517099973E-01
 0.1314711832324E+00
 0.9518101708279E-01
 0.4191930116225E-01
 0.1363940143990E-01
 0.6680920264310E-01
 0.1151316385420E+00
 0.1570683451118E+00
 0.1914938624160E+00
 0.2173894642685E+00
 0.2334774158523E+00
 0.2388238986593E+00
 0.2400084288341E+00
 0.2479587164829E+00
 0.2792540582698E+00
 0.3574397386695E+00
 0.4210877326650E+00
 0.3945016661122E+00
 0.3218444120619E+00
 0.2620190186744E+00
 0.1271543348798E+00
 0.1848129266833E+00
 0.1367855137956E+00
 0.7691945466871E-01
 0.1706611027402E-01
 0.3801729341238E-01
 0.8611325331526E-01
 0.1258352517375E+00
 0.1560444183103E+00
 0.1756661284398E+00
 0.1829601616408E+00
 0.1748466573309E+00
 0.1570877425050E+00
 0.1395900285826E+00
 0.1346549828178E+00
 0.1783502104272E+00
 0.2185084402112E+00
 0.1900930982045E+00
 0.1472313804714E+00
 0.1249050264423E+00
 0.3027718128726E+00
 0.2644611814752E+00
 0.2323359791370E+00
 0.2025051638924E+00
 0.1741075829978E+00
 0.1472945549016E+00
 0.1223313184245E+00
 0.9946998713059E-01
 0.7890891249367E-01
 0.6078982057648E-01
 0.4520044252314E-01
 0.3217961834800E-01
 0.2172473730470E-01
 0.1380151415819E-01
 0.8341138573544E-02
 0.5126721859042E-02
 0.3440000187062E-02
 0.2382146708613E-02
 0.2985286773352E-02
 0.6150678271917E-02
 0.3097474608035E+00
 0.2745208249232E+00
 0.2380774634667E+00
 0.2038522035237E+00
 0.1719418567454E+00
 0.1422780614782E+00
 0.1149483257019E+00
 0.9011941749303E-01
 0.6798117778998E-01
 0.4871776717140E-01
 0.3251215280110E-01
 0.1961926550053E-01
 0.1070987395004E-01
 0.7552497144175E-02
 0.8860958363924E-02
 0.9977118419079E-02
 0.9367190442174E-02
 0.6927414247878E-02
 0.2945863673871E-02
 0.1448189291734E-02
 0.3155100612520E+00
 0.2808700372106E+00
 0.2436605993882E+00
 0.2068224833444E+00
 0.1718873249249E+00
 0.1393297441293E+00
 0.1093931124555E+00
 0.8230271874970E-01
 0.5831250702957E-01
 0.3774676617153E-01
 0.2122552549929E-01
 0.1109211748204E-01
 0.1209778543646E-01
 0.1717875912791E-01
 0.2050205097362E-01
 0.2115790360340E-01
 0.1918324381894E-01
 0.1487745771090E-01
 0.8786977520534E-02
 0.1482528025904E-02
 0.3224409412379E+00
 0.2866412164376E+00
 0.2486585129893E+00
 0.2102716613214E+00
 0.1730393990936E+00
 0.1378948350322E+00
 0.1053768720789E+00
 0.7589898579458E-01
 0.4990454176650E-01
 0.2816246246620E-01
 0.1370847420690E-01
 0.1548603844622E-01
 0.2416494567100E-01
 0.3074960064787E-01
 0.3393521339352E-01
 0.3363789759601E-01
 0.3008758034245E-01
 0.2368563038184E-01
 0.1490696008678E-01
 0.4165030138313E-02
 0.3309257766624E+00
 0.2932645217351E+00
 0.2540658639406E+00
 0.2142671196444E+00
 0.1751354275882E+00
 0.1376970203684E+00
 0.1027131767795E+00
 0.7082232997432E-01
 0.4279577563160E-01
 0.2069215088525E-01
 0.1540993563217E-01
 0.2702354380150E-01
 0.3812851041924E-01
 0.4542985862449E-01
 0.4845296272188E-01
 0.4723570048141E-01
 0.4205153464289E-01
 0.3332917887411E-01
 0.2157790644685E-01
 0.7286424532807E-02
 0.3410152287088E+00
 0.3013165199074E+00
 0.2605864596266E+00
 0.2192765265000E+00
 0.1783452594049E+00
 0.1387657566874E+00
 0.1014018353605E+00
 0.6709517718910E-01
 0.3710503749618E-01
 0.1682959686172E-01
 0.2377052601501E-01
 0.3982818991654E-01
 0.5275878344244E-01
 0.6095324992409E-01
 0.6405442102812E-01
 0.6207188280323E-01
 0.5525668360304E-01
 0.4406069595931E-01
 0.2909188670466E-01
 0.1103445126346E-01
 0.3526963028125E+00
 0.3110417300463E+00
 0.2686432401423E+00
 0.2257118033022E+00
 0.1829705285265E+00
 0.1412939404809E+00
 0.1015787078122E+00
 0.6483437307242E-01
 0.3299562101762E-01
 0.1758745061401E-01
 0.3355387633759E-01
 0.5277867062117E-01
 0.6774709499773E-01
 0.7722590109725E-01
 0.8077531251504E-01
 0.7828558249118E-01
 0.6992444462545E-01
 0.5613467802027E-01
 0.3762780679324E-01
 0.1536776721093E-01
 0.3659525487065E+00
 0.3225324378543E+00
 0.2784615237573E+00
 0.2338540900324E+00
 0.1892749433187E+00
 0.1455015337539E+00
 0.1034270221646E+00
 0.6419621380668E-01
 0.3057539182360E-01
 0.2123983367478E-01
 0.4309596649215E-01
 0.6541597372465E-01
 0.8282544786552E-01
 0.9408239015553E-01
 0.9855448047364E-01
 0.9592545029404E-01
 0.8619823767834E-01
 0.6974045942053E-01
 0.4731756321550E-01
 0.2013291132024E-01
 0.3807726747386E+00
 0.3358218320771E+00
 0.2901641994554E+00
 0.2438936197607E+00
 0.1974761052089E+00
 0.1516071361420E+00
 0.1071581619258E+00
 0.6537168065158E-01
 0.2984633678116E-01
 0.2544321079922E-01
 0.5171747546310E-01
 0.7734377051017E-01
 0.9766180358928E-01
 0.1112568188899E+00
 0.1172188346479E+00
 0.1149281596721E+00
 0.1041121125774E+00
 0.8495783557066E-01
 0.5820930196552E-01
 0.2518520017311E-01
 0.3971722571739E+00
 0.3509906953459E+00
 0.3039324906081E+00
 0.2561123939299E+00
 0.2079351647984E+00
 0.1600274397419E+00
 0.1132243499369E+00
 0.6881171290847E-01
 0.3092767517294E-01
 0.2875951690874E-01
 0.5875962834710E-01
 0.8800596973469E-01
 0.1117798768129E+00
 0.1283924537841E+00
 0.1365732957814E+00
 0.1352739724105E+00
 0.1237695931573E+00
 0.1018625155509E+00
 0.7010439138375E-01
 0.2988090347247E-01
 0.4151903317878E+00
 0.3681465362655E+00
 0.3199973419663E+00
 0.2708850088085E+00
 0.2211717588127E+00
 0.1714208879356E+00
 0.1224124457872E+00
 0.7539705655969E-01
 0.3443210696670E-01
 0.3005234614582E-01
 0.6298100502315E-01
 0.9610722560042E-01
 0.1239128100065E+00
 0.1443600883251E+00
 0.1557583365129E+00
 0.1565051738867E+00
 0.1451943830510E+00
 0.1209168122428E+00
 0.8370170790206E-01
 0.3494766002245E-01
 0.4348604356834E+00
 0.3873582160013E+00
 0.3385140281031E+00
 0.2884835737924E+00
 0.2375925484951E+00
 0.1863414411764E+00
 0.1354357820581E+00
 0.8601144123330E-01
 0.4144331584412E-01
 0.2892319910556E-01
 0.6301515933098E-01
 0.1000284160119E+00
 0.1323153098142E+00
 0.1574207800219E+00
 0.1732317459787E+00
 0.1775279580942E+00
 0.1680053576652E+00
 0.1425864670082E+00
 0.1001395264723E+00
 0.4154458653734E-01
 0.4561915428249E+00
 0.4086498325954E+00
 0.3595524485863E+00
 0.3090542517911E+00
 0.2574453032156E+00
 0.2051636407966E+00
 0.1528273866325E+00
 0.1014069308509E+00
 0.5336898296194E-01
 0.2723598110867E-01
 0.5769747188352E-01
 0.9803248929090E-01
 0.1348856633968E+00
 0.1652166824784E+00
 0.1865636357004E+00
 0.1961588592625E+00
 0.1907370325859E+00
 0.1666128498851E+00
 0.1203769250910E+00
 0.5086218828312E-01
 0.4791607051201E+00
 0.4320026336454E+00
 0.3831149410513E+00
 0.3326446479608E+00
 0.2808487502302E+00
 0.2281073656599E+00
 0.1749503412259E+00
 0.1221727738766E+00
 0.7145452503367E-01
 0.3171602769492E-01
 0.4668108009890E-01
 0.8841579212245E-01
 0.1292123457892E+00
 0.1646872443519E+00
 0.1921240273658E+00
 0.2084481847432E+00
 0.2096856679226E+00
 0.1905544802409E+00
 0.1442691427087E+00
 0.6421488639524E-01
 0.5037121640527E+00
 0.4573550391212E+00
 0.4091431619987E+00
 0.3592160661579E+00
 0.3078046372488E+00
 0.2552420086794E+00
 0.2019824900216E+00
 0.1486709393254E+00
 0.9644308261327E-01
 0.4899436873237E-01
 0.3369901503461E-01
 0.7009779170397E-01
 0.1129160941764E+00
 0.1522991643923E+00
 0.1850842276301E+00
 0.2081836843504E+00
 0.2174781867195E+00
 0.2068877173723E+00
 0.1668153433416E+00
 0.8178861074902E-01
 0.5297586140267E+00
 0.4846030571127E+00
 0.4375198999197E+00
 0.3886463340331E+00
 0.3381977312814E+00
 0.2864765183795E+00
 0.2338848764195E+00
 0.1809633501080E+00
 0.1285261747178E+00
 0.7829270542304E-01
 0.3807695523073E-01
 0.4533911079912E-01
 0.8468889431664E-01
 0.1249154474172E+00
 0.1601583889057E+00
 0.1871298259352E+00
 0.2018718703955E+00
 0.1983974301725E+00
 0.1664535122524E+00
 0.8499884689236E-01
 0.5571838794829E+00
 0.5136029865205E+00
 0.4680723044348E+00
 0.4207332942475E+00
 0.3717970088886E+00
 0.3215524487779E+00
 0.2703759675881E+00
 0.2187530121993E+00
 0.1673382093328E+00
 0.1171523942546E+00
 0.7048922305289E-01
 0.3755530080901E-01
 0.4902370717758E-01
 0.8320117367069E-01
 0.1162122235774E+00
 0.1421426588570E+00
 0.1568378993989E+00
 0.1549311638560E+00
 0.1279832677909E+00
 0.6077081444596E-01
 0.5858460387879E+00
 0.5441754629182E+00
 0.5005775542483E+00
 0.4552027585241E+00
 0.4082658399213E+00
 0.3600550354524E+00
 0.3109404993169E+00
 0.2613882435085E+00
 0.2119891659172E+00
 0.1635266838500E+00
 0.1171649323718E+00
 0.7514114345164E-01
 0.4417592831052E-01
 0.4210501489921E-01
 0.6243917236709E-01
 0.8250888369879E-01
 0.9384313051497E-01
 0.9165225400661E-01
 0.7162419979504E-01
 0.3437015256726E-01
 0.6155813244615E+00
 0.5761114987950E+00
 0.5347720909189E+00
 0.4917229427155E+00
 0.4471847286166E+00
 0.4014491980000E+00
 0.3548874105711E+00
 0.3079598659110E+00
 0.2612323812917E+00
 0.2154031487189E+00
 0.1713518690862E+00
 0.1302378769050E+00
 0.9371964413359E-01
 0.6445662596639E-01
 0.4662187023868E-01
 0.4226278275499E-01
 0.4419917433910E-01
 0.4396406844576E-01
 0.4010851235850E-01
 0.3814266078497E-01
 0.6462085158629E+00
 0.6091798864436E+00
 0.5703633655155E+00
 0.5299233560017E+00
 0.4880820610603E+00
 0.4451299730330E+00
 0.4014333863298E+00
 0.3574413938084E+00
 0.3136940053738E+00
 0.2708322405202E+00
 0.2296101144451E+00
 0.1909065875867E+00
 0.1557304930070E+00
 0.1251969907209E+00
 0.1004182591285E+00
 0.8219943206323E-01
 0.7049553693297E-01
 0.6395411011327E-01
 0.5986237894452E-01
 0.5455673210514E-01
 0.6775334692821E+00
 0.6431340363522E+00
 0.6070400431073E+00
 0.5694111574549E+00
 0.5304609965877E+00
 0.4904667433858E+00
 0.4497749564237E+00
 0.4088048263249E+00
 0.3680494619231E+00
 0.3280746027911E+00
 0.2895125970741E+00
 0.2530471831069E+00
 0.2193809456481E+00
 0.1891716665937E+00
 0.1629164680868E+00
 0.1407573347040E+00
 0.1221890201049E+00
 0.1057057071098E+00
 0.8876043535880E-01
 0.7027218733522E-01
 0.7093514872978E+00
 0.6777141678179E+00
 0.6444745033497E+00
 0.6097757322746E+00
 0.5738090439221E+00
 0.5368220645686E+00
 0.4991222116874E+00
 0.4610756630080E+00
 0.4231020436138E+00
 0.3856637322454E+00
 0.3492472269743E+00
 0.3143322104431E+00
 0.2813416872904E+00
 0.2505639658874E+00
 0.2220354427962E+00
 0.1953764794766E+00
 0.1695969424972E+00
 0.1429985868112E+00
 0.1137591644392E+00
 0.8402613071908E-01
 0.7414471599532E+00
 0.7126489280910E+00
 0.6823283656773E+00
 0.6505993918700E+00
 0.6176154847824E+00
 0.5835774248980E+00
 0.5487340476621E+00
 0.5133770057205E+00
 0.4778296947936E+00
 0.4424293239836E+00
 0.4074999152845E+00
 0.3733128775662E+00
 0.3400308727019E+00
 0.3076306111101E+00
 0.2758029923615E+00
 0.2438405433271E+00
 0.2105608213501E+00
 0.1744403934323E+00
 0.1346156157756E+00
 0.9599762397612E-01
 0.7736060877913E+00
 0.7476729116590E+00
 0.7202779031339E+00
 0.6914919074276E+00
 0.6614156030318E+00
 0.6301869452521E+00
 0.5979796720913E+00
 0.5649945631794E+00
 0.5314441298381E+00
 0.4975302299516E+00
 0.4634132056224E+00
 0.4291706929314E+00
 0.3947445640464E+00
 0.3598764077520E+00
 0.3240377614773E+00
 0.2863767004405E+00
 0.2457432259589E+00
 0.2009794021490E+00
 0.1521732717367E+00
 0.1064879195746E+00
 0.8056206630842E+00
 0.7825348670954E+00
 0.7580242684072E+00
 0.7321028610748E+00
 0.7048047760547E+00
 0.6761919995788E+00
 0.6463512152532E+00
 0.6153825960552E+00
 0.5833820993676E+00
 0.5504175273032E+00
 0.5164979326524E+00
 0.4815360427767E+00
 0.4453045461171E+00
 0.4073901546447E+00
 0.3671562568780E+00
 0.3237404730337E+00
 0.2761520004572E+00
 0.2236570707224E+00
 0.1671942999629E+00
 0.1157357964672E+00
 0.8372924717507E+00
 0.8170007852565E+00
 0.7952966237887E+00
 0.7721241870413E+00
 0.7474395028449E+00
 0.7212191258810E+00
 0.6934558850007E+00
 0.6641462143918E+00
 0.6332717725615E+00
 0.6007764389971E+00
 0.5665391327315E+00
 0.5303432717697E+00
 0.4918452544646E+00
 0.4505476969029E+00
 0.4057898448204E+00
 0.3567818723326E+00
 0.3027468674589E+00
 0.2433621654518E+00
 0.1802857164468E+00
 0.1239237672970E+00
 0.8684342540460E+00
 0.8508558539079E+00
 0.8318535215203E+00
 0.8112901430934E+00
 0.7890348187887E+00
 0.7649732556324E+00
 0.7390026948129E+00
 0.7110184353548E+00
 0.6808960401154E+00
 0.6484710416381E+00
 0.6135171307765E+00
 0.5757242140345E+00
 0.5346793062011E+00
 0.4898563537020E+00
 0.4406270716486E+00
 0.3863180581743E+00
 0.3263764298575E+00
 0.2608411000302E+00
 0.1919469514333E+00
 0.1312024788115E+00
 0.8988708878132E+00
 0.8839047732554E+00
 0.8674821473804E+00
 0.8493746355129E+00
 0.8293585568905E+00
 0.8072274709002E+00
 0.7827859362971E+00
 0.7558352438762E+00
 0.7261568257093E+00
 0.6934956572017E+00
 0.6575447275095E+00
 0.6179319176370E+00
 0.5742120401739E+00
 0.5258695384369E+00
 0.4723426449508E+00
 0.4130922440576E+00
 0.3477759379917E+00
 0.2767284439962E+00
 0.2026094459842E+00
 0.1377077774080E+00
 0.9284407205031E+00
 0.9159722868157E+00
 0.9019974679404E+00
 0.8861880143681E+00
 0.8682245927710E+00
 0.8478114386635E+00
 0.8246675065835E+00
 0.7985105316886E+00
 0.7690415532326E+00
 0.7359323282919E+00
 0.6988162672587E+00
 0.6572836256829E+00
 0.6108829409037E+00
 0.5591331333262E+00
 0.5015555251046E+00
 0.4377469668787E+00
 0.3675524842212E+00
 0.2915374000557E+00
 0.2126318083433E+00
 0.1435616312874E+00
 0.9569950267437E+00
 0.9469010382172E+00
 0.9352381059901E+00
 0.9215695569144E+00
 0.9054804920958E+00
 0.8865930290217E+00
 0.8645515285970E+00
 0.8390029822724E+00
 0.8095819479265E+00
 0.7759018604271E+00
 0.7375522470207E+00
 0.6941014811483E+00
 0.6451059764611E+00
 0.5901290324970E+00
 0.5287771618182E+00
 0.4607734293915E+00
 0.3861238873443E+00
 0.3055728084252E+00
 0.2222011420795E+00
 0.1488292341707E+00
 0.9843972775950E+00
 0.9765506563839E+00
 0.9670639599410E+00
 0.9553809335449E+00
 0.9409946706828E+00
 0.9234575982987E+00
 0.9023544753098E+00
 0.8772759566170E+00
 0.8478029461335E+00
 0.8135016514474E+00
 0.7739268695428E+00
 0.7286316107824E+00
 0.6771827175641E+00
 0.6191845527681E+00
 0.5543174550894E+00
 0.4824093757210E+00
 0.4035955182772E+00
 0.3187575580494E+00
 0.2310813617307E+00
 0.1533357556741E+00
 0.1010522463843E+01
 0.1004800236798E+01
 0.9973565735219E+00
 0.9874996168655E+00
 0.9746396125460E+00
 0.9582785458018E+00
 0.9379606479723E+00
 0.9132353000344E+00
 0.8836403253030E+00
 0.8487011688283E+00
 0.8079404418823E+00
 0.7608939865010E+00
 0.7071319305103E+00
 0.6462858063426E+00
 0.5780874971099E+00
 0.5024376809985E+00
 0.4195585988337E+00
 0.3304248160241E+00
 0.2383235419077E+00
 0.1562776328453E+00
 0.1035255167717E+01
 0.1031546661068E+01
 0.1026008279261E+01
 0.1017792656081E+01
 0.1006247040858E+01
 0.9908515314673E+00
 0.9711324834173E+00
 0.9466120790177E+00
 0.9167918899387E+00
 0.8811582379974E+00
 0.8391990645488E+00
 0.7904267186336E+00
 0.7344042678096E+00
 0.6707758304952E+00
 0.5993058448561E+00
 0.5199441559425E+00
 0.4329720909217E+00
 0.3394307363777E+00
 0.2427299648585E+00
 0.1566461267238E+00
 0.1058487252215E+01
 0.1056693235377E+01
 0.1052897193499E+01
 0.1046079962920E+01
 0.1035567536113E+01
 0.1020859673160E+01
 0.1001490302276E+01
 0.9769647437344E+00
 0.9467501438774E+00
 0.9102912476655E+00
 0.8670370023268E+00
 0.8164710567011E+00
 0.7581446231127E+00
 0.6917124944946E+00
 0.6169768125450E+00
 0.5339544506451E+00
 0.4430228233309E+00
 0.3453487926535E+00
 0.2445452759465E+00
 0.1552032877091E+00
 0.1080160230986E+01
 0.1080224375443E+01
 0.1077988386956E+01
 0.1072281295805E+01
 0.1062491176723E+01
 0.1048197797223E+01
 0.1028965495220E+01
 0.1004285753329E+01
 0.9735858348072E+00
 0.9362624300638E+00
 0.8917184326559E+00
 0.8394004027453E+00
 0.7788379844808E+00
 0.7096873543788E+00
 0.6317826831682E+00
 0.5452102978709E+00
 0.4504571460157E+00
 0.3488383775443E+00
 0.2441836803578E+00
 0.1520187908668E+00
 0.1100264539776E+01
 0.1102179460146E+01
 0.1101260590640E+01
 0.1096296317436E+01
 0.1086895720690E+01
 0.1072781197532E+01
 0.1053555773785E+01
 0.1028679320089E+01
 0.9975265303232E+00
 0.9594379496874E+00
 0.9137624226277E+00
 0.8598974773266E+00
 0.7973334398042E+00
 0.7257048955937E+00
 0.6448533432239E+00
 0.5549114950485E+00
 0.4564603188265E+00
 0.3509573173666E+00
 0.2424563698370E+00
 0.1476053421687E+00
 0.1118875783605E+01
 0.1122645114376E+01
 0.1122618141852E+01
 0.1117903996148E+01
 0.1108545641156E+01
 0.1094458180170E+01
 0.1075213068315E+01
 0.1050203130012E+01
 0.1018739704857E+01
 0.9801058135485E+00
 0.9335929615993E+00
 0.8785378869945E+00
 0.8143680982844E+00
 0.7406612565562E+00
 0.6572223481709E+00
 0.5641883733477E+00
 0.4621941787769E+00
 0.3528202022144E+00
 0.2403589495079E+00
 0.1425790421363E+00
 0.1136200819037E+01
 0.1141689625431E+01
 0.1141758944478E+01
 0.1136611034765E+01
 0.1127108773480E+01
 0.1113050949365E+01
 0.1093865571404E+01
 0.1068861121634E+01
 0.1037299156157E+01
 0.9984218016656E+00
 0.9514711881236E+00
 0.8957171361109E+00
 0.8305002022894E+00
 0.7552964033616E+00
 0.6698112827708E+00
 0.5741132406382E+00
 0.4688416928185E+00
 0.3556171980605E+00
 0.2388998157113E+00
 0.1373911713858E+00
 0.1152954248755E+01
 0.1159172799744E+01
 0.1157441377417E+01
 0.1151783437221E+01
 0.1142347833651E+01
 0.1128475463264E+01
 0.1109467224125E+01
 0.1084608119062E+01
 0.1053164360237E+01
 0.1014374321838E+01
 0.9674525708318E+00
 0.9116073764657E+00
 0.8460763741939E+00
 0.7701888982922E+00
 0.6834692326704E+00
 0.5858036727139E+00
 0.4777083682842E+00
 0.3608342736919E+00
 0.2393775555112E+00
 0.1323888835278E+00
 0.1168640535237E+01
 0.1170436838785E+01
 0.1168358185123E+01
 0.1163436508890E+01
 0.1154458681994E+01
 0.1140839640484E+01
 0.1121993995400E+01
 0.1097313128864E+01
 0.1066132472947E+01
 0.1027728734934E+01
 0.9813215333065E+00
 0.9260820661105E+00
 0.8611535615986E+00
 0.7856948302560E+00
 0.6989678404255E+00
 0.6005078419326E+00
 0.4904522945406E+00
 0.3701889384826E+00
 0.2439943801013E+00
 0.1285062924401E+00
</DataArray>
<DataArray type="Float64" Name="CK" NumberOfComponents="1" ComponentName0="CK" format="ascii">
 0.0000000000000E+00
 0.0000000000000E+00
 0.0000000000000E+00
 0.0000000000000E+00
 0.0000000000000E+00
 0.0000000000000E+00
 0.0000000000000E+00
 0.0000000000000E+00
 0.0000000000000E+00
 0.0000000000000E+00
 0.0000000000000E+00
 0.0000000000000E+00
 0.0000000000000E+00
 0.0000000000000E+00
 0.0000000000000E+00
 0.0000000000000E+00
 0.0000000000000E+00
 0.0000000000000E+00
 0.0000000000000E+00
 0.0000000000000E+00
 0.0000000000000E+00
 0.0000000000000E+00
 0.0000000000000E+00
 0.0000000000000E+00
 0.0000000000000E+00
 0.0000000000000E+00
 0.0000000000000E+00
 0.0000000000000E+00
 0.0000000000000E+00
 0.0000000000000E+00
 0.0000000000000E+00
 0.0000000000000E+00
 0.0000000000000E+00
 0.0000000000000E+00
 0.0000000000000E+00
 0.0000000000000E+00
 0.0000000000000E+00
 0.0000000000000E+00
 0.0000000000000E+00
 0.0000000000000E+00
 0.0000000000000E+00
 0.0000000000000E+00
 0.0000000000000E+00
 0.0000000000000E+00
 0.0000000000000E+00
 0.0000000000000E+00
 0.0000000000000E+00
 0.0000000000000E+00
 0.0000000000000E+00
 0.0000000000000E+00
 0.0000000000000E+00
 0.0000000000000E+00
 0.0000000000000E+00
 0.0000000000000E+00
 0.0000000000000E+00
 0.0000000000000E+00
 0.0000000000000E+00
 0.0000000000000E+00
 0.0000000000000E+00
 0.0000000000000E+00
 0.0000000000000E+00
 0.0000000000000E+00
 0.0000000000000E+00
 0.0000000000000E+00
 0.0000000000000E+00
 0.0000000000000E+00
 0.0000000000000E+00
 0.0000000000000E+00
 0.0000000000000E+00
 0.0000000000000E+00
 0.0000000000000E+00
 0.0000000000000E+00
 0.0000000000000E+00
 0.0000000000000E+00
 0.0000000000000E+00
 0.0000000000000E+00
 0.0000000000000E+00
 0.0000000000000E+00
 0.0000000000000E+00
 0.0000000000000E+00
 0.0000000000000E+00
 0.0000000000000E+00
 0.0000000000000E+00
 0.0000000000000E+00
 0.0000000000000E+00
 0.0000000000000E+00
 0.0000000000000E+00
 0.0000000000000E+00
 0.0000000000000E+00
 0.0000000000000E+00
 0.0000000000000E+00
 0.0000000000000E+00
 0.0000000000000E+00
 0.0000000000000E+00
 0.0000000000000E+00
 0.0000000000000E+00
 0.0000000000000E+00
 0.0000000000000E+00
 0.0000000000000E+00
 0.0000000000000E+00
 0.0000000000000E+00
 0.0000000000000E+00
 0.0000000000000E+00
 0.0000000000000E+00
 0.0000000000000E+00
 0.0000000000000E+00
 0.0000000000000E+00
 0.0000000000000E+00
 0.0000000000000E+00
 0.0000000000000E+00
 0.0000000000000E+00
 0.0000000000000E+00
 0.0000000000000E+00
 0.0000000000000E+00
 0.0000000000000E+00
 0.0000000000000E+00
 0.0000000000000E+00
 0.0000000000000E+00
 0.0000000000000E+00
 0.0000000000000E+00
 0.0000000000000E+00
 0.0000000000000E+00
 0.0000000000000E+00
 0.0000000000000E+00
 0.0000000000000E+00
 0.0000000000000E+00
 0.0000000000000E+00
 0.0000000000000E+00
 0.0000000000000E+00
 0.0000000000000E+00
 0.0000000000000E+00
 0.0000000000000E+00
 0.0000000000000E+00
 0.0000000000000E+00
 0.0000000000000E+00
 0.0000000000000E+00
 0.0000000000000E+00
 0.0000000000000E+00
 0.0000000000000E+00
 0.0000000000000E+00
 0.0000000000000E+00
 0.0000000000000E+00
 0.0000000000000E+00
 0.0000000000000E+00
 0.0000000000000E+00
 0.0000000000000E+00
 0.0000000000000E+00
 0.0000000000000E+00
 0.0000000000000E+00
 0.0000000000000E+00
 0.0000000000000E+00
 0.0000000000000E+00
 0.0000000000000E+00
 0.0000000000000E+00
 0.0000000000000E+00
 0.0000000000000E+00
 0.0000000000000E+00
 0.0000000000000E+00
 0.0000000000000E+00
 0.0000000000000E+00
 0.0000000000000E+00
 0.0000000000000E+00
 0.0000000000000E+00
 0.0000000000000E+00
 0.0000000000000E+00
 0.0000000000000E+00
 0.0000000000000E+00
 0.0000000000000E+00
 0.0000000000000E+00
 0.0000000000000E+00
 0.0000000000000E+00
 0.0000000000000E+00
 0.0000000000000E+00
 0.0000000000000E+00
 0.0000000000000E+00
 0.0000000000000E+00
 0.0000000000000E+00
 0.0000000000000E+00
 0.0000000000000E+00
 0.0000000000000E+00
 0.0000000000000E+00
 0.0000000000000E+00
 0.0000000000000E+00
 0.0000000000000E+00
 0.0000000000000E+00
 0.0000000000000E+00
 0.0000000000000E+00
 0.0000000000000E+00
 0.0000000000000E+00
 0.0000000000000E+00
 0.0000000000000E+00
 0.0000000000000E+00
 0.0000000000000E+00
 0.0000000000000E+00
 0.0000000000000E+00
 0.0000000000000E+00
 0.0000000000000E+00
 0.0000000000000E+00
 0.0000000000000E+00
 0.0000000000000E+00
 0.0000000000000E+00
 0.0000000000000E+00
 0.0000000000000E+00
 0.0000000000000E+00
 0.0000000000000E+00
 0.0000000000000E+00
 0.0000000000000E+00
 0.0000000000000E+00
 0.0000000000000E+00
 0.0000000000000E+00
 0.0000000000000E+00
 0.0000000000000E+00
 0.0000000000000E+00
 0.0000000000000E+00
 0.0000000000000E+00
 0.0000000000000E+00
 0.0000000000000E+00
 0.0000000000000E+00
 0.0000000000000E+00
 0.0000000000000E+00
 0.0000000000000E+00
 0.0000000000000E+00
 0.0000000000000E+00
 0.0000000000000E+00
 0.0000000000000E+00
 0.0000000000000E+00
 0.0000000000000E+00
 0.0000000000000E+00
 0.0000000000000E+00
 0.0000000000000E+00
 0.0000000000000E+00
 0.0000000000000E+00
 0.0000000000000E+00
 0.0000000000000E+00
 0.0000000000000E+00
 0.0000000000000E+00
 0.0000000000000E+00
 0.0000000000000E+00
 0.0000000000000E+00
 0.0000000000000E+00
 0.0000000000000E+00
 0.0000000000000E+00
 0.0000000000000E+00
 0.0000000000000E+00
 0.0000000000000E+00
 0.0000000000000E+00
 0.0000000000000E+00
 0.0000000000000E+00
 0.0000000000000E+00
 0.0000000000000E+00
 0.0000000000000E+00
 0.0000000000000E+00
 0.0000000000000E+00
 0.0000000000000E+00
 0.0000000000000E+00
 0.0000000000000E+00
 0.0000000000000E+00
 0.0000000000000E+00
 0.0000000000000E+00
 0.0000000000000E+00
 0.0000000000000E+00
 0.0000000000000E+00
 0.0000000000000E+00
 0.0000000000000E+00
 0.0000000000000E+00
 0.0000000000000E+00
 0.0000000000000E+00
 0.0000000000000E+00
 0.0000000000000E+00
 0.0000000000000E+00
 0.0000000000000E+00
 0.0000000000000E+00
 0.0000000000000E+00
 0.0000000000000E+00
 0.0000000000000E+00
 0.0000000000000E+00
 0.0000000000000E+00
 0.0000000000000E+00
 0.0000000000000E+00
 0.0000000000000E+00
 0.0000000000000E+00
 0.0000000000000E+00
 0.0000000000000E+00
 0.0000000000000E+00
 0.0000000000000E+00
 0.0000000000000E+00
 0.0000000000000E+00
 0.0000000000000E+00
 0.0000000000000E+00
 0.0000000000000E+00
 0.0000000000000E+00
 0.0000000000000E+00
 0.0000000000000E+00
 0.0000000000000E+00
 0.0000000000000E+00
 0.0000000000000E+00
 0.0000000000000E+00
 0.0000000000000E+00
 0.0000000000000E+00
 0.0000000000000E+00
 0.0000000000000E+00
 0.0000000000000E+00
 0.0000000000000E+00
 0.0000000000000E+00
 0.0000000000000E+00
 0.0000000000000E+00
 0.0000000000000E+00
 0.0000000000000E+00
 0.0000000000000E+00
 0.0000000000000E+00
 0.0000000000000E+00
 0.0000000000000E+00
 0.0000000000000E+00
 0.0000000000000E+00
 0.0000000000000E+00
 0.0000000000000E+00
 0.0000000000000E+00
 0.0000000000000E+00
 0.0000000000000E+00
 0.0000000000000E+00
 0.0000000000000E+00
 0.0000000000000E+00
 0.0000000000000E+00
 0.0000000000000E+00
 0.0000000000000E+00
 0.0000000000000E+00
 0.0000000000000E+00
 0.0000000000000E+00
 0.0000000000000E+00
 0.0000000000000E+00
 0.0000000000000E+00
 0.0000000000000E+00
 0.0000000000000E+00
 0.0000000000000E+00
 0.0000000000000E+00
 0.0000000000000E+00
 0.0000000000000E+00
 0.0000000000000E+00
 0.0000000000000E+00
 0.0000000000000E+00
 0.0000000000000E+00
 0.0000000000000E+00
 0.0000000000000E+00
 0.0000000000000E+00
 0.0000000000000E+00
 0.0000000000000E+00
 0.0000000000000E+00
 0.0000000000000E+00
 0.0000000000000E+00
 0.0000000000000E+00
 0.0000000000000E+00
 0.0000000000000E+00
 0.0000000000000E+00
 0.0000000000000E+00
 0.0000000000000E+00
 0.0000000000000E+00
 0.0000000000000E+00
 0.0000000000000E+00
 0.0000000000000E+00
 0.0000000000000E+00
 0.0000000000000E+00
 0.0000000000000E+00
 0.0000000000000E+00
 0.0000000000000E+00
 0.0000000000000E+00
 0.0000000000000E+00
 0.0000000000000E+00
 0.0000000000000E+00
 0.0000000000000E+00
 0.0000000000000E+00
 0.0000000000000E+00
 0.0000000000000E+00
 0.0000000000000E+00
 0.0000000000000E+00
 0.0000000000000E+00
 0.0000000000000E+00
 0.0000000000000E+00
 0.0000000000000E+00
 0.0000000000000E+00
 0.0000000000000E+00
 0.0000000000000E+00
 0.0000000000000E+00
 0.0000000000000E+00
 0.0000000000000E+00
 0.0000000000000E+00
 0.0000000000000E+00
 0.0000000000000E+00
 0.0000000000000E+00
 0.0000000000000E+00
 0.0000000000000E+00
 0.0000000000000E+00
 0.0000000000000E+00
 0.0000000000000E+00
 0.0000000000000E+00
 0.0000000000000E+00
 0.0000000000000E+00
 0.0000000000000E+00
 0.0000000000000E+00
 0.0000000000000E+00
 0.0000000000000E+00
 0.0000000000000E+00
 0.0000000000000E+00
 0.0000000000000E+00
 0.0000000000000E+00
 0.0000000000000E+00
 0.0000000000000E+00
 0.0000000000000E+00
 0.0000000000000E+00
 0.0000000000000E+00
 0.0000000000000E+00
 0.0000000000000E+00
 0.0000000000000E+00
 0.0000000000000E+00
 0.0000000000000E+00
 0.0000000000000E+00
 0.0000000000000E+00
 0.0000000000000E+00
 0.0000000000000E+00
 0.0000000000000E+00
 0.0000000000000E+00
 0.0000000000000E+00
 0.0000000000000E+00
 0.0000000000000E+00
 0.0000000000000E+00
 0.0000000000000E+00
 0.0000000000000E+00
 0.0000000000000E+00
 0.0000000000000E+00
 0.0000000000000E+00
 0.0000000000000E+00
 0.0000000000000E+00
 0.0000000000000E+00
 0.0000000000000E+00
 0.0000000000000E+00
 0.0000000000000E+00
 0.0000000000000E+00
 0.0000000000000E+00
 0.0000000000000E+00
 0.0000000000000E+00
 0.0000000000000E+00
 0.0000000000000E+00
 0.0000000000000E+00
 0.0000000000000E+00
 0.0000000000000E+00
 0.0000000000000E+00
 0.0000000000000E+00
 0.0000000000000E+00
 0.0000000000000E+00
 0.0000000000000E+00
 0.0000000000000E+00
 0.0000000000000E+00
 0.0000000000000E+00
 0.0000000000000E+00
 0.0000000000000E+00
 0.0000000000000E+00
 0.0000000000000E+00
 0.0000000000000E+00
 0.0000000000000E+00
 0.0000000000000E+00
 0.0000000000000E+00
 0.0000000000000E+00
 0.0000000000000E+00
 0.0000000000000E+00
 0.0000000000000E+00
 0.0000000000000E+00
 0.0000000000000E+00
 0.0000000000000E+00
 0.0000000000000E+00
 0.0000000000000E+00
 0.0000000000000E+00
 0.0000000000000E+00
 0.0000000000000E+00
 0.0000000000000E+00
 0.0000000000000E+00
 0.0000000000000E+00
 0.0000000000000E+00
 0.0000000000000E+00
 0.0000000000000E+00
 0.0000000000000E+00
 0.0000000000000E+00
 0.0000000000000E+00
 0.0000000000000E+00
 0.0000000000000E+00
 0.0000000000000E+00
 0.0000000000000E+00
 0.0000000000000E+00
 0.0000000000000E+00
 0.0000000000000E+00
 0.0000000000000E+00
 0.0000000000000E+00
 0.0000000000000E+00
 0.0000000000000E+00
 0.0000000000000E+00
 0.0000000000000E+00
 0.0000000000000E+00
 0.0000000000000E+00
 0.0000000000000E+00
 0.0000000000000E+00
 0.0000000000000E+00
 0.0000000000000E+00
 0.0000000000000E+00
 0.0000000000000E+00
 0.0000000000000E+00
 0.0000000000000E+00
 0.0000000000000E+00
 0.0000000000000E+00
 0.0000000000000E+00
 0.0000000000000E+00
 0.0000000000000E+00
 0.0000000000000E+00
 0.0000000000000E+00
 0.0000000000000E+00
 0.0000000000000E+00
 0.0000000000000E+00
 0.0000000000000E+00
 0.0000000000000E+00
 0.0000000000000E+00
 0.0000000000000E+00
 0.0000000000000E+00
 0.0000000000000E+00
 0.0000000000000E+00
 0.0000000000000E+00
 0.0000000000000E+00
 0.0000000000000E+00
 0.0000000000000E+00
 0.0000000000000E+00
 0.0000000000000E+00
 0.0000000000000E+00
 0.0000000000000E+00
 0.0000000000000E+00
 0.0000000000000E+00
 0.0000000000000E+00
 0.0000000000000E+00
 0.0000000000000E+00
 0.0000000000000E+00
 0.0000000000000E+00
 0.0000000000000E+00
 0.0000000000000E+00
 0.0000000000000E+00
 0.0000000000000E+00
 0.0000000000000E+00
 0.0000000000000E+00
 0.0000000000000E+00
 0.0000000000000E+00
 0.0000000000000E+00
 0.0000000000000E+00
 0.0000000000000E+00
 0.0000000000000E+00
 0.0000000000000E+00
 0.0000000000000E+00
 0.0000000000000E+00
 0.0000000000000E+00
 0.0000000000000E+00
 0.0000000000000E+00
 0.0000000000000E+00
 0.0000000000000E+00
 0.0000000000000E+00
 0.0000000000000E+00
 0.0000000000000E+00
 0.0000000000000E+00
 0.0000000000000E+00
 0.0000000000000E+00
 0.0000000000000E+00
 0.0000000000000E+00
 0.0000000000000E+00
 0.0000000000000E+00
 0.0000000000000E+00
 0.0000000000000E+00
 0.0000000000000E+00
 0.0000000000000E+00
 0.0000000000000E+00
 0.0000000000000E+00
 0.0000000000000E+00
 0.0000000000000E+00
 0.0000000000000E+00
 0.0000000000000E+00
 0.0000000000000E+00
 0.0000000000000E+00
 0.0000000000000E+00
 0.0000000000000E+00
 0.0000000000000E+00
 0.0000000000000E+00
 0.0000000000000E+00
 0.0000000000000E+00
 0.0000000000000E+00
 0.0000000000000E+00
 0.0000000000000E+00
 0.0000000000000E+00
 0.0000000000000E+00
 0.0000000000000E+00
 0.0000000000000E+00
 0.0000000000000E+00
 0.0000000000000E+00
 0.0000000000000E+00
 0.0000000000000E+00
 0.0000000000000E+00
 0.0000000000000E+00
 0.0000000000000E+00
 0.0000000000000E+00
 0.0000000000000E+00
 0.0000000000000E+00
 0.0000000000000E+00
 0.0000000000000E+00
 0.0000000000000E+00
 0.0000000000000E+00
 0.0000000000000E+00
 0.0000000000000E+00
 0.0000000000000E+00
 0.0000000000000E+00
 0.0000000000000E+00
 0.0000000000000E+00
 0.0000000000000E+00
 0.0000000000000E+00
 0.0000000000000E+00
 0.0000000000000E+00
 0.0000000000000E+00
 0.0000000000000E+00
 0.0000000000000E+00
 0.0000000000000E+00
 0.0000000000000E+00
 0.0000000000000E+00
 0.0000000000000E+00
 0.0000000000000E+00
 0.0000000000000E+00
 0.0000000000000E+00
 0.0000000000000E+00
 0.0000000000000E+00
 0.0000000000000E+00
 0.0000000000000E+00
 0.0000000000000E+00
 0.0000000000000E+00
 0.0000000000000E+00
 0.0000000000000E+00
 0.0000000000000E+00
 0.0000000000000E+00
 0.0000000000000E+00
 0.0000000000000E+00
 0.0000000000000E+00
 0.0000000000000E+00
 0.0000000000000E+00
 0.0000000000000E+00
 0.0000000000000E+00
 0.0000000000000E+00
 0.0000000000000E+00
 0.0000000000000E+00
 0.0000000000000E+00
 0.0000000000000E+00
 0.0000000000000E+00
 0.0000000000000E+00
 0.0000000000000E+00
 0.0000000000000E+00
 0.0000000000000E+00
 0.0000000000000E+00
 0.0000000000000E+00
 0.0000000000000E+00
 0.0000000000000E+00
 0.0000000000000E+00
 0.0000000000000E+00
 0.0000000000000E+00
 0.0000000000000E+00
 0.0000000000000E+00
 0.0000000000000E+00
 0.0000000000000E+00
 0.0000000000000E+00
 0.0000000000000E+00
 0.0000000000000E+00
 0.0000000000000E+00
 0.0000000000000E+00
 0.0000000000000E+00
 0.0000000000000E+00
 0.0000000000000E+00
 0.0000000000000E+00
 0.0000000000000E+00
 0.0000000000000E+00
 0.0000000000000E+00
 0.0000000000000E+00
 0.0000000000000E+00
 0.0000000000000E+00
 0.0000000000000E+00
 0.0000000000000E+00
 0.0000000000000E+00
 0.0000000000000E+00
 0.0000000000000E+00
 0.0000000000000E+00
 0.0000000000000E+00
 0.0000000000000E+00
 0.0000000000000E+00
 0.0000000000000E+00
 0.0000000000000E+00
 0.0000000000000E+00
 0.0000000000000E+00
 0.0000000000000E+00
 0.0000000000000E+00
 0.0000000000000E+00
 0.0000000000000E+00
 0.0000000000000E+00
 0.0000000000000E+00
 0.0000000000000E+00
 0.0000000000000E+00
 0.0000000000000E+00
 0.0000000000000E+00
 0.0000000000000E+00
 0.0000000000000E+00
 0.0000000000000E+00
 0.0000000000000E+00
 0.0000000000000E+00
 0.0000000000000E+00
 0.0000000000000E+00
 0.0000000000000E+00
 0.0000000000000E+00
 0.0000000000000E+00
 0.0000000000000E+00
 0.0000000000000E+00
 0.0000000000000E+00
 0.0000000000000E+00
 0.0000000000000E+00
 0.0000000000000E+00
 0.0000000000000E+00
 0.0000000000000E+00
 0.0000000000000E+00
 0.0000000000000E+00
 0.0000000000000E+00
 0.0000000000000E+00
 0.0000000000000E+00
 0.0000000000000E+00
 0.0000000000000E+00
 0.0000000000000E+00
 0.0000000000000E+00
 0.0000000000000E+00
 0.0000000000000E+00
 0.0000000000000E+00
 0.0000000000000E+00
 0.0000000000000E+00
 0.0000000000000E+00
 0.0000000000000E+00
 0.0000000000000E+00
 0.0000000000000E+00
 0.0000000000000E+00
 0.0000000000000E+00
 0.0000000000000E+00
 0.0000000000000E+00
 0.0000000000000E+00
 0.0000000000000E+00
 0.0000000000000E+00
 0.0000000000000E+00
 0.0000000000000E+00
 0.0000000000000E+00
 0.0000000000000E+00
 0.0000000000000E+00
 0.0000000000000E+00
 0.0000000000000E+00
 0.0000000000000E+00
 0.0000000000000E+00
 0.0000000000000E+00
 0.0000000000000E+00
 0.0000000000000E+00
 0.0000000000000E+00
 0.0000000000000E+00
 0.0000000000000E+00
 0.0000000000000E+00
 0.0000000000000E+00
 0.0000000000000E+00
 0.0000000000000E+00
 0.0000000000000E+00
 0.0000000000000E+00
 0.0000000000000E+00
 0.0000000000000E+00
 0.0000000000000E+00
 0.0000000000000E+00
 0.0000000000000E+00
 0.0000000000000E+00
 0.0000000000000E+00
 0.0000000000000E+00
 0.0000000000000E+00
 0.0000000000000E+00
 0.0000000000000E+00
 0.0000000000000E+00
 0.0000000000000E+00
 0.0000000000000E+00
 0.0000000000000E+00
 0.0000000000000E+00
 0.0000000000000E+00
 0.0000000000000E+00
 0.0000000000000E+00
 0.0000000000000E+00
 0.0000000000000E+00
 0.0000000000000E+00
 0.0000000000000E+00
 0.0000000000000E+00
 0.0000000000000E+00
 0.0000000000000E+00
 0.0000000000000E+00
 0.0000000000000E+00
 0.0000000000000E+00
 0.0000000000000E+00
 0.0000000000000E+00
 0.0000000000000E+00
 0.0000000000000E+00
 0.0000000000000E+00
 0.0000000000000E+00
 0.0000000000000E+00
 0.0000000000000E+00
 0.0000000000000E+00
 0.0000000000000E+00
 0.0000000000000E+00
 0.0000000000000E+00
 0.0000000000000E+00
 0.0000000000000E+00
 0.0000000000000E+00
 0.0000000000000E+00
 0.0000000000000E+00
 0.0000000000000E+00
 0.0000000000000E+00
 0.0000000000000E+00
 0.0000000000000E+00
 0.0000000000000E+00
 0.0000000000000E+00
 0.0000000000000E+00
 0.0000000000000E+00
 0.0000000000000E+00
 0.0000000000000E+00
 0.0000000000000E+00
 0.0000000000000E+00
 0.0000000000000E+00
 0.0000000000000E+00
 0.0000000000000E+00
 0.0000000000000E+00
 0.0000000000000E+00
 0.0000000000000E+00
 0.0000000000000E+00
 0.0000000000000E+00
 0.0000000000000E+00
 0.0000000000000E+00
 0.0000000000000E+00
 0.0000000000000E+00
 0.0000000000000E+00
 0.0000000000000E+00
 0.0000000000000E+00
 0.0000000000000E+00
 0.0000000000000E+00
 0.0000000000000E+00
 0.0000000000000E+00
 0.0000000000000E+00
 0.0000000000000E+00
 0.0000000000000E+00
 0.0000000000000E+00
 0.0000000000000E+00
 0.0000000000000E+00
 0.0000000000000E+00
 0.0000000000000E+00
 0.0000000000000E+00
 0.0000000000000E+00
 0.0000000000000E+00
 0.0000000000000E+00
 0.0000000000000E+00
 0.0000000000000E+00
 0.0000000000000E+00
 0.0000000000000E+00
 0.0000000000000E+00
 0.0000000000000E+00
 0.0000000000000E+00
 0.0000000000000E+00
 0.0000000000000E+00
 0.0000000000000E+00
 0.0000000000000E+00
 0.0000000000000E+00
 0.0000000000000E+00
 0.0000000000000E+00
 0.0000000000000E+00
 0.0000000000000E+00
 0.0000000000000E+00
 0.0000000000000E+00
 0.0000000000000E+00
 0.0000000000000E+00
 0.0000000000000E+00
 0.0000000000000E+00
 0.0000000000000E+00
 0.0000000000000E+00
 0.0000000000000E+00
 0.0000000000000E+00
 0.0000000000000E+00
 0.0000000000000E+00
 0.0000000000000E+00
 0.0000000000000E+00
 0.0000000000000E+00
 0.0000000000000E+00
 0.0000000000000E+00
 0.0000000000000E+00
 0.0000000000000E+00
 0.0000000000000E+00
 0.0000000000000E+00
 0.0000000000000E+00
 0.0000000000000E+00
 0.0000000000000E+00
 0.0000000000000E+00
 0.0000000000000E+00
 0.0000000000000E+00
 0.0000000000000E+00
 0.0000000000000E+00
 0.0000000000000E+00
 0.0000000000000E+00
 0.0000000000000E+00
 0.0000000000000E+00
 0.0000000000000E+00
 0.0000000000000E+00
 0.0000000000000E+00
 0.0000000000000E+00
 0.0000000000000E+00
 0.0000000000000E+00
 0.0000000000000E+00
 0.0000000000000E+00
 0.0000000000000E+00
 0.0000000000000E+00
 0.0000000000000E+00
 0.0000000000000E+00
 0.0000000000000E+00
 0.0000000000000E+00
 0.0000000000000E+00
 0.0000000000000E+00
 0.0000000000000E+00
 0.0000000000000E+00
 0.0000000000000E+00
 0.0000000000000E+00
 0.0000000000000E+00
 0.0000000000000E+00
 0.0000000000000E+00
 0.0000000000000E+00
 0.0000000000000E+00
 0.0000000000000E+00
 0.0000000000000E+00
 0.0000000000000E+00
 0.0000000000000E+00
 0.0000000000000E+00
 0.0000000000000E+00
 0.0000000000000E+00
 0.0000000000000E+00
 0.0000000000000E+00
 0.0000000000000E+00
 0.0000000000000E+00
 0.0000000000000E+00
 0.0000000000000E+00
 0.0000000000000E+00
 0.0000000000000E+00
 0.0000000000000E+00
 0.0000000000000E+00
 0.0000000000000E+00
 0.0000000000000E+00
 0.0000000000000E+00
 0.0000000000000E+00
 0.0000000000000E+00
 0.0000000000000E+00
 0.0000000000000E+00
 0.0000000000000E+00
 0.0000000000000E+00
 0.0000000000000E+00
 0.0000000000000E+00
 0.0000000000000E+00
 0.0000000000000E+00
 0.0000000000000E+00
 0.0000000000000E+00
 0.0000000000000E+00
 0.0000000000000E+00
 0.0000000000000E+00
 0.0000000000000E+00
 0.0000000000000E+00
 0.0000000000000E+00
 0.0000000000000E+00
 0.0000000000000E+00
 0.0000000000000E+00
 0.0000000000000E+00
 0.0000000000000E+00
 0.0000000000000E+00
 0.0000000000000E+00
 0.0000000000000E+00
 0.0000000000000E+00
 0.0000000000000E+00
 0.0000000000000E+00
 0.0000000000000E+00
 0.0000000000000E+00
 0.0000000000000E+00
 0.0000000000000E+00
 0.0000000000000E+00
 0.0000000000000E+00
 0.0000000000000E+00
 0.0000000000000E+00
 0.0000000000000E+00
 0.0000000000000E+00
 0.0000000000000E+00
 0.0000000000000E+00
 0.0000000000000E+00
 0.0000000000000E+00
 0.0000000000000E+00
 0.0000000000000E+00
 0.0000000000000E+00
 0.0000000000000E+00
 0.0000000000000E+00
 0.0000000000000E+00
 0.0000000000000E+00
 0.0000000000000E+00
 0.0000000000000E+00
 0.0000000000000E+00
 0.0000000000000E+00
 0.0000000000000E+00
 0.0000000000000E+00
 0.0000000000000E+00
 0.0000000000000E+00
 0.0000000000000E+00
 0.0000000000000E+00
 0.0000000000000E+00
 0.0000000000000E+00
 0.0000000000000E+00
 0.0000000000000E+00
 0.0000000000000E+00
 0.0000000000000E+00
 0.0000000000000E+00
 0.0000000000000E+00
 0.0000000000000E+00
 0.0000000000000E+00
 0.0000000000000E+00
 0.0000000000000E+00
 0.0000000000000E+00
 0.0000000000000E+00
 0.0000000000000E+00
 0.0000000000000E+00
 0.0000000000000E+00
 0.0000000000000E+00
 0.0000000000000E+00
 0.0000000000000E+00
 0.0000000000000E+00
 0.0000000000000E+00
 0.0000000000000E+00
 0.0000000000000E+00
 0.0000000000000E+00
 0.0000000000000E+00
 0.0000000000000E+00
 0.0000000000000E+00
 0.0000000000000E+00
 0.0000000000000E+00
 0.0000000000000E+00
 0.0000000000000E+00
 0.0000000000000E+00
 0.0000000000000E+00
 0.0000000000000E+00
 0.0000000000000E+00
 0.0000000000000E+00
 0.0000000000000E+00
 0.0000000000000E+00
 0.0000000000000E+00
 0.0000000000000E+00
 0.0000000000000E+00
 0.0000000000000E+00
 0.0000000000000E+00
 0.0000000000000E+00
 0.0000000000000E+00
 0.0000000000000E+00
 0.0000000000000E+00
 0.0000000000000E+00
 0.0000000000000E+00
 0.0000000000000E+00
 0.0000000000000E+00
 0.0000000000000E+00
 0.0000000000000E+00
 0.0000000000000E+00
 0.0000000000000E+00
 0.0000000000000E+00
 0.0000000000000E+00
 0.0000000000000E+00
 0.0000000000000E+00
 0.0000000000000E+00
 0.0000000000000E+00
 0.0000000000000E+00
 0.0000000000000E+00
 0.0000000000000E+00
 0.0000000000000E+00
 0.0000000000000E+00
 0.0000000000000E+00
 0.0000000000000E+00
 0.0000000000000E+00
 0.0000000000000E+00
 0.0000000000000E+00
 0.0000000000000E+00
 0.0000000000000E+00
 0.0000000000000E+00
 0.0000000000000E+00
 0.0000000000000E+00
 0.0000000000000E+00
 0.0000000000000E+00
 0.0000000000000E+00
 0.0000000000000E+00
 0.0000000000000E+00
 0.0000000000000E+00
 0.0000000000000E+00
 0.0000000000000E+00
 0.0000000000000E+00
 0.0000000000000E+00
 0.0000000000000E+00
 0.0000000000000E+00
 0.0000000000000E+00
 0.0000000000000E+00
 0.0000000000000E+00
 0.0000000000000E+00
 0.0000000000000E+00
 0.0000000000000E+00
 0.0000000000000E+00
 0.0000000000000E+00
 0.0000000000000E+00
 0.0000000000000E+00
 0.0000000000000E+00
 0.0000000000000E+00
 0.0000000000000E+00
 0.0000000000000E+00
 0.0000000000000E+00
 0.0000000000000E+00
 0.0000000000000E+00
 0.0000000000000E+00
 0.0000000000000E+00
 0.0000000000000E+00
 0.0000000000000E+00
 0.0000000000000E+00
 0.0000000000000E+00
 0.0000000000000E+00
 0.0000000000000E+00
 0.0000000000000E+00
 0.0000000000000E+00
 0.0000000000000E+00
 0.0000000000000E+00
 0.0000000000000E+00
 0.0000000000000E+00
 0.0000000000000E+00
 0.0000000000000E+00
 0.0000000000000E+00
 0.0000000000000E+00
 0.0000000000000E+00
 0.0000000000000E+00
 0.0000000000000E+00
 0.0000000000000E+00
 0.0000000000000E+00
 0.0000000000000E+00
 0.0000000000000E+00
 0.0000000000000E+00
 0.0000000000000E+00
 0.0000000000000E+00
 0.0000000000000E+00
 0.0000000000000E+00
 0.0000000000000E+00
 0.0000000000000E+00
 0.0000000000000E+00
 0.0000000000000E+00
 0.0000000000000E+00
 0.0000000000000E+00
 0.0000000000000E+00
 0.0000000000000E+00
 0.0000000000000E+00
 0.0000000000000E+00
 0.0000000000000E+00
 0.0000000000000E+00
 0.0000000000000E+00
 0.0000000000000E+00
 0.0000000000000E+00
 0.0000000000000E+00
 0.0000000000000E+00
 0.0000000000000E+00
 0.0000000000000E+00
 0.0000000000000E+00
 0.0000000000000E+00
 0.0000000000000E+00
 0.0000000000000E+00
 0.0000000000000E+00
 0.0000000000000E+00
 0.0000000000000E+00
 0.0000000000000E+00
 0.0000000000000E+00
 0.0000000000000E+00
 0.0000000000000E+00
 0.0000000000000E+00
 0.0000000000000E+00
 0.0000000000000E+00
 0.0000000000000E+00
 0.0000000000000E+00
 0.0000000000000E+00
 0.0000000000000E+00
 0.0000000000000E+00
 0.0000000000000E+00
 0.0000000000000E+00
 0.0000000000000E+00
 0.0000000000000E+00
 0.0000000000000E+00
 0.0000000000000E+00
 0.0000000000000E+00
 0.0000000000000E+00
 0.0000000000000E+00
 0.0000000000000E+00
 0.0000000000000E+00
 0.0000000000000E+00
 0.0000000000000E+00
 0.0000000000000E+00
 0.0000000000000E+00
 0.0000000000000E+00
 0.0000000000000E+00
 0.0000000000000E+00
 0.0000000000000E+00
 0.0000000000000E+00
 0.0000000000000E+00
 0.0000000000000E+00
 0.0000000000000E+00
 0.0000000000000E+00
 0.0000000000000E+00
 0.0000000000000E+00
 0.0000000000000E+00
 0.0000000000000E+00
 0.0000000000000E+00
 0.0000000000000E+00
 0.0000000000000E+00
 0.0000000000000E+00
 0.0000000000000E+00
 0.0000000000000E+00
 0.0000000000000E+00
 0.0000000000000E+00
 0.0000000000000E+00
 0.0000000000000E+00
 0.0000000000000E+00
 0.0000000000000E+00
 0.0000000000000E+00
 0.0000000000000E+00
 0.0000000000000E+00
 0.0000000000000E+00
 0.0000000000000E+00
 0.0000000000000E+00
 0.0000000000000E+00
 0.0000000000000E+00
 0.0000000000000E+00
 0.0000000000000E+00
 0.0000000000000E+00
 0.0000000000000E+00
 0.0000000000000E+00
 0.0000000000000E+00
 0.0000000000000E+00
 0.0000000000000E+00
 0.0000000000000E+00
 0.0000000000000E+00
 0.0000000000000E+00
 0.0000000000000E+00
 0.0000000000000E+00
 0.0000000000000E+00
 0.0000000000000E+00
 0.0000000000000E+00
 0.0000000000000E+00
 0.0000000000000E+00
 0.0000000000000E+00
 0.0000000000000E+00
 0.0000000000000E+00
 0.0000000000000E+00
 0.0000000000000E+00
 0.0000000000000E+00
 0.0000000000000E+00
 0.0000000000000E+00
 0.0000000000000E+00
 0.0000000000000E+00
 0.0000000000000E+00
 0.0000000000000E+00
 0.0000000000000E+00
 0.0000000000000E+00
 0.0000000000000E+00
 0.0000000000000E+00
 0.0000000000000E+00
 0.0000000000000E+00
 0.0000000000000E+00
 0.0000000000000E+00
 0.0000000000000E+00
 0.0000000000000E+00
 0.0000000000000E+00
 0.0000000000000E+00
 0.0000000000000E+00
 0.0000000000000E+00
 0.0000000000000E+00
 0.0000000000000E+00
 0.0000000000000E+00
 0.0000000000000E+00
 0.0000000000000E+00
 0.0000000000000E+00
 0.0000000000000E+00
 0.0000000000000E+00
 0.0000000000000E+00
 0.0000000000000E+00
 0.0000000000000E+00
 0.0000000000000E+00
 0.0000000000000E+00
 0.0000000000000E+00
 0.0000000000000E+00
 0.0000000000000E+00
 0.0000000000000E+00
 0.0000000000000E+00
 0.0000000000000E+00
 0.0000000000000E+00
 0.0000000000000E+00
 0.0000000000000E+00
 0.0000000000000E+00
 0.0000000000000E+00
 0.0000000000000E+00
 0.0000000000000E+00
 0.0000000000000E+00
 0.0000000000000E+00
 0.0000000000000E+00
 0.0000000000000E+00
 0.0000000000000E+00
 0.0000000000000E+00
 0.0000000000000E+00
 0.0000000000000E+00
 0.0000000000000E+00
 0.0000000000000E+00
 0.0000000000000E+00
 0.0000000000000E+00
 0.0000000000000E+00
 0.0000000000000E+00
 0.0000000000000E+00
 0.0000000000000E+00
 0.0000000000000E+00
 0.0000000000000E+00
 0.0000000000000E+00
 0.0000000000000E+00
 0.0000000000000E+00
 0.0000000000000E+00
 0.0000000000000E+00
 0.0000000000000E+00
 0.0000000000000E+00
 0.0000000000000E+00
 0.0000000000000E+00
 0.0000000000000E+00
 0.0000000000000E+00
 0.0000000000000E+00
 0.0000000000000E+00
 0.0000000000000E+00
 0.0000000000000E+00
 0.0000000000000E+00
 0.0000000000000E+00
 0.0000000000000E+00
 0.0000000000000E+00
 0.0000000000000E+00
 0.0000000000000E+00
 0.0000000000000E+00
 0.0000000000000E+00
 0.0000000000000E+00
 0.0000000000000E+00
 0.0000000000000E+00
 0.0000000000000E+00
 0.0000000000000E+00
 0.0000000000000E+00
 0.0000000000000E+00
 0.0000000000000E+00
 0.0000000000000E+00
 0.0000000000000E+00
 0.0000000000000E+00
 0.0000000000000E+00
 0.0000000000000E+00
 0.0000000000000E+00
 0.0000000000000E+00
 0.0000000000000E+00
 0.0000000000000E+00
 0.0000000000000E+00
 0.0000000000000E+00
 0.0000000000000E+00
 0.0000000000000E+00
 0.0000000000000E+00
 0.0000000000000E+00
 0.0000000000000E+00
 0.0000000000000E+00
 0.0000000000000E+00
 0.0000000000000E+00
 0.0000000000000E+00
 0.0000000000000E+00
 0.0000000000000E+00
 0.0000000000000E+00
 0.0000000000000E+00
 0.0000000000000E+00
 0.0000000000000E+00
 0.0000000000000E+00
 0.0000000000000E+00
 0.0000000000000E+00
 0.0000000000000E+00
 0.0000000000000E+00
 0.0000000000000E+00
 0.0000000000000E+00
 0.0000000000000E+00
 0.0000000000000E+00
 0.0000000000000E+00
 0.0000000000000E+00
 0.0000000000000E+00
 0.0000000000000E+00
 0.0000000000000E+00
 0.0000000000000E+00
 0.0000000000000E+00
 0.0000000000000E+00
 0.0000000000000E+00
 0.0000000000000E+00
 0.0000000000000E+00
 0.0000000000000E+00
 0.0000000000000E+00
 0.0000000000000E+00
 0.0000000000000E+00
 0.0000000000000E+00
 0.0000000000000E+00
 0.0000000000000E+00
 0.0000000000000E+00
 0.0000000000000E+00
 0.0000000000000E+00
 0.0000000000000E+00
 0.0000000000000E+00
 0.0000000000000E+00
 0.0000000000000E+00
 0.0000000000000E+00
 0.0000000000000E+00
 0.0000000000000E+00
 0.0000000000000E+00
 0.0000000000000E+00
 0.0000000000000E+00
 0.0000000000000E+00
 0.0000000000000E+00
 0.0000000000000E+00
 0.0000000000000E+00
 0.0000000000000E+00
 0.0000000000000E+00
 0.0000000000000E+00
 0.0000000000000E+00
 0.0000000000000E+00
 0.0000000000000E+00
 0.0000000000000E+00
 0.0000000000000E+00
 0.0000000000000E+00
 0.0000000000000E+00
 0.0000000000000E+00
 0.0000000000000E+00
 0.0000000000000E+00
 0.0000000000000E+00
 0.0000000000000E+00
 0.0000000000000E+00
 0.0000000000000E+00
 0.0000000000000E+00
 0.0000000000000E+00
 0.0000000000000E+00
 0.0000000000000E+00
 0.0000000000000E+00
 0.0000000000000E+00
 0.0000000000000E+00
 0.0000000000000E+00
 0.0000000000000E+00
 0.0000000000000E+00
 0.0000000000000E+00
 0.0000000000000E+00
 0.0000000000000E+00
 0.0000000000000E+00
 0.0000000000000E+00
 0.0000000000000E+00
 0.0000000000000E+00
 0.0000000000000E+00
 0.0000000000000E+00
 0.0000000000000E+00
 0.0000000000000E+00
 0.0000000000000E+00
 0.0000000000000E+00
 0.0000000000000E+00
 0.0000000000000E+00
 0.0000000000000E+00
 0.0000000000000E+00
 0.0000000000000E+00
 0.0000000000000E+00
 0.0000000000000E+00
 0.0000000000000E+00
 0.0000000000000E+00
 0.0000000000000E+00
 0.0000000000000E+00
 0.0000000000000E+00
 0.0000000000000E+00
 0.0000000000000E+00
 0.0000000000000E+00
 0.0000000000000E+00
 0.0000000000000E+00
 0.0000000000000E+00
 0.0000000000000E+00
 0.0000000000000E+00
 0.0000000000000E+00
 0.0000000000000E+00
 0.0000000000000E+00
 0.0000000000000E+00
 0.0000000000000E+00
 0.0000000000000E+00
 0.0000000000000E+00
 0.0000000000000E+00
 0.0000000000000E+00
 0.0000000000000E+00
 0.0000000000000E+00
 0.0000000000000E+00
 0.0000000000000E+00
 0.0000000000000E+00
 0.0000000000000E+00
 0.0000000000000E+00
 0.0000000000000E+00
 0.0000000000000E+00
 0.0000000000000E+00
 0.0000000000000E+00
 0.0000000000000E+00
 0.0000000000000E+00
 0.0000000000000E+00
 0.0000000000000E+00
 0.0000000000000E+00
 0.0000000000000E+00
 0.0000000000000E+00
 0.0000000000000E+00
 0.0000000000000E+00
 0.0000000000000E+00
 0.0000000000000E+00
 0.0000000000000E+00
 0.0000000000000E+00
 0.0000000000000E+00
 0.0000000000000E+00
 0.0000000000000E+00
 0.0000000000000E+00
 0.0000000000000E+00
 0.0000000000000E+00
 0.0000000000000E+00
 0.0000000000000E+00
 0.0000000000000E+00
 0.0000000000000E+00
 0.0000000000000E+00
 0.0000000000000E+00
 0.0000000000000E+00
 0.0000000000000E+00
 0.0000000000000E+00
 0.0000000000000E+00
 0.0000000000000E+00
 0.0000000000000E+00
 0.0000000000000E+00
 0.0000000000000E+00
 0.0000000000000E+00
 0.0000000000000E+00
 0.0000000000000E+00
 0.0000000000000E+00
 0.0000000000000E+00
 0.0000000000000E+00
 0.0000000000000E+00
 0.0000000000000E+00
 0.0000000000000E+00
 0.0000000000000E+00
 0.0000000000000E+00
 0.0000000000000E+00
 0.0000000000000E+00
 0.0000000000000E+00
 0.0000000000000E+00
 0.0000000000000E+00
 0.0000000000000E+00
 0.0000000000000E+00
 0.0000000000000E+00
 0.0000000000000E+00
 0.0000000000000E+00
 0.0000000000000E+00
 0.0000000000000E+00
 0.0000000000000E+00
 0.0000000000000E+00
 0.0000000000000E+00
 0.0000000000000E+00
 0.0000000000000E+00
 0.0000000000000E+00
 0.0000000000000E+00
 0.0000000000000E+00
 0.0000000000000E+00
 0.0000000000000E+00
 0.0000000000000E+00
 0.0000000000000E+00
 0.0000000000000E+00
 0.0000000000000E+00
 0.0000000000000E+00
 0.0000000000000E+00
 0.0000000000000E+00
 0.0000000000000E+00
 0.0000000000000E+00
 0.0000000000000E+00
 0.0000000000000E+00
 0.0000000000000E+00
 0.0000000000000E+00
 0.0000000000000E+00
 0.0000000000000E+00
 0.0000000000000E+00
 0.0000000000000E+00
 0.0000000000000E+00
 0.0000000000000E+00
 0.0000000000000E+00
 0.0000000000000E+00
 0.0000000000000E+00
 0.0000000000000E+00
 0.0000000000000E+00
 0.0000000000000E+00
 0.0000000000000E+00
 0.0000000000000E+00
 0.0000000000000E+00
 0.0000000000000E+00
 0.0000000000000E+00
 0.0000000000000E+00
 0.0000000000000E+00
 0.0000000000000E+00
 0.0000000000000E+00
 0.0000000000000E+00
 0.0000000000000E+00
 0.0000000000000E+00
 0.0000000000000E+00
 0.0000000000000E+00
 0.0000000000000E+00
 0.0000000000000E+00
 0.0000000000000E+00
 0.0000000000000E+00
 0.0000000000000E+00
 0.0000000000000E+00
 0.0000000000000E+00
 0.0000000000000E+00
 0.0000000000000E+00
 0.0000000000000E+00
 0.0000000000000E+00
 0.0000000000000E+00
 0.0000000000000E+00
 0.0000000000000E+00
 0.0000000000000E+00
 0.0000000000000E+00
 0.0000000000000E+00
 0.0000000000000E+00
 0.0000000000000E+00
 0.0000000000000E+00
 0.0000000000000E+00
 0.0000000000000E+00
 0.0000000000000E+00
 0.0000000000000E+00
 0.0000000000000E+00
 0.0000000000000E+00
 0.0000000000000E+00
 0.0000000000000E+00
 0.0000000000000E+00
 0.0000000000000E+00
 0.0000000000000E+00
 0.0000000000000E+00
 0.0000000000000E+00
 0.0000000000000E+00
 0.0000000000000E+00
 0.0000000000000E+00
 0.0000000000000E+00
 0.0000000000000E+00
 0.0000000000000E+00
 0.0000000000000E+00
 0.0000000000000E+00
 0.0000000000000E+00
 0.0000000000000E+00
 0.0000000000000E+00
 0.0000000000000E+00
 0.0000000000000E+00
 0.0000000000000E+00
 0.0000000000000E+00
 0.0000000000000E+00
 0.0000000000000E+00
 0.0000000000000E+00
 0.0000000000000E+00
 0.0000000000000E+00
 0.0000000000000E+00
 0.0000000000000E+00
 0.0000000000000E+00
 0.0000000000000E+00
 0.0000000000000E+00
 0.0000000000000E+00
 0.0000000000000E+00
 0.0000000000000E+00
 0.0000000000000E+00
 0.0000000000000E+00
 0.0000000000000E+00
 0.0000000000000E+00
 0.0000000000000E+00
 0.0000000000000E+00
 0.0000000000000E+00
 0.0000000000000E+00
 0.0000000000000E+00
 0.0000000000000E+00
 0.0000000000000E+00
 0.0000000000000E+00
 0.0000000000000E+00
 0.0000000000000E+00
 0.0000000000000E+00
 0.0000000000000E+00
 0.0000000000000E+00
 0.0000000000000E+00
 0.0000000000000E+00
 0.0000000000000E+00
 0.0000000000000E+00
 0.0000000000000E+00
 0.0000000000000E+00
 0.0000000000000E+00
 0.0000000000000E+00
 0.0000000000000E+00
 0.0000000000000E+00
 0.0000000000000E+00
 0.0000000000000E+00
 0.0000000000000E+00
 0.0000000000000E+00
 0.0000000000000E+00
 0.0000000000000E+00
 0.0000000000000E+00
 0.0000000000000E+00
 0.0000000000000E+00
 0.0000000000000E+00
 0.0000000000000E+00
 0.0000000000000E+00
 0.0000000000000E+00
 0.0000000000000E+00
 0.0000000000000E+00
 0.0000000000000E+00
 0.0000000000000E+00
 0.0000000000000E+00
 0.0000000000000E+00
 0.0000000000000E+00
 0.0000000000000E+00
 0.0000000000000E+00
 0.0000000000000E+00
 0.0000000000000E+00
 0.0000000000000E+00
 0.0000000000000E+00
 0.0000000000000E+00
 0.0000000000000E+00
 0.0000000000000E+00
 0.0000000000000E+00
 0.0000000000000E+00
 0.0000000000000E+00
 0.0000000000000E+00
 0.0000000000000E+00
 0.0000000000000E+00
 0.0000000000000E+00
 0.0000000000000E+00
 0.0000000000000E+00
 0.0000000000000E+00
 0.0000000000000E+00
 0.0000000000000E+00
 0.0000000000000E+00
 0.0000000000000E+00
 0.0000000000000E+00
 0.0000000000000E+00
 0.0000000000000E+00
 0.0000000000000E+00
 0.0000000000000E+00
 0.0000000000000E+00
 0.0000000000000E+00
 0.0000000000000E+00
 0.0000000000000E+00
 0.0000000000000E+00
 0.0000000000000E+00
 0.0000000000000E+00
 0.0000000000000E+00
 0.0000000000000E+00
 0.0000000000000E+00
 0.0000000000000E+00
 0.0000000000000E+00
 0.0000000000000E+00
 0.0000000000000E+00
 0.0000000000000E+00
 0.0000000000000E+00
 0.0000000000000E+00
 0.0000000000000E+00
 0.0000000000000E+00
 0.0000000000000E+00
 0.0000000000000E+00
 0.0000000000000E+00
 0.0000000000000E+00
 0.0000000000000E+00
 0.0000000000000E+00
 0.0000000000000E+00
 0.0000000000000E+00
 0.0000000000000E+00
 0.0000000000000E+00
 0.0000000000000E+00
 0.0000000000000E+00
 0.0000000000000E+00
 0.0000000000000E+00
 0.0000000000000E+00
 0.0000000000000E+00
 0.0000000000000E+00
 0.0000000000000E+00
 0.0000000000000E+00
 0.0000000000000E+00
 0.0000000000000E+00
 0.0000000000000E+00
 0.0000000000000E+00
 0.0000000000000E+00
 0.0000000000000E+00
 0.0000000000000E+00
 0.0000000000000E+00
 0.0000000000000E+00
 0.0000000000000E+00
 0.0000000000000E+00
 0.0000000000000E+00
 0.0000000000000E+00
 0.0000000000000E+00
 0.0000000000000E+00
 0.0000000000000E+00
 0.0000000000000E+00
 0.0000000000000E+00
 0.0000000000000E+00
 0.0000000000000E+00
 0.0000000000000E+00
 0.0000000000000E+00
 0.0000000000000E+00
 0.0000000000000E+00
 0.0000000000000E+00
 0.0000000000000E+00
 0.0000000000000E+00
 0.0000000000000E+00
 0.0000000000000E+00
 0.0000000000000E+00
 0.0000000000000E+00
 0.0000000000000E+00
 0.0000000000000E+00
 0.0000000000000E+00
 0.0000000000000E+00
 0.0000000000000E+00
 0.0000000000000E+00
 0.0000000000000E+00
 0.0000000000000E+00
 0.0000000000000E+00
 0.0000000000000E+00
 0.0000000000000E+00
 0.0000000000000E+00
 0.0000000000000E+00
 0.0000000000000E+00
 0.0000000000000E+00
 0.0000000000000E+00
 0.0000000000000E+00
 0.0000000000000E+00
 0.0000000000000E+00
 0.0000000000000E+00
 0.0000000000000E+00
 0.0000000000000E+00
 0.0000000000000E+00
 0.0000000000000E+00
 0.0000000000000E+00
 0.0000000000000E+00
 0.0000000000000E+00
 0.0000000000000E+00
 0.0000000000000E+00
 0.0000000000000E+00
 0.0000000000000E+00
 0.0000000000000E+00
 0.0000000000000E+00
 0.0000000000000E+00
 0.0000000000000E+00
 0.0000000000000E+00
 0.0000000000000E+00
 0.0000000000000E+00
 0.0000000000000E+00
 0.0000000000000E+00
 0.0000000000000E+00
 0.0000000000000E+00
 0.0000000000000E+00
 0.0000000000000E+00
 0.0000000000000E+00
 0.0000000000000E+00
 0.0000000000000E+00
 0.0000000000000E+00
 0.0000000000000E+00
 0.0000000000000E+00
 0.0000000000000E+00
 0.0000000000000E+00
 0.0000000000000E+00
 0.0000000000000E+00
 0.0000000000000E+00
 0.0000000000000E+00
 0.0000000000000E+00
 0.0000000000000E+00
 0.0000000000000E+00
 0.0000000000000E+00
 0.0000000000000E+00
 0.0000000000000E+00
 0.0000000000000E+00
 0.0000000000000E+00
 0.0000000000000E+00
 0.0000000000000E+00
 0.0000000000000E+00
 0.0000000000000E+00
 0.0000000000000E+00
 0.0000000000000E+00
 0.0000000000000E+00
 0.0000000000000E+00
 0.0000000000000E+00
 0.0000000000000E+00
 0.0000000000000E+00
 0.0000000000000E+00
 0.0000000000000E+00
 0.0000000000000E+00
 0.0000000000000E+00
 0.0000000000000E+00
 0.0000000000000E+00
 0.0000000000000E+00
 0.0000000000000E+00
 0.0000000000000E+00
 0.0000000000000E+00
 0.0000000000000E+00
 0.0000000000000E+00
 0.0000000000000E+00
 0.0000000000000E+00
 0.0000000000000E+00
 0.0000000000000E+00
 0.0000000000000E+00
 0.0000000000000E+00
 0.0000000000000E+00
 0.0000000000000E+00
 0.0000000000000E+00
 0.0000000000000E+00
 0.0000000000000E+00
 0.0000000000000E+00
 0.0000000000000E+00
 0.0000000000000E+00
 0.0000000000000E+00
 0.0000000000000E+00
 0.0000000000000E+00
 0.0000000000000E+00
 0.0000000000000E+00
 0.0000000000000E+00
 0.0000000000000E+00
 0.0000000000000E+00
 0.0000000000000E+00
 0.0000000000000E+00
 0.0000000000000E+00
 0.0000000000000E+00
 0.0000000000000E+00
 0.0000000000000E+00
 0.0000000000000E+00
 0.0000000000000E+00
 0.0000000000000E+00
 0.0000000000000E+00
 0.0000000000000E+00
 0.0000000000000E+00
 0.0000000000000E+00
 0.0000000000000E+00
 0.0000000000000E+00
 0.0000000000000E+00
 0.0000000000000E+00
 0.0000000000000E+00
 0.0000000000000E+00
 0.0000000000000E+00
 0.0000000000000E+00
 0.0000000000000E+00
 0.0000000000000E+00
 0.0000000000000E+00
 0.0000000000000E+00
 0.0000000000000E+00
 0.0000000000000E+00
 0.0000000000000E+00
 0.0000000000000E+00
 0.0000000000000E+00
 0.0000000000000E+00
 0.0000000000000E+00
 0.0000000000000E+00
 0.0000000000000E+00
 0.0000000000000E+00
 0.0000000000000E+00
 0.0000000000000E+00
 0.0000000000000E+00
 0.0000000000000E+00
 0.0000000000000E+00
 0.0000000000000E+00
 0.0000000000000E+00
 0.0000000000000E+00
 0.0000000000000E+00
 0.0000000000000E+00
 0.0000000000000E+00
 0.0000000000000E+00
 0.0000000000000E+00
 0.0000000000000E+00
 0.0000000000000E+00
 0.0000000000000E+00
 0.0000000000000E+00
 0.0000000000000E+00
 0.0000000000000E+00
 0.0000000000000E+00
 0.0000000000000E+00
 0.0000000000000E+00
 0.0000000000000E+00
 0.0000000000000E+00
 0.0000000000000E+00
 0.0000000000000E+00
 0.0000000000000E+00
 0.0000000000000E+00
 0.0000000000000E+00
 0.0000000000000E+00
 0.0000000000000E+00
 0.0000000000000E+00
 0.0000000000000E+00
 0.0000000000000E+00
 0.0000000000000E+00
 0.0000000000000E+00
 0.0000000000000E+00
 0.0000000000000E+00
 0.0000000000000E+00
 0.0000000000000E+00
 0.0000000000000E+00
 0.0000000000000E+00
 0.0000000000000E+00
 0.0000000000000E+00
 0.0000000000000E+00
 0.0000000000000E+00
 0.0000000000000E+00
 0.0000000000000E+00
 0.0000000000000E+00
 0.0000000000000E+00
 0.0000000000000E+00
 0.0000000000000E+00
 0.0000000000000E+00
 0.0000000000000E+00
 0.0000000000000E+00
 0.0000000000000E+00
 0.0000000000000E+00
 0.0000000000000E+00
 0.0000000000000E+00
 0.0000000000000E+00
 0.0000000000000E+00
 0.0000000000000E+00
 0.0000000000000E+00
 0.0000000000000E+00
 0.0000000000000E+00
 0.0000000000000E+00
 0.0000000000000E+00
 0.0000000000000E+00
 0.0000000000000E+00
 0.0000000000000E+00
 0.0000000000000E+00
 0.0000000000000E+00
 0.0000000000000E+00
 0.0000000000000E+00
 0.0000000000000E+00
 0.0000000000000E+00
 0.0000000000000E+00
 0.0000000000000E+00
 0.0000000000000E+00
 0.0000000000000E+00
 0.0000000000000E+00
 0.0000000000000E+00
 0.0000000000000E+00
 0.0000000000000E+00
 0.0000000000000E+00
 0.0000000000000E+00
 0.0000000000000E+00
 0.0000000000000E+00
 0.0000000000000E+00
 0.0000000000000E+00
 0.0000000000000E+00
 0.0000000000000E+00
 0.0000000000000E+00
 0.0000000000000E+00
 0.0000000000000E+00
 0.0000000000000E+00
 0.0000000000000E+00
 0.0000000000000E+00
 0.0000000000000E+00
 0.0000000000000E+00
 0.0000000000000E+00
 0.0000000000000E+00
 0.0000000000000E+00
 0.0000000000000E+00
 0.0000000000000E+00
 0.0000000000000E+00
 0.0000000000000E+00
 0.0000000000000E+00
 0.0000000000000E+00
 0.0000000000000E+00
 0.0000000000000E+00
 0.0000000000000E+00
 0.0000000000000E+00
 0.0000000000000E+00
 0.0000000000000E+00
 0.0000000000000E+00
 0.0000000000000E+00
 0.0000000000000E+00
 0.0000000000000E+00
 0.0000000000000E+00
 0.0000000000000E+00
 0.0000000000000E+00
 0.0000000000000E+00
 0.0000000000000E+00
 0.0000000000000E+00
 0.0000000000000E+00
 0.0000000000000E+00
 0.0000000000000E+00
 0.0000000000000E+00
 0.0000000000000E+00
 0.0000000000000E+00
 0.0000000000000E+00
 0.0000000000000E+00
 0.0000000000000E+00
 0.0000000000000E+00
 0.0000000000000E+00
 0.0000000000000E+00
 0.0000000000000E+00
 0.0000000000000E+00
 0.0000000000000E+00
 0.0000000000000E+00
 0.0000000000000E+00
 0.0000000000000E+00
 0.0000000000000E+00
 0.0000000000000E+00
 0.0000000000000E+00
 0.0000000000000E+00
 0.0000000000000E+00
 0.0000000000000E+00
 0.0000000000000E+00
 0.0000000000000E+00
 0.0000000000000E+00
 0.0000000000000E+00
 0.0000000000000E+00
 0.0000000000000E+00
 0.0000000000000E+00
 0.0000000000000E+00
 0.0000000000000E+00
 0.0000000000000E+00
 0.0000000000000E+00
 0.0000000000000E+00
 0.0000000000000E+00
 0.0000000000000E+00
 0.0000000000000E+00
 0.0000000000000E+00
 0.0000000000000E+00
 0.0000000000000E+00
 0.0000000000000E+00
 0.0000000000000E+00
 0.0000000000000E+00
 0.0000000000000E+00
 0.0000000000000E+00
 0.0000000000000E+00
 0.0000000000000E+00
 0.0000000000000E+00
 0.0000000000000E+00
 0.0000000000000E+00
 0.0000000000000E+00
 0.0000000000000E+00
 0.0000000000000E+00
 0.0000000000000E+00
 0.0000000000000E+00
 0.0000000000000E+00
 0.0000000000000E+00
 0.0000000000000E+00
 0.0000000000000E+00
 0.0000000000000E+00
 0.0000000000000E+00
 0.0000000000000E+00
 0.0000000000000E+00
 0.0000000000000E+00
 0.0000000000000E+00
 0.0000000000000E+00
 0.0000000000000E+00
 0.0000000000000E+00
 0.0000000000000E+00
 0.0000000000000E+00
 0.0000000000000E+00
 0.0000000000000E+00
 0.0000000000000E+00
 0.0000000000000E+00
 0.0000000000000E+00
 0.0000000000000E+00
 0.0000000000000E+00
 0.0000000000000E+00
 0.0000000000000E+00
 0.0000000000000E+00
 0.0000000000000E+00
 0.0000000000000E+00
 0.0000000000000E+00
 0.0000000000000E+00
 0.0000000000000E+00
 0.0000000000000E+00
 0.0000000000000E+00
 0.0000000000000E+00
 0.0000000000000E+00
 0.0000000000000E+00
 0.0000000000000E+00
 0.0000000000000E+00
 0.0000000000000E+00
 0.0000000000000E+00
 0.0000000000000E+00
 0.0000000000000E+00
 0.0000000000000E+00
 0.0000000000000E+00
 0.0000000000000E+00
 0.0000000000000E+00
 0.0000000000000E+00
 0.0000000000000E+00
 0.0000000000000E+00
 0.0000000000000E+00
 0.0000000000000E+00
 0.0000000000000E+00
 0.0000000000000E+00
 0.0000000000000E+00
 0.0000000000000E+00
 0.0000000000000E+00
 0.0000000000000E+00
 0.0000000000000E+00
 0.0000000000000E+00
 0.0000000000000E+00
 0.0000000000000E+00
 0.0000000000000E+00
 0.0000000000000E+00
 0.0000000000000E+00
 0.0000000000000E+00
 0.0000000000000E+00
 0.0000000000000E+00
 0.0000000000000E+00
 0.0000000000000E+00
 0.0000000000000E+00
 0.0000000000000E+00
 0.0000000000000E+00
 0.0000000000000E+00
 0.0000000000000E+00
 0.0000000000000E+00
 0.0000000000000E+00
 0.0000000000000E+00
 0.0000000000000E+00
 0.0000000000000E+00
 0.0000000000000E+00
 0.0000000000000E+00
 0.0000000000000E+00
 0.0000000000000E+00
 0.0000000000000E+00
 0.0000000000000E+00
 0.0000000000000E+00
 0.0000000000000E+00
 0.0000000000000E+00
 0.0000000000000E+00
 0.0000000000000E+00
 0.0000000000000E+00
 0.0000000000000E+00
 0.0000000000000E+00
 0.0000000000000E+00
 0.0000000000000E+00
 0.0000000000000E+00
 0.0000000000000E+00
 0.0000000000000E+00
 0.0000000000000E+00
 0.0000000000000E+00
 0.0000000000000E+00
 0.0000000000000E+00
 0.0000000000000E+00
 0.0000000000000E+00
 0.0000000000000E+00
 0.0000000000000E+00
 0.0000000000000E+00
 0.0000000000000E+00
 0.0000000000000E+00
 0.0000000000000E+00
 0.0000000000000E+00
 0.0000000000000E+00
 0.0000000000000E+00
 0.0000000000000E+00
 0.0000000000000E+00
 0.0000000000000E+00
 0.0000000000000E+00
 0.0000000000000E+00
 0.0000000000000E+00
 0.0000000000000E+00
 0.0000000000000E+00
 0.0000000000000E+00
 0.0000000000000E+00
 0.0000000000000E+00
 0.0000000000000E+00
 0.0000000000000E+00
 0.0000000000000E+00
 0.0000000000000E+00
 0.0000000000000E+00
 0.0000000000000E+00
 0.0000000000000E+00
 0.0000000000000E+00
 0.0000000000000E+00
 0.0000000000000E+00
 0.0000000000000E+00
 0.0000000000000E+00
 0.0000000000000E+00
 0.0000000000000E+00
 0.0000000000000E+00
 0.0000000000000E+00
 0.0000000000000E+00
 0.0000000000000E+00
 0.0000000000000E+00
 0.0000000000000E+00
 0.0000000000000E+00
 0.0000000000000E+00
 0.0000000000000E+00
 0.0000000000000E+00
 0.0000000000000E+00
 0.0000000000000E+00
 0.0000000000000E+00
 0.0000000000000E+00
 0.0000000000000E+00
 0.0000000000000E+00
 0.0000000000000E+00
 0.0000000000000E+00
 0.0000000000000E+00
 0.0000000000000E+00
 0.0000000000000E+00
 0.0000000000000E+00
 0.0000000000000E+00
 0.0000000000000E+00
 0.0000000000000E+00
 0.0000000000000E+00
 0.0000000000000E+00
 0.0000000000000E+00
 0.0000000000000E+00
 0.0000000000000E+00
 0.0000000000000E+00
 0.0000000000000E+00
 0.0000000000000E+00
 0.0000000000000E+00
 0.0000000000000E+00
 0.0000000000000E+00
 0.0000000000000E+00
 0.0000000000000E+00
 0.0000000000000E+00
 0.0000000000000E+00
 0.0000000000000E+00
 0.0000000000000E+00
 0.0000000000000E+00
 0.0000000000000E+00
 0.0000000000000E+00
 0.0000000000000E+00
 0.0000000000000E+00
 0.0000000000000E+00
 0.0000000000000E+00
 0.0000000000000E+00
 0.0000000000000E+00
 0.0000000000000E+00
 0.0000000000000E+00
 0.0000000000000E+00
 0.0000000000000E+00
 0.0000000000000E+00
 0.0000000000000E+00
 0.0000000000000E+00
 0.0000000000000E+00
 0.0000000000000E+00
 0.0000000000000E+00
 0.0000000000000E+00
 0.0000000000000E+00
 0.0000000000000E+00
 0.0000000000000E+00
 0.0000000000000E+00
 0.0000000000000E+00
 0.0000000000000E+00
 0.0000000000000E+00
 0.0000000000000E+00
 0.0000000000000E+00
 0.0000000000000E+00
 0.0000000000000E+00
 0.0000000000000E+00
 0.0000000000000E+00
 0.0000000000000E+00
 0.0000000000000E+00
 0.0000000000000E+00
 0.0000000000000E+00
 0.0000000000000E+00
 0.0000000000000E+00
 0.0000000000000E+00
 0.0000000000000E+00
 0.0000000000000E+00
 0.0000000000000E+00
 0.0000000000000E+00
 0.0000000000000E+00
 0.0000000000000E+00
 0.0000000000000E+00
 0.0000000000000E+00
 0.0000000000000E+00
 0.0000000000000E+00
 0.0000000000000E+00
 0.0000000000000E+00
 0.0000000000000E+00
 0.0000000000000E+00
 0.0000000000000E+00
 0.0000000000000E+00
 0.0000000000000E+00
 0.0000000000000E+00
 0.0000000000000E+00
 0.0000000000000E+00
 0.0000000000000E+00
 0.0000000000000E+00
 0.0000000000000E+00
 0.0000000000000E+00
 0.0000000000000E+00
 0.0000000000000E+00
 0.0000000000000E+00
 0.0000000000000E+00
 0.0000000000000E+00
 0.0000000000000E+00
 0.0000000000000E+00
 0.0000000000000E+00
 0.0000000000000E+00
 0.0000000000000E+00
 0.0000000000000E+00
 0.0000000000000E+00
 0.0000000000000E+00
 0.0000000000000E+00
 0.0000000000000E+00
 0.0000000000000E+00
 0.0000000000000E+00
 0.0000000000000E+00
 0.0000000000000E+00
 0.0000000000000E+00
 0.0000000000000E+00
 0.0000000000000E+00
 0.0000000000000E+00
 0.0000000000000E+00
 0.0000000000000E+00
 0.0000000000000E+00
 0.0000000000000E+00
 0.0000000000000E+00
 0.0000000000000E+00
 0.0000000000000E+00
 0.0000000000000E+00
 0.0000000000000E+00
 0.0000000000000E+00
 0.0000000000000E+00
 0.0000000000000E+00
 0.0000000000000E+00
 0.0000000000000E+00
 0.0000000000000E+00
 0.0000000000000E+00
 0.0000000000000E+00
 0.0000000000000E+00
 0.0000000000000E+00
 0.0000000000000E+00
 0.0000000000000E+00
 0.0000000000000E+00
 0.0000000000000E+00
 0.0000000000000E+00
 0.0000000000000E+00
 0.0000000000000E+00
 0.0000000000000E+00
 0.0000000000000E+00
 0.0000000000000E+00
 0.0000000000000E+00
 0.0000000000000E+00
 0.0000000000000E+00
 0.0000000000000E+00
 0.0000000000000E+00
 0.0000000000000E+00
 0.0000000000000E+00
 0.0000000000000E+00
 0.0000000000000E+00
 0.0000000000000E+00
 0.0000000000000E+00
 0.0000000000000E+00
 0.0000000000000E+00
 0.0000000000000E+00
 0.0000000000000E+00
 0.0000000000000E+00
 0.0000000000000E+00
 0.0000000000000E+00
 0.0000000000000E+00
 0.0000000000000E+00
 0.0000000000000E+00
 0.0000000000000E+00
 0.0000000000000E+00
 0.0000000000000E+00
 0.0000000000000E+00
 0.0000000000000E+00
 0.0000000000000E+00
 0.0000000000000E+00
 0.0000000000000E+00
 0.0000000000000E+00
 0.0000000000000E+00
 0.0000000000000E+00
 0.0000000000000E+00
 0.0000000000000E+00
 0.0000000000000E+00
 0.0000000000000E+00
 0.0000000000000E+00
 0.0000000000000E+00
 0.0000000000000E+00
 0.0000000000000E+00
 0.0000000000000E+00
 0.0000000000000E+00
 0.0000000000000E+00
 0.0000000000000E+00
 0.0000000000000E+00
 0.0000000000000E+00
 0.0000000000000E+00
 0.0000000000000E+00
 0.0000000000000E+00
 0.0000000000000E+00
 0.0000000000000E+00
 0.0000000000000E+00
 0.0000000000000E+00
 0.0000000000000E+00
 0.0000000000000E+00
 0.0000000000000E+00
 0.0000000000000E+00
 0.0000000000000E+00
 0.0000000000000E+00
 0.0000000000000E+00
 0.0000000000000E+00
 0.0000000000000E+00
 0.0000000000000E+00
 0.0000000000000E+00
 0.0000000000000E+00
 0.0000000000000E+00
 0.0000000000000E+00
 0.0000000000000E+00
 0.0000000000000E+00
 0.0000000000000E+00
 0.0000000000000E+00
 0.0000000000000E+00
 0.0000000000000E+00
 0.0000000000000E+00
 0.0000000000000E+00
 0.0000000000000E+00
 0.0000000000000E+00
 0.0000000000000E+00
 0.0000000000000E+00
 0.0000000000000E+00
 0.0000000000000E+00
 0.0000000000000E+00
 0.0000000000000E+00
 0.0000000000000E+00
 0.0000000000000E+00
 0.0000000000000E+00
 0.0000000000000E+00
 0.0000000000000E+00
 0.0000000000000E+00
 0.0000000000000E+00
 0.0000000000000E+00
 0.0000000000000E+00
 0.0000000000000E+00
 0.0000000000000E+00
 0.0000000000000E+00
 0.0000000000000E+00
 0.0000000000000E+00
 0.0000000000000E+00
 0.0000000000000E+00
 0.0000000000000E+00
 0.0000000000000E+00
 0.0000000000000E+00
 0.0000000000000E+00
 0.0000000000000E+00
 0.0000000000000E+00
 0.0000000000000E+00
 0.0000000000000E+00
 0.0000000000000E+00
 0.0000000000000E+00
 0.0000000000000E+00
 0.0000000000000E+00
 0.0000000000000E+00
 0.0000000000000E+00
 0.0000000000000E+00
 0.0000000000000E+00
 0.0000000000000E+00
 0.0000000000000E+00
 0.0000000000000E+00
 0.0000000000000E+00
 0.0000000000000E+00
 0.0000000000000E+00
 0.0000000000000E+00
 0.0000000000000E+00
 0.0000000000000E+00
 0.0000000000000E+00
 0.0000000000000E+00
 0.0000000000000E+00
 0.0000000000000E+00
 0.0000000000000E+00
 0.0000000000000E+00
 0.0000000000000E+00
 0.0000000000000E+00
 0.0000000000000E+00
 0.0000000000000E+00
 0.0000000000000E+00
 0.0000000000000E+00
 0.0000000000000E+00
 0.0000000000000E+00
 0.0000000000000E+00
 0.0000000000000E+00
 0.0000000000000E+00
 0.0000000000000E+00
 0.0000000000000E+00
 0.0000000000000E+00
 0.0000000000000E+00
 0.0000000000000E+00
 0.0000000000000E+00
 0.0000000000000E+00
 0.0000000000000E+00
 0.0000000000000E+00
 0.0000000000000E+00
 0.0000000000000E+00
 0.0000000000000E+00
 0.0000000000000E+00
 0.0000000000000E+00
 0.0000000000000E+00
 0.0000000000000E+00
 0.0000000000000E+00
 0.0000000000000E+00
 0.0000000000000E+00
 0.0000000000000E+00
 0.0000000000000E+00
 0.0000000000000E+00
 0.0000000000000E+00
 0.0000000000000E+00
 0.0000000000000E+00
 0.0000000000000E+00
 0.0000000000000E+00
 0.0000000000000E+00
 0.0000000000000E+00
 0.0000000000000E+00
 0.0000000000000E+00
 0.0000000000000E+00
 0.0000000000000E+00
 0.0000000000000E+00
 0.0000000000000E+00
 0.0000000000000E+00
 0.0000000000000E+00
 0.0000000000000E+00
 0.0000000000000E+00
 0.0000000000000E+00
 0.0000000000000E+00
 0.0000000000000E+00
 0.0000000000000E+00
 0.0000000000000E+00
 0.0000000000000E+00
 0.0000000000000E+00
 0.0000000000000E+00
 0.0000000000000E+00
 0.0000000000000E+00
 0.0000000000000E+00
 0.0000000000000E+00
 0.0000000000000E+00
 0.0000000000000E+00
 0.0000000000000E+00
 0.0000000000000E+00
 0.0000000000000E+00
 0.0000000000000E+00
 0.0000000000000E+00
 0.0000000000000E+00
 0.0000000000000E+00
 0.0000000000000E+00
 0.0000000000000E+00
 0.0000000000000E+00
 0.0000000000000E+00
 0.0000000000000E+00
 0.0000000000000E+00
 0.0000000000000E+00
 0.0000000000000E+00
 0.0000000000000E+00
 0.0000000000000E+00
 0.0000000000000E+00
 0.0000000000000E+00
 0.0000000000000E+00
 0.0000000000000E+00
 0.0000000000000E+00
 0.0000000000000E+00
 0.0000000000000E+00
 0.0000000000000E+00
 0.0000000000000E+00
 0.0000000000000E+00
 0.0000000000000E+00
 0.0000000000000E+00
 0.0000000000000E+00
 0.0000000000000E+00
 0.0000000000000E+00
 0.0000000000000E+00
 0.0000000000000E+00
 0.0000000000000E+00
 0.0000000000000E+00
 0.0000000000000E+00
 0.0000000000000E+00
 0.0000000000000E+00
 0.0000000000000E+00
 0.0000000000000E+00
 0.0000000000000E+00
 0.0000000000000E+00
 0.0000000000000E+00
 0.0000000000000E+00
 0.0000000000000E+00
 0.0000000000000E+00
 0.0000000000000E+00
 0.0000000000000E+00
 0.0000000000000E+00
 0.0000000000000E+00
 0.0000000000000E+00
 0.0000000000000E+00
 0.0000000000000E+00
 0.0000000000000E+00
 0.0000000000000E+00
 0.0000000000000E+00
 0.0000000000000E+00
 0.0000000000000E+00
 0.0000000000000E+00
 0.0000000000000E+00
 0.0000000000000E+00
 0.0000000000000E+00
 0.0000000000000E+00
 0.0000000000000E+00
 0.0000000000000E+00
 0.0000000000000E+00
 0.0000000000000E+00
 0.0000000000000E+00
 0.0000000000000E+00
 0.0000000000000E+00
 0.0000000000000E+00
 0.0000000000000E+00
 0.0000000000000E+00
 0.0000000000000E+00
 0.0000000000000E+00
 0.0000000000000E+00
 0.0000000000000E+00
 0.0000000000000E+00
 0.0000000000000E+00
 0.0000000000000E+00
 0.0000000000000E+00
 0.0000000000000E+00
 0.0000000000000E+00
 0.0000000000000E+00
 0.0000000000000E+00
 0.0000000000000E+00
 0.0000000000000E+00
 0.0000000000000E+00
 0.0000000000000E+00
 0.0000000000000E+00
 0.0000000000000E+00
 0.0000000000000E+00
 0.0000000000000E+00
 0.0000000000000E+00
 0.0000000000000E+00
 0.0000000000000E+00
 0.0000000000000E+00
 0.0000000000000E+00
 0.0000000000000E+00
 0.0000000000000E+00
 0.0000000000000E+00
 0.0000000000000E+00
 0.0000000000000E+00
 0.0000000000000E+00
 0.0000000000000E+00
 0.0000000000000E+00
 0.0000000000000E+00
 0.0000000000000E+00
 0.0000000000000E+00
 0.0000000000000E+00
 0.0000000000000E+00
 0.0000000000000E+00
 0.0000000000000E+00
 0.0000000000000E+00
 0.0000000000000E+00
 0.0000000000000E+00
 0.0000000000000E+00
 0.0000000000000E+00
 0.0000000000000E+00
 0.0000000000000E+00
 0.0000000000000E+00
 0.0000000000000E+00
 0.0000000000000E+00
 0.0000000000000E+00
 0.0000000000000E+00
 0.0000000000000E+00
 0.0000000000000E+00
 0.0000000000000E+00
 0.0000000000000E+00
 0.0000000000000E+00
 0.0000000000000E+00
 0.0000000000000E+00
 0.0000000000000E+00
 0.0000000000000E+00
 0.0000000000000E+00
 0.0000000000000E+00
 0.0000000000000E+00
 0.0000000000000E+00
 0.0000000000000E+00
 0.0000000000000E+00
 0.0000000000000E+00
 0.0000000000000E+00
 0.0000000000000E+00
 0.0000000000000E+00
 0.0000000000000E+00
 0.0000000000000E+00
 0.0000000000000E+00
 0.0000000000000E+00
 0.0000000000000E+00
 0.0000000000000E+00
 0.0000000000000E+00
 0.0000000000000E+00
 0.0000000000000E+00
 0.0000000000000E+00
 0.0000000000000E+00
 0.0000000000000E+00
 0.0000000000000E+00
 0.0000000000000E+00
 0.0000000000000E+00
 0.0000000000000E+00
 0.0000000000000E+00
 0.0000000000000E+00
 0.0000000000000E+00
 0.0000000000000E+00
 0.0000000000000E+00
 0.0000000000000E+00
 0.0000000000000E+00
 0.0000000000000E+00
 0.0000000000000E+00
 0.0000000000000E+00
 0.0000000000000E+00
 0.0000000000000E+00
 0.0000000000000E+00
 0.0000000000000E+00
 0.0000000000000E+00
 0.0000000000000E+00
 0.0000000000000E+00
 0.0000000000000E+00
 0.0000000000000E+00
 0.0000000000000E+00
 0.0000000000000E+00
 0.0000000000000E+00
 0.0000000000000E+00
 0.0000000000000E+00
 0.0000000000000E+00
 0.0000000000000E+00
 0.0000000000000E+00
 0.0000000000000E+00
 0.0000000000000E+00
 0.0000000000000E+00
 0.0000000000000E+00
 0.0000000000000E+00
 0.0000000000000E+00
 0.0000000000000E+00
 0.0000000000000E+00
 0.0000000000000E+00
 0.0000000000000E+00
 0.0000000000000E+00
 0.0000000000000E+00
 0.0000000000000E+00
 0.0000000000000E+00
 0.0000000000000E+00
 0.0000000000000E+00
 0.0000000000000E+00
 0.0000000000000E+00
 0.0000000000000E+00
 0.0000000000000E+00
 0.0000000000000E+00
 0.0000000000000E+00
 0.0000000000000E+00
 0.0000000000000E+00
 0.0000000000000E+00
 0.0000000000000E+00
 0.0000000000000E+00
 0.0000000000000E+00
 0.0000000000000E+00
 0.0000000000000E+00
 0.0000000000000E+00
 0.0000000000000E+00
 0.0000000000000E+00
 0.0000000000000E+00
 0.0000000000000E+00
 0.0000000000000E+00
 0.0000000000000E+00
 0.0000000000000E+00
 0.0000000000000E+00
 0.0000000000000E+00
 0.0000000000000E+00
 0.0000000000000E+00
 0.0000000000000E+00
 0.0000000000000E+00
 0.0000000000000E+00
 0.0000000000000E+00
 0.0000000000000E+00
 0.0000000000000E+00
 0.0000000000000E+00
 0.0000000000000E+00
 0.0000000000000E+00
 0.0000000000000E+00
 0.0000000000000E+00
 0.0000000000000E+00
 0.0000000000000E+00
 0.0000000000000E+00
 0.0000000000000E+00
 0.0000000000000E+00
 0.0000000000000E+00
 0.0000000000000E+00
 0.0000000000000E+00
 0.0000000000000E+00
 0.0000000000000E+00
 0.0000000000000E+00
 0.0000000000000E+00
 0.0000000000000E+00
 0.0000000000000E+00
 0.0000000000000E+00
 0.0000000000000E+00
 0.0000000000000E+00
 0.0000000000000E+00
 0.0000000000000E+00
 0.0000000000000E+00
 0.0000000000000E+00
 0.0000000000000E+00
 0.0000000000000E+00
 0.0000000000000E+00
 0.0000000000000E+00
 0.0000000000000E+00
 0.0000000000000E+00
 0.0000000000000E+00
 0.0000000000000E+00
 0.0000000000000E+00
 0.0000000000000E+00
 0.0000000000000E+00
 0.0000000000000E+00
 0.0000000000000E+00
 0.0000000000000E+00
 0.0000000000000E+00
 0.0000000000000E+00
 0.0000000000000E+00
 0.0000000000000E+00
 0.0000000000000E+00
 0.0000000000000E+00
 0.0000000000000E+00
 0.0000000000000E+00
 0.0000000000000E+00
 0.0000000000000E+00
 0.0000000000000E+00
 0.0000000000000E+00
 0.0000000000000E+00
 0.0000000000000E+00
 0.0000000000000E+00
 0.0000000000000E+00
 0.0000000000000E+00
 0.0000000000000E+00
 0.0000000000000E+00
 0.0000000000000E+00
 0.0000000000000E+00
 0.0000000000000E+00
 0.0000000000000E+00
 0.0000000000000E+00
 0.0000000000000E+00
 0.0000000000000E+00
 0.0000000000000E+00
 0.0000000000000E+00
 0.0000000000000E+00
 0.0000000000000E+00
 0.0000000000000E+00
 0.0000000000000E+00
 0.0000000000000E+00
 0.0000000000000E+00
 0.0000000000000E+00
 0.0000000000000E+00
 0.0000000000000E+00
 0.0000000000000E+00
 0.0000000000000E+00
 0.0000000000000E+00
 0.0000000000000E+00
 0.0000000000000E+00
 0.0000000000000E+00
 0.0000000000000E+00
 0.0000000000000E+00
 0.0000000000000E+00
 0.0000000000000E+00
 0.0000000000000E+00
 0.0000000000000E+00
 0.0000000000000E+00
 0.0000000000000E+00
 0.0000000000000E+00
 0.0000000000000E+00
 0.0000000000000E+00
 0.0000000000000E+00
 0.0000000000000E+00
 0.0000000000000E+00
 0.0000000000000E+00
 0.0000000000000E+00
 0.0000000000000E+00
 0.0000000000000E+00
 0.0000000000000E+00
 0.0000000000000E+00
 0.0000000000000E+00
 0.0000000000000E+00
 0.0000000000000E+00
 0.0000000000000E+00
 0.0000000000000E+00
 0.0000000000000E+00
 0.0000000000000E+00
 0.0000000000000E+00
 0.0000000000000E+00
 0.0000000000000E+00
 0.0000000000000E+00
 0.0000000000000E+00
 0.0000000000000E+00
 0.0000000000000E+00
 0.0000000000000E+00
 0.0000000000000E+00
 0.0000000000000E+00
 0.0000000000000E+00
 0.0000000000000E+00
 0.0000000000000E+00
 0.0000000000000E+00
 0.0000000000000E+00
 0.0000000000000E+00
 0.0000000000000E+00
 0.0000000000000E+00
 0.0000000000000E+00
 0.0000000000000E+00
 0.0000000000000E+00
 0.0000000000000E+00
 0.0000000000000E+00
 0.0000000000000E+00
 0.0000000000000E+00
 0.0000000000000E+00
 0.0000000000000E+00
 0.0000000000000E+00
 0.0000000000000E+00
 0.0000000000000E+00
 0.0000000000000E+00
 0.0000000000000E+00
 0.0000000000000E+00
 0.0000000000000E+00
 0.0000000000000E+00
 0.0000000000000E+00
 0.0000000000000E+00
 0.0000000000000E+00
 0.0000000000000E+00
 0.0000000000000E+00
 0.0000000000000E+00
 0.0000000000000E+00
 0.0000000000000E+00
 0.0000000000000E+00
 0.0000000000000E+00
 0.0000000000000E+00
 0.0000000000000E+00
 0.0000000000000E+00
 0.0000000000000E+00
 0.0000000000000E+00
 0.0000000000000E+00
 0.0000000000000E+00
 0.0000000000000E+00
 0.0000000000000E+00
 0.0000000000000E+00
 0.0000000000000E+00
 0.0000000000000E+00
 0.0000000000000E+00
 0.0000000000000E+00
 0.0000000000000E+00
 0.0000000000000E+00
 0.0000000000000E+00
 0.0000000000000E+00
 0.0000000000000E+00
 0.0000000000000E+00
 0.0000000000000E+00
 0.0000000000000E+00
 0.0000000000000E+00
 0.0000000000000E+00
 0.0000000000000E+00
 0.0000000000000E+00
 0.0000000000000E+00
 0.0000000000000E+00
 0.0000000000000E+00
 0.0000000000000E+00
 0.0000000000000E+00
 0.0000000000000E+00
 0.0000000000000E+00
 0.0000000000000E+00
 0.0000000000000E+00
 0.0000000000000E+00
 0.0000000000000E+00
 0.0000000000000E+00
 0.0000000000000E+00
 0.0000000000000E+00
 0.0000000000000E+00
 0.0000000000000E+00
 0.0000000000000E+00
 0.0000000000000E+00
 0.0000000000000E+00
 0.0000000000000E+00
 0.0000000000000E+00
 0.0000000000000E+00
 0.0000000000000E+00
 0.0000000000000E+00
 0.0000000000000E+00
 0.0000000000000E+00
 0.0000000000000E+00
 0.0000000000000E+00
 0.0000000000000E+00
 0.0000000000000E+00
 0.0000000000000E+00
 0.0000000000000E+00
 0.0000000000000E+00
 0.0000000000000E+00
 0.0000000000000E+00
 0.0000000000000E+00
 0.0000000000000E+00
 0.0000000000000E+00
 0.0000000000000E+00
 0.0000000000000E+00
 0.0000000000000E+00
 0.0000000000000E+00
 0.0000000000000E+00
 0.0000000000000E+00
 0.0000000000000E+00
 0.0000000000000E+00
 0.0000000000000E+00
 0.0000000000000E+00
 0.0000000000000E+00
 0.0000000000000E+00
 0.0000000000000E+00
 0.0000000000000E+00
 0.0000000000000E+00
 0.0000000000000E+00
 0.0000000000000E+00
 0.0000000000000E+00
 0.0000000000000E+00
 0.0000000000000E+00
 0.0000000000000E+00
 0.0000000000000E+00
 0.0000000000000E+00
 0.0000000000000E+00
 0.0000000000000E+00
 0.0000000000000E+00
 0.0000000000000E+00
 0.0000000000000E+00
 0.0000000000000E+00
 0.0000000000000E+00
 0.0000000000000E+00
 0.0000000000000E+00
 0.0000000000000E+00
 0.0000000000000E+00
 0.0000000000000E+00
 0.0000000000000E+00
 0.0000000000000E+00
 0.0000000000000E+00
 0.0000000000000E+00
 0.0000000000000E+00
 0.0000000000000E+00
 0.0000000000000E+00
 0.0000000000000E+00
 0.0000000000000E+00
 0.0000000000000E+00
 0.0000000000000E+00
 0.0000000000000E+00
 0.0000000000000E+00
 0.0000000000000E+00
 0.0000000000000E+00
 0.0000000000000E+00
 0.0000000000000E+00
 0.0000000000000E+00
 0.0000000000000E+00
 0.0000000000000E+00
 0.0000000000000E+00
 0.0000000000000E+00
 0.0000000000000E+00
 0.0000000000000E+00
 0.0000000000000E+00
 0.0000000000000E+00
 0.0000000000000E+00
 0.0000000000000E+00
 0.0000000000000E+00
 0.0000000000000E+00
 0.0000000000000E+00
 0.0000000000000E+00
 0.0000000000000E+00
 0.0000000000000E+00
 0.0000000000000E+00
 0.0000000000000E+00
 0.0000000000000E+00
 0.0000000000000E+00
 0.0000000000000E+00
 0.0000000000000E+00
 0.0000000000000E+00
 0.0000000000000E+00
 0.0000000000000E+00
 0.0000000000000E+00
 0.0000000000000E+00
 0.0000000000000E+00
 0.0000000000000E+00
 0.0000000000000E+00
 0.0000000000000E+00
 0.0000000000000E+00
 0.0000000000000E+00
 0.0000000000000E+00
 0.0000000000000E+00
 0.0000000000000E+00
 0.0000000000000E+00
 0.0000000000000E+00
 0.0000000000000E+00
 0.0000000000000E+00
 0.0000000000000E+00
 0.0000000000000E+00
 0.0000000000000E+00
 0.0000000000000E+00
 0.0000000000000E+00
 0.0000000000000E+00
 0.0000000000000E+00
 0.0000000000000E+00
 0.0000000000000E+00
 0.0000000000000E+00
 0.0000000000000E+00
 0.0000000000000E+00
 0.0000000000000E+00
 0.0000000000000E+00
 0.0000000000000E+00
 0.0000000000000E+00
 0.0000000000000E+00
 0.0000000000000E+00
 0.0000000000000E+00
 0.0000000000000E+00
 0.0000000000000E+00
 0.0000000000000E+00
 0.0000000000000E+00
 0.0000000000000E+00
 0.0000000000000E+00
 0.0000000000000E+00
 0.0000000000000E+00
 0.0000000000000E+00
 0.0000000000000E+00
 0.0000000000000E+00
 0.0000000000000E+00
 0.0000000000000E+00
 0.0000000000000E+00
 0.0000000000000E+00
 0.0000000000000E+00
 0.0000000000000E+00
 0.0000000000000E+00
 0.0000000000000E+00
 0.0000000000000E+00
 0.0000000000000E+00
 0.0000000000000E+00
 0.0000000000000E+00
 0.0000000000000E+00
 0.0000000000000E+00
 0.0000000000000E+00
 0.0000000000000E+00
 0.0000000000000E+00
 0.0000000000000E+00
 0.0000000000000E+00
 0.0000000000000E+00
 0.0000000000000E+00
 0.0000000000000E+00
 0.0000000000000E+00
 0.0000000000000E+00
 0.0000000000000E+00
 0.0000000000000E+00
 0.0000000000000E+00
 0.0000000000000E+00
 0.0000000000000E+00
 0.0000000000000E+00
 0.0000000000000E+00
 0.0000000000000E+00
 0.0000000000000E+00
 0.0000000000000E+00
 0.0000000000000E+00
 0.0000000000000E+00
 0.0000000000000E+00
 0.0000000000000E+00
 0.0000000000000E+00
 0.0000000000000E+00
 0.0000000000000E+00
 0.0000000000000E+00
 0.0000000000000E+00
 0.0000000000000E+00
 0.0000000000000E+00
 0.0000000000000E+00
 0.0000000000000E+00
 0.0000000000000E+00
 0.0000000000000E+00
 0.0000000000000E+00
 0.0000000000000E+00
 0.0000000000000E+00
 0.0000000000000E+00
 0.0000000000000E+00
 0.0000000000000E+00
 0.0000000000000E+00
 0.0000000000000E+00
 0.0000000000000E+00
 0.0000000000000E+00
 0.0000000000000E+00
 0.0000000000000E+00
 0.0000000000000E+00
 0.0000000000000E+00
 0.0000000000000E+00
 0.0000000000000E+00
 0.0000000000000E+00
 0.0000000000000E+00
 0.0000000000000E+00
 0.0000000000000E+00
 0.0000000000000E+00
 0.0000000000000E+00
 0.0000000000000E+00
 0.0000000000000E+00
 0.0000000000000E+00
 0.0000000000000E+00
 0.0000000000000E+00
 0.0000000000000E+00
 0.0000000000000E+00
 0.0000000000000E+00
 0.0000000000000E+00
 0.0000000000000E+00
 0.0000000000000E+00
 0.0000000000000E+00
 0.0000000000000E+00
 0.0000000000000E+00
 0.0000000000000E+00
 0.0000000000000E+00
 0.0000000000000E+00
 0.0000000000000E+00
 0.0000000000000E+00
 0.0000000000000E+00
 0.0000000000000E+00
 0.0000000000000E+00
 0.0000000000000E+00
 0.0000000000000E+00
 0.0000000000000E+00
 0.0000000000000E+00
 0.0000000000000E+00
 0.0000000000000E+00
 0.0000000000000E+00
 0.0000000000000E+00
 0.0000000000000E+00
 0.0000000000000E+00
 0.0000000000000E+00
 0.0000000000000E+00
 0.0000000000000E+00
 0.0000000000000E+00
 0.0000000000000E+00
 0.0000000000000E+00
 0.0000000000000E+00
 0.0000000000000E+00
 0.0000000000000E+00
 0.0000000000000E+00
 0.0000000000000E+00
 0.0000000000000E+00
 0.0000000000000E+00
 0.0000000000000E+00
 0.0000000000000E+00
 0.0000000000000E+00
 0.0000000000000E+00
 0.0000000000000E+00
 0.0000000000000E+00
 0.0000000000000E+00
 0.0000000000000E+00
 0.0000000000000E+00
 0.0000000000000E+00
 0.0000000000000E+00
 0.0000000000000E+00
 0.0000000000000E+00
 0.0000000000000E+00
 0.0000000000000E+00
 0.0000000000000E+00
 0.0000000000000E+00
 0.0000000000000E+00
 0.0000000000000E+00
 0.0000000000000E+00
 0.0000000000000E+00
 0.0000000000000E+00
 0.0000000000000E+00
 0.0000000000000E+00
 0.0000000000000E+00
 0.0000000000000E+00
 0.0000000000000E+00
 0.0000000000000E+00
 0.0000000000000E+00
 0.0000000000000E+00
 0.0000000000000E+00
 0.0000000000000E+00
 0.0000000000000E+00
 0.0000000000000E+00
 0.0000000000000E+00
 0.0000000000000E+00
 0.0000000000000E+00
 0.0000000000000E+00
 0.0000000000000E+00
 0.0000000000000E+00
 0.0000000000000E+00
 0.0000000000000E+00
 0.0000000000000E+00
 0.0000000000000E+00
 0.0000000000000E+00
 0.0000000000000E+00
 0.0000000000000E+00
 0.0000000000000E+00
 0.0000000000000E+00
 0.0000000000000E+00
 0.0000000000000E+00
 0.0000000000000E+00
 0.0000000000000E+00
 0.0000000000000E+00
 0.0000000000000E+00
 0.0000000000000E+00
 0.0000000000000E+00
 0.0000000000000E+00
 0.0000000000000E+00
 0.0000000000000E+00
 0.0000000000000E+00
 0.0000000000000E+00
 0.0000000000000E+00
 0.0000000000000E+00
 0.0000000000000E+00
 0.0000000000000E+00
 0.0000000000000E+00
 0.0000000000000E+00
 0.0000000000000E+00
 0.0000000000000E+00
 0.0000000000000E+00
 0.0000000000000E+00
 0.0000000000000E+00
 0.0000000000000E+00
 0.0000000000000E+00
 0.0000000000000E+00
 0.0000000000000E+00
 0.0000000000000E+00
 0.0000000000000E+00
 0.0000000000000E+00
 0.0000000000000E+00
 0.0000000000000E+00
 0.0000000000000E+00
 0.0000000000000E+00
 0.0000000000000E+00
 0.0000000000000E+00
 0.0000000000000E+00
 0.0000000000000E+00
 0.0000000000000E+00
 0.0000000000000E+00
 0.0000000000000E+00
 0.0000000000000E+00
 0.0000000000000E+00
 0.0000000000000E+00
 0.0000000000000E+00
 0.0000000000000E+00
 0.0000000000000E+00
 0.0000000000000E+00
 0.0000000000000E+00
 0.0000000000000E+00
 0.0000000000000E+00
 0.0000000000000E+00
 0.0000000000000E+00
 0.0000000000000E+00
 0.0000000000000E+00
 0.0000000000000E+00
 0.0000000000000E+00
 0.0000000000000E+00
 0.0000000000000E+00
 0.0000000000000E+00
 0.0000000000000E+00
 0.0000000000000E+00
 0.0000000000000E+00
 0.0000000000000E+00
 0.0000000000000E+00
 0.0000000000000E+00
 0.0000000000000E+00
 0.0000000000000E+00
 0.0000000000000E+00
 0.0000000000000E+00
 0.0000000000000E+00
 0.0000000000000E+00
 0.0000000000000E+00
 0.0000000000000E+00
 0.0000000000000E+00
 0.0000000000000E+00
 0.0000000000000E+00
 0.0000000000000E+00
 0.0000000000000E+00
 0.0000000000000E+00
 0.0000000000000E+00
 0.0000000000000E+00
 0.0000000000000E+00
 0.0000000000000E+00
 0.0000000000000E+00
 0.0000000000000E+00
 0.0000000000000E+00
 0.0000000000000E+00
 0.0000000000000E+00
 0.0000000000000E+00
 0.0000000000000E+00
 0.0000000000000E+00
 0.0000000000000E+00
 0.0000000000000E+00
 0.0000000000000E+00
 0.0000000000000E+00
 0.0000000000000E+00
 0.0000000000000E+00
 0.0000000000000E+00
 0.0000000000000E+00
 0.0000000000000E+00
 0.0000000000000E+00
 0.0000000000000E+00
 0.0000000000000E+00
 0.0000000000000E+00
 0.0000000000000E+00
 0.0000000000000E+00
 0.0000000000000E+00
 0.0000000000000E+00
 0.0000000000000E+00
 0.0000000000000E+00
 0.0000000000000E+00
 0.0000000000000E+00
 0.0000000000000E+00
 0.0000000000000E+00
 0.0000000000000E+00
 0.0000000000000E+00
 0.0000000000000E+00
 0.0000000000000E+00
 0.0000000000000E+00
 0.0000000000000E+00
 0.0000000000000E+00
 0.0000000000000E+00
 0.0000000000000E+00
 0.0000000000000E+00
 0.0000000000000E+00
 0.0000000000000E+00
 0.0000000000000E+00
 0.0000000000000E+00
 0.0000000000000E+00
 0.0000000000000E+00
 0.0000000000000E+00
 0.0000000000000E+00
 0.0000000000000E+00
 0.0000000000000E+00
 0.0000000000000E+00
 0.0000000000000E+00
 0.0000000000000E+00
 0.0000000000000E+00
 0.0000000000000E+00
 0.0000000000000E+00
 0.0000000000000E+00
 0.0000000000000E+00
 0.0000000000000E+00
 0.0000000000000E+00
 0.0000000000000E+00
 0.0000000000000E+00
 0.0000000000000E+00
 0.0000000000000E+00
 0.0000000000000E+00
 0.0000000000000E+00
 0.0000000000000E+00
 0.0000000000000E+00
 0.0000000000000E+00
 0.0000000000000E+00
 0.0000000000000E+00
 0.0000000000000E+00
 0.0000000000000E+00
 0.0000000000000E+00
 0.0000000000000E+00
 0.0000000000000E+00
 0.0000000000000E+00
 0.0000000000000E+00
 0.0000000000000E+00
 0.0000000000000E+00
 0.0000000000000E+00
 0.0000000000000E+00
 0.0000000000000E+00
 0.0000000000000E+00
 0.0000000000000E+00
 0.0000000000000E+00
 0.0000000000000E+00
 0.0000000000000E+00
 0.0000000000000E+00
 0.0000000000000E+00
 0.0000000000000E+00
 0.0000000000000E+00
 0.0000000000000E+00
 0.0000000000000E+00
 0.0000000000000E+00
 0.0000000000000E+00
 0.0000000000000E+00
 0.0000000000000E+00
 0.0000000000000E+00
 0.0000000000000E+00
 0.0000000000000E+00
 0.0000000000000E+00
 0.0000000000000E+00
 0.0000000000000E+00
 0.0000000000000E+00
 0.0000000000000E+00
 0.0000000000000E+00
 0.0000000000000E+00
 0.0000000000000E+00
 0.0000000000000E+00
 0.0000000000000E+00
 0.0000000000000E+00
 0.0000000000000E+00
 0.0000000000000E+00
 0.0000000000000E+00
 0.0000000000000E+00
 0.0000000000000E+00
 0.0000000000000E+00
 0.0000000000000E+00
 0.0000000000000E+00
 0.0000000000000E+00
 0.0000000000000E+00
 0.0000000000000E+00
 0.0000000000000E+00
 0.0000000000000E+00
 0.0000000000000E+00
 0.0000000000000E+00
 0.0000000000000E+00
 0.0000000000000E+00
 0.0000000000000E+00
 0.0000000000000E+00
 0.0000000000000E+00
 0.0000000000000E+00
 0.0000000000000E+00
 0.0000000000000E+00
 0.0000000000000E+00
 0.0000000000000E+00
 0.0000000000000E+00
 0.0000000000000E+00
 0.0000000000000E+00
 0.0000000000000E+00
 0.0000000000000E+00
 0.0000000000000E+00
 0.0000000000000E+00
 0.0000000000000E+00
 0.0000000000000E+00
 0.0000000000000E+00
 0.0000000000000E+00
 0.0000000000000E+00
 0.0000000000000E+00
 0.0000000000000E+00
 0.0000000000000E+00
 0.0000000000000E+00
 0.0000000000000E+00
 0.0000000000000E+00
 0.0000000000000E+00
 0.0000000000000E+00
 0.0000000000000E+00
 0.0000000000000E+00
 0.0000000000000E+00
 0.0000000000000E+00
 0.0000000000000E+00
 0.0000000000000E+00
 0.0000000000000E+00
 0.0000000000000E+00
 0.0000000000000E+00
 0.0000000000000E+00
 0.0000000000000E+00
 0.0000000000000E+00
 0.0000000000000E+00
 0.0000000000000E+00
 0.0000000000000E+00
 0.0000000000000E+00
 0.0000000000000E+00
 0.0000000000000E+00
 0.0000000000000E+00
 0.0000000000000E+00
 0.0000000000000E+00
 0.0000000000000E+00
 0.0000000000000E+00
 0.0000000000000E+00
 0.0000000000000E+00
 0.0000000000000E+00
 0.0000000000000E+00
 0.0000000000000E+00
 0.0000000000000E+00
 0.0000000000000E+00
 0.0000000000000E+00
 0.0000000000000E+00
 0.0000000000000E+00
 0.0000000000000E+00
 0.0000000000000E+00
 0.0000000000000E+00
 0.0000000000000E+00
 0.0000000000000E+00
 0.0000000000000E+00
 0.0000000000000E+00
 0.0000000000000E+00
 0.0000000000000E+00
 0.0000000000000E+00
 0.0000000000000E+00
 0.0000000000000E+00
 0.0000000000000E+00
 0.0000000000000E+00
 0.0000000000000E+00
 0.0000000000000E+00
 0.0000000000000E+00
 0.0000000000000E+00
 0.0000000000000E+00
 0.0000000000000E+00
 0.0000000000000E+00
 0.0000000000000E+00
 0.0000000000000E+00
 0.0000000000000E+00
 0.0000000000000E+00
 0.0000000000000E+00
 0.0000000000000E+00
 0.0000000000000E+00
 0.0000000000000E+00
 0.0000000000000E+00
 0.0000000000000E+00
 0.0000000000000E+00
 0.0000000000000E+00
 0.0000000000000E+00
 0.0000000000000E+00
 0.0000000000000E+00
 0.0000000000000E+00
 0.0000000000000E+00
 0.0000000000000E+00
 0.0000000000000E+00
 0.0000000000000E+00
 0.0000000000000E+00
 0.0000000000000E+00
 0.0000000000000E+00
 0.0000000000000E+00
 0.0000000000000E+00
 0.0000000000000E+00
 0.0000000000000E+00
 0.0000000000000E+00
 0.0000000000000E+00
 0.0000000000000E+00
 0.0000000000000E+00
 0.0000000000000E+00
 0.0000000000000E+00
 0.0000000000000E+00
 0.0000000000000E+00
 0.0000000000000E+00
 0.0000000000000E+00
 0.0000000000000E+00
 0.0000000000000E+00
 0.0000000000000E+00
 0.0000000000000E+00
 0.0000000000000E+00
 0.0000000000000E+00
 0.0000000000000E+00
 0.0000000000000E+00
 0.0000000000000E+00
 0.0000000000000E+00
 0.0000000000000E+00
 0.0000000000000E+00
 0.0000000000000E+00
 0.0000000000000E+00
 0.0000000000000E+00
 0.0000000000000E+00
 0.0000000000000E+00
 0.0000000000000E+00
 0.0000000000000E+00
 0.0000000000000E+00
 0.0000000000000E+00
 0.0000000000000E+00
 0.0000000000000E+00
 0.0000000000000E+00
 0.0000000000000E+00
 0.0000000000000E+00
 0.0000000000000E+00
 0.0000000000000E+00
 0.0000000000000E+00
 0.0000000000000E+00
 0.0000000000000E+00
 0.0000000000000E+00
 0.0000000000000E+00
 0.0000000000000E+00
 0.0000000000000E+00
 0.0000000000000E+00
 0.0000000000000E+00
 0.0000000000000E+00
 0.0000000000000E+00
 0.0000000000000E+00
 0.0000000000000E+00
 0.0000000000000E+00
 0.0000000000000E+00
 0.0000000000000E+00
 0.0000000000000E+00
 0.0000000000000E+00
 0.0000000000000E+00
 0.0000000000000E+00
 0.0000000000000E+00
 0.0000000000000E+00
 0.0000000000000E+00
 0.0000000000000E+00
 0.0000000000000E+00
 0.0000000000000E+00
 0.0000000000000E+00
 0.0000000000000E+00
 0.0000000000000E+00
 0.0000000000000E+00
 0.0000000000000E+00
 0.0000000000000E+00
 0.0000000000000E+00
 0.0000000000000E+00
 0.0000000000000E+00
 0.0000000000000E+00
 0.0000000000000E+00
 0.0000000000000E+00
 0.0000000000000E+00
 0.0000000000000E+00
 0.0000000000000E+00
 0.0000000000000E+00
 0.0000000000000E+00
 0.0000000000000E+00
 0.0000000000000E+00
 0.0000000000000E+00
 0.0000000000000E+00
 0.0000000000000E+00
 0.0000000000000E+00
 0.0000000000000E+00
 0.0000000000000E+00
 0.0000000000000E+00
 0.0000000000000E+00
 0.0000000000000E+00
 0.0000000000000E+00
 0.0000000000000E+00
 0.0000000000000E+00
 0.0000000000000E+00
 0.0000000000000E+00
 0.0000000000000E+00
 0.0000000000000E+00
 0.0000000000000E+00
 0.0000000000000E+00
 0.0000000000000E+00
 0.0000000000000E+00
 0.0000000000000E+00
 0.0000000000000E+00
 0.0000000000000E+00
 0.0000000000000E+00
 0.0000000000000E+00
 0.0000000000000E+00
 0.0000000000000E+00
 0.0000000000000E+00
 0.0000000000000E+00
 0.0000000000000E+00
 0.0000000000000E+00
 0.0000000000000E+00
 0.0000000000000E+00
 0.0000000000000E+00
 0.0000000000000E+00
 0.0000000000000E+00
 0.0000000000000E+00
 0.0000000000000E+00
 0.0000000000000E+00
 0.0000000000000E+00
 0.0000000000000E+00
 0.0000000000000E+00
 0.0000000000000E+00
 0.0000000000000E+00
 0.0000000000000E+00
 0.0000000000000E+00
 0.0000000000000E+00
 0.0000000000000E+00
 0.0000000000000E+00
 0.0000000000000E+00
 0.0000000000000E+00
 0.0000000000000E+00
 0.0000000000000E+00
 0.0000000000000E+00
 0.0000000000000E+00
 0.0000000000000E+00
 0.0000000000000E+00
 0.0000000000000E+00
 0.0000000000000E+00
 0.0000000000000E+00
 0.0000000000000E+00
 0.0000000000000E+00
 0.0000000000000E+00
 0.0000000000000E+00
 0.0000000000000E+00
 0.0000000000000E+00
 0.0000000000000E+00
 0.0000000000000E+00
 0.0000000000000E+00
 0.0000000000000E+00
 0.0000000000000E+00
 0.0000000000000E+00
 0.0000000000000E+00
 0.0000000000000E+00
 0.0000000000000E+00
 0.0000000000000E+00
 0.0000000000000E+00
 0.0000000000000E+00
 0.0000000000000E+00
 0.0000000000000E+00
 0.0000000000000E+00
 0.0000000000000E+00
 0.0000000000000E+00
 0.0000000000000E+00
 0.0000000000000E+00
 0.0000000000000E+00
 0.0000000000000E+00
 0.0000000000000E+00
 0.0000000000000E+00
 0.0000000000000E+00
 0.0000000000000E+00
 0.0000000000000E+00
 0.0000000000000E+00
 0.0000000000000E+00
 0.0000000000000E+00
 0.0000000000000E+00
 0.0000000000000E+00
 0.0000000000000E+00
 0.0000000000000E+00
 0.0000000000000E+00
 0.0000000000000E+00
 0.0000000000000E+00
 0.0000000000000E+00
 0.0000000000000E+00
 0.0000000000000E+00
 0.0000000000000E+00
 0.0000000000000E+00
 0.0000000000000E+00
 0.0000000000000E+00
 0.0000000000000E+00
 0.0000000000000E+00
 0.0000000000000E+00
 0.0000000000000E+00
 0.0000000000000E+00
 0.0000000000000E+00
 0.0000000000000E+00
 0.0000000000000E+00
 0.0000000000000E+00
 0.0000000000000E+00
 0.0000000000000E+00
 0.0000000000000E+00
 0.0000000000000E+00
 0.0000000000000E+00
 0.0000000000000E+00
 0.0000000000000E+00
 0.0000000000000E+00
 0.0000000000000E+00
 0.0000000000000E+00
 0.0000000000000E+00
 0.0000000000000E+00
 0.0000000000000E+00
 0.0000000000000E+00
 0.0000000000000E+00
 0.0000000000000E+00
 0.0000000000000E+00
 0.0000000000000E+00
 0.0000000000000E+00
 0.0000000000000E+00
 0.0000000000000E+00
 0.0000000000000E+00
 0.0000000000000E+00
 0.0000000000000E+00
 0.0000000000000E+00
 0.0000000000000E+00
 0.0000000000000E+00
 0.0000000000000E+00
 0.0000000000000E+00
 0.0000000000000E+00
 0.0000000000000E+00
 0.0000000000000E+00
 0.0000000000000E+00
 0.0000000000000E+00
 0.0000000000000E+00
 0.0000000000000E+00
 0.0000000000000E+00
 0.0000000000000E+00
 0.0000000000000E+00
 0.0000000000000E+00
 0.0000000000000E+00
 0.0000000000000E+00
 0.0000000000000E+00
 0.0000000000000E+00
 0.0000000000000E+00
 0.0000000000000E+00
 0.0000000000000E+00
 0.0000000000000E+00
 0.0000000000000E+00
 0.0000000000000E+00
 0.0000000000000E+00
 0.0000000000000E+00
 0.0000000000000E+00
 0.0000000000000E+00
 0.0000000000000E+00
 0.0000000000000E+00
 0.0000000000000E+00
 0.0000000000000E+00
 0.0000000000000E+00
 0.0000000000000E+00
 0.0000000000000E+00
 0.0000000000000E+00
 0.0000000000000E+00
 0.0000000000000E+00
 0.0000000000000E+00
 0.0000000000000E+00
 0.0000000000000E+00
 0.0000000000000E+00
 0.0000000000000E+00
 0.0000000000000E+00
 0.0000000000000E+00
 0.0000000000000E+00
 0.0000000000000E+00
 0.0000000000000E+00
 0.0000000000000E+00
 0.0000000000000E+00
 0.0000000000000E+00
 0.0000000000000E+00
 0.0000000000000E+00
 0.0000000000000E+00
 0.0000000000000E+00
 0.0000000000000E+00
 0.0000000000000E+00
 0.0000000000000E+00
 0.0000000000000E+00
 0.0000000000000E+00
 0.0000000000000E+00
 0.0000000000000E+00
 0.0000000000000E+00
 0.0000000000000E+00
 0.0000000000000E+00
 0.0000000000000E+00
 0.0000000000000E+00
 0.0000000000000E+00
 0.0000000000000E+00
 0.0000000000000E+00
 0.0000000000000E+00
 0.0000000000000E+00
 0.0000000000000E+00
 0.0000000000000E+00
 0.0000000000000E+00
 0.0000000000000E+00
 0.0000000000000E+00
 0.0000000000000E+00
 0.0000000000000E+00
 0.0000000000000E+00
 0.0000000000000E+00
 0.0000000000000E+00
 0.0000000000000E+00
 0.0000000000000E+00
 0.0000000000000E+00
 0.0000000000000E+00
 0.0000000000000E+00
 0.0000000000000E+00
 0.0000000000000E+00
 0.0000000000000E+00
 0.0000000000000E+00
 0.0000000000000E+00
 0.0000000000000E+00
 0.0000000000000E+00
 0.0000000000000E+00
 0.0000000000000E+00
 0.0000000000000E+00
 0.0000000000000E+00
 0.0000000000000E+00
 0.0000000000000E+00
 0.0000000000000E+00
 0.0000000000000E+00
 0.0000000000000E+00
 0.0000000000000E+00
 0.0000000000000E+00
 0.0000000000000E+00
 0.0000000000000E+00
 0.0000000000000E+00
 0.0000000000000E+00
 0.0000000000000E+00
 0.0000000000000E+00
 0.0000000000000E+00
 0.0000000000000E+00
 0.0000000000000E+00
 0.0000000000000E+00
 0.0000000000000E+00
 0.0000000000000E+00
 0.0000000000000E+00
 0.0000000000000E+00
 0.0000000000000E+00
 0.0000000000000E+00
 0.0000000000000E+00
 0.0000000000000E+00
 0.0000000000000E+00
 0.0000000000000E+00
 0.0000000000000E+00
 0.0000000000000E+00
 0.0000000000000E+00
 0.0000000000000E+00
 0.0000000000000E+00
 0.0000000000000E+00
 0.0000000000000E+00
 0.0000000000000E+00
 0.0000000000000E+00
 0.0000000000000E+00
 0.0000000000000E+00
 0.0000000000000E+00
 0.0000000000000E+00
 0.0000000000000E+00
 0.0000000000000E+00
 0.0000000000000E+00
 0.0000000000000E+00
 0.0000000000000E+00
 0.0000000000000E+00
 0.0000000000000E+00
 0.0000000000000E+00
 0.0000000000000E+00
 0.0000000000000E+00
 0.0000000000000E+00
 0.0000000000000E+00
 0.0000000000000E+00
 0.0000000000000E+00
 0.0000000000000E+00
 0.0000000000000E+00
 0.0000000000000E+00
 0.0000000000000E+00
 0.0000000000000E+00
 0.0000000000000E+00
 0.0000000000000E+00
 0.0000000000000E+00
 0.0000000000000E+00
 0.0000000000000E+00
 0.0000000000000E+00
 0.0000000000000E+00
 0.0000000000000E+00
 0.0000000000000E+00
 0.0000000000000E+00
 0.0000000000000E+00
 0.0000000000000E+00
 0.0000000000000E+00
 0.0000000000000E+00
 0.0000000000000E+00
 0.0000000000000E+00
 0.0000000000000E+00
 0.0000000000000E+00
 0.0000000000000E+00
 0.0000000000000E+00
 0.0000000000000E+00
 0.0000000000000E+00
 0.0000000000000E+00
 0.0000000000000E+00
 0.0000000000000E+00
 0.0000000000000E+00
 0.0000000000000E+00
 0.0000000000000E+00
 0.0000000000000E+00
 0.0000000000000E+00
 0.0000000000000E+00
 0.0000000000000E+00
 0.0000000000000E+00
 0.0000000000000E+00
 0.0000000000000E+00
 0.0000000000000E+00
 0.0000000000000E+00
 0.0000000000000E+00
 0.0000000000000E+00
 0.0000000000000E+00
 0.0000000000000E+00
 0.0000000000000E+00
 0.0000000000000E+00
 0.0000000000000E+00
 0.0000000000000E+00
 0.0000000000000E+00
 0.0000000000000E+00
 0.0000000000000E+00
 0.0000000000000E+00
 0.0000000000000E+00
 0.0000000000000E+00
 0.0000000000000E+00
 0.0000000000000E+00
 0.0000000000000E+00
 0.0000000000000E+00
 0.0000000000000E+00
 0.0000000000000E+00
 0.0000000000000E+00
 0.0000000000000E+00
 0.0000000000000E+00
 0.0000000000000E+00
 0.0000000000000E+00
 0.0000000000000E+00
 0.0000000000000E+00
 0.0000000000000E+00
 0.0000000000000E+00
 0.0000000000000E+00
 0.0000000000000E+00
 0.0000000000000E+00
 0.0000000000000E+00
 0.0000000000000E+00
 0.0000000000000E+00
 0.0000000000000E+00
 0.0000000000000E+00
 0.0000000000000E+00
 0.0000000000000E+00
 0.0000000000000E+00
 0.0000000000000E+00
 0.0000000000000E+00
 0.0000000000000E+00
 0.0000000000000E+00
 0.0000000000000E+00
 0.0000000000000E+00
 0.0000000000000E+00
 0.0000000000000E+00
 0.0000000000000E+00
 0.0000000000000E+00
 0.0000000000000E+00
 0.0000000000000E+00
 0.0000000000000E+00
 0.0000000000000E+00
 0.0000000000000E+00
 0.0000000000000E+00
 0.0000000000000E+00
 0.0000000000000E+00
 0.0000000000000E+00
 0.0000000000000E+00
 0.0000000000000E+00
 0.0000000000000E+00
 0.0000000000000E+00
 0.0000000000000E+00
 0.0000000000000E+00
 0.0000000000000E+00
 0.0000000000000E+00
 0.0000000000000E+00
 0.0000000000000E+00
 0.0000000000000E+00
 0.0000000000000E+00
 0.0000000000000E+00
 0.0000000000000E+00
 0.0000000000000E+00
 0.0000000000000E+00
 0.0000000000000E+00
 0.0000000000000E+00
 0.0000000000000E+00
 0.0000000000000E+00
 0.0000000000000E+00
 0.0000000000000E+00
 0.0000000000000E+00
 0.0000000000000E+00
 0.0000000000000E+00
 0.0000000000000E+00
 0.0000000000000E+00
 0.0000000000000E+00
 0.0000000000000E+00
 0.0000000000000E+00
 0.0000000000000E+00
 0.0000000000000E+00
 0.0000000000000E+00
 0.0000000000000E+00
 0.0000000000000E+00
 0.0000000000000E+00
 0.0000000000000E+00
 0.0000000000000E+00
 0.0000000000000E+00
 0.0000000000000E+00
 0.0000000000000E+00
 0.0000000000000E+00
 0.0000000000000E+00
 0.0000000000000E+00
 0.0000000000000E+00
 0.0000000000000E+00
 0.0000000000000E+00
 0.0000000000000E+00
 0.0000000000000E+00
 0.0000000000000E+00
 0.0000000000000E+00
 0.0000000000000E+00
 0.0000000000000E+00
 0.0000000000000E+00
 0.0000000000000E+00
 0.0000000000000E+00
 0.0000000000000E+00
 0.0000000000000E+00
 0.0000000000000E+00
 0.0000000000000E+00
 0.0000000000000E+00
 0.0000000000000E+00
 0.0000000000000E+00
 0.0000000000000E+00
 0.0000000000000E+00
 0.0000000000000E+00
 0.0000000000000E+00
 0.0000000000000E+00
 0.0000000000000E+00
 0.0000000000000E+00
 0.0000000000000E+00
 0.0000000000000E+00
 0.0000000000000E+00
 0.0000000000000E+00
 0.0000000000000E+00
 0.0000000000000E+00
 0.0000000000000E+00
 0.0000000000000E+00
 0.0000000000000E+00
 0.0000000000000E+00
 0.0000000000000E+00
 0.0000000000000E+00
 0.0000000000000E+00
 0.0000000000000E+00
 0.0000000000000E+00
 0.0000000000000E+00
 0.0000000000000E+00
 0.0000000000000E+00
 0.0000000000000E+00
 0.0000000000000E+00
 0.0000000000000E+00
 0.0000000000000E+00
 0.0000000000000E+00
 0.0000000000000E+00
 0.0000000000000E+00
 0.0000000000000E+00
 0.0000000000000E+00
 0.0000000000000E+00
 0.0000000000000E+00
 0.0000000000000E+00
 0.0000000000000E+00
 0.0000000000000E+00
 0.0000000000000E+00
 0.0000000000000E+00
 0.0000000000000E+00
 0.0000000000000E+00
 0.0000000000000E+00
 0.0000000000000E+00
 0.0000000000000E+00
 0.0000000000000E+00
 0.0000000000000E+00
 0.0000000000000E+00
 0.0000000000000E+00
 0.0000000000000E+00
 0.0000000000000E+00
 0.0000000000000E+00
 0.0000000000000E+00
 0.0000000000000E+00
 0.0000000000000E+00
 0.0000000000000E+00
 0.0000000000000E+00
 0.0000000000000E+00
 0.0000000000000E+00
 0.0000000000000E+00
 0.0000000000000E+00
 0.0000000000000E+00
 0.0000000000000E+00
 0.0000000000000E+00
 0.0000000000000E+00
 0.0000000000000E+00
 0.0000000000000E+00
 0.0000000000000E+00
 0.0000000000000E+00
 0.0000000000000E+00
 0.0000000000000E+00
 0.0000000000000E+00
 0.0000000000000E+00
 0.0000000000000E+00
 0.0000000000000E+00
 0.0000000000000E+00
 0.0000000000000E+00
 0.0000000000000E+00
 0.0000000000000E+00
 0.0000000000000E+00
 0.0000000000000E+00
 0.0000000000000E+00
 0.0000000000000E+00
 0.0000000000000E+00
 0.0000000000000E+00
 0.0000000000000E+00
 0.0000000000000E+00
 0.0000000000000E+00
 0.0000000000000E+00
 0.0000000000000E+00
 0.0000000000000E+00
 0.0000000000000E+00
 0.0000000000000E+00
 0.0000000000000E+00
 0.0000000000000E+00
 0.0000000000000E+00
 0.0000000000000E+00
 0.0000000000000E+00
 0.0000000000000E+00
 0.0000000000000E+00
 0.0000000000000E+00
 0.0000000000000E+00
 0.0000000000000E+00
 0.0000000000000E+00
 0.0000000000000E+00
 0.0000000000000E+00
 0.0000000000000E+00
 0.0000000000000E+00
 0.0000000000000E+00
 0.0000000000000E+00
 0.0000000000000E+00
 0.0000000000000E+00
 0.0000000000000E+00
 0.0000000000000E+00
 0.0000000000000E+00
 0.0000000000000E+00
 0.0000000000000E+00
 0.0000000000000E+00
 0.0000000000000E+00
 0.0000000000000E+00
 0.0000000000000E+00
 0.0000000000000E+00
 0.0000000000000E+00
 0.0000000000000E+00
 0.0000000000000E+00
 0.0000000000000E+00
 0.0000000000000E+00
 0.0000000000000E+00
 0.0000000000000E+00
 0.0000000000000E+00
 0.0000000000000E+00
 0.0000000000000E+00
 0.0000000000000E+00
 0.0000000000000E+00
 0.0000000000000E+00
 0.0000000000000E+00
 0.0000000000000E+00
 0.0000000000000E+00
 0.0000000000000E+00
 0.0000000000000E+00
 0.0000000000000E+00
 0.0000000000000E+00
 0.0000000000000E+00
 0.0000000000000E+00
 0.0000000000000E+00
 0.0000000000000E+00
 0.0000000000000E+00
 0.0000000000000E+00
 0.0000000000000E+00
 0.0000000000000E+00
 0.0000000000000E+00
 0.0000000000000E+00
 0.0000000000000E+00
 0.0000000000000E+00
 0.0000000000000E+00
 0.0000000000000E+00
 0.0000000000000E+00
 0.0000000000000E+00
 0.0000000000000E+00
 0.0000000000000E+00
 0.0000000000000E+00
 0.0000000000000E+00
 0.0000000000000E+00
 0.0000000000000E+00
 0.0000000000000E+00
 0.0000000000000E+00
 0.0000000000000E+00
 0.0000000000000E+00
 0.0000000000000E+00
 0.0000000000000E+00
 0.0000000000000E+00
 0.0000000000000E+00
 0.0000000000000E+00
 0.0000000000000E+00
 0.0000000000000E+00
 0.0000000000000E+00
 0.0000000000000E+00
 0.0000000000000E+00
 0.0000000000000E+00
 0.0000000000000E+00
 0.0000000000000E+00
 0.0000000000000E+00
 0.0000000000000E+00
 0.0000000000000E+00
 0.0000000000000E+00
 0.0000000000000E+00
 0.0000000000000E+00
 0.0000000000000E+00
 0.0000000000000E+00
 0.0000000000000E+00
 0.0000000000000E+00
 0.0000000000000E+00
 0.0000000000000E+00
 0.0000000000000E+00
 0.0000000000000E+00
 0.0000000000000E+00
 0.0000000000000E+00
 0.0000000000000E+00
 0.0000000000000E+00
 0.0000000000000E+00
 0.0000000000000E+00
 0.0000000000000E+00
 0.0000000000000E+00
 0.0000000000000E+00
 0.0000000000000E+00
 0.0000000000000E+00
 0.0000000000000E+00
 0.0000000000000E+00
 0.0000000000000E+00
 0.0000000000000E+00
 0.0000000000000E+00
 0.0000000000000E+00
 0.0000000000000E+00
 0.0000000000000E+00
 0.0000000000000E+00
 0.0000000000000E+00
 0.0000000000000E+00
 0.0000000000000E+00
 0.0000000000000E+00
 0.0000000000000E+00
 0.0000000000000E+00
 0.0000000000000E+00
 0.0000000000000E+00
 0.0000000000000E+00
 0.0000000000000E+00
 0.0000000000000E+00
 0.0000000000000E+00
 0.0000000000000E+00
 0.0000000000000E+00
 0.0000000000000E+00
 0.0000000000000E+00
 0.0000000000000E+00
 0.0000000000000E+00
 0.0000000000000E+00
 0.0000000000000E+00
 0.0000000000000E+00
 0.0000000000000E+00
 0.0000000000000E+00
 0.0000000000000E+00
 0.0000000000000E+00
 0.0000000000000E+00
 0.0000000000000E+00
 0.0000000000000E+00
 0.0000000000000E+00
 0.0000000000000E+00
 0.0000000000000E+00
 0.0000000000000E+00
 0.0000000000000E+00
 0.0000000000000E+00
 0.0000000000000E+00
 0.0000000000000E+00
 0.0000000000000E+00
 0.0000000000000E+00
 0.0000000000000E+00
 0.0000000000000E+00
 0.0000000000000E+00
 0.0000000000000E+00
 0.0000000000000E+00
 0.0000000000000E+00
 0.0000000000000E+00
 0.0000000000000E+00
 0.0000000000000E+00
 0.0000000000000E+00
 0.0000000000000E+00
 0.0000000000000E+00
 0.0000000000000E+00
 0.0000000000000E+00
 0.0000000000000E+00
 0.0000000000000E+00
 0.0000000000000E+00
 0.0000000000000E+00
 0.0000000000000E+00
 0.0000000000000E+00
 0.0000000000000E+00
 0.0000000000000E+00
 0.0000000000000E+00
 0.0000000000000E+00
 0.0000000000000E+00
 0.0000000000000E+00
 0.0000000000000E+00
 0.0000000000000E+00
 0.0000000000000E+00
 0.0000000000000E+00
 0.0000000000000E+00
 0.0000000000000E+00
 0.0000000000000E+00
 0.0000000000000E+00
 0.0000000000000E+00
 0.0000000000000E+00
 0.0000000000000E+00
 0.0000000000000E+00
 0.0000000000000E+00
 0.0000000000000E+00
 0.0000000000000E+00
 0.0000000000000E+00
 0.0000000000000E+00
 0.0000000000000E+00
 0.0000000000000E+00
 0.0000000000000E+00
 0.0000000000000E+00
 0.0000000000000E+00
 0.0000000000000E+00
 0.0000000000000E+00
 0.0000000000000E+00
 0.0000000000000E+00
 0.0000000000000E+00
 0.0000000000000E+00
 0.0000000000000E+00
 0.0000000000000E+00
 0.0000000000000E+00
 0.0000000000000E+00
 0.0000000000000E+00
 0.0000000000000E+00
 0.0000000000000E+00
 0.0000000000000E+00
 0.0000000000000E+00
 0.0000000000000E+00
 0.0000000000000E+00
 0.0000000000000E+00
 0.0000000000000E+00
 0.0000000000000E+00
 0.0000000000000E+00
 0.0000000000000E+00
 0.0000000000000E+00
 0.0000000000000E+00
 0.0000000000000E+00
 0.0000000000000E+00
 0.0000000000000E+00
 0.0000000000000E+00
 0.0000000000000E+00
 0.0000000000000E+00
 0.0000000000000E+00
 0.0000000000000E+00
 0.0000000000000E+00
 0.0000000000000E+00
 0.0000000000000E+00
 0.0000000000000E+00
 0.0000000000000E+00
 0.0000000000000E+00
 0.0000000000000E+00
 0.0000000000000E+00
 0.0000000000000E+00
 0.0000000000000E+00
 0.0000000000000E+00
 0.0000000000000E+00
 0.0000000000000E+00
 0.0000000000000E+00
 0.0000000000000E+00
 0.0000000000000E+00
 0.0000000000000E+00
 0.0000000000000E+00
 0.0000000000000E+00
 0.0000000000000E+00
 0.0000000000000E+00
 0.0000000000000E+00
 0.0000000000000E+00
 0.0000000000000E+00
 0.0000000000000E+00
 0.0000000000000E+00
 0.0000000000000E+00
 0.0000000000000E+00
 0.0000000000000E+00
 0.0000000000000E+00
 0.0000000000000E+00
 0.0000000000000E+00
 0.0000000000000E+00
 0.0000000000000E+00
 0.0000000000000E+00
 0.0000000000000E+00
 0.0000000000000E+00
 0.0000000000000E+00
 0.0000000000000E+00
 0.0000000000000E+00
 0.0000000000000E+00
 0.0000000000000E+00
 0.0000000000000E+00
 0.0000000000000E+00
 0.0000000000000E+00
 0.0000000000000E+00
 0.0000000000000E+00
 0.0000000000000E+00
 0.0000000000000E+00
 0.0000000000000E+00
 0.0000000000000E+00
 0.0000000000000E+00
 0.0000000000000E+00
 0.0000000000000E+00
 0.0000000000000E+00
 0.0000000000000E+00
 0.0000000000000E+00
 0.0000000000000E+00
 0.0000000000000E+00
 0.0000000000000E+00
 0.0000000000000E+00
 0.0000000000000E+00
 0.0000000000000E+00
 0.0000000000000E+00
 0.0000000000000E+00
 0.0000000000000E+00
 0.0000000000000E+00
 0.0000000000000E+00
 0.0000000000000E+00
 0.0000000000000E+00
 0.0000000000000E+00
 0.0000000000000E+00
 0.0000000000000E+00
 0.0000000000000E+00
 0.0000000000000E+00
 0.0000000000000E+00
 0.0000000000000E+00
 0.0000000000000E+00
 0.0000000000000E+00
 0.0000000000000E+00
 0.0000000000000E+00
 0.0000000000000E+00
 0.0000000000000E+00
 0.0000000000000E+00
 0.0000000000000E+00
 0.0000000000000E+00
 0.0000000000000E+00
 0.0000000000000E+00
 0.0000000000000E+00
 0.0000000000000E+00
 0.0000000000000E+00
 0.0000000000000E+00
 0.0000000000000E+00
 0.0000000000000E+00
 0.0000000000000E+00
 0.0000000000000E+00
 0.0000000000000E+00
 0.0000000000000E+00
 0.0000000000000E+00
 0.0000000000000E+00
 0.0000000000000E+00
 0.0000000000000E+00
 0.0000000000000E+00
 0.0000000000000E+00
 0.0000000000000E+00
 0.0000000000000E+00
 0.0000000000000E+00
 0.0000000000000E+00
 0.0000000000000E+00
 0.0000000000000E+00
 0.0000000000000E+00
 0.0000000000000E+00
 0.0000000000000E+00
 0.0000000000000E+00
 0.0000000000000E+00
 0.0000000000000E+00
 0.0000000000000E+00
 0.0000000000000E+00
 0.0000000000000E+00
 0.0000000000000E+00
 0.0000000000000E+00
 0.0000000000000E+00
 0.0000000000000E+00
 0.0000000000000E+00
 0.0000000000000E+00
 0.0000000000000E+00
 0.0000000000000E+00
 0.0000000000000E+00
 0.0000000000000E+00
 0.0000000000000E+00
 0.0000000000000E+00
 0.0000000000000E+00
 0.0000000000000E+00
 0.0000000000000E+00
 0.0000000000000E+00
 0.0000000000000E+00
 0.0000000000000E+00
 0.0000000000000E+00
 0.0000000000000E+00
 0.0000000000000E+00
 0.0000000000000E+00
 0.0000000000000E+00
 0.0000000000000E+00
 0.0000000000000E+00
 0.0000000000000E+00
 0.0000000000000E+00
 0.0000000000000E+00
 0.0000000000000E+00
 0.0000000000000E+00
 0.0000000000000E+00
 0.0000000000000E+00
 0.0000000000000E+00
 0.0000000000000E+00
 0.0000000000000E+00
 0.0000000000000E+00
 0.0000000000000E+00
 0.0000000000000E+00
 0.0000000000000E+00
 0.0000000000000E+00
 0.0000000000000E+00
 0.0000000000000E+00
 0.0000000000000E+00
 0.0000000000000E+00
 0.0000000000000E+00
 0.0000000000000E+00
 0.0000000000000E+00
 0.0000000000000E+00
 0.0000000000000E+00
 0.0000000000000E+00
 0.0000000000000E+00
 0.0000000000000E+00
 0.0000000000000E+00
 0.0000000000000E+00
 0.0000000000000E+00
 0.0000000000000E+00
 0.0000000000000E+00
 0.0000000000000E+00
 0.0000000000000E+00
 0.0000000000000E+00
 0.0000000000000E+00
 0.0000000000000E+00
 0.0000000000000E+00
 0.0000000000000E+00
 0.0000000000000E+00
 0.0000000000000E+00
 0.0000000000000E+00
 0.0000000000000E+00
 0.0000000000000E+00
 0.0000000000000E+00
 0.0000000000000E+00
 0.0000000000000E+00
 0.0000000000000E+00
 0.0000000000000E+00
 0.0000000000000E+00
 0.0000000000000E+00
 0.0000000000000E+00
 0.0000000000000E+00
 0.0000000000000E+00
 0.0000000000000E+00
 0.0000000000000E+00
 0.0000000000000E+00
 0.0000000000000E+00
 0.0000000000000E+00
 0.0000000000000E+00
 0.0000000000000E+00
 0.0000000000000E+00
 0.0000000000000E+00
 0.0000000000000E+00
 0.0000000000000E+00
 0.0000000000000E+00
 0.0000000000000E+00
 0.0000000000000E+00
 0.0000000000000E+00
 0.0000000000000E+00
 0.0000000000000E+00
 0.0000000000000E+00
 0.0000000000000E+00
 0.0000000000000E+00
 0.0000000000000E+00
 0.0000000000000E+00
 0.0000000000000E+00
 0.0000000000000E+00
 0.0000000000000E+00
 0.0000000000000E+00
 0.0000000000000E+00
 0.0000000000000E+00
 0.0000000000000E+00
 0.0000000000000E+00
 0.0000000000000E+00
 0.0000000000000E+00
 0.0000000000000E+00
 0.0000000000000E+00
 0.0000000000000E+00
 0.0000000000000E+00
 0.0000000000000E+00
 0.0000000000000E+00
 0.0000000000000E+00
 0.0000000000000E+00
 0.0000000000000E+00
 0.0000000000000E+00
 0.0000000000000E+00
 0.0000000000000E+00
 0.0000000000000E+00
 0.0000000000000E+00
 0.0000000000000E+00
 0.0000000000000E+00
 0.0000000000000E+00
 0.0000000000000E+00
 0.0000000000000E+00
 0.0000000000000E+00
 0.0000000000000E+00
 0.0000000000000E+00
 0.0000000000000E+00
 0.0000000000000E+00
 0.0000000000000E+00
 0.0000000000000E+00
 0.0000000000000E+00
 0.0000000000000E+00
 0.0000000000000E+00
 0.0000000000000E+00
 0.0000000000000E+00
 0.0000000000000E+00
 0.0000000000000E+00
 0.0000000000000E+00
 0.0000000000000E+00
 0.0000000000000E+00
 0.0000000000000E+00
 0.0000000000000E+00
 0.0000000000000E+00
 0.0000000000000E+00
 0.0000000000000E+00
 0.0000000000000E+00
 0.0000000000000E+00
 0.0000000000000E+00
 0.0000000000000E+00
 0.0000000000000E+00
 0.0000000000000E+00
 0.0000000000000E+00
 0.0000000000000E+00
 0.0000000000000E+00
 0.0000000000000E+00
 0.0000000000000E+00
 0.0000000000000E+00
 0.0000000000000E+00
 0.0000000000000E+00
 0.0000000000000E+00
 0.0000000000000E+00
 0.0000000000000E+00
 0.0000000000000E+00
 0.0000000000000E+00
 0.0000000000000E+00
 0.0000000000000E+00
 0.0000000000000E+00
 0.0000000000000E+00
 0.0000000000000E+00
 0.0000000000000E+00
 0.0000000000000E+00
 0.0000000000000E+00
 0.0000000000000E+00
 0.0000000000000E+00
 0.0000000000000E+00
 0.0000000000000E+00
 0.0000000000000E+00
 0.0000000000000E+00
 0.0000000000000E+00
 0.0000000000000E+00
 0.0000000000000E+00
 0.0000000000000E+00
 0.0000000000000E+00
 0.0000000000000E+00
 0.0000000000000E+00
 0.0000000000000E+00
 0.0000000000000E+00
 0.0000000000000E+00
 0.0000000000000E+00
 0.0000000000000E+00
 0.0000000000000E+00
 0.0000000000000E+00
 0.0000000000000E+00
 0.0000000000000E+00
 0.0000000000000E+00
 0.0000000000000E+00
 0.0000000000000E+00
 0.0000000000000E+00
 0.0000000000000E+00
 0.0000000000000E+00
 0.0000000000000E+00
 0.0000000000000E+00
 0.0000000000000E+00
 0.0000000000000E+00
 0.0000000000000E+00
 0.0000000000000E+00
 0.0000000000000E+00
 0.0000000000000E+00
 0.0000000000000E+00
 0.0000000000000E+00
 0.0000000000000E+00
 0.0000000000000E+00
 0.0000000000000E+00
 0.0000000000000E+00
 0.0000000000000E+00
 0.0000000000000E+00
 0.0000000000000E+00
 0.0000000000000E+00
 0.0000000000000E+00
 0.0000000000000E+00
 0.0000000000000E+00
 0.0000000000000E+00
 0.0000000000000E+00
 0.0000000000000E+00
 0.0000000000000E+00
 0.0000000000000E+00
 0.0000000000000E+00
 0.0000000000000E+00
 0.0000000000000E+00
 0.0000000000000E+00
 0.0000000000000E+00
 0.0000000000000E+00
 0.0000000000000E+00
 0.0000000000000E+00
 0.0000000000000E+00
 0.0000000000000E+00
 0.0000000000000E+00
 0.0000000000000E+00
 0.0000000000000E+00
 0.0000000000000E+00
 0.0000000000000E+00
 0.0000000000000E+00
 0.0000000000000E+00
 0.0000000000000E+00
 0.0000000000000E+00
 0.0000000000000E+00
 0.0000000000000E+00
 0.0000000000000E+00
 0.0000000000000E+00
 0.0000000000000E+00
 0.0000000000000E+00
 0.0000000000000E+00
 0.0000000000000E+00
 0.0000000000000E+00
 0.0000000000000E+00
 0.0000000000000E+00
 0.0000000000000E+00
 0.0000000000000E+00
 0.0000000000000E+00
 0.0000000000000E+00
 0.0000000000000E+00
 0.0000000000000E+00
 0.0000000000000E+00
 0.0000000000000E+00
 0.0000000000000E+00
 0.0000000000000E+00
 0.0000000000000E+00
 0.0000000000000E+00
 0.0000000000000E+00
 0.0000000000000E+00
 0.0000000000000E+00
 0.0000000000000E+00
 0.0000000000000E+00
 0.0000000000000E+00
 0.0000000000000E+00
 0.0000000000000E+00
 0.0000000000000E+00
 0.0000000000000E+00
 0.0000000000000E+00
 0.0000000000000E+00
 0.0000000000000E+00
 0.0000000000000E+00
 0.0000000000000E+00
 0.0000000000000E+00
 0.0000000000000E+00
 0.0000000000000E+00
 0.0000000000000E+00
 0.0000000000000E+00
 0.0000000000000E+00
 0.0000000000000E+00
 0.0000000000000E+00
 0.0000000000000E+00
 0.0000000000000E+00
 0.0000000000000E+00
 0.0000000000000E+00
 0.0000000000000E+00
 0.0000000000000E+00
 0.0000000000000E+00
 0.0000000000000E+00
 0.0000000000000E+00
 0.0000000000000E+00
 0.0000000000000E+00
 0.0000000000000E+00
 0.0000000000000E+00
 0.0000000000000E+00
 0.0000000000000E+00
 0.0000000000000E+00
 0.0000000000000E+00
 0.0000000000000E+00
 0.0000000000000E+00
 0.0000000000000E+00
 0.0000000000000E+00
 0.0000000000000E+00
 0.0000000000000E+00
 0.0000000000000E+00
 0.0000000000000E+00
 0.0000000000000E+00
 0.0000000000000E+00
 0.0000000000000E+00
 0.0000000000000E+00
 0.0000000000000E+00
 0.0000000000000E+00
 0.0000000000000E+00
 0.0000000000000E+00
 0.0000000000000E+00
 0.0000000000000E+00
 0.0000000000000E+00
 0.0000000000000E+00
 0.0000000000000E+00
 0.0000000000000E+00
 0.0000000000000E+00
 0.0000000000000E+00
 0.0000000000000E+00
 0.0000000000000E+00
 0.0000000000000E+00
 0.0000000000000E+00
 0.0000000000000E+00
 0.0000000000000E+00
 0.0000000000000E+00
 0.0000000000000E+00
 0.0000000000000E+00
 0.0000000000000E+00
 0.0000000000000E+00
 0.0000000000000E+00
 0.0000000000000E+00
 0.0000000000000E+00
 0.0000000000000E+00
 0.0000000000000E+00
 0.0000000000000E+00
 0.0000000000000E+00
 0.0000000000000E+00
 0.0000000000000E+00
 0.0000000000000E+00
 0.0000000000000E+00
 0.0000000000000E+00
 0.0000000000000E+00
 0.0000000000000E+00
 0.0000000000000E+00
 0.0000000000000E+00
 0.0000000000000E+00
 0.0000000000000E+00
 0.0000000000000E+00
 0.0000000000000E+00
 0.0000000000000E+00
 0.0000000000000E+00
 0.0000000000000E+00
 0.0000000000000E+00
 0.0000000000000E+00
 0.0000000000000E+00
 0.0000000000000E+00
 0.0000000000000E+00
 0.0000000000000E+00
 0.0000000000000E+00
 0.0000000000000E+00
 0.0000000000000E+00
 0.0000000000000E+00
 0.0000000000000E+00
 0.0000000000000E+00
 0.0000000000000E+00
 0.0000000000000E+00
 0.0000000000000E+00
 0.0000000000000E+00
 0.0000000000000E+00
 0.0000000000000E+00
 0.0000000000000E+00
 0.0000000000000E+00
 0.0000000000000E+00
 0.0000000000000E+00
 0.0000000000000E+00
 0.0000000000000E+00
 0.0000000000000E+00
 0.0000000000000E+00
 0.0000000000000E+00
 0.0000000000000E+00
 0.0000000000000E+00
 0.0000000000000E+00
 0.0000000000000E+00
 0.0000000000000E+00
 0.0000000000000E+00
 0.0000000000000E+00
 0.0000000000000E+00
 0.0000000000000E+00
 0.0000000000000E+00
 0.0000000000000E+00
 0.0000000000000E+00
 0.0000000000000E+00
 0.0000000000000E+00
 0.0000000000000E+00
 0.0000000000000E+00
 0.0000000000000E+00
 0.0000000000000E+00
 0.0000000000000E+00
 0.0000000000000E+00
 0.0000000000000E+00
 0.0000000000000E+00
 0.0000000000000E+00
 0.0000000000000E+00
 0.0000000000000E+00
 0.0000000000000E+00
 0.0000000000000E+00
 0.0000000000000E+00
 0.0000000000000E+00
 0.0000000000000E+00
 0.0000000000000E+00
 0.0000000000000E+00
 0.0000000000000E+00
 0.0000000000000E+00
 0.0000000000000E+00
 0.0000000000000E+00
 0.0000000000000E+00
 0.0000000000000E+00
 0.0000000000000E+00
 0.0000000000000E+00
 0.0000000000000E+00
 0.0000000000000E+00
 0.0000000000000E+00
 0.0000000000000E+00
 0.0000000000000E+00
 0.0000000000000E+00
 0.0000000000000E+00
 0.0000000000000E+00
 0.0000000000000E+00
 0.0000000000000E+00
 0.0000000000000E+00
 0.0000000000000E+00
 0.0000000000000E+00
 0.0000000000000E+00
 0.0000000000000E+00
 0.0000000000000E+00
 0.0000000000000E+00
 0.0000000000000E+00
 0.0000000000000E+00
 0.0000000000000E+00
 0.0000000000000E+00
 0.0000000000000E+00
 0.0000000000000E+00
 0.0000000000000E+00
 0.0000000000000E+00
 0.0000000000000E+00
 0.0000000000000E+00
 0.0000000000000E+00
 0.0000000000000E+00
 0.0000000000000E+00
 0.0000000000000E+00
 0.0000000000000E+00
 0.0000000000000E+00
 0.0000000000000E+00
 0.0000000000000E+00
 0.0000000000000E+00
 0.0000000000000E+00
 0.0000000000000E+00
 0.0000000000000E+00
 0.0000000000000E+00
 0.0000000000000E+00
 0.0000000000000E+00
 0.0000000000000E+00
 0.0000000000000E+00
 0.0000000000000E+00
 0.0000000000000E+00
 0.0000000000000E+00
 0.0000000000000E+00
 0.0000000000000E+00
 0.0000000000000E+00
 0.0000000000000E+00
 0.0000000000000E+00
 0.0000000000000E+00
 0.0000000000000E+00
 0.0000000000000E+00
 0.0000000000000E+00
 0.0000000000000E+00
 0.0000000000000E+00
 0.0000000000000E+00
 0.0000000000000E+00
 0.0000000000000E+00
 0.0000000000000E+00
 0.0000000000000E+00
 0.0000000000000E+00
 0.0000000000000E+00
 0.0000000000000E+00
 0.0000000000000E+00
 0.0000000000000E+00
 0.0000000000000E+00
 0.0000000000000E+00
 0.0000000000000E+00
 0.0000000000000E+00
 0.0000000000000E+00
 0.0000000000000E+00
 0.0000000000000E+00
 0.0000000000000E+00
 0.0000000000000E+00
 0.0000000000000E+00
 0.0000000000000E+00
 0.0000000000000E+00
 0.0000000000000E+00
 0.0000000000000E+00
 0.0000000000000E+00
 0.0000000000000E+00
 0.0000000000000E+00
 0.0000000000000E+00
 0.0000000000000E+00
 0.0000000000000E+00
 0.0000000000000E+00
 0.0000000000000E+00
 0.0000000000000E+00
 0.0000000000000E+00
 0.0000000000000E+00
 0.0000000000000E+00
 0.0000000000000E+00
 0.0000000000000E+00
 0.0000000000000E+00
 0.0000000000000E+00
 0.0000000000000E+00
 0.0000000000000E+00
 0.0000000000000E+00
 0.0000000000000E+00
 0.0000000000000E+00
 0.0000000000000E+00
 0.0000000000000E+00
 0.0000000000000E+00
 0.0000000000000E+00
 0.0000000000000E+00
 0.0000000000000E+00
 0.0000000000000E+00
 0.0000000000000E+00
 0.0000000000000E+00
 0.0000000000000E+00
 0.0000000000000E+00
 0.0000000000000E+00
 0.0000000000000E+00
 0.0000000000000E+00
 0.0000000000000E+00
 0.0000000000000E+00
 0.0000000000000E+00
 0.0000000000000E+00
 0.0000000000000E+00
 0.0000000000000E+00
 0.0000000000000E+00
 0.0000000000000E+00
 0.0000000000000E+00
 0.0000000000000E+00
 0.0000000000000E+00
 0.0000000000000E+00
 0.0000000000000E+00
 0.0000000000000E+00
 0.0000000000000E+00
 0.0000000000000E+00
 0.0000000000000E+00
 0.0000000000000E+00
 0.0000000000000E+00
 0.0000000000000E+00
 0.0000000000000E+00
 0.0000000000000E+00
 0.0000000000000E+00
 0.0000000000000E+00
 0.0000000000000E+00
 0.0000000000000E+00
 0.0000000000000E+00
 0.0000000000000E+00
 0.0000000000000E+00
 0.0000000000000E+00
 0.0000000000000E+00
 0.0000000000000E+00
 0.0000000000000E+00
 0.0000000000000E+00
 0.0000000000000E+00
 0.0000000000000E+00
 0.0000000000000E+00
 0.0000000000000E+00
 0.0000000000000E+00
 0.0000000000000E+00
 0.0000000000000E+00
 0.0000000000000E+00
 0.0000000000000E+00
 0.0000000000000E+00
 0.0000000000000E+00
 0.0000000000000E+00
 0.0000000000000E+00
 0.0000000000000E+00
 0.0000000000000E+00
 0.0000000000000E+00
 0.0000000000000E+00
 0.0000000000000E+00
 0.0000000000000E+00
 0.0000000000000E+00
 0.0000000000000E+00
 0.0000000000000E+00
 0.0000000000000E+00
 0.0000000000000E+00
 0.0000000000000E+00
 0.0000000000000E+00
 0.0000000000000E+00
 0.0000000000000E+00
 0.0000000000000E+00
 0.0000000000000E+00
 0.0000000000000E+00
 0.0000000000000E+00
 0.0000000000000E+00
 0.0000000000000E+00
 0.0000000000000E+00
 0.0000000000000E+00
 0.0000000000000E+00
 0.0000000000000E+00
 0.0000000000000E+00
 0.0000000000000E+00
 0.0000000000000E+00
 0.0000000000000E+00
 0.0000000000000E+00
 0.0000000000000E+00
 0.0000000000000E+00
 0.0000000000000E+00
 0.0000000000000E+00
 0.0000000000000E+00
 0.0000000000000E+00
 0.0000000000000E+00
 0.0000000000000E+00
 0.0000000000000E+00
 0.0000000000000E+00
 0.0000000000000E+00
 0.0000000000000E+00
 0.0000000000000E+00
 0.0000000000000E+00
 0.0000000000000E+00
 0.0000000000000E+00
 0.0000000000000E+00
 0.0000000000000E+00
 0.0000000000000E+00
 0.0000000000000E+00
 0.0000000000000E+00
 0.0000000000000E+00
 0.0000000000000E+00
 0.0000000000000E+00
 0.0000000000000E+00
 0.0000000000000E+00
 0.0000000000000E+00
 0.0000000000000E+00
 0.0000000000000E+00
 0.0000000000000E+00
 0.0000000000000E+00
 0.0000000000000E+00
 0.0000000000000E+00
 0.0000000000000E+00
 0.0000000000000E+00
 0.0000000000000E+00
 0.0000000000000E+00
 0.0000000000000E+00
 0.0000000000000E+00
 0.0000000000000E+00
 0.0000000000000E+00
 0.0000000000000E+00
 0.0000000000000E+00
 0.0000000000000E+00
 0.0000000000000E+00
 0.0000000000000E+00
 0.0000000000000E+00
 0.0000000000000E+00
 0.0000000000000E+00
 0.0000000000000E+00
 0.0000000000000E+00
 0.0000000000000E+00
 0.0000000000000E+00
 0.0000000000000E+00
 0.0000000000000E+00
 0.0000000000000E+00
 0.0000000000000E+00
 0.0000000000000E+00
 0.0000000000000E+00
 0.0000000000000E+00
 0.0000000000000E+00
 0.0000000000000E+00
 0.0000000000000E+00
 0.0000000000000E+00
 0.0000000000000E+00
 0.0000000000000E+00
 0.0000000000000E+00
 0.0000000000000E+00
 0.0000000000000E+00
 0.0000000000000E+00
 0.0000000000000E+00
 0.0000000000000E+00
 0.0000000000000E+00
 0.0000000000000E+00
 0.0000000000000E+00
 0.0000000000000E+00
 0.0000000000000E+00
 0.0000000000000E+00
 0.0000000000000E+00
 0.0000000000000E+00
 0.0000000000000E+00
 0.0000000000000E+00
 0.0000000000000E+00
 0.0000000000000E+00
 0.0000000000000E+00
 0.0000000000000E+00
 0.0000000000000E+00
 0.0000000000000E+00
 0.0000000000000E+00
 0.0000000000000E+00
 0.0000000000000E+00
 0.0000000000000E+00
 0.0000000000000E+00
 0.0000000000000E+00
 0.0000000000000E+00
 0.0000000000000E+00
 0.0000000000000E+00
 0.0000000000000E+00
 0.0000000000000E+00
 0.0000000000000E+00
 0.0000000000000E+00
 0.0000000000000E+00
 0.0000000000000E+00
 0.0000000000000E+00
 0.0000000000000E+00
 0.0000000000000E+00
 0.0000000000000E+00
 0.0000000000000E+00
 0.0000000000000E+00
 0.0000000000000E+00
 0.0000000000000E+00
 0.0000000000000E+00
 0.0000000000000E+00
 0.0000000000000E+00
 0.0000000000000E+00
 0.0000000000000E+00
 0.0000000000000E+00
 0.0000000000000E+00
 0.0000000000000E+00
 0.0000000000000E+00
 0.0000000000000E+00
 0.0000000000000E+00
 0.0000000000000E+00
 0.0000000000000E+00
 0.0000000000000E+00
 0.0000000000000E+00
 0.0000000000000E+00
 0.0000000000000E+00
 0.0000000000000E+00
 0.0000000000000E+00
 0.0000000000000E+00
 0.0000000000000E+00
 0.0000000000000E+00
 0.0000000000000E+00
 0.0000000000000E+00
 0.0000000000000E+00
 0.0000000000000E+00
 0.0000000000000E+00
 0.0000000000000E+00
 0.0000000000000E+00
 0.0000000000000E+00
 0.0000000000000E+00
 0.0000000000000E+00
 0.0000000000000E+00
 0.0000000000000E+00
 0.0000000000000E+00
 0.0000000000000E+00
 0.0000000000000E+00
 0.0000000000000E+00
 0.0000000000000E+00
 0.0000000000000E+00
 0.0000000000000E+00
 0.0000000000000E+00
 0.0000000000000E+00
 0.0000000000000E+00
 0.0000000000000E+00
 0.0000000000000E+00
 0.0000000000000E+00
 0.0000000000000E+00
 0.0000000000000E+00
 0.0000000000000E+00
 0.0000000000000E+00
 0.0000000000000E+00
 0.0000000000000E+00
 0.0000000000000E+00
 0.0000000000000E+00
 0.0000000000000E+00
 0.0000000000000E+00
 0.0000000000000E+00
 0.0000000000000E+00
 0.0000000000000E+00
 0.0000000000000E+00
 0.0000000000000E+00
 0.0000000000000E+00
 0.0000000000000E+00
 0.0000000000000E+00
 0.0000000000000E+00
 0.0000000000000E+00
 0.0000000000000E+00
 0.0000000000000E+00
 0.0000000000000E+00
 0.0000000000000E+00
 0.0000000000000E+00
 0.0000000000000E+00
 0.0000000000000E+00
 0.0000000000000E+00
 0.0000000000000E+00
 0.0000000000000E+00
 0.0000000000000E+00
 0.0000000000000E+00
 0.0000000000000E+00
 0.0000000000000E+00
 0.0000000000000E+00
 0.0000000000000E+00
 0.0000000000000E+00
 0.0000000000000E+00
 0.0000000000000E+00
 0.0000000000000E+00
 0.0000000000000E+00
 0.0000000000000E+00
 0.0000000000000E+00
 0.0000000000000E+00
 0.0000000000000E+00
 0.0000000000000E+00
 0.0000000000000E+00
 0.0000000000000E+00
 0.0000000000000E+00
 0.0000000000000E+00
 0.0000000000000E+00
 0.0000000000000E+00
 0.0000000000000E+00
 0.0000000000000E+00
 0.0000000000000E+00
 0.0000000000000E+00
 0.0000000000000E+00
 0.0000000000000E+00
 0.0000000000000E+00
 0.0000000000000E+00
 0.0000000000000E+00
 0.0000000000000E+00
 0.0000000000000E+00
 0.0000000000000E+00
 0.0000000000000E+00
 0.0000000000000E+00
 0.0000000000000E+00
 0.0000000000000E+00
 0.0000000000000E+00
 0.0000000000000E+00
 0.0000000000000E+00
 0.0000000000000E+00
 0.0000000000000E+00
 0.0000000000000E+00
 0.0000000000000E+00
 0.0000000000000E+00
 0.0000000000000E+00
 0.0000000000000E+00
 0.0000000000000E+00
 0.0000000000000E+00
 0.0000000000000E+00
 0.0000000000000E+00
 0.0000000000000E+00
 0.0000000000000E+00
 0.0000000000000E+00
 0.0000000000000E+00
 0.0000000000000E+00
 0.0000000000000E+00
 0.0000000000000E+00
 0.0000000000000E+00
 0.0000000000000E+00
 0.0000000000000E+00
 0.0000000000000E+00
 0.0000000000000E+00
 0.0000000000000E+00
 0.0000000000000E+00
 0.0000000000000E+00
 0.0000000000000E+00
 0.0000000000000E+00
 0.0000000000000E+00
 0.0000000000000E+00
 0.0000000000000E+00
 0.0000000000000E+00
 0.0000000000000E+00
 0.0000000000000E+00
 0.0000000000000E+00
 0.0000000000000E+00
 0.0000000000000E+00
 0.0000000000000E+00
 0.0000000000000E+00
 0.0000000000000E+00
 0.0000000000000E+00
 0.0000000000000E+00
 0.0000000000000E+00
 0.0000000000000E+00
 0.0000000000000E+00
 0.0000000000000E+00
 0.0000000000000E+00
 0.0000000000000E+00
 0.0000000000000E+00
 0.0000000000000E+00
 0.0000000000000E+00
 0.0000000000000E+00
 0.0000000000000E+00
 0.0000000000000E+00
 0.0000000000000E+00
 0.0000000000000E+00
 0.0000000000000E+00
 0.0000000000000E+00
 0.0000000000000E+00
 0.0000000000000E+00
 0.0000000000000E+00
 0.0000000000000E+00
 0.0000000000000E+00
 0.0000000000000E+00
 0.0000000000000E+00
 0.0000000000000E+00
 0.0000000000000E+00
 0.0000000000000E+00
 0.0000000000000E+00
 0.0000000000000E+00
 0.0000000000000E+00
 0.0000000000000E+00
 0.0000000000000E+00
 0.0000000000000E+00
 0.0000000000000E+00
 0.0000000000000E+00
 0.0000000000000E+00
 0.0000000000000E+00
 0.0000000000000E+00
 0.0000000000000E+00
 0.0000000000000E+00
 0.0000000000000E+00
 0.0000000000000E+00
 0.0000000000000E+00
 0.0000000000000E+00
 0.0000000000000E+00
 0.0000000000000E+00
 0.0000000000000E+00
 0.0000000000000E+00
 0.0000000000000E+00
 0.0000000000000E+00
 0.0000000000000E+00
 0.0000000000000E+00
 0.0000000000000E+00
 0.0000000000000E+00
 0.0000000000000E+00
 0.0000000000000E+00
 0.0000000000000E+00
 0.0000000000000E+00
 0.0000000000000E+00
 0.0000000000000E+00
 0.0000000000000E+00
 0.0000000000000E+00
 0.0000000000000E+00
 0.0000000000000E+00
 0.0000000000000E+00
 0.0000000000000E+00
 0.0000000000000E+00
 0.0000000000000E+00
 0.0000000000000E+00
 0.0000000000000E+00
 0.0000000000000E+00
 0.0000000000000E+00
 0.0000000000000E+00
 0.0000000000000E+00
 0.0000000000000E+00
 0.0000000000000E+00
 0.0000000000000E+00
 0.0000000000000E+00
 0.0000000000000E+00
 0.0000000000000E+00
 0.0000000000000E+00
 0.0000000000000E+00
 0.0000000000000E+00
 0.0000000000000E+00
 0.0000000000000E+00
 0.0000000000000E+00
 0.0000000000000E+00
 0.0000000000000E+00
 0.0000000000000E+00
</DataArray>
<DataArray type="Int32" Name="Region" format="ascii">
           1
           1
           1
           1
           1
           1
           1
           1
           1
           1
           1
           1
           1
           1
           1
           1
           1
           1
           1
           1
           1
           1
           1
           1
           1
           1
           1
           1
           1
           1
           1
           1
           1
           1
           1
           1
           1
           1
           1
           1
           1
           1
           1
           1
           1
           1
           1
           1
           1
           1
           1
           1
           1
           1
           1
           1
           1
           1
           1
           1
           1
           1
           1
           1
           1
           1
           1
           1
           1
           1
           1
           1
           1
           1
           1
           1
           1
           1
           1
           1
           1
           1
           1
           1
           1
           1
           1
           1
           1
           1
           1
           1
           1
           1
           1
           1
           1
           1
           1
           1
           1
           1
           1
           1
           1
           1
           1
           1
           1
           1
           1
           1
           1
           1
           1
           1
           1
           1
           1
           1
           1
           1
           1
           1
           1
           1
           1
           1
           1
           1
           1
           1
           1
           1
           1
           1
           1
           1
           1
           1
           1
           1
           1
           1
           1
           1
           1
           1
           1
           1
           1
           1
           1
           1
           1
           1
           1
           1
           1
           1
           1
           1
           1
           1
           1
           1
           1
           1
           1
           1
           1
           1
           1
           1
           1
           1
           1
           1
           1
           1
           1
           1
           1
           1
           1
           1
           1
           1
           1
           1
           1
           1
           1
           1
           1
           1
           1
           1
           1
           1
           1
           1
           1
           1
           1
           1
           1
           1
           1
           1
           1
           1
           1
           1
           1
           1
           1
           1
           1
           1
           1
           1
           1
           1
           1
           1
           1
           1
           1
           1
           1
           1
           1
           1
           1
           1
           1
           1
           1
           1
           1
           1
           1
           1
           1
           1
           1
           1
           1
           1
           1
           1
           1
           1
           1
           1
           1
           1
           1
           1
           1
           1
           1
           1
           1
           1
           1
           1
           1
           1
           1
           1
           1
           1
           1
           1
           1
           1
           1
           1
           1
           1
           1
           1
           1
           1
           1
           1
           1
           1
           1
           1
           1
           1
           1
           1
           1
           1
           1
           1
           1
           1
           1
           1
           1
           1
           1
           1
           1
           1
           1
           1
           1
           1
           1
           1
           1
           1
           1
           1
           1
           1
           1
           1
           1
           1
           1
           1
           1
           1
           1
           1
           1
           1
           1
           1
           1
           1
           1
           1
           1
           1
           1
           1
           1
           1
           1
           1
           1
           1
           1
           1
           1
           1
           1
           1
           1
           1
           1
           1
           1
           1
           1
           1
           1
           1
           1
           1
           1
           1
           1
           1
           1
           1
           1
           1
           1
           1
           1
           1
           1
           1
           1
           1
           1
           1
           1
           1
           1
           1
           1
           1
           1
           1
           1
           1
           1
           1
           1
           1
           1
           1
           1
           1
           1
           1
           1
           1
           1
           1
           1
           1
           1
           1
           1
           1
           1
           1
           1
           1
           1
           1
           1
           1
           1
           1
           1
           1
           1
           1
           1
           1
           1
           1
           1
           1
           1
           1
           1
           1
           1
           1
           1
           1
           1
           1
           1
           1
           1
           1
           1
           1
           1
           1
           1
           1
           1
           1
           1
           1
           1
           1
           1
           1
           1
           1
           1
           1
           1
           1
           1
           1
           1
           1
           1
           1
           1
           1
           1
           1
           1
           1
           1
           1
           1
           1
           1
           1
           1
           1
           1
           1
           1
           1
           1
           1
           1
           1
           1
           1
           1
           1
           1
           1
           1
           1
           1
           1
           1
           1
           1
           1
           1
           1
           1
           1
           1
           1
           1
           1
           1
           1
           1
           1
           1
           1
           1
           1
           1
           1
           1
           1
           1
           1
           1
           1
           1
           1
           1
           1
           1
           1
           1
           1
           1
           1
           1
           1
           1
           1
           1
           1
           1
           1
           1
           1
           1
           1
           1
           1
           1
           1
           1
           1
           1
           1
           1
           1
           1
           1
           1
           1
           1
           1
           1
           1
           1
           1
           1
           1
           1
           1
           1
           1
           1
           1
           1
           1
           1
           1
           1
           1
           1
           1
           1
           1
           1
           1
           1
           1
           1
           1
           1
           1
           1
           1
           1
           1
           1
           1
           1
           1
           1
           1
           1
           1
           1
           1
           1
           1
           1
           1
           1
           1
           1
           1
           1
           1
           1
           1
           1
           1
           1
           1
           1
           1
           1
           1
           1
           1
           1
           1
           1
           1
           1
           1
           1
           1
           1
           1
           1
           1
           1
           1
           1
           1
           1
           1
           1
           1
           1
           1
           1
           1
           1
           1
           1
           1
           1
           1
           1
           1
           1
           1
           1
           1
           1
           1
           1
           1
           1
           1
           1
           1
           1
           1
           1
           1
           1
           1
           1
           1
           1
           1
           1
           1
           1
           1
           1
           1
           1
           1
           1
           1
           1
           1
           1
           1
           1
           1
           1
           1
           1
           1
           1
           1
           1
           1
           1
           1
           1
           1
           1
           1
           1
           1
           1
           1
           1
           1
           1
           1
           1
           1
           1
           1
           1
           1
           1
           1
           1
           1
           1
           1
           1
           1
           1
           1
           1
           1
           1
           1
           1
           1
           1
           1
           1
           1
           1
           1
           1
           1
           1
           1
           1
           1
           1
           1
           1
           1
           1
           1
           1
           1
           1
           1
           1
           1
           1
           1
           1
           1
           1
           1
           1
           1
           1
           1
           1
           1
           1
           1
           1
           1
           1
           1
           1
           1
           1
           1
           1
           1
           1
           1
           1
           1
           1
           1
           1
           1
           1
           1
           1
           1
           1
           1
           1
           1
           1
           1
           1
           1
           1
           1
           1
           1
           1
           1
           1
           1
           1
           1
           1
           1
           1
           1
           1
           1
           1
           1
           1
           1
           1
           1
           1
           1
           1
           1
           1
           1
           1
           1
           1
           1
           1
           1
           1
           1
           1
           1
           1
           1
           1
           1
           1
           1
           1
           1
           1
           1
           1
           1
           1
           1
           1
           1
           1
           1
           1
           1
           1
           1
           1
           1
           1
           1
           1
           1
           1
           1
           1
           1
           1
           1
           1
           1
           1
           1
           1
           1
           1
           1
           1
           1
           1
           1
           1
           1
           1
           1
           1
           1
           1
           1
           1
           1
           1
           1
           1
           1
           1
           1
           1
           1
           1
           1
           1
           1
           1
           1
           1
           1
           1
           1
           1
           1
           1
           1
           1
           1
           1
           1
           1
           1
           1
           1
           1
           1
           1
           1
           1
           1
           1
           1
           1
           1
           1
           1
           1
           1
           1
           1
           1
           1
           1
           1
           1
           1
           1
           1
           1
           1
           1
           1
           1
           1
           1
           1
           1
           1
           1
           1
           1
           1
           1
           1
           1
           1
           1
           1
           1
           1
           1
           1
           1
           1
           1
           1
           1
           1
           1
           1
           1
           1
           1
           1
           1
           1
           1
           1
           1
           1
           1
           1
           1
           1
           1
           1
           1
           1
           1
           1
           1
           1
           1
           1
           1
           1
           1
           1
           1
           1
           1
           1
           1
           1
           1
           1
           1
           1
           1
           1
           1
           1
           1
           1
           1
           1
           1
           1
           1
           1
           1
           1
           1
           1
           1
           1
           1
           1
           1
           1
           1
           1
           1
           1
           1
           1
           1
           1
           1
           1
           1
           1
           1
           1
           1
           1
           1
           1
           1
           1
           1
           1
           1
           1
           1
           1
           1
           1
           1
           1
           1
           1
           1
           1
           1
           1
           1
           1
           1
           1
           1
           1
           1
           1
           1
           1
           1
           1
           1
           1
           1
           1
           1
           1
           1
           1
           1
           1
           1
           1
           1
           1
           1
           1
           1
           1
           1
           1
           1
           1
           1
           1
           1
           1
           1
           1
           1
           1
           1
           1
           1
           1
           1
           1
           1
           1
           1
           1
           1
           1
           1
           1
           1
           1
           1
           1
           1
           1
           1
           1
           1
           1
           1
           1
           1
           1
           1
           1
           1
           1
           1
           1
           1
           1
           1
           1
           1
           1
           1
           1
           1
           1
           1
           1
           1
           1
           1
           1
           1
           1
           1
           1
           1
           1
           1
           1
           1
           1
           1
           1
           1
           1
           1
           1
           1
           1
           1
           1
           1
           1
           1
           1
           1
           1
           1
           1
           1
           1
           1
           1
           1
           1
           1
           1
           1
           1
           1
           1
           1
           1
           1
           1
           1
           1
           1
           1
           1
           1
           1
           1
           1
           1
           1
           1
           1
           1
           1
           1
           1
           1
           1
           1
           1
           1
           1
           1
           1
           1
           1
           1
           1
           1
           1
           1
           1
           1
           1
           1
           1
           1
           1
           1
           1
           1
           1
           1
           1
           1
           1
           1
           1
           1
           1
           1
           1
           1
           1
           1
           1
           1
           1
           1
           1
           1
           1
           1
           1
           1
           1
           1
           1
           1
           1
           1
           1
           1
           1
           1
           1
           1
           1
           1
           1
           1
           1
           1
           1
           1
           1
           1
           1
           1
           1
           1
           1
           1
           1
           1
           1
           1
           1
           1
           1
           1
           1
           1
           1
           1
           1
           1
           1
           1
           1
           1
           1
           1
           1
           1
           1
           1
           1
           1
           1
           1
           1
           1
           1
           1
           1
           1
           1
           1
           1
           1
           1
           1
           1
           1
           1
           1
           1
           1
           1
           1
           1
           1
           1
           1
           1
           1
           1
           1
           1
           1
           1
           1
           1
           1
           1
           1
           1
           1
           1
           1
           1
           1
           1
           1
           1
           1
           1
           1
           1
           1
           1
           1
           1
           1
           1
           1
           1
           1
           1
           1
           1
           1
           1
           1
           1
           1
           1
           1
           1
           1
           1
           1
           1
           1
           1
           1
           1
           1
           1
           1
           1
           1
           1
           1
           1
           1
           1
           1
           1
           1
           1
           1
           1
           1
           1
           1
           1
           1
           1
           1
           1
           1
           1
           1
           1
           1
           1
           1
           1
           1
           1
           1
           1
           1
           1
           1
           1
           1
           1
           1
           1
           1
           1
           1
           1
           1
           1
           1
           1
           1
           1
           1
           1
           1
           1
           1
           1
           1
           1
           1
           1
           1
           1
           1
           1
           1
           1
           1
           1
           1
           1
           1
           1
           1
           1
           1
           1
           1
           1
           1
           1
           1
           1
           1
           1
           1
           1
           1
           1
           1
           1
           1
           1
           1
           1
           1
           1
           1
           1
           1
           1
           1
           1
           1
           1
           1
           1
           1
           1
           1
           1
           1
           1
           1
           1
           1
           1
           1
           1
           1
           1
           1
           1
           1
           1
           1
           1
           1
           1
           1
           1
           1
           1
           1
           1
           1
           1
           1
           1
           1
           1
           1
           1
           1
           1
           1
           1
           1
           1
           1
           1
           1
           1
           1
           1
           1
           1
           1
           1
           1
           1
           1
           1
           1
           1
           1
           1
           1
           1
           1
           1
           1
           1
           1
           1
           1
           1
           1
           1
           1
           1
           1
           1
           1
           1
           1
           1
           1
           1
           1
           1
           1
           1
           1
           1
           1
           1
           1
           1
           1
           1
           1
           1
           1
           1
           1
           1
           1
           1
           1
           1
           1
           1
           1
           1
           1
           1
           1
           1
           1
           1
           1
           1
           1
           1
           1
           1
           1
           1
           1
           1
           1
           1
           1
           1
           1
           1
           1
           1
           1
           1
           1
           1
           1
           1
           1
           1
           1
           1
           1
           1
           1
           1
           1
           1
           1
           1
           1
           1
           1
           1
           1
           1
           1
           1
           1
           1
           1
           1
           1
           1
           1
           1
           1
           1
           1
           1
           1
           1
           1
           1
           1
           1
           1
           1
           1
           1
           1
           1
           1
           1
           1
           1
           1
           1
           1
           1
           1
           1
           1
           1
           1
           1
           1
           1
           1
           1
           1
           1
           1
           1
           1
           1
           1
           1
           1
           1
           1
           1
           1
           1
           1
           1
           1
           1
           1
           1
           1
           1
           1
           1
           1
           1
           1
           1
           1
           1
           1
           1
           1
           1
           1
           1
           1
           1
           1
           1
           1
           1
           1
           1
           1
           1
           1
           1
           1
           1
           1
           1
           1
           1
           1
           1
           1
           1
           1
           1
           1
           1
           1
           1
           1
           1
           1
           1
           1
           1
           1
           1
           1
           1
           1
           1
           1
           1
           1
           1
           1
           1
           1
           1
           1
           1
           1
           1
           1
           1
           1
           1
           1
           1
           1
           1
           1
           1
           1
           1
           1
           1
           1
           1
           1
           1
           1
           1
           1
           1
           1
           1
           1
           1
           1
           1
           1
           1
           1
           1
           1
           1
           1
           1
           1
           1
           1
           1
           1
           1
           1
           1
           1
           1
           1
           1
           1
           1
           1
           1
           1
           1
           1
           1
           1
           1
           1
           1
           1
           1
           1
           1
           1
           1
           1
           1
           1
           1
           1
           1
           1
           1
           1
           1
           1
           1
           1
           1
           1
           1
           1
           1
           1
           1
           1
           1
           1
           1
           1
           1
           1
           1
           1
           1
           1
           1
           1
           1
           1
           1
           1
           1
           1
           1
           1
           1
           1
           1
           1
           1
           1
           1
           1
           1
           1
           1
           1
           1
           1
           1
           1
           1
           1
           1
           1
           1
           1
           1
           1
           1
           1
           1
           1
           1
           1
           1
           1
           1
           1
           1
           1
           1
           1
           1
           1
           1
           1
           1
           1
           1
           1
           1
           1
           1
           1
           1
           1
           1
           1
           1
           1
           1
           1
           1
           1
           1
           1
           1
           1
           1
           1
           1
           1
           1
           1
           1
           1
           1
           1
           1
           1
           1
           1
           1
           1
           1
           1
           1
           1
           1
           1
           1
           1
           1
           1
           1
           1
           1
           1
           1
           1
           1
           1
           1
           1
           1
           1
           1
           1
           1
           1
           1
           1
           1
           1
           1
           1
           1
           1
           1
           1
           1
           1
           1
           1
           1
           1
           1
           1
           1
           1
           1
           1
           1
           1
           1
           1
           1
           1
           1
           1
           1
           1
           1
           1
           1
           1
           1
           1
           1
           1
           1
           1
           1
           1
           1
           1
           1
           1
           1
           1
           1
           1
           1
           1
           1
           1
           1
           1
           1
           1
           1
           1
           1
           1
           1
           1
           1
           1
           1
           1
           1
           1
           1
           1
           1
           1
           1
           1
           1
           1
           1
           1
           1
           1
           1
           1
           1
           1
           1
           1
           1
           1
           1
           1
           1
           1
           1
           1
           1
           1
           1
           1
           1
           1
           1
           1
           1
           1
           1
           1
           1
           1
           1
           1
           1
           1
           1
           1
           1
           1
           1
           1
           1
           1
           1
           1
           1
           1
           1
           1
           1
           1
           1
           1
           1
           1
           1
           1
           1
           1
           1
           1
           1
           1
           1
           1
           1
           1
           1
           1
           1
           1
           1
           1
           1
           1
           1
           1
           1
           1
           1
           1
           1
           1
           1
           1
           1
           1
           1
           1
           1
           1
           1
           1
           1
           1
           1
           1
           1
           1
           1
           1
           1
           1
           1
           1
           1
           1
           1
           1
           1
           1
           1
           1
           1
           1
           1
           1
           1
           1
           1
           1
           1
           1
           1
           1
           1
           1
           1
           1
           1
           1
           1
           1
           1
           1
           1
           1
           1
           1
           1
           1
           1
           1
           1
           1
           1
           1
           1
           1
           1
           1
           1
           1
           1
           1
           1
           1
           1
           1
           1
           1
           1
           1
           1
           1
           1
           1
           1
           1
           1
           1
           1
           1
           1
           1
           1
           1
           1
           1
           1
           1
           1
           1
           1
           1
           1
           1
           1
           1
           1
           1
           1
           1
           1
           1
           1
           1
           1
           1
           1
           1
           1
           1
           1
           1
           1
           1
           1
           1
           1
           1
           1
           1
           1
           1
           1
           1
           1
           1
           1
           1
           1
           1
           1
           1
           1
           1
           1
           1
           1
           1
           1
           1
           1
           1
           1
           1
           1
           1
           1
           1
           1
           1
           1
           1
           1
           1
           1
           1
           1
           1
           1
           1
           1
           1
           1
           1
           1
           1
           1
           1
           1
           1
           1
           1
           1
           1
           1
           1
           1
           1
           1
           1
           1
           1
           1
           1
           1
           1
           1
           1
           1
           1
           1
           1
           1
           1
           1
           1
           1
           1
           1
           1
           1
           1
           1
           1
           1
           1
           1
           1
           1
           1
           1
           1
           1
           1
           1
           1
           1
           1
           1
           1
           1
           1
           1
           1
           1
           1
           1
           1
           1
           1
           1
           1
           1
           1
           1
           1
           1
           1
           1
           1
           1
           1
           1
           1
           1
           1
           1
           1
           1
           1
           1
           1
           1
           1
           1
           1
           1
           1
           1
           1
           1
           1
           1
           1
           1
           1
           1
           1
           1
           1
           1
           1
           1
           1
           1
           1
           1
           1
           1
           1
           1
           1
           1
           1
           1
           1
           1
           1
           1
           1
           1
           1
           1
           1
           1
           1
           1
           1
           1
           1
           1
           1
           1
           1
           1
           1
           1
           1
           1
           1
           1
           1
           1
           1
           1
           1
           1
           1
           1
           1
           1
           1
           1
           1
           1
           1
           1
           1
           1
           1
           1
           1
           1
           1
           1
           1
           1
           1
           1
           1
           1
           1
           1
           1
           1
           1
           1
           1
           1
           1
           1
           1
           1
           1
           1
           1
           1
           1
           1
           1
           1
           1
           1
           1
           1
           1
           1
           1
           1
           1
           1
           1
           1
           1
           1
           1
           1
           1
           1
           1
           1
           1
           1
           1
           1
           1
           1
           1
           1
           1
           1
           1
           1
           1
           1
           1
           1
           1
           1
           1
           1
           1
           1
           1
           1
           1
           1
           1
           1
           1
           1
           1
           1
           1
           1
           1
           1
           1
           1
           1
           1
           1
           1
           1
           1
           1
           1
           1
           1
           1
           1
           1
           1
           1
           1
           1
           1
           1
           1
           1
           1
           1
           1
           1
           1
           1
           1
           1
           1
           1
           1
           1
           1
           1
           1
           1
           1
           1
           1
           1
           1
           1
           1
           1
           1
           1
           1
           1
           1
           1
           1
           1
           1
           1
           1
           1
           1
           1
           1
           1
           1
           1
           1
           1
           1
           1
           1
           1
           1
           1
           1
           1
           1
           1
           1
           1
           1
           1
           1
           1
           1
           1
           1
           1
           1
           1
           1
           1
           1
           1
           1
           1
           1
           1
           1
           1
           1
           1
           1
           1
           1
           1
           1
           1
           1
           1
           1
           1
           1
           1
           1
           1
           1
           1
           1
           1
           1
           1
           1
           1
           1
           1
           1
           1
           1
           1
           1
           1
           1
           1
           1
           1
           1
           1
           1
           1
           1
           1
           1
           1
           1
           1
           1
           1
           1
           1
           1
           1
           1
           1
           1
           1
           1
           1
           1
           1
           1
           1
           1
           1
           1
           1
           1
           1
           1
           1
           1
           1
           1
           1
           1
           1
           1
           1
           1
           1
           1
           1
           1
           1
           1
           1
           1
           1
           1
           1
           1
           1
           1
           1
           1
           1
           1
           1
           1
           1
           1
           1
           1
           1
           1
           1
           1
           1
           1
           1
           1
           1
           1
           1
           1
           1
           1
           1
           1
           1
           1
           1
           1
           1
           1
           1
           1
           1
           1
           1
           1
           1
           1
           1
           1
           1
           1
           1
           1
           1
           1
           1
           1
           1
           1
           1
           1
           1
           1
           1
           1
           1
           1
           1
           1
           1
           1
           1
           1
           1
           1
           1
           1
           1
           1
           1
           1
           1
           1
           1
           1
           1
           1
           1
           1
           1
           1
           1
           1
           1
           1
           1
           1
           1
           1
           1
           1
           1
           1
           1
           1
           1
           1
           1
           1
           1
           1
           1
           1
           1
           1
           1
           1
           1
           1
           1
           1
           1
           1
           1
           1
           1
           1
           1
           1
           1
           1
           1
           1
           1
           1
           1
           1
           1
           1
           1
           1
           1
           1
           1
           1
           1
           1
           1
           1
           1
           1
           1
           1
           1
           1
           1
           1
           1
           1
           1
           1
           1
           1
           1
           1
           1
           1
           1
           1
           1
           1
           1
           1
           1
           1
           1
           1
           1
           1
           1
           1
           1
           1
           1
           1
           1
           1
           1
           1
           1
           1
           1
           1
           1
           1
           1
           1
           1
           1
           1
           1
           1
           1
           1
           1
           1
           1
           1
           1
           1
           1
           1
           1
           1
           1
           1
           1
           1
           1
           1
           1
           1
           1
           1
           1
           1
           1
           1
           1
           1
           1
           1
           1
           1
           1
           1
           1
           1
           1
           1
           1
           1
           1
           1
           1
           1
           1
           1
           1
           1
           1
           1
           1
           1
           1
           1
           1
           1
           1
           1
           1
           1
           1
           1
           1
           1
           1
           1
           1
           1
           1
           1
           1
           1
           1
           1
           1
           1
           1
           1
           1
           1
           1
           1
           1
           1
           1
           1
           1
           1
           1
           1
           1
           1
           1
           1
           1
           1
           1
           1
           1
           1
           1
           1
           1
           1
           1
           1
           1
           1
           1
           1
           1
           1
           1
           1
           1
           1
           1
           1
           1
           1
           1
           1
           1
           1
           1
           1
           1
           1
           1
           1
           1
           1
           1
           1
           1
           1
           1
           1
           1
           1
           1
           1
           1
           1
           1
           1
           1
           1
           1
           1
           1
           1
           1
           1
           1
           1
           1
           1
           1
           1
           1
           1
           1
           1
           1
           1
           1
           1
           1
           1
           1
           1
           1
           1
           1
           1
           1
           1
           1
           1
           1
           1
           1
           1
           1
           1
           1
           1
           1
           1
           1
           1
           1
           1
           1
           1
           1
           1
           1
           1
           1
           1
           1
           1
           1
           1
           1
           1
           1
           1
           1
           1
           1
           1
           1
           1
           1
           1
           1
           1
           1
           1
           1
           1
           1
           1
           1
           1
           1
           1
           1
           1
           1
           1
           1
           1
           1
           1
           1
           1
           1
           1
           1
           1
           1
           1
           1
           1
           1
           1
           1
           1
           1
           1
           1
           1
           1
           1
           2
           2
           2
           2
           2
           2
           2
           2
           2
           2
           2
           2
           2
           2
           2
           2
           2
           2
           2
           2
           2
           2
           2
           2
           2
           2
           2
           2
           2
           2
           2
           2
           2
           2
           2
           2
           2
           2
           2
           2
           2
           2
           2
           2
           2
           2
           2
           2
           2
           2
           2
           2
           2
           2
           2
           2
           2
           2
           2
           2
           2
           2
           2
           2
           2
           2
           2
           2
           2
           2
           2
           2
           2
           2
           2
           2
           2
           2
           2
           2
           2
           2
           2
           2
           2
           2
           2
           2
           2
           2
           2
           2
           2
           2
           2
           2
           2
           2
           2
           2
           2
           2
           2
           2
           2
           2
           2
           2
           2
           2
           2
           2
           2
           2
           2
           2
           2
           2
           2
           2
           2
           2
           2
           2
           2
           2
           2
           2
           2
           2
           2
           2
           2
           2
           2
           2
           2
           2
           2
           2
           2
           2
           2
           2
           2
           2
           2
           2
           2
           2
           2
           2
           2
           2
           2
           2
           2
           2
           2
           2
           2
           2
           2
           2
           2
           2
           2
           2
           2
           2
           2
           2
           2
           2
           2
           2
           2
           2
           2
           2
           2
           2
           2
           2
           2
           2
           2
           2
           2
           2
           2
           2
           2
           2
           2
           2
           2
           2
           2
           2
           2
           2
           2
           2
           2
           2
           2
           2
           2
           2
           2
           2
           2
           2
           2
           2
           2
           2
           2
           2
           2
           2
           2
           2
           2
           2
           2
           2
           2
           2
           2
           2
           2
           2
           2
           2
           2
           2
           2
           2
           2
           2
           2
           2
           2
           2
           2
           2
           2
           2
           2
           2
           2
           2
           2
           2
           2
           2
           2
           2
           2
           2
           2
           2
           2
           2
           2
           2
           2
           2
           2
           2
           2
           2
           2
           2
           2
           2
           2
           2
           2
           2
           2
           2
           2
           2
           2
           2
           2
           2
           2
           2
           2
           2
           2
           2
           2
           2
           2
           2
           2
           2
           2
           2
           2
           2
           2
           2
           2
           2
           2
           2
           2
           2
           2
           2
           2
           2
           2
           2
           2
           2
           2
           2
           2
           2
           2
           2
           2
           2
           2
           2
           2
           2
           2
           2
           2
           2
           2
           2
           2
           2
           2
           2
           2
           2
           2
           2
           2
           2
           2
           2
           2
           2
           2
           2
           2
           2
           2
           2
           2
           2
           2
           2
           2
           2
           2
           2
           2
           2
           2
           2
           2
           2
           2
           2
           2
           2
           2
           2
           2
           2
           2
           2
           2
           2
           2
           2
           2
           2
           2
           2
           2
           2
           2
           2
           2
           2
           2
           2
           2
           2
           2
           2
           2
           2
           2
           2
           2
           2
           2
           2
           2
           2
           2
           2
           2
           2
           2
           2
           2
           2
           2
           2
           2
           2
           2
           2
           2
           2
           2
           2
           2
           2
           2
           2
           2
           2
           2
           2
           2
           2
           2
           2
           2
           2
           2
           2
           2
           2
           2
           2
           2
           2
           2
           2
           2
           2
           2
           2
           2
           2
           2
           2
           2
           2
           2
           2
           2
           2
           2
           2
           2
           2
           2
           2
           2
           2
           2
           2
           2
           2
           2
           2
           2
           2
           2
           2
           2
           2
           2
           2
           2
           2
           2
           2
           2
           2
           2
           2
           2
           2
           2
           2
           2
           2
           2
           2
           2
           2
           2
           2
           2
           2
           2
           2
           2
           2
           2
           2
           2
           2
           2
           2
           2
           2
           2
           2
           2
           2
           2
           2
           2
           2
           2
           2
           2
           2
           2
           2
           2
           2
           2
           2
           2
           2
           2
           2
           2
           2
           2
           2
           2
           2
           2
           2
           2
           2
           2
           2
           2
           2
           2
           2
           2
           2
           2
           2
           2
           2
           2
           2
           2
           2
           2
           2
           2
           2
           2
           2
           2
           2
           2
           2
           2
           2
           2
           2
           2
           2
           2
           2
           2
           2
           2
           2
           2
           2
           2
           2
           2
           2
           2
           2
           2
           2
           2
           2
           2
           2
           2
           2
           2
           2
           2
           2
           2
           2
           2
           2
           2
           2
           2
           2
           2
           2
           2
           2
           2
           2
           2
           2
           2
           2
           2
           2
           2
           2
           2
           2
           2
           2
           2
           2
           2
           2
           2
           2
           2
           2
           2
           2
           2
           2
           2
           2
           2
           2
           2
           2
           2
           2
           2
           2
           2
           2
           2
           2
           2
           2
           2
           2
           2
           2
           2
           2
           2
           2
           2
           2
           2
           2
           2
           2
           2
           2
           2
           2
           2
           2
           2
           2
           2
           2
           2
           2
           2
           2
           2
           2
           2
           2
           2
           2
           2
           2
           2
           2
           2
           2
           2
           2
           2
           2
           2
           2
           2
           2
           2
           2
           2
           2
           2
           2
           2
           2
           2
           2
           2
           2
           2
           2
           2
           2
           2
           2
           2
           2
           2
           2
           2
           2
           2
           2
           2
           2
           2
           2
           2
           2
           2
           2
           2
           2
           2
           2
           2
           2
           2
           2
           2
           2
           2
           2
           2
           2
           2
           2
           2
           2
           2
           2
           2
           2
           2
           2
           2
           2
           2
           2
           2
           2
           2
           2
           2
           2
           2
           2
           2
           2
           2
           2
           2
           2
           2
           2
           2
           2
           2
           2
           2
           2
           2
           2
           2
           2
           2
           2
           2
           2
           2
           2
           2
           2
           2
           2
           2
           2
           2
           2
           2
           2
           2
           2
           2
           2
           2
           2
           2
           2
           2
           2
           2
           2
           2
           2
           2
           2
           2
           2
           2
           2
           2
           2
           2
           2
           2
           2
           2
           2
           2
           2
           2
           2
           2
           2
           2
           2
           2
           2
           2
           2
           2
           2
           2
           2
           2
           2
           2
           2
           2
           2
           2
           2
           2
           2
           2
           2
           2
           2
           2
           2
           2
           2
           2
           2
           2
           2
           2
           2
           2
           2
           2
           2
           2
           2
           2
           2
           2
           2
           2
           2
           2
           2
           2
           2
           2
           2
           2
           2
           2
           2
           2
           2
           2
           2
           2
           2
           2
           2
           2
           2
           2
           2
           2
           2
           2
           2
           2
           2
           2
           2
           2
           2
           2
           2
           2
           2
           2
           2
           2
           2
           2
           2
           2
           2
           2
           2
           2
           2
           2
           2
           2
           2
           2
           2
           2
           2
           2
           2
           2
           2
           2
           2
           2
           2
           2
           2
           2
           2
           2
           2
           2
           2
           2
           2
           2
           2
           2
           2
           2
           2
           2
           2
           2
           2
           2
           2
           2
           2
           2
           2
           2
           2
           2
           2
           2
           2
           2
           2
           2
           2
           2
           2
           2
           2
           2
           2
           2
           2
           2
           2
           2
           2
           2
           2
           2
           2
           2
           2
           2
           2
           2
           2
           2
           2
           2
           2
           2
           2
           2
           2
           2
           2
           2
           2
           2
           2
           2
           2
           2
           2
           2
           2
           2
           2
           2
           2
           2
           2
           2
           2
           2
           2
           2
           2
           2
           2
           2
           2
           2
           2
           2
           2
           2
           2
           2
           2
           2
           2
           2
           2
           2
           2
           2
           2
           2
           2
           2
           2
           2
           2
           2
           2
           2
           2
           2
           2
           2
           2
           2
           2
           2
           2
           2
           2
           2
           2
           2
           2
           2
           2
           2
           2
           2
           2
           2
           2
           2
           2
           2
           2
           2
           2
           2
           2
           2
           2
           2
           2
           2
           2
           2
           2
           2
           2
           2
           2
           2
           2
           2
           2
           2
           2
           2
           2
           2
           2
           2
           2
           2
           2
           2
           2
           2
           2
           2
           2
           2
           2
           2
           2
           2
           2
           2
           2
           2
           2
           2
           2
           2
           2
           2
           2
           2
           2
           2
           2
           2
           2
           2
           2
           2
           2
           2
           2
           2
           2
           2
           2
           2
           2
           2
           2
           2
           2
           2
           2
           2
           2
           2
           2
           2
           2
           2
           2
           2
           2
           2
           2
           2
           2
           2
           2
           2
           2
           2
           2
           2
           2
           2
           2
           2
           2
           2
           2
           2
           2
           2
           2
           2
           2
           2
           2
           2
           2
           2
           2
           2
           2
           2
           2
           2
           2
           2
           2
           2
           2
           2
           2
           2
           2
           2
           2
           2
           2
           2
           2
           2
           2
           2
           2
           2
           2
           2
           2
           2
           2
           2
           2
           2
           2
           2
           2
           2
           2
           2
           2
           2
           2
           2
           2
           2
           2
           2
           2
           2
           2
           2
           2
           2
           2
           2
           2
           2
           2
           2
           2
           2
           2
           2
           2
           2
           2
           2
           2
           2
           2
           2
           2
           2
           2
           2
           2
           2
           2
           2
           2
           2
           2
           2
           2
           2
           2
           2
           2
           2
           2
           2
           2
           2
           2
           2
           2
           2
           2
           2
           2
           2
           2
           2
           2
           2
           2
           2
           2
           2
           2
           2
           2
           2
           2
           2
           2
           2
           2
           2
           2
           2
           2
           2
           2
           2
           2
           2
           2
           2
           2
           2
           2
           2
           2
           2
           2
           2
           2
           2
           2
           2
           2
           2
           2
           2
           2
           2
           2
           2
           2
           2
           2
           2
           2
           2
           2
           2
           2
           2
           2
           2
           2
           2
           2
           2
           2
           2
           2
           2
           2
           2
           2
           2
           2
           2
           2
           2
           2
           2
           2
           2
           2
           2
           2
           2
           2
           2
           2
           2
           2
           2
           2
           2
           2
           2
           2
           2
           2
           2
           2
           2
           2
           2
           2
           2
           2
           2
           2
           2
           2
           2
           2
           2
           2
           2
           2
           2
           2
           2
           2
           2
           2
           2
           2
           2
           2
           2
           2
           2
           2
           2
           2
           2
           2
           2
           2
           2
           2
           2
           2
           2
           2
           2
           2
           2
           2
           2
           2
           2
           2
           2
           2
           2
           2
           2
           2
           2
           2
           2
           2
           2
           2
           2
           2
           2
           2
           2
           2
           2
           2
           2
           2
           2
           2
           2
           2
           2
           2
           2
           2
           2
           2
           2
           2
           2
           2
           2
           2
           2
           2
           2
           2
           2
           2
           2
           2
           2
           2
           2
           2
           2
           2
           2
           2
           2
           2
           2
           2
           2
           2
           2
           2
           2
           2
           2
           2
           2
           2
           2
           2
           2
           2
           2
           2
           2
           2
           2
           2
           2
           2
           2
           2
           2
           2
           2
           2
           2
           2
           2
           2
           2
           2
           2
           2
           2
           2
           2
           2
           2
           2
           2
           2
           2
           2
           2
           2
           2
           2
           2
           2
           2
           2
           2
           2
           2
           2
           2
           2
           2
           2
           2
           2
           2
           2
           2
           2
           2
           2
           2
           2
           2
           2
           2
           2
           2
           2
           2
           2
           2
           2
           2
           2
           2
           2
           2
           2
           2
           2
           2
           2
           2
           2
           2
           2
           2
           2
           2
           2
           2
           2
           2
           2
           2
           2
           2
           2
           2
           2
           2
           2
           2
           2
           2
           2
           2
           2
           2
           2
           2
           2
           2
           2
           2
           2
           2
           2
           2
           2
           2
           2
           2
           2
           2
           2
           2
           2
           2
           2
           2
           2
           2
           2
           2
           2
           2
           2
           2
           2
           2
           2
           2
           2
           2
           2
           2
           2
           2
           2
           2
           2
           2
           2
           2
           2
           2
           2
           2
           2
           2
           2
           2
           2
           2
           2
           2
           2
           2
           2
           2
           2
           2
           2
           2
           2
           2
           2
           2
           2
           2
           2
           2
           2
           2
           2
           2
           2
           2
           2
           2
           2
           2
           2
           2
           2
           2
           2
           2
           2
           2
           2
           2
           2
           2
           2
           2
           2
           2
           2
           2
           2
           2
           2
           2
           2
           2
           2
           2
           2
           2
           2
           2
           2
           2
           2
           2
           2
           2
           2
           2
           2
           2
           2
           2
           2
           2
           2
           2
           2
           2
           2
           2
           2
           2
           2
           2
           2
           2
           2
           2
           2
           2
           2
           2
           2
           2
           2
           2
           2
           2
           2
           2
           2
           2
           2
           2
           2
           2
           2
           2
           2
           2
           2
           2
           2
           2
           2
           2
           2
           2
           2
           2
           2
           2
           2
           2
           2
           2
           2
           2
           2
           2
           2
           2
           2
           2
           2
           2
           2
           2
           2
           2
           2
           2
           2
           2
           2
           2
           2
           2
           2
           2
           2
           2
           2
           2
           2
           2
           2
           2
           2
           2
           2
           2
           2
           2
           2
           2
           2
           2
           2
           2
           2
           2
           2
           2
           2
           2
           2
           2
           2
           2
           2
           2
           2
           2
           2
           2
           2
           2
           2
           2
           2
           2
           2
           2
           2
           2
           2
           2
           2
           2
           2
           2
           2
           2
           2
           2
           2
           2
           2
           2
           2
           2
           2
           2
           2
           2
           2
           2
           2
           2
           2
           2
           2
           2
           2
           2
           2
           2
           2
           2
           2
           2
           2
           2
           2
           2
           2
           2
           2
           2
           2
           2
           2
           2
           2
           2
           2
           2
           2
           2
           2
           2
           2
           2
           2
           2
           2
           2
           2
           2
           2
           2
           2
           2
           2
           2
           2
           2
           2
           2
           2
           2
           2
           2
           2
           2
           2
           2
           2
           2
           2
           2
           2
           2
           2
           2
           2
           2
           2
           2
           2
           2
           2
           2
           2
           2
           2
           2
           2
           2
           2
           2
           2
           2
           2
           2
           2
           2
           2
           2
           2
           2
           2
           2
           2
           2
           2
           2
           2
           2
           2
           2
           2
           2
           2
           2
           2
           2
           2
           2
           2
           2
           2
           2
           2
           2
           2
           2
           2
           2
           2
           2
           2
           2
           2
           2
           2
           2
           2
           2
           2
           2
           2
           2
           2
           2
           2
           2
           2
           2
           2
           2
           2
           2
           2
           2
           2
           2
           2
           2
           2
           2
           2
           2
           2
           2
           2
           2
           2
           2
           2
           2
           2
           2
           2
           2
           2
           2
           2
           2
           2
           2
           2
           2
           2
           2
           2
           2
           2
           2
           2
           2
           2
           2
           2
           2
           2
           2
           2
           2
           2
           2
           2
           2
           2
           2
           2
           2
           2
           2
           2
           2
           2
           2
           2
           2
           2
           2
           2
           2
           2
           2
           2
           2
           2
           2
           2
           2
           2
           2
           2
           2
           2
           2
           2
           2
           2
           2
           2
           2
           2
           2
           2
           2
           2
           2
           2
           2
           2
           2
           2
           2
           2
           2
           2
           2
           2
           2
           2
           2
           2
           2
           2
           2
           2
           2
           2
           2
           2
           2
           2
           2
           2
           2
           2
           2
           2
           2
           2
           2
           2
           2
           2
           2
           2
           2
           2
           2
           2
           2
           2
           2
           2
           2
           2
           2
           2
           2
           2
           2
           2
           2
           2
           2
           2
           2
           2
           2
           2
           2
           2
           2
           2
           2
           2
           2
           2
           2
           2
           2
           2
           2
           2
           2
           2
           2
           2
           2
           2
           2
           2
           2
           2
           2
           2
           2
           2
           2
           2
           2
           2
           2
           2
           2
           2
           2
           2
           2
           2
           2
           2
           2
           2
           2
           2
           2
           2
           2
           2
           2
           2
           2
           2
           2
           2
           2
           2
           2
           2
           2
           2
           2
           2
           2
           2
           2
           2
           2
           2
           2
           2
           2
           2
           2
           2
           2
           2
           2
           2
           2
           2
           2
           2
           2
           2
           2
           2
           2
           2
           2
           2
           2
           2
           2
           2
           2
           2
           2
           2
           2
           2
           2
           2
           2
           2
           2
           2
           2
           2
           2
           2
           2
           2
           2
           2
           2
           2
           2
           2
           2
           2
           2
           2
           2
           2
           2
           2
           2
           2
           2
           2
           2
           2
           2
           2
           2
           2
           2
           2
           2
           2
           2
           2
           2
           2
           2
           2
           2
           2
           2
           2
           2
           2
           2
           2
           2
           2
           2
           2
           2
           2
           2
           2
           2
           2
           2
           2
           2
           2
           2
           2
</DataArray>
</CellData>
</Piece>
</UnstructuredGrid>
</VTKFile>
