<VTKFile type="UnstructuredGrid" version="1,0" byte_order="LittleEndian">
<UnstructuredGrid>
<Piece NumberOfPoints="5802" NumberOfCells="5680">
<Points>
<DataArray type="Float64" NumberOfComponents="3" format="ascii">
-0.1100000000000E+01 -0.4304044648606E+01  0.0000000000000E+00
 0.0000000000000E+00 -0.4304044648606E+01  0.0000000000000E+00
 0.1100000000000E+01 -0.4304044648606E+01  0.0000000000000E+00
-0.1426338184892E+01 -0.1495137730994E+01  0.0000000000000E+00
-0.7131690856113E+00 -0.1351817918288E+01  0.0000000000000E+00
 0.7131690992823E+00 -0.1351817920119E+01  0.0000000000000E+00
 0.1426338184892E+01 -0.1495137730994E+01  0.0000000000000E+00
-0.1297471036855E+01  0.8924645033579E+00  0.0000000000000E+00
 0.1297471037589E+01  0.8924645030013E+00  0.0000000000000E+00
-0.7500000000000E+00  0.3449934570704E+00  0.0000000000000E+00
 0.7500000000000E+00  0.3449934570704E+00  0.0000000000000E+00
-0.1072500000000E+01 -0.4304044648606E+01  0.0000000000000E+00
-0.1045000000000E+01 -0.4304044648606E+01  0.0000000000000E+00
-0.1017500000000E+01 -0.4304044648606E+01  0.0000000000000E+00
-0.9900000000000E+00 -0.4304044648606E+01  0.0000000000000E+00
-0.9625000000000E+00 -0.4304044648606E+01  0.0000000000000E+00
-0.9350000000000E+00 -0.4304044648606E+01  0.0000000000000E+00
-0.9075000000000E+00 -0.4304044648606E+01  0.0000000000000E+00
-0.8800000000000E+00 -0.4304044648606E+01  0.0000000000000E+00
-0.8525000000000E+00 -0.4304044648606E+01  0.0000000000000E+00
-0.8250000000000E+00 -0.4304044648606E+01  0.0000000000000E+00
-0.7975000000000E+00 -0.4304044648606E+01  0.0000000000000E+00
-0.7700000000000E+00 -0.4304044648606E+01  0.0000000000000E+00
-0.7425000000000E+00 -0.4304044648606E+01  0.0000000000000E+00
-0.7150000000000E+00 -0.4304044648606E+01  0.0000000000000E+00
-0.6875000000000E+00 -0.4304044648606E+01  0.0000000000000E+00
-0.6600000000000E+00 -0.4304044648606E+01  0.0000000000000E+00
-0.6325000000000E+00 -0.4304044648606E+01  0.0000000000000E+00
-0.6050000000000E+00 -0.4304044648606E+01  0.0000000000000E+00
-0.5775000000000E+00 -0.4304044648606E+01  0.0000000000000E+00
-0.5500000000000E+00 -0.4304044648606E+01  0.0000000000000E+00
-0.5225000000000E+00 -0.4304044648606E+01  0.0000000000000E+00
-0.4950000000000E+00 -0.4304044648606E+01  0.0000000000000E+00
-0.4675000000000E+00 -0.4304044648606E+01  0.0000000000000E+00
-0.4400000000000E+00 -0.4304044648606E+01  0.0000000000000E+00
-0.4125000000000E+00 -0.4304044648606E+01  0.0000000000000E+00
-0.3850000000000E+00 -0.4304044648606E+01  0.0000000000000E+00
-0.3575000000000E+00 -0.4304044648606E+01  0.0000000000000E+00
-0.3300000000000E+00 -0.4304044648606E+01  0.0000000000000E+00
-0.3025000000000E+00 -0.4304044648606E+01  0.0000000000000E+00
-0.2750000000000E+00 -0.4304044648606E+01  0.0000000000000E+00
-0.2475000000000E+00 -0.4304044648606E+01  0.0000000000000E+00
-0.2200000000000E+00 -0.4304044648606E+01  0.0000000000000E+00
-0.1925000000000E+00 -0.4304044648606E+01  0.0000000000000E+00
-0.1650000000000E+00 -0.4304044648606E+01  0.0000000000000E+00
-0.1375000000000E+00 -0.4304044648606E+01  0.0000000000000E+00
-0.1100000000000E+00 -0.4304044648606E+01  0.0000000000000E+00
-0.8250000000000E-01 -0.4304044648606E+01  0.0000000000000E+00
-0.5500000000000E-01 -0.4304044648606E+01  0.0000000000000E+00
-0.2750000000000E-01 -0.4304044648606E+01  0.0000000000000E+00
 0.2750000000000E-01 -0.4304044648606E+01  0.0000000000000E+00
 0.5500000000000E-01 -0.4304044648606E+01  0.0000000000000E+00
 0.8250000000000E-01 -0.4304044648606E+01  0.0000000000000E+00
 0.1100000000000E+00 -0.4304044648606E+01  0.0000000000000E+00
 0.1375000000000E+00 -0.4304044648606E+01  0.0000000000000E+00
 0.1650000000000E+00 -0.4304044648606E+01  0.0000000000000E+00
 0.1925000000000E+00 -0.4304044648606E+01  0.0000000000000E+00
 0.2200000000000E+00 -0.4304044648606E+01  0.0000000000000E+00
 0.2475000000000E+00 -0.4304044648606E+01  0.0000000000000E+00
 0.2750000000000E+00 -0.4304044648606E+01  0.0000000000000E+00
 0.3025000000000E+00 -0.4304044648606E+01  0.0000000000000E+00
 0.3300000000000E+00 -0.4304044648606E+01  0.0000000000000E+00
 0.3575000000000E+00 -0.4304044648606E+01  0.0000000000000E+00
 0.3850000000000E+00 -0.4304044648606E+01  0.0000000000000E+00
 0.4125000000000E+00 -0.4304044648606E+01  0.0000000000000E+00
 0.4400000000000E+00 -0.4304044648606E+01  0.0000000000000E+00
 0.4675000000000E+00 -0.4304044648606E+01  0.0000000000000E+00
 0.4950000000000E+00 -0.4304044648606E+01  0.0000000000000E+00
 0.5225000000000E+00 -0.4304044648606E+01  0.0000000000000E+00
 0.5500000000000E+00 -0.4304044648606E+01  0.0000000000000E+00
 0.5775000000000E+00 -0.4304044648606E+01  0.0000000000000E+00
 0.6050000000000E+00 -0.4304044648606E+01  0.0000000000000E+00
 0.6325000000000E+00 -0.4304044648606E+01  0.0000000000000E+00
 0.6600000000000E+00 -0.4304044648606E+01  0.0000000000000E+00
 0.6875000000000E+00 -0.4304044648606E+01  0.0000000000000E+00
 0.7150000000000E+00 -0.4304044648606E+01  0.0000000000000E+00
 0.7425000000000E+00 -0.4304044648606E+01  0.0000000000000E+00
 0.7700000000000E+00 -0.4304044648606E+01  0.0000000000000E+00
 0.7975000000000E+00 -0.4304044648606E+01  0.0000000000000E+00
 0.8250000000000E+00 -0.4304044648606E+01  0.0000000000000E+00
 0.8525000000000E+00 -0.4304044648606E+01  0.0000000000000E+00
 0.8800000000000E+00 -0.4304044648606E+01  0.0000000000000E+00
 0.9075000000000E+00 -0.4304044648606E+01  0.0000000000000E+00
 0.9350000000000E+00 -0.4304044648606E+01  0.0000000000000E+00
 0.9625000000000E+00 -0.4304044648606E+01  0.0000000000000E+00
 0.9900000000000E+00 -0.4304044648606E+01  0.0000000000000E+00
 0.1017500000000E+01 -0.4304044648606E+01  0.0000000000000E+00
 0.1045000000000E+01 -0.4304044648606E+01  0.0000000000000E+00
 0.1072500000000E+01 -0.4304044648606E+01  0.0000000000000E+00
-0.1391152984612E+01 -0.1485826169004E+01  0.0000000000000E+00
-0.1355910848380E+01 -0.1476732672072E+01  0.0000000000000E+00
-0.1320612835817E+01 -0.1467858633912E+01  0.0000000000000E+00
-0.1285259981017E+01 -0.1459205415754E+01  0.0000000000000E+00
-0.1249853511796E+01 -0.1450774398559E+01  0.0000000000000E+00
-0.1214394584761E+01 -0.1442566916018E+01  0.0000000000000E+00
-0.1178884329493E+01 -0.1434584266595E+01  0.0000000000000E+00
-0.1143323993112E+01 -0.1426827745365E+01  0.0000000000000E+00
-0.1107714835036E+01 -0.1419298618073E+01  0.0000000000000E+00
-0.1072058114862E+01 -0.1411998118171E+01  0.0000000000000E+00
-0.1036355114016E+01 -0.1404927450906E+01  0.0000000000000E+00
-0.1000607103274E+01 -0.1398087786375E+01  0.0000000000000E+00
-0.9648154637952E+00 -0.1391480281711E+01  0.0000000000000E+00
-0.9289815514207E+00 -0.1385106053576E+01  0.0000000000000E+00
-0.8931067449032E+00 -0.1378966186997E+01  0.0000000000000E+00
-0.8571924453329E+00 -0.1373061734396E+01  0.0000000000000E+00
-0.8212400755349E+00 -0.1367393714636E+01  0.0000000000000E+00
-0.7852510794390E+00 -0.1361963112090E+01  0.0000000000000E+00
-0.7492269214199E+00 -0.1356770875739E+01  0.0000000000000E+00
-0.6777056485815E+00 -0.1347184849055E+01  0.0000000000000E+00
-0.6422126030433E+00 -0.1342784468384E+01  0.0000000000000E+00
-0.6066914054888E+00 -0.1338617534531E+01  0.0000000000000E+00
-0.5711435255488E+00 -0.1334684768748E+01  0.0000000000000E+00
-0.5355704233029E+00 -0.1330986852489E+01  0.0000000000000E+00
-0.4999736369017E+00 -0.1327524435880E+01  0.0000000000000E+00
-0.4643546817971E+00 -0.1324298126257E+01  0.0000000000000E+00
-0.4287150862649E+00 -0.1321308491716E+01  0.0000000000000E+00
-0.3930563807228E+00 -0.1318556059836E+01  0.0000000000000E+00
-0.3573801183139E+00 -0.1316041318931E+01  0.0000000000000E+00
-0.3216878730590E+00 -0.1313764717124E+01  0.0000000000000E+00
-0.2859812157621E+00 -0.1311726660302E+01  0.0000000000000E+00
-0.2502617257092E+00 -0.1309927512732E+01  0.0000000000000E+00
-0.2145309892672E+00 -0.1308367596678E+01  0.0000000000000E+00
-0.1787905926666E+00 -0.1307047191884E+01  0.0000000000000E+00
-0.1430421463503E+00 -0.1305966536203E+01  0.0000000000000E+00
-0.1072872541886E+00 -0.1305125824139E+01  0.0000000000000E+00
-0.7152752388590E-01 -0.1304525207180E+01  0.0000000000000E+00
-0.3576456602431E-01 -0.1304164793652E+01  0.0000000000000E+00
 0.6896563736758E-08 -0.1304044648606E+01  0.0000000000000E+00
 0.3576457981713E-01 -0.1304164793745E+01  0.0000000000000E+00
 0.7152753767778E-01 -0.1304525207365E+01  0.0000000000000E+00
 0.1072872679789E+00 -0.1305125824417E+01  0.0000000000000E+00
 0.1430421601384E+00 -0.1305966536574E+01  0.0000000000000E+00
 0.1787906064519E+00 -0.1307047192347E+01  0.0000000000000E+00
 0.2145310030492E+00 -0.1308367597233E+01  0.0000000000000E+00
 0.2502617394871E+00 -0.1309927513380E+01  0.0000000000000E+00
 0.2859812295354E+00 -0.1311726661042E+01  0.0000000000000E+00
 0.3216878868270E+00 -0.1313764717956E+01  0.0000000000000E+00
 0.3573801320760E+00 -0.1316041319855E+01  0.0000000000000E+00
 0.3930563944785E+00 -0.1318556060852E+01  0.0000000000000E+00
 0.4287151000135E+00 -0.1321308492824E+01  0.0000000000000E+00
 0.4643546955381E+00 -0.1324298127456E+01  0.0000000000000E+00
 0.4999736506343E+00 -0.1327524437170E+01  0.0000000000000E+00
 0.5355704370268E+00 -0.1330986853870E+01  0.0000000000000E+00
 0.5711435392633E+00 -0.1334684770220E+01  0.0000000000000E+00
 0.6066914191932E+00 -0.1338617536093E+01  0.0000000000000E+00
 0.6422126167371E+00 -0.1342784470036E+01  0.0000000000000E+00
 0.6777056622642E+00 -0.1347184850797E+01  0.0000000000000E+00
 0.7492269343955E+00 -0.1356770877566E+01  0.0000000000000E+00
 0.7852510917199E+00 -0.1361963113902E+01  0.0000000000000E+00
 0.8212400871220E+00 -0.1367393716423E+01  0.0000000000000E+00
 0.8571924562271E+00 -0.1373061736151E+01  0.0000000000000E+00
 0.8931067551055E+00 -0.1378966188709E+01  0.0000000000000E+00
 0.9289815609321E+00 -0.1385106055236E+01  0.0000000000000E+00
 0.9648154726170E+00 -0.1391480283310E+01  0.0000000000000E+00
 0.1000607111408E+01 -0.1398087787904E+01  0.0000000000000E+00
 0.1036355121463E+01 -0.1404927452356E+01  0.0000000000000E+00
 0.1072058121623E+01 -0.1411998119533E+01  0.0000000000000E+00
 0.1107714841113E+01 -0.1419298619338E+01  0.0000000000000E+00
 0.1143323998507E+01 -0.1426827746523E+01  0.0000000000000E+00
 0.1178884334206E+01 -0.1434584267638E+01  0.0000000000000E+00
 0.1214394588795E+01 -0.1442566916938E+01  0.0000000000000E+00
 0.1249853515153E+01 -0.1450774399347E+01  0.0000000000000E+00
 0.1285259983698E+01 -0.1459205416402E+01  0.0000000000000E+00
 0.1320612837825E+01 -0.1467858634410E+01  0.0000000000000E+00
 0.1355910849717E+01 -0.1476732672412E+01  0.0000000000000E+00
 0.1391152985279E+01 -0.1485826169179E+01  0.0000000000000E+00
-0.1500282641368E+01 -0.1374379525622E+01  0.0000000000000E+00
-0.1579712636672E+01 -0.1257117726587E+01  0.0000000000000E+00
-0.1659629531058E+01 -0.1140189019983E+01  0.0000000000000E+00
-0.1733164540211E+01 -0.1019175933670E+01  0.0000000000000E+00
-0.1798046249351E+01 -0.8933073152546E+00  0.0000000000000E+00
-0.1854662117542E+01 -0.7635066404071E+00  0.0000000000000E+00
-0.1902918776519E+01 -0.6303741789607E+00  0.0000000000000E+00
-0.1941975481337E+01 -0.4942606593644E+00  0.0000000000000E+00
-0.1971769159893E+01 -0.3558234883184E+00  0.0000000000000E+00
-0.1991516502432E+01 -0.2156092846034E+00  0.0000000000000E+00
-0.1999617540933E+01 -0.7424989119446E-01  0.0000000000000E+00
-0.1998781287050E+01  0.6736447573279E-01  0.0000000000000E+00
-0.1977369471108E+01  0.2070661279160E+00  0.0000000000000E+00
-0.1925316867218E+01  0.3385059547416E+00  0.0000000000000E+00
-0.1849365860808E+01  0.4578477771193E+00  0.0000000000000E+00
-0.1756248887890E+01  0.5644442091257E+00  0.0000000000000E+00
-0.1652195200841E+01  0.6604571002421E+00  0.0000000000000E+00
-0.1540277150090E+01  0.7471961778048E+00  0.0000000000000E+00
-0.1421865714943E+01  0.8248395163169E+00  0.0000000000000E+00
-0.1236157917423E+01  0.9206126839211E+00  0.0000000000000E+00
-0.1173981215584E+01  0.9468055532948E+00  0.0000000000000E+00
-0.1111281399127E+01  0.9717225607392E+00  0.0000000000000E+00
-0.1048246390832E+01  0.9957805369659E+00  0.0000000000000E+00
-0.9850026878781E+00  0.1019284763872E+01  0.0000000000000E+00
-0.9216449825030E+00  0.1042480347406E+01  0.0000000000000E+00
-0.8582438511844E+00  0.1065556940867E+01  0.0000000000000E+00
-0.7946812217419E+00  0.1088183183765E+01  0.0000000000000E+00
-0.7306767253970E+00  0.1109523680148E+01  0.0000000000000E+00
-0.6661180574429E+00  0.1129122063103E+01  0.0000000000000E+00
-0.6010093404920E+00  0.1146807084276E+01  0.0000000000000E+00
-0.5354041844713E+00  0.1162549250252E+01  0.0000000000000E+00
-0.4693692539535E+00  0.1176378185166E+01  0.0000000000000E+00
-0.4029695874389E+00  0.1188340213072E+01  0.0000000000000E+00
-0.3362668810131E+00  0.1198477309315E+01  0.0000000000000E+00
-0.2693161135181E+00  0.1206817739605E+01  0.0000000000000E+00
-0.2021667219355E+00  0.1213370604034E+01  0.0000000000000E+00
-0.1348660417516E+00  0.1218121850014E+01  0.0000000000000E+00
-0.6746061515966E-01  0.1221030416244E+01  0.0000000000000E+00
 0.4058847535558E-09  0.1222022719718E+01  0.0000000000000E+00
 0.6746061597099E-01  0.1221030416217E+01  0.0000000000000E+00
 0.1348660425620E+00  0.1218121849962E+01  0.0000000000000E+00
 0.2021667227442E+00  0.1213370603957E+01  0.0000000000000E+00
 0.2693161143243E+00  0.1206817739504E+01  0.0000000000000E+00
 0.3362668818164E+00  0.1198477309191E+01  0.0000000000000E+00
 0.4029695882387E+00  0.1188340212925E+01  0.0000000000000E+00
 0.4693692547501E+00  0.1176378184996E+01  0.0000000000000E+00
 0.5354041852619E+00  0.1162549250060E+01  0.0000000000000E+00
 0.6010093412774E+00  0.1146807084062E+01  0.0000000000000E+00
 0.6661180582227E+00  0.1129122062868E+01  0.0000000000000E+00
 0.7306767261711E+00  0.1109523679893E+01  0.0000000000000E+00
 0.7946812225112E+00  0.1088183183495E+01  0.0000000000000E+00
 0.8582438519506E+00  0.1065556940589E+01  0.0000000000000E+00
 0.9216449832687E+00  0.1042480347127E+01  0.0000000000000E+00
 0.9850026886429E+00  0.1019284763591E+01  0.0000000000000E+00
 0.1048246391595E+01  0.9957805366789E+00  0.0000000000000E+00
 0.1111281399886E+01  0.9717225604423E+00  0.0000000000000E+00
 0.1173981216337E+01  0.9468055529829E+00  0.0000000000000E+00
 0.1236157918167E+01  0.9206126835887E+00  0.0000000000000E+00
 0.1421865715609E+01  0.8248395159258E+00  0.0000000000000E+00
 0.1540277150686E+01  0.7471961773831E+00  0.0000000000000E+00
 0.1652195201364E+01  0.6604570997956E+00  0.0000000000000E+00
 0.1756248888337E+01  0.5644442086587E+00  0.0000000000000E+00
 0.1849365861169E+01  0.4578477766335E+00  0.0000000000000E+00
 0.1925316867476E+01  0.3385059542402E+00  0.0000000000000E+00
 0.1977369471244E+01  0.2070661274129E+00  0.0000000000000E+00
 0.1998781287072E+01  0.6736447525390E-01  0.0000000000000E+00
 0.1999617540926E+01 -0.7424989163157E-01  0.0000000000000E+00
 0.1991516502379E+01 -0.2156092849952E+00  0.0000000000000E+00
 0.1971769159793E+01 -0.3558234886609E+00  0.0000000000000E+00
 0.1941975481197E+01 -0.4942606596555E+00  0.0000000000000E+00
 0.1902918776353E+01 -0.6303741792004E+00  0.0000000000000E+00
 0.1854662117367E+01 -0.7635066405985E+00  0.0000000000000E+00
 0.1798046249184E+01 -0.8933073154033E+00  0.0000000000000E+00
 0.1733164540072E+01 -0.1019175933786E+01  0.0000000000000E+00
 0.1659629530969E+01 -0.1140189020080E+01  0.0000000000000E+00
 0.1579712636620E+01 -0.1257117726658E+01  0.0000000000000E+00
 0.1500282641316E+01 -0.1374379525643E+01  0.0000000000000E+00
-0.1100000000000E+01 -0.4234290980465E+01  0.0000000000000E+00
-0.1100000000000E+01 -0.4164537374556E+01  0.0000000000000E+00
-0.1100000000000E+01 -0.4094783637185E+01  0.0000000000000E+00
-0.1100000000000E+01 -0.4025029839181E+01  0.0000000000000E+00
-0.1100000000000E+01 -0.3955276133193E+01  0.0000000000000E+00
-0.1100000000000E+01 -0.3885522440291E+01  0.0000000000000E+00
-0.1100000000000E+01 -0.3815768738526E+01  0.0000000000000E+00
-0.1100000000000E+01 -0.3746015026237E+01  0.0000000000000E+00
-0.1100000000000E+01 -0.3676261319430E+01  0.0000000000000E+00
-0.1100000000000E+01 -0.3606507611668E+01  0.0000000000000E+00
-0.1100000000000E+01 -0.3536753776913E+01  0.0000000000000E+00
-0.1100000000000E+01 -0.3467000160269E+01  0.0000000000000E+00
-0.1100000000000E+01 -0.3397246335911E+01  0.0000000000000E+00
-0.1100000000000E+01 -0.3327491483183E+01  0.0000000000000E+00
-0.1100000000000E+01 -0.3257738937264E+01  0.0000000000000E+00
-0.1100000000000E+01 -0.3187985423319E+01  0.0000000000000E+00
-0.1100000000000E+01 -0.3118231710338E+01  0.0000000000000E+00
-0.1100000000000E+01 -0.3048478034801E+01  0.0000000000000E+00
-0.1100000000000E+01 -0.2978724449557E+01  0.0000000000000E+00
-0.1100081949193E+01 -0.2908970897701E+01  0.0000000000000E+00
-0.1100742728942E+01 -0.2839220824704E+01  0.0000000000000E+00
-0.1102521741007E+01 -0.2769490993372E+01  0.0000000000000E+00
-0.1105743074114E+01 -0.2699813216018E+01  0.0000000000000E+00
-0.1110533766938E+01 -0.2630225810104E+01  0.0000000000000E+00
-0.1116908162342E+01 -0.2560765504263E+01  0.0000000000000E+00
-0.1124837122290E+01 -0.2491465260483E+01  0.0000000000000E+00
-0.1134287691960E+01 -0.2422356178019E+01  0.0000000000000E+00
-0.1145243591943E+01 -0.2353469532743E+01  0.0000000000000E+00
-0.1157716694154E+01 -0.2284841544654E+01  0.0000000000000E+00
-0.1171756578450E+01 -0.2216517038769E+01  0.0000000000000E+00
-0.1187382332609E+01 -0.2148537564097E+01  0.0000000000000E+00
-0.1204496719736E+01 -0.2080917362614E+01  0.0000000000000E+00
-0.1223027229037E+01 -0.2013671356569E+01  0.0000000000000E+00
-0.1242939072837E+01 -0.1946821322119E+01  0.0000000000000E+00
-0.1264231112750E+01 -0.1880397992225E+01  0.0000000000000E+00
-0.1286935945292E+01 -0.1814444247962E+01  0.0000000000000E+00
-0.1311124079738E+01 -0.1749020523908E+01  0.0000000000000E+00
-0.1336914565389E+01 -0.1684211332234E+01  0.0000000000000E+00
-0.1364492429937E+01 -0.1620144016975E+01  0.0000000000000E+00
-0.1394146623869E+01 -0.1557011712595E+01  0.0000000000000E+00
 0.1394146623938E+01 -0.1557011712631E+01  0.0000000000000E+00
 0.1364492430018E+01 -0.1620144017018E+01  0.0000000000000E+00
 0.1336914565463E+01 -0.1684211332275E+01  0.0000000000000E+00
 0.1311124079803E+01 -0.1749020523939E+01  0.0000000000000E+00
 0.1286935945344E+01 -0.1814444247990E+01  0.0000000000000E+00
 0.1264231112793E+01 -0.1880397992249E+01  0.0000000000000E+00
 0.1242939072872E+01 -0.1946821322142E+01  0.0000000000000E+00
 0.1223027229066E+01 -0.2013671356589E+01  0.0000000000000E+00
 0.1204496719761E+01 -0.2080917362633E+01  0.0000000000000E+00
 0.1187382332630E+01 -0.2148537564113E+01  0.0000000000000E+00
 0.1171756578464E+01 -0.2216517038784E+01  0.0000000000000E+00
 0.1157716694160E+01 -0.2284841544667E+01  0.0000000000000E+00
 0.1145243591945E+01 -0.2353469532755E+01  0.0000000000000E+00
 0.1134287691960E+01 -0.2422356178030E+01  0.0000000000000E+00
 0.1124837122289E+01 -0.2491465260492E+01  0.0000000000000E+00
 0.1116908162341E+01 -0.2560765504273E+01  0.0000000000000E+00
 0.1110533766937E+01 -0.2630225810113E+01  0.0000000000000E+00
 0.1105743074114E+01 -0.2699813216027E+01  0.0000000000000E+00
 0.1102521741008E+01 -0.2769490993381E+01  0.0000000000000E+00
 0.1100742728943E+01 -0.2839220824713E+01  0.0000000000000E+00
 0.1100081949193E+01 -0.2908970897709E+01  0.0000000000000E+00
 0.1100000000000E+01 -0.2978724449564E+01  0.0000000000000E+00
 0.1100000000000E+01 -0.3048478034808E+01  0.0000000000000E+00
 0.1100000000000E+01 -0.3118231710345E+01  0.0000000000000E+00
 0.1100000000000E+01 -0.3187985423326E+01  0.0000000000000E+00
 0.1100000000000E+01 -0.3257738937270E+01  0.0000000000000E+00
 0.1100000000000E+01 -0.3327491483189E+01  0.0000000000000E+00
 0.1100000000000E+01 -0.3397246335917E+01  0.0000000000000E+00
 0.1100000000000E+01 -0.3467000160274E+01  0.0000000000000E+00
 0.1100000000000E+01 -0.3536753776917E+01  0.0000000000000E+00
 0.1100000000000E+01 -0.3606507611672E+01  0.0000000000000E+00
 0.1100000000000E+01 -0.3676261319434E+01  0.0000000000000E+00
 0.1100000000000E+01 -0.3746015026240E+01  0.0000000000000E+00
 0.1100000000000E+01 -0.3815768738529E+01  0.0000000000000E+00
 0.1100000000000E+01 -0.3885522440293E+01  0.0000000000000E+00
 0.1100000000000E+01 -0.3955276133195E+01  0.0000000000000E+00
 0.1100000000000E+01 -0.4025029839183E+01  0.0000000000000E+00
 0.1100000000000E+01 -0.4094783637186E+01  0.0000000000000E+00
 0.1100000000000E+01 -0.4164537374557E+01  0.0000000000000E+00
 0.1100000000000E+01 -0.4234290980466E+01  0.0000000000000E+00
-0.7132895388975E+00  0.3545892595695E+00  0.0000000000000E+00
-0.6764636662017E+00  0.3637314849837E+00  0.0000000000000E+00
-0.6395267434147E+00  0.3724145815178E+00  0.0000000000000E+00
-0.6024837198702E+00  0.3806330875003E+00  0.0000000000000E+00
-0.5653396500945E+00  0.3883817695657E+00  0.0000000000000E+00
-0.5280996171512E+00  0.3956556459469E+00  0.0000000000000E+00
-0.4907691319433E+00  0.4024499201459E+00  0.0000000000000E+00
-0.4533537451325E+00  0.4087600740826E+00  0.0000000000000E+00
-0.4158592885785E+00  0.4145818366128E+00  0.0000000000000E+00
-0.3782916751723E+00  0.4199112310808E+00  0.0000000000000E+00
-0.3406570303206E+00  0.4247445663511E+00  0.0000000000000E+00
-0.3029616164712E+00  0.4290784607705E+00  0.0000000000000E+00
-0.2652118192254E+00  0.4329098541257E+00  0.0000000000000E+00
-0.2274141490083E+00  0.4362360171118E+00  0.0000000000000E+00
-0.1895752452634E+00  0.4390545606537E+00  0.0000000000000E+00
-0.1517018295911E+00  0.4413634482121E+00  0.0000000000000E+00
-0.1138007051193E+00  0.4431610022710E+00  0.0000000000000E+00
-0.7587874076696E-01  0.4444459110349E+00  0.0000000000000E+00
-0.3794285511804E-01  0.4452172336970E+00  0.0000000000000E+00
-0.3330669073875E-15  0.4454744042321E+00  0.0000000000000E+00
 0.3794285511804E-01  0.4452172336970E+00  0.0000000000000E+00
 0.7587874076696E-01  0.4444459110349E+00  0.0000000000000E+00
 0.1138007051193E+00  0.4431610022710E+00  0.0000000000000E+00
 0.1517018295911E+00  0.4413634482121E+00  0.0000000000000E+00
 0.1895752452634E+00  0.4390545606537E+00  0.0000000000000E+00
 0.2274141490083E+00  0.4362360171118E+00  0.0000000000000E+00
 0.2652118192254E+00  0.4329098541257E+00  0.0000000000000E+00
 0.3029616164712E+00  0.4290784607705E+00  0.0000000000000E+00
 0.3406570303206E+00  0.4247445663511E+00  0.0000000000000E+00
 0.3782916751723E+00  0.4199112310808E+00  0.0000000000000E+00
 0.4158592885785E+00  0.4145818366128E+00  0.0000000000000E+00
 0.4533537451325E+00  0.4087600740826E+00  0.0000000000000E+00
 0.4907691319433E+00  0.4024499201459E+00  0.0000000000000E+00
 0.5280996171512E+00  0.3956556459469E+00  0.0000000000000E+00
 0.5653396500945E+00  0.3883817695657E+00  0.0000000000000E+00
 0.6024837198702E+00  0.3806330875003E+00  0.0000000000000E+00
 0.6395267434147E+00  0.3724145815178E+00  0.0000000000000E+00
 0.6764636662017E+00  0.3637314849837E+00  0.0000000000000E+00
 0.7132895388975E+00  0.3545892595695E+00  0.0000000000000E+00
-0.7498714525667E+00  0.2601244253178E+00  0.0000000000000E+00
-0.7494610908407E+00  0.1752564208624E+00  0.0000000000000E+00
-0.7487273443814E+00  0.9039062493678E-01  0.0000000000000E+00
-0.7476230150202E+00  0.5528898378488E-02  0.0000000000000E+00
-0.7460974662219E+00 -0.7932632445184E-01  0.0000000000000E+00
-0.7441028539882E+00 -0.1641717347835E+00  0.0000000000000E+00
-0.7416076935207E+00 -0.2490040130765E+00  0.0000000000000E+00
-0.7386208425271E+00 -0.3338203224162E+00  0.0000000000000E+00
-0.7352226651418E+00 -0.4186212392773E+00  0.0000000000000E+00
-0.7315845453817E+00 -0.5034122306519E+00  0.0000000000000E+00
-0.7279464255305E+00 -0.5882032220226E+00  0.0000000000000E+00
-0.7245482478836E+00 -0.6730041388732E+00  0.0000000000000E+00
-0.7215613964884E+00 -0.7578204481989E+00  0.0000000000000E+00
-0.7190662355151E+00 -0.8426527264768E+00  0.0000000000000E+00
-0.7170716227036E+00 -0.9274981367952E+00  0.0000000000000E+00
-0.7155460732803E+00 -0.1012353359614E+01  0.0000000000000E+00
-0.7144417432648E+00 -0.1097215086164E+01  0.0000000000000E+00
-0.7137079961342E+00 -0.1182080882084E+01  0.0000000000000E+00
-0.7132976337280E+00 -0.1266948886536E+01  0.0000000000000E+00
 0.7498714525670E+00  0.2601244252411E+00  0.0000000000000E+00
 0.7494610908447E+00  0.1752564207090E+00  0.0000000000000E+00
 0.7487273443980E+00  0.9039062470648E-01  0.0000000000000E+00
 0.7476230150664E+00  0.5528898070996E-02  0.0000000000000E+00
 0.7460974663270E+00 -0.7932632483698E-01  0.0000000000000E+00
 0.7441028541992E+00 -0.1641717352482E+00  0.0000000000000E+00
 0.7416076939094E+00 -0.2490040136230E+00  0.0000000000000E+00
 0.7386208431973E+00 -0.3338203230495E+00  0.0000000000000E+00
 0.7352226662333E+00 -0.4186212400042E+00  0.0000000000000E+00
 0.7315845470645E+00 -0.5034122314810E+00  0.0000000000000E+00
 0.7279464279870E+00 -0.5882032229617E+00  0.0000000000000E+00
 0.7245482512846E+00 -0.6730041399270E+00  0.0000000000000E+00
 0.7215614009742E+00 -0.7578204493675E+00  0.0000000000000E+00
 0.7190662411903E+00 -0.8426527277573E+00  0.0000000000000E+00
 0.7170716296405E+00 -0.9274981381818E+00  0.0000000000000E+00
 0.7155460815261E+00 -0.1012353361101E+01  0.0000000000000E+00
 0.7144417528489E+00 -0.1097215087745E+01  0.0000000000000E+00
 0.7137080070737E+00 -0.1182080883753E+01  0.0000000000000E+00
 0.7132976460316E+00 -0.1266948888289E+01  0.0000000000000E+00
-0.7773735518427E+00  0.3723670093848E+00  0.0000000000000E+00
-0.8047471036855E+00  0.3997405616991E+00  0.0000000000000E+00
-0.8321206555283E+00  0.4271141140135E+00  0.0000000000000E+00
-0.8594942073710E+00  0.4544876663279E+00  0.0000000000000E+00
-0.8868677592138E+00  0.4818612186423E+00  0.0000000000000E+00
-0.9142413110566E+00  0.5092347709566E+00  0.0000000000000E+00
-0.9416148628994E+00  0.5366083232710E+00  0.0000000000000E+00
-0.9689884147421E+00  0.5639818755854E+00  0.0000000000000E+00
-0.9963619665849E+00  0.5913554278998E+00  0.0000000000000E+00
-0.1023735518428E+01  0.6187289802141E+00  0.0000000000000E+00
-0.1051109070270E+01  0.6461025325285E+00  0.0000000000000E+00
-0.1078482622113E+01  0.6734760848429E+00  0.0000000000000E+00
-0.1105856173956E+01  0.7008496371573E+00  0.0000000000000E+00
-0.1133229725799E+01  0.7282231894716E+00  0.0000000000000E+00
-0.1160603277642E+01  0.7555967417860E+00  0.0000000000000E+00
-0.1187976829484E+01  0.7829702941004E+00  0.0000000000000E+00
-0.1215350381327E+01  0.8103438464148E+00  0.0000000000000E+00
-0.1242723933170E+01  0.8377173987291E+00  0.0000000000000E+00
-0.1270097485013E+01  0.8650909510435E+00  0.0000000000000E+00
 0.7773735518794E+00  0.3723670093669E+00  0.0000000000000E+00
 0.8047471037588E+00  0.3997405616635E+00  0.0000000000000E+00
 0.8321206556383E+00  0.4271141139600E+00  0.0000000000000E+00
 0.8594942075177E+00  0.4544876662566E+00  0.0000000000000E+00
 0.8868677593971E+00  0.4818612185531E+00  0.0000000000000E+00
 0.9142413112766E+00  0.5092347708497E+00  0.0000000000000E+00
 0.9416148631560E+00  0.5366083231462E+00  0.0000000000000E+00
 0.9689884150354E+00  0.5639818754428E+00  0.0000000000000E+00
 0.9963619669149E+00  0.5913554277393E+00  0.0000000000000E+00
 0.1023735518794E+01  0.6187289800359E+00  0.0000000000000E+00
 0.1051109070674E+01  0.6461025323324E+00  0.0000000000000E+00
 0.1078482622553E+01  0.6734760846289E+00  0.0000000000000E+00
 0.1105856174433E+01  0.7008496369255E+00  0.0000000000000E+00
 0.1133229726312E+01  0.7282231892220E+00  0.0000000000000E+00
 0.1160603278191E+01  0.7555967415186E+00  0.0000000000000E+00
 0.1187976830071E+01  0.7829702938151E+00  0.0000000000000E+00
 0.1215350381950E+01  0.8103438461117E+00  0.0000000000000E+00
 0.1242723933830E+01  0.8377173984082E+00  0.0000000000000E+00
 0.1270097485709E+01  0.8650909507048E+00  0.0000000000000E+00
-0.1072512531531E+01 -0.4234063866316E+01  0.0000000000000E+00
-0.1072525063052E+01 -0.4164083146461E+01  0.0000000000000E+00
-0.1072537594596E+01 -0.4094102294716E+01  0.0000000000000E+00
-0.1072550126150E+01 -0.4024121382140E+01  0.0000000000000E+00
-0.1072562657689E+01 -0.3954140561879E+01  0.0000000000000E+00
-0.1072575189225E+01 -0.3884159754748E+01  0.0000000000000E+00
-0.1072587720762E+01 -0.3814178938725E+01  0.0000000000000E+00
-0.1072600252302E+01 -0.3744198112143E+01  0.0000000000000E+00
-0.1072612783840E+01 -0.3674217291062E+01  0.0000000000000E+00
-0.1072625315378E+01 -0.3604236469021E+01  0.0000000000000E+00
-0.1072637846940E+01 -0.3534255519575E+01  0.0000000000000E+00
-0.1072650378462E+01 -0.3464274788950E+01  0.0000000000000E+00
-0.1072662910022E+01 -0.3394293849935E+01  0.0000000000000E+00
-0.1072675441766E+01 -0.3324311879201E+01  0.0000000000000E+00
-0.1072687973096E+01 -0.3254332222786E+01  0.0000000000000E+00
-0.1072700504600E+01 -0.3184351595195E+01  0.0000000000000E+00
-0.1072713036139E+01 -0.3114370767918E+01  0.0000000000000E+00
-0.1072725567672E+01 -0.3044389978209E+01  0.0000000000000E+00
-0.1072738099188E+01 -0.2974409279085E+01  0.0000000000000E+00
-0.1072830520992E+01 -0.2904428613303E+01  0.0000000000000E+00
-0.1073487230625E+01 -0.2834451427672E+01  0.0000000000000E+00
-0.1075234077757E+01 -0.2764494485924E+01  0.0000000000000E+00
-0.1078387008707E+01 -0.2694589599196E+01  0.0000000000000E+00
-0.1083069870449E+01 -0.2624775084183E+01  0.0000000000000E+00
-0.1089296645518E+01 -0.2555087669031E+01  0.0000000000000E+00
-0.1097038927970E+01 -0.2485560315349E+01  0.0000000000000E+00
-0.1106264590896E+01 -0.2416224123304E+01  0.0000000000000E+00
-0.1116957763942E+01 -0.2347110367907E+01  0.0000000000000E+00
-0.1129130020690E+01 -0.2278255270224E+01  0.0000000000000E+00
-0.1142829695345E+01 -0.2209703655273E+01  0.0000000000000E+00
-0.1158075396169E+01 -0.2141497071144E+01  0.0000000000000E+00
-0.1174772329272E+01 -0.2073649759721E+01  0.0000000000000E+00
-0.1192849805623E+01 -0.2006176643474E+01  0.0000000000000E+00
-0.1212273911551E+01 -0.1939099498740E+01  0.0000000000000E+00
-0.1233043537267E+01 -0.1872449058536E+01  0.0000000000000E+00
-0.1255190460318E+01 -0.1806268204055E+01  0.0000000000000E+00
-0.1278783418399E+01 -0.1740617371563E+01  0.0000000000000E+00
-0.1303938469955E+01 -0.1675581070262E+01  0.0000000000000E+00
-0.1330835993654E+01 -0.1611286650534E+01  0.0000000000000E+00
-0.1359757680489E+01 -0.1547927244028E+01  0.0000000000000E+00
-0.1045023674207E+01 -0.4233842070895E+01  0.0000000000000E+00
-0.1045047348392E+01 -0.4163639555816E+01  0.0000000000000E+00
-0.1045071022622E+01 -0.4093436908429E+01  0.0000000000000E+00
-0.1045094696873E+01 -0.4023234200019E+01  0.0000000000000E+00
-0.1045118371092E+01 -0.3953031584216E+01  0.0000000000000E+00
-0.1045142045307E+01 -0.3882828981585E+01  0.0000000000000E+00
-0.1045165719525E+01 -0.3812626370033E+01  0.0000000000000E+00
-0.1045189393746E+01 -0.3742423747889E+01  0.0000000000000E+00
-0.1045213067966E+01 -0.3672221131264E+01  0.0000000000000E+00
-0.1045236742186E+01 -0.3602018513676E+01  0.0000000000000E+00
-0.1045260416449E+01 -0.3531815768278E+01  0.0000000000000E+00
-0.1045284090638E+01 -0.3461613242396E+01  0.0000000000000E+00
-0.1045307764898E+01 -0.3391410507462E+01  0.0000000000000E+00
-0.1045331439506E+01 -0.3321206737540E+01  0.0000000000000E+00
-0.1045355113332E+01 -0.3251005289272E+01  0.0000000000000E+00
-0.1045378787486E+01 -0.3180802866750E+01  0.0000000000000E+00
-0.1045402461708E+01 -0.3110600243909E+01  0.0000000000000E+00
-0.1045426135917E+01 -0.3040397658755E+01  0.0000000000000E+00
-0.1045449810095E+01 -0.2970195164473E+01  0.0000000000000E+00
-0.1045551315657E+01 -0.2899992703486E+01  0.0000000000000E+00
-0.1046202566339E+01 -0.2829793723913E+01  0.0000000000000E+00
-0.1047915859739E+01 -0.2759614990390E+01  0.0000000000000E+00
-0.1050998999770E+01 -0.2689488312903E+01  0.0000000000000E+00
-0.1055572641697E+01 -0.2619452007401E+01  0.0000000000000E+00
-0.1061650407731E+01 -0.2549542801550E+01  0.0000000000000E+00
-0.1069204624013E+01 -0.2479793656596E+01  0.0000000000000E+00
-0.1078203991553E+01 -0.2410235673589E+01  0.0000000000000E+00
-0.1088633049045E+01 -0.2340900126704E+01  0.0000000000000E+00
-0.1100503071749E+01 -0.2271823238048E+01  0.0000000000000E+00
-0.1113861148214E+01 -0.2203049832639E+01  0.0000000000000E+00
-0.1128725407183E+01 -0.2134621457671E+01  0.0000000000000E+00
-0.1145003497769E+01 -0.2066552354937E+01  0.0000000000000E+00
-0.1162626552704E+01 -0.1998857447123E+01  0.0000000000000E+00
-0.1181561532320E+01 -0.1931558510742E+01  0.0000000000000E+00
-0.1201807355426E+01 -0.1864686278866E+01  0.0000000000000E+00
-0.1223394980603E+01 -0.1798283632802E+01  0.0000000000000E+00
-0.1246391373975E+01 -0.1732411010466E+01  0.0000000000000E+00
-0.1270909603116E+01 -0.1667152918159E+01  0.0000000000000E+00
-0.1297125397712E+01 -0.1602636712462E+01  0.0000000000000E+00
-0.1325313189253E+01 -0.1539055522277E+01  0.0000000000000E+00
-0.1017533453958E+01 -0.4233625628194E+01  0.0000000000000E+00
-0.1017566907886E+01 -0.4163206670607E+01  0.0000000000000E+00
-0.1017600361877E+01 -0.4092787580305E+01  0.0000000000000E+00
-0.1017633815897E+01 -0.4022368428792E+01  0.0000000000000E+00
-0.1017667269873E+01 -0.3951949370171E+01  0.0000000000000E+00
-0.1017700723842E+01 -0.3881530324762E+01  0.0000000000000E+00
-0.1017734177816E+01 -0.3811111270406E+01  0.0000000000000E+00
-0.1017767631795E+01 -0.3740692205424E+01  0.0000000000000E+00
-0.1017801085772E+01 -0.3670273145978E+01  0.0000000000000E+00
-0.1017834539748E+01 -0.3599854085567E+01  0.0000000000000E+00
-0.1017867993786E+01 -0.3529434896952E+01  0.0000000000000E+00
-0.1017901447719E+01 -0.3459015928528E+01  0.0000000000000E+00
-0.1017934901752E+01 -0.3388596750409E+01  0.0000000000000E+00
-0.1017968356278E+01 -0.3318176534111E+01  0.0000000000000E+00
-0.1018001809697E+01 -0.3247758646625E+01  0.0000000000000E+00
-0.1018035263581E+01 -0.3177339781880E+01  0.0000000000000E+00
-0.1018068717560E+01 -0.3106920716200E+01  0.0000000000000E+00
-0.1018102171522E+01 -0.3036501688322E+01  0.0000000000000E+00
-0.1018135625440E+01 -0.2966082751597E+01  0.0000000000000E+00
-0.1018244851837E+01 -0.2895663848120E+01  0.0000000000000E+00
-0.1018889280661E+01 -0.2825248427290E+01  0.0000000000000E+00
-0.1020567657443E+01 -0.2754853254624E+01  0.0000000000000E+00
-0.1023579643686E+01 -0.2684510138987E+01  0.0000000000000E+00
-0.1028042702948E+01 -0.2614257395599E+01  0.0000000000000E+00
-0.1033970097107E+01 -0.2544131751656E+01  0.0000000000000E+00
-0.1041334884389E+01 -0.2474166168050E+01  0.0000000000000E+00
-0.1050106593729E+01 -0.2404391746694E+01  0.0000000000000E+00
-0.1060270172863E+01 -0.2334839760947E+01  0.0000000000000E+00
-0.1071836598734E+01 -0.2265546433933E+01  0.0000000000000E+00
-0.1084851714238E+01 -0.2196556590667E+01  0.0000000000000E+00
-0.1099333168593E+01 -0.2127911777470E+01  0.0000000000000E+00
-0.1115191053912E+01 -0.2059626236046E+01  0.0000000000000E+00
-0.1132358324692E+01 -0.1991714889293E+01  0.0000000000000E+00
-0.1150802815268E+01 -0.1924199513894E+01  0.0000000000000E+00
-0.1170523473049E+01 -0.1857110842977E+01  0.0000000000000E+00
-0.1191550437648E+01 -0.1790491757958E+01  0.0000000000000E+00
-0.1213948903631E+01 -0.1724402698364E+01  0.0000000000000E+00
-0.1237828947684E+01 -0.1658928167667E+01  0.0000000000000E+00
-0.1263361650553E+01 -0.1594195528494E+01  0.0000000000000E+00
-0.1290814184204E+01 -0.1530397907066E+01  0.0000000000000E+00
-0.9900418962607E+00 -0.4233414571416E+01  0.0000000000000E+00
-0.9900837924840E+00 -0.4162784557239E+01  0.0000000000000E+00
-0.9901256887862E+00 -0.4092154409949E+01  0.0000000000000E+00
-0.9901675851249E+00 -0.4021524201263E+01  0.0000000000000E+00
-0.9902094814083E+00 -0.3950894085750E+01  0.0000000000000E+00
-0.9902513776839E+00 -0.3880263983487E+01  0.0000000000000E+00
-0.9902932739648E+00 -0.3809633872251E+01  0.0000000000000E+00
-0.9903351702520E+00 -0.3739003750357E+01  0.0000000000000E+00
-0.9903770665359E+00 -0.3668373634015E+01  0.0000000000000E+00
-0.9904189628203E+00 -0.3597743516705E+01  0.0000000000000E+00
-0.9904608591811E+00 -0.3527113270807E+01  0.0000000000000E+00
-0.9905027554109E+00 -0.3456483245761E+01  0.0000000000000E+00
-0.9905446517654E+00 -0.3385853010391E+01  0.0000000000000E+00
-0.9905865487375E+00 -0.3315221733730E+01  0.0000000000000E+00
-0.9906284443242E+00 -0.3244592792861E+01  0.0000000000000E+00
-0.9906703404922E+00 -0.3173962871804E+01  0.0000000000000E+00
-0.9907122367799E+00 -0.3103332749209E+01  0.0000000000000E+00
-0.9907541330450E+00 -0.3032702664530E+01  0.0000000000000E+00
-0.9907960292559E+00 -0.2962072671278E+01  0.0000000000000E+00
-0.9909116390403E+00 -0.2891442711229E+01  0.0000000000000E+00
-0.9915479085496E+00 -0.2820816235028E+01  0.0000000000000E+00
-0.9931900312463E+00 -0.2750210009053E+01  0.0000000000000E+00
-0.9961295262075E+00 -0.2679655841074E+01  0.0000000000000E+00
-0.1000480665275E+01 -0.2609192045601E+01  0.0000000000000E+00
-0.1006256349991E+01 -0.2538855349374E+01  0.0000000000000E+00
-0.1013430370667E+01 -0.2468678712937E+01  0.0000000000000E+00
-0.1021973084167E+01 -0.2398693239047E+01  0.0000000000000E+00
-0.1031869847265E+01 -0.2328930200265E+01  0.0000000000000E+00
-0.1043131338593E+01 -0.2259425820705E+01  0.0000000000000E+00
-0.1055802155392E+01 -0.2190224925383E+01  0.0000000000000E+00
-0.1069899467351E+01 -0.2121369059769E+01  0.0000000000000E+00
-0.1085335809584E+01 -0.2052872465477E+01  0.0000000000000E+00
-0.1102045958354E+01 -0.1984750065613E+01  0.0000000000000E+00
-0.1119998622005E+01 -0.1917023637028E+01  0.0000000000000E+00
-0.1139192776541E+01 -0.1849723912900E+01  0.0000000000000E+00
-0.1159657742613E+01 -0.1782893774755E+01  0.0000000000000E+00
-0.1181456943232E+01 -0.1716593663690E+01  0.0000000000000E+00
-0.1204697464179E+01 -0.1650908080416E+01  0.0000000000000E+00
-0.1229545737291E+01 -0.1585964393460E+01  0.0000000000000E+00
-0.1256261674990E+01 -0.1521955726426E+01  0.0000000000000E+00
-0.9625490307744E+00 -0.4233208934242E+01  0.0000000000000E+00
-0.9625980615051E+00 -0.4162373283074E+01  0.0000000000000E+00
-0.9626470923282E+00 -0.4091537498405E+01  0.0000000000000E+00
-0.9626961231939E+00 -0.4020701652163E+01  0.0000000000000E+00
-0.9627451539950E+00 -0.3949865899364E+01  0.0000000000000E+00
-0.9627941847868E+00 -0.3879030159854E+01  0.0000000000000E+00
-0.9628432155849E+00 -0.3808194411344E+01  0.0000000000000E+00
-0.9628922463903E+00 -0.3737358652146E+01  0.0000000000000E+00
-0.9629412771919E+00 -0.3666522898516E+01  0.0000000000000E+00
-0.9629903079942E+00 -0.3595687143916E+01  0.0000000000000E+00
-0.9630393388858E+00 -0.3524851260352E+01  0.0000000000000E+00
-0.9630883696240E+00 -0.3454015598284E+01  0.0000000000000E+00
-0.9631374005082E+00 -0.3383179725279E+01  0.0000000000000E+00
-0.9631864321153E+00 -0.3312342807951E+01  0.0000000000000E+00
-0.9632354621009E+00 -0.3241508233216E+01  0.0000000000000E+00
-0.9632844927670E+00 -0.3170672675440E+01  0.0000000000000E+00
-0.9633335235729E+00 -0.3099836915539E+01  0.0000000000000E+00
-0.9633825543526E+00 -0.3029001193664E+01  0.0000000000000E+00
-0.9634315850687E+00 -0.2958165563482E+01  0.0000000000000E+00
-0.9635522704534E+00 -0.2887329966460E+01  0.0000000000000E+00
-0.9641790728768E+00 -0.2816497854456E+01  0.0000000000000E+00
-0.9657836337437E+00 -0.2745685994687E+01  0.0000000000000E+00
-0.9686493297033E+00 -0.2674926193857E+01  0.0000000000000E+00
-0.9728872408782E+00 -0.2604256765783E+01  0.0000000000000E+00
-0.9785099084739E+00 -0.2533714436761E+01  0.0000000000000E+00
-0.9854918548825E+00 -0.2463332166997E+01  0.0000000000000E+00
-0.9938042649014E+00 -0.2393141060067E+01  0.0000000000000E+00
-0.1003432904341E+01 -0.2323172387757E+01  0.0000000000000E+00
-0.1014388153526E+01 -0.2253462375149E+01  0.0000000000000E+00
-0.1026713364044E+01 -0.2184055847255E+01  0.0000000000000E+00
-0.1040425226048E+01 -0.2114994348714E+01  0.0000000000000E+00
-0.1055438717652E+01 -0.2046292121059E+01  0.0000000000000E+00
-0.1071690436889E+01 -0.1977964087595E+01  0.0000000000000E+00
-0.1089149966106E+01 -0.1910032025335E+01  0.0000000000000E+00
-0.1107816309908E+01 -0.1842526667508E+01  0.0000000000000E+00
-0.1127717969982E+01 -0.1775490895749E+01  0.0000000000000E+00
-0.1148916597798E+01 -0.1708985152681E+01  0.0000000000000E+00
-0.1171516288212E+01 -0.1643093936327E+01  0.0000000000000E+00
-0.1195678824192E+01 -0.1577944620960E+01  0.0000000000000E+00
-0.1221656858605E+01 -0.1513730327639E+01  0.0000000000000E+00
-0.9350548857341E+00 -0.4233008749201E+01  0.0000000000000E+00
-0.9351097714192E+00 -0.4161972913172E+01  0.0000000000000E+00
-0.9351646572077E+00 -0.4090936943265E+01  0.0000000000000E+00
-0.9352195430440E+00 -0.4019900911610E+01  0.0000000000000E+00
-0.9352744288078E+00 -0.3948864973661E+01  0.0000000000000E+00
-0.9353293145614E+00 -0.3877829049040E+01  0.0000000000000E+00
-0.9353842003219E+00 -0.3806793115393E+01  0.0000000000000E+00
-0.9354390860907E+00 -0.3735757171028E+01  0.0000000000000E+00
-0.9354939718552E+00 -0.3664721232247E+01  0.0000000000000E+00
-0.9355488576204E+00 -0.3593685292493E+01  0.0000000000000E+00
-0.9356037434856E+00 -0.3522649223411E+01  0.0000000000000E+00
-0.9356586291791E+00 -0.3451613376450E+01  0.0000000000000E+00
-0.9357135150361E+00 -0.3380577317956E+01  0.0000000000000E+00
-0.9357684017023E+00 -0.3309540212189E+01  0.0000000000000E+00
-0.9358232865533E+00 -0.3238505455634E+01  0.0000000000000E+00
-0.9358781721661E+00 -0.3167469713260E+01  0.0000000000000E+00
-0.9359330579354E+00 -0.3096433768190E+01  0.0000000000000E+00
-0.9359879436753E+00 -0.3025397861254E+01  0.0000000000000E+00
-0.9360428293441E+00 -0.2954362046269E+01  0.0000000000000E+00
-0.9361673107769E+00 -0.2883326264402E+01  0.0000000000000E+00
-0.9367833665756E+00 -0.2812293968694E+01  0.0000000000000E+00
-0.9383490860972E+00 -0.2741281927175E+01  0.0000000000000E+00
-0.9411397035599E+00 -0.2670321945513E+01  0.0000000000000E+00
-0.9452631073643E+00 -0.2599452336852E+01  0.0000000000000E+00
-0.9507314783757E+00 -0.2528709827051E+01  0.0000000000000E+00
-0.9575200710652E+00 -0.2458127375992E+01  0.0000000000000E+00
-0.9656008981693E+00 -0.2387736088047E+01  0.0000000000000E+00
-0.9749601345276E+00 -0.2317567234247E+01  0.0000000000000E+00
-0.9856078621643E+00 -0.2247657040614E+01  0.0000000000000E+00
-0.9975861870151E+00 -0.2178050332159E+01  0.0000000000000E+00
-0.1010911319691E+01 -0.2108788652715E+01  0.0000000000000E+00
-0.1025500681307E+01 -0.2039886243729E+01  0.0000000000000E+00
-0.1041292691662E+01 -0.1971358028703E+01  0.0000000000000E+00
-0.1058257807111E+01 -0.1903225784809E+01  0.0000000000000E+00
-0.1076395060859E+01 -0.1835520245327E+01  0.0000000000000E+00
-0.1095732135628E+01 -0.1768284291992E+01  0.0000000000000E+00
-0.1116328911357E+01 -0.1701578368917E+01  0.0000000000000E+00
-0.1138286491965E+01 -0.1635486971509E+01  0.0000000000000E+00
-0.1161762011589E+01 -0.1570137479634E+01  0.0000000000000E+00
-0.1187000863524E+01 -0.1505723011870E+01  0.0000000000000E+00
-0.9075594888834E+00 -0.4232814047965E+01  0.0000000000000E+00
-0.9076189777137E+00 -0.4161583510873E+01  0.0000000000000E+00
-0.9076784666562E+00 -0.4090352839537E+01  0.0000000000000E+00
-0.9077379556503E+00 -0.4019122106283E+01  0.0000000000000E+00
-0.9077974445660E+00 -0.3947891466993E+01  0.0000000000000E+00
-0.9078569334706E+00 -0.3876660841067E+01  0.0000000000000E+00
-0.9079164223826E+00 -0.3805430206090E+01  0.0000000000000E+00
-0.9079759113037E+00 -0.3734199560366E+01  0.0000000000000E+00
-0.9080354002201E+00 -0.3662968920241E+01  0.0000000000000E+00
-0.9080948891373E+00 -0.3591738279139E+01  0.0000000000000E+00
-0.9081543781628E+00 -0.3520507508356E+01  0.0000000000000E+00
-0.9082138670023E+00 -0.3449276960303E+01  0.0000000000000E+00
-0.9082733560189E+00 -0.3378046200137E+01  0.0000000000000E+00
-0.9083328459126E+00 -0.3306814389827E+01  0.0000000000000E+00
-0.9083923338389E+00 -0.3235584935169E+01  0.0000000000000E+00
-0.9084518225908E+00 -0.3164354491989E+01  0.0000000000000E+00
-0.9085113115124E+00 -0.3093123845558E+01  0.0000000000000E+00
-0.9085708004021E+00 -0.3021893237364E+01  0.0000000000000E+00
-0.9086302892149E+00 -0.2950662721375E+01  0.0000000000000E+00
-0.9087573148855E+00 -0.2879432238462E+01  0.0000000000000E+00
-0.9093613722480E+00 -0.2808205242816E+01  0.0000000000000E+00
-0.9108869986093E+00 -0.2736998503262E+01  0.0000000000000E+00
-0.9136012857450E+00 -0.2665843824457E+01  0.0000000000000E+00
-0.9176089303279E+00 -0.2594779518890E+01  0.0000000000000E+00
-0.9229217528804E+00 -0.2523842311999E+01  0.0000000000000E+00
-0.9295157399506E+00 -0.2453065163345E+01  0.0000000000000E+00
-0.9373637322199E+00 -0.2382479178080E+01  0.0000000000000E+00
-0.9464523135519E+00 -0.2312115626497E+01  0.0000000000000E+00
-0.9567912676773E+00 -0.2242010735533E+01  0.0000000000000E+00
-0.9684214548780E+00 -0.2172209330199E+01  0.0000000000000E+00
-0.9813586062191E+00 -0.2102752953541E+01  0.0000000000000E+00
-0.9955225858144E+00 -0.2033655846927E+01  0.0000000000000E+00
-0.1010853635234E+01 -0.1964932934049E+01  0.0000000000000E+00
-0.1027323084841E+01 -0.1896605992232E+01  0.0000000000000E+00
-0.1044929996441E+01 -0.1828705754805E+01  0.0000000000000E+00
-0.1063701233792E+01 -0.1761275103603E+01  0.0000000000000E+00
-0.1083694905311E+01 -0.1694374484189E+01  0.0000000000000E+00
-0.1105009123960E+01 -0.1628088389422E+01  0.0000000000000E+00
-0.1127796375076E+01 -0.1562544204608E+01  0.0000000000000E+00
-0.1152294792365E+01 -0.1497935045915E+01  0.0000000000000E+00
-0.8800628705364E+00 -0.4232624862121E+01  0.0000000000000E+00
-0.8801257410166E+00 -0.4161205139353E+01  0.0000000000000E+00
-0.8801886116154E+00 -0.4089785281985E+01  0.0000000000000E+00
-0.8802514822688E+00 -0.4018365362534E+01  0.0000000000000E+00
-0.8803143528392E+00 -0.3946945537297E+01  0.0000000000000E+00
-0.8803772233979E+00 -0.3875525725460E+01  0.0000000000000E+00
-0.8804400939646E+00 -0.3804105904547E+01  0.0000000000000E+00
-0.8805029645407E+00 -0.3732686072859E+01  0.0000000000000E+00
-0.8805658351119E+00 -0.3661266246784E+01  0.0000000000000E+00
-0.8806287056840E+00 -0.3589846419731E+01  0.0000000000000E+00
-0.8806915763705E+00 -0.3518426462652E+01  0.0000000000000E+00
-0.8807544468605E+00 -0.3447006728894E+01  0.0000000000000E+00
-0.8808173175376E+00 -0.3375586782460E+01  0.0000000000000E+00
-0.8808801891417E+00 -0.3304165783093E+01  0.0000000000000E+00
-0.8809430586665E+00 -0.3232747145634E+01  0.0000000000000E+00
-0.8810059290639E+00 -0.3161327517028E+01  0.0000000000000E+00
-0.8810687996407E+00 -0.3089907684630E+01  0.0000000000000E+00
-0.8811316701837E+00 -0.3018487890573E+01  0.0000000000000E+00
-0.8811945406453E+00 -0.2947068188964E+01  0.0000000000000E+00
-0.8813228890586E+00 -0.2875648520392E+01  0.0000000000000E+00
-0.8819137264959E+00 -0.2804232340163E+01  0.0000000000000E+00
-0.8833980382182E+00 -0.2732836417874E+01  0.0000000000000E+00
-0.8860347735525E+00 -0.2661492557202E+01  0.0000000000000E+00
-0.8899254374389E+00 -0.2590239069998E+01  0.0000000000000E+00
-0.8950814900544E+00 -0.2519112681292E+01  0.0000000000000E+00
-0.9014796500221E+00 -0.2448146350332E+01  0.0000000000000E+00
-0.9090935859732E+00 -0.2377371183027E+01  0.0000000000000E+00
-0.9179102907911E+00 -0.2306818448954E+01  0.0000000000000E+00
-0.9279392499182E+00 -0.2236524375941E+01  0.0000000000000E+00
-0.9392200779827E+00 -0.2166533788996E+01  0.0000000000000E+00
-0.9517680264986E+00 -0.2096888230403E+01  0.0000000000000E+00
-0.9655054025790E+00 -0.2027601941450E+01  0.0000000000000E+00
-0.9803742695659E+00 -0.1958689846016E+01  0.0000000000000E+00
-0.9963468318319E+00 -0.1890173721573E+01  0.0000000000000E+00
-0.1013422179782E+01 -0.1822084301500E+01  0.0000000000000E+00
-0.1031626358213E+01 -0.1754464467729E+01  0.0000000000000E+00
-0.1051015704027E+01 -0.1687374667227E+01  0.0000000000000E+00
-0.1071685339213E+01 -0.1620899390382E+01  0.0000000000000E+00
-0.1093783100342E+01 -0.1555166027787E+01  0.0000000000000E+00
-0.1117539861519E+01 -0.1490367693265E+01  0.0000000000000E+00
-0.8525650613475E+00 -0.4232441222540E+01  0.0000000000000E+00
-0.8526301226369E+00 -0.4160837860356E+01  0.0000000000000E+00
-0.8526951840489E+00 -0.4089234363225E+01  0.0000000000000E+00
-0.8527602455175E+00 -0.4017630803852E+01  0.0000000000000E+00
-0.8528253069002E+00 -0.3946027338935E+01  0.0000000000000E+00
-0.8528903682708E+00 -0.3874423887452E+01  0.0000000000000E+00
-0.8529554296496E+00 -0.3802820426871E+01  0.0000000000000E+00
-0.8530204910382E+00 -0.3731216955486E+01  0.0000000000000E+00
-0.8530855524217E+00 -0.3659613489729E+01  0.0000000000000E+00
-0.8531506138061E+00 -0.3588010022991E+01  0.0000000000000E+00
-0.8532156753090E+00 -0.3516406425893E+01  0.0000000000000E+00
-0.8532807366084E+00 -0.3444803052690E+01  0.0000000000000E+00
-0.8533457981016E+00 -0.3373199466264E+01  0.0000000000000E+00
-0.8534108605539E+00 -0.3301594824198E+01  0.0000000000000E+00
-0.8534759208546E+00 -0.3229992550113E+01  0.0000000000000E+00
-0.8535409820583E+00 -0.3158389282333E+01  0.0000000000000E+00
-0.8536060434475E+00 -0.3086785810237E+01  0.0000000000000E+00
-0.8536711048019E+00 -0.3015182376580E+01  0.0000000000000E+00
-0.8537361660720E+00 -0.2943579035609E+01  0.0000000000000E+00
-0.8538646463877E+00 -0.2871975727635E+01  0.0000000000000E+00
-0.8544410730703E+00 -0.2800375909051E+01  0.0000000000000E+00
-0.8558828793436E+00 -0.2728796350200E+01  0.0000000000000E+00
-0.8584408720812E+00 -0.2657268853809E+01  0.0000000000000E+00
-0.8622133644880E+00 -0.2585831731108E+01  0.0000000000000E+00
-0.8672114563930E+00 -0.2514521706732E+01  0.0000000000000E+00
-0.8734125984922E+00 -0.2443371739627E+01  0.0000000000000E+00
-0.8807912873710E+00 -0.2372412936434E+01  0.0000000000000E+00
-0.8893349249278E+00 -0.2301676566038E+01  0.0000000000000E+00
-0.8990526983227E+00 -0.2231198857128E+01  0.0000000000000E+00
-0.9099829765306E+00 -0.2161024634712E+01  0.0000000000000E+00
-0.9221405315093E+00 -0.2091195440332E+01  0.0000000000000E+00
-0.9354501133705E+00 -0.2021725515203E+01  0.0000000000000E+00
-0.9498556072284E+00 -0.1952629783379E+01  0.0000000000000E+00
-0.9653300914659E+00 -0.1883930022482E+01  0.0000000000000E+00
-0.9818726850887E+00 -0.1815656965932E+01  0.0000000000000E+00
-0.9995086139303E+00 -0.1747853495759E+01  0.0000000000000E+00
-0.1018292443390E+01 -0.1680580060295E+01  0.0000000000000E+00
-0.1038316304469E+01 -0.1613921147526E+01  0.0000000000000E+00
-0.1059723385008E+01 -0.1548004153177E+01  0.0000000000000E+00
-0.1082737299492E+01 -0.1483022188796E+01  0.0000000000000E+00
-0.8250660920538E+00 -0.4232263159309E+01  0.0000000000000E+00
-0.8251321840486E+00 -0.4160481734051E+01  0.0000000000000E+00
-0.8251982761680E+00 -0.4088700173511E+01  0.0000000000000E+00
-0.8252643683448E+00 -0.4016918550576E+01  0.0000000000000E+00
-0.8253304604344E+00 -0.3945137022330E+01  0.0000000000000E+00
-0.8253965525117E+00 -0.3873355507552E+01  0.0000000000000E+00
-0.8254626445973E+00 -0.3801573983653E+01  0.0000000000000E+00
-0.8255287366929E+00 -0.3729792448923E+01  0.0000000000000E+00
-0.8255948287833E+00 -0.3658010919836E+01  0.0000000000000E+00
-0.8256609208746E+00 -0.3586229389765E+01  0.0000000000000E+00
-0.8257270130863E+00 -0.3514447729009E+01  0.0000000000000E+00
-0.8257931050913E+00 -0.3442666292706E+01  0.0000000000000E+00
-0.8258591972930E+00 -0.3370884642650E+01  0.0000000000000E+00
-0.8259252904692E+00 -0.3299101934328E+01  0.0000000000000E+00
-0.8259913814597E+00 -0.3227321599875E+01  0.0000000000000E+00
-0.8260574733674E+00 -0.3155540269257E+01  0.0000000000000E+00
-0.8261235654636E+00 -0.3083758733815E+01  0.0000000000000E+00
-0.8261896575244E+00 -0.3011977236907E+01  0.0000000000000E+00
-0.8262557494996E+00 -0.2940195832915E+01  0.0000000000000E+00
-0.8263832016146E+00 -0.2868414461884E+01  0.0000000000000E+00
-0.8269440574487E+00 -0.2796636581256E+01  0.0000000000000E+00
-0.8283421981958E+00 -0.2724878962100E+01  0.0000000000000E+00
-0.8308202882722E+00 -0.2653173406220E+01  0.0000000000000E+00
-0.8344734491439E+00 -0.2581558224248E+01  0.0000000000000E+00
-0.8393124202894E+00 -0.2510070140431E+01  0.0000000000000E+00
-0.8453153844756E+00 -0.2438742113425E+01  0.0000000000000E+00
-0.8524576662468E+00 -0.2367605250581E+01  0.0000000000000E+00
-0.8607270765120E+00 -0.2296690820111E+01  0.0000000000000E+00
-0.8701325041541E+00 -0.2226035051540E+01  0.0000000000000E+00
-0.8807110724950E+00 -0.2155682769878E+01  0.0000000000000E+00
-0.8924770739321E+00 -0.2085675515945E+01  0.0000000000000E+00
-0.9053577015745E+00 -0.2016027530883E+01  0.0000000000000E+00
-0.9192986623094E+00 -0.1946753738922E+01  0.0000000000000E+00
-0.9342739085305E+00 -0.1877875917823E+01  0.0000000000000E+00
-0.9502825878444E+00 -0.1809424801052E+01  0.0000000000000E+00
-0.9673491071235E+00 -0.1741443270728E+01  0.0000000000000E+00
-0.9855262602718E+00 -0.1673991776510E+01  0.0000000000000E+00
-0.1004903187288E+01 -0.1607154804054E+01  0.0000000000000E+00
-0.1025618427315E+01 -0.1541059754062E+01  0.0000000000000E+00
-0.1047888335209E+01 -0.1475899735876E+01  0.0000000000000E+00
-0.7975659939323E+00 -0.4232090701822E+01  0.0000000000000E+00
-0.7976319878057E+00 -0.4160136819232E+01  0.0000000000000E+00
-0.7976979818034E+00 -0.4088182801034E+01  0.0000000000000E+00
-0.7977639758586E+00 -0.4016228720290E+01  0.0000000000000E+00
-0.7978299698266E+00 -0.3944274734464E+01  0.0000000000000E+00
-0.7978959637823E+00 -0.3872320762138E+01  0.0000000000000E+00
-0.7979619577464E+00 -0.3800366780669E+01  0.0000000000000E+00
-0.7980279517205E+00 -0.3728412788344E+01  0.0000000000000E+00
-0.7980939456893E+00 -0.3656458801674E+01  0.0000000000000E+00
-0.7981599396591E+00 -0.3584504814019E+01  0.0000000000000E+00
-0.7982259337490E+00 -0.3512550695365E+01  0.0000000000000E+00
-0.7982919276325E+00 -0.3440596801702E+01  0.0000000000000E+00
-0.7983579217126E+00 -0.3368642693773E+01  0.0000000000000E+00
-0.7984239167656E+00 -0.3296687525035E+01  0.0000000000000E+00
-0.7984899096361E+00 -0.3224734735871E+01  0.0000000000000E+00
-0.7985559034225E+00 -0.3152780948147E+01  0.0000000000000E+00
-0.7986218973972E+00 -0.3080826955107E+01  0.0000000000000E+00
-0.7986878913365E+00 -0.3008873000694E+01  0.0000000000000E+00
-0.7987538851903E+00 -0.2936919139421E+01  0.0000000000000E+00
-0.7988791802779E+00 -0.2864965311072E+01  0.0000000000000E+00
-0.7994233364446E+00 -0.2793014974107E+01  0.0000000000000E+00
-0.8007766828600E+00 -0.2721084900299E+01  0.0000000000000E+00
-0.8031737414778E+00 -0.2649206890558E+01  0.0000000000000E+00
-0.8067064420217E+00 -0.2577419254934E+01  0.0000000000000E+00
-0.8113851636173E+00 -0.2505758717304E+01  0.0000000000000E+00
-0.8171888211005E+00 -0.2434258236037E+01  0.0000000000000E+00
-0.8240935669787E+00 -0.2362948919174E+01  0.0000000000000E+00
-0.8320876211673E+00 -0.2291862034276E+01  0.0000000000000E+00
-0.8411795742777E+00 -0.2221033811677E+01  0.0000000000000E+00
-0.8514053039785E+00 -0.2150509076388E+01  0.0000000000000E+00
-0.8627786231021E+00 -0.2080329368531E+01  0.0000000000000E+00
-0.8752291677545E+00 -0.2010508929178E+01  0.0000000000000E+00
-0.8887044665969E+00 -0.1941062682728E+01  0.0000000000000E+00
-0.9031793460348E+00 -0.1872012407076E+01  0.0000000000000E+00
-0.9186529822757E+00 -0.1803388835734E+01  0.0000000000000E+00
-0.9351489632314E+00 -0.1735234850908E+01  0.0000000000000E+00
-0.9527183113194E+00 -0.1667610903540E+01  0.0000000000000E+00
-0.9714471755213E+00 -0.1600601477032E+01  0.0000000000000E+00
-0.9914694463155E+00 -0.1534333976903E+01  0.0000000000000E+00
-0.1012994218913E+01 -0.1469001510359E+01  0.0000000000000E+00
-0.7700647981096E+00 -0.4231923878620E+01  0.0000000000000E+00
-0.7701295961614E+00 -0.4159803172976E+01  0.0000000000000E+00
-0.7701943943354E+00 -0.4087682331411E+01  0.0000000000000E+00
-0.7702591925656E+00 -0.4015561427154E+01  0.0000000000000E+00
-0.7703239907104E+00 -0.3943440618035E+01  0.0000000000000E+00
-0.7703887888430E+00 -0.3871319822448E+01  0.0000000000000E+00
-0.7704535869839E+00 -0.3799199017697E+01  0.0000000000000E+00
-0.7705183851345E+00 -0.3727078202063E+01  0.0000000000000E+00
-0.7705831832801E+00 -0.3654957392099E+01  0.0000000000000E+00
-0.7706479814265E+00 -0.3582836581146E+01  0.0000000000000E+00
-0.7707127796909E+00 -0.3510715638892E+01  0.0000000000000E+00
-0.7707775777527E+00 -0.3438594922150E+01  0.0000000000000E+00
-0.7708423760074E+00 -0.3366473990645E+01  0.0000000000000E+00
-0.7709071752175E+00 -0.3294351995872E+01  0.0000000000000E+00
-0.7709719722846E+00 -0.3222232386190E+01  0.0000000000000E+00
-0.7710367702510E+00 -0.3150111775632E+01  0.0000000000000E+00
-0.7711015684022E+00 -0.3077990959283E+01  0.0000000000000E+00
-0.7711663665187E+00 -0.3005870181650E+01  0.0000000000000E+00
-0.7712311645513E+00 -0.2933749497373E+01  0.0000000000000E+00
-0.7713532049104E+00 -0.2861628845984E+01  0.0000000000000E+00
-0.7718795637062E+00 -0.2789511686930E+01  0.0000000000000E+00
-0.7731870180811E+00 -0.2717414792663E+01  0.0000000000000E+00
-0.7755019475157E+00 -0.2645369963226E+01  0.0000000000000E+00
-0.7789130899857E+00 -0.2573415508111E+01  0.0000000000000E+00
-0.7834304642614E+00 -0.2501588150830E+01  0.0000000000000E+00
-0.7890337172463E+00 -0.2429920849482E+01  0.0000000000000E+00
-0.7956998294157E+00 -0.2358444712771E+01  0.0000000000000E+00
-0.8034174296876E+00 -0.2287191007629E+01  0.0000000000000E+00
-0.8121948104066E+00 -0.2216195965175E+01  0.0000000000000E+00
-0.8220666035875E+00 -0.2145504410416E+01  0.0000000000000E+00
-0.8330461424932E+00 -0.2075157882804E+01  0.0000000000000E+00
-0.8450655062273E+00 -0.2005170623341E+01  0.0000000000000E+00
-0.8580740452271E+00 -0.1935557556587E+01  0.0000000000000E+00
-0.8720474599112E+00 -0.1866340460572E+01  0.0000000000000E+00
-0.8869849550885E+00 -0.1797550068848E+01  0.0000000000000E+00
-0.9029092997104E+00 -0.1729229263707E+01  0.0000000000000E+00
-0.9198697447146E+00 -0.1661438497332E+01  0.0000000000000E+00
-0.9379494480500E+00 -0.1594262250943E+01  0.0000000000000E+00
-0.9572776515575E+00 -0.1527827934722E+01  0.0000000000000E+00
-0.9780561907860E+00 -0.1462328653807E+01  0.0000000000000E+00
-0.7425625381275E+00 -0.4231762717925E+01  0.0000000000000E+00
-0.7426250761992E+00 -0.4159480851731E+01  0.0000000000000E+00
-0.7426876143887E+00 -0.4087198849311E+01  0.0000000000000E+00
-0.7427501526326E+00 -0.4014916784060E+01  0.0000000000000E+00
-0.7428126907940E+00 -0.3942634814159E+01  0.0000000000000E+00
-0.7428752289437E+00 -0.3870352857819E+01  0.0000000000000E+00
-0.7429377671013E+00 -0.3798070892296E+01  0.0000000000000E+00
-0.7430003052684E+00 -0.3725788915866E+01  0.0000000000000E+00
-0.7430628434305E+00 -0.3653506945118E+01  0.0000000000000E+00
-0.7431253815935E+00 -0.3581224973379E+01  0.0000000000000E+00
-0.7431879198704E+00 -0.3508942870045E+01  0.0000000000000E+00
-0.7432504579517E+00 -0.3436660992727E+01  0.0000000000000E+00
-0.7433129962192E+00 -0.3364378900167E+01  0.0000000000000E+00
-0.7433755354087E+00 -0.3292095741962E+01  0.0000000000000E+00
-0.7434380725301E+00 -0.3219814974178E+01  0.0000000000000E+00
-0.7435006105193E+00 -0.3147533203282E+01  0.0000000000000E+00
-0.7435631486870E+00 -0.3075251226135E+01  0.0000000000000E+00
-0.7436256868211E+00 -0.3002969287790E+01  0.0000000000000E+00
-0.7436882248742E+00 -0.2930687443010E+01  0.0000000000000E+00
-0.7438059463465E+00 -0.2858405631084E+01  0.0000000000000E+00
-0.7443134436217E+00 -0.2786127312410E+01  0.0000000000000E+00
-0.7455739418209E+00 -0.2713869260097E+01  0.0000000000000E+00
-0.7478056779474E+00 -0.2641663273355E+01  0.0000000000000E+00
-0.7510941982260E+00 -0.2569547661129E+01  0.0000000000000E+00
-0.7554491610694E+00 -0.2497559146585E+01  0.0000000000000E+00
-0.7608509454467E+00 -0.2425730687557E+01  0.0000000000000E+00
-0.7672773598055E+00 -0.2354093393392E+01  0.0000000000000E+00
-0.7747174420619E+00 -0.2282678530414E+01  0.0000000000000E+00
-0.7831791862991E+00 -0.2211522330498E+01  0.0000000000000E+00
-0.7926959788783E+00 -0.2140669618651E+01  0.0000000000000E+00
-0.8032806734883E+00 -0.2070161933674E+01  0.0000000000000E+00
-0.8148677922298E+00 -0.2000013516502E+01  0.0000000000000E+00
-0.8274085073170E+00 -0.1930239291855E+01  0.0000000000000E+00
-0.8408793931821E+00 -0.1860861037888E+01  0.0000000000000E+00
-0.8552796832357E+00 -0.1791909488193E+01  0.0000000000000E+00
-0.8706313274695E+00 -0.1723427525147E+01  0.0000000000000E+00
-0.8869818053497E+00 -0.1655475602130E+01  0.0000000000000E+00
-0.9044112837790E+00 -0.1588138198255E+01  0.0000000000000E+00
-0.9230443559913E+00 -0.1521542728208E+01  0.0000000000000E+00
-0.9430755978615E+00 -0.1455882295130E+01  0.0000000000000E+00
-0.7150592470639E+00 -0.4231607246974E+01  0.0000000000000E+00
-0.7151184940750E+00 -0.4159169909968E+01  0.0000000000000E+00
-0.7151777411977E+00 -0.4086732436442E+01  0.0000000000000E+00
-0.7152369883719E+00 -0.4014294899951E+01  0.0000000000000E+00
-0.7152962354680E+00 -0.3941857459014E+01  0.0000000000000E+00
-0.7153554825529E+00 -0.3869420031669E+01  0.0000000000000E+00
-0.7154147296454E+00 -0.3796982595119E+01  0.0000000000000E+00
-0.7154739767468E+00 -0.3724545147640E+01  0.0000000000000E+00
-0.7155332238436E+00 -0.3652107705855E+01  0.0000000000000E+00
-0.7155924709412E+00 -0.3579670263077E+01  0.0000000000000E+00
-0.7156517181466E+00 -0.3507232688420E+01  0.0000000000000E+00
-0.7157109651668E+00 -0.3434795340266E+01  0.0000000000000E+00
-0.7157702123634E+00 -0.3362357776407E+01  0.0000000000000E+00
-0.7158294604335E+00 -0.3289919144611E+01  0.0000000000000E+00
-0.7158887065442E+00 -0.3217482908377E+01  0.0000000000000E+00
-0.7159479534771E+00 -0.3145045666874E+01  0.0000000000000E+00
-0.7160072005791E+00 -0.3072608218676E+01  0.0000000000000E+00
-0.7160664476493E+00 -0.3000170809363E+01  0.0000000000000E+00
-0.7161256946429E+00 -0.2927733493817E+01  0.0000000000000E+00
-0.7162380661482E+00 -0.2855296211092E+01  0.0000000000000E+00
-0.7167256708301E+00 -0.2782862422504E+01  0.0000000000000E+00
-0.7179381817940E+00 -0.2710448901796E+01  0.0000000000000E+00
-0.7200856935616E+00 -0.2638087447371E+01  0.0000000000000E+00
-0.7232505606037E+00 -0.2565816367651E+01  0.0000000000000E+00
-0.7274420809730E+00 -0.2493672385468E+01  0.0000000000000E+00
-0.7326413657027E+00 -0.2421688458397E+01  0.0000000000000E+00
-0.7388270512163E+00 -0.2349895696407E+01  0.0000000000000E+00
-0.7459885844246E+00 -0.2278325365235E+01  0.0000000000000E+00
-0.7541336611539E+00 -0.2207013697486E+01  0.0000000000000E+00
-0.7632944221120E+00 -0.2136005518168E+01  0.0000000000000E+00
-0.7734832414096E+00 -0.2065342365452E+01  0.0000000000000E+00
-0.7846370841437E+00 -0.1995038480210E+01  0.0000000000000E+00
-0.7967089443062E+00 -0.1925108787314E+01  0.0000000000000E+00
-0.8096762703438E+00 -0.1855575065041E+01  0.0000000000000E+00
-0.8235383242689E+00 -0.1786468047024E+01  0.0000000000000E+00
-0.8383162371141E+00 -0.1717830615718E+01  0.0000000000000E+00
-0.8540557168821E+00 -0.1649723225659E+01  0.0000000000000E+00
-0.8708339394160E+00 -0.1582230353929E+01  0.0000000000000E+00
-0.8887708493720E+00 -0.1515479419557E+01  0.0000000000000E+00
-0.9080537629396E+00 -0.1449663523759E+01  0.0000000000000E+00
-0.6875549585543E+00 -0.4231457492231E+01  0.0000000000000E+00
-0.6876099170595E+00 -0.4158870400615E+01  0.0000000000000E+00
-0.6876648756684E+00 -0.4086283172198E+01  0.0000000000000E+00
-0.6877198343249E+00 -0.4013695880685E+01  0.0000000000000E+00
-0.6877747929090E+00 -0.3941108684925E+01  0.0000000000000E+00
-0.6878297514828E+00 -0.3868521502783E+01  0.0000000000000E+00
-0.6878847100636E+00 -0.3795934311418E+01  0.0000000000000E+00
-0.6879396686527E+00 -0.3723347109101E+01  0.0000000000000E+00
-0.6879946272374E+00 -0.3650759912490E+01  0.0000000000000E+00
-0.6880495858229E+00 -0.3578172714884E+01  0.0000000000000E+00
-0.6881045445085E+00 -0.3505585385126E+01  0.0000000000000E+00
-0.6881595030222E+00 -0.3432998282340E+01  0.0000000000000E+00
-0.6882144616995E+00 -0.3360410963403E+01  0.0000000000000E+00
-0.6882694211871E+00 -0.3287822574321E+01  0.0000000000000E+00
-0.6883243788572E+00 -0.3215236585753E+01  0.0000000000000E+00
-0.6883793372900E+00 -0.3142649589838E+01  0.0000000000000E+00
-0.6884342958796E+00 -0.3070062386801E+01  0.0000000000000E+00
-0.6884892544397E+00 -0.2997475222730E+01  0.0000000000000E+00
-0.6885442129287E+00 -0.2924888152618E+01  0.0000000000000E+00
-0.6886502370222E+00 -0.2852301115297E+01  0.0000000000000E+00
-0.6891169516725E+00 -0.2779717572965E+01  0.0000000000000E+00
-0.6902804779749E+00 -0.2707154299975E+01  0.0000000000000E+00
-0.6923427679648E+00 -0.2634643093955E+01  0.0000000000000E+00
-0.6953829843556E+00 -0.2562222262823E+01  0.0000000000000E+00
-0.6994100648383E+00 -0.2489928529086E+01  0.0000000000000E+00
-0.7044058525081E+00 -0.2417794850073E+01  0.0000000000000E+00
-0.7103498117688E+00 -0.2345852336351E+01  0.0000000000000E+00
-0.7172317985216E+00 -0.2274132253092E+01  0.0000000000000E+00
-0.7250592103409E+00 -0.2202670833605E+01  0.0000000000000E+00
-0.7338629422812E+00 -0.2131512902894E+01  0.0000000000000E+00
-0.7436548888710E+00 -0.2060699998530E+01  0.0000000000000E+00
-0.7543744582030E+00 -0.1990246361320E+01  0.0000000000000E+00
-0.7659764660477E+00 -0.1920166916283E+01  0.0000000000000E+00
-0.7784392348670E+00 -0.1850483441816E+01  0.0000000000000E+00
-0.7917620552753E+00 -0.1781226671587E+01  0.0000000000000E+00
-0.8059652393467E+00 -0.1712439488130E+01  0.0000000000000E+00
-0.8210927236280E+00 -0.1644182347095E+01  0.0000000000000E+00
-0.8372186928899E+00 -0.1576539723603E+01  0.0000000000000E+00
-0.8544584432393E+00 -0.1509639040870E+01  0.0000000000000E+00
-0.8729920311679E+00 -0.1443673398257E+01  0.0000000000000E+00
-0.6600497067773E+00 -0.4231313479365E+01  0.0000000000000E+00
-0.6600994135103E+00 -0.4158582375012E+01  0.0000000000000E+00
-0.6601491203370E+00 -0.4085851133586E+01  0.0000000000000E+00
-0.6601988272069E+00 -0.4013119828939E+01  0.0000000000000E+00
-0.6602485340112E+00 -0.3940388620235E+01  0.0000000000000E+00
-0.6602982408062E+00 -0.3867657425176E+01  0.0000000000000E+00
-0.6603479476074E+00 -0.3794926220876E+01  0.0000000000000E+00
-0.6603976544162E+00 -0.3722195005602E+01  0.0000000000000E+00
-0.6604473612211E+00 -0.3649463796046E+01  0.0000000000000E+00
-0.6604970680267E+00 -0.3576732585492E+01  0.0000000000000E+00
-0.6605467749228E+00 -0.3504001242525E+01  0.0000000000000E+00
-0.6605964816634E+00 -0.3431270126979E+01  0.0000000000000E+00
-0.6606461885521E+00 -0.3358538794853E+01  0.0000000000000E+00
-0.6606958961735E+00 -0.3285806390460E+01  0.0000000000000E+00
-0.6607456021512E+00 -0.3213076391343E+01  0.0000000000000E+00
-0.6607953088186E+00 -0.3140345382881E+01  0.0000000000000E+00
-0.6608450156279E+00 -0.3067614166885E+01  0.0000000000000E+00
-0.6608947224105E+00 -0.2994882989933E+01  0.0000000000000E+00
-0.6609444291288E+00 -0.2922151907127E+01  0.0000000000000E+00
-0.6610431425442E+00 -0.2849420857080E+01  0.0000000000000E+00
-0.6614880039029E+00 -0.2776693302843E+01  0.0000000000000E+00
-0.6626015822945E+00 -0.2703986019355E+01  0.0000000000000E+00
-0.6645776872636E+00 -0.2631330803497E+01  0.0000000000000E+00
-0.6674922897633E+00 -0.2558765962702E+01  0.0000000000000E+00
-0.6713539671204E+00 -0.2486328219165E+01  0.0000000000000E+00
-0.6761452944910E+00 -0.2414050529980E+01  0.0000000000000E+00
-0.6818465642625E+00 -0.2341964006289E+01  0.0000000000000E+00
-0.6884480413232E+00 -0.2270099912718E+01  0.0000000000000E+00
-0.6959568250001E+00 -0.2198494483253E+01  0.0000000000000E+00
-0.7044025646942E+00 -0.2127192542900E+01  0.0000000000000E+00
-0.7137966753483E+00 -0.2056235628645E+01  0.0000000000000E+00
-0.7240810080500E+00 -0.1985637981238E+01  0.0000000000000E+00
-0.7352122003494E+00 -0.1915414525839E+01  0.0000000000000E+00
-0.7471694487241E+00 -0.1845587040956E+01  0.0000000000000E+00
-0.7599520723911E+00 -0.1776186260296E+01  0.0000000000000E+00
-0.7735795644664E+00 -0.1707255066466E+01  0.0000000000000E+00
-0.7880940900479E+00 -0.1638853916186E+01  0.0000000000000E+00
-0.8035668428218E+00 -0.1571067282696E+01  0.0000000000000E+00
-0.8201084703724E+00 -0.1504022593235E+01  0.0000000000000E+00
-0.8378917694826E+00 -0.1437912945380E+01  0.0000000000000E+00
-0.6325435264408E+00 -0.4231175233227E+01  0.0000000000000E+00
-0.6325870528428E+00 -0.4158305882860E+01  0.0000000000000E+00
-0.6326305793268E+00 -0.4085436395159E+01  0.0000000000000E+00
-0.6326741058486E+00 -0.4012566844116E+01  0.0000000000000E+00
-0.6327176323130E+00 -0.3939697389199E+01  0.0000000000000E+00
-0.6327611587693E+00 -0.3866827947953E+01  0.0000000000000E+00
-0.6328046852310E+00 -0.3793958497448E+01  0.0000000000000E+00
-0.6328482116994E+00 -0.3721089035949E+01  0.0000000000000E+00
-0.6328917381643E+00 -0.3648219580177E+01  0.0000000000000E+00
-0.6329352646298E+00 -0.3575350123407E+01  0.0000000000000E+00
-0.6329787911746E+00 -0.3502480533972E+01  0.0000000000000E+00
-0.6330223175833E+00 -0.3429611172390E+01  0.0000000000000E+00
-0.6330658441215E+00 -0.3356741593817E+01  0.0000000000000E+00
-0.6331093713015E+00 -0.3283870940938E+01  0.0000000000000E+00
-0.6331528970420E+00 -0.3211002697907E+01  0.0000000000000E+00
-0.6331964233866E+00 -0.3138133443612E+01  0.0000000000000E+00
-0.6332399498554E+00 -0.3065263981390E+01  0.0000000000000E+00
-0.6332834763008E+00 -0.2992394558285E+01  0.0000000000000E+00
-0.6333270026899E+00 -0.2919525229505E+01  0.0000000000000E+00
-0.6334174768685E+00 -0.2846655933456E+01  0.0000000000000E+00
-0.6338395563828E+00 -0.2773790134003E+01  0.0000000000000E+00
-0.6349022583205E+00 -0.2700944606649E+01  0.0000000000000E+00
-0.6367912497310E+00 -0.2628151147559E+01  0.0000000000000E+00
-0.6395793098040E+00 -0.2555448063701E+01  0.0000000000000E+00
-0.6432746555003E+00 -0.2482872076970E+01  0.0000000000000E+00
-0.6478605940350E+00 -0.2410456144233E+01  0.0000000000000E+00
-0.6533182457832E+00 -0.2338231377183E+01  0.0000000000000E+00
-0.6596382846166E+00 -0.2266229039926E+01  0.0000000000000E+00
-0.6668275116189E+00 -0.2194485367097E+01  0.0000000000000E+00
-0.6749143305382E+00 -0.2123045183699E+01  0.0000000000000E+00
-0.6839096767271E+00 -0.2051950026162E+01  0.0000000000000E+00
-0.6937578442685E+00 -0.1981214135179E+01  0.0000000000000E+00
-0.7044172924922E+00 -0.1910852436044E+01  0.0000000000000E+00
-0.7158680918929E+00 -0.1840886707377E+01  0.0000000000000E+00
-0.7281095902899E+00 -0.1771347682916E+01  0.0000000000000E+00
-0.7411604618417E+00 -0.1702278245340E+01  0.0000000000000E+00
-0.7550611002044E+00 -0.1633738852398E+01  0.0000000000000E+00
-0.7698797079675E+00 -0.1565813975523E+01  0.0000000000000E+00
-0.7857222842192E+00 -0.1498631045816E+01  0.0000000000000E+00
-0.8027543660217E+00 -0.1432383159141E+01  0.0000000000000E+00
-0.6050364527661E+00 -0.4231042777827E+01  0.0000000000000E+00
-0.6050729054997E+00 -0.4158040972176E+01  0.0000000000000E+00
-0.6051093583019E+00 -0.4085039028943E+01  0.0000000000000E+00
-0.6051458111359E+00 -0.4012037022253E+01  0.0000000000000E+00
-0.6051822639217E+00 -0.3939035111863E+01  0.0000000000000E+00
-0.6052187167008E+00 -0.3866033215170E+01  0.0000000000000E+00
-0.6052551694844E+00 -0.3793031309200E+01  0.0000000000000E+00
-0.6052916222736E+00 -0.3720029392216E+01  0.0000000000000E+00
-0.6053280750599E+00 -0.3647027480971E+01  0.0000000000000E+00
-0.6053645278467E+00 -0.3574025568724E+01  0.0000000000000E+00
-0.6054009806998E+00 -0.3501023523572E+01  0.0000000000000E+00
-0.6054374334390E+00 -0.3428021706688E+01  0.0000000000000E+00
-0.6054738862868E+00 -0.3355019672416E+01  0.0000000000000E+00
-0.6055103396719E+00 -0.3282016561887E+01  0.0000000000000E+00
-0.6055467918515E+00 -0.3209015865587E+01  0.0000000000000E+00
-0.6055832445370E+00 -0.3136014156184E+01  0.0000000000000E+00
-0.6056196973266E+00 -0.3063012238476E+01  0.0000000000000E+00
-0.6056561500965E+00 -0.2990010359956E+01  0.0000000000000E+00
-0.6056926028193E+00 -0.2917008575933E+01  0.0000000000000E+00
-0.6057739444239E+00 -0.2844006824612E+01  0.0000000000000E+00
-0.6061723487616E+00 -0.2771008570642E+01  0.0000000000000E+00
-0.6071832809226E+00 -0.2698030590064E+01  0.0000000000000E+00
-0.6089842654561E+00 -0.2625104678358E+01  0.0000000000000E+00
-0.6116448897857E+00 -0.2552269142045E+01  0.0000000000000E+00
-0.6151730105041E+00 -0.2479560702734E+01  0.0000000000000E+00
-0.6195526668839E+00 -0.2407012317074E+01  0.0000000000000E+00
-0.6247658072915E+00 -0.2334655097287E+01  0.0000000000000E+00
-0.6308035145786E+00 -0.2262520306978E+01  0.0000000000000E+00
-0.6376722915901E+00 -0.2190644181405E+01  0.0000000000000E+00
-0.6453992964206E+00 -0.2119071545571E+01  0.0000000000000E+00
-0.6539949848298E+00 -0.2047843935370E+01  0.0000000000000E+00
-0.6634060938944E+00 -0.1976975591441E+01  0.0000000000000E+00
-0.6735929047258E+00 -0.1906481439207E+01  0.0000000000000E+00
-0.6845363618356E+00 -0.1836383257392E+01  0.0000000000000E+00
-0.6962358416462E+00 -0.1766711779769E+01  0.0000000000000E+00
-0.7087091993589E+00 -0.1697509889085E+01  0.0000000000000E+00
-0.7219950571948E+00 -0.1628838044074E+01  0.0000000000000E+00
-0.7361586266348E+00 -0.1560780714435E+01  0.0000000000000E+00
-0.7513012582960E+00 -0.1493465334972E+01  0.0000000000000E+00
-0.7675812295093E+00 -0.1427084999909E+01  0.0000000000000E+00
-0.5775285214724E+00 -0.4230916136309E+01  0.0000000000000E+00
-0.5775570429194E+00 -0.4157787689254E+01  0.0000000000000E+00
-0.5775855644201E+00 -0.4084659104378E+01  0.0000000000000E+00
-0.5776140859456E+00 -0.4011530455935E+01  0.0000000000000E+00
-0.5776426074335E+00 -0.3938401903959E+01  0.0000000000000E+00
-0.5776711289161E+00 -0.3865273365703E+01  0.0000000000000E+00
-0.5776996504022E+00 -0.3792144818156E+01  0.0000000000000E+00
-0.5777281718927E+00 -0.3719016259574E+01  0.0000000000000E+00
-0.5777566933810E+00 -0.3645887706741E+01  0.0000000000000E+00
-0.5777852148696E+00 -0.3572759152905E+01  0.0000000000000E+00
-0.5778137364101E+00 -0.3499630465933E+01  0.0000000000000E+00
-0.5778422578615E+00 -0.3426502007624E+01  0.0000000000000E+00
-0.5778707793978E+00 -0.3353373331552E+01  0.0000000000000E+00
-0.5778993013546E+00 -0.3280243577355E+01  0.0000000000000E+00
-0.5779278223681E+00 -0.3207116241575E+01  0.0000000000000E+00
-0.5779563437775E+00 -0.3133987890935E+01  0.0000000000000E+00
-0.5779848652682E+00 -0.3060859331627E+01  0.0000000000000E+00
-0.5780133867437E+00 -0.2987730811577E+01  0.0000000000000E+00
-0.5780419081822E+00 -0.2914602386187E+01  0.0000000000000E+00
-0.5781132595947E+00 -0.2841473993472E+01  0.0000000000000E+00
-0.5784871311427E+00 -0.2768349098829E+01  0.0000000000000E+00
-0.5794454359221E+00 -0.2695244478816E+01  0.0000000000000E+00
-0.5811575559778E+00 -0.2622191928255E+01  0.0000000000000E+00
-0.5836898869641E+00 -0.2549229753241E+01  0.0000000000000E+00
-0.5870499251040E+00 -0.2476394675110E+01  0.0000000000000E+00
-0.5912224417263E+00 -0.2403719650301E+01  0.0000000000000E+00
-0.5961902131919E+00 -0.2331235791543E+01  0.0000000000000E+00
-0.6019447313292E+00 -0.2258974361963E+01  0.0000000000000E+00
-0.6084922007484E+00 -0.2186971597412E+01  0.0000000000000E+00
-0.6158585338908E+00 -0.2115272322895E+01  0.0000000000000E+00
-0.6240537069192E+00 -0.2043918073793E+01  0.0000000000000E+00
-0.6330268999046E+00 -0.1972923090693E+01  0.0000000000000E+00
-0.6427402157399E+00 -0.1902302299143E+01  0.0000000000000E+00
-0.6531754729551E+00 -0.1832077477966E+01  0.0000000000000E+00
-0.6643320765753E+00 -0.1762279360967E+01  0.0000000000000E+00
-0.6762270628454E+00 -0.1692950830957E+01  0.0000000000000E+00
-0.6888972825577E+00 -0.1624152347613E+01  0.0000000000000E+00
-0.7024049560735E+00 -0.1555968378978E+01  0.0000000000000E+00
-0.7168467855624E+00 -0.1488526363395E+01  0.0000000000000E+00
-0.7323737886136E+00 -0.1422019393519E+01  0.0000000000000E+00
-0.5500197687602E+00 -0.4230795330937E+01  0.0000000000000E+00
-0.5500395375027E+00 -0.4157546078617E+01  0.0000000000000E+00
-0.5500593062825E+00 -0.4084296688248E+01  0.0000000000000E+00
-0.5500790750795E+00 -0.4011047234207E+01  0.0000000000000E+00
-0.5500988438504E+00 -0.3937797876793E+01  0.0000000000000E+00
-0.5501186126176E+00 -0.3864548533122E+01  0.0000000000000E+00
-0.5501383813873E+00 -0.3791299180143E+01  0.0000000000000E+00
-0.5501581501600E+00 -0.3718049816112E+01  0.0000000000000E+00
-0.5501779189312E+00 -0.3644800457840E+01  0.0000000000000E+00
-0.5501976877026E+00 -0.3571551098563E+01  0.0000000000000E+00
-0.5502174565100E+00 -0.3498301605929E+01  0.0000000000000E+00
-0.5502372252556E+00 -0.3425052342338E+01  0.0000000000000E+00
-0.5502569940600E+00 -0.3351802860622E+01  0.0000000000000E+00
-0.5502767631559E+00 -0.3278552299001E+01  0.0000000000000E+00
-0.5502965315980E+00 -0.3205304159791E+01  0.0000000000000E+00
-0.5503163003145E+00 -0.3132055004046E+01  0.0000000000000E+00
-0.5503360690874E+00 -0.3058805639288E+01  0.0000000000000E+00
-0.5503558378497E+00 -0.2985556313852E+01  0.0000000000000E+00
-0.5503756065864E+00 -0.2912307083233E+01  0.0000000000000E+00
-0.5504361463889E+00 -0.2839057885264E+01  0.0000000000000E+00
-0.5507846637340E+00 -0.2765812186054E+01  0.0000000000000E+00
-0.5516895197264E+00 -0.2692586762654E+01  0.0000000000000E+00
-0.5533119539024E+00 -0.2619413409260E+01  0.0000000000000E+00
-0.5557151701444E+00 -0.2546330431560E+01  0.0000000000000E+00
-0.5589063043036E+00 -0.2473374550628E+01  0.0000000000000E+00
-0.5628708597639E+00 -0.2400578722707E+01  0.0000000000000E+00
-0.5675924408837E+00 -0.2327974061005E+01  0.0000000000000E+00
-0.5730629484655E+00 -0.2255591828195E+01  0.0000000000000E+00
-0.5792882888882E+00 -0.2183468260695E+01  0.0000000000000E+00
-0.5862931289399E+00 -0.2111648183508E+01  0.0000000000000E+00
-0.5940869651833E+00 -0.2040173131530E+01  0.0000000000000E+00
-0.6026214206831E+00 -0.1969057345296E+01  0.0000000000000E+00
-0.6118604201151E+00 -0.1898315750472E+01  0.0000000000000E+00
-0.6217866560276E+00 -0.1827970125978E+01  0.0000000000000E+00
-0.6323995620492E+00 -0.1758051205649E+01  0.0000000000000E+00
-0.6437153554685E+00 -0.1688601872357E+01  0.0000000000000E+00
-0.6557691156551E+00 -0.1619682586678E+01  0.0000000000000E+00
-0.6686200718399E+00 -0.1551377815076E+01  0.0000000000000E+00
-0.6823602777685E+00 -0.1483814999269E+01  0.0000000000000E+00
-0.6971334912775E+00 -0.1417187230416E+01  0.0000000000000E+00
-0.5225235369655E+00 -0.4230682327815E+01  0.0000000000000E+00
-0.5225470739100E+00 -0.4157320072474E+01  0.0000000000000E+00
-0.5225706108988E+00 -0.4083957678871E+01  0.0000000000000E+00
-0.5225941479082E+00 -0.4010595221498E+01  0.0000000000000E+00
-0.5226176848864E+00 -0.3937232860900E+01  0.0000000000000E+00
-0.5226412218603E+00 -0.3863870514067E+01  0.0000000000000E+00
-0.5226647588371E+00 -0.3790508157912E+01  0.0000000000000E+00
-0.5226882958175E+00 -0.3717145790687E+01  0.0000000000000E+00
-0.5227118327961E+00 -0.3643783429230E+01  0.0000000000000E+00
-0.5227353697749E+00 -0.3570421066767E+01  0.0000000000000E+00
-0.5227589067966E+00 -0.3497058570741E+01  0.0000000000000E+00
-0.5227824437448E+00 -0.3423696304111E+01  0.0000000000000E+00
-0.5228059807630E+00 -0.3350333819021E+01  0.0000000000000E+00
-0.5228295181282E+00 -0.3276970252358E+01  0.0000000000000E+00
-0.5228530547150E+00 -0.3203609111845E+01  0.0000000000000E+00
-0.5228765916285E+00 -0.3130246953227E+01  0.0000000000000E+00
-0.5229001286091E+00 -0.3056884585275E+01  0.0000000000000E+00
-0.5229236655771E+00 -0.2983522256705E+01  0.0000000000000E+00
-0.5229472025146E+00 -0.2910160023098E+01  0.0000000000000E+00
-0.5230094719650E+00 -0.2836797822117E+01  0.0000000000000E+00
-0.5233453200490E+00 -0.2763439120539E+01  0.0000000000000E+00
-0.5242096897925E+00 -0.2690100695875E+01  0.0000000000000E+00
-0.5257557587769E+00 -0.2616814341734E+01  0.0000000000000E+00
-0.5280435707054E+00 -0.2543618363426E+01  0.0000000000000E+00
-0.5310799046469E+00 -0.2470549481778E+01  0.0000000000000E+00
-0.5348509888241E+00 -0.2397640652849E+01  0.0000000000000E+00
-0.5393412473588E+00 -0.2324922990298E+01  0.0000000000000E+00
-0.5445429860314E+00 -0.2252427756369E+01  0.0000000000000E+00
-0.5504618158794E+00 -0.2180191188014E+01  0.0000000000000E+00
-0.5571211703511E+00 -0.2108258110234E+01  0.0000000000000E+00
-0.5645300712003E+00 -0.2036670057468E+01  0.0000000000000E+00
-0.5726425603411E+00 -0.1965441270206E+01  0.0000000000000E+00
-0.5814243662114E+00 -0.1894586674225E+01  0.0000000000000E+00
-0.5908590467288E+00 -0.1824128048532E+01  0.0000000000000E+00
-0.6009460638389E+00 -0.1754096126991E+01  0.0000000000000E+00
-0.6117008239636E+00 -0.1684533792533E+01  0.0000000000000E+00
-0.6231566524677E+00 -0.1615501506574E+01  0.0000000000000E+00
-0.6353698171822E+00 -0.1547083734099E+01  0.0000000000000E+00
-0.6484277690306E+00 -0.1479407919987E+01  0.0000000000000E+00
-0.6624670780150E+00 -0.1412667153993E+01  0.0000000000000E+00
-0.4950265829563E+00 -0.4230575000095E+01  0.0000000000000E+00
-0.4950531658889E+00 -0.4157105417131E+01  0.0000000000000E+00
-0.4950797488716E+00 -0.4083635695702E+01  0.0000000000000E+00
-0.4951063318774E+00 -0.4010165910410E+01  0.0000000000000E+00
-0.4951329148482E+00 -0.3936696222035E+01  0.0000000000000E+00
-0.4951594978139E+00 -0.3863226547444E+01  0.0000000000000E+00
-0.4951860807830E+00 -0.3789756863518E+01  0.0000000000000E+00
-0.4952126637562E+00 -0.3716287168507E+01  0.0000000000000E+00
-0.4952392467272E+00 -0.3642817479271E+01  0.0000000000000E+00
-0.4952658296986E+00 -0.3569347789027E+01  0.0000000000000E+00
-0.4952924127185E+00 -0.3495877965026E+01  0.0000000000000E+00
-0.4953189956551E+00 -0.3422408370756E+01  0.0000000000000E+00
-0.4953455786710E+00 -0.3348938557706E+01  0.0000000000000E+00
-0.4953721620788E+00 -0.3275467661502E+01  0.0000000000000E+00
-0.4953987446074E+00 -0.3201999194996E+01  0.0000000000000E+00
-0.4954253275049E+00 -0.3128529708896E+01  0.0000000000000E+00
-0.4954519104783E+00 -0.3055060013155E+01  0.0000000000000E+00
-0.4954784934375E+00 -0.2981590356855E+01  0.0000000000000E+00
-0.4955050763622E+00 -0.2908120795657E+01  0.0000000000000E+00
-0.4955683532472E+00 -0.2834651267061E+01  0.0000000000000E+00
-0.4958908098644E+00 -0.2761185238480E+01  0.0000000000000E+00
-0.4967139711667E+00 -0.2687739487860E+01  0.0000000000000E+00
-0.4981829527790E+00 -0.2614345808257E+01  0.0000000000000E+00
-0.5003546382236E+00 -0.2541042504616E+01  0.0000000000000E+00
-0.5032354497856E+00 -0.2467866297535E+01  0.0000000000000E+00
-0.5068123405251E+00 -0.2394850142894E+01  0.0000000000000E+00
-0.5110705543301E+00 -0.2322025154781E+01  0.0000000000000E+00
-0.5160028019559E+00 -0.2249422595037E+01  0.0000000000000E+00
-0.5216143991022E+00 -0.2177078701116E+01  0.0000000000000E+00
-0.5279275458778E+00 -0.2105038298018E+01  0.0000000000000E+00
-0.5349507892246E+00 -0.2033342919751E+01  0.0000000000000E+00
-0.5426405899055E+00 -0.1962006806759E+01  0.0000000000000E+00
-0.5509644801207E+00 -0.1891044884923E+01  0.0000000000000E+00
-0.5599068831572E+00 -0.1820478933337E+01  0.0000000000000E+00
-0.5694672892784E+00 -0.1750339685891E+01  0.0000000000000E+00
-0.5796602940392E+00 -0.1680670025571E+01  0.0000000000000E+00
-0.5905174688062E+00 -0.1611530414592E+01  0.0000000000000E+00
-0.6020921200010E+00 -0.1543005316536E+01  0.0000000000000E+00
-0.6144670957471E+00 -0.1475222179278E+01  0.0000000000000E+00
-0.6277717782043E+00 -0.1408374091247E+01  0.0000000000000E+00
-0.4675289422681E+00 -0.4230473366273E+01  0.0000000000000E+00
-0.4675578845103E+00 -0.4156902149577E+01  0.0000000000000E+00
-0.4675868268072E+00 -0.4083330794226E+01  0.0000000000000E+00
-0.4676157691291E+00 -0.4009759374922E+01  0.0000000000000E+00
-0.4676447114129E+00 -0.3936188052670E+01  0.0000000000000E+00
-0.4676736536913E+00 -0.3862616744221E+01  0.0000000000000E+00
-0.4677025959733E+00 -0.3789045426423E+01  0.0000000000000E+00
-0.4677315382597E+00 -0.3715474097525E+01  0.0000000000000E+00
-0.4677604805438E+00 -0.3641902774411E+01  0.0000000000000E+00
-0.4677894228283E+00 -0.3568331450288E+01  0.0000000000000E+00
-0.4678183651656E+00 -0.3494759992222E+01  0.0000000000000E+00
-0.4678473074123E+00 -0.3421188764204E+01  0.0000000000000E+00
-0.4678762497452E+00 -0.3347617317104E+01  0.0000000000000E+00
-0.4679051925048E+00 -0.3274044785352E+01  0.0000000000000E+00
-0.4679341343072E+00 -0.3200474686659E+01  0.0000000000000E+00
-0.4679630765113E+00 -0.3126903566961E+01  0.0000000000000E+00
-0.4679920187980E+00 -0.3053332237333E+01  0.0000000000000E+00
-0.4680209610692E+00 -0.2979760947200E+01  0.0000000000000E+00
-0.4680499033029E+00 -0.2906189752300E+01  0.0000000000000E+00
-0.4681135009444E+00 -0.2832618589982E+01  0.0000000000000E+00
-0.4684218794232E+00 -0.2759050928256E+01  0.0000000000000E+00
-0.4692031456246E+00 -0.2685503545485E+01  0.0000000000000E+00
-0.4705943532147E+00 -0.2612008234196E+01  0.0000000000000E+00
-0.4726492255332E+00 -0.2538603298994E+01  0.0000000000000E+00
-0.4753738280800E+00 -0.2465325460254E+01  0.0000000000000E+00
-0.4787558387513E+00 -0.2392207673692E+01  0.0000000000000E+00
-0.4827813212037E+00 -0.2319281053801E+01  0.0000000000000E+00
-0.4874433911652E+00 -0.2246576862038E+01  0.0000000000000E+00
-0.4927470690006E+00 -0.2174131336332E+01  0.0000000000000E+00
-0.4987133214795E+00 -0.2101989301687E+01  0.0000000000000E+00
-0.5053502207294E+00 -0.2030192291697E+01  0.0000000000000E+00
-0.5126166463610E+00 -0.1958754546766E+01  0.0000000000000E+00
-0.5204819343374E+00 -0.1887690992875E+01  0.0000000000000E+00
-0.5289313733153E+00 -0.1817023409196E+01  0.0000000000000E+00
-0.5379644818757E+00 -0.1746782529646E+01  0.0000000000000E+00
-0.5475950447077E+00 -0.1677011237263E+01  0.0000000000000E+00
-0.5578528791844E+00 -0.1607769995018E+01  0.0000000000000E+00
-0.5687883303103E+00 -0.1539143265162E+01  0.0000000000000E+00
-0.5804796434283E+00 -0.1471258498414E+01  0.0000000000000E+00
-0.5930490128488E+00 -0.1404308781941E+01  0.0000000000000E+00
-0.4400306507643E+00 -0.4230377443940E+01  0.0000000000000E+00
-0.4400613015012E+00 -0.4156710304996E+01  0.0000000000000E+00
-0.4400919522959E+00 -0.4083043027216E+01  0.0000000000000E+00
-0.4401226031172E+00 -0.4009375685400E+01  0.0000000000000E+00
-0.4401532538981E+00 -0.3935708440762E+01  0.0000000000000E+00
-0.4401839046733E+00 -0.3862041209946E+01  0.0000000000000E+00
-0.4402145554523E+00 -0.3788373969769E+01  0.0000000000000E+00
-0.4402452062360E+00 -0.3714706718477E+01  0.0000000000000E+00
-0.4402758570172E+00 -0.3641039472976E+01  0.0000000000000E+00
-0.4403065077989E+00 -0.3567372226465E+01  0.0000000000000E+00
-0.4403371586364E+00 -0.3493704845836E+01  0.0000000000000E+00
-0.4403678093781E+00 -0.3420037695556E+01  0.0000000000000E+00
-0.4403984602110E+00 -0.3346370325908E+01  0.0000000000000E+00
-0.4404291114958E+00 -0.3272701870193E+01  0.0000000000000E+00
-0.4404597617669E+00 -0.3199035850710E+01  0.0000000000000E+00
-0.4404904124634E+00 -0.3125368808892E+01  0.0000000000000E+00
-0.4405210632474E+00 -0.3051701556869E+01  0.0000000000000E+00
-0.4405517140149E+00 -0.2978034344391E+01  0.0000000000000E+00
-0.4405823647428E+00 -0.2904367227272E+01  0.0000000000000E+00
-0.4406456323261E+00 -0.2830700142715E+01  0.0000000000000E+00
-0.4409392818568E+00 -0.2757036559295E+01  0.0000000000000E+00
-0.4416780021563E+00 -0.2683393255768E+01  0.0000000000000E+00
-0.4429907849293E+00 -0.2609802024162E+01  0.0000000000000E+00
-0.4449281933311E+00 -0.2536301168759E+01  0.0000000000000E+00
-0.4474959360748E+00 -0.2462927409729E+01  0.0000000000000E+00
-0.4506824158919E+00 -0.2389713702628E+01  0.0000000000000E+00
-0.4544745162100E+00 -0.2316691162333E+01  0.0000000000000E+00
-0.4588657577271E+00 -0.2243891049936E+01  0.0000000000000E+00
-0.4638608654765E+00 -0.2171349603822E+01  0.0000000000000E+00
-0.4694795728885E+00 -0.2099111648990E+01  0.0000000000000E+00
-0.4757294772735E+00 -0.2027218718648E+01  0.0000000000000E+00
-0.4825718770898E+00 -0.1955685053162E+01  0.0000000000000E+00
-0.4899779120636E+00 -0.1884525578604E+01  0.0000000000000E+00
-0.4979337362219E+00 -0.1813762074224E+01  0.0000000000000E+00
-0.5064388964637E+00 -0.1743425273962E+01  0.0000000000000E+00
-0.5155063666123E+00 -0.1673558060906E+01  0.0000000000000E+00
-0.5251642100526E+00 -0.1604220898739E+01  0.0000000000000E+00
-0.5354598103634E+00 -0.1535498248461E+01  0.0000000000000E+00
-0.5464668101259E+00 -0.1467517563467E+01  0.0000000000000E+00
-0.5583002157936E+00 -0.1400471929739E+01  0.0000000000000E+00
-0.4125317441520E+00 -0.4230287249716E+01  0.0000000000000E+00
-0.4125634882758E+00 -0.4156529916629E+01  0.0000000000000E+00
-0.4125952324593E+00 -0.4082772444536E+01  0.0000000000000E+00
-0.4126269766705E+00 -0.4009014908329E+01  0.0000000000000E+00
-0.4126587208397E+00 -0.3935257469419E+01  0.0000000000000E+00
-0.4126904650030E+00 -0.3861500044347E+01  0.0000000000000E+00
-0.4127222091704E+00 -0.3787742609903E+01  0.0000000000000E+00
-0.4127539533425E+00 -0.3713985164330E+01  0.0000000000000E+00
-0.4127856975121E+00 -0.3640227724555E+01  0.0000000000000E+00
-0.4128174416822E+00 -0.3566470283769E+01  0.0000000000000E+00
-0.4128491859101E+00 -0.3492712708702E+01  0.0000000000000E+00
-0.4128809300387E+00 -0.3418955364265E+01  0.0000000000000E+00
-0.4129126742618E+00 -0.3345197800191E+01  0.0000000000000E+00
-0.4129444189530E+00 -0.3271439148721E+01  0.0000000000000E+00
-0.4129761625943E+00 -0.3197682936466E+01  0.0000000000000E+00
-0.4130079066762E+00 -0.3123925700623E+01  0.0000000000000E+00
-0.4130396508486E+00 -0.3050168254318E+01  0.0000000000000E+00
-0.4130713950040E+00 -0.2976410847608E+01  0.0000000000000E+00
-0.4131031391183E+00 -0.2902653536372E+01  0.0000000000000E+00
-0.4131654615348E+00 -0.2828896257679E+01  0.0000000000000E+00
-0.4134437670066E+00 -0.2755142480638E+01  0.0000000000000E+00
-0.4141393262886E+00 -0.2681408984369E+01  0.0000000000000E+00
-0.4153730691176E+00 -0.2607727560436E+01  0.0000000000000E+00
-0.4171923984613E+00 -0.2534136512816E+01  0.0000000000000E+00
-0.4196026662446E+00 -0.2460672561482E+01  0.0000000000000E+00
-0.4225930000332E+00 -0.2387368661845E+01  0.0000000000000E+00
-0.4261511030289E+00 -0.2314255929140E+01  0.0000000000000E+00
-0.4302709008973E+00 -0.2241365624120E+01  0.0000000000000E+00
-0.4349568233429E+00 -0.2168733985590E+01  0.0000000000000E+00
-0.4402273704565E+00 -0.2096405838553E+01  0.0000000000000E+00
-0.4460896647286E+00 -0.2024422715852E+01  0.0000000000000E+00
-0.4525074234658E+00 -0.1952798857813E+01  0.0000000000000E+00
-0.4594535901587E+00 -0.1881549190599E+01  0.0000000000000E+00
-0.4669151842055E+00 -0.1810695493531E+01  0.0000000000000E+00
-0.4748917808231E+00 -0.1740268500570E+01  0.0000000000000E+00
-0.4833955429692E+00 -0.1670311094851E+01  0.0000000000000E+00
-0.4924527800443E+00 -0.1600883740729E+01  0.0000000000000E+00
-0.5021079141925E+00 -0.1532070898023E+01  0.0000000000000E+00
-0.5124299852484E+00 -0.1464000022650E+01  0.0000000000000E+00
-0.5235268117985E+00 -0.1396864199472E+01  0.0000000000000E+00
-0.3850322598414E+00 -0.4230202799459E+01  0.0000000000000E+00
-0.3850645196540E+00 -0.4156361016191E+01  0.0000000000000E+00
-0.3850967795275E+00 -0.4082519093757E+01  0.0000000000000E+00
-0.3851290394289E+00 -0.4008677107136E+01  0.0000000000000E+00
-0.3851612992878E+00 -0.3934835217923E+01  0.0000000000000E+00
-0.3851935591407E+00 -0.3860993342564E+01  0.0000000000000E+00
-0.3852258189976E+00 -0.3787151457823E+01  0.0000000000000E+00
-0.3852580788595E+00 -0.3713309561940E+01  0.0000000000000E+00
-0.3852903387188E+00 -0.3639467671862E+01  0.0000000000000E+00
-0.3853225985785E+00 -0.3565625780771E+01  0.0000000000000E+00
-0.3853548584969E+00 -0.3491783755245E+01  0.0000000000000E+00
-0.3853871183145E+00 -0.3417941960614E+01  0.0000000000000E+00
-0.3854193782282E+00 -0.3344099946094E+01  0.0000000000000E+00
-0.3854516386174E+00 -0.3270256842933E+01  0.0000000000000E+00
-0.3854838979398E+00 -0.3196416181779E+01  0.0000000000000E+00
-0.3855161577099E+00 -0.3122574495866E+01  0.0000000000000E+00
-0.3855484175721E+00 -0.3048732599250E+01  0.0000000000000E+00
-0.3855806774169E+00 -0.2974890742274E+01  0.0000000000000E+00
-0.3856129372200E+00 -0.2901048980883E+01  0.0000000000000E+00
-0.3856737367721E+00 -0.2827207252015E+01  0.0000000000000E+00
-0.3859361204928E+00 -0.2753369025280E+01  0.0000000000000E+00
-0.3865879410748E+00 -0.2679551080143E+01  0.0000000000000E+00
-0.3877420662852E+00 -0.2605785207729E+01  0.0000000000000E+00
-0.3894427389025E+00 -0.2532109711729E+01  0.0000000000000E+00
-0.3916949540622E+00 -0.2458561311938E+01  0.0000000000000E+00
-0.3944885641635E+00 -0.2385172963623E+01  0.0000000000000E+00
-0.3978120921840E+00 -0.2311975782359E+01  0.0000000000000E+00
-0.4016598687551E+00 -0.2239001028580E+01  0.0000000000000E+00
-0.4060360282553E+00 -0.2166284941488E+01  0.0000000000000E+00
-0.4109578374357E+00 -0.2093872346084E+01  0.0000000000000E+00
-0.4164319439649E+00 -0.2021804774870E+01  0.0000000000000E+00
-0.4224244839971E+00 -0.1950096468140E+01  0.0000000000000E+00
-0.4289102047877E+00 -0.1878762352137E+01  0.0000000000000E+00
-0.4358769911063E+00 -0.1807824206249E+01  0.0000000000000E+00
-0.4433244464880E+00 -0.1737312764459E+01  0.0000000000000E+00
-0.4512639230252E+00 -0.1667270909945E+01  0.0000000000000E+00
-0.4597199761387E+00 -0.1597759107689E+01  0.0000000000000E+00
-0.4687340665305E+00 -0.1528861816408E+01  0.0000000000000E+00
-0.4783706313056E+00 -0.1460706494377E+01  0.0000000000000E+00
-0.4887303011774E+00 -0.1393486225414E+01  0.0000000000000E+00
-0.3575322348022E+00 -0.4230124107983E+01  0.0000000000000E+00
-0.3575644695756E+00 -0.4156203633308E+01  0.0000000000000E+00
-0.3575967044098E+00 -0.4082283019319E+01  0.0000000000000E+00
-0.3576289392720E+00 -0.4008362341075E+01  0.0000000000000E+00
-0.3576611740917E+00 -0.3934441760342E+01  0.0000000000000E+00
-0.3576934089054E+00 -0.3860521193479E+01  0.0000000000000E+00
-0.3577256437231E+00 -0.3786600617223E+01  0.0000000000000E+00
-0.3577578785457E+00 -0.3712680029813E+01  0.0000000000000E+00
-0.3577901133658E+00 -0.3638759448214E+01  0.0000000000000E+00
-0.3578223481863E+00 -0.3564838865602E+01  0.0000000000000E+00
-0.3578545830655E+00 -0.3490918148411E+01  0.0000000000000E+00
-0.3578868178439E+00 -0.3416997662361E+01  0.0000000000000E+00
-0.3579190527183E+00 -0.3343076956189E+01  0.0000000000000E+00
-0.3579512880679E+00 -0.3269155160214E+01  0.0000000000000E+00
-0.3579835223515E+00 -0.3195235808850E+01  0.0000000000000E+00
-0.3580157570825E+00 -0.3121315431634E+01  0.0000000000000E+00
-0.3580479919054E+00 -0.3047394843491E+01  0.0000000000000E+00
-0.3580802267110E+00 -0.2973474295030E+01  0.0000000000000E+00
-0.3581124614749E+00 -0.2899553842255E+01  0.0000000000000E+00
-0.3581711974348E+00 -0.2825633421987E+01  0.0000000000000E+00
-0.3584171186813E+00 -0.2751716504300E+01  0.0000000000000E+00
-0.3590246598484E+00 -0.2677819868980E+01  0.0000000000000E+00
-0.3600986267318E+00 -0.2603975306743E+01  0.0000000000000E+00
-0.3616801019192E+00 -0.2530221121018E+01  0.0000000000000E+00
-0.3637737237556E+00 -0.2456594031425E+01  0.0000000000000E+00
-0.3663700694726E+00 -0.2383126993105E+01  0.0000000000000E+00
-0.3694584818260E+00 -0.2309851121947E+01  0.0000000000000E+00
-0.3730336964106E+00 -0.2236797678087E+01  0.0000000000000E+00
-0.3770995522815E+00 -0.2164002901096E+01  0.0000000000000E+00
-0.3816720828503E+00 -0.2091511615977E+01  0.0000000000000E+00
-0.3867574609618E+00 -0.2019365354912E+01  0.0000000000000E+00
-0.3923242416169E+00 -0.1947578358163E+01  0.0000000000000E+00
-0.3983489758364E+00 -0.1876165552051E+01  0.0000000000000E+00
-0.4048204137615E+00 -0.1805148716025E+01  0.0000000000000E+00
-0.4117381872457E+00 -0.1734558584088E+01  0.0000000000000E+00
-0.4191128375166E+00 -0.1664438039460E+01  0.0000000000000E+00
-0.4269671660192E+00 -0.1594847547706E+01  0.0000000000000E+00
-0.4353396720069E+00 -0.1525871566515E+01  0.0000000000000E+00
-0.4442901898707E+00 -0.1457637556361E+01  0.0000000000000E+00
-0.4539121624448E+00 -0.1390338600087E+01  0.0000000000000E+00
-0.3300317063161E+00 -0.4230051189142E+01  0.0000000000000E+00
-0.3300634126040E+00 -0.4156057795692E+01  0.0000000000000E+00
-0.3300951189516E+00 -0.4082064262790E+01  0.0000000000000E+00
-0.3301268253268E+00 -0.4008070665569E+01  0.0000000000000E+00
-0.3301585316601E+00 -0.3934077165957E+01  0.0000000000000E+00
-0.3301902379875E+00 -0.3860083680227E+01  0.0000000000000E+00
-0.3302219443189E+00 -0.3786090185095E+01  0.0000000000000E+00
-0.3302536506551E+00 -0.3712096678799E+01  0.0000000000000E+00
-0.3302853569888E+00 -0.3638103178319E+01  0.0000000000000E+00
-0.3303170633230E+00 -0.3564109676825E+01  0.0000000000000E+00
-0.3303487697148E+00 -0.3490116040619E+01  0.0000000000000E+00
-0.3303804760076E+00 -0.3416122635783E+01  0.0000000000000E+00
-0.3304121823947E+00 -0.3342129010606E+01  0.0000000000000E+00
-0.3304438892493E+00 -0.3268134294553E+01  0.0000000000000E+00
-0.3304755950553E+00 -0.3194142025521E+01  0.0000000000000E+00
-0.3305073013014E+00 -0.3120148729626E+01  0.0000000000000E+00
-0.3305390076379E+00 -0.3046155222595E+01  0.0000000000000E+00
-0.3305707139574E+00 -0.2972161755286E+01  0.0000000000000E+00
-0.3306024202359E+00 -0.2898168383757E+01  0.0000000000000E+00
-0.3306585891574E+00 -0.2824175044720E+01  0.0000000000000E+00
-0.3308875444874E+00 -0.2750185208679E+01  0.0000000000000E+00
-0.3314503028045E+00 -0.2676215655717E+01  0.0000000000000E+00
-0.3324436079309E+00 -0.2602298176172E+01  0.0000000000000E+00
-0.3339053822620E+00 -0.2528471073228E+01  0.0000000000000E+00
-0.3358399073513E+00 -0.2454771066347E+01  0.0000000000000E+00
-0.3382384852618E+00 -0.2381231110551E+01  0.0000000000000E+00
-0.3410912785297E+00 -0.2307882322018E+01  0.0000000000000E+00
-0.3443934277111E+00 -0.2234755960610E+01  0.0000000000000E+00
-0.3481484765401E+00 -0.2161888266242E+01  0.0000000000000E+00
-0.3523712250890E+00 -0.2089324063914E+01  0.0000000000000E+00
-0.3570673713764E+00 -0.2017104885515E+01  0.0000000000000E+00
-0.3622078892501E+00 -0.1945244971277E+01  0.0000000000000E+00
-0.3677711334962E+00 -0.1873759247591E+01  0.0000000000000E+00
-0.3737467196281E+00 -0.1802669493966E+01  0.0000000000000E+00
-0.3801343078177E+00 -0.1732006444421E+01  0.0000000000000E+00
-0.3869436284280E+00 -0.1661812982214E+01  0.0000000000000E+00
-0.3941957289323E+00 -0.1592149573454E+01  0.0000000000000E+00
-0.4019261471290E+00 -0.1523100674874E+01  0.0000000000000E+00
-0.4101901147095E+00 -0.1454793748987E+01  0.0000000000000E+00
-0.4190738866231E+00 -0.1387421877732E+01  0.0000000000000E+00
-0.3025307117473E+00 -0.4229984055806E+01  0.0000000000000E+00
-0.3025614234671E+00 -0.4155923529079E+01  0.0000000000000E+00
-0.3025921352449E+00 -0.4081862862774E+01  0.0000000000000E+00
-0.3026228470493E+00 -0.4007802132092E+01  0.0000000000000E+00
-0.3026535588133E+00 -0.3933741499106E+01  0.0000000000000E+00
-0.3026842705714E+00 -0.3859680880016E+01  0.0000000000000E+00
-0.3027149823335E+00 -0.3785620251516E+01  0.0000000000000E+00
-0.3027456941002E+00 -0.3711559611840E+01  0.0000000000000E+00
-0.3027764058645E+00 -0.3637498977987E+01  0.0000000000000E+00
-0.3028071176292E+00 -0.3563438343118E+01  0.0000000000000E+00
-0.3028378294498E+00 -0.3489377573416E+01  0.0000000000000E+00
-0.3028685411744E+00 -0.3415317035292E+01  0.0000000000000E+00
-0.3028992529905E+00 -0.3341256276629E+01  0.0000000000000E+00
-0.3029299652593E+00 -0.3267194426099E+01  0.0000000000000E+00
-0.3029606765125E+00 -0.3193135024811E+01  0.0000000000000E+00
-0.3029913881918E+00 -0.3119074595728E+01  0.0000000000000E+00
-0.3030220999588E+00 -0.3045013955318E+01  0.0000000000000E+00
-0.3030528117094E+00 -0.2970953354665E+01  0.0000000000000E+00
-0.3030835234201E+00 -0.2896892849879E+01  0.0000000000000E+00
-0.3031366592207E+00 -0.2822832377572E+01  0.0000000000000E+00
-0.3033481825528E+00 -0.2748775408642E+01  0.0000000000000E+00
-0.3038656919401E+00 -0.2674738723447E+01  0.0000000000000E+00
-0.3047778692279E+00 -0.2600754111977E+01  0.0000000000000E+00
-0.3061194766177E+00 -0.2526859877189E+01  0.0000000000000E+00
-0.3078944388703E+00 -0.2453092738402E+01  0.0000000000000E+00
-0.3100947828795E+00 -0.2379485650525E+01  0.0000000000000E+00
-0.3127114909635E+00 -0.2306069730006E+01  0.0000000000000E+00
-0.3157401086385E+00 -0.2232876236452E+01  0.0000000000000E+00
-0.3191838843193E+00 -0.2159941410094E+01  0.0000000000000E+00
-0.3230563847390E+00 -0.2087310075932E+01  0.0000000000000E+00
-0.3273628330882E+00 -0.2015023765584E+01  0.0000000000000E+00
-0.3320766220613E+00 -0.1943096719253E+01  0.0000000000000E+00
-0.3371779102106E+00 -0.1871543863397E+01  0.0000000000000E+00
-0.3426571784222E+00 -0.1800386977578E+01  0.0000000000000E+00
-0.3485141151863E+00 -0.1729656795832E+01  0.0000000000000E+00
-0.3547576400016E+00 -0.1659396201451E+01  0.0000000000000E+00
-0.3614070463731E+00 -0.1589665661042E+01  0.0000000000000E+00
-0.3684949106376E+00 -0.1520549630462E+01  0.0000000000000E+00
-0.3760718617994E+00 -0.1452175574100E+01  0.0000000000000E+00
-0.3842169669163E+00 -0.1384736573063E+01  0.0000000000000E+00
-0.2750292889768E+00 -0.4229922719884E+01  0.0000000000000E+00
-0.2750585779274E+00 -0.4155800857289E+01  0.0000000000000E+00
-0.2750878669333E+00 -0.4081678855002E+01  0.0000000000000E+00
-0.2751171559646E+00 -0.4007556788283E+01  0.0000000000000E+00
-0.2751464449573E+00 -0.3933434819343E+01  0.0000000000000E+00
-0.2751757339445E+00 -0.3859312864309E+01  0.0000000000000E+00
-0.2752050229354E+00 -0.3785190899856E+01  0.0000000000000E+00
-0.2752343119307E+00 -0.3711068924220E+01  0.0000000000000E+00
-0.2752636009237E+00 -0.3636946954411E+01  0.0000000000000E+00
-0.2752928899171E+00 -0.3562824983585E+01  0.0000000000000E+00
-0.2753221789639E+00 -0.3488702877815E+01  0.0000000000000E+00
-0.2753514679190E+00 -0.3414581003814E+01  0.0000000000000E+00
-0.2753807569614E+00 -0.3340458909091E+01  0.0000000000000E+00
-0.2754100464356E+00 -0.3266335721598E+01  0.0000000000000E+00
-0.2754393349412E+00 -0.3192214985375E+01  0.0000000000000E+00
-0.2754686238532E+00 -0.3118093220505E+01  0.0000000000000E+00
-0.2754979128488E+00 -0.3043971244133E+01  0.0000000000000E+00
-0.2755272018287E+00 -0.2969849307552E+01  0.0000000000000E+00
-0.2755564907707E+00 -0.2895727466917E+01  0.0000000000000E+00
-0.2756061652489E+00 -0.2821605658747E+01  0.0000000000000E+00
-0.2757998283827E+00 -0.2747487354304E+01  0.0000000000000E+00
-0.2762716606411E+00 -0.2673389334195E+01  0.0000000000000E+00
-0.2771022818897E+00 -0.2599343388093E+01  0.0000000000000E+00
-0.2783232941339E+00 -0.2525387818747E+01  0.0000000000000E+00
-0.2799382653412E+00 -0.2451559345344E+01  0.0000000000000E+00
-0.2819399472355E+00 -0.2377890922692E+01  0.0000000000000E+00
-0.2843201419189E+00 -0.2304413667485E+01  0.0000000000000E+00
-0.2870747998656E+00 -0.2231158839097E+01  0.0000000000000E+00
-0.2902068741738E+00 -0.2158162678047E+01  0.0000000000000E+00
-0.2937286982369E+00 -0.2085470009335E+01  0.0000000000000E+00
-0.2976450204157E+00 -0.2013122364332E+01  0.0000000000000E+00
-0.3019316522513E+00 -0.1941133983216E+01  0.0000000000000E+00
-0.3065705560629E+00 -0.1869519792505E+01  0.0000000000000E+00
-0.3115530781095E+00 -0.1798301571807E+01  0.0000000000000E+00
-0.3168789352001E+00 -0.1727510055176E+01  0.0000000000000E+00
-0.3225562359690E+00 -0.1657188125934E+01  0.0000000000000E+00
-0.3286025199556E+00 -0.1587396251146E+01  0.0000000000000E+00
-0.3350474020297E+00 -0.1518218885865E+01  0.0000000000000E+00
-0.3419369085198E+00 -0.1449783496195E+01  0.0000000000000E+00
-0.3493429185865E+00 -0.1382283162483E+01  0.0000000000000E+00
-0.2475274763612E+00 -0.4229867192306E+01  0.0000000000000E+00
-0.2475549526979E+00 -0.4155689802184E+01  0.0000000000000E+00
-0.2475824290864E+00 -0.4081512272263E+01  0.0000000000000E+00
-0.2476099054988E+00 -0.4007334677864E+01  0.0000000000000E+00
-0.2476373818750E+00 -0.3933157181315E+01  0.0000000000000E+00
-0.2476648582459E+00 -0.3858979698684E+01  0.0000000000000E+00
-0.2476923346204E+00 -0.3784802206627E+01  0.0000000000000E+00
-0.2477198109990E+00 -0.3710624703378E+01  0.0000000000000E+00
-0.2477472873755E+00 -0.3636447205960E+01  0.0000000000000E+00
-0.2477747637523E+00 -0.3562269707525E+01  0.0000000000000E+00
-0.2478022401792E+00 -0.3488092074044E+01  0.0000000000000E+00
-0.2478297165201E+00 -0.3413914672507E+01  0.0000000000000E+00
-0.2478571929429E+00 -0.3339737050082E+01  0.0000000000000E+00
-0.2478846697707E+00 -0.3265558334068E+01  0.0000000000000E+00
-0.2479121456899E+00 -0.3191382071160E+01  0.0000000000000E+00
-0.2479396219904E+00 -0.3117204778836E+01  0.0000000000000E+00
-0.2479670983693E+00 -0.3043027274851E+01  0.0000000000000E+00
-0.2479945747334E+00 -0.2968849810686E+01  0.0000000000000E+00
-0.2480220510620E+00 -0.2894672442539E+01  0.0000000000000E+00
-0.2480678743733E+00 -0.2820495106846E+01  0.0000000000000E+00
-0.2482432874676E+00 -0.2746321275196E+01  0.0000000000000E+00
-0.2486690527616E+00 -0.2672167728422E+01  0.0000000000000E+00
-0.2494177281399E+00 -0.2598066255909E+01  0.0000000000000E+00
-0.2505177554111E+00 -0.2524055160221E+01  0.0000000000000E+00
-0.2519723457481E+00 -0.2450171160422E+01  0.0000000000000E+00
-0.2537749757042E+00 -0.2376447211231E+01  0.0000000000000E+00
-0.2559182671670E+00 -0.2302914429563E+01  0.0000000000000E+00
-0.2583985755675E+00 -0.2229604074582E+01  0.0000000000000E+00
-0.2612185586887E+00 -0.2156552387068E+01  0.0000000000000E+00
-0.2643893165847E+00 -0.2083804192021E+01  0.0000000000000E+00
-0.2679151227846E+00 -0.2011401020588E+01  0.0000000000000E+00
-0.2717742076764E+00 -0.1939357112923E+01  0.0000000000000E+00
-0.2759503373461E+00 -0.1867687395599E+01  0.0000000000000E+00
-0.2804357234259E+00 -0.1796413648268E+01  0.0000000000000E+00
-0.2852301110435E+00 -0.1725566604998E+01  0.0000000000000E+00
-0.2903407979693E+00 -0.1655189149140E+01  0.0000000000000E+00
-0.2957835697803E+00 -0.1585341748170E+01  0.0000000000000E+00
-0.3015850798740E+00 -0.1516108856418E+01  0.0000000000000E+00
-0.3077867519147E+00 -0.1447617941537E+01  0.0000000000000E+00
-0.3144532771611E+00 -0.1380062083186E+01  0.0000000000000E+00
-0.2200253122177E+00 -0.4229817482972E+01  0.0000000000000E+00
-0.2200506244127E+00 -0.4155590383561E+01  0.0000000000000E+00
-0.2200759366555E+00 -0.4081363144257E+01  0.0000000000000E+00
-0.2201012489203E+00 -0.4007135840432E+01  0.0000000000000E+00
-0.2201265611517E+00 -0.3932908634523E+01  0.0000000000000E+00
-0.2201518733783E+00 -0.3858681442540E+01  0.0000000000000E+00
-0.2201771856082E+00 -0.3784454241126E+01  0.0000000000000E+00
-0.2202024978419E+00 -0.3710227028512E+01  0.0000000000000E+00
-0.2202278100736E+00 -0.3635999821733E+01  0.0000000000000E+00
-0.2202531223056E+00 -0.3561772613937E+01  0.0000000000000E+00
-0.2202784345837E+00 -0.3487545271003E+01  0.0000000000000E+00
-0.2203037467827E+00 -0.3413318160169E+01  0.0000000000000E+00
-0.2203290590570E+00 -0.3339090828300E+01  0.0000000000000E+00
-0.2203543717045E+00 -0.3264862402108E+01  0.0000000000000E+00
-0.2203796835150E+00 -0.3190636430667E+01  0.0000000000000E+00
-0.2204049956767E+00 -0.3116409429118E+01  0.0000000000000E+00
-0.2204303079106E+00 -0.3042182215768E+01  0.0000000000000E+00
-0.2204556201309E+00 -0.2967955042264E+01  0.0000000000000E+00
-0.2204809323185E+00 -0.2893727964843E+01  0.0000000000000E+00
-0.2205225529353E+00 -0.2819500919865E+01  0.0000000000000E+00
-0.2206793644652E+00 -0.2745277379213E+01  0.0000000000000E+00
-0.2210587112750E+00 -0.2671074123923E+01  0.0000000000000E+00
-0.2217250892667E+00 -0.2596922943121E+01  0.0000000000000E+00
-0.2227037800508E+00 -0.2522862139205E+01  0.0000000000000E+00
-0.2239976380052E+00 -0.2448928431131E+01  0.0000000000000E+00
-0.2256008645120E+00 -0.2375154773537E+01  0.0000000000000E+00
-0.2275069012456E+00 -0.2301572283534E+01  0.0000000000000E+00
-0.2297125085923E+00 -0.2228212220101E+01  0.0000000000000E+00
-0.2322200490218E+00 -0.2155110824251E+01  0.0000000000000E+00
-0.2350393892486E+00 -0.2082312920983E+01  0.0000000000000E+00
-0.2381743279693E+00 -0.2009860041244E+01  0.0000000000000E+00
-0.2416055144180E+00 -0.1937766425166E+01  0.0000000000000E+00
-0.2453185184479E+00 -0.1866046999373E+01  0.0000000000000E+00
-0.2493064170647E+00 -0.1794723543554E+01  0.0000000000000E+00
-0.2535689837149E+00 -0.1723826791791E+01  0.0000000000000E+00
-0.2581127053052E+00 -0.1653399627459E+01  0.0000000000000E+00
-0.2629516134529E+00 -0.1583502518406E+01  0.0000000000000E+00
-0.2681094000786E+00 -0.1514219918310E+01  0.0000000000000E+00
-0.2736228861926E+00 -0.1445679296214E+01  0.0000000000000E+00
-0.2795495751478E+00 -0.1378073731162E+01  0.0000000000000E+00
-0.1925228350695E+00 -0.4229773600768E+01  0.0000000000000E+00
-0.1925456701187E+00 -0.4155502619191E+01  0.0000000000000E+00
-0.1925685052109E+00 -0.4081231497639E+01  0.0000000000000E+00
-0.1925913403229E+00 -0.4006960311527E+01  0.0000000000000E+00
-0.1926141754049E+00 -0.3932689223390E+01  0.0000000000000E+00
-0.1926370104825E+00 -0.3858418149187E+01  0.0000000000000E+00
-0.1926598455630E+00 -0.3784147065547E+01  0.0000000000000E+00
-0.1926826806470E+00 -0.3709875970701E+01  0.0000000000000E+00
-0.1927055157292E+00 -0.3635604881693E+01  0.0000000000000E+00
-0.1927283508117E+00 -0.3561333791667E+01  0.0000000000000E+00
-0.1927511859358E+00 -0.3487062566424E+01  0.0000000000000E+00
-0.1927740209885E+00 -0.3412791573417E+01  0.0000000000000E+00
-0.1927968561092E+00 -0.3338520359245E+01  0.0000000000000E+00
-0.1928196915665E+00 -0.3264248050103E+01  0.0000000000000E+00
-0.1928425262686E+00 -0.3189978197163E+01  0.0000000000000E+00
-0.1928653612877E+00 -0.3115707313507E+01  0.0000000000000E+00
-0.1928881963719E+00 -0.3041436217924E+01  0.0000000000000E+00
-0.1929110314439E+00 -0.2967165162210E+01  0.0000000000000E+00
-0.1929338664863E+00 -0.2892894202637E+01  0.0000000000000E+00
-0.1929709714044E+00 -0.2818623275497E+01  0.0000000000000E+00
-0.1931088683680E+00 -0.2744355852933E+01  0.0000000000000E+00
-0.1934414836956E+00 -0.2670108716159E+01  0.0000000000000E+00
-0.1940252513053E+00 -0.2595913654076E+01  0.0000000000000E+00
-0.1948822926087E+00 -0.2521808968931E+01  0.0000000000000E+00
-0.1960151051878E+00 -0.2447831379587E+01  0.0000000000000E+00
-0.1974186152532E+00 -0.2374013840609E+01  0.0000000000000E+00
-0.1990870842670E+00 -0.2300387469284E+01  0.0000000000000E+00
-0.2010176775699E+00 -0.2226983524425E+01  0.0000000000000E+00
-0.2032124623196E+00 -0.2153838247250E+01  0.0000000000000E+00
-0.2056800718913E+00 -0.2080996462759E+01  0.0000000000000E+00
-0.2084238301475E+00 -0.2008499701722E+01  0.0000000000000E+00
-0.2114268051683E+00 -0.1936362204253E+01  0.0000000000000E+00
-0.2146763705746E+00 -0.1864598897017E+01  0.0000000000000E+00
-0.2181664687455E+00 -0.1793231559741E+01  0.0000000000000E+00
-0.2218969014465E+00 -0.1722290926515E+01  0.0000000000000E+00
-0.2258733447208E+00 -0.1651819880738E+01  0.0000000000000E+00
-0.2301080762283E+00 -0.1581878890584E+01  0.0000000000000E+00
-0.2346218264090E+00 -0.1512552409157E+01  0.0000000000000E+00
-0.2394468136277E+00 -0.1443967906727E+01  0.0000000000000E+00
-0.2446333533281E+00 -0.1376318461792E+01  0.0000000000000E+00
-0.1650200836141E+00 -0.4229735553552E+01  0.0000000000000E+00
-0.1650401672104E+00 -0.4155426524793E+01  0.0000000000000E+00
-0.1650602508445E+00 -0.4081117355988E+01  0.0000000000000E+00
-0.1650803344960E+00 -0.4006808122590E+01  0.0000000000000E+00
-0.1651004181210E+00 -0.3932498987216E+01  0.0000000000000E+00
-0.1651205017423E+00 -0.3858189865784E+01  0.0000000000000E+00
-0.1651405853662E+00 -0.3783880734910E+01  0.0000000000000E+00
-0.1651606689930E+00 -0.3709571592824E+01  0.0000000000000E+00
-0.1651807526183E+00 -0.3635262456580E+01  0.0000000000000E+00
-0.1652008362438E+00 -0.3560953319316E+01  0.0000000000000E+00
-0.1652209199060E+00 -0.3486644046767E+01  0.0000000000000E+00
-0.1652410035053E+00 -0.3412335006573E+01  0.0000000000000E+00
-0.1652610871644E+00 -0.3338025745100E+01  0.0000000000000E+00
-0.1652811711196E+00 -0.3263715388096E+01  0.0000000000000E+00
-0.1653012544107E+00 -0.3189407488552E+01  0.0000000000000E+00
-0.1653213379804E+00 -0.3115098557765E+01  0.0000000000000E+00
-0.1653414216075E+00 -0.3040789414941E+01  0.0000000000000E+00
-0.1653615052238E+00 -0.2966480312009E+01  0.0000000000000E+00
-0.1653815888140E+00 -0.2892171305265E+01  0.0000000000000E+00
-0.1654139037265E+00 -0.2817862330946E+01  0.0000000000000E+00
-0.1655326118186E+00 -0.2743556861420E+01  0.0000000000000E+00
-0.1658182213616E+00 -0.2669271678057E+01  0.0000000000000E+00
-0.1663191042885E+00 -0.2595038569558E+01  0.0000000000000E+00
-0.1670542218109E+00 -0.2520895838043E+01  0.0000000000000E+00
-0.1680257147146E+00 -0.2446880202293E+01  0.0000000000000E+00
-0.1692292340380E+00 -0.2373024616811E+01  0.0000000000000E+00
-0.1706598610322E+00 -0.2299360199036E+01  0.0000000000000E+00
-0.1723151659912E+00 -0.2225918207636E+01  0.0000000000000E+00
-0.1741969207619E+00 -0.2152734884009E+01  0.0000000000000E+00
-0.1763125253801E+00 -0.2079855053154E+01  0.0000000000000E+00
-0.1786648288734E+00 -0.2007320245687E+01  0.0000000000000E+00
-0.1812393181677E+00 -0.1935144701707E+01  0.0000000000000E+00
-0.1840251706515E+00 -0.1863343347917E+01  0.0000000000000E+00
-0.1870171940779E+00 -0.1791937964073E+01  0.0000000000000E+00
-0.1902152185315E+00 -0.1720959284274E+01  0.0000000000000E+00
-0.1936241091919E+00 -0.1650450191940E+01  0.0000000000000E+00
-0.1972543897637E+00 -0.1580471155527E+01  0.0000000000000E+00
-0.2011238292027E+00 -0.1511106627642E+01  0.0000000000000E+00
-0.2052600432362E+00 -0.1442484079618E+01  0.0000000000000E+00
-0.2097061593950E+00 -0.1374796589482E+01  0.0000000000000E+00
-0.1375170965664E+00 -0.4229703348149E+01  0.0000000000000E+00
-0.1375341931175E+00 -0.4155362114015E+01  0.0000000000000E+00
-0.1375512897008E+00 -0.4081020739775E+01  0.0000000000000E+00
-0.1375683862990E+00 -0.4006679300913E+01  0.0000000000000E+00
-0.1375854828746E+00 -0.3932337960118E+01  0.0000000000000E+00
-0.1376025794470E+00 -0.3857996633271E+01  0.0000000000000E+00
-0.1376196760216E+00 -0.3783655296978E+01  0.0000000000000E+00
-0.1376367725988E+00 -0.3709313949468E+01  0.0000000000000E+00
-0.1376538691746E+00 -0.3634972607802E+01  0.0000000000000E+00
-0.1376709657507E+00 -0.3560631265117E+01  0.0000000000000E+00
-0.1376880623579E+00 -0.3486289787087E+01  0.0000000000000E+00
-0.1377051589116E+00 -0.3411948541514E+01  0.0000000000000E+00
-0.1377222555162E+00 -0.3337607074565E+01  0.0000000000000E+00
-0.1377393523729E+00 -0.3263264511611E+01  0.0000000000000E+00
-0.1377564486642E+00 -0.3188924407182E+01  0.0000000000000E+00
-0.1377735451928E+00 -0.3114583271062E+01  0.0000000000000E+00
-0.1377906417701E+00 -0.3040241922814E+01  0.0000000000000E+00
-0.1378077383383E+00 -0.2965900614475E+01  0.0000000000000E+00
-0.1378248348843E+00 -0.2891559402366E+01  0.0000000000000E+00
-0.1378521241988E+00 -0.2817218222675E+01  0.0000000000000E+00
-0.1379514078263E+00 -0.2742880547961E+01  0.0000000000000E+00
-0.1381897759909E+00 -0.2668563159723E+01  0.0000000000000E+00
-0.1386075386376E+00 -0.2594297846497E+01  0.0000000000000E+00
-0.1392204967773E+00 -0.2520122910295E+01  0.0000000000000E+00
-0.1400304343989E+00 -0.2446075069828E+01  0.0000000000000E+00
-0.1410337273682E+00 -0.2372187279545E+01  0.0000000000000E+00
-0.1422262767265E+00 -0.2298490657014E+01  0.0000000000000E+00
-0.1436060577199E+00 -0.2225016460781E+01  0.0000000000000E+00
-0.1451745468860E+00 -0.2151800932397E+01  0.0000000000000E+00
-0.1469379109210E+00 -0.2078888896859E+01  0.0000000000000E+00
-0.1488985240163E+00 -0.2006321884654E+01  0.0000000000000E+00
-0.1510442919439E+00 -0.1934114135868E+01  0.0000000000000E+00
-0.1533661958606E+00 -0.1862280577234E+01  0.0000000000000E+00
-0.1558599088936E+00 -0.1790842988534E+01  0.0000000000000E+00
-0.1585252894466E+00 -0.1719832103876E+01  0.0000000000000E+00
-0.1613663918356E+00 -0.1649290806696E+01  0.0000000000000E+00
-0.1643919858117E+00 -0.1579279565690E+01  0.0000000000000E+00
-0.1676168788429E+00 -0.1509882833043E+01  0.0000000000000E+00
-0.1710640840249E+00 -0.1441228080987E+01  0.0000000000000E+00
-0.1747695409720E+00 -0.1373508387153E+01  0.0000000000000E+00
-0.1100139131733E+00 -0.4229676990359E+01  0.0000000000000E+00
-0.1100278263343E+00 -0.4155309398459E+01  0.0000000000000E+00
-0.1100417395214E+00 -0.4080941666402E+01  0.0000000000000E+00
-0.1100556527207E+00 -0.4006573869701E+01  0.0000000000000E+00
-0.1100695659016E+00 -0.3932206171102E+01  0.0000000000000E+00
-0.1100834790799E+00 -0.3857838486456E+01  0.0000000000000E+00
-0.1100973922599E+00 -0.3783470792361E+01  0.0000000000000E+00
-0.1101113054421E+00 -0.3709103087044E+01  0.0000000000000E+00
-0.1101252186231E+00 -0.3634735387573E+01  0.0000000000000E+00
-0.1101391318044E+00 -0.3560367687083E+01  0.0000000000000E+00
-0.1101530450109E+00 -0.3485999851201E+01  0.0000000000000E+00
-0.1101669581740E+00 -0.3411632247857E+01  0.0000000000000E+00
-0.1101808713785E+00 -0.3337264423059E+01  0.0000000000000E+00
-0.1101947847881E+00 -0.3262895501867E+01  0.0000000000000E+00
-0.1102086977376E+00 -0.3188529040072E+01  0.0000000000000E+00
-0.1102226108802E+00 -0.3114161546221E+01  0.0000000000000E+00
-0.1102365240625E+00 -0.3039793840166E+01  0.0000000000000E+00
-0.1102504372373E+00 -0.2965426174034E+01  0.0000000000000E+00
-0.1102643503941E+00 -0.2891058604166E+01  0.0000000000000E+00
-0.1102864177656E+00 -0.2816691066711E+01  0.0000000000000E+00
-0.1103660805855E+00 -0.2742327034383E+01  0.0000000000000E+00
-0.1105570110314E+00 -0.2667983288788E+01  0.0000000000000E+00
-0.1108914570603E+00 -0.2593691618327E+01  0.0000000000000E+00
-0.1113820594814E+00 -0.2519490324921E+01  0.0000000000000E+00
-0.1120302454863E+00 -0.2445416127225E+01  0.0000000000000E+00
-0.1128331157681E+00 -0.2371501979645E+01  0.0000000000000E+00
-0.1137873911589E+00 -0.2297778999854E+01  0.0000000000000E+00
-0.1148914518564E+00 -0.2224278446299E+01  0.0000000000000E+00
-0.1161464790893E+00 -0.2151036560653E+01  0.0000000000000E+00
-0.1175574062147E+00 -0.2078098167915E+01  0.0000000000000E+00
-0.1191261325870E+00 -0.2005504798465E+01  0.0000000000000E+00
-0.1208429828240E+00 -0.1933270692377E+01  0.0000000000000E+00
-0.1227007418508E+00 -0.1861410776411E+01  0.0000000000000E+00
-0.1246959481691E+00 -0.1789946830370E+01  0.0000000000000E+00
-0.1268284885014E+00 -0.1718909588368E+01  0.0000000000000E+00
-0.1291016063007E+00 -0.1648341933855E+01  0.0000000000000E+00
-0.1315223173657E+00 -0.1578304335721E+01  0.0000000000000E+00
-0.1341024676744E+00 -0.1508881245808E+01  0.0000000000000E+00
-0.1368604676965E+00 -0.1440200137086E+01  0.0000000000000E+00
-0.1398250691276E+00 -0.1372454086857E+01  0.0000000000000E+00
-0.8251057255733E-01 -0.4229656484926E+01  0.0000000000000E+00
-0.8252114510523E-01 -0.4155268387612E+01  0.0000000000000E+00
-0.8253171767305E-01 -0.4080880150103E+01  0.0000000000000E+00
-0.8254229025007E-01 -0.4006491847932E+01  0.0000000000000E+00
-0.8255286281313E-01 -0.3932103643889E+01  0.0000000000000E+00
-0.8256343537422E-01 -0.3857715453803E+01  0.0000000000000E+00
-0.8257400793664E-01 -0.3783327254265E+01  0.0000000000000E+00
-0.8258458050067E-01 -0.3708939043503E+01  0.0000000000000E+00
-0.8259515306386E-01 -0.3634550838589E+01  0.0000000000000E+00
-0.8260572562719E-01 -0.3560162632655E+01  0.0000000000000E+00
-0.8261629820978E-01 -0.3485774291291E+01  0.0000000000000E+00
-0.8262687075930E-01 -0.3411386182529E+01  0.0000000000000E+00
-0.8263744334031E-01 -0.3336997852253E+01  0.0000000000000E+00
-0.8264801607719E-01 -0.3262608425281E+01  0.0000000000000E+00
-0.8265858846443E-01 -0.3188221458384E+01  0.0000000000000E+00
-0.8266916099838E-01 -0.3113833459145E+01  0.0000000000000E+00
-0.8267973356251E-01 -0.3039445247645E+01  0.0000000000000E+00
-0.8269030612096E-01 -0.2965057076078E+01  0.0000000000000E+00
-0.8270087866573E-01 -0.2890669000802E+01  0.0000000000000E+00
-0.8271756687138E-01 -0.2816280957935E+01  0.0000000000000E+00
-0.8277745166208E-01 -0.2741896420311E+01  0.0000000000000E+00
-0.8292078717006E-01 -0.2667532169621E+01  0.0000000000000E+00
-0.8317175936353E-01 -0.2593219994158E+01  0.0000000000000E+00
-0.8353984884971E-01 -0.2518998195776E+01  0.0000000000000E+00
-0.8402612602254E-01 -0.2444903493085E+01  0.0000000000000E+00
-0.8462841640204E-01 -0.2370968840455E+01  0.0000000000000E+00
-0.8534426061171E-01 -0.2297225355644E+01  0.0000000000000E+00
-0.8617244380030E-01 -0.2223704297020E+01  0.0000000000000E+00
-0.8711385188860E-01 -0.2150441906354E+01  0.0000000000000E+00
-0.8817218489417E-01 -0.2077483008642E+01  0.0000000000000E+00
-0.8934886733396E-01 -0.2004869134183E+01  0.0000000000000E+00
-0.9063664267160E-01 -0.1932614523043E+01  0.0000000000000E+00
-0.9203009960065E-01 -0.1860734102001E+01  0.0000000000000E+00
-0.9352664199702E-01 -0.1789249650877E+01  0.0000000000000E+00
-0.9512618490244E-01 -0.1718191903789E+01  0.0000000000000E+00
-0.9683116090668E-01 -0.1647603744198E+01  0.0000000000000E+00
-0.9864683185755E-01 -0.1577545641147E+01  0.0000000000000E+00
-0.1005820822409E+00 -0.1508102046211E+01  0.0000000000000E+00
-0.1026507199050E+00 -0.1439400432931E+01  0.0000000000000E+00
-0.1048743086251E+00 -0.1371633878354E+01  0.0000000000000E+00
-0.5500711393383E-01 -0.4229641835546E+01  0.0000000000000E+00
-0.5501422786132E-01 -0.4155239088865E+01  0.0000000000000E+00
-0.5502134180221E-01 -0.4080836201962E+01  0.0000000000000E+00
-0.5502845574929E-01 -0.4006433250383E+01  0.0000000000000E+00
-0.5503556968698E-01 -0.3932030396953E+01  0.0000000000000E+00
-0.5504268362334E-01 -0.3857627557482E+01  0.0000000000000E+00
-0.5504979756060E-01 -0.3783224708557E+01  0.0000000000000E+00
-0.5505691149894E-01 -0.3708821848406E+01  0.0000000000000E+00
-0.5506402543671E-01 -0.3634418994103E+01  0.0000000000000E+00
-0.5507113937459E-01 -0.3560016138781E+01  0.0000000000000E+00
-0.5507825332541E-01 -0.3485613148002E+01  0.0000000000000E+00
-0.5508536725399E-01 -0.3411210389871E+01  0.0000000000000E+00
-0.5509248120376E-01 -0.3336807410182E+01  0.0000000000000E+00
-0.5509959525840E-01 -0.3262403333581E+01  0.0000000000000E+00
-0.5510670907779E-01 -0.3188001717540E+01  0.0000000000000E+00
-0.5511382299589E-01 -0.3113599068954E+01  0.0000000000000E+00
-0.5512093693430E-01 -0.3039196208064E+01  0.0000000000000E+00
-0.5512805086889E-01 -0.2964793387116E+01  0.0000000000000E+00
-0.5513516479427E-01 -0.2890390662477E+01  0.0000000000000E+00
-0.5514635582678E-01 -0.2815987970245E+01  0.0000000000000E+00
-0.5518634458180E-01 -0.2741588783338E+01  0.0000000000000E+00
-0.5528196714690E-01 -0.2667209883509E+01  0.0000000000000E+00
-0.5544934750096E-01 -0.2592883058975E+01  0.0000000000000E+00
-0.5569480604889E-01 -0.2518646611538E+01  0.0000000000000E+00
-0.5601905638671E-01 -0.2444537259779E+01  0.0000000000000E+00
-0.5642064886117E-01 -0.2370587958044E+01  0.0000000000000E+00
-0.5689794388766E-01 -0.2296829824147E+01  0.0000000000000E+00
-0.5745013156543E-01 -0.2223294116403E+01  0.0000000000000E+00
-0.5807780250795E-01 -0.2150017076651E+01  0.0000000000000E+00
-0.5878342339336E-01 -0.2077043529887E+01  0.0000000000000E+00
-0.5956794390064E-01 -0.2004415006351E+01  0.0000000000000E+00
-0.6042652633910E-01 -0.1932145746102E+01  0.0000000000000E+00
-0.6135556317081E-01 -0.1860250675935E+01  0.0000000000000E+00
-0.6235332364616E-01 -0.1788751575680E+01  0.0000000000000E+00
-0.6341975112603E-01 -0.1717679179460E+01  0.0000000000000E+00
-0.6455646733708E-01 -0.1647076370742E+01  0.0000000000000E+00
-0.6576698017705E-01 -0.1577003618680E+01  0.0000000000000E+00
-0.6705721263822E-01 -0.1507545374656E+01  0.0000000000000E+00
-0.6843636995069E-01 -0.1438829112620E+01  0.0000000000000E+00
-0.6991882796803E-01 -0.1371047909439E+01  0.0000000000000E+00
-0.2750357658843E-01 -0.4229633044861E+01  0.0000000000000E+00
-0.2750715317366E-01 -0.4155221507503E+01  0.0000000000000E+00
-0.2751072976564E-01 -0.4080809829905E+01  0.0000000000000E+00
-0.2751430636072E-01 -0.4006398087624E+01  0.0000000000000E+00
-0.2751788295109E-01 -0.3931986443504E+01  0.0000000000000E+00
-0.2752145954079E-01 -0.3857574813344E+01  0.0000000000000E+00
-0.2752503613094E-01 -0.3783163173730E+01  0.0000000000000E+00
-0.2752861272163E-01 -0.3708751522888E+01  0.0000000000000E+00
-0.2753218931203E-01 -0.3634339877895E+01  0.0000000000000E+00
-0.2753576590249E-01 -0.3559928231882E+01  0.0000000000000E+00
-0.2753934249946E-01 -0.3485516450397E+01  0.0000000000000E+00
-0.2754291908525E-01 -0.3411104901588E+01  0.0000000000000E+00
-0.2754649568168E-01 -0.3336693131194E+01  0.0000000000000E+00
-0.2755007233085E-01 -0.3262280263758E+01  0.0000000000000E+00
-0.2755364886173E-01 -0.3187869857173E+01  0.0000000000000E+00
-0.2755722544225E-01 -0.3113458417920E+01  0.0000000000000E+00
-0.2756080203298E-01 -0.3039046766340E+01  0.0000000000000E+00
-0.2756437862178E-01 -0.2964635154705E+01  0.0000000000000E+00
-0.2756795520596E-01 -0.2890223639392E+01  0.0000000000000E+00
-0.2757357034351E-01 -0.2815812156483E+01  0.0000000000000E+00
-0.2759358434146E-01 -0.2741404178949E+01  0.0000000000000E+00
-0.2764141524306E-01 -0.2667016488579E+01  0.0000000000000E+00
-0.2772512503744E-01 -0.2592680873544E+01  0.0000000000000E+00
-0.2784787392694E-01 -0.2518435635618E+01  0.0000000000000E+00
-0.2801001870949E-01 -0.2444317493361E+01  0.0000000000000E+00
-0.2821083455843E-01 -0.2370359401105E+01  0.0000000000000E+00
-0.2844950168136E-01 -0.2296592476699E+01  0.0000000000000E+00
-0.2872561512776E-01 -0.2223047978426E+01  0.0000000000000E+00
-0.2903947020410E-01 -0.2149762148164E+01  0.0000000000000E+00
-0.2939230024913E-01 -0.2076779810912E+01  0.0000000000000E+00
-0.2978458010354E-01 -0.2004142496872E+01  0.0000000000000E+00
-0.3021389092229E-01 -0.1931864446101E+01  0.0000000000000E+00
-0.3067842893605E-01 -0.1859960585402E+01  0.0000000000000E+00
-0.3117732876971E-01 -0.1788452694611E+01  0.0000000000000E+00
-0.3171056210335E-01 -0.1717371507854E+01  0.0000000000000E+00
-0.3227893980056E-01 -0.1646759908603E+01  0.0000000000000E+00
-0.3288421580958E-01 -0.1576678366077E+01  0.0000000000000E+00
-0.3352935162807E-01 -0.1507211331542E+01  0.0000000000000E+00
-0.3421894987024E-01 -0.1438486279195E+01  0.0000000000000E+00
-0.3496019846693E-01 -0.1370696285795E+01  0.0000000000000E+00
 0.1466269727017E-09 -0.4229630114457E+01  0.0000000000000E+00
 0.2932532055263E-09 -0.4155215646697E+01  0.0000000000000E+00
 0.4398803798697E-09 -0.4080801038692E+01  0.0000000000000E+00
 0.5865072632801E-09 -0.4006386366002E+01  0.0000000000000E+00
 0.7331339456125E-09 -0.3931971791476E+01  0.0000000000000E+00
 0.8797607629187E-09 -0.3857557230911E+01  0.0000000000000E+00
 0.1026387601599E-08 -0.3783142660891E+01  0.0000000000000E+00
 0.1173014146470E-08 -0.3708728079643E+01  0.0000000000000E+00
 0.1319641038940E-08 -0.3634313504245E+01  0.0000000000000E+00
 0.1466267822695E-08 -0.3559898927826E+01  0.0000000000000E+00
 0.1612894884936E-08 -0.3485484215930E+01  0.0000000000000E+00
 0.1759521559980E-08 -0.3411069736718E+01  0.0000000000000E+00
 0.1906148624904E-08 -0.3336655035914E+01  0.0000000000000E+00
 0.2052777753410E-08 -0.3262239238024E+01  0.0000000000000E+00
 0.2199402290491E-08 -0.3187825901082E+01  0.0000000000000E+00
 0.2346028468075E-08 -0.3113411531432E+01  0.0000000000000E+00
 0.2492655403194E-08 -0.3038996949445E+01  0.0000000000000E+00
 0.2639282414546E-08 -0.2964582407406E+01  0.0000000000000E+00
 0.2785908708559E-08 -0.2890167961692E+01  0.0000000000000E+00
 0.2932963750762E-08 -0.2815753548382E+01  0.0000000000000E+00
 0.3081668126355E-08 -0.2741342640464E+01  0.0000000000000E+00
 0.3233148692405E-08 -0.2666952019738E+01  0.0000000000000E+00
 0.3388282564229E-08 -0.2592613474360E+01  0.0000000000000E+00
 0.3547520115210E-08 -0.2518365306095E+01  0.0000000000000E+00
 0.3711086251809E-08 -0.2444244233496E+01  0.0000000000000E+00
 0.3879109370085E-08 -0.2370283210891E+01  0.0000000000000E+00
 0.4051601455226E-08 -0.2296513356140E+01  0.0000000000000E+00
 0.4229037818245E-08 -0.2222965927515E+01  0.0000000000000E+00
 0.4411708547429E-08 -0.2149677166908E+01  0.0000000000000E+00
 0.4600299816833E-08 -0.2076691899317E+01  0.0000000000000E+00
 0.4792582977744E-08 -0.2004051654933E+01  0.0000000000000E+00
 0.4987928936109E-08 -0.1931770673812E+01  0.0000000000000E+00
 0.5187018094136E-08 -0.1859863882760E+01  0.0000000000000E+00
 0.5390384780373E-08 -0.1788353061614E+01  0.0000000000000E+00
 0.5598754705489E-08 -0.1717268944503E+01  0.0000000000000E+00
 0.5811610974171E-08 -0.1646654414899E+01  0.0000000000000E+00
 0.6029914565701E-08 -0.1576569942042E+01  0.0000000000000E+00
 0.6251219526846E-08 -0.1507099977162E+01  0.0000000000000E+00
 0.6476122786694E-08 -0.1438371994536E+01  0.0000000000000E+00
 0.6697123319916E-08 -0.1370579070886E+01  0.0000000000000E+00
 0.2750357688167E-01 -0.4229633044863E+01  0.0000000000000E+00
 0.2750715376015E-01 -0.4155221507507E+01  0.0000000000000E+00
 0.2751073064538E-01 -0.4080809829911E+01  0.0000000000000E+00
 0.2751430753371E-01 -0.4006398087633E+01  0.0000000000000E+00
 0.2751788441732E-01 -0.3931986443515E+01  0.0000000000000E+00
 0.2752146130026E-01 -0.3857574813358E+01  0.0000000000000E+00
 0.2752503818366E-01 -0.3783163173746E+01  0.0000000000000E+00
 0.2752861506759E-01 -0.3708751522906E+01  0.0000000000000E+00
 0.2753219195125E-01 -0.3634339877916E+01  0.0000000000000E+00
 0.2753576883495E-01 -0.3559928231905E+01  0.0000000000000E+00
 0.2753934572517E-01 -0.3485516450422E+01  0.0000000000000E+00
 0.2754292260420E-01 -0.3411104901615E+01  0.0000000000000E+00
 0.2754649949388E-01 -0.3336693131223E+01  0.0000000000000E+00
 0.2755007643630E-01 -0.3262280263790E+01  0.0000000000000E+00
 0.2755365326042E-01 -0.3187869857207E+01  0.0000000000000E+00
 0.2755723013419E-01 -0.3113458417957E+01  0.0000000000000E+00
 0.2756080701816E-01 -0.3039046766379E+01  0.0000000000000E+00
 0.2756438390021E-01 -0.2964635154746E+01  0.0000000000000E+00
 0.2756796077763E-01 -0.2890223639435E+01  0.0000000000000E+00
 0.2757357620929E-01 -0.2815812156528E+01  0.0000000000000E+00
 0.2759359050464E-01 -0.2741404178997E+01  0.0000000000000E+00
 0.2764142170919E-01 -0.2667016488629E+01  0.0000000000000E+00
 0.2772513181383E-01 -0.2592680873597E+01  0.0000000000000E+00
 0.2784788102180E-01 -0.2518435635673E+01  0.0000000000000E+00
 0.2801002613147E-01 -0.2444317493417E+01  0.0000000000000E+00
 0.2821084231645E-01 -0.2370359401164E+01  0.0000000000000E+00
 0.2844950978436E-01 -0.2296592476761E+01  0.0000000000000E+00
 0.2872562358562E-01 -0.2223047978490E+01  0.0000000000000E+00
 0.2903947902730E-01 -0.2149762148230E+01  0.0000000000000E+00
 0.2939230944951E-01 -0.2076779810981E+01  0.0000000000000E+00
 0.2978458968848E-01 -0.2004142496943E+01  0.0000000000000E+00
 0.3021390089791E-01 -0.1931864446174E+01  0.0000000000000E+00
 0.3067843930983E-01 -0.1859960585477E+01  0.0000000000000E+00
 0.3117733955022E-01 -0.1788452694688E+01  0.0000000000000E+00
 0.3171057330060E-01 -0.1717371507933E+01  0.0000000000000E+00
 0.3227895142350E-01 -0.1646759908685E+01  0.0000000000000E+00
 0.3288422786913E-01 -0.1576678366161E+01  0.0000000000000E+00
 0.3352936413022E-01 -0.1507211331629E+01  0.0000000000000E+00
 0.3421896282219E-01 -0.1438486279285E+01  0.0000000000000E+00
 0.3496021186087E-01 -0.1370696285886E+01  0.0000000000000E+00
 0.5500711422706E-01 -0.4229641835551E+01  0.0000000000000E+00
 0.5501422844776E-01 -0.4155239088874E+01  0.0000000000000E+00
 0.5502134268188E-01 -0.4080836201975E+01  0.0000000000000E+00
 0.5502845692218E-01 -0.4006433250401E+01  0.0000000000000E+00
 0.5503557115310E-01 -0.3932030396975E+01  0.0000000000000E+00
 0.5504268538268E-01 -0.3857627557509E+01  0.0000000000000E+00
 0.5504979961317E-01 -0.3783224708589E+01  0.0000000000000E+00
 0.5505691384472E-01 -0.3708821848442E+01  0.0000000000000E+00
 0.5506402807572E-01 -0.3634418994144E+01  0.0000000000000E+00
 0.5507114230682E-01 -0.3560016138826E+01  0.0000000000000E+00
 0.5507825655087E-01 -0.3485613148052E+01  0.0000000000000E+00
 0.5508537077267E-01 -0.3411210389926E+01  0.0000000000000E+00
 0.5509248501566E-01 -0.3336807410241E+01  0.0000000000000E+00
 0.5509959936354E-01 -0.3262403333645E+01  0.0000000000000E+00
 0.5510671347613E-01 -0.3188001717608E+01  0.0000000000000E+00
 0.5511382768746E-01 -0.3113599069026E+01  0.0000000000000E+00
 0.5512094191909E-01 -0.3039196208141E+01  0.0000000000000E+00
 0.5512805614690E-01 -0.2964793387197E+01  0.0000000000000E+00
 0.5513517036551E-01 -0.2890390662564E+01  0.0000000000000E+00
 0.5514636169210E-01 -0.2815987970336E+01  0.0000000000000E+00
 0.5518635074450E-01 -0.2741588783433E+01  0.0000000000000E+00
 0.5528197361253E-01 -0.2667209883609E+01  0.0000000000000E+00
 0.5544935427683E-01 -0.2592883059079E+01  0.0000000000000E+00
 0.5569481314320E-01 -0.2518646611647E+01  0.0000000000000E+00
 0.5601906380812E-01 -0.2444537259892E+01  0.0000000000000E+00
 0.5642065661860E-01 -0.2370587958162E+01  0.0000000000000E+00
 0.5689795199004E-01 -0.2296829824270E+01  0.0000000000000E+00
 0.5745014002266E-01 -0.2223294116531E+01  0.0000000000000E+00
 0.5807781133049E-01 -0.2150017076782E+01  0.0000000000000E+00
 0.5878343259305E-01 -0.2077043530024E+01  0.0000000000000E+00
 0.5956795348486E-01 -0.2004415006491E+01  0.0000000000000E+00
 0.6042653631398E-01 -0.1932145746248E+01  0.0000000000000E+00
 0.6135557354385E-01 -0.1860250676085E+01  0.0000000000000E+00
 0.6235333442590E-01 -0.1788751575835E+01  0.0000000000000E+00
 0.6341976232248E-01 -0.1717679179619E+01  0.0000000000000E+00
 0.6455647895921E-01 -0.1647076370906E+01  0.0000000000000E+00
 0.6576699223576E-01 -0.1577003618849E+01  0.0000000000000E+00
 0.6705722513951E-01 -0.1507545374830E+01  0.0000000000000E+00
 0.6843638290175E-01 -0.1438829112798E+01  0.0000000000000E+00
 0.6991884136106E-01 -0.1371047909622E+01  0.0000000000000E+00
 0.8251057285052E-01 -0.4229656484933E+01  0.0000000000000E+00
 0.8252114569160E-01 -0.4155268387626E+01  0.0000000000000E+00
 0.8253171855261E-01 -0.4080880150123E+01  0.0000000000000E+00
 0.8254229142281E-01 -0.4006491847959E+01  0.0000000000000E+00
 0.8255286427906E-01 -0.3932103643923E+01  0.0000000000000E+00
 0.8256343713333E-01 -0.3857715453844E+01  0.0000000000000E+00
 0.8257400998894E-01 -0.3783327254313E+01  0.0000000000000E+00
 0.8258458284615E-01 -0.3708939043558E+01  0.0000000000000E+00
 0.8259515570252E-01 -0.3634550838650E+01  0.0000000000000E+00
 0.8260572855905E-01 -0.3560162632723E+01  0.0000000000000E+00
 0.8261630143482E-01 -0.3485774291366E+01  0.0000000000000E+00
 0.8262687427753E-01 -0.3411386182611E+01  0.0000000000000E+00
 0.8263744715172E-01 -0.3336997852342E+01  0.0000000000000E+00
 0.8264802018179E-01 -0.3262608425376E+01  0.0000000000000E+00
 0.8265859286221E-01 -0.3188221458486E+01  0.0000000000000E+00
 0.8266916568935E-01 -0.3113833459254E+01  0.0000000000000E+00
 0.8267973854666E-01 -0.3039445247761E+01  0.0000000000000E+00
 0.8269031139830E-01 -0.2965057076200E+01  0.0000000000000E+00
 0.8270088423625E-01 -0.2890669000931E+01  0.0000000000000E+00
 0.8271757273595E-01 -0.2816280958071E+01  0.0000000000000E+00
 0.8277745782398E-01 -0.2741896420454E+01  0.0000000000000E+00
 0.8292079363485E-01 -0.2667532169771E+01  0.0000000000000E+00
 0.8317176613852E-01 -0.2593219994315E+01  0.0000000000000E+00
 0.8353985594311E-01 -0.2518998195939E+01  0.0000000000000E+00
 0.8402613344300E-01 -0.2444903493255E+01  0.0000000000000E+00
 0.8462842415848E-01 -0.2370968840632E+01  0.0000000000000E+00
 0.8534426871307E-01 -0.2297225355828E+01  0.0000000000000E+00
 0.8617245225646E-01 -0.2223704297211E+01  0.0000000000000E+00
 0.8711386071004E-01 -0.2150441906551E+01  0.0000000000000E+00
 0.8817219409272E-01 -0.2077483008847E+01  0.0000000000000E+00
 0.8934887691701E-01 -0.2004869134394E+01  0.0000000000000E+00
 0.9063665264527E-01 -0.1932614523261E+01  0.0000000000000E+00
 0.9203010997243E-01 -0.1860734102227E+01  0.0000000000000E+00
 0.9352665277546E-01 -0.1789249651109E+01  0.0000000000000E+00
 0.9512619609756E-01 -0.1718191904028E+01  0.0000000000000E+00
 0.9683117252744E-01 -0.1647603744444E+01  0.0000000000000E+00
 0.9864684391485E-01 -0.1577545641400E+01  0.0000000000000E+00
 0.1005820947408E+00 -0.1508102046472E+01  0.0000000000000E+00
 0.1026507328546E+00 -0.1439400433198E+01  0.0000000000000E+00
 0.1048743220166E+00 -0.1371633878628E+01  0.0000000000000E+00
 0.1100139134665E+00 -0.4229676990368E+01  0.0000000000000E+00
 0.1100278269205E+00 -0.4155309398477E+01  0.0000000000000E+00
 0.1100417404008E+00 -0.4080941666429E+01  0.0000000000000E+00
 0.1100556538932E+00 -0.4006573869738E+01  0.0000000000000E+00
 0.1100695673672E+00 -0.3932206171148E+01  0.0000000000000E+00
 0.1100834808386E+00 -0.3857838486511E+01  0.0000000000000E+00
 0.1100973943118E+00 -0.3783470792424E+01  0.0000000000000E+00
 0.1101113077871E+00 -0.3709103087117E+01  0.0000000000000E+00
 0.1101252212613E+00 -0.3634735387655E+01  0.0000000000000E+00
 0.1101391347357E+00 -0.3560367687174E+01  0.0000000000000E+00
 0.1101530482354E+00 -0.3485999851300E+01  0.0000000000000E+00
 0.1101669616916E+00 -0.3411632247966E+01  0.0000000000000E+00
 0.1101808751892E+00 -0.3337264423177E+01  0.0000000000000E+00
 0.1101947888920E+00 -0.3262895501994E+01  0.0000000000000E+00
 0.1102087021346E+00 -0.3188529040208E+01  0.0000000000000E+00
 0.1102226155703E+00 -0.3114161546366E+01  0.0000000000000E+00
 0.1102365290458E+00 -0.3039793840320E+01  0.0000000000000E+00
 0.1102504425137E+00 -0.2965426174197E+01  0.0000000000000E+00
 0.1102643559636E+00 -0.2891058604338E+01  0.0000000000000E+00
 0.1102864236291E+00 -0.2816691066893E+01  0.0000000000000E+00
 0.1103660867463E+00 -0.2742327034573E+01  0.0000000000000E+00
 0.1105570174950E+00 -0.2667983288988E+01  0.0000000000000E+00
 0.1108914638340E+00 -0.2593691618536E+01  0.0000000000000E+00
 0.1113820665735E+00 -0.2519490325139E+01  0.0000000000000E+00
 0.1120302529054E+00 -0.2445416127452E+01  0.0000000000000E+00
 0.1128331235231E+00 -0.2371501979881E+01  0.0000000000000E+00
 0.1137873992588E+00 -0.2297779000099E+01  0.0000000000000E+00
 0.1148914603110E+00 -0.2224278446553E+01  0.0000000000000E+00
 0.1161464879092E+00 -0.2151036560917E+01  0.0000000000000E+00
 0.1175574154117E+00 -0.2078098168188E+01  0.0000000000000E+00
 0.1191261421684E+00 -0.2005504798746E+01  0.0000000000000E+00
 0.1208429927959E+00 -0.1933270692668E+01  0.0000000000000E+00
 0.1227007522209E+00 -0.1861410776712E+01  0.0000000000000E+00
 0.1246959589458E+00 -0.1789946830680E+01  0.0000000000000E+00
 0.1268284996947E+00 -0.1718909588687E+01  0.0000000000000E+00
 0.1291016179195E+00 -0.1648341934183E+01  0.0000000000000E+00
 0.1315223294210E+00 -0.1578304336058E+01  0.0000000000000E+00
 0.1341024801722E+00 -0.1508881246156E+01  0.0000000000000E+00
 0.1368604806440E+00 -0.1440200137443E+01  0.0000000000000E+00
 0.1398250825170E+00 -0.1372454087222E+01  0.0000000000000E+00
 0.1375170968594E+00 -0.4229703348160E+01  0.0000000000000E+00
 0.1375341937036E+00 -0.4155362114038E+01  0.0000000000000E+00
 0.1375512905800E+00 -0.4081020739809E+01  0.0000000000000E+00
 0.1375683874712E+00 -0.4006679300958E+01  0.0000000000000E+00
 0.1375854843399E+00 -0.3932337960175E+01  0.0000000000000E+00
 0.1376025812054E+00 -0.3857996633339E+01  0.0000000000000E+00
 0.1376196780730E+00 -0.3783655297058E+01  0.0000000000000E+00
 0.1376367749433E+00 -0.3709313949559E+01  0.0000000000000E+00
 0.1376538718122E+00 -0.3634972607904E+01  0.0000000000000E+00
 0.1376709686813E+00 -0.3560631265231E+01  0.0000000000000E+00
 0.1376880655816E+00 -0.3486289787212E+01  0.0000000000000E+00
 0.1377051624283E+00 -0.3411948541650E+01  0.0000000000000E+00
 0.1377222593261E+00 -0.3337607074712E+01  0.0000000000000E+00
 0.1377393564758E+00 -0.3263264511770E+01  0.0000000000000E+00
 0.1377564530602E+00 -0.3188924407352E+01  0.0000000000000E+00
 0.1377735498818E+00 -0.3114583271243E+01  0.0000000000000E+00
 0.1377906467522E+00 -0.3040241923007E+01  0.0000000000000E+00
 0.1378077436134E+00 -0.2965900614679E+01  0.0000000000000E+00
 0.1378248404525E+00 -0.2891559402581E+01  0.0000000000000E+00
 0.1378521300609E+00 -0.2817218222902E+01  0.0000000000000E+00
 0.1379514139857E+00 -0.2742880548199E+01  0.0000000000000E+00
 0.1381897824530E+00 -0.2668563159972E+01  0.0000000000000E+00
 0.1386075454098E+00 -0.2594297846758E+01  0.0000000000000E+00
 0.1392205038678E+00 -0.2520122910568E+01  0.0000000000000E+00
 0.1400304418163E+00 -0.2446075070112E+01  0.0000000000000E+00
 0.1410337351215E+00 -0.2372187279840E+01  0.0000000000000E+00
 0.1422262848245E+00 -0.2298490657320E+01  0.0000000000000E+00
 0.1436060661727E+00 -0.2225016461099E+01  0.0000000000000E+00
 0.1451745557039E+00 -0.2151800932726E+01  0.0000000000000E+00
 0.1469379201159E+00 -0.2078888897200E+01  0.0000000000000E+00
 0.1488985335956E+00 -0.2006321885006E+01  0.0000000000000E+00
 0.1510443019137E+00 -0.1934114136231E+01  0.0000000000000E+00
 0.1533662062284E+00 -0.1862280577609E+01  0.0000000000000E+00
 0.1558599196680E+00 -0.1790842988921E+01  0.0000000000000E+00
 0.1585253006374E+00 -0.1719832104274E+01  0.0000000000000E+00
 0.1613664034520E+00 -0.1649290807107E+01  0.0000000000000E+00
 0.1643919978645E+00 -0.1579279566112E+01  0.0000000000000E+00
 0.1676168913382E+00 -0.1509882833477E+01  0.0000000000000E+00
 0.1710640969698E+00 -0.1441228081433E+01  0.0000000000000E+00
 0.1747695543587E+00 -0.1373508387609E+01  0.0000000000000E+00
 0.1650200839071E+00 -0.4229735553566E+01  0.0000000000000E+00
 0.1650401677963E+00 -0.4155426524821E+01  0.0000000000000E+00
 0.1650602517234E+00 -0.4081117356029E+01  0.0000000000000E+00
 0.1650803356679E+00 -0.4006808122644E+01  0.0000000000000E+00
 0.1651004195859E+00 -0.3932498987284E+01  0.0000000000000E+00
 0.1651205035002E+00 -0.3858189865866E+01  0.0000000000000E+00
 0.1651405874170E+00 -0.3783880735006E+01  0.0000000000000E+00
 0.1651606713369E+00 -0.3709571592933E+01  0.0000000000000E+00
 0.1651807552551E+00 -0.3635262456702E+01  0.0000000000000E+00
 0.1652008391737E+00 -0.3560953319452E+01  0.0000000000000E+00
 0.1652209231288E+00 -0.3486644046916E+01  0.0000000000000E+00
 0.1652410070211E+00 -0.3412335006736E+01  0.0000000000000E+00
 0.1652610909732E+00 -0.3338025745277E+01  0.0000000000000E+00
 0.1652811752214E+00 -0.3263715388287E+01  0.0000000000000E+00
 0.1653012588054E+00 -0.3189407488756E+01  0.0000000000000E+00
 0.1653213426681E+00 -0.3115098557982E+01  0.0000000000000E+00
 0.1653414265882E+00 -0.3040789415173E+01  0.0000000000000E+00
 0.1653615104974E+00 -0.2966480312253E+01  0.0000000000000E+00
 0.1653815943807E+00 -0.2892171305523E+01  0.0000000000000E+00
 0.1654139095870E+00 -0.2817862331218E+01  0.0000000000000E+00
 0.1655326179762E+00 -0.2743556861706E+01  0.0000000000000E+00
 0.1658182278219E+00 -0.2669271678356E+01  0.0000000000000E+00
 0.1663191110588E+00 -0.2595038569871E+01  0.0000000000000E+00
 0.1670542288993E+00 -0.2520895838369E+01  0.0000000000000E+00
 0.1680257221299E+00 -0.2446880202634E+01  0.0000000000000E+00
 0.1692292417891E+00 -0.2373024617165E+01  0.0000000000000E+00
 0.1706598691281E+00 -0.2299360199403E+01  0.0000000000000E+00
 0.1723151744417E+00 -0.2225918208017E+01  0.0000000000000E+00
 0.1741969295774E+00 -0.2152734884404E+01  0.0000000000000E+00
 0.1763125345726E+00 -0.2079855053562E+01  0.0000000000000E+00
 0.1786648384501E+00 -0.2007320246109E+01  0.0000000000000E+00
 0.1812393281348E+00 -0.1935144702143E+01  0.0000000000000E+00
 0.1840251810165E+00 -0.1863343348367E+01  0.0000000000000E+00
 0.1870172048494E+00 -0.1791937964537E+01  0.0000000000000E+00
 0.1902152297195E+00 -0.1720959284752E+01  0.0000000000000E+00
 0.1936241208052E+00 -0.1650450192432E+01  0.0000000000000E+00
 0.1972544018134E+00 -0.1580471156033E+01  0.0000000000000E+00
 0.2011238416948E+00 -0.1511106628163E+01  0.0000000000000E+00
 0.2052600561778E+00 -0.1442484080152E+01  0.0000000000000E+00
 0.2097061727783E+00 -0.1374796590029E+01  0.0000000000000E+00
 0.1925228353624E+00 -0.4229773600784E+01  0.0000000000000E+00
 0.1925456707045E+00 -0.4155502619222E+01  0.0000000000000E+00
 0.1925685060895E+00 -0.4081231497687E+01  0.0000000000000E+00
 0.1925913414945E+00 -0.4006960311591E+01  0.0000000000000E+00
 0.1926141768693E+00 -0.3932689223469E+01  0.0000000000000E+00
 0.1926370122398E+00 -0.3858418149282E+01  0.0000000000000E+00
 0.1926598476132E+00 -0.3784147065658E+01  0.0000000000000E+00
 0.1926826829901E+00 -0.3709875970828E+01  0.0000000000000E+00
 0.1927055183652E+00 -0.3635604881835E+01  0.0000000000000E+00
 0.1927283537406E+00 -0.3561333791825E+01  0.0000000000000E+00
 0.1927511891575E+00 -0.3487062566598E+01  0.0000000000000E+00
 0.1927740245031E+00 -0.3412791573608E+01  0.0000000000000E+00
 0.1927968599166E+00 -0.3338520359451E+01  0.0000000000000E+00
 0.1928196956668E+00 -0.3264248050325E+01  0.0000000000000E+00
 0.1928425306619E+00 -0.3189978197401E+01  0.0000000000000E+00
 0.1928653659738E+00 -0.3115707313761E+01  0.0000000000000E+00
 0.1928882013509E+00 -0.3041436218193E+01  0.0000000000000E+00
 0.1929110367158E+00 -0.2967165162496E+01  0.0000000000000E+00
 0.1929338720510E+00 -0.2892894202938E+01  0.0000000000000E+00
 0.1929709772629E+00 -0.2818623275814E+01  0.0000000000000E+00
 0.1931088745236E+00 -0.2744355853266E+01  0.0000000000000E+00
 0.1934414901538E+00 -0.2670108716509E+01  0.0000000000000E+00
 0.1940252580734E+00 -0.2595913654441E+01  0.0000000000000E+00
 0.1948822996948E+00 -0.2521808969312E+01  0.0000000000000E+00
 0.1960151126007E+00 -0.2447831379984E+01  0.0000000000000E+00
 0.1974186230017E+00 -0.2374013841021E+01  0.0000000000000E+00
 0.1990870923602E+00 -0.2300387469712E+01  0.0000000000000E+00
 0.2010176860176E+00 -0.2226983524869E+01  0.0000000000000E+00
 0.2032124711323E+00 -0.2153838247711E+01  0.0000000000000E+00
 0.2056800810808E+00 -0.2080996463236E+01  0.0000000000000E+00
 0.2084238397212E+00 -0.2008499702214E+01  0.0000000000000E+00
 0.2114268151323E+00 -0.1936362204762E+01  0.0000000000000E+00
 0.2146763809363E+00 -0.1864598897542E+01  0.0000000000000E+00
 0.2181664795136E+00 -0.1793231560282E+01  0.0000000000000E+00
 0.2218969126310E+00 -0.1722290927072E+01  0.0000000000000E+00
 0.2258733563306E+00 -0.1651819881312E+01  0.0000000000000E+00
 0.2301080882744E+00 -0.1581878891174E+01  0.0000000000000E+00
 0.2346218388973E+00 -0.1512552409764E+01  0.0000000000000E+00
 0.2394468265655E+00 -0.1443967907350E+01  0.0000000000000E+00
 0.2446333667075E+00 -0.1376318462430E+01  0.0000000000000E+00
 0.2200253125104E+00 -0.4229817482990E+01  0.0000000000000E+00
 0.2200506249983E+00 -0.4155590383597E+01  0.0000000000000E+00
 0.2200759375338E+00 -0.4081363144312E+01  0.0000000000000E+00
 0.2201012500914E+00 -0.4007135840505E+01  0.0000000000000E+00
 0.2201265626155E+00 -0.3932908634614E+01  0.0000000000000E+00
 0.2201518751349E+00 -0.3858681442649E+01  0.0000000000000E+00
 0.2201771876576E+00 -0.3784454241253E+01  0.0000000000000E+00
 0.2202025001840E+00 -0.3710227028657E+01  0.0000000000000E+00
 0.2202278127085E+00 -0.3635999821897E+01  0.0000000000000E+00
 0.2202531252333E+00 -0.3561772614118E+01  0.0000000000000E+00
 0.2202784378042E+00 -0.3487545271203E+01  0.0000000000000E+00
 0.2203037502959E+00 -0.3413318160387E+01  0.0000000000000E+00
 0.2203290628630E+00 -0.3339090828536E+01  0.0000000000000E+00
 0.2203543758033E+00 -0.3264862402362E+01  0.0000000000000E+00
 0.2203796879065E+00 -0.3190636430938E+01  0.0000000000000E+00
 0.2204050003610E+00 -0.3116409429408E+01  0.0000000000000E+00
 0.2204303128877E+00 -0.3042182216076E+01  0.0000000000000E+00
 0.2204556254008E+00 -0.2967955042590E+01  0.0000000000000E+00
 0.2204809378811E+00 -0.2893727965187E+01  0.0000000000000E+00
 0.2205225587916E+00 -0.2819500920227E+01  0.0000000000000E+00
 0.2206793706184E+00 -0.2745277379593E+01  0.0000000000000E+00
 0.2210587177307E+00 -0.2671074124321E+01  0.0000000000000E+00
 0.2217250960322E+00 -0.2596922943538E+01  0.0000000000000E+00
 0.2227037871342E+00 -0.2522862139640E+01  0.0000000000000E+00
 0.2239976454152E+00 -0.2448928431584E+01  0.0000000000000E+00
 0.2256008722577E+00 -0.2375154774008E+01  0.0000000000000E+00
 0.2275069093357E+00 -0.2301572284024E+01  0.0000000000000E+00
 0.2297125170368E+00 -0.2228212220609E+01  0.0000000000000E+00
 0.2322200578312E+00 -0.2155110824777E+01  0.0000000000000E+00
 0.2350393984347E+00 -0.2082312921528E+01  0.0000000000000E+00
 0.2381743375395E+00 -0.2009860041806E+01  0.0000000000000E+00
 0.2416055243783E+00 -0.1937766425747E+01  0.0000000000000E+00
 0.2453185288059E+00 -0.1866046999972E+01  0.0000000000000E+00
 0.2493064278290E+00 -0.1794723544173E+01  0.0000000000000E+00
 0.2535689948955E+00 -0.1723826792427E+01  0.0000000000000E+00
 0.2581127169110E+00 -0.1653399628115E+01  0.0000000000000E+00
 0.2629516254948E+00 -0.1583502519080E+01  0.0000000000000E+00
 0.2681094125627E+00 -0.1514219919004E+01  0.0000000000000E+00
 0.2736228991260E+00 -0.1445679296927E+01  0.0000000000000E+00
 0.2795495885227E+00 -0.1378073731891E+01  0.0000000000000E+00
 0.2475274766539E+00 -0.4229867192326E+01  0.0000000000000E+00
 0.2475549532832E+00 -0.4155689802224E+01  0.0000000000000E+00
 0.2475824299644E+00 -0.4081512272324E+01  0.0000000000000E+00
 0.2476099066694E+00 -0.4007334677945E+01  0.0000000000000E+00
 0.2476373833382E+00 -0.3933157181417E+01  0.0000000000000E+00
 0.2476648600018E+00 -0.3858979698806E+01  0.0000000000000E+00
 0.2476923366689E+00 -0.3784802206770E+01  0.0000000000000E+00
 0.2477198133402E+00 -0.3710624703541E+01  0.0000000000000E+00
 0.2477472900093E+00 -0.3636447206144E+01  0.0000000000000E+00
 0.2477747666787E+00 -0.3562269707729E+01  0.0000000000000E+00
 0.2478022433982E+00 -0.3488092074268E+01  0.0000000000000E+00
 0.2478297200318E+00 -0.3413914672752E+01  0.0000000000000E+00
 0.2478571967472E+00 -0.3339737050347E+01  0.0000000000000E+00
 0.2478846738677E+00 -0.3265558334353E+01  0.0000000000000E+00
 0.2479121500795E+00 -0.3191382071466E+01  0.0000000000000E+00
 0.2479396266726E+00 -0.3117204779162E+01  0.0000000000000E+00
 0.2479671033442E+00 -0.3043027275197E+01  0.0000000000000E+00
 0.2479945800010E+00 -0.2968849811053E+01  0.0000000000000E+00
 0.2480220566222E+00 -0.2894672442926E+01  0.0000000000000E+00
 0.2480678802269E+00 -0.2820495107254E+01  0.0000000000000E+00
 0.2482432936180E+00 -0.2746321275624E+01  0.0000000000000E+00
 0.2486690592144E+00 -0.2672167728870E+01  0.0000000000000E+00
 0.2494177349024E+00 -0.2598066256378E+01  0.0000000000000E+00
 0.2505177624914E+00 -0.2524055160710E+01  0.0000000000000E+00
 0.2519723531549E+00 -0.2450171160932E+01  0.0000000000000E+00
 0.2537749834465E+00 -0.2376447211761E+01  0.0000000000000E+00
 0.2559182752537E+00 -0.2302914430113E+01  0.0000000000000E+00
 0.2583985840084E+00 -0.2229604075153E+01  0.0000000000000E+00
 0.2612185674944E+00 -0.2156552387660E+01  0.0000000000000E+00
 0.2643893257669E+00 -0.2083804192633E+01  0.0000000000000E+00
 0.2679151323508E+00 -0.2011401021221E+01  0.0000000000000E+00
 0.2717742176326E+00 -0.1939357113576E+01  0.0000000000000E+00
 0.2759503476999E+00 -0.1867687396273E+01  0.0000000000000E+00
 0.2804357341858E+00 -0.1796413648963E+01  0.0000000000000E+00
 0.2852301222195E+00 -0.1725566605714E+01  0.0000000000000E+00
 0.2903408095704E+00 -0.1655189149877E+01  0.0000000000000E+00
 0.2957835818175E+00 -0.1585341748928E+01  0.0000000000000E+00
 0.3015850923532E+00 -0.1516108857198E+01  0.0000000000000E+00
 0.3077867648430E+00 -0.1447617942338E+01  0.0000000000000E+00
 0.3144532905308E+00 -0.1380062084006E+01  0.0000000000000E+00
 0.2750292892693E+00 -0.4229922719906E+01  0.0000000000000E+00
 0.2750585785124E+00 -0.4155800857335E+01  0.0000000000000E+00
 0.2750878678108E+00 -0.4081678855069E+01  0.0000000000000E+00
 0.2751171571346E+00 -0.4007556788374E+01  0.0000000000000E+00
 0.2751464464198E+00 -0.3933434819456E+01  0.0000000000000E+00
 0.2751757356995E+00 -0.3859312864444E+01  0.0000000000000E+00
 0.2752050249829E+00 -0.3785190900015E+01  0.0000000000000E+00
 0.2752343142707E+00 -0.3711068924401E+01  0.0000000000000E+00
 0.2752636035562E+00 -0.3636946954615E+01  0.0000000000000E+00
 0.2752928928421E+00 -0.3562824983812E+01  0.0000000000000E+00
 0.2753221821814E+00 -0.3488702878064E+01  0.0000000000000E+00
 0.2753514714290E+00 -0.3414581004086E+01  0.0000000000000E+00
 0.2753807607639E+00 -0.3340458909386E+01  0.0000000000000E+00
 0.2754100505306E+00 -0.3266335721915E+01  0.0000000000000E+00
 0.2754393393287E+00 -0.3192214985714E+01  0.0000000000000E+00
 0.2754686285332E+00 -0.3118093220867E+01  0.0000000000000E+00
 0.2754979178213E+00 -0.3043971244518E+01  0.0000000000000E+00
 0.2755272070937E+00 -0.2969849307959E+01  0.0000000000000E+00
 0.2755564963282E+00 -0.2895727467347E+01  0.0000000000000E+00
 0.2756061710997E+00 -0.2821605659200E+01  0.0000000000000E+00
 0.2757998345302E+00 -0.2747487354780E+01  0.0000000000000E+00
 0.2762716670907E+00 -0.2673389334693E+01  0.0000000000000E+00
 0.2771022886488E+00 -0.2599343388614E+01  0.0000000000000E+00
 0.2783233012108E+00 -0.2525387819291E+01  0.0000000000000E+00
 0.2799382727445E+00 -0.2451559345910E+01  0.0000000000000E+00
 0.2819399549741E+00 -0.2377890923281E+01  0.0000000000000E+00
 0.2843201500017E+00 -0.2304413668096E+01  0.0000000000000E+00
 0.2870748083025E+00 -0.2231158839731E+01  0.0000000000000E+00
 0.2902068829753E+00 -0.2158162678704E+01  0.0000000000000E+00
 0.2937287074149E+00 -0.2085470010015E+01  0.0000000000000E+00
 0.2976450299774E+00 -0.2013122365035E+01  0.0000000000000E+00
 0.3019316622029E+00 -0.1941133983942E+01  0.0000000000000E+00
 0.3065705664120E+00 -0.1869519793253E+01  0.0000000000000E+00
 0.3115530888646E+00 -0.1798301572579E+01  0.0000000000000E+00
 0.3168789463712E+00 -0.1727510055970E+01  0.0000000000000E+00
 0.3225562475650E+00 -0.1657188126752E+01  0.0000000000000E+00
 0.3286025319875E+00 -0.1587396251987E+01  0.0000000000000E+00
 0.3350474145034E+00 -0.1518218886732E+01  0.0000000000000E+00
 0.3419369214426E+00 -0.1449783497085E+01  0.0000000000000E+00
 0.3493429319505E+00 -0.1382283163393E+01  0.0000000000000E+00
 0.3025307120396E+00 -0.4229984055830E+01  0.0000000000000E+00
 0.3025614240518E+00 -0.4155923529129E+01  0.0000000000000E+00
 0.3025921361219E+00 -0.4081862862849E+01  0.0000000000000E+00
 0.3026228482187E+00 -0.4007802132191E+01  0.0000000000000E+00
 0.3026535602750E+00 -0.3933741499231E+01  0.0000000000000E+00
 0.3026842723255E+00 -0.3859680880166E+01  0.0000000000000E+00
 0.3027149843799E+00 -0.3785620251690E+01  0.0000000000000E+00
 0.3027456964389E+00 -0.3711559612040E+01  0.0000000000000E+00
 0.3027764084955E+00 -0.3637498978211E+01  0.0000000000000E+00
 0.3028071205526E+00 -0.3563438343367E+01  0.0000000000000E+00
 0.3028378326656E+00 -0.3489377573690E+01  0.0000000000000E+00
 0.3028685446825E+00 -0.3415317035591E+01  0.0000000000000E+00
 0.3028992567909E+00 -0.3341256276953E+01  0.0000000000000E+00
 0.3029299693521E+00 -0.3267194426448E+01  0.0000000000000E+00
 0.3029606808976E+00 -0.3193135025185E+01  0.0000000000000E+00
 0.3029913928693E+00 -0.3119074596126E+01  0.0000000000000E+00
 0.3030221049286E+00 -0.3045013955741E+01  0.0000000000000E+00
 0.3030528169715E+00 -0.2970953355113E+01  0.0000000000000E+00
 0.3030835289746E+00 -0.2896892850352E+01  0.0000000000000E+00
 0.3031366650683E+00 -0.2822832378069E+01  0.0000000000000E+00
 0.3033481886970E+00 -0.2748775409164E+01  0.0000000000000E+00
 0.3038656983863E+00 -0.2674738723994E+01  0.0000000000000E+00
 0.3047778759835E+00 -0.2600754112549E+01  0.0000000000000E+00
 0.3061194836908E+00 -0.2526859877786E+01  0.0000000000000E+00
 0.3078944462696E+00 -0.2453092739024E+01  0.0000000000000E+00
 0.3100947906140E+00 -0.2379485651171E+01  0.0000000000000E+00
 0.3127114990421E+00 -0.2306069730678E+01  0.0000000000000E+00
 0.3157401170710E+00 -0.2232876237149E+01  0.0000000000000E+00
 0.3191838931162E+00 -0.2159941410816E+01  0.0000000000000E+00
 0.3230563939122E+00 -0.2087310076679E+01  0.0000000000000E+00
 0.3273628426451E+00 -0.2015023766356E+01  0.0000000000000E+00
 0.3320766320079E+00 -0.1943096720051E+01  0.0000000000000E+00
 0.3371779205545E+00 -0.1871543864221E+01  0.0000000000000E+00
 0.3426571891719E+00 -0.1800386978427E+01  0.0000000000000E+00
 0.3485141263518E+00 -0.1729656796705E+01  0.0000000000000E+00
 0.3547576515920E+00 -0.1659396202350E+01  0.0000000000000E+00
 0.3614070583991E+00 -0.1589665661967E+01  0.0000000000000E+00
 0.3684949231053E+00 -0.1520549631415E+01  0.0000000000000E+00
 0.3760718747160E+00 -0.1452175575078E+01  0.0000000000000E+00
 0.3842169802741E+00 -0.1384736574064E+01  0.0000000000000E+00
 0.3300317066083E+00 -0.4230051189169E+01  0.0000000000000E+00
 0.3300634131883E+00 -0.4156057795746E+01  0.0000000000000E+00
 0.3300951198281E+00 -0.4082064262871E+01  0.0000000000000E+00
 0.3301268264954E+00 -0.4008070665678E+01  0.0000000000000E+00
 0.3301585331209E+00 -0.3934077166092E+01  0.0000000000000E+00
 0.3301902397405E+00 -0.3860083680390E+01  0.0000000000000E+00
 0.3302219463641E+00 -0.3786090185285E+01  0.0000000000000E+00
 0.3302536529925E+00 -0.3712096679016E+01  0.0000000000000E+00
 0.3302853596183E+00 -0.3638103178563E+01  0.0000000000000E+00
 0.3303170662447E+00 -0.3564109677096E+01  0.0000000000000E+00
 0.3303487729287E+00 -0.3490116040918E+01  0.0000000000000E+00
 0.3303804795136E+00 -0.3416122636108E+01  0.0000000000000E+00
 0.3304121861929E+00 -0.3342129010959E+01  0.0000000000000E+00
 0.3304438933397E+00 -0.3268134294932E+01  0.0000000000000E+00
 0.3304755994379E+00 -0.3194142025928E+01  0.0000000000000E+00
 0.3305073059761E+00 -0.3120148730060E+01  0.0000000000000E+00
 0.3305390126048E+00 -0.3046155223056E+01  0.0000000000000E+00
 0.3305707192164E+00 -0.2972161755774E+01  0.0000000000000E+00
 0.3306024257871E+00 -0.2898168384272E+01  0.0000000000000E+00
 0.3306585950016E+00 -0.2824175045263E+01  0.0000000000000E+00
 0.3308875506280E+00 -0.2750185209249E+01  0.0000000000000E+00
 0.3314503092469E+00 -0.2676215656314E+01  0.0000000000000E+00
 0.3324436146825E+00 -0.2602298176796E+01  0.0000000000000E+00
 0.3339053893309E+00 -0.2528471073879E+01  0.0000000000000E+00
 0.3358399147463E+00 -0.2454771067025E+01  0.0000000000000E+00
 0.3382384929918E+00 -0.2381231111256E+01  0.0000000000000E+00
 0.3410912866036E+00 -0.2307882322751E+01  0.0000000000000E+00
 0.3443934361388E+00 -0.2234755961370E+01  0.0000000000000E+00
 0.3481484853320E+00 -0.2161888267029E+01  0.0000000000000E+00
 0.3523712342570E+00 -0.2089324064728E+01  0.0000000000000E+00
 0.3570673809279E+00 -0.2017104886358E+01  0.0000000000000E+00
 0.3622078991912E+00 -0.1945244972146E+01  0.0000000000000E+00
 0.3677711438344E+00 -0.1873759248489E+01  0.0000000000000E+00
 0.3737467303719E+00 -0.1802669494891E+01  0.0000000000000E+00
 0.3801343189772E+00 -0.1732006445373E+01  0.0000000000000E+00
 0.3869436400121E+00 -0.1661812983195E+01  0.0000000000000E+00
 0.3941957409519E+00 -0.1592149574463E+01  0.0000000000000E+00
 0.4019261595902E+00 -0.1523100675912E+01  0.0000000000000E+00
 0.4101901276194E+00 -0.1454793750053E+01  0.0000000000000E+00
 0.4190738999739E+00 -0.1387421878824E+01  0.0000000000000E+00
 0.3575322350942E+00 -0.4230124108012E+01  0.0000000000000E+00
 0.3575644701596E+00 -0.4156203633367E+01  0.0000000000000E+00
 0.3575967052858E+00 -0.4082283019407E+01  0.0000000000000E+00
 0.3576289404400E+00 -0.4008362341192E+01  0.0000000000000E+00
 0.3576611755516E+00 -0.3934441760489E+01  0.0000000000000E+00
 0.3576934106573E+00 -0.3860521193655E+01  0.0000000000000E+00
 0.3577256457670E+00 -0.3786600617428E+01  0.0000000000000E+00
 0.3577578808816E+00 -0.3712680030048E+01  0.0000000000000E+00
 0.3577901159936E+00 -0.3638759448479E+01  0.0000000000000E+00
 0.3578223511061E+00 -0.3564838865896E+01  0.0000000000000E+00
 0.3578545862773E+00 -0.3490918148735E+01  0.0000000000000E+00
 0.3578868213477E+00 -0.3416997662714E+01  0.0000000000000E+00
 0.3579190565140E+00 -0.3343076956571E+01  0.0000000000000E+00
 0.3579512921557E+00 -0.3269155160625E+01  0.0000000000000E+00
 0.3579835267312E+00 -0.3195235809291E+01  0.0000000000000E+00
 0.3580157617542E+00 -0.3121315432104E+01  0.0000000000000E+00
 0.3580479968691E+00 -0.3047394843990E+01  0.0000000000000E+00
 0.3580802319667E+00 -0.2973474295559E+01  0.0000000000000E+00
 0.3581124670225E+00 -0.2899553842813E+01  0.0000000000000E+00
 0.3581712032753E+00 -0.2825633422575E+01  0.0000000000000E+00
 0.3584171248179E+00 -0.2751716504917E+01  0.0000000000000E+00
 0.3590246662867E+00 -0.2677819869626E+01  0.0000000000000E+00
 0.3600986334791E+00 -0.2603975307419E+01  0.0000000000000E+00
 0.3616801089837E+00 -0.2530221121722E+01  0.0000000000000E+00
 0.3637737311460E+00 -0.2456594032159E+01  0.0000000000000E+00
 0.3663700771977E+00 -0.2383126993868E+01  0.0000000000000E+00
 0.3694584898948E+00 -0.2309851122740E+01  0.0000000000000E+00
 0.3730337048331E+00 -0.2236797678909E+01  0.0000000000000E+00
 0.3770995610680E+00 -0.2164002901948E+01  0.0000000000000E+00
 0.3816720920128E+00 -0.2091511616858E+01  0.0000000000000E+00
 0.3867574705075E+00 -0.2019365355824E+01  0.0000000000000E+00
 0.3923242515520E+00 -0.1947578359104E+01  0.0000000000000E+00
 0.3983489861684E+00 -0.1876165553022E+01  0.0000000000000E+00
 0.4048204244990E+00 -0.1805148717026E+01  0.0000000000000E+00
 0.4117381983987E+00 -0.1734558585119E+01  0.0000000000000E+00
 0.4191128490940E+00 -0.1664438040521E+01  0.0000000000000E+00
 0.4269671780319E+00 -0.1594847548798E+01  0.0000000000000E+00
 0.4353396844610E+00 -0.1525871567639E+01  0.0000000000000E+00
 0.4442902027733E+00 -0.1457637557515E+01  0.0000000000000E+00
 0.4539121757881E+00 -0.1390338601268E+01  0.0000000000000E+00
 0.3850322601332E+00 -0.4230202799491E+01  0.0000000000000E+00
 0.3850645202376E+00 -0.4156361016254E+01  0.0000000000000E+00
 0.3850967804028E+00 -0.4082519093852E+01  0.0000000000000E+00
 0.3851290405960E+00 -0.4008677107263E+01  0.0000000000000E+00
 0.3851613007467E+00 -0.3934835218081E+01  0.0000000000000E+00
 0.3851935608914E+00 -0.3860993342754E+01  0.0000000000000E+00
 0.3852258210401E+00 -0.3787151458044E+01  0.0000000000000E+00
 0.3852580811937E+00 -0.3713309562193E+01  0.0000000000000E+00
 0.3852903413448E+00 -0.3639467672146E+01  0.0000000000000E+00
 0.3853226014963E+00 -0.3565625781087E+01  0.0000000000000E+00
 0.3853548617065E+00 -0.3491783755593E+01  0.0000000000000E+00
 0.3853871218159E+00 -0.3417941960993E+01  0.0000000000000E+00
 0.3854193820213E+00 -0.3344099946505E+01  0.0000000000000E+00
 0.3854516427024E+00 -0.3270256843375E+01  0.0000000000000E+00
 0.3854839023165E+00 -0.3196416182253E+01  0.0000000000000E+00
 0.3855161623784E+00 -0.3122574496372E+01  0.0000000000000E+00
 0.3855484225323E+00 -0.3048732599788E+01  0.0000000000000E+00
 0.3855806826689E+00 -0.2974890742843E+01  0.0000000000000E+00
 0.3856129427638E+00 -0.2901048981483E+01  0.0000000000000E+00
 0.3856737426085E+00 -0.2827207252647E+01  0.0000000000000E+00
 0.3859361266252E+00 -0.2753369025944E+01  0.0000000000000E+00
 0.3865879475086E+00 -0.2679551080838E+01  0.0000000000000E+00
 0.3877420730279E+00 -0.2605785208455E+01  0.0000000000000E+00
 0.3894427459622E+00 -0.2532109712488E+01  0.0000000000000E+00
 0.3916949614475E+00 -0.2458561312728E+01  0.0000000000000E+00
 0.3944885718833E+00 -0.2385172964444E+01  0.0000000000000E+00
 0.3978121002474E+00 -0.2311975783213E+01  0.0000000000000E+00
 0.4016598771719E+00 -0.2239001029465E+01  0.0000000000000E+00
 0.4060360370360E+00 -0.2166284942405E+01  0.0000000000000E+00
 0.4109578465920E+00 -0.2093872347033E+01  0.0000000000000E+00
 0.4164319535044E+00 -0.2021804775852E+01  0.0000000000000E+00
 0.4224244939258E+00 -0.1950096469153E+01  0.0000000000000E+00
 0.4289102151131E+00 -0.1878762353182E+01  0.0000000000000E+00
 0.4358770018369E+00 -0.1807824207326E+01  0.0000000000000E+00
 0.4433244576339E+00 -0.1737312765568E+01  0.0000000000000E+00
 0.4512639345954E+00 -0.1667270911087E+01  0.0000000000000E+00
 0.4597199881440E+00 -0.1597759108864E+01  0.0000000000000E+00
 0.4687340789769E+00 -0.1528861817618E+01  0.0000000000000E+00
 0.4783706442004E+00 -0.1460706495619E+01  0.0000000000000E+00
 0.4887303145127E+00 -0.1393486226685E+01  0.0000000000000E+00
 0.4125317444436E+00 -0.4230287249750E+01  0.0000000000000E+00
 0.4125634888589E+00 -0.4156529916697E+01  0.0000000000000E+00
 0.4125952333340E+00 -0.4082772444637E+01  0.0000000000000E+00
 0.4126269778367E+00 -0.4009014908464E+01  0.0000000000000E+00
 0.4126587222975E+00 -0.3935257469588E+01  0.0000000000000E+00
 0.4126904667524E+00 -0.3861500044550E+01  0.0000000000000E+00
 0.4127222112113E+00 -0.3787742610140E+01  0.0000000000000E+00
 0.4127539556750E+00 -0.3713985164601E+01  0.0000000000000E+00
 0.4127857001362E+00 -0.3640227724860E+01  0.0000000000000E+00
 0.4128174445979E+00 -0.3566470284108E+01  0.0000000000000E+00
 0.4128491891173E+00 -0.3492712709074E+01  0.0000000000000E+00
 0.4128809335375E+00 -0.3418955364671E+01  0.0000000000000E+00
 0.4129126780522E+00 -0.3345197800631E+01  0.0000000000000E+00
 0.4129444230349E+00 -0.3271439149195E+01  0.0000000000000E+00
 0.4129761669678E+00 -0.3197682936973E+01  0.0000000000000E+00
 0.4130079113412E+00 -0.3123925701164E+01  0.0000000000000E+00
 0.4130396558052E+00 -0.3050168254893E+01  0.0000000000000E+00
 0.4130714002522E+00 -0.2976410848217E+01  0.0000000000000E+00
 0.4131031446580E+00 -0.2902653537015E+01  0.0000000000000E+00
 0.4131654673669E+00 -0.2828896258356E+01  0.0000000000000E+00
 0.4134437731345E+00 -0.2755142481348E+01  0.0000000000000E+00
 0.4141393327177E+00 -0.2681408985113E+01  0.0000000000000E+00
 0.4153730758553E+00 -0.2607727561214E+01  0.0000000000000E+00
 0.4171924055158E+00 -0.2534136513627E+01  0.0000000000000E+00
 0.4196026736245E+00 -0.2460672562328E+01  0.0000000000000E+00
 0.4225930077475E+00 -0.2387368662724E+01  0.0000000000000E+00
 0.4261511110864E+00 -0.2314255930053E+01  0.0000000000000E+00
 0.4302709093080E+00 -0.2241365625067E+01  0.0000000000000E+00
 0.4349568321173E+00 -0.2168733986572E+01  0.0000000000000E+00
 0.4402273796064E+00 -0.2096405839569E+01  0.0000000000000E+00
 0.4460896742614E+00 -0.2024422716902E+01  0.0000000000000E+00
 0.4525074333876E+00 -0.1952798858897E+01  0.0000000000000E+00
 0.4594536004770E+00 -0.1881549191718E+01  0.0000000000000E+00
 0.4669151949288E+00 -0.1810695494684E+01  0.0000000000000E+00
 0.4748917919615E+00 -0.1740268501757E+01  0.0000000000000E+00
 0.4833955545316E+00 -0.1670311096074E+01  0.0000000000000E+00
 0.4924527920416E+00 -0.1600883741987E+01  0.0000000000000E+00
 0.5021079266308E+00 -0.1532070899318E+01  0.0000000000000E+00
 0.5124299981347E+00 -0.1464000023979E+01  0.0000000000000E+00
 0.5235268251251E+00 -0.1396864200833E+01  0.0000000000000E+00
 0.4400306510556E+00 -0.4230377443976E+01  0.0000000000000E+00
 0.4400613020839E+00 -0.4156710305068E+01  0.0000000000000E+00
 0.4400919531699E+00 -0.4083043027324E+01  0.0000000000000E+00
 0.4401226042826E+00 -0.4009375685544E+01  0.0000000000000E+00
 0.4401532553548E+00 -0.3935708440943E+01  0.0000000000000E+00
 0.4401839064213E+00 -0.3862041210162E+01  0.0000000000000E+00
 0.4402145574917E+00 -0.3788373970022E+01  0.0000000000000E+00
 0.4402452085667E+00 -0.3714706718766E+01  0.0000000000000E+00
 0.4402758596393E+00 -0.3641039473300E+01  0.0000000000000E+00
 0.4403065107123E+00 -0.3567372226825E+01  0.0000000000000E+00
 0.4403371618411E+00 -0.3493704846233E+01  0.0000000000000E+00
 0.4403678128741E+00 -0.3420037695989E+01  0.0000000000000E+00
 0.4403984639983E+00 -0.3346370326377E+01  0.0000000000000E+00
 0.4404291155744E+00 -0.3272701870698E+01  0.0000000000000E+00
 0.4404597661369E+00 -0.3199035851251E+01  0.0000000000000E+00
 0.4404904171248E+00 -0.3125368809468E+01  0.0000000000000E+00
 0.4405210682001E+00 -0.3051701557481E+01  0.0000000000000E+00
 0.4405517192589E+00 -0.2978034345040E+01  0.0000000000000E+00
 0.4405823702781E+00 -0.2904367227957E+01  0.0000000000000E+00
 0.4406456381536E+00 -0.2830700143436E+01  0.0000000000000E+00
 0.4409392879798E+00 -0.2757036560052E+01  0.0000000000000E+00
 0.4416780085804E+00 -0.2683393256561E+01  0.0000000000000E+00
 0.4429907916617E+00 -0.2609802024991E+01  0.0000000000000E+00
 0.4449282003801E+00 -0.2536301169624E+01  0.0000000000000E+00
 0.4474959434490E+00 -0.2462927410630E+01  0.0000000000000E+00
 0.4506824236002E+00 -0.2389713703565E+01  0.0000000000000E+00
 0.4544745242614E+00 -0.2316691163306E+01  0.0000000000000E+00
 0.4588657661314E+00 -0.2243891050946E+01  0.0000000000000E+00
 0.4638608742442E+00 -0.2171349604868E+01  0.0000000000000E+00
 0.4694795820315E+00 -0.2099111650073E+01  0.0000000000000E+00
 0.4757294867991E+00 -0.2027218719768E+01  0.0000000000000E+00
 0.4825718870042E+00 -0.1955685054318E+01  0.0000000000000E+00
 0.4899779223743E+00 -0.1884525579796E+01  0.0000000000000E+00
 0.4979337469374E+00 -0.1813762075454E+01  0.0000000000000E+00
 0.5064389075941E+00 -0.1743425275228E+01  0.0000000000000E+00
 0.5155063781664E+00 -0.1673558062210E+01  0.0000000000000E+00
 0.5251642220414E+00 -0.1604220900080E+01  0.0000000000000E+00
 0.5354598227929E+00 -0.1535498249841E+01  0.0000000000000E+00
 0.5464668230032E+00 -0.1467517564884E+01  0.0000000000000E+00
 0.5583002291111E+00 -0.1400471931189E+01  0.0000000000000E+00
 0.4675289425592E+00 -0.4230473366311E+01  0.0000000000000E+00
 0.4675578850925E+00 -0.4156902149654E+01  0.0000000000000E+00
 0.4675868276804E+00 -0.4083330794340E+01  0.0000000000000E+00
 0.4676157702935E+00 -0.4009759375075E+01  0.0000000000000E+00
 0.4676447128684E+00 -0.3936188052861E+01  0.0000000000000E+00
 0.4676736554378E+00 -0.3862616744450E+01  0.0000000000000E+00
 0.4677025980109E+00 -0.3789045426691E+01  0.0000000000000E+00
 0.4677315405884E+00 -0.3715474097832E+01  0.0000000000000E+00
 0.4677604831636E+00 -0.3641902774755E+01  0.0000000000000E+00
 0.4677894257392E+00 -0.3568331450670E+01  0.0000000000000E+00
 0.4678183683676E+00 -0.3494759992643E+01  0.0000000000000E+00
 0.4678473109054E+00 -0.3421188764663E+01  0.0000000000000E+00
 0.4678762535293E+00 -0.3347617317602E+01  0.0000000000000E+00
 0.4679051965800E+00 -0.3274044785887E+01  0.0000000000000E+00
 0.4679341386736E+00 -0.3200474687233E+01  0.0000000000000E+00
 0.4679630811688E+00 -0.3126903567574E+01  0.0000000000000E+00
 0.4679920237465E+00 -0.3053332237984E+01  0.0000000000000E+00
 0.4680209663088E+00 -0.2979760947889E+01  0.0000000000000E+00
 0.4680499088336E+00 -0.2906189753027E+01  0.0000000000000E+00
 0.4681135067670E+00 -0.2832618590747E+01  0.0000000000000E+00
 0.4684218855411E+00 -0.2759050929060E+01  0.0000000000000E+00
 0.4692031520433E+00 -0.2685503546327E+01  0.0000000000000E+00
 0.4705943599415E+00 -0.2612008235077E+01  0.0000000000000E+00
 0.4726492325763E+00 -0.2538603299912E+01  0.0000000000000E+00
 0.4753738354481E+00 -0.2465325461211E+01  0.0000000000000E+00
 0.4787558464532E+00 -0.2392207674687E+01  0.0000000000000E+00
 0.4827813292485E+00 -0.2319281054835E+01  0.0000000000000E+00
 0.4874433995627E+00 -0.2246576863109E+01  0.0000000000000E+00
 0.4927470777613E+00 -0.2174131337442E+01  0.0000000000000E+00
 0.4987133306152E+00 -0.2101989302836E+01  0.0000000000000E+00
 0.5053502302475E+00 -0.2030192292885E+01  0.0000000000000E+00
 0.5126166562676E+00 -0.1958754547993E+01  0.0000000000000E+00
 0.5204819446400E+00 -0.1887690994141E+01  0.0000000000000E+00
 0.5289313840225E+00 -0.1817023410501E+01  0.0000000000000E+00
 0.5379644929975E+00 -0.1746782530989E+01  0.0000000000000E+00
 0.5475950562530E+00 -0.1677011238647E+01  0.0000000000000E+00
 0.5578528911642E+00 -0.1607769996440E+01  0.0000000000000E+00
 0.5687883427305E+00 -0.1539143266628E+01  0.0000000000000E+00
 0.5804796562961E+00 -0.1471258499918E+01  0.0000000000000E+00
 0.5930490261565E+00 -0.1404308783480E+01  0.0000000000000E+00
 0.4950265832471E+00 -0.4230575000136E+01  0.0000000000000E+00
 0.4950531664706E+00 -0.4157105417212E+01  0.0000000000000E+00
 0.4950797497441E+00 -0.4083635695824E+01  0.0000000000000E+00
 0.4951063330407E+00 -0.4010165910572E+01  0.0000000000000E+00
 0.4951329163023E+00 -0.3936696222237E+01  0.0000000000000E+00
 0.4951594995589E+00 -0.3863226547687E+01  0.0000000000000E+00
 0.4951860828189E+00 -0.3789756863802E+01  0.0000000000000E+00
 0.4952126660828E+00 -0.3716287168831E+01  0.0000000000000E+00
 0.4952392493447E+00 -0.3642817479635E+01  0.0000000000000E+00
 0.4952658326070E+00 -0.3569347789432E+01  0.0000000000000E+00
 0.4952924159176E+00 -0.3495877965472E+01  0.0000000000000E+00
 0.4953189991451E+00 -0.3422408371242E+01  0.0000000000000E+00
 0.4953455824518E+00 -0.3348938558232E+01  0.0000000000000E+00
 0.4953721661504E+00 -0.3275467662068E+01  0.0000000000000E+00
 0.4953987489699E+00 -0.3201999195603E+01  0.0000000000000E+00
 0.4954253321582E+00 -0.3128529709543E+01  0.0000000000000E+00
 0.4954519154225E+00 -0.3055060013843E+01  0.0000000000000E+00
 0.4954784986724E+00 -0.2981590357583E+01  0.0000000000000E+00
 0.4955050818880E+00 -0.2908120796426E+01  0.0000000000000E+00
 0.4955683590647E+00 -0.2834651267871E+01  0.0000000000000E+00
 0.4958908159768E+00 -0.2761185239330E+01  0.0000000000000E+00
 0.4967139775797E+00 -0.2687739488751E+01  0.0000000000000E+00
 0.4981829594999E+00 -0.2614345809188E+01  0.0000000000000E+00
 0.5003546452605E+00 -0.2541042505588E+01  0.0000000000000E+00
 0.5032354571473E+00 -0.2467866298547E+01  0.0000000000000E+00
 0.5068123482204E+00 -0.2394850143946E+01  0.0000000000000E+00
 0.5110705623679E+00 -0.2322025155875E+01  0.0000000000000E+00
 0.5160028103462E+00 -0.2249422596171E+01  0.0000000000000E+00
 0.5216144078554E+00 -0.2177078702290E+01  0.0000000000000E+00
 0.5279275550057E+00 -0.2105038299234E+01  0.0000000000000E+00
 0.5349507987347E+00 -0.2033342921007E+01  0.0000000000000E+00
 0.5426405998039E+00 -0.1962006808056E+01  0.0000000000000E+00
 0.5509644904148E+00 -0.1891044886262E+01  0.0000000000000E+00
 0.5599068938557E+00 -0.1820478934717E+01  0.0000000000000E+00
 0.5694673003911E+00 -0.1750339687312E+01  0.0000000000000E+00
 0.5796603055753E+00 -0.1680670027035E+01  0.0000000000000E+00
 0.5905174807764E+00 -0.1611530416097E+01  0.0000000000000E+00
 0.6020921324114E+00 -0.1543005318085E+01  0.0000000000000E+00
 0.6144671086049E+00 -0.1475222180869E+01  0.0000000000000E+00
 0.6277717915016E+00 -0.1408374092875E+01  0.0000000000000E+00
 0.5225235372561E+00 -0.4230682327857E+01  0.0000000000000E+00
 0.5225470744911E+00 -0.4157320072559E+01  0.0000000000000E+00
 0.5225706117705E+00 -0.4083957678999E+01  0.0000000000000E+00
 0.5225941490704E+00 -0.4010595221668E+01  0.0000000000000E+00
 0.5226176863392E+00 -0.3937232861114E+01  0.0000000000000E+00
 0.5226412236036E+00 -0.3863870514323E+01  0.0000000000000E+00
 0.5226647608710E+00 -0.3790508158210E+01  0.0000000000000E+00
 0.5226882981420E+00 -0.3717145791029E+01  0.0000000000000E+00
 0.5227118354111E+00 -0.3643783429614E+01  0.0000000000000E+00
 0.5227353726805E+00 -0.3570421067194E+01  0.0000000000000E+00
 0.5227589099928E+00 -0.3497058571211E+01  0.0000000000000E+00
 0.5227824472315E+00 -0.3423696304623E+01  0.0000000000000E+00
 0.5228059845402E+00 -0.3350333819576E+01  0.0000000000000E+00
 0.5228295221960E+00 -0.3276970252956E+01  0.0000000000000E+00
 0.5228530590734E+00 -0.3203609112485E+01  0.0000000000000E+00
 0.5228765962774E+00 -0.3130246953910E+01  0.0000000000000E+00
 0.5229001335486E+00 -0.3056884586000E+01  0.0000000000000E+00
 0.5229236708072E+00 -0.2983522257473E+01  0.0000000000000E+00
 0.5229472080352E+00 -0.2910160023909E+01  0.0000000000000E+00
 0.5230094777771E+00 -0.2836797822971E+01  0.0000000000000E+00
 0.5233453261558E+00 -0.2763439121435E+01  0.0000000000000E+00
 0.5242096961996E+00 -0.2690100696814E+01  0.0000000000000E+00
 0.5257557654915E+00 -0.2616814342716E+01  0.0000000000000E+00
 0.5280435777358E+00 -0.2543618364450E+01  0.0000000000000E+00
 0.5310799120018E+00 -0.2470549482845E+01  0.0000000000000E+00
 0.5348509965123E+00 -0.2397640653958E+01  0.0000000000000E+00
 0.5393412553893E+00 -0.2324922991450E+01  0.0000000000000E+00
 0.5445429944141E+00 -0.2252427757564E+01  0.0000000000000E+00
 0.5504618246247E+00 -0.2180191189252E+01  0.0000000000000E+00
 0.5571211794709E+00 -0.2108258111516E+01  0.0000000000000E+00
 0.5645300807020E+00 -0.2036670058793E+01  0.0000000000000E+00
 0.5726425702308E+00 -0.1965441271575E+01  0.0000000000000E+00
 0.5814243764965E+00 -0.1894586675636E+01  0.0000000000000E+00
 0.5908590574180E+00 -0.1824128049987E+01  0.0000000000000E+00
 0.6009460749422E+00 -0.1754096128489E+01  0.0000000000000E+00
 0.6117008354898E+00 -0.1684533794076E+01  0.0000000000000E+00
 0.6231566644279E+00 -0.1615501508160E+01  0.0000000000000E+00
 0.6353698295822E+00 -0.1547083735733E+01  0.0000000000000E+00
 0.6484277818778E+00 -0.1479407921664E+01  0.0000000000000E+00
 0.6624670913015E+00 -0.1412667155710E+01  0.0000000000000E+00
 0.5500197690505E+00 -0.4230795330981E+01  0.0000000000000E+00
 0.5500395380833E+00 -0.4157546078707E+01  0.0000000000000E+00
 0.5500593071533E+00 -0.4084296688383E+01  0.0000000000000E+00
 0.5500790762406E+00 -0.4011047234387E+01  0.0000000000000E+00
 0.5500988453018E+00 -0.3937797877017E+01  0.0000000000000E+00
 0.5501186143593E+00 -0.3864548533391E+01  0.0000000000000E+00
 0.5501383834192E+00 -0.3791299180457E+01  0.0000000000000E+00
 0.5501581524822E+00 -0.3718049816471E+01  0.0000000000000E+00
 0.5501779215436E+00 -0.3644800458244E+01  0.0000000000000E+00
 0.5501976906053E+00 -0.3571551099011E+01  0.0000000000000E+00
 0.5502174597030E+00 -0.3498301606423E+01  0.0000000000000E+00
 0.5502372287388E+00 -0.3425052342876E+01  0.0000000000000E+00
 0.5502569978336E+00 -0.3351802861205E+01  0.0000000000000E+00
 0.5502767672198E+00 -0.3278552299629E+01  0.0000000000000E+00
 0.5502965359522E+00 -0.3205304160464E+01  0.0000000000000E+00
 0.5503163049589E+00 -0.3132055004764E+01  0.0000000000000E+00
 0.5503360740221E+00 -0.3058805640051E+01  0.0000000000000E+00
 0.5503558430746E+00 -0.2985556314660E+01  0.0000000000000E+00
 0.5503756121016E+00 -0.2912307084086E+01  0.0000000000000E+00
 0.5504361521952E+00 -0.2839057886161E+01  0.0000000000000E+00
 0.5507846698348E+00 -0.2765812186996E+01  0.0000000000000E+00
 0.5516895261272E+00 -0.2692586763641E+01  0.0000000000000E+00
 0.5533119606105E+00 -0.2619413410292E+01  0.0000000000000E+00
 0.5557151771680E+00 -0.2546330432637E+01  0.0000000000000E+00
 0.5589063116513E+00 -0.2473374551750E+01  0.0000000000000E+00
 0.5628708674447E+00 -0.2400578723873E+01  0.0000000000000E+00
 0.5675924489065E+00 -0.2327974062217E+01  0.0000000000000E+00
 0.5730629568402E+00 -0.2255591829452E+01  0.0000000000000E+00
 0.5792882976252E+00 -0.2183468261997E+01  0.0000000000000E+00
 0.5862931380511E+00 -0.2111648184856E+01  0.0000000000000E+00
 0.5940869746762E+00 -0.2040173132923E+01  0.0000000000000E+00
 0.6026214305636E+00 -0.1969057346735E+01  0.0000000000000E+00
 0.6118604303908E+00 -0.1898315751957E+01  0.0000000000000E+00
 0.6217866667071E+00 -0.1827970127509E+01  0.0000000000000E+00
 0.6323995731424E+00 -0.1758051207224E+01  0.0000000000000E+00
 0.6437153669844E+00 -0.1688601873979E+01  0.0000000000000E+00
 0.6557691276047E+00 -0.1619682588347E+01  0.0000000000000E+00
 0.6686200842292E+00 -0.1551377816794E+01  0.0000000000000E+00
 0.6823602906046E+00 -0.1483815001033E+01  0.0000000000000E+00
 0.6971335045526E+00 -0.1417187232221E+01  0.0000000000000E+00
 0.5775285217479E+00 -0.4230916136354E+01  0.0000000000000E+00
 0.5775570434703E+00 -0.4157787689344E+01  0.0000000000000E+00
 0.5775855652465E+00 -0.4084659104512E+01  0.0000000000000E+00
 0.5776140870475E+00 -0.4011530456114E+01  0.0000000000000E+00
 0.5776426088109E+00 -0.3938401904183E+01  0.0000000000000E+00
 0.5776711305689E+00 -0.3865273365972E+01  0.0000000000000E+00
 0.5776996523305E+00 -0.3792144818469E+01  0.0000000000000E+00
 0.5777281740965E+00 -0.3719016259932E+01  0.0000000000000E+00
 0.5777566958602E+00 -0.3645887707143E+01  0.0000000000000E+00
 0.5777852176243E+00 -0.3572759153353E+01  0.0000000000000E+00
 0.5778137394403E+00 -0.3499630466425E+01  0.0000000000000E+00
 0.5778422611671E+00 -0.3426502008162E+01  0.0000000000000E+00
 0.5778707829789E+00 -0.3353373332134E+01  0.0000000000000E+00
 0.5778993052112E+00 -0.3280243577982E+01  0.0000000000000E+00
 0.5779278265002E+00 -0.3207116242246E+01  0.0000000000000E+00
 0.5779563481850E+00 -0.3133987891651E+01  0.0000000000000E+00
 0.5779848699513E+00 -0.3060859332388E+01  0.0000000000000E+00
 0.5780133917022E+00 -0.2987730812382E+01  0.0000000000000E+00
 0.5780419134162E+00 -0.2914602387037E+01  0.0000000000000E+00
 0.5781132651049E+00 -0.2841473994368E+01  0.0000000000000E+00
 0.5784871369324E+00 -0.2768349099769E+01  0.0000000000000E+00
 0.5794454419965E+00 -0.2695244479801E+01  0.0000000000000E+00
 0.5811575623438E+00 -0.2622191929285E+01  0.0000000000000E+00
 0.5836898936295E+00 -0.2549229754315E+01  0.0000000000000E+00
 0.5870499320770E+00 -0.2476394676228E+01  0.0000000000000E+00
 0.5912224490155E+00 -0.2403719651464E+01  0.0000000000000E+00
 0.5961902208056E+00 -0.2331235792752E+01  0.0000000000000E+00
 0.6019447392772E+00 -0.2258974363216E+01  0.0000000000000E+00
 0.6084922090405E+00 -0.2186971598711E+01  0.0000000000000E+00
 0.6158585425385E+00 -0.2115272324239E+01  0.0000000000000E+00
 0.6240537159295E+00 -0.2043918075183E+01  0.0000000000000E+00
 0.6330269092831E+00 -0.1972923092128E+01  0.0000000000000E+00
 0.6427402254938E+00 -0.1902302300624E+01  0.0000000000000E+00
 0.6531754830925E+00 -0.1832077479492E+01  0.0000000000000E+00
 0.6643320871059E+00 -0.1762279362538E+01  0.0000000000000E+00
 0.6762270737778E+00 -0.1692950832575E+01  0.0000000000000E+00
 0.6888972939023E+00 -0.1624152349277E+01  0.0000000000000E+00
 0.7024049678359E+00 -0.1555968380692E+01  0.0000000000000E+00
 0.7168467977495E+00 -0.1488526365155E+01  0.0000000000000E+00
 0.7323738012168E+00 -0.1422019395320E+01  0.0000000000000E+00
 0.6050364530268E+00 -0.4231042777871E+01  0.0000000000000E+00
 0.6050729060210E+00 -0.4158040972265E+01  0.0000000000000E+00
 0.6051093590840E+00 -0.4085039029076E+01  0.0000000000000E+00
 0.6051458121786E+00 -0.4012037022431E+01  0.0000000000000E+00
 0.6051822652252E+00 -0.3939035112085E+01  0.0000000000000E+00
 0.6052187182649E+00 -0.3866033215436E+01  0.0000000000000E+00
 0.6052551713092E+00 -0.3793031309511E+01  0.0000000000000E+00
 0.6052916243591E+00 -0.3720029392571E+01  0.0000000000000E+00
 0.6053280774061E+00 -0.3647027481370E+01  0.0000000000000E+00
 0.6053645304536E+00 -0.3574025569168E+01  0.0000000000000E+00
 0.6054009835674E+00 -0.3501023524060E+01  0.0000000000000E+00
 0.6054374365673E+00 -0.3428021707220E+01  0.0000000000000E+00
 0.6054738896757E+00 -0.3355019672994E+01  0.0000000000000E+00
 0.6055103433215E+00 -0.3282016562509E+01  0.0000000000000E+00
 0.6055467957618E+00 -0.3209015866253E+01  0.0000000000000E+00
 0.6055832487080E+00 -0.3136014156895E+01  0.0000000000000E+00
 0.6056197017582E+00 -0.3063012239231E+01  0.0000000000000E+00
 0.6056561547889E+00 -0.2990010360755E+01  0.0000000000000E+00
 0.6056926077723E+00 -0.2917008576777E+01  0.0000000000000E+00
 0.6057739496384E+00 -0.2844006825500E+01  0.0000000000000E+00
 0.6061723542407E+00 -0.2771008571574E+01  0.0000000000000E+00
 0.6071832866711E+00 -0.2698030591041E+01  0.0000000000000E+00
 0.6089842714805E+00 -0.2625104679380E+01  0.0000000000000E+00
 0.6116448960934E+00 -0.2552269143111E+01  0.0000000000000E+00
 0.6151730171029E+00 -0.2479560703844E+01  0.0000000000000E+00
 0.6195526737819E+00 -0.2407012318228E+01  0.0000000000000E+00
 0.6247658144968E+00 -0.2334655098486E+01  0.0000000000000E+00
 0.6308035221003E+00 -0.2262520308222E+01  0.0000000000000E+00
 0.6376722994378E+00 -0.2190644182693E+01  0.0000000000000E+00
 0.6453993046053E+00 -0.2119071546904E+01  0.0000000000000E+00
 0.6539949933580E+00 -0.2047843936749E+01  0.0000000000000E+00
 0.6634061027715E+00 -0.1976975592865E+01  0.0000000000000E+00
 0.6735929139584E+00 -0.1906481440676E+01  0.0000000000000E+00
 0.6845363714316E+00 -0.1836383258907E+01  0.0000000000000E+00
 0.6962358516148E+00 -0.1766711781329E+01  0.0000000000000E+00
 0.7087092097083E+00 -0.1697509890691E+01  0.0000000000000E+00
 0.7219950679352E+00 -0.1628838045726E+01  0.0000000000000E+00
 0.7361586377713E+00 -0.1560780716136E+01  0.0000000000000E+00
 0.7513012698347E+00 -0.1493465336719E+01  0.0000000000000E+00
 0.7675812414413E+00 -0.1427085001696E+01  0.0000000000000E+00
 0.6325435266867E+00 -0.4231175233271E+01  0.0000000000000E+00
 0.6325870533346E+00 -0.4158305882947E+01  0.0000000000000E+00
 0.6326305800645E+00 -0.4085436395290E+01  0.0000000000000E+00
 0.6326741068323E+00 -0.4012566844291E+01  0.0000000000000E+00
 0.6327176335426E+00 -0.3939697389418E+01  0.0000000000000E+00
 0.6327611602448E+00 -0.3866827948216E+01  0.0000000000000E+00
 0.6328046869525E+00 -0.3793958497755E+01  0.0000000000000E+00
 0.6328482136668E+00 -0.3721089036299E+01  0.0000000000000E+00
 0.6328917403776E+00 -0.3648219580572E+01  0.0000000000000E+00
 0.6329352670890E+00 -0.3575350123845E+01  0.0000000000000E+00
 0.6329787938797E+00 -0.3502480534454E+01  0.0000000000000E+00
 0.6330223205343E+00 -0.3429611172916E+01  0.0000000000000E+00
 0.6330658473185E+00 -0.3356741594387E+01  0.0000000000000E+00
 0.6331093747444E+00 -0.3283870941551E+01  0.0000000000000E+00
 0.6331529007309E+00 -0.3211002698565E+01  0.0000000000000E+00
 0.6331964273214E+00 -0.3138133444314E+01  0.0000000000000E+00
 0.6332399540361E+00 -0.3065263982135E+01  0.0000000000000E+00
 0.6332834807274E+00 -0.2992394559074E+01  0.0000000000000E+00
 0.6333270073624E+00 -0.2919525230338E+01  0.0000000000000E+00
 0.6334174817877E+00 -0.2846655934332E+01  0.0000000000000E+00
 0.6338395615515E+00 -0.2773790134923E+01  0.0000000000000E+00
 0.6349022637435E+00 -0.2700944607613E+01  0.0000000000000E+00
 0.6367912554143E+00 -0.2628151148567E+01  0.0000000000000E+00
 0.6395793157545E+00 -0.2555448064753E+01  0.0000000000000E+00
 0.6432746617255E+00 -0.2482872078066E+01  0.0000000000000E+00
 0.6478606005424E+00 -0.2410456145372E+01  0.0000000000000E+00
 0.6533182525806E+00 -0.2338231378367E+01  0.0000000000000E+00
 0.6596382917126E+00 -0.2266229041154E+01  0.0000000000000E+00
 0.6668275190228E+00 -0.2194485368369E+01  0.0000000000000E+00
 0.6749143382604E+00 -0.2123045185016E+01  0.0000000000000E+00
 0.6839096847739E+00 -0.2051950027523E+01  0.0000000000000E+00
 0.6937578526447E+00 -0.1981214136585E+01  0.0000000000000E+00
 0.7044173012042E+00 -0.1910852437495E+01  0.0000000000000E+00
 0.7158681009481E+00 -0.1840886708872E+01  0.0000000000000E+00
 0.7281095996972E+00 -0.1771347684455E+01  0.0000000000000E+00
 0.7411604716089E+00 -0.1702278246925E+01  0.0000000000000E+00
 0.7550611103412E+00 -0.1633738854029E+01  0.0000000000000E+00
 0.7698797184786E+00 -0.1565813977203E+01  0.0000000000000E+00
 0.7857222951103E+00 -0.1498631047541E+01  0.0000000000000E+00
 0.8027543772834E+00 -0.1432383160906E+01  0.0000000000000E+00
 0.6600497070085E+00 -0.4231313479408E+01  0.0000000000000E+00
 0.6600994139727E+00 -0.4158582375098E+01  0.0000000000000E+00
 0.6601491210305E+00 -0.4085851133716E+01  0.0000000000000E+00
 0.6601988281316E+00 -0.4013119829111E+01  0.0000000000000E+00
 0.6602485351671E+00 -0.3940388620450E+01  0.0000000000000E+00
 0.6602982421932E+00 -0.3867657425435E+01  0.0000000000000E+00
 0.6603479492257E+00 -0.3794926221178E+01  0.0000000000000E+00
 0.6603976562657E+00 -0.3722195005947E+01  0.0000000000000E+00
 0.6604473633017E+00 -0.3649463796433E+01  0.0000000000000E+00
 0.6604970703385E+00 -0.3576732585922E+01  0.0000000000000E+00
 0.6605467774657E+00 -0.3504001242998E+01  0.0000000000000E+00
 0.6605964844376E+00 -0.3431270127496E+01  0.0000000000000E+00
 0.6606461915574E+00 -0.3358538795412E+01  0.0000000000000E+00
 0.6606958994101E+00 -0.3285806391062E+01  0.0000000000000E+00
 0.6607456056189E+00 -0.3213076391989E+01  0.0000000000000E+00
 0.6607953125175E+00 -0.3140345383569E+01  0.0000000000000E+00
 0.6608450195580E+00 -0.3067614167617E+01  0.0000000000000E+00
 0.6608947265717E+00 -0.2994882990707E+01  0.0000000000000E+00
 0.6609444335212E+00 -0.2922151907945E+01  0.0000000000000E+00
 0.6610431471685E+00 -0.2849420857941E+01  0.0000000000000E+00
 0.6614880087619E+00 -0.2776693303747E+01  0.0000000000000E+00
 0.6626015873924E+00 -0.2703986020302E+01  0.0000000000000E+00
 0.6645776926062E+00 -0.2631330804486E+01  0.0000000000000E+00
 0.6674922953571E+00 -0.2558765963735E+01  0.0000000000000E+00
 0.6713539729724E+00 -0.2486328220241E+01  0.0000000000000E+00
 0.6761453006083E+00 -0.2414050531099E+01  0.0000000000000E+00
 0.6818465706525E+00 -0.2341964007451E+01  0.0000000000000E+00
 0.6884480479942E+00 -0.2270099913923E+01  0.0000000000000E+00
 0.6959568319607E+00 -0.2198494484502E+01  0.0000000000000E+00
 0.7044025719548E+00 -0.2127192544193E+01  0.0000000000000E+00
 0.7137966829144E+00 -0.2056235629981E+01  0.0000000000000E+00
 0.7240810159262E+00 -0.1985637982619E+01  0.0000000000000E+00
 0.7352122085415E+00 -0.1915414527263E+01  0.0000000000000E+00
 0.7471694572393E+00 -0.1845587042425E+01  0.0000000000000E+00
 0.7599520812379E+00 -0.1776186261808E+01  0.0000000000000E+00
 0.7735795736522E+00 -0.1707255068023E+01  0.0000000000000E+00
 0.7880940995820E+00 -0.1638853917788E+01  0.0000000000000E+00
 0.8035668527085E+00 -0.1571067284346E+01  0.0000000000000E+00
 0.8201084806169E+00 -0.1504022594929E+01  0.0000000000000E+00
 0.8378917800749E+00 -0.1437912947113E+01  0.0000000000000E+00
 0.6875549587707E+00 -0.4231457492273E+01  0.0000000000000E+00
 0.6876099174925E+00 -0.4158870400699E+01  0.0000000000000E+00
 0.6876648763177E+00 -0.4086283172324E+01  0.0000000000000E+00
 0.6877198351908E+00 -0.4013695880853E+01  0.0000000000000E+00
 0.6877747939914E+00 -0.3941108685135E+01  0.0000000000000E+00
 0.6878297527816E+00 -0.3868521503035E+01  0.0000000000000E+00
 0.6878847115788E+00 -0.3795934311712E+01  0.0000000000000E+00
 0.6879396703844E+00 -0.3723347109437E+01  0.0000000000000E+00
 0.6879946291856E+00 -0.3650759912868E+01  0.0000000000000E+00
 0.6880495879875E+00 -0.3578172715304E+01  0.0000000000000E+00
 0.6881045468895E+00 -0.3505585385588E+01  0.0000000000000E+00
 0.6881595056197E+00 -0.3432998282844E+01  0.0000000000000E+00
 0.6882144645135E+00 -0.3360410963949E+01  0.0000000000000E+00
 0.6882694242176E+00 -0.3287822574909E+01  0.0000000000000E+00
 0.6883243821042E+00 -0.3215236586383E+01  0.0000000000000E+00
 0.6883793407534E+00 -0.3142649590510E+01  0.0000000000000E+00
 0.6884342995595E+00 -0.3070062387515E+01  0.0000000000000E+00
 0.6884892583360E+00 -0.2997475223486E+01  0.0000000000000E+00
 0.6885442170415E+00 -0.2924888153416E+01  0.0000000000000E+00
 0.6886502413522E+00 -0.2852301116137E+01  0.0000000000000E+00
 0.6891169562223E+00 -0.2779717573847E+01  0.0000000000000E+00
 0.6902804827484E+00 -0.2707154300899E+01  0.0000000000000E+00
 0.6923427729674E+00 -0.2634643094921E+01  0.0000000000000E+00
 0.6953829895934E+00 -0.2562222263831E+01  0.0000000000000E+00
 0.6994100703178E+00 -0.2489928530135E+01  0.0000000000000E+00
 0.7044058582361E+00 -0.2417794851164E+01  0.0000000000000E+00
 0.7103498177522E+00 -0.2345852337485E+01  0.0000000000000E+00
 0.7172318047682E+00 -0.2274132254268E+01  0.0000000000000E+00
 0.7250592168591E+00 -0.2202670834823E+01  0.0000000000000E+00
 0.7338629490808E+00 -0.2131512904156E+01  0.0000000000000E+00
 0.7436548959572E+00 -0.2060699999834E+01  0.0000000000000E+00
 0.7543744655799E+00 -0.1990246362667E+01  0.0000000000000E+00
 0.7659764737208E+00 -0.1920166917674E+01  0.0000000000000E+00
 0.7784392428430E+00 -0.1850483443250E+01  0.0000000000000E+00
 0.7917620635625E+00 -0.1781226673063E+01  0.0000000000000E+00
 0.8059652479520E+00 -0.1712439489651E+01  0.0000000000000E+00
 0.8210927325603E+00 -0.1644182348659E+01  0.0000000000000E+00
 0.8372187021531E+00 -0.1576539725215E+01  0.0000000000000E+00
 0.8544584528381E+00 -0.1509639042525E+01  0.0000000000000E+00
 0.8729920410917E+00 -0.1443673399950E+01  0.0000000000000E+00
 0.7150592472657E+00 -0.4231607247015E+01  0.0000000000000E+00
 0.7151184944785E+00 -0.4159169910049E+01  0.0000000000000E+00
 0.7151777418030E+00 -0.4086732436564E+01  0.0000000000000E+00
 0.7152369891790E+00 -0.4014294900114E+01  0.0000000000000E+00
 0.7152962364768E+00 -0.3941857459218E+01  0.0000000000000E+00
 0.7153554837636E+00 -0.3869420031913E+01  0.0000000000000E+00
 0.7154147310578E+00 -0.3796982595404E+01  0.0000000000000E+00
 0.7154739783610E+00 -0.3724545147966E+01  0.0000000000000E+00
 0.7155332256595E+00 -0.3652107706221E+01  0.0000000000000E+00
 0.7155924729589E+00 -0.3579670263484E+01  0.0000000000000E+00
 0.7156517203661E+00 -0.3507232688868E+01  0.0000000000000E+00
 0.7157109675880E+00 -0.3434795340755E+01  0.0000000000000E+00
 0.7157702149864E+00 -0.3362357776937E+01  0.0000000000000E+00
 0.7158294632583E+00 -0.3289919145182E+01  0.0000000000000E+00
 0.7158887095708E+00 -0.3217482908988E+01  0.0000000000000E+00
 0.7159479567055E+00 -0.3145045667526E+01  0.0000000000000E+00
 0.7160072040093E+00 -0.3072608219369E+01  0.0000000000000E+00
 0.7160664512812E+00 -0.3000170810097E+01  0.0000000000000E+00
 0.7161256984765E+00 -0.2927733494591E+01  0.0000000000000E+00
 0.7162380701844E+00 -0.2855296211907E+01  0.0000000000000E+00
 0.7167256750711E+00 -0.2782862423360E+01  0.0000000000000E+00
 0.7179381862435E+00 -0.2710448902693E+01  0.0000000000000E+00
 0.7200856982247E+00 -0.2638087448308E+01  0.0000000000000E+00
 0.7232505654860E+00 -0.2565816368629E+01  0.0000000000000E+00
 0.7274420860806E+00 -0.2493672386486E+01  0.0000000000000E+00
 0.7326413710420E+00 -0.2421688459455E+01  0.0000000000000E+00
 0.7388270567937E+00 -0.2349895697507E+01  0.0000000000000E+00
 0.7459885902476E+00 -0.2278325366376E+01  0.0000000000000E+00
 0.7541336672304E+00 -0.2207013698669E+01  0.0000000000000E+00
 0.7632944284514E+00 -0.2136005519392E+01  0.0000000000000E+00
 0.7734832480167E+00 -0.2065342366718E+01  0.0000000000000E+00
 0.7846370910221E+00 -0.1995038481518E+01  0.0000000000000E+00
 0.7967089514612E+00 -0.1925108788663E+01  0.0000000000000E+00
 0.8096762777816E+00 -0.1855575066432E+01  0.0000000000000E+00
 0.8235383319973E+00 -0.1786468048456E+01  0.0000000000000E+00
 0.8383162451398E+00 -0.1717830617193E+01  0.0000000000000E+00
 0.8540557252136E+00 -0.1649723227177E+01  0.0000000000000E+00
 0.8708339480567E+00 -0.1582230355494E+01  0.0000000000000E+00
 0.8887708583262E+00 -0.1515479421163E+01  0.0000000000000E+00
 0.9080537721960E+00 -0.1449663525402E+01  0.0000000000000E+00
 0.7425625383146E+00 -0.4231762717964E+01  0.0000000000000E+00
 0.7426250765734E+00 -0.4159480851809E+01  0.0000000000000E+00
 0.7426876149500E+00 -0.4087198849429E+01  0.0000000000000E+00
 0.7427501533810E+00 -0.4014916784217E+01  0.0000000000000E+00
 0.7428126917296E+00 -0.3942634814355E+01  0.0000000000000E+00
 0.7428752300663E+00 -0.3870352858055E+01  0.0000000000000E+00
 0.7429377684111E+00 -0.3798070892571E+01  0.0000000000000E+00
 0.7430003067652E+00 -0.3725788916180E+01  0.0000000000000E+00
 0.7430628451145E+00 -0.3653506945471E+01  0.0000000000000E+00
 0.7431253834646E+00 -0.3581224973772E+01  0.0000000000000E+00
 0.7431879219286E+00 -0.3508942870477E+01  0.0000000000000E+00
 0.7432504601970E+00 -0.3436660993198E+01  0.0000000000000E+00
 0.7433129986516E+00 -0.3364378900677E+01  0.0000000000000E+00
 0.7433755380283E+00 -0.3292095742512E+01  0.0000000000000E+00
 0.7434380753367E+00 -0.3219814974767E+01  0.0000000000000E+00
 0.7435006135130E+00 -0.3147533203911E+01  0.0000000000000E+00
 0.7435631518678E+00 -0.3075251226803E+01  0.0000000000000E+00
 0.7436256901890E+00 -0.3002969288497E+01  0.0000000000000E+00
 0.7436882284293E+00 -0.2930687443756E+01  0.0000000000000E+00
 0.7438059500894E+00 -0.2858405631870E+01  0.0000000000000E+00
 0.7443134475546E+00 -0.2786127313235E+01  0.0000000000000E+00
 0.7455739459472E+00 -0.2713869260962E+01  0.0000000000000E+00
 0.7478056822717E+00 -0.2641663274258E+01  0.0000000000000E+00
 0.7510942027536E+00 -0.2569547662071E+01  0.0000000000000E+00
 0.7554491658059E+00 -0.2497559147567E+01  0.0000000000000E+00
 0.7608509503981E+00 -0.2425730688578E+01  0.0000000000000E+00
 0.7672773649777E+00 -0.2354093394452E+01  0.0000000000000E+00
 0.7747174474621E+00 -0.2282678531514E+01  0.0000000000000E+00
 0.7831791919347E+00 -0.2211522331637E+01  0.0000000000000E+00
 0.7926959847584E+00 -0.2140669619831E+01  0.0000000000000E+00
 0.8032806796171E+00 -0.2070161934894E+01  0.0000000000000E+00
 0.8148677986107E+00 -0.2000013517763E+01  0.0000000000000E+00
 0.8274085139547E+00 -0.1930239293156E+01  0.0000000000000E+00
 0.8408794000826E+00 -0.1860861039229E+01  0.0000000000000E+00
 0.8552796904064E+00 -0.1791909489574E+01  0.0000000000000E+00
 0.8706313349167E+00 -0.1723427526570E+01  0.0000000000000E+00
 0.8869818130815E+00 -0.1655475603594E+01  0.0000000000000E+00
 0.9044112917983E+00 -0.1588138199765E+01  0.0000000000000E+00
 0.9230443643019E+00 -0.1521542729758E+01  0.0000000000000E+00
 0.9430756064517E+00 -0.1455882296715E+01  0.0000000000000E+00
 0.7700647982821E+00 -0.4231923878657E+01  0.0000000000000E+00
 0.7701295965064E+00 -0.4159803173051E+01  0.0000000000000E+00
 0.7701943948528E+00 -0.4087682331523E+01  0.0000000000000E+00
 0.7702591932555E+00 -0.4015561427305E+01  0.0000000000000E+00
 0.7703239915728E+00 -0.3943440618223E+01  0.0000000000000E+00
 0.7703887898779E+00 -0.3871319822673E+01  0.0000000000000E+00
 0.7704535881912E+00 -0.3799199017960E+01  0.0000000000000E+00
 0.7705183865143E+00 -0.3727078202364E+01  0.0000000000000E+00
 0.7705831848324E+00 -0.3654957392437E+01  0.0000000000000E+00
 0.7706479831513E+00 -0.3582836581522E+01  0.0000000000000E+00
 0.7707127815881E+00 -0.3510715639305E+01  0.0000000000000E+00
 0.7707775798224E+00 -0.3438594922601E+01  0.0000000000000E+00
 0.7708423782496E+00 -0.3366473991133E+01  0.0000000000000E+00
 0.7709071776321E+00 -0.3294351996398E+01  0.0000000000000E+00
 0.7709719748717E+00 -0.3222232386753E+01  0.0000000000000E+00
 0.7710367730106E+00 -0.3150111776233E+01  0.0000000000000E+00
 0.7711015713344E+00 -0.3077990959922E+01  0.0000000000000E+00
 0.7711663696233E+00 -0.3005870182326E+01  0.0000000000000E+00
 0.7712311678284E+00 -0.2933749498087E+01  0.0000000000000E+00
 0.7713532083606E+00 -0.2861628846736E+01  0.0000000000000E+00
 0.7718795673317E+00 -0.2789511687719E+01  0.0000000000000E+00
 0.7731870218849E+00 -0.2717414793489E+01  0.0000000000000E+00
 0.7755019515019E+00 -0.2645369964090E+01  0.0000000000000E+00
 0.7789130941592E+00 -0.2573415509012E+01  0.0000000000000E+00
 0.7834304686275E+00 -0.2501588151769E+01  0.0000000000000E+00
 0.7890337218105E+00 -0.2429920850458E+01  0.0000000000000E+00
 0.7956998341836E+00 -0.2358444713785E+01  0.0000000000000E+00
 0.8034174346658E+00 -0.2287191008681E+01  0.0000000000000E+00
 0.8121948156023E+00 -0.2216195966265E+01  0.0000000000000E+00
 0.8220666090092E+00 -0.2145504411545E+01  0.0000000000000E+00
 0.8330461481448E+00 -0.2075157883972E+01  0.0000000000000E+00
 0.8450655121117E+00 -0.2005170624547E+01  0.0000000000000E+00
 0.8580740513487E+00 -0.1935557557832E+01  0.0000000000000E+00
 0.8720474662756E+00 -0.1866340461856E+01  0.0000000000000E+00
 0.8869849617026E+00 -0.1797550070169E+01  0.0000000000000E+00
 0.9029093065802E+00 -0.1729229265069E+01  0.0000000000000E+00
 0.9198697518478E+00 -0.1661438498734E+01  0.0000000000000E+00
 0.9379494554491E+00 -0.1594262252389E+01  0.0000000000000E+00
 0.9572776592258E+00 -0.1527827936206E+01  0.0000000000000E+00
 0.9780561987112E+00 -0.1462328655324E+01  0.0000000000000E+00
 0.7975659940902E+00 -0.4232090701858E+01  0.0000000000000E+00
 0.7976319881214E+00 -0.4160136819303E+01  0.0000000000000E+00
 0.7976979822771E+00 -0.4088182801141E+01  0.0000000000000E+00
 0.7977639764901E+00 -0.4016228720433E+01  0.0000000000000E+00
 0.7978299706160E+00 -0.3944274734643E+01  0.0000000000000E+00
 0.7978959647296E+00 -0.3872320762352E+01  0.0000000000000E+00
 0.7979619588516E+00 -0.3800366780919E+01  0.0000000000000E+00
 0.7980279529835E+00 -0.3728412788629E+01  0.0000000000000E+00
 0.7980939471102E+00 -0.3656458801995E+01  0.0000000000000E+00
 0.7981599412379E+00 -0.3584504814375E+01  0.0000000000000E+00
 0.7982259354857E+00 -0.3512550695757E+01  0.0000000000000E+00
 0.7982919295271E+00 -0.3440596802130E+01  0.0000000000000E+00
 0.7983579237650E+00 -0.3368642694236E+01  0.0000000000000E+00
 0.7984239189759E+00 -0.3296687525534E+01  0.0000000000000E+00
 0.7984899120043E+00 -0.3224734736406E+01  0.0000000000000E+00
 0.7985559059486E+00 -0.3152780948717E+01  0.0000000000000E+00
 0.7986219000812E+00 -0.3080826955713E+01  0.0000000000000E+00
 0.7986878941783E+00 -0.3008873001336E+01  0.0000000000000E+00
 0.7987538881900E+00 -0.2936919140098E+01  0.0000000000000E+00
 0.7988791834362E+00 -0.2864965311785E+01  0.0000000000000E+00
 0.7994233397633E+00 -0.2793014974856E+01  0.0000000000000E+00
 0.8007766863419E+00 -0.2721084901084E+01  0.0000000000000E+00
 0.8031737451268E+00 -0.2649206891378E+01  0.0000000000000E+00
 0.8067064458421E+00 -0.2577419255790E+01  0.0000000000000E+00
 0.8113851676139E+00 -0.2505758718195E+01  0.0000000000000E+00
 0.8171888252784E+00 -0.2434258236964E+01  0.0000000000000E+00
 0.8240935713432E+00 -0.2362948920137E+01  0.0000000000000E+00
 0.8320876257245E+00 -0.2291862035274E+01  0.0000000000000E+00
 0.8411795790344E+00 -0.2221033812712E+01  0.0000000000000E+00
 0.8514053089427E+00 -0.2150509077459E+01  0.0000000000000E+00
 0.8627786282774E+00 -0.2080329369639E+01  0.0000000000000E+00
 0.8752291731434E+00 -0.2010508930323E+01  0.0000000000000E+00
 0.8887044722034E+00 -0.1941062683910E+01  0.0000000000000E+00
 0.9031793518640E+00 -0.1872012408295E+01  0.0000000000000E+00
 0.9186529883343E+00 -0.1803388836989E+01  0.0000000000000E+00
 0.9351489695250E+00 -0.1735234852202E+01  0.0000000000000E+00
 0.9527183178552E+00 -0.1667610904871E+01  0.0000000000000E+00
 0.9714471823014E+00 -0.1600601478405E+01  0.0000000000000E+00
 0.9914694533427E+00 -0.1534333978313E+01  0.0000000000000E+00
 0.1012994226174E+01 -0.1469001511800E+01  0.0000000000000E+00
 0.8250660921971E+00 -0.4232263159342E+01  0.0000000000000E+00
 0.8251321843352E+00 -0.4160481734118E+01  0.0000000000000E+00
 0.8251982765979E+00 -0.4088700173612E+01  0.0000000000000E+00
 0.8252643689180E+00 -0.4016918550710E+01  0.0000000000000E+00
 0.8253304611510E+00 -0.3945137022497E+01  0.0000000000000E+00
 0.8253965533715E+00 -0.3873355507753E+01  0.0000000000000E+00
 0.8254626456005E+00 -0.3801573983887E+01  0.0000000000000E+00
 0.8255287378394E+00 -0.3729792449191E+01  0.0000000000000E+00
 0.8255948300731E+00 -0.3658010920137E+01  0.0000000000000E+00
 0.8256609223078E+00 -0.3586229390100E+01  0.0000000000000E+00
 0.8257270146627E+00 -0.3514447729378E+01  0.0000000000000E+00
 0.8257931068110E+00 -0.3442666293108E+01  0.0000000000000E+00
 0.8258591991561E+00 -0.3370884643085E+01  0.0000000000000E+00
 0.8259252924756E+00 -0.3299101934797E+01  0.0000000000000E+00
 0.8259913836094E+00 -0.3227321600378E+01  0.0000000000000E+00
 0.8260574756604E+00 -0.3155540269793E+01  0.0000000000000E+00
 0.8261235679000E+00 -0.3083758734385E+01  0.0000000000000E+00
 0.8261896601041E+00 -0.3011977237510E+01  0.0000000000000E+00
 0.8262557522226E+00 -0.2940195833552E+01  0.0000000000000E+00
 0.8263832044815E+00 -0.2868414462554E+01  0.0000000000000E+00
 0.8269440604613E+00 -0.2796636581959E+01  0.0000000000000E+00
 0.8283422013566E+00 -0.2724878962837E+01  0.0000000000000E+00
 0.8308202915846E+00 -0.2653173406991E+01  0.0000000000000E+00
 0.8344734526118E+00 -0.2581558225052E+01  0.0000000000000E+00
 0.8393124239173E+00 -0.2510070141269E+01  0.0000000000000E+00
 0.8453153882681E+00 -0.2438742114296E+01  0.0000000000000E+00
 0.8524576702087E+00 -0.2367605251486E+01  0.0000000000000E+00
 0.8607270806491E+00 -0.2296690821050E+01  0.0000000000000E+00
 0.8701325084729E+00 -0.2226035052513E+01  0.0000000000000E+00
 0.8807110770029E+00 -0.2155682770885E+01  0.0000000000000E+00
 0.8924770786323E+00 -0.2085675516987E+01  0.0000000000000E+00
 0.9053577064690E+00 -0.2016027531960E+01  0.0000000000000E+00
 0.9192986674019E+00 -0.1946753740033E+01  0.0000000000000E+00
 0.9342739138258E+00 -0.1877875918969E+01  0.0000000000000E+00
 0.9502825933488E+00 -0.1809424802232E+01  0.0000000000000E+00
 0.9673491128421E+00 -0.1741443271944E+01  0.0000000000000E+00
 0.9855262662115E+00 -0.1673991777762E+01  0.0000000000000E+00
 0.1004903193450E+01 -0.1607154805347E+01  0.0000000000000E+00
 0.1025618433703E+01 -0.1541059755389E+01  0.0000000000000E+00
 0.1047888341808E+01 -0.1475899737231E+01  0.0000000000000E+00
 0.8525650614762E+00 -0.4232441222572E+01  0.0000000000000E+00
 0.8526301228944E+00 -0.4160837860419E+01  0.0000000000000E+00
 0.8526951844352E+00 -0.4089234363318E+01  0.0000000000000E+00
 0.8527602460326E+00 -0.4017630803977E+01  0.0000000000000E+00
 0.8528253075442E+00 -0.3946027339091E+01  0.0000000000000E+00
 0.8528903690435E+00 -0.3874423887639E+01  0.0000000000000E+00
 0.8529554305511E+00 -0.3802820427089E+01  0.0000000000000E+00
 0.8530204920685E+00 -0.3731216955735E+01  0.0000000000000E+00
 0.8530855535808E+00 -0.3659613490009E+01  0.0000000000000E+00
 0.8531506150940E+00 -0.3588010023303E+01  0.0000000000000E+00
 0.8532156767257E+00 -0.3516406426235E+01  0.0000000000000E+00
 0.8532807381539E+00 -0.3444803053064E+01  0.0000000000000E+00
 0.8533457997758E+00 -0.3373199466669E+01  0.0000000000000E+00
 0.8534108623570E+00 -0.3301594824634E+01  0.0000000000000E+00
 0.8534759227865E+00 -0.3229992550580E+01  0.0000000000000E+00
 0.8535409841189E+00 -0.3158389282831E+01  0.0000000000000E+00
 0.8536060456369E+00 -0.3086785810767E+01  0.0000000000000E+00
 0.8536711071201E+00 -0.3015182377140E+01  0.0000000000000E+00
 0.8537361685190E+00 -0.2943579036201E+01  0.0000000000000E+00
 0.8538646489641E+00 -0.2871975728258E+01  0.0000000000000E+00
 0.8544410757777E+00 -0.2800375909705E+01  0.0000000000000E+00
 0.8558828821841E+00 -0.2728796350886E+01  0.0000000000000E+00
 0.8584408750580E+00 -0.2657268854525E+01  0.0000000000000E+00
 0.8622133676045E+00 -0.2585831731856E+01  0.0000000000000E+00
 0.8672114596532E+00 -0.2514521707511E+01  0.0000000000000E+00
 0.8734126019002E+00 -0.2443371740437E+01  0.0000000000000E+00
 0.8807912909314E+00 -0.2372412937276E+01  0.0000000000000E+00
 0.8893349286460E+00 -0.2301676566911E+01  0.0000000000000E+00
 0.8990527022045E+00 -0.2231198858032E+01  0.0000000000000E+00
 0.9099829805832E+00 -0.2161024635649E+01  0.0000000000000E+00
 0.9221405357354E+00 -0.2091195441301E+01  0.0000000000000E+00
 0.9354501177719E+00 -0.2021725516204E+01  0.0000000000000E+00
 0.9498556118082E+00 -0.1952629784413E+01  0.0000000000000E+00
 0.9653300962285E+00 -0.1883930023548E+01  0.0000000000000E+00
 0.9818726900401E+00 -0.1815656967030E+01  0.0000000000000E+00
 0.9995086190752E+00 -0.1747853496891E+01  0.0000000000000E+00
 0.1018292448735E+01 -0.1680580061460E+01  0.0000000000000E+00
 0.1038316310015E+01 -0.1613921148730E+01  0.0000000000000E+00
 0.1059723390757E+01 -0.1548004154413E+01  0.0000000000000E+00
 0.1082737305430E+01 -0.1483022190057E+01  0.0000000000000E+00
 0.8800628706507E+00 -0.4232624862149E+01  0.0000000000000E+00
 0.8801257412452E+00 -0.4161205139410E+01  0.0000000000000E+00
 0.8801886119583E+00 -0.4089785282070E+01  0.0000000000000E+00
 0.8802514827260E+00 -0.4018365362649E+01  0.0000000000000E+00
 0.8803143534107E+00 -0.3946945537440E+01  0.0000000000000E+00
 0.8803772240837E+00 -0.3875525725631E+01  0.0000000000000E+00
 0.8804400947647E+00 -0.3804105904747E+01  0.0000000000000E+00
 0.8805029654551E+00 -0.3732686073087E+01  0.0000000000000E+00
 0.8805658361406E+00 -0.3661266247042E+01  0.0000000000000E+00
 0.8806287068270E+00 -0.3589846420017E+01  0.0000000000000E+00
 0.8806915776278E+00 -0.3518426462966E+01  0.0000000000000E+00
 0.8807544482321E+00 -0.3447006729237E+01  0.0000000000000E+00
 0.8808173190235E+00 -0.3375586782831E+01  0.0000000000000E+00
 0.8808801907419E+00 -0.3304165783493E+01  0.0000000000000E+00
 0.8809430603810E+00 -0.3232747146062E+01  0.0000000000000E+00
 0.8810059308927E+00 -0.3161327517485E+01  0.0000000000000E+00
 0.8810688015838E+00 -0.3089907685116E+01  0.0000000000000E+00
 0.8811316722411E+00 -0.3018487891087E+01  0.0000000000000E+00
 0.8811945428171E+00 -0.2947068189507E+01  0.0000000000000E+00
 0.8813228913452E+00 -0.2875648520963E+01  0.0000000000000E+00
 0.8819137288988E+00 -0.2804232340763E+01  0.0000000000000E+00
 0.8833980407394E+00 -0.2732836418503E+01  0.0000000000000E+00
 0.8860347761945E+00 -0.2661492557860E+01  0.0000000000000E+00
 0.8899254402048E+00 -0.2590239070684E+01  0.0000000000000E+00
 0.8950814929478E+00 -0.2519112682006E+01  0.0000000000000E+00
 0.9014796530467E+00 -0.2448146351075E+01  0.0000000000000E+00
 0.9090935891332E+00 -0.2377371183799E+01  0.0000000000000E+00
 0.9179102940913E+00 -0.2306818449755E+01  0.0000000000000E+00
 0.9279392533642E+00 -0.2236524376770E+01  0.0000000000000E+00
 0.9392200815813E+00 -0.2166533789856E+01  0.0000000000000E+00
 0.9517680302519E+00 -0.2096888231292E+01  0.0000000000000E+00
 0.9655054064884E+00 -0.2027601942369E+01  0.0000000000000E+00
 0.9803742736342E+00 -0.1958689846964E+01  0.0000000000000E+00
 0.9963468360632E+00 -0.1890173722552E+01  0.0000000000000E+00
 0.1013422184182E+01 -0.1822084302508E+01  0.0000000000000E+00
 0.1031626362785E+01 -0.1754464468768E+01  0.0000000000000E+00
 0.1051015708778E+01 -0.1687374668298E+01  0.0000000000000E+00
 0.1071685344144E+01 -0.1620899391489E+01  0.0000000000000E+00
 0.1093783105455E+01 -0.1555166028923E+01  0.0000000000000E+00
 0.1117539866798E+01 -0.1490367694424E+01  0.0000000000000E+00
 0.9075594889833E+00 -0.4232814047991E+01  0.0000000000000E+00
 0.9076189779134E+00 -0.4161583510925E+01  0.0000000000000E+00
 0.9076784669557E+00 -0.4090352839614E+01  0.0000000000000E+00
 0.9077379560498E+00 -0.4019122106386E+01  0.0000000000000E+00
 0.9077974450653E+00 -0.3947891467122E+01  0.0000000000000E+00
 0.9078569340697E+00 -0.3876660841222E+01  0.0000000000000E+00
 0.9079164230816E+00 -0.3805430206271E+01  0.0000000000000E+00
 0.9079759121025E+00 -0.3734199560572E+01  0.0000000000000E+00
 0.9080354011187E+00 -0.3662968920473E+01  0.0000000000000E+00
 0.9080948901358E+00 -0.3591738279397E+01  0.0000000000000E+00
 0.9081543792612E+00 -0.3520507508640E+01  0.0000000000000E+00
 0.9082138682005E+00 -0.3449276960612E+01  0.0000000000000E+00
 0.9082733573170E+00 -0.3378046200472E+01  0.0000000000000E+00
 0.9083328473105E+00 -0.3306814390188E+01  0.0000000000000E+00
 0.9083923353367E+00 -0.3235584935555E+01  0.0000000000000E+00
 0.9084518241884E+00 -0.3164354492402E+01  0.0000000000000E+00
 0.9085113132099E+00 -0.3093123845996E+01  0.0000000000000E+00
 0.9085708021995E+00 -0.3021893237829E+01  0.0000000000000E+00
 0.9086302911121E+00 -0.2950662721865E+01  0.0000000000000E+00
 0.9087573168832E+00 -0.2879432238978E+01  0.0000000000000E+00
 0.9093613743473E+00 -0.2808205243358E+01  0.0000000000000E+00
 0.9108870008119E+00 -0.2736998503829E+01  0.0000000000000E+00
 0.9136012880531E+00 -0.2665843825050E+01  0.0000000000000E+00
 0.9176089327442E+00 -0.2594779519508E+01  0.0000000000000E+00
 0.9229217554080E+00 -0.2523842312644E+01  0.0000000000000E+00
 0.9295157425928E+00 -0.2453065164015E+01  0.0000000000000E+00
 0.9373637349804E+00 -0.2382479178777E+01  0.0000000000000E+00
 0.9464523164353E+00 -0.2312115627219E+01  0.0000000000000E+00
 0.9567912706887E+00 -0.2242010736282E+01  0.0000000000000E+00
 0.9684214580236E+00 -0.2172209330975E+01  0.0000000000000E+00
 0.9813586095009E+00 -0.2102752954344E+01  0.0000000000000E+00
 0.9955225892331E+00 -0.2033655847757E+01  0.0000000000000E+00
 0.1010853638792E+01 -0.1964932934906E+01  0.0000000000000E+00
 0.1027323088543E+01 -0.1896605993116E+01  0.0000000000000E+00
 0.1044930000291E+01 -0.1828705755716E+01  0.0000000000000E+00
 0.1063701237794E+01 -0.1761275104543E+01  0.0000000000000E+00
 0.1083694909471E+01 -0.1694374485157E+01  0.0000000000000E+00
 0.1105009128278E+01 -0.1628088390423E+01  0.0000000000000E+00
 0.1127796379553E+01 -0.1562544205636E+01  0.0000000000000E+00
 0.1152294796986E+01 -0.1497935046963E+01  0.0000000000000E+00
 0.9350548858195E+00 -0.4233008749224E+01  0.0000000000000E+00
 0.9351097715901E+00 -0.4161972913217E+01  0.0000000000000E+00
 0.9351646574641E+00 -0.4090936943333E+01  0.0000000000000E+00
 0.9352195433858E+00 -0.4019900911701E+01  0.0000000000000E+00
 0.9352744292350E+00 -0.3948864973775E+01  0.0000000000000E+00
 0.9353293150740E+00 -0.3877829049177E+01  0.0000000000000E+00
 0.9353842009200E+00 -0.3806793115553E+01  0.0000000000000E+00
 0.9354390867743E+00 -0.3735757171211E+01  0.0000000000000E+00
 0.9354939726242E+00 -0.3664721232452E+01  0.0000000000000E+00
 0.9355488584749E+00 -0.3593685292720E+01  0.0000000000000E+00
 0.9356037444255E+00 -0.3522649223661E+01  0.0000000000000E+00
 0.9356586302045E+00 -0.3451613376723E+01  0.0000000000000E+00
 0.9357135161469E+00 -0.3380577318253E+01  0.0000000000000E+00
 0.9357684028986E+00 -0.3309540212508E+01  0.0000000000000E+00
 0.9358232878350E+00 -0.3238505455976E+01  0.0000000000000E+00
 0.9358781735332E+00 -0.3167469713625E+01  0.0000000000000E+00
 0.9359330593880E+00 -0.3096433768578E+01  0.0000000000000E+00
 0.9359879452134E+00 -0.3025397861664E+01  0.0000000000000E+00
 0.9360428309677E+00 -0.2954362046702E+01  0.0000000000000E+00
 0.9361673124864E+00 -0.2883326264858E+01  0.0000000000000E+00
 0.9367833683722E+00 -0.2812293969172E+01  0.0000000000000E+00
 0.9383490879822E+00 -0.2741281927676E+01  0.0000000000000E+00
 0.9411397055351E+00 -0.2670321946037E+01  0.0000000000000E+00
 0.9452631094320E+00 -0.2599452337398E+01  0.0000000000000E+00
 0.9507314805386E+00 -0.2528709827621E+01  0.0000000000000E+00
 0.9575200733262E+00 -0.2458127376583E+01  0.0000000000000E+00
 0.9656009005317E+00 -0.2387736088663E+01  0.0000000000000E+00
 0.9749601369954E+00 -0.2317567234886E+01  0.0000000000000E+00
 0.9856078647423E+00 -0.2247657041276E+01  0.0000000000000E+00
 0.9975861897091E+00 -0.2178050332845E+01  0.0000000000000E+00
 0.1010911322503E+01 -0.2108788653425E+01  0.0000000000000E+00
 0.1025500684237E+01 -0.2039886244463E+01  0.0000000000000E+00
 0.1041292694711E+01 -0.1971358029462E+01  0.0000000000000E+00
 0.1058257810283E+01 -0.1903225785592E+01  0.0000000000000E+00
 0.1076395064160E+01 -0.1835520246133E+01  0.0000000000000E+00
 0.1095732139060E+01 -0.1768284292824E+01  0.0000000000000E+00
 0.1116328914927E+01 -0.1701578369774E+01  0.0000000000000E+00
 0.1138286495672E+01 -0.1635486972397E+01  0.0000000000000E+00
 0.1161762015432E+01 -0.1570137480546E+01  0.0000000000000E+00
 0.1187000867489E+01 -0.1505723012798E+01  0.0000000000000E+00
 0.9625490308455E+00 -0.4233208934261E+01  0.0000000000000E+00
 0.9625980616473E+00 -0.4162373283113E+01  0.0000000000000E+00
 0.9626470925415E+00 -0.4091537498464E+01  0.0000000000000E+00
 0.9626961234783E+00 -0.4020701652242E+01  0.0000000000000E+00
 0.9627451543504E+00 -0.3949865899462E+01  0.0000000000000E+00
 0.9627941852133E+00 -0.3879030159972E+01  0.0000000000000E+00
 0.9628432160825E+00 -0.3808194411481E+01  0.0000000000000E+00
 0.9628922469590E+00 -0.3737358652303E+01  0.0000000000000E+00
 0.9629412778317E+00 -0.3666522898693E+01  0.0000000000000E+00
 0.9629903087051E+00 -0.3595687144111E+01  0.0000000000000E+00
 0.9630393396677E+00 -0.3524851260568E+01  0.0000000000000E+00
 0.9630883704770E+00 -0.3454015598519E+01  0.0000000000000E+00
 0.9631374014324E+00 -0.3383179725533E+01  0.0000000000000E+00
 0.9631864331105E+00 -0.3312342808225E+01  0.0000000000000E+00
 0.9632354631672E+00 -0.3241508233510E+01  0.0000000000000E+00
 0.9632844939044E+00 -0.3170672675753E+01  0.0000000000000E+00
 0.9633335247814E+00 -0.3099836915872E+01  0.0000000000000E+00
 0.9633825556321E+00 -0.3029001194016E+01  0.0000000000000E+00
 0.9634315864194E+00 -0.2958165563854E+01  0.0000000000000E+00
 0.9635522718756E+00 -0.2887329966851E+01  0.0000000000000E+00
 0.9641790743716E+00 -0.2816497854867E+01  0.0000000000000E+00
 0.9657836353121E+00 -0.2745685995118E+01  0.0000000000000E+00
 0.9686493313466E+00 -0.2674926194307E+01  0.0000000000000E+00
 0.9728872425984E+00 -0.2604256766253E+01  0.0000000000000E+00
 0.9785099102731E+00 -0.2533714437250E+01  0.0000000000000E+00
 0.9854918567633E+00 -0.2463332167505E+01  0.0000000000000E+00
 0.9938042668667E+00 -0.2393141060596E+01  0.0000000000000E+00
 0.1003432906395E+01 -0.2323172388306E+01  0.0000000000000E+00
 0.1014388155672E+01 -0.2253462375718E+01  0.0000000000000E+00
 0.1026713366288E+01 -0.2184055847844E+01  0.0000000000000E+00
 0.1040425228390E+01 -0.2114994349325E+01  0.0000000000000E+00
 0.1055438720094E+01 -0.2046292121691E+01  0.0000000000000E+00
 0.1071690439431E+01 -0.1977964088247E+01  0.0000000000000E+00
 0.1089149968751E+01 -0.1910032026008E+01  0.0000000000000E+00
 0.1107816312662E+01 -0.1842526668202E+01  0.0000000000000E+00
 0.1127717972847E+01 -0.1775490896466E+01  0.0000000000000E+00
 0.1148916600779E+01 -0.1708985153419E+01  0.0000000000000E+00
 0.1171516291308E+01 -0.1643093937094E+01  0.0000000000000E+00
 0.1195678827404E+01 -0.1577944621747E+01  0.0000000000000E+00
 0.1221656861916E+01 -0.1513730328440E+01  0.0000000000000E+00
 0.9900418963175E+00 -0.4233414571432E+01  0.0000000000000E+00
 0.9900837925975E+00 -0.4162784557271E+01  0.0000000000000E+00
 0.9901256889566E+00 -0.4092154409997E+01  0.0000000000000E+00
 0.9901675853520E+00 -0.4021524201328E+01  0.0000000000000E+00
 0.9902094816922E+00 -0.3950894085830E+01  0.0000000000000E+00
 0.9902513780245E+00 -0.3880263983584E+01  0.0000000000000E+00
 0.9902932743622E+00 -0.3809633872364E+01  0.0000000000000E+00
 0.9903351707061E+00 -0.3739003750486E+01  0.0000000000000E+00
 0.9903770670468E+00 -0.3668373634161E+01  0.0000000000000E+00
 0.9904189633881E+00 -0.3597743516867E+01  0.0000000000000E+00
 0.9904608598056E+00 -0.3527113270985E+01  0.0000000000000E+00
 0.9905027560921E+00 -0.3456483245955E+01  0.0000000000000E+00
 0.9905446525034E+00 -0.3385853010601E+01  0.0000000000000E+00
 0.9905865495323E+00 -0.3315221733956E+01  0.0000000000000E+00
 0.9906284451757E+00 -0.3244592793103E+01  0.0000000000000E+00
 0.9906703414006E+00 -0.3173962872062E+01  0.0000000000000E+00
 0.9907122377450E+00 -0.3103332749484E+01  0.0000000000000E+00
 0.9907541340669E+00 -0.3032702664821E+01  0.0000000000000E+00
 0.9907960303345E+00 -0.2962072671585E+01  0.0000000000000E+00
 0.9909116401763E+00 -0.2891442711552E+01  0.0000000000000E+00
 0.9915479097436E+00 -0.2820816235367E+01  0.0000000000000E+00
 0.9931900324991E+00 -0.2750210009408E+01  0.0000000000000E+00
 0.9961295275201E+00 -0.2679655841445E+01  0.0000000000000E+00
 0.1000480666649E+01 -0.2609192045989E+01  0.0000000000000E+00
 0.1006256351428E+01 -0.2538855349777E+01  0.0000000000000E+00
 0.1013430372169E+01 -0.2468678713357E+01  0.0000000000000E+00
 0.1021973085736E+01 -0.2398693239484E+01  0.0000000000000E+00
 0.1031869848906E+01 -0.2328930200717E+01  0.0000000000000E+00
 0.1043131340308E+01 -0.2259425821175E+01  0.0000000000000E+00
 0.1055802157187E+01 -0.2190224925870E+01  0.0000000000000E+00
 0.1069899469226E+01 -0.2121369060273E+01  0.0000000000000E+00
 0.1085335811539E+01 -0.2052872465999E+01  0.0000000000000E+00
 0.1102045960391E+01 -0.1984750066153E+01  0.0000000000000E+00
 0.1119998624125E+01 -0.1917023637585E+01  0.0000000000000E+00
 0.1139192778749E+01 -0.1849723913474E+01  0.0000000000000E+00
 0.1159657744912E+01 -0.1782893775349E+01  0.0000000000000E+00
 0.1181456945627E+01 -0.1716593664302E+01  0.0000000000000E+00
 0.1204697466668E+01 -0.1650908081054E+01  0.0000000000000E+00
 0.1229545739873E+01 -0.1585964394114E+01  0.0000000000000E+00
 0.1256261677649E+01 -0.1521955727091E+01  0.0000000000000E+00
 0.1017533454000E+01 -0.4233625628207E+01  0.0000000000000E+00
 0.1017566907971E+01 -0.4163206670632E+01  0.0000000000000E+00
 0.1017600362004E+01 -0.4092787580343E+01  0.0000000000000E+00
 0.1017633816067E+01 -0.4022368428842E+01  0.0000000000000E+00
 0.1017667270085E+01 -0.3951949370234E+01  0.0000000000000E+00
 0.1017700724097E+01 -0.3881530324838E+01  0.0000000000000E+00
 0.1017734178114E+01 -0.3811111270494E+01  0.0000000000000E+00
 0.1017767632135E+01 -0.3740692205524E+01  0.0000000000000E+00
 0.1017801086154E+01 -0.3670273146091E+01  0.0000000000000E+00
 0.1017834540173E+01 -0.3599854085692E+01  0.0000000000000E+00
 0.1017867994254E+01 -0.3529434897089E+01  0.0000000000000E+00
 0.1017901448229E+01 -0.3459015928678E+01  0.0000000000000E+00
 0.1017934902304E+01 -0.3388596750572E+01  0.0000000000000E+00
 0.1017968356873E+01 -0.3318176534286E+01  0.0000000000000E+00
 0.1018001810335E+01 -0.3247758646812E+01  0.0000000000000E+00
 0.1018035264261E+01 -0.3177339782080E+01  0.0000000000000E+00
 0.1018068718283E+01 -0.3106920716413E+01  0.0000000000000E+00
 0.1018102172287E+01 -0.3036501688547E+01  0.0000000000000E+00
 0.1018135626247E+01 -0.2966082751835E+01  0.0000000000000E+00
 0.1018244852688E+01 -0.2895663848371E+01  0.0000000000000E+00
 0.1018889281555E+01 -0.2825248427553E+01  0.0000000000000E+00
 0.1020567658381E+01 -0.2754853254900E+01  0.0000000000000E+00
 0.1023579644669E+01 -0.2684510139275E+01  0.0000000000000E+00
 0.1028042703977E+01 -0.2614257395899E+01  0.0000000000000E+00
 0.1033970098182E+01 -0.2544131751969E+01  0.0000000000000E+00
 0.1041334885514E+01 -0.2474166168375E+01  0.0000000000000E+00
 0.1050106594904E+01 -0.2404391747033E+01  0.0000000000000E+00
 0.1060270174092E+01 -0.2334839761298E+01  0.0000000000000E+00
 0.1071836600020E+01 -0.2265546434297E+01  0.0000000000000E+00
 0.1084851715585E+01 -0.2196556591045E+01  0.0000000000000E+00
 0.1099333170002E+01 -0.2127911777862E+01  0.0000000000000E+00
 0.1115191055382E+01 -0.2059626236452E+01  0.0000000000000E+00
 0.1132358326224E+01 -0.1991714889712E+01  0.0000000000000E+00
 0.1150802816865E+01 -0.1924199514328E+01  0.0000000000000E+00
 0.1170523474713E+01 -0.1857110843424E+01  0.0000000000000E+00
 0.1191550439383E+01 -0.1790491758421E+01  0.0000000000000E+00
 0.1213948905440E+01 -0.1724402698843E+01  0.0000000000000E+00
 0.1237828949566E+01 -0.1658928168167E+01  0.0000000000000E+00
 0.1263361652507E+01 -0.1594195529007E+01  0.0000000000000E+00
 0.1290814186213E+01 -0.1530397907585E+01  0.0000000000000E+00
 0.1045023674235E+01 -0.4233842070904E+01  0.0000000000000E+00
 0.1045047348449E+01 -0.4163639555833E+01  0.0000000000000E+00
 0.1045071022707E+01 -0.4093436908455E+01  0.0000000000000E+00
 0.1045094696986E+01 -0.4023234200054E+01  0.0000000000000E+00
 0.1045118371233E+01 -0.3953031584260E+01  0.0000000000000E+00
 0.1045142045477E+01 -0.3882828981637E+01  0.0000000000000E+00
 0.1045165719723E+01 -0.3812626370094E+01  0.0000000000000E+00
 0.1045189393973E+01 -0.3742423747959E+01  0.0000000000000E+00
 0.1045213068221E+01 -0.3672221131342E+01  0.0000000000000E+00
 0.1045236742469E+01 -0.3602018513763E+01  0.0000000000000E+00
 0.1045260416760E+01 -0.3531815768374E+01  0.0000000000000E+00
 0.1045284090977E+01 -0.3461613242500E+01  0.0000000000000E+00
 0.1045307765265E+01 -0.3391410507575E+01  0.0000000000000E+00
 0.1045331439902E+01 -0.3321206737662E+01  0.0000000000000E+00
 0.1045355113756E+01 -0.3251005289403E+01  0.0000000000000E+00
 0.1045378787939E+01 -0.3180802866889E+01  0.0000000000000E+00
 0.1045402462189E+01 -0.3110600244057E+01  0.0000000000000E+00
 0.1045426136426E+01 -0.3040397658911E+01  0.0000000000000E+00
 0.1045449810633E+01 -0.2970195164638E+01  0.0000000000000E+00
 0.1045551316223E+01 -0.2899992703660E+01  0.0000000000000E+00
 0.1046202566935E+01 -0.2829793724095E+01  0.0000000000000E+00
 0.1047915860364E+01 -0.2759614990581E+01  0.0000000000000E+00
 0.1050999000424E+01 -0.2689488313102E+01  0.0000000000000E+00
 0.1055572642382E+01 -0.2619452007610E+01  0.0000000000000E+00
 0.1061650408446E+01 -0.2549542801767E+01  0.0000000000000E+00
 0.1069204624761E+01 -0.2479793656821E+01  0.0000000000000E+00
 0.1078203992335E+01 -0.2410235673824E+01  0.0000000000000E+00
 0.1088633049863E+01 -0.2340900126947E+01  0.0000000000000E+00
 0.1100503072607E+01 -0.2271823238302E+01  0.0000000000000E+00
 0.1113861149115E+01 -0.2203049832902E+01  0.0000000000000E+00
 0.1128725408128E+01 -0.2134621457944E+01  0.0000000000000E+00
 0.1145003498756E+01 -0.2066552355220E+01  0.0000000000000E+00
 0.1162626553734E+01 -0.1998857447416E+01  0.0000000000000E+00
 0.1181561533394E+01 -0.1931558511045E+01  0.0000000000000E+00
 0.1201807356548E+01 -0.1864686279179E+01  0.0000000000000E+00
 0.1223394981775E+01 -0.1798283633127E+01  0.0000000000000E+00
 0.1246391375200E+01 -0.1732411010803E+01  0.0000000000000E+00
 0.1270909604393E+01 -0.1667152918514E+01  0.0000000000000E+00
 0.1297125399040E+01 -0.1602636712827E+01  0.0000000000000E+00
 0.1325313190613E+01 -0.1539055522643E+01  0.0000000000000E+00
 0.1072512531546E+01 -0.4234063866321E+01  0.0000000000000E+00
 0.1072525063080E+01 -0.4164083146470E+01  0.0000000000000E+00
 0.1072537594638E+01 -0.4094102294730E+01  0.0000000000000E+00
 0.1072550126207E+01 -0.4024121382159E+01  0.0000000000000E+00
 0.1072562657759E+01 -0.3954140561902E+01  0.0000000000000E+00
 0.1072575189309E+01 -0.3884159754776E+01  0.0000000000000E+00
 0.1072587720861E+01 -0.3814178938758E+01  0.0000000000000E+00
 0.1072600252414E+01 -0.3744198112180E+01  0.0000000000000E+00
 0.1072612783967E+01 -0.3674217291104E+01  0.0000000000000E+00
 0.1072625315520E+01 -0.3604236469068E+01  0.0000000000000E+00
 0.1072637847095E+01 -0.3534255519626E+01  0.0000000000000E+00
 0.1072650378631E+01 -0.3464274789006E+01  0.0000000000000E+00
 0.1072662910205E+01 -0.3394293849995E+01  0.0000000000000E+00
 0.1072675441964E+01 -0.3324311879266E+01  0.0000000000000E+00
 0.1072687973307E+01 -0.3254332222856E+01  0.0000000000000E+00
 0.1072700504825E+01 -0.3184351595269E+01  0.0000000000000E+00
 0.1072713036379E+01 -0.3114370767997E+01  0.0000000000000E+00
 0.1072725567926E+01 -0.3044389978293E+01  0.0000000000000E+00
 0.1072738099457E+01 -0.2974409279174E+01  0.0000000000000E+00
 0.1072830521275E+01 -0.2904428613396E+01  0.0000000000000E+00
 0.1073487230923E+01 -0.2834451427769E+01  0.0000000000000E+00
 0.1075234078069E+01 -0.2764494486027E+01  0.0000000000000E+00
 0.1078387009034E+01 -0.2694589599303E+01  0.0000000000000E+00
 0.1083069870790E+01 -0.2624775084295E+01  0.0000000000000E+00
 0.1089296645875E+01 -0.2555087669146E+01  0.0000000000000E+00
 0.1097038928343E+01 -0.2485560315469E+01  0.0000000000000E+00
 0.1106264591286E+01 -0.2416224123429E+01  0.0000000000000E+00
 0.1116957764351E+01 -0.2347110368037E+01  0.0000000000000E+00
 0.1129130021121E+01 -0.2278255270360E+01  0.0000000000000E+00
 0.1142829695801E+01 -0.2209703655415E+01  0.0000000000000E+00
 0.1158075396650E+01 -0.2141497071292E+01  0.0000000000000E+00
 0.1174772329777E+01 -0.2073649759875E+01  0.0000000000000E+00
 0.1192849806151E+01 -0.2006176643634E+01  0.0000000000000E+00
 0.1212273912104E+01 -0.1939099498907E+01  0.0000000000000E+00
 0.1233043537849E+01 -0.1872449058708E+01  0.0000000000000E+00
 0.1255190460929E+01 -0.1806268204236E+01  0.0000000000000E+00
 0.1278783419043E+01 -0.1740617371751E+01  0.0000000000000E+00
 0.1303938470630E+01 -0.1675581070464E+01  0.0000000000000E+00
 0.1330835994357E+01 -0.1611286650742E+01  0.0000000000000E+00
 0.1359757681202E+01 -0.1547927244234E+01  0.0000000000000E+00
-0.6778574956198E+00 -0.1262067680153E+01  0.0000000000000E+00
-0.6782770661586E+00 -0.1176951538939E+01  0.0000000000000E+00
-0.6790038521434E+00 -0.1091837606340E+01  0.0000000000000E+00
-0.6800826918120E+00 -0.1006727743275E+01  0.0000000000000E+00
-0.6815616898838E+00 -0.9216243838726E+00  0.0000000000000E+00
-0.6834862980979E+00 -0.8365308372119E+00  0.0000000000000E+00
-0.6858864270538E+00 -0.7514504222619E+00  0.0000000000000E+00
-0.6887536618310E+00 -0.6663859764994E+00  0.0000000000000E+00
-0.6920116565350E+00 -0.5813369229450E+00  0.0000000000000E+00
-0.6954975963156E+00 -0.4962977947840E+00  0.0000000000000E+00
-0.6989835360050E+00 -0.4112586666193E+00  0.0000000000000E+00
-0.7022415304475E+00 -0.3262096130549E+00  0.0000000000000E+00
-0.7051087648230E+00 -0.2411451672791E+00  0.0000000000000E+00
-0.7075088932732E+00 -0.1560647523149E+00  0.0000000000000E+00
-0.7094335009094E+00 -0.7097120564155E-01  0.0000000000000E+00
-0.7109124983562E+00  0.1413215377165E-01  0.0000000000000E+00
-0.7119913373706E+00  0.9924201684453E-01  0.0000000000000E+00
-0.7127181226840E+00  0.1843559494488E+00  0.0000000000000E+00
-0.7131376925427E+00  0.2694720906668E+00  0.0000000000000E+00
-0.6423834586364E+00 -0.1257430206780E+01  0.0000000000000E+00
-0.6428079469815E+00 -0.1172076973233E+01  0.0000000000000E+00
-0.6435234815340E+00 -0.1086725948382E+01  0.0000000000000E+00
-0.6445725406163E+00 -0.1001378993222E+01  0.0000000000000E+00
-0.6460006971461E+00 -0.9160385416585E+00  0.0000000000000E+00
-0.6478510106322E+00 -0.8307079030675E+00  0.0000000000000E+00
-0.6501518174942E+00 -0.7453903958721E+00  0.0000000000000E+00
-0.6528951456395E+00 -0.6600888580888E+00  0.0000000000000E+00
-0.6560086674312E+00 -0.5748027122585E+00  0.0000000000000E+00
-0.6593381371986E+00 -0.4895264917391E+00  0.0000000000000E+00
-0.6626676068748E+00 -0.4042502712162E+00  0.0000000000000E+00
-0.6657811284050E+00 -0.3189641253765E+00  0.0000000000000E+00
-0.6685244561486E+00 -0.2336625875806E+00  0.0000000000000E+00
-0.6708252625048E+00 -0.1483450803717E+00  0.0000000000000E+00
-0.6726755754131E+00 -0.6301444176865E-01  0.0000000000000E+00
-0.6741037313179E+00  0.2232600980478E-01  0.0000000000000E+00
-0.6751527897460E+00  0.1076729649727E+00  0.0000000000000E+00
-0.6758683236271E+00  0.1930239898287E+00  0.0000000000000E+00
-0.6762928112920E+00  0.2783772233786E+00  0.0000000000000E+00
-0.6068771248225E+00 -0.1253037464350E+01  0.0000000000000E+00
-0.6073023861501E+00 -0.1167458422578E+01  0.0000000000000E+00
-0.6080025244294E+00 -0.1081881589579E+01  0.0000000000000E+00
-0.6090176580661E+00 -0.9963088264196E+00  0.0000000000000E+00
-0.6103908281695E+00 -0.9107425667951E+00  0.0000000000000E+00
-0.6121627020206E+00 -0.8251861203621E+00  0.0000000000000E+00
-0.6143600418475E+00 -0.7396428050247E+00  0.0000000000000E+00
-0.6169753183957E+00 -0.6541154593135E+00  0.0000000000000E+00
-0.6199402222819E+00 -0.5686035053123E+00  0.0000000000000E+00
-0.6231090770279E+00 -0.4831014765433E+00  0.0000000000000E+00
-0.6262779316826E+00 -0.3975994477710E+00  0.0000000000000E+00
-0.6292428353073E+00 -0.3120874937608E+00  0.0000000000000E+00
-0.6318581114538E+00 -0.2265601480377E+00  0.0000000000000E+00
-0.6340554507749E+00 -0.1410168326875E+00  0.0000000000000E+00
-0.6358273240482E+00 -0.5546038624327E-01  0.0000000000000E+00
-0.6372004935266E+00  0.3010587339095E-01  0.0000000000000E+00
-0.6382156265091E+00  0.1156786365575E+00  0.0000000000000E+00
-0.6389157641170E+00  0.2012554695615E+00  0.0000000000000E+00
-0.6393410247644E+00  0.2868345113357E+00  0.0000000000000E+00
-0.5713401376445E+00 -0.1248890411137E+01  0.0000000000000E+00
-0.5717622009905E+00 -0.1163097082270E+01  0.0000000000000E+00
-0.5724429720439E+00 -0.1077305962247E+01  0.0000000000000E+00
-0.5734202092963E+00 -0.9915189122057E+00  0.0000000000000E+00
-0.5747344220463E+00 -0.9057383656401E+00  0.0000000000000E+00
-0.5764238853537E+00 -0.8199676324743E+00  0.0000000000000E+00
-0.5785137872467E+00 -0.7342100301194E+00  0.0000000000000E+00
-0.5809970413178E+00 -0.6484683975936E+00  0.0000000000000E+00
-0.5838093564268E+00 -0.5627421565474E+00  0.0000000000000E+00
-0.5868136252857E+00 -0.4770258406587E+00  0.0000000000000E+00
-0.5898178940533E+00 -0.3913095247669E+00  0.0000000000000E+00
-0.5926302089008E+00 -0.3055832837122E+00  0.0000000000000E+00
-0.5951134625703E+00 -0.2198416511753E+00  0.0000000000000E+00
-0.5972033639575E+00 -0.1340840488083E+00  0.0000000000000E+00
-0.5988928266870E+00 -0.4831331563190E-01  0.0000000000000E+00
-0.6002070388120E+00  0.3746723094278E-01  0.0000000000000E+00
-0.6011842754101E+00  0.1232542809908E+00  0.0000000000000E+00
-0.6018650457922E+00  0.2090454010180E+00  0.0000000000000E+00
-0.6022871084581E+00  0.2948387298880E+00  0.0000000000000E+00
-0.5357741369022E+00 -0.1244989956190E+01  0.0000000000000E+00
-0.5361892110234E+00 -0.1158994088951E+01  0.0000000000000E+00
-0.5368468236192E+00 -0.1073000430625E+01  0.0000000000000E+00
-0.5377823732698E+00 -0.9870108424148E+00  0.0000000000000E+00
-0.5390338374614E+00 -0.9010277576241E+00  0.0000000000000E+00
-0.5406370990385E+00 -0.8150544864300E+00  0.0000000000000E+00
-0.5426157718221E+00 -0.7290943457776E+00  0.0000000000000E+00
-0.5449632122597E+00 -0.6431501751464E+00  0.0000000000000E+00
-0.5476191474442E+00 -0.5572213957766E+00  0.0000000000000E+00
-0.5504550392749E+00 -0.4713025414940E+00  0.0000000000000E+00
-0.5532909310144E+00 -0.3853836872084E+00  0.0000000000000E+00
-0.5559468659374E+00 -0.2994549078308E+00  0.0000000000000E+00
-0.5582943059733E+00 -0.2135107371891E+00  0.0000000000000E+00
-0.5602729782511E+00 -0.1275505965254E+00  0.0000000000000E+00
-0.5618762392504E+00 -0.4157732532137E-01  0.0000000000000E+00
-0.5631277028170E+00  0.4440575947785E-01  0.0000000000000E+00
-0.5640632518133E+00  0.1303953476947E+00  0.0000000000000E+00
-0.5647208637377E+00  0.2163890060246E+00  0.0000000000000E+00
-0.5651359371787E+00  0.3023848732658E+00  0.0000000000000E+00
-0.5001808381180E+00 -0.1241336966218E+01  0.0000000000000E+00
-0.5005853091216E+00 -0.1155150525915E+01  0.0000000000000E+00
-0.5012161493549E+00 -0.1068966294589E+01  0.0000000000000E+00
-0.5021063974859E+00 -0.9827861335033E+00  0.0000000000000E+00
-0.5032914991826E+00 -0.8966124757853E+00  0.0000000000000E+00
-0.5048049450772E+00 -0.8104486318491E+00  0.0000000000000E+00
-0.5066687747735E+00 -0.7242979182013E+00  0.0000000000000E+00
-0.5088767875828E+00 -0.6381631747553E+00  0.0000000000000E+00
-0.5113727288271E+00 -0.5520438223657E+00  0.0000000000000E+00
-0.5140366296026E+00 -0.4659343949968E+00  0.0000000000000E+00
-0.5167005302870E+00 -0.3798249676253E+00  0.0000000000000E+00
-0.5191964712696E+00 -0.2937056152283E+00  0.0000000000000E+00
-0.5214044836774E+00 -0.2075708717725E+00  0.0000000000000E+00
-0.5232683128678E+00 -0.1214201581142E+00  0.0000000000000E+00
-0.5247817581846E+00 -0.3525631416868E-01  0.0000000000000E+00
-0.5259668592563E+00  0.5091734355727E-01  0.0000000000000E+00
-0.5268571067330E+00  0.1370975046484E+00  0.0000000000000E+00
-0.5274879462949E+00  0.2232817359786E+00  0.0000000000000E+00
-0.5278924166184E+00  0.3094681762846E+00  0.0000000000000E+00
-0.4645619564064E+00 -0.1237932258017E+01  0.0000000000000E+00
-0.4649524100802E+00 -0.1151567419413E+01  0.0000000000000E+00
-0.4655530637473E+00 -0.1065204789847E+01  0.0000000000000E+00
-0.4663945961656E+00 -0.9788462306392E+00  0.0000000000000E+00
-0.4675099211833E+00 -0.8924941747498E+00  0.0000000000000E+00
-0.4689301372252E+00 -0.8061519328155E+00  0.0000000000000E+00
-0.4706757096711E+00 -0.7198228209325E+00  0.0000000000000E+00
-0.4727408807035E+00 -0.6335096794204E+00  0.0000000000000E+00
-0.4750734138646E+00 -0.5472119287727E+00  0.0000000000000E+00
-0.4775619094464E+00 -0.4609241030837E+00  0.0000000000000E+00
-0.4800504049371E+00 -0.3746362773921E+00  0.0000000000000E+00
-0.4823829378366E+00 -0.2883385267376E+00  0.0000000000000E+00
-0.4844481084674E+00 -0.2020253852164E+00  0.0000000000000E+00
-0.4861936804074E+00 -0.1156962733237E+00  0.0000000000000E+00
-0.4876138958714E+00 -0.2935403138074E-01  0.0000000000000E+00
-0.4887292202642E+00  0.5699802451606E-01  0.0000000000000E+00
-0.4895707520282E+00  0.1433565837290E+00  0.0000000000000E+00
-0.4901714050239E+00  0.2297192132988E+00  0.0000000000000E+00
-0.4905618580176E+00  0.3160840519049E+00  0.0000000000000E+00
-0.4289192212257E+00 -0.1234776597180E+01  0.0000000000000E+00
-0.4292924445295E+00 -0.1148245732540E+01  0.0000000000000E+00
-0.4298596985868E+00 -0.1061717076994E+01  0.0000000000000E+00
-0.4306493022459E+00 -0.9751924919160E+00  0.0000000000000E+00
-0.4316916375313E+00 -0.8886744101102E+00  0.0000000000000E+00
-0.4330154106638E+00 -0.8021661424208E+00  0.0000000000000E+00
-0.4346395127912E+00 -0.7156710045621E+00  0.0000000000000E+00
-0.4365586289750E+00 -0.6291918372315E+00  0.0000000000000E+00
-0.4387245409721E+00 -0.5427280605867E+00  0.0000000000000E+00
-0.4410344182749E+00 -0.4562742088428E+00  0.0000000000000E+00
-0.4433442954865E+00 -0.3698203570966E+00  0.0000000000000E+00
-0.4455102072220E+00 -0.2833565804456E+00  0.0000000000000E+00
-0.4474293230042E+00 -0.1968774131066E+00  0.0000000000000E+00
-0.4490534246258E+00 -0.1103822752388E+00  0.0000000000000E+00
-0.4503771971804E+00 -0.2387400754147E-01  0.0000000000000E+00
-0.4514195318408E+00  0.6264407427117E-01  0.0000000000000E+00
-0.4522091348456E+00  0.1491686593542E+00  0.0000000000000E+00
-0.4527763882315E+00  0.2356973149040E+00  0.0000000000000E+00
-0.4531496108551E+00  0.3222281795461E+00  0.0000000000000E+00
-0.3932543780196E+00 -0.1231870698467E+01  0.0000000000000E+00
-0.3936073729461E+00 -0.1145186367233E+01  0.0000000000000E+00
-0.3941382293917E+00 -0.1058504245145E+01  0.0000000000000E+00
-0.3948729062967E+00 -0.9718261936258E+00  0.0000000000000E+00
-0.3958392538597E+00 -0.8851546453368E+00  0.0000000000000E+00
-0.3970635861021E+00 -0.7984929113133E+00  0.0000000000000E+00
-0.3985632199332E+00 -0.7118443069165E+00  0.0000000000000E+00
-0.4003332833000E+00 -0.6252116731933E+00  0.0000000000000E+00
-0.4023295761670E+00 -0.5385944299907E+00  0.0000000000000E+00
-0.4044578372269E+00 -0.4519871116356E+00  0.0000000000000E+00
-0.4065860981956E+00 -0.3653797932784E+00  0.0000000000000E+00
-0.4085823908010E+00 -0.2787625500701E+00  0.0000000000000E+00
-0.4103524537661E+00 -0.1921299163392E+00  0.0000000000000E+00
-0.4118520870914E+00 -0.1054813119341E+00  0.0000000000000E+00
-0.4130764187560E+00 -0.1881957790332E-01  0.0000000000000E+00
-0.4140427656940E+00  0.6785197039194E-01  0.0000000000000E+00
-0.4147774419447E+00  0.1545300219154E+00  0.0000000000000E+00
-0.4153082977189E+00  0.2412121440070E+00  0.0000000000000E+00
-0.4156612919653E+00  0.3278964752429E+00  0.0000000000000E+00
-0.3575691979619E+00 -0.1229215224608E+01  0.0000000000000E+00
-0.3578991845277E+00 -0.1142390160639E+01  0.0000000000000E+00
-0.3583908633752E+00 -0.1055567305864E+01  0.0000000000000E+00
-0.3590678335372E+00 -0.9687485217511E+00  0.0000000000000E+00
-0.3599554133833E+00 -0.8819362408292E+00  0.0000000000000E+00
-0.3610775247381E+00 -0.7951337743095E+00  0.0000000000000E+00
-0.3624499102658E+00 -0.7083444372294E+00  0.0000000000000E+00
-0.3640681408054E+00 -0.6215710709562E+00  0.0000000000000E+00
-0.3658920345241E+00 -0.5348130950523E+00  0.0000000000000E+00
-0.3678358993193E+00 -0.4480650439469E+00  0.0000000000000E+00
-0.3697797640233E+00 -0.3613169928396E+00  0.0000000000000E+00
-0.3716036574805E+00 -0.2745590169304E+00  0.0000000000000E+00
-0.3732218876184E+00 -0.1877856506502E+00  0.0000000000000E+00
-0.3745942726403E+00 -0.1009963135626E+00  0.0000000000000E+00
-0.3757163834173E+00 -0.1419384703630E-01  0.0000000000000E+00
-0.3766039626383E+00  0.7261843389131E-01  0.0000000000000E+00
-0.3772809321460E+00  0.1594372180084E+00  0.0000000000000E+00
-0.3777726103222E+00  0.2462600727866E+00  0.0000000000000E+00
-0.3781025962077E+00  0.3330851367569E+00  0.0000000000000E+00
-0.3218654826118E+00 -0.1226810785876E+01  0.0000000000000E+00
-0.3221699083761E+00 -0.1139857885184E+01  0.0000000000000E+00
-0.3226198571880E+00 -0.1052907193727E+01  0.0000000000000E+00
-0.3232365681736E+00 -0.9659605730175E+00  0.0000000000000E+00
-0.3240428278714E+00 -0.8790204554635E+00  0.0000000000000E+00
-0.3250601659129E+00 -0.7920901524360E+00  0.0000000000000E+00
-0.3263027507117E+00 -0.7051729786780E+00  0.0000000000000E+00
-0.3277665960040E+00 -0.6182717758481E+00  0.0000000000000E+00
-0.3294155381548E+00 -0.5313859632499E+00  0.0000000000000E+00
-0.3311724542660E+00 -0.4445100754058E+00  0.0000000000000E+00
-0.3329293702861E+00 -0.3576341875599E+00  0.0000000000000E+00
-0.3345783121753E+00 -0.2707483749570E+00  0.0000000000000E+00
-0.3360421570660E+00 -0.1838471721208E+00  0.0000000000000E+00
-0.3372847413589E+00 -0.9692999835613E-01  0.0000000000000E+00
-0.3383020788226E+00 -0.9999695322564E-02  0.0000000000000E+00
-0.3391083378954E+00  0.7694042223655E-01  0.0000000000000E+00
-0.3397250482267E+00  0.1638870429499E+00  0.0000000000000E+00
-0.3401749963672E+00  0.2508377344090E+00  0.0000000000000E+00
-0.3404794214513E+00  0.3377906351034E+00  0.0000000000000E+00
-0.2861450373520E+00 -0.1224657936950E+01  0.0000000000000E+00
-0.2864215844532E+00 -0.1137590244331E+01  0.0000000000000E+00
-0.2868274853715E+00 -0.1050524760987E+01  0.0000000000000E+00
-0.2873816193277E+00 -0.9634633484665E+00  0.0000000000000E+00
-0.2881042410273E+00 -0.8764084390695E+00  0.0000000000000E+00
-0.2890144879123E+00 -0.7893633443104E+00  0.0000000000000E+00
-0.2901249541400E+00 -0.7023313786683E+00  0.0000000000000E+00
-0.2914320963498E+00 -0.6153153840630E+00  0.0000000000000E+00
-0.2929037690984E+00 -0.5283147795659E+00  0.0000000000000E+00
-0.2944714186929E+00 -0.4413240997829E+00  0.0000000000000E+00
-0.2960390681962E+00 -0.3543334199984E+00  0.0000000000000E+00
-0.2975107406832E+00 -0.2673328154971E+00  0.0000000000000E+00
-0.2988178824914E+00 -0.1803168208862E+00  0.0000000000000E+00
-0.2999283482133E+00 -0.9328485523812E-01  0.0000000000000E+00
-0.3008385945204E+00 -0.6239760473675E-02  0.0000000000000E+00
-0.3015612155950E+00  0.8081514892790E-01  0.0000000000000E+00
-0.3021153488969E+00  0.1678765614522E+00  0.0000000000000E+00
-0.3025212491438E+00  0.2549420447980E+00  0.0000000000000E+00
-0.3027977955648E+00  0.3420097374179E+00  0.0000000000000E+00
-0.2504096817960E+00 -0.1222757176891E+01  0.0000000000000E+00
-0.2506562726981E+00 -0.1135587871943E+01  0.0000000000000E+00
-0.2510160481881E+00 -0.1048420776304E+01  0.0000000000000E+00
-0.2515055275823E+00 -0.9612577515542E+00  0.0000000000000E+00
-0.2521424337517E+00 -0.8741012299005E+00  0.0000000000000E+00
-0.2529435119511E+00 -0.7869545229834E+00  0.0000000000000E+00
-0.2539197820773E+00 -0.6998209450482E+00  0.0000000000000E+00
-0.2550681436771E+00 -0.6127033382460E+00  0.0000000000000E+00
-0.2563604694946E+00 -0.5256011214427E+00  0.0000000000000E+00
-0.2577367750435E+00 -0.4385088293183E+00  0.0000000000000E+00
-0.2591130805012E+00 -0.3514165371924E+00  0.0000000000000E+00
-0.2604054060573E+00 -0.2643143203854E+00  0.0000000000000E+00
-0.2615537672554E+00 -0.1771967135784E+00  0.0000000000000E+00
-0.2625300368757E+00 -0.9006313563793E-01  0.0000000000000E+00
-0.2633311144972E+00 -0.2916428716145E-02  0.0000000000000E+00
-0.2639680200416E+00  0.8424009294153E-01  0.0000000000000E+00
-0.2644574987815E+00  0.1714031176939E+00  0.0000000000000E+00
-0.2648172736002E+00  0.2585702133351E+00  0.0000000000000E+00
-0.2650638638220E+00  0.3457395182847E+00  0.0000000000000E+00
-0.2146612485249E+00 -0.1221108948317E+01  0.0000000000000E+00
-0.2148760519034E+00 -0.1133851330987E+01  0.0000000000000E+00
-0.2151878706402E+00 -0.1046595922996E+01  0.0000000000000E+00
-0.2156108641473E+00 -0.9593445859525E+00  0.0000000000000E+00
-0.2161602234591E+00 -0.8720997519805E+00  0.0000000000000E+00
-0.2168503016456E+00 -0.7848647328308E+00  0.0000000000000E+00
-0.2176905443385E+00 -0.6976428425456E+00  0.0000000000000E+00
-0.2186782939965E+00 -0.6104369234771E+00  0.0000000000000E+00
-0.2197894415477E+00 -0.5232463943124E+00  0.0000000000000E+00
-0.2209725717140E+00 -0.4360657897959E+00  0.0000000000000E+00
-0.2221557017892E+00 -0.3488851852782E+00  0.0000000000000E+00
-0.2232668490789E+00 -0.2616946561104E+00  0.0000000000000E+00
-0.2242545983352E+00 -0.1744887370377E+00  0.0000000000000E+00
-0.2250948405222E+00 -0.8726684674795E-01  0.0000000000000E+00
-0.2257849181308E+00 -0.3182759427317E-04  0.0000000000000E+00
-0.2263342768177E+00  0.8721300638113E-01  0.0000000000000E+00
-0.2267572696704E+00  0.1744643434270E+00  0.0000000000000E+00
-0.2270690877358E+00  0.2617197514199E+00  0.0000000000000E+00
-0.2272838904341E+00  0.3489773687512E+00  0.0000000000000E+00
-0.1789015764263E+00 -0.1219713636439E+01  0.0000000000000E+00
-0.1790830136144E+00 -0.1132381112142E+01  0.0000000000000E+00
-0.1793452969311E+00 -0.1045050797208E+01  0.0000000000000E+00
-0.1797002258847E+00 -0.9577245532724E+00  0.0000000000000E+00
-0.1801604596716E+00 -0.8704048123869E+00  0.0000000000000E+00
-0.1807379591784E+00 -0.7830948863965E+00  0.0000000000000E+00
-0.1814405957685E+00 -0.6957980891710E+00  0.0000000000000E+00
-0.1822661548159E+00 -0.6085172632330E+00  0.0000000000000E+00
-0.1831945454296E+00 -0.5212518271183E+00  0.0000000000000E+00
-0.1841829215412E+00 -0.4339963156258E+00  0.0000000000000E+00
-0.1851712975617E+00 -0.3467408041322E+00  0.0000000000000E+00
-0.1860996879139E+00 -0.2594753680149E+00  0.0000000000000E+00
-0.1869252465596E+00 -0.1721945420735E+00  0.0000000000000E+00
-0.1876278826438E+00 -0.8489774484416E-01  0.0000000000000E+00
-0.1882053815728E+00  0.2412181149585E-02  0.0000000000000E+00
-0.1886656147347E+00  0.8973192203785E-01  0.0000000000000E+00
-0.1890205430340E+00  0.1770581659759E+00  0.0000000000000E+00
-0.1892828256793E+00  0.2643884809106E+00  0.0000000000000E+00
-0.1894642621872E+00  0.3517210052090E+00  0.0000000000000E+00
-0.1431325314919E+00 -0.1218571569045E+01  0.0000000000000E+00
-0.1432792793728E+00 -0.1131177633129E+01  0.0000000000000E+00
-0.1434907041544E+00 -0.1043785906598E+01  0.0000000000000E+00
-0.1437762454418E+00 -0.9563982511045E+00  0.0000000000000E+00
-0.1441460305922E+00 -0.8690170986448E+00  0.0000000000000E+00
-0.1446096283113E+00 -0.7816457611397E+00  0.0000000000000E+00
-0.1451733356905E+00 -0.6942875523177E+00  0.0000000000000E+00
-0.1458353810224E+00 -0.6069453148415E+00  0.0000000000000E+00
-0.1465796915941E+00 -0.5196184671224E+00  0.0000000000000E+00
-0.1473719905470E+00 -0.4323015440042E+00  0.0000000000000E+00
-0.1481642894086E+00 -0.3449846208852E+00  0.0000000000000E+00
-0.1489085997188E+00 -0.2576577731640E+00  0.0000000000000E+00
-0.1495706446490E+00 -0.1703155356850E+00  0.0000000000000E+00
-0.1501343515224E+00 -0.8295732686004E-01  0.0000000000000E+00
-0.1505979486635E+00  0.4414010647753E-02  0.0000000000000E+00
-0.1509677331890E+00  0.9179516310974E-01  0.0000000000000E+00
-0.1512532738221E+00  0.1791828186046E+00  0.0000000000000E+00
-0.1514646979322E+00  0.2665745451367E+00  0.0000000000000E+00
-0.1516114451329E+00  0.3539684810533E+00  0.0000000000000E+00
-0.1073559775584E+00 -0.1217683014787E+01  0.0000000000000E+00
-0.1074669729805E+00 -0.1130241236752E+01  0.0000000000000E+00
-0.1076264760765E+00 -0.1042801668119E+01  0.0000000000000E+00
-0.1078415665488E+00 -0.9553661705542E+00  0.0000000000000E+00
-0.1081198399148E+00 -0.8679371760100E+00  0.0000000000000E+00
-0.1084684727000E+00 -0.7805179964667E+00  0.0000000000000E+00
-0.1088921877222E+00 -0.6931119455429E+00  0.0000000000000E+00
-0.1093896561947E+00 -0.6057218660102E+00  0.0000000000000E+00
-0.1099488235801E+00 -0.5183471761831E+00  0.0000000000000E+00
-0.1105439822303E+00 -0.4309824109404E+00  0.0000000000000E+00
-0.1111391407892E+00 -0.3436176456970E+00  0.0000000000000E+00
-0.1116983079131E+00 -0.2562429558684E+00  0.0000000000000E+00
-0.1121957759839E+00 -0.1688528763335E+00  0.0000000000000E+00
-0.1126194905003E+00 -0.8144682540749E-01  0.0000000000000E+00
-0.1129681227076E+00  0.5972354137743E-02  0.0000000000000E+00
-0.1132463954486E+00  0.9340134868365E-01  0.0000000000000E+00
-0.1134614852666E+00  0.1808368462493E+00  0.0000000000000E+00
-0.1136209876912E+00  0.2682764148838E+00  0.0000000000000E+00
-0.1137319824330E+00  0.3557181929189E+00  0.0000000000000E+00
-0.7157378539324E-01 -0.1217048183171E+01  0.0000000000000E+00
-0.7164822826765E-01 -0.1129572190533E+01  0.0000000000000E+00
-0.7175500958976E-01 -0.1042098407307E+01  0.0000000000000E+00
-0.7189884915972E-01 -0.9546286951723E+00  0.0000000000000E+00
-0.7208481065407E-01 -0.8671654860487E+00  0.0000000000000E+00
-0.7231767841974E-01 -0.7797120919591E+00  0.0000000000000E+00
-0.7260060099874E-01 -0.6922718264434E+00  0.0000000000000E+00
-0.7293269252678E-01 -0.6048475323512E+00  0.0000000000000E+00
-0.7330591664062E-01 -0.5174386279278E+00  0.0000000000000E+00
-0.7370313490275E-01 -0.4300396480768E+00  0.0000000000000E+00
-0.7410035307365E-01 -0.3426406682255E+00  0.0000000000000E+00
-0.7447357692595E-01 -0.2552317638011E+00  0.0000000000000E+00
-0.7480566805232E-01 -0.1678074697074E+00  0.0000000000000E+00
-0.7508859012547E-01 -0.8036720419022E-01  0.0000000000000E+00
-0.7532145731324E-01  0.7086189900652E-02  0.0000000000000E+00
-0.7550741818259E-01  0.9454939902542E-01  0.0000000000000E+00
-0.7565125709823E-01  0.1820191111605E+00  0.0000000000000E+00
-0.7575803774893E-01  0.2694928943870E+00  0.0000000000000E+00
-0.7583247994311E-01  0.3569688870258E+00  0.0000000000000E+00
-0.3578783098112E-01 -0.1216667224146E+01  0.0000000000000E+00
-0.3582518662058E-01 -0.1129170686043E+01  0.0000000000000E+00
-0.3587871148179E-01 -0.1041676357359E+01  0.0000000000000E+00
-0.3595076546273E-01 -0.9541860997805E+00  0.0000000000000E+00
-0.3604388039874E-01 -0.8667023452065E+00  0.0000000000000E+00
-0.3616044845866E-01 -0.7792284056865E+00  0.0000000000000E+00
-0.3630204390757E-01 -0.6917675947129E+00  0.0000000000000E+00
-0.3646822380494E-01 -0.6043227551822E+00  0.0000000000000E+00
-0.3665496996040E-01 -0.5168933052982E+00  0.0000000000000E+00
-0.3685371314750E-01 -0.4294737799797E+00  0.0000000000000E+00
-0.3705245624338E-01 -0.3420542546609E+00  0.0000000000000E+00
-0.3723920213730E-01 -0.2546248047764E+00  0.0000000000000E+00
-0.3740538163300E-01 -0.1671799652449E+00  0.0000000000000E+00
-0.3754697657605E-01 -0.7971915427061E-01  0.0000000000000E+00
-0.3766354405808E-01  0.7754785250058E-02  0.0000000000000E+00
-0.3775665836908E-01  0.9523853982455E-01  0.0000000000000E+00
-0.3782871169569E-01  0.1827287974037E+00  0.0000000000000E+00
-0.3788223588549E-01  0.2702231260879E+00  0.0000000000000E+00
-0.3791959084473E-01  0.3577196641912E+00  0.0000000000000E+00
 0.6209850736676E-08 -0.1216540227813E+01  0.0000000000000E+00
 0.5524735811083E-08 -0.1129036838433E+01  0.0000000000000E+00
 0.4843998396465E-08 -0.1041535658474E+01  0.0000000000000E+00
 0.4171790525972E-08 -0.9540385496249E+00  0.0000000000000E+00
 0.3514266425853E-08 -0.8665479437785E+00  0.0000000000000E+00
 0.2880364529407E-08 -0.7790671529925E+00  0.0000000000000E+00
 0.2282599226633E-08 -0.6915994907437E+00  0.0000000000000E+00
 0.1737109434959E-08 -0.6041477999442E+00  0.0000000000000E+00
 0.1261877266097E-08 -0.5167114987841E+00  0.0000000000000E+00
 0.8719449662753E-09 -0.4292851221871E+00  0.0000000000000E+00
 0.5732300334473E-09 -0.3418587455901E+00  0.0000000000000E+00
 0.3595447320818E-09 -0.2544224444300E+00  0.0000000000000E+00
 0.2157243325992E-09 -0.1669707536305E+00  0.0000000000000E+00
 0.1238229916565E-09 -0.7950309138169E-01  0.0000000000000E+00
 0.6781348193177E-10  0.7977699404264E-02  0.0000000000000E+00
 0.3529812102035E-10  0.9546830525066E-01  0.0000000000000E+00
 0.1742641910935E-10  0.1829654140998E+00  0.0000000000000E+00
 0.8104205705961E-11  0.2704665940585E+00  0.0000000000000E+00
 0.3215440234396E-11  0.3579699834387E+00  0.0000000000000E+00
 0.3578784340053E-01 -0.1216667224235E+01  0.0000000000000E+00
 0.3582519766977E-01 -0.1129170686128E+01  0.0000000000000E+00
 0.3587872116953E-01 -0.1041676357439E+01  0.0000000000000E+00
 0.3595077380607E-01 -0.9541860998557E+00  0.0000000000000E+00
 0.3604388742704E-01 -0.8667023452767E+00  0.0000000000000E+00
 0.3616045421917E-01 -0.7792284057513E+00  0.0000000000000E+00
 0.3630204847257E-01 -0.6917675947721E+00  0.0000000000000E+00
 0.3646822727897E-01 -0.6043227552356E+00  0.0000000000000E+00
 0.3665497248399E-01 -0.5168933053458E+00  0.0000000000000E+00
 0.3685371489124E-01 -0.4294737800217E+00  0.0000000000000E+00
 0.3705245738970E-01 -0.3420542546977E+00  0.0000000000000E+00
 0.3723920285627E-01 -0.2546248048085E+00  0.0000000000000E+00
 0.3740538206434E-01 -0.1671799652727E+00  0.0000000000000E+00
 0.3754697682360E-01 -0.7971915429417E-01  0.0000000000000E+00
 0.3766354419363E-01  0.7754785230528E-02  0.0000000000000E+00
 0.3775665843962E-01  0.9523853980896E-01  0.0000000000000E+00
 0.3782871173050E-01  0.1827287973920E+00  0.0000000000000E+00
 0.3788223590167E-01  0.2702231260801E+00  0.0000000000000E+00
 0.3791959085114E-01  0.3577196641874E+00  0.0000000000000E+00
 0.7157379781176E-01 -0.1217048183348E+01  0.0000000000000E+00
 0.7164823931600E-01 -0.1129572190701E+01  0.0000000000000E+00
 0.7175501927670E-01 -0.1042098407466E+01  0.0000000000000E+00
 0.7189885750231E-01 -0.9546286953227E+00  0.0000000000000E+00
 0.7208481768167E-01 -0.8671654861889E+00  0.0000000000000E+00
 0.7231768417959E-01 -0.7797120920887E+00  0.0000000000000E+00
 0.7260060556313E-01 -0.6922718265617E+00  0.0000000000000E+00
 0.7293269600025E-01 -0.6048475324578E+00  0.0000000000000E+00
 0.7330591916369E-01 -0.5174386280229E+00  0.0000000000000E+00
 0.7370313664601E-01 -0.4300396481608E+00  0.0000000000000E+00
 0.7410035421955E-01 -0.3426406682992E+00  0.0000000000000E+00
 0.7447357764454E-01 -0.2552317638653E+00  0.0000000000000E+00
 0.7480566848334E-01 -0.1678074697628E+00  0.0000000000000E+00
 0.7508859037274E-01 -0.8036720423734E-01  0.0000000000000E+00
 0.7532145744856E-01  0.7086189861597E-02  0.0000000000000E+00
 0.7550741825294E-01  0.9454939899424E-01  0.0000000000000E+00
 0.7565125713289E-01  0.1820191111371E+00  0.0000000000000E+00
 0.7575803776501E-01  0.2694928943715E+00  0.0000000000000E+00
 0.7583247994948E-01  0.3569688870181E+00  0.0000000000000E+00
 0.1073559899754E+00 -0.1217683015053E+01  0.0000000000000E+00
 0.1074669840274E+00 -0.1130241237005E+01  0.0000000000000E+00
 0.1076264857621E+00 -0.1042801668358E+01  0.0000000000000E+00
 0.1078415748901E+00 -0.9553661707798E+00  0.0000000000000E+00
 0.1081198469412E+00 -0.8679371762203E+00  0.0000000000000E+00
 0.1084684784588E+00 -0.7805179966610E+00  0.0000000000000E+00
 0.1088921922856E+00 -0.6931119457203E+00  0.0000000000000E+00
 0.1093896596672E+00 -0.6057218661702E+00  0.0000000000000E+00
 0.1099488261023E+00 -0.5183471763258E+00  0.0000000000000E+00
 0.1105439839728E+00 -0.4309824110663E+00  0.0000000000000E+00
 0.1111391419344E+00 -0.3436176458075E+00  0.0000000000000E+00
 0.1116983086311E+00 -0.2562429559646E+00  0.0000000000000E+00
 0.1121957764143E+00 -0.1688528764166E+00  0.0000000000000E+00
 0.1126194907471E+00 -0.8144682547815E-01  0.0000000000000E+00
 0.1129681228425E+00  0.5972354079172E-02  0.0000000000000E+00
 0.1132463955186E+00  0.9340134863688E-01  0.0000000000000E+00
 0.1134614853010E+00  0.1808368462143E+00  0.0000000000000E+00
 0.1136209877071E+00  0.2682764148604E+00  0.0000000000000E+00
 0.1137319824393E+00  0.3557181929073E+00  0.0000000000000E+00
 0.1431325439069E+00 -0.1218571569399E+01  0.0000000000000E+00
 0.1432792904178E+00 -0.1131177633466E+01  0.0000000000000E+00
 0.1434907138381E+00 -0.1043785906917E+01  0.0000000000000E+00
 0.1437762537814E+00 -0.9563982514053E+00  0.0000000000000E+00
 0.1441460376170E+00 -0.8690170989253E+00  0.0000000000000E+00
 0.1446096340685E+00 -0.7816457613987E+00  0.0000000000000E+00
 0.1451733402525E+00 -0.6942875525541E+00  0.0000000000000E+00
 0.1458353844936E+00 -0.6069453150547E+00  0.0000000000000E+00
 0.1465796941151E+00 -0.5196184673125E+00  0.0000000000000E+00
 0.1473719922884E+00 -0.4323015441721E+00  0.0000000000000E+00
 0.1481642905529E+00 -0.3449846210325E+00  0.0000000000000E+00
 0.1489086004358E+00 -0.2576577732924E+00  0.0000000000000E+00
 0.1495706450787E+00 -0.1703155357958E+00  0.0000000000000E+00
 0.1501343517685E+00 -0.8295732695422E-01  0.0000000000000E+00
 0.1505979487979E+00  0.4414010569677E-02  0.0000000000000E+00
 0.1509677332586E+00  0.9179516304740E-01  0.0000000000000E+00
 0.1512532738562E+00  0.1791828185579E+00  0.0000000000000E+00
 0.1514646979479E+00  0.2665745451056E+00  0.0000000000000E+00
 0.1516114451391E+00  0.3539684810378E+00  0.0000000000000E+00
 0.1789015888386E+00 -0.1219713636882E+01  0.0000000000000E+00
 0.1790830246568E+00 -0.1132381112564E+01  0.0000000000000E+00
 0.1793453066125E+00 -0.1045050797608E+01  0.0000000000000E+00
 0.1797002342220E+00 -0.9577245536482E+00  0.0000000000000E+00
 0.1801604666943E+00 -0.8704048127374E+00  0.0000000000000E+00
 0.1807379649337E+00 -0.7830948867202E+00  0.0000000000000E+00
 0.1814406003287E+00 -0.6957980894664E+00  0.0000000000000E+00
 0.1822661582854E+00 -0.6085172634995E+00  0.0000000000000E+00
 0.1831945479491E+00 -0.5212518273559E+00  0.0000000000000E+00
 0.1841829232813E+00 -0.4339963158356E+00  0.0000000000000E+00
 0.1851712987046E+00 -0.3467408043163E+00  0.0000000000000E+00
 0.1860996886299E+00 -0.2594753681753E+00  0.0000000000000E+00
 0.1869252469883E+00 -0.1721945422119E+00  0.0000000000000E+00
 0.1876278828891E+00 -0.8489774496185E-01  0.0000000000000E+00
 0.1882053817065E+00  0.2412181052021E-02  0.0000000000000E+00
 0.1886656148037E+00  0.8973192195995E-01  0.0000000000000E+00
 0.1890205430676E+00  0.1770581659176E+00  0.0000000000000E+00
 0.1892828256947E+00  0.2643884808718E+00  0.0000000000000E+00
 0.1894642621932E+00  0.3517210051896E+00  0.0000000000000E+00
 0.2146612609340E+00 -0.1221108948849E+01  0.0000000000000E+00
 0.2148760629428E+00 -0.1133851331493E+01  0.0000000000000E+00
 0.2151878803187E+00 -0.1046595923475E+01  0.0000000000000E+00
 0.2156108724819E+00 -0.9593445864034E+00  0.0000000000000E+00
 0.2161602304793E+00 -0.8720997524010E+00  0.0000000000000E+00
 0.2168503073985E+00 -0.7848647332192E+00  0.0000000000000E+00
 0.2176905488964E+00 -0.6976428429001E+00  0.0000000000000E+00
 0.2186782974640E+00 -0.6104369237968E+00  0.0000000000000E+00
 0.2197894440653E+00 -0.5232463945975E+00  0.0000000000000E+00
 0.2209725734523E+00 -0.4360657900476E+00  0.0000000000000E+00
 0.2221557029306E+00 -0.3488851854990E+00  0.0000000000000E+00
 0.2232668497935E+00 -0.2616946563028E+00  0.0000000000000E+00
 0.2242545987627E+00 -0.1744887372037E+00  0.0000000000000E+00
 0.2250948407665E+00 -0.8726684688914E-01  0.0000000000000E+00
 0.2257849182636E+00 -0.3182771130406E-04  0.0000000000000E+00
 0.2263342768860E+00  0.8721300628769E-01  0.0000000000000E+00
 0.2267572697036E+00  0.1744643433570E+00  0.0000000000000E+00
 0.2270690877509E+00  0.2617197513733E+00  0.0000000000000E+00
 0.2272838904400E+00  0.3489773687279E+00  0.0000000000000E+00
 0.2504096942013E+00 -0.1222757177511E+01  0.0000000000000E+00
 0.2506562837339E+00 -0.1135587872533E+01  0.0000000000000E+00
 0.2510160578632E+00 -0.1048420776863E+01  0.0000000000000E+00
 0.2515055359137E+00 -0.9612577520800E+00  0.0000000000000E+00
 0.2521424407689E+00 -0.8741012303908E+00  0.0000000000000E+00
 0.2529435177012E+00 -0.7869545234362E+00  0.0000000000000E+00
 0.2539197866326E+00 -0.6998209454615E+00  0.0000000000000E+00
 0.2550681471422E+00 -0.6127033386189E+00  0.0000000000000E+00
 0.2563604720100E+00 -0.5256011217751E+00  0.0000000000000E+00
 0.2577367767798E+00 -0.4385088296118E+00  0.0000000000000E+00
 0.2591130816408E+00 -0.3514165374499E+00  0.0000000000000E+00
 0.2604054067703E+00 -0.2643143206098E+00  0.0000000000000E+00
 0.2615537676815E+00 -0.1771967137720E+00  0.0000000000000E+00
 0.2625300371188E+00 -0.9006313580257E-01  0.0000000000000E+00
 0.2633311146290E+00 -0.2916428852618E-02  0.0000000000000E+00
 0.2639680201092E+00  0.8424009283257E-01  0.0000000000000E+00
 0.2644574988141E+00  0.1714031176123E+00  0.0000000000000E+00
 0.2648172736148E+00  0.2585702132807E+00  0.0000000000000E+00
 0.2650638638277E+00  0.3457395182575E+00  0.0000000000000E+00
 0.2861450497528E+00 -0.1224657937658E+01  0.0000000000000E+00
 0.2864215954848E+00 -0.1137590245005E+01  0.0000000000000E+00
 0.2868274950427E+00 -0.1050524761626E+01  0.0000000000000E+00
 0.2873816276554E+00 -0.9634633490672E+00  0.0000000000000E+00
 0.2881042480409E+00 -0.8764084396296E+00  0.0000000000000E+00
 0.2890144936591E+00 -0.7893633448277E+00  0.0000000000000E+00
 0.2901249586923E+00 -0.7023313791405E+00  0.0000000000000E+00
 0.2914320998121E+00 -0.6153153844889E+00  0.0000000000000E+00
 0.2929037716112E+00 -0.5283147799456E+00  0.0000000000000E+00
 0.2944714204269E+00 -0.4413241001183E+00  0.0000000000000E+00
 0.2960390693338E+00 -0.3543334202925E+00  0.0000000000000E+00
 0.2975107413944E+00 -0.2673328157534E+00  0.0000000000000E+00
 0.2988178829159E+00 -0.1803168211074E+00  0.0000000000000E+00
 0.2999283484550E+00 -0.9328485542617E-01  0.0000000000000E+00
 0.3008385946511E+00 -0.6239760629561E-02  0.0000000000000E+00
 0.3015612156617E+00  0.8081514880343E-01  0.0000000000000E+00
 0.3021153489287E+00  0.1678765613589E+00  0.0000000000000E+00
 0.3025212491580E+00  0.2549420447359E+00  0.0000000000000E+00
 0.3027977955703E+00  0.3420097373869E+00  0.0000000000000E+00
 0.3218654950076E+00 -0.1226810786673E+01  0.0000000000000E+00
 0.3221699194030E+00 -0.1139857885942E+01  0.0000000000000E+00
 0.3226198668546E+00 -0.1052907194445E+01  0.0000000000000E+00
 0.3232365764971E+00 -0.9659605736929E+00  0.0000000000000E+00
 0.3240428348810E+00 -0.8790204560934E+00  0.0000000000000E+00
 0.3250601716561E+00 -0.7920901530176E+00  0.0000000000000E+00
 0.3263027552606E+00 -0.7051729792090E+00  0.0000000000000E+00
 0.3277665994632E+00 -0.6182717763270E+00  0.0000000000000E+00
 0.3294155406647E+00 -0.5313859636768E+00  0.0000000000000E+00
 0.3311724559974E+00 -0.4445100757828E+00  0.0000000000000E+00
 0.3329293714212E+00 -0.3576341878906E+00  0.0000000000000E+00
 0.3345783128843E+00 -0.2707483752451E+00  0.0000000000000E+00
 0.3360421574886E+00 -0.1838471723695E+00  0.0000000000000E+00
 0.3372847415990E+00 -0.9692999856756E-01  0.0000000000000E+00
 0.3383020789519E+00 -0.9999695497830E-02  0.0000000000000E+00
 0.3391083379610E+00  0.7694042209661E-01  0.0000000000000E+00
 0.3397250482577E+00  0.1638870428451E+00  0.0000000000000E+00
 0.3401749963809E+00  0.2508377343392E+00  0.0000000000000E+00
 0.3404794214564E+00  0.3377906350684E+00  0.0000000000000E+00
 0.3575692103522E+00 -0.1229215225492E+01  0.0000000000000E+00
 0.3578991955492E+00 -0.1142390161481E+01  0.0000000000000E+00
 0.3583908730369E+00 -0.1055567306661E+01  0.0000000000000E+00
 0.3590678418560E+00 -0.9687485225011E+00  0.0000000000000E+00
 0.3599554203886E+00 -0.8819362415286E+00  0.0000000000000E+00
 0.3610775304771E+00 -0.7951337749554E+00  0.0000000000000E+00
 0.3624499148109E+00 -0.7083444378190E+00  0.0000000000000E+00
 0.3640681442610E+00 -0.6215710714880E+00  0.0000000000000E+00
 0.3658920370309E+00 -0.5348130955263E+00  0.0000000000000E+00
 0.3678359010477E+00 -0.4480650443656E+00  0.0000000000000E+00
 0.3697797651558E+00 -0.3613169932067E+00  0.0000000000000E+00
 0.3716036581872E+00 -0.2745590172503E+00  0.0000000000000E+00
 0.3732218880390E+00 -0.1877856509263E+00  0.0000000000000E+00
 0.3745942728787E+00 -0.1009963137974E+00  0.0000000000000E+00
 0.3757163835452E+00 -0.1419384723091E-01  0.0000000000000E+00
 0.3766039627027E+00  0.7261843373593E-01  0.0000000000000E+00
 0.3772809321762E+00  0.1594372178920E+00  0.0000000000000E+00
 0.3777726103353E+00  0.2462600727091E+00  0.0000000000000E+00
 0.3781025962126E+00  0.3330851367181E+00  0.0000000000000E+00
 0.3932543904037E+00 -0.1231870699439E+01  0.0000000000000E+00
 0.3936073839619E+00 -0.1145186368159E+01  0.0000000000000E+00
 0.3941382390479E+00 -0.1058504246021E+01  0.0000000000000E+00
 0.3948729146103E+00 -0.9718261944503E+00  0.0000000000000E+00
 0.3958392608602E+00 -0.8851546461056E+00  0.0000000000000E+00
 0.3970635918366E+00 -0.7984929120234E+00  0.0000000000000E+00
 0.3985632244741E+00 -0.7118443075646E+00  0.0000000000000E+00
 0.4003332867518E+00 -0.6252116737778E+00  0.0000000000000E+00
 0.4023295786701E+00 -0.5385944305118E+00  0.0000000000000E+00
 0.4044578389521E+00 -0.4519871120958E+00  0.0000000000000E+00
 0.4065860993252E+00 -0.3653797936820E+00  0.0000000000000E+00
 0.4085823915051E+00 -0.2787625504218E+00  0.0000000000000E+00
 0.4103524541845E+00 -0.1921299166427E+00  0.0000000000000E+00
 0.4118520873278E+00 -0.1054813121922E+00  0.0000000000000E+00
 0.4130764188822E+00 -0.1881957811723E-01  0.0000000000000E+00
 0.4140427657571E+00  0.6785197022115E-01  0.0000000000000E+00
 0.4147774419739E+00  0.1545300217875E+00  0.0000000000000E+00
 0.4153082977314E+00  0.2412121439217E+00  0.0000000000000E+00
 0.4156612919698E+00  0.3278964752003E+00  0.0000000000000E+00
 0.4289192336032E+00 -0.1234776598240E+01  0.0000000000000E+00
 0.4292924555389E+00 -0.1148245733549E+01  0.0000000000000E+00
 0.4298597082370E+00 -0.1061717077950E+01  0.0000000000000E+00
 0.4306493105539E+00 -0.9751924928149E+00  0.0000000000000E+00
 0.4316916445264E+00 -0.8886744109484E+00  0.0000000000000E+00
 0.4330154163933E+00 -0.8021661431949E+00  0.0000000000000E+00
 0.4346395173275E+00 -0.7156710052686E+00  0.0000000000000E+00
 0.4365586324225E+00 -0.6291918378687E+00  0.0000000000000E+00
 0.4387245434713E+00 -0.5427280611548E+00  0.0000000000000E+00
 0.4410344199965E+00 -0.4562742093445E+00  0.0000000000000E+00
 0.4433442966129E+00 -0.3698203575366E+00  0.0000000000000E+00
 0.4455102079233E+00 -0.2833565808289E+00  0.0000000000000E+00
 0.4474293234200E+00 -0.1968774134374E+00  0.0000000000000E+00
 0.4490534248601E+00 -0.1103822755201E+00  0.0000000000000E+00
 0.4503771973049E+00 -0.2387400777464E-01  0.0000000000000E+00
 0.4514195319025E+00  0.6264407408500E-01  0.0000000000000E+00
 0.4522091348738E+00  0.1491686592148E+00  0.0000000000000E+00
 0.4527763882432E+00  0.2356973148111E+00  0.0000000000000E+00
 0.4531496108593E+00  0.3222281794997E+00  0.0000000000000E+00
 0.4645619687765E+00 -0.1237932259164E+01  0.0000000000000E+00
 0.4649524210827E+00 -0.1151567420505E+01  0.0000000000000E+00
 0.4655530733909E+00 -0.1065204790881E+01  0.0000000000000E+00
 0.4663946044674E+00 -0.9788462316122E+00  0.0000000000000E+00
 0.4675099281727E+00 -0.8924941756571E+00  0.0000000000000E+00
 0.4689301429494E+00 -0.8061519336535E+00  0.0000000000000E+00
 0.4706757142023E+00 -0.7198228216974E+00  0.0000000000000E+00
 0.4727408841464E+00 -0.6335096801102E+00  0.0000000000000E+00
 0.4750734163596E+00 -0.5472119293876E+00  0.0000000000000E+00
 0.4775619111642E+00 -0.4609241036267E+00  0.0000000000000E+00
 0.4800504060600E+00 -0.3746362778683E+00  0.0000000000000E+00
 0.4823829385348E+00 -0.2883385271526E+00  0.0000000000000E+00
 0.4844481088806E+00 -0.2020253855745E+00  0.0000000000000E+00
 0.4861936806394E+00 -0.1156962736281E+00  0.0000000000000E+00
 0.4876138959940E+00 -0.2935403163311E-01  0.0000000000000E+00
 0.4887292203243E+00  0.5699802431457E-01  0.0000000000000E+00
 0.4895707520552E+00  0.1433565835781E+00  0.0000000000000E+00
 0.4901714050349E+00  0.2297192131983E+00  0.0000000000000E+00
 0.4905618580214E+00  0.3160840518546E+00  0.0000000000000E+00
 0.5001808504803E+00 -0.1241336967453E+01  0.0000000000000E+00
 0.5005853201167E+00 -0.1155150527090E+01  0.0000000000000E+00
 0.5012161589915E+00 -0.1068966295702E+01  0.0000000000000E+00
 0.5021064057811E+00 -0.9827861345503E+00  0.0000000000000E+00
 0.5032915061658E+00 -0.8966124767617E+00  0.0000000000000E+00
 0.5048049507956E+00 -0.8104486327508E+00  0.0000000000000E+00
 0.5066687792994E+00 -0.7242979190243E+00  0.0000000000000E+00
 0.5088767910208E+00 -0.6381631754975E+00  0.0000000000000E+00
 0.5113727313176E+00 -0.5520438230273E+00  0.0000000000000E+00
 0.5140366313163E+00 -0.4659343955811E+00  0.0000000000000E+00
 0.5167005314062E+00 -0.3798249681376E+00  0.0000000000000E+00
 0.5191964719646E+00 -0.2937056156747E+00  0.0000000000000E+00
 0.5214044840877E+00 -0.2075708721577E+00  0.0000000000000E+00
 0.5232683130974E+00 -0.1214201584418E+00  0.0000000000000E+00
 0.5247817583051E+00 -0.3525631444021E-01  0.0000000000000E+00
 0.5259668593148E+00  0.5091734334048E-01  0.0000000000000E+00
 0.5268571067588E+00  0.1370975044860E+00  0.0000000000000E+00
 0.5274879463051E+00  0.2232817358704E+00  0.0000000000000E+00
 0.5278924166218E+00  0.3094681762305E+00  0.0000000000000E+00
 0.5357741492561E+00 -0.1244989957511E+01  0.0000000000000E+00
 0.5361892220105E+00 -0.1158994090209E+01  0.0000000000000E+00
 0.5368468332483E+00 -0.1073000431817E+01  0.0000000000000E+00
 0.5377823815580E+00 -0.9870108435357E+00  0.0000000000000E+00
 0.5390338444379E+00 -0.9010277586693E+00  0.0000000000000E+00
 0.5406371047507E+00 -0.8150544873953E+00  0.0000000000000E+00
 0.5426157763422E+00 -0.7290943466587E+00  0.0000000000000E+00
 0.5449632156924E+00 -0.6431501759410E+00  0.0000000000000E+00
 0.5476191499298E+00 -0.5572213964849E+00  0.0000000000000E+00
 0.5504550409842E+00 -0.4713025421194E+00  0.0000000000000E+00
 0.5532909321297E+00 -0.3853836877569E+00  0.0000000000000E+00
 0.5559468666287E+00 -0.2994549083086E+00  0.0000000000000E+00
 0.5582943063805E+00 -0.2135107376014E+00  0.0000000000000E+00
 0.5602729784780E+00 -0.1275505968760E+00  0.0000000000000E+00
 0.5618762393687E+00 -0.4157732561200E-01  0.0000000000000E+00
 0.5631277028737E+00  0.4440575924581E-01  0.0000000000000E+00
 0.5640632518377E+00  0.1303953475209E+00  0.0000000000000E+00
 0.5647208637470E+00  0.2163890059088E+00  0.0000000000000E+00
 0.5651359371817E+00  0.3023848732079E+00  0.0000000000000E+00
 0.5713401499894E+00 -0.1248890412545E+01  0.0000000000000E+00
 0.5717622119691E+00 -0.1163097083611E+01  0.0000000000000E+00
 0.5724429816650E+00 -0.1077305963517E+01  0.0000000000000E+00
 0.5734202175769E+00 -0.9915189134002E+00  0.0000000000000E+00
 0.5747344290158E+00 -0.9057383667540E+00  0.0000000000000E+00
 0.5764238910593E+00 -0.8199676335031E+00  0.0000000000000E+00
 0.5785137917608E+00 -0.7342100310583E+00  0.0000000000000E+00
 0.5809970447448E+00 -0.6484683984404E+00  0.0000000000000E+00
 0.5838093589073E+00 -0.5627421573021E+00  0.0000000000000E+00
 0.5868136269902E+00 -0.4770258413251E+00  0.0000000000000E+00
 0.5898178951644E+00 -0.3913095253513E+00  0.0000000000000E+00
 0.5926302095884E+00 -0.3055832842213E+00  0.0000000000000E+00
 0.5951134629742E+00 -0.2198416516146E+00  0.0000000000000E+00
 0.5972033641815E+00 -0.1340840491819E+00  0.0000000000000E+00
 0.5988928268029E+00 -0.4831331594156E-01  0.0000000000000E+00
 0.6002070388669E+00  0.3746723069555E-01  0.0000000000000E+00
 0.6011842754332E+00  0.1232542808057E+00  0.0000000000000E+00
 0.6018650458005E+00  0.2090454008946E+00  0.0000000000000E+00
 0.6022871084605E+00  0.2948387298263E+00  0.0000000000000E+00
 0.6068771371579E+00 -0.1253037465844E+01  0.0000000000000E+00
 0.6073023971197E+00 -0.1167458424002E+01  0.0000000000000E+00
 0.6080025340419E+00 -0.1081881590927E+01  0.0000000000000E+00
 0.6090176663387E+00 -0.9963088276876E+00  0.0000000000000E+00
 0.6103908351315E+00 -0.9107425679775E+00  0.0000000000000E+00
 0.6121627077193E+00 -0.8251861214541E+00  0.0000000000000E+00
 0.6143600463551E+00 -0.7396428060213E+00  0.0000000000000E+00
 0.6169753218167E+00 -0.6541154602123E+00  0.0000000000000E+00
 0.6199402247568E+00 -0.5686035061133E+00  0.0000000000000E+00
 0.6231090787274E+00 -0.4831014772506E+00  0.0000000000000E+00
 0.6262779327892E+00 -0.3975994483912E+00  0.0000000000000E+00
 0.6292428359909E+00 -0.3120874943012E+00  0.0000000000000E+00
 0.6318581118542E+00 -0.2265601485040E+00  0.0000000000000E+00
 0.6340554509959E+00 -0.1410168330840E+00  0.0000000000000E+00
 0.6358273241616E+00 -0.5546038657190E-01  0.0000000000000E+00
 0.6372004935795E+00  0.3010587312856E-01  0.0000000000000E+00
 0.6382156265306E+00  0.1156786363610E+00  0.0000000000000E+00
 0.6389157641243E+00  0.2012554694305E+00  0.0000000000000E+00
 0.6393410247663E+00  0.2868345112703E+00  0.0000000000000E+00
 0.6423834709618E+00 -0.1257430208361E+01  0.0000000000000E+00
 0.6428079579416E+00 -0.1172076974739E+01  0.0000000000000E+00
 0.6435234911376E+00 -0.1086725949808E+01  0.0000000000000E+00
 0.6445725488804E+00 -0.1001378994563E+01  0.0000000000000E+00
 0.6460007041001E+00 -0.9160385429092E+00  0.0000000000000E+00
 0.6478510163235E+00 -0.8307079042225E+00  0.0000000000000E+00
 0.6501518219949E+00 -0.7453903969262E+00  0.0000000000000E+00
 0.6528951490542E+00 -0.6600888590394E+00  0.0000000000000E+00
 0.6560086699003E+00 -0.5748027131058E+00  0.0000000000000E+00
 0.6593381388929E+00 -0.4895264924872E+00  0.0000000000000E+00
 0.6626676079766E+00 -0.4042502718721E+00  0.0000000000000E+00
 0.6657811290843E+00 -0.3189641259479E+00  0.0000000000000E+00
 0.6685244565453E+00 -0.2336625880737E+00  0.0000000000000E+00
 0.6708252627226E+00 -0.1483450807910E+00  0.0000000000000E+00
 0.6726755755239E+00 -0.6301444211619E-01  0.0000000000000E+00
 0.6741037313687E+00  0.2232600952730E-01  0.0000000000000E+00
 0.6751527897659E+00  0.1076729647648E+00  0.0000000000000E+00
 0.6758683236333E+00  0.1930239896902E+00  0.0000000000000E+00
 0.6762928112935E+00  0.2783772233094E+00  0.0000000000000E+00
 0.6778575079345E+00 -0.1262067681820E+01  0.0000000000000E+00
 0.6782770771087E+00 -0.1176951540526E+01  0.0000000000000E+00
 0.6790038617375E+00 -0.1091837607843E+01  0.0000000000000E+00
 0.6800827000673E+00 -0.1006727744689E+01  0.0000000000000E+00
 0.6815616968295E+00 -0.9216243851913E+00  0.0000000000000E+00
 0.6834863037813E+00 -0.8365308384297E+00  0.0000000000000E+00
 0.6858864315472E+00 -0.7514504233734E+00  0.0000000000000E+00
 0.6887536652390E+00 -0.6663859775017E+00  0.0000000000000E+00
 0.6920116589981E+00 -0.5813369238382E+00  0.0000000000000E+00
 0.6954975980043E+00 -0.4962977955727E+00  0.0000000000000E+00
 0.6989835371017E+00 -0.4112586673108E+00  0.0000000000000E+00
 0.7022415311224E+00 -0.3262096136574E+00  0.0000000000000E+00
 0.7051087652158E+00 -0.2411451677989E+00  0.0000000000000E+00
 0.7075088934877E+00 -0.1560647527569E+00  0.0000000000000E+00
 0.7094335010174E+00 -0.7097120600793E-01  0.0000000000000E+00
 0.7109124984047E+00  0.1413215347913E-01  0.0000000000000E+00
 0.7119913373889E+00  0.9924201662545E-01  0.0000000000000E+00
 0.7127181226891E+00  0.1843559493029E+00  0.0000000000000E+00
 0.7131376925436E+00  0.2694720905938E+00  0.0000000000000E+00
-0.1461382977135E+01 -0.1366969715354E+01  0.0000000000000E+00
-0.1536838318740E+01 -0.1251434914183E+01  0.0000000000000E+00
-0.1612772383862E+01 -0.1136216660518E+01  0.0000000000000E+00
-0.1682662190134E+01 -0.1017118437211E+01  0.0000000000000E+00
-0.1744352422289E+01 -0.8934077853993E+00  0.0000000000000E+00
-0.1798213558619E+01 -0.7659621724060E+00  0.0000000000000E+00
-0.1844158474103E+01 -0.6353520178781E+00  0.0000000000000E+00
-0.1881388018209E+01 -0.5019106555406E+00  0.0000000000000E+00
-0.1909838253907E+01 -0.3662625943974E+00  0.0000000000000E+00
-0.1928756468757E+01 -0.2289268443260E+00  0.0000000000000E+00
-0.1936610695830E+01 -0.9050316094402E-01  0.0000000000000E+00
-0.1935962495635E+01  0.4816323147748E-01  0.0000000000000E+00
-0.1915746975476E+01  0.1850134490903E+00  0.0000000000000E+00
-0.1866398119172E+01  0.3140157130469E+00  0.0000000000000E+00
-0.1794320744535E+01  0.4315254877347E+00  0.0000000000000E+00
-0.1705912240744E+01  0.5369275948221E+00  0.0000000000000E+00
-0.1607092793437E+01  0.6322756433932E+00  0.0000000000000E+00
-0.1500783670345E+01  0.7188137666816E+00  0.0000000000000E+00
-0.1388289662873E+01  0.7967110478414E+00  0.0000000000000E+00
-0.1422429226874E+01 -0.1359767065380E+01  0.0000000000000E+00
-0.1493912765281E+01 -0.1245948355879E+01  0.0000000000000E+00
-0.1565866851627E+01 -0.1132429649044E+01  0.0000000000000E+00
-0.1632114304946E+01 -0.1015235383770E+01  0.0000000000000E+00
-0.1690615909786E+01 -0.8936717932586E+00  0.0000000000000E+00
-0.1741725163678E+01 -0.7685703365138E+00  0.0000000000000E+00
-0.1785361184768E+01 -0.6404715832861E+00  0.0000000000000E+00
-0.1820766416911E+01 -0.5096914726017E+00  0.0000000000000E+00
-0.1847876058184E+01 -0.3768216156395E+00  0.0000000000000E+00
-0.1865967993324E+01 -0.2423534138595E+00  0.0000000000000E+00
-0.1873578256475E+01 -0.1068545354329E+00  0.0000000000000E+00
-0.1873120957503E+01  0.2887478878923E-01  0.0000000000000E+00
-0.1854104576422E+01  0.1628844644037E+00  0.0000000000000E+00
-0.1807462310472E+01  0.2894600596444E+00  0.0000000000000E+00
-0.1739261410714E+01  0.4051486846621E+00  0.0000000000000E+00
-0.1655564219598E+01  0.5093673682636E+00  0.0000000000000E+00
-0.1561981855766E+01  0.6040614774211E+00  0.0000000000000E+00
-0.1461284503982E+01  0.6904095498839E+00  0.0000000000000E+00
-0.1354710767645E+01  0.7685716769124E+00  0.0000000000000E+00
-0.1383422395682E+01 -0.1352772899744E+01  0.0000000000000E+00
-0.1450936926762E+01 -0.1240659305974E+01  0.0000000000000E+00
-0.1518913830188E+01 -0.1128829170111E+01  0.0000000000000E+00
-0.1581521725986E+01 -0.1013527888229E+01  0.0000000000000E+00
-0.1636837498850E+01 -0.8941003841387E+00  0.0000000000000E+00
-0.1685197665562E+01 -0.7713321085327E+00  0.0000000000000E+00
-0.1726527587358E+01 -0.6457337815459E+00  0.0000000000000E+00
-0.1760111302466E+01 -0.5176039475250E+00  0.0000000000000E+00
-0.1785883144110E+01 -0.3875013196816E+00  0.0000000000000E+00
-0.1803151594074E+01 -0.2558896915364E+00  0.0000000000000E+00
-0.1810520687586E+01 -0.1233046437126E+00  0.0000000000000E+00
-0.1810257084305E+01  0.9498587900696E-02  0.0000000000000E+00
-0.1792442632968E+01  0.1406786833209E+00  0.0000000000000E+00
-0.1748509748075E+01  0.2648385733975E+00  0.0000000000000E+00
-0.1684188114646E+01  0.3787170164180E+00  0.0000000000000E+00
-0.1605205028395E+01  0.4817632478827E+00  0.0000000000000E+00
-0.1516862540600E+01  0.5758143908855E+00  0.0000000000000E+00
-0.1421779752733E+01  0.6619833862764E+00  0.0000000000000E+00
-0.1321129080072E+01  0.7404213328697E+00  0.0000000000000E+00
-0.1344363461517E+01 -0.1345988511677E+01  0.0000000000000E+00
-0.1407911724722E+01 -0.1235568989505E+01  0.0000000000000E+00
-0.1471914184652E+01 -0.1125416380539E+01  0.0000000000000E+00
-0.1530885262298E+01 -0.1011997039425E+01  0.0000000000000E+00
-0.1583017942955E+01 -0.8946945791509E+00  0.0000000000000E+00
-0.1628631762636E+01 -0.7742484420609E+00  0.0000000000000E+00
-0.1667658325614E+01 -0.6511394989236E+00  0.0000000000000E+00
-0.1699423264513E+01 -0.5256488994063E+00  0.0000000000000E+00
-0.1723860047741E+01 -0.3983024585749E+00  0.0000000000000E+00
-0.1740307754039E+01 -0.2695363624626E+00  0.0000000000000E+00
-0.1747438419795E+01 -0.1398541040076E+00  0.0000000000000E+00
-0.1747371254740E+01 -0.9965922536359E-02  0.0000000000000E+00
-0.1730761473034E+01  0.1183956213862E+00  0.0000000000000E+00
-0.1689540710730E+01  0.2401508372010E+00  0.0000000000000E+00
-0.1629101087155E+01  0.3522301339270E+00  0.0000000000000E+00
-0.1554834850913E+01  0.4541149533462E+00  0.0000000000000E+00
-0.1471734985227E+01  0.5475341727792E+00  0.0000000000000E+00
-0.1382269507802E+01  0.6335351346815E+00  0.0000000000000E+00
-0.1287544645600E+01  0.7122599448561E+00  0.0000000000000E+00
-0.1305253595826E+01 -0.1339415213000E+01  0.0000000000000E+00
-0.1364838274543E+01 -0.1230678649356E+01  0.0000000000000E+00
-0.1424868974351E+01 -0.1122192454299E+01  0.0000000000000E+00
-0.1480205916758E+01 -0.1010643942172E+01  0.0000000000000E+00
-0.1529158187961E+01 -0.8954554136531E+00  0.0000000000000E+00
-0.1572028343215E+01 -0.7773203027582E+00  0.0000000000000E+00
-0.1608754229756E+01 -0.6566896311765E+00  0.0000000000000E+00
-0.1638703074586E+01 -0.5338271539178E+00  0.0000000000000E+00
-0.1661807481336E+01 -0.4092257877632E+00  0.0000000000000E+00
-0.1677437125571E+01 -0.2832941117465E+00  0.0000000000000E+00
-0.1684332044841E+01 -0.1565035310225E+00  0.0000000000000E+00
-0.1684463999390E+01 -0.2951928680034E-01  0.0000000000000E+00
-0.1669061564887E+01  0.9603480454536E-01  0.0000000000000E+00
-0.1630555602536E+01  0.2153964467291E+00  0.0000000000000E+00
-0.1574000666711E+01  0.3256877018770E+00  0.0000000000000E+00
-0.1504453958951E+01  0.4264222175976E+00  0.0000000000000E+00
-0.1426599394119E+01  0.5192206236651E+00  0.0000000000000E+00
-0.1342753905869E+01  0.6050646627177E+00  0.0000000000000E+00
-0.1253957532744E+01  0.6840874469890E+00  0.0000000000000E+00
-0.1266093896943E+01 -0.1333054270719E+01  0.0000000000000E+00
-0.1321717616255E+01 -0.1225989485819E+01  0.0000000000000E+00
-0.1377779181010E+01 -0.1119158524968E+01  0.0000000000000E+00
-0.1429484612826E+01 -0.1009469663358E+01  0.0000000000000E+00
-0.1475259099109E+01 -0.8963838878734E+00  0.0000000000000E+00
-0.1515388214367E+01 -0.7805486242106E+00  0.0000000000000E+00
-0.1549816048729E+01 -0.6623850452667E+00  0.0000000000000E+00
-0.1577951423558E+01 -0.5421395114141E+00  0.0000000000000E+00
-0.1599726077743E+01 -0.4202720410058E+00  0.0000000000000E+00
-0.1614540283554E+01 -0.2971636065640E+00  0.0000000000000E+00
-0.1621202079703E+01 -0.1732535253581E+00  0.0000000000000E+00
-0.1621535777370E+01 -0.4916203891051E-01  0.0000000000000E+00
-0.1607343309956E+01  0.7359576528685E-01  0.0000000000000E+00
-0.1571554767384E+01  0.1905750010332E+00  0.0000000000000E+00
-0.1518887139772E+01  0.2990893859719E+00  0.0000000000000E+00
-0.1454062581599E+01  0.3986847730844E+00  0.0000000000000E+00
-0.1381455939042E+01  0.4908735428029E+00  0.0000000000000E+00
-0.1303233061414E+01  0.5765718365090E+00  0.0000000000000E+00
-0.1220367798727E+01  0.6559037723053E+00  0.0000000000000E+00
-0.1226885434598E+01 -0.1326906918420E+01  0.0000000000000E+00
-0.1278550759514E+01 -0.1221502667451E+01  0.0000000000000E+00
-0.1330645754203E+01 -0.1116315696059E+01  0.0000000000000E+00
-0.1378722240279E+01 -0.1008475241632E+01  0.0000000000000E+00
-0.1421321506754E+01 -0.8974809757901E+00  0.0000000000000E+00
-0.1458712147377E+01 -0.7839343158880E+00  0.0000000000000E+00
-0.1490844495113E+01 -0.6682265862935E+00  0.0000000000000E+00
-0.1517168965702E+01 -0.5505867527475E+00  0.0000000000000E+00
-0.1537616433326E+01 -0.4314419350033E+00  0.0000000000000E+00
-0.1551617766864E+01 -0.3111454995403E+00  0.0000000000000E+00
-0.1558049006250E+01 -0.1901046756128E+00  0.0000000000000E+00
-0.1558587013893E+01 -0.6889470344107E-01  0.0000000000000E+00
-0.1545607077695E+01  0.5107804305651E-01  0.0000000000000E+00
-0.1512538520197E+01  0.1656861039298E+00  0.0000000000000E+00
-0.1463760767663E+01  0.2724348549213E+00  0.0000000000000E+00
-0.1403660927249E+01  0.3709023539556E+00  0.0000000000000E+00
-0.1336304775877E+01  0.4624927302273E+00  0.0000000000000E+00
-0.1263707078111E+01  0.5480565223604E+00  0.0000000000000E+00
-0.1186775495267E+01  0.6277088537534E+00  0.0000000000000E+00
-0.1187629395366E+01 -0.1320974386387E+01  0.0000000000000E+00
-0.1235338830454E+01 -0.1217219359810E+01  0.0000000000000E+00
-0.1283469759628E+01 -0.1113665068416E+01  0.0000000000000E+00
-0.1327919804237E+01 -0.1007661713037E+01  0.0000000000000E+00
-0.1367346355235E+01 -0.8987476485388E+00  0.0000000000000E+00
-0.1402001025609E+01 -0.7874782839299E+00  0.0000000000000E+00
-0.1431840391102E+01 -0.6742150953269E+00  0.0000000000000E+00
-0.1456356461827E+01 -0.5591696538526E+00  0.0000000000000E+00
-0.1475479247296E+01 -0.4427361805032E+00  0.0000000000000E+00
-0.1488670212889E+01 -0.3252404361983E+00  0.0000000000000E+00
-0.1494873399790E+01 -0.2070575620616E+00  0.0000000000000E+00
-0.1495618221986E+01 -0.8871779540677E-01  0.0000000000000E+00
-0.1483853318484E+01  0.2848118797714E-01  0.0000000000000E+00
-0.1453507248027E+01  0.1407293705068E+00  0.0000000000000E+00
-0.1408621873567E+01  0.2457237885353E+00  0.0000000000000E+00
-0.1353249254825E+01  0.3430747044833E+00  0.0000000000000E+00
-0.1291146099045E+01  0.4340779944504E+00  0.0000000000000E+00
-0.1224176085705E+01  0.5195185928221E+00  0.0000000000000E+00
-0.1153180687300E+01  0.5995026277207E+00  0.0000000000000E+00
-0.1148326976788E+01 -0.1315257877050E+01  0.0000000000000E+00
-0.1192082964804E+01 -0.1213140702054E+01  0.0000000000000E+00
-0.1236252271205E+01 -0.1111207717923E+01  0.0000000000000E+00
-0.1277078316727E+01 -0.1007030090139E+01  0.0000000000000E+00
-0.1313334594560E+01 -0.9001848553013E+00  0.0000000000000E+00
-0.1345255736939E+01 -0.7911814140789E+00  0.0000000000000E+00
-0.1372804562317E+01 -0.6803513946257E+00  0.0000000000000E+00
-0.1395514675171E+01 -0.5678889734651E+00  0.0000000000000E+00
-0.1413315220375E+01 -0.4541554726861E+00  0.0000000000000E+00
-0.1425698259699E+01 -0.3394490481422E+00  0.0000000000000E+00
-0.1431675835588E+01 -0.2241127527187E+00  0.0000000000000E+00
-0.1432629913986E+01 -0.1086318192211E+00  0.0000000000000E+00
-0.1422082481537E+01  0.5804759131052E-02  0.0000000000000E+00
-0.1394461336550E+01  0.1157044232416E+00  0.0000000000000E+00
-0.1353470779282E+01  0.2189558725478E+00  0.0000000000000E+00
-0.1302827821999E+01  0.3152015735085E+00  0.0000000000000E+00
-0.1245980101937E+01  0.4056291472893E+00  0.0000000000000E+00
-0.1184640213205E+01  0.4909579225658E+00  0.0000000000000E+00
-0.1119583439366E+01  0.5712850316116E+00  0.0000000000000E+00
-0.1108979375216E+01 -0.1309758562184E+01  0.0000000000000E+00
-0.1148784295643E+01 -0.1209267804259E+01  0.0000000000000E+00
-0.1188994358740E+01 -0.1108944692962E+01  0.0000000000000E+00
-0.1226198784311E+01 -0.1006581359642E+01  0.0000000000000E+00
-0.1259287168077E+01 -0.9017935211183E+00  0.0000000000000E+00
-0.1288477161522E+01 -0.7950445697246E+00  0.0000000000000E+00
-0.1313737825754E+01 -0.6866362859398E+00  0.0000000000000E+00
-0.1334644359599E+01 -0.5767454517047E+00  0.0000000000000E+00
-0.1351125043330E+01 -0.4657004900490E+00  0.0000000000000E+00
-0.1362702534998E+01 -0.3537719522543E+00  0.0000000000000E+00
-0.1368456878322E+01 -0.2412708028569E+00  0.0000000000000E+00
-0.1369622591563E+01 -0.1286372685415E+00  0.0000000000000E+00
-0.1360295005660E+01 -0.1695167559519E-01  0.0000000000000E+00
-0.1335401161793E+01  0.9061089160135E-01  0.0000000000000E+00
-0.1298307798104E+01  0.1921307980690E+00  0.0000000000000E+00
-0.1252396879368E+01  0.2872827138462E+00  0.0000000000000E+00
-0.1200806972471E+01  0.3771460033088E+00  0.0000000000000E+00
-0.1145099585870E+01  0.4623743879392E+00  0.0000000000000E+00
-0.1085983814086E+01  0.5430560035856E+00  0.0000000000000E+00
-0.1069587807609E+01 -0.1304477586773E+01  0.0000000000000E+00
-0.1105443975430E+01 -0.1205601751120E+01  0.0000000000000E+00
-0.1141697110190E+01 -0.1106877017936E+01  0.0000000000000E+00
-0.1175282230482E+01 -0.1006316485686E+01  0.0000000000000E+00
-0.1205205034859E+01 -0.9035745498883E+00  0.0000000000000E+00
-0.1231666194052E+01 -0.7990685945414E+00  0.0000000000000E+00
-0.1254641011766E+01 -0.6930705527353E+00  0.0000000000000E+00
-0.1273746281175E+01 -0.5857398118447E+00  0.0000000000000E+00
-0.1288909417977E+01 -0.4773718956829E+00  0.0000000000000E+00
-0.1299683676407E+01 -0.3682097514539E+00  0.0000000000000E+00
-0.1305217101473E+01 -0.2585322552314E+00  0.0000000000000E+00
-0.1306596764096E+01 -0.1487346259530E+00  0.0000000000000E+00
-0.1298491336305E+01 -0.3978853868330E-01  0.0000000000000E+00
-0.1276327105409E+01  0.6544841325714E-01  0.0000000000000E+00
-0.1243133247977E+01  0.1652482630036E+00  0.0000000000000E+00
-0.1201956681219E+01  0.2593178837163E+00  0.0000000000000E+00
-0.1155626901319E+01  0.3486283811055E+00  0.0000000000000E+00
-0.1105554330784E+01  0.4337678679626E+00  0.0000000000000E+00
-0.1052381874987E+01  0.5148154831302E+00  0.0000000000000E+00
-0.1030153478891E+01 -0.1299416062439E+01  0.0000000000000E+00
-0.1062063143085E+01 -0.1202143595677E+01  0.0000000000000E+00
-0.1094361598468E+01 -0.1105005687296E+01  0.0000000000000E+00
-0.1124329662344E+01 -0.1006236404253E+01  0.0000000000000E+00
-0.1151089136449E+01 -0.9055288192595E+00  0.0000000000000E+00
-0.1174823710759E+01 -0.8032543079536E+00  0.0000000000000E+00
-0.1195514931520E+01 -0.6996549563073E+00  0.0000000000000E+00
-0.1212821186271E+01 -0.5948727571351E+00  0.0000000000000E+00
-0.1226669026167E+01 -0.4891703348581E+00  0.0000000000000E+00
-0.1236642301545E+01 -0.3827630330845E+00  0.0000000000000E+00
-0.1241957058761E+01 -0.2758976392924E+00  0.0000000000000E+00
-0.1243552921638E+01 -0.1689243630130E+00  0.0000000000000E+00
-0.1236671900503E+01 -0.6270624381806E-01  0.0000000000000E+00
-0.1217239532245E+01  0.4021663263883E-01  0.0000000000000E+00
-0.1187947432191E+01  0.1383079702589E+00  0.0000000000000E+00
-0.1151507469733E+01  0.2313068448822E+00  0.0000000000000E+00
-0.1110440069832E+01  0.3200761016069E+00  0.0000000000000E+00
-0.1066004568682E+01  0.4051382429913E+00  0.0000000000000E+00
-0.1018777682354E+01  0.4865634102839E+00  0.0000000000000E+00
-0.9906777036991E+00 -0.1294575088408E+01  0.0000000000000E+00
-0.1018643046870E+01 -0.1198894379352E+01  0.0000000000000E+00
-0.1046989005467E+01 -0.1103331684666E+01  0.0000000000000E+00
-0.1073342195220E+01 -0.1006342041053E+01  0.0000000000000E+00
-0.1096940521322E+01 -0.9076571968749E+00  0.0000000000000E+00
-0.1117950692994E+01 -0.8076025194146E+00  0.0000000000000E+00
-0.1136360498971E+01 -0.7063902478163E+00  0.0000000000000E+00
-0.1151869921146E+01 -0.6041449803516E+00  0.0000000000000E+00
-0.1164404646165E+01 -0.5010964418930E+00  0.0000000000000E+00
-0.1173579120367E+01 -0.3974323729538E+00  0.0000000000000E+00
-0.1178677391469E+01 -0.2933674723030E+00  0.0000000000000E+00
-0.1180491636525E+01 -0.1892069384262E+00  0.0000000000000E+00
-0.1174837201104E+01 -0.8570519127675E-01  0.0000000000000E+00
-0.1158138874721E+01  0.1491520765000E-01  0.0000000000000E+00
-0.1132750711982E+01  0.1113096355665E+00  0.0000000000000E+00
-0.1101049534424E+01  0.2032493705286E+00  0.0000000000000E+00
-0.1065246695464E+01  0.2914889951333E+00  0.0000000000000E+00
-0.1026450444716E+01  0.3764854001971E+00  0.0000000000000E+00
-0.9851713088512E+00  0.4582997287889E+00  0.0000000000000E+00
-0.9511617699266E+00 -0.1289955725504E+01  0.0000000000000E+00
-0.9751849067139E+00 -0.1195855107115E+01  0.0000000000000E+00
-0.9995804831506E+00 -0.1101855959167E+01  0.0000000000000E+00
-0.1022320913129E+01 -0.1006634289366E+01  0.0000000000000E+00
-0.1042760205564E+01 -0.9099605201844E+00  0.0000000000000E+00
-0.1061048088928E+01 -0.8121140105493E+00  0.0000000000000E+00
-0.1077178594388E+01 -0.7132771530690E+00  0.0000000000000E+00
-0.1090893298189E+01 -0.6135571514881E+00  0.0000000000000E+00
-0.1102117022494E+01 -0.5131508309729E+00  0.0000000000000E+00
-0.1110494809551E+01 -0.4122183294437E+00  0.0000000000000E+00
-0.1115378708452E+01 -0.3109422568459E+00  0.0000000000000E+00
-0.1117413449799E+01 -0.2095827989697E+00  0.0000000000000E+00
-0.1112987711460E+01 -0.1087857720977E+00  0.0000000000000E+00
-0.1099025538536E+01 -0.1045619698468E-01  0.0000000000000E+00
-0.1077543425416E+01  0.8425297945760E-01  0.0000000000000E+00
-0.1050583145725E+01  0.1751452370352E+00  0.0000000000000E+00
-0.1020046981025E+01  0.2628668939426E+00  0.0000000000000E+00
-0.9868920940821E+00  0.3478092277359E+00  0.0000000000000E+00
-0.9515628220696E+00  0.4300243827152E+00  0.0000000000000E+00
-0.9116069872608E+00 -0.1285559004498E+01  0.0000000000000E+00
-0.9316899632209E+00 -0.1193026755469E+01  0.0000000000000E+00
-0.9521372030405E+00 -0.1100579433030E+01  0.0000000000000E+00
-0.9712669185257E+00 -0.1007114017167E+01  0.0000000000000E+00
-0.9885492225798E+00 -0.9124396029110E+00  0.0000000000000E+00
-0.1004116862923E+01 -0.8167895408345E+00  0.0000000000000E+00
-0.1017970113108E+01 -0.7203163773010E+00  0.0000000000000E+00
-0.1029892143722E+01 -0.6231099215445E+00  0.0000000000000E+00
-0.1039806912476E+01 -0.5253340988647E+00  0.0000000000000E+00
-0.1047390057437E+01 -0.4271214450931E+00  0.0000000000000E+00
-0.1052061629091E+01 -0.3286224812346E+00  0.0000000000000E+00
-0.1054318911882E+01 -0.2300523787265E+00  0.0000000000000E+00
-0.1051123913148E+01 -0.1319483661985E+00  0.0000000000000E+00
-0.1039899936456E+01 -0.3589790699629E-01  0.0000000000000E+00
-0.1022325916455E+01  0.5713773042639E-01  0.0000000000000E+00
-0.1000108578797E+01  0.1469942271592E+00  0.0000000000000E+00
-0.9748411328702E+00  0.2342096350805E+00  0.0000000000000E+00
-0.9473296543422E+00  0.3191096169583E+00  0.0000000000000E+00
-0.9179522907849E+00  0.4017373177321E+00  0.0000000000000E+00
-0.8720146866331E+00 -0.1281385925185E+01  0.0000000000000E+00
-0.8881594771479E+00 -0.1190410271569E+01  0.0000000000000E+00
-0.9046603557195E+00 -0.1099503000773E+01  0.0000000000000E+00
-0.9201813318361E+00 -0.1007782066347E+01  0.0000000000000E+00
-0.9343086226444E+00 -0.9150952343233E+00  0.0000000000000E+00
-0.9471579951153E+00 -0.8216298469200E+00  0.0000000000000E+00
-0.9587359651358E+00 -0.7275086045478E+00  0.0000000000000E+00
-0.9688672976347E+00 -0.6328039219456E+00  0.0000000000000E+00
-0.9774750858942E+00 -0.5376468243853E+00  0.0000000000000E+00
-0.9842655637184E+00 -0.4421422461151E+00  0.0000000000000E+00
-0.9887267829990E+00 -0.3464086190817E+00  0.0000000000000E+00
-0.9912085823139E+00 -0.2506160987026E+00  0.0000000000000E+00
-0.9892462957472E+00 -0.1551933420424E+00  0.0000000000000E+00
-0.9807624881220E+00 -0.6141023828673E-01  0.0000000000000E+00
-0.9670985347967E+00  0.2996362516681E-01  0.0000000000000E+00
-0.9496261133913E+00  0.1187961302237E+00  0.0000000000000E+00
-0.9296293608063E+00  0.2055170605213E+00  0.0000000000000E+00
-0.9077632653588E+00  0.2903864625034E+00  0.0000000000000E+00
-0.8843397849235E+00  0.3734384811542E+00  0.0000000000000E+00
-0.8323862196444E+00 -0.1277437455478E+01  0.0000000000000E+00
-0.8445947288565E+00 -0.1188006572371E+01  0.0000000000000E+00
-0.8571511503101E+00 -0.1098627528392E+01  0.0000000000000E+00
-0.8690652909581E+00 -0.1008639251951E+01  0.0000000000000E+00
-0.8800394724388E+00 -0.9179281785215E+00  0.0000000000000E+00
-0.8901724809746E+00 -0.8266356419629E+00  0.0000000000000E+00
-0.8994770747405E+00 -0.7348544970267E+00  0.0000000000000E+00
-0.9078196130017E+00 -0.6426397639724E+00  0.0000000000000E+00
-0.9151223246404E+00 -0.5500895678812E+00  0.0000000000000E+00
-0.9211220391125E+00 -0.4572812419253E+00  0.0000000000000E+00
-0.9253748097363E+00 -0.3643011288742E+00  0.0000000000000E+00
-0.9280830294945E+00 -0.2712743664508E+00  0.0000000000000E+00
-0.9273553566028E+00 -0.1785210563106E+00  0.0000000000000E+00
-0.9216136198406E+00 -0.8699349664939E-01  0.0000000000000E+00
-0.9118616357056E+00  0.2730408804202E-02  0.0000000000000E+00
-0.8991360337160E+00  0.9055074230215E-01  0.0000000000000E+00
-0.8844118779828E+00  0.1767890173054E+00  0.0000000000000E+00
-0.8681930692261E+00  0.2616396623902E+00  0.0000000000000E+00
-0.8507253755287E+00  0.3451278219878E+00  0.0000000000000E+00
-0.7927229579626E+00 -0.1273714530528E+01  0.0000000000000E+00
-0.8009970177392E+00 -0.1185816543790E+01  0.0000000000000E+00
-0.8096108139298E+00 -0.1097953852569E+01  0.0000000000000E+00
-0.8179199507468E+00 -0.1009686361438E+01  0.0000000000000E+00
-0.8257428545609E+00 -0.9209391737407E+00  0.0000000000000E+00
-0.8331613308469E+00 -0.8318076149775E+00  0.0000000000000E+00
-0.8401943800219E+00 -0.7423546945341E+00  0.0000000000000E+00
-0.8467499556851E+00 -0.6526180382057E+00  0.0000000000000E+00
-0.8527494223438E+00 -0.5626628707190E+00  0.0000000000000E+00
-0.8579602050271E+00 -0.4725389246792E+00  0.0000000000000E+00
-0.8620063584978E+00 -0.3823004535589E+00  0.0000000000000E+00
-0.8649428304042E+00 -0.2920275757042E+00  0.0000000000000E+00
-0.8654516005855E+00 -0.2019318535823E+00  0.0000000000000E+00
-0.8624537643804E+00 -0.1126479774958E+00  0.0000000000000E+00
-0.8566155798348E+00 -0.2456216487784E-01  0.0000000000000E+00
-0.8486386282961E+00  0.6225786639916E-01  0.0000000000000E+00
-0.8391889007890E+00  0.1480253576752E+00  0.0000000000000E+00
-0.8286192101987E+00  0.2328691181076E+00  0.0000000000000E+00
-0.8171091347244E+00  0.3168052909748E+00  0.0000000000000E+00
-0.7530262926939E+00 -0.1270218051859E+01  0.0000000000000E+00
-0.7573676616205E+00 -0.1183841039890E+01  0.0000000000000E+00
-0.7620405911220E+00 -0.1097482779905E+01  0.0000000000000E+00
-0.7667464824764E+00 -0.1010924153951E+01  0.0000000000000E+00
-0.7714198670190E+00 -0.9241289316708E+00  0.0000000000000E+00
-0.7761255694772E+00 -0.8371464302010E+00  0.0000000000000E+00
-0.7808888324672E+00 -0.7500098138566E+00  0.0000000000000E+00
-0.7856592039196E+00 -0.6627393139834E+00  0.0000000000000E+00
-0.7903571839912E+00 -0.5753672547891E+00  0.0000000000000E+00
-0.7947807932090E+00 -0.4879157688224E+00  0.0000000000000E+00
-0.7986220877978E+00 -0.4004070201384E+00  0.0000000000000E+00
-0.8017885703212E+00 -0.3128761060169E+00  0.0000000000000E+00
-0.8035355398389E+00 -0.2254260660222E+00  0.0000000000000E+00
-0.8032833607526E+00 -0.1383739655889E+00  0.0000000000000E+00
-0.8013607330460E+00 -0.5191433321603E-01  0.0000000000000E+00
-0.7981341898262E+00  0.3391731262723E-01  0.0000000000000E+00
-0.7939606487436E+00  0.1192259392064E+00  0.0000000000000E+00
-0.7890418346189E+00  0.2040747347020E+00  0.0000000000000E+00
-0.7834911356789E+00  0.2884708406368E+00  0.0000000000000E+00
 0.7530263043685E+00 -0.1270218053608E+01  0.0000000000000E+00
 0.7573676719998E+00 -0.1183841041557E+01  0.0000000000000E+00
 0.7620406002124E+00 -0.1097482781485E+01  0.0000000000000E+00
 0.7667464902935E+00 -0.1010924155438E+01  0.0000000000000E+00
 0.7714198735918E+00 -0.9241289330601E+00  0.0000000000000E+00
 0.7761255748516E+00 -0.8371464314874E+00  0.0000000000000E+00
 0.7808888367128E+00 -0.7500098150348E+00  0.0000000000000E+00
 0.7856592071364E+00 -0.6627393150508E+00  0.0000000000000E+00
 0.7903571863134E+00 -0.5753672557459E+00  0.0000000000000E+00
 0.7947807947991E+00 -0.4879157696728E+00  0.0000000000000E+00
 0.7986220888290E+00 -0.4004070208897E+00  0.0000000000000E+00
 0.8017885709542E+00 -0.3128761066771E+00  0.0000000000000E+00
 0.8035355402108E+00 -0.2254260665967E+00  0.0000000000000E+00
 0.8032833609624E+00 -0.1383739660813E+00  0.0000000000000E+00
 0.8013607331609E+00 -0.5191433362778E-01  0.0000000000000E+00
 0.7981341898900E+00  0.3391731229450E-01  0.0000000000000E+00
 0.7939606487837E+00  0.1192259389523E+00  0.0000000000000E+00
 0.7890418346513E+00  0.2040747345265E+00  0.0000000000000E+00
 0.7834911357119E+00  0.2884708405401E+00  0.0000000000000E+00
 0.7927229690089E+00 -0.1273714532262E+01  0.0000000000000E+00
 0.8009970275589E+00 -0.1185816545447E+01  0.0000000000000E+00
 0.8096108225272E+00 -0.1097953854141E+01  0.0000000000000E+00
 0.8179199581358E+00 -0.1009686362918E+01  0.0000000000000E+00
 0.8257428607702E+00 -0.9209391751259E+00  0.0000000000000E+00
 0.8331613359210E+00 -0.8318076162633E+00  0.0000000000000E+00
 0.8401943840277E+00 -0.7423546957159E+00  0.0000000000000E+00
 0.8467499587182E+00 -0.6526180392811E+00  0.0000000000000E+00
 0.8527494245320E+00 -0.5626628716882E+00  0.0000000000000E+00
 0.8579602065249E+00 -0.4725389255462E+00  0.0000000000000E+00
 0.8620063594690E+00 -0.3823004543303E+00  0.0000000000000E+00
 0.8649428310004E+00 -0.2920275763873E+00  0.0000000000000E+00
 0.8654516009409E+00 -0.2019318541816E+00  0.0000000000000E+00
 0.8624537645892E+00 -0.1126479780131E+00  0.0000000000000E+00
 0.8566155799597E+00 -0.2456216531384E-01  0.0000000000000E+00
 0.8486386283778E+00  0.6225786604307E-01  0.0000000000000E+00
 0.8391889008528E+00  0.1480253573988E+00  0.0000000000000E+00
 0.8286192102596E+00  0.2328691179110E+00  0.0000000000000E+00
 0.8171091347902E+00  0.3168052908585E+00  0.0000000000000E+00
 0.8323862300631E+00 -0.1277437457190E+01  0.0000000000000E+00
 0.8445947381175E+00 -0.1188006574008E+01  0.0000000000000E+00
 0.8571511584150E+00 -0.1098627529947E+01  0.0000000000000E+00
 0.8690652979196E+00 -0.1008639253417E+01  0.0000000000000E+00
 0.8800394782851E+00 -0.9179281798955E+00  0.0000000000000E+00
 0.8901724857490E+00 -0.8266356432415E+00  0.0000000000000E+00
 0.8994770785070E+00 -0.7348544982060E+00  0.0000000000000E+00
 0.9078196158517E+00 -0.6426397650503E+00  0.0000000000000E+00
 0.9151223266951E+00 -0.5500895688577E+00  0.0000000000000E+00
 0.9211220405183E+00 -0.4572812428042E+00  0.0000000000000E+00
 0.9253748106480E+00 -0.3643011296615E+00  0.0000000000000E+00
 0.9280830300542E+00 -0.2712743671533E+00  0.0000000000000E+00
 0.9273553569420E+00 -0.1785210569313E+00  0.0000000000000E+00
 0.9216136200487E+00 -0.8699349718877E-01  0.0000000000000E+00
 0.9118616358407E+00  0.2730408346272E-02  0.0000000000000E+00
 0.8991360338156E+00  0.9055074192457E-01  0.0000000000000E+00
 0.8844118780703E+00  0.1767890170080E+00  0.0000000000000E+00
 0.8681930693155E+00  0.2616396621734E+00  0.0000000000000E+00
 0.8507253756273E+00  0.3451278218524E+00  0.0000000000000E+00
 0.8720146964251E+00 -0.1281385926866E+01  0.0000000000000E+00
 0.8881594858509E+00 -0.1190410273179E+01  0.0000000000000E+00
 0.9046603633328E+00 -0.1099503002303E+01  0.0000000000000E+00
 0.9201813383709E+00 -0.1007782067791E+01  0.0000000000000E+00
 0.9343086281286E+00 -0.9150952356790E+00  0.0000000000000E+00
 0.9471579995906E+00 -0.8216298481850E+00  0.0000000000000E+00
 0.9587359686636E+00 -0.7275086057185E+00  0.0000000000000E+00
 0.9688673003020E+00 -0.6328039230203E+00  0.0000000000000E+00
 0.9774750878159E+00 -0.5376468253640E+00  0.0000000000000E+00
 0.9842655650327E+00 -0.4421422470013E+00  0.0000000000000E+00
 0.9887267838514E+00 -0.3464086198808E+00  0.0000000000000E+00
 0.9912085828374E+00 -0.2506160994206E+00  0.0000000000000E+00
 0.9892462960706E+00 -0.1551933426814E+00  0.0000000000000E+00
 0.9807624883295E+00 -0.6141023884543E-01  0.0000000000000E+00
 0.9670985349422E+00  0.2996362468928E-01  0.0000000000000E+00
 0.9496261135090E+00  0.1187961298265E+00  0.0000000000000E+00
 0.9296293609177E+00  0.2055170602043E+00  0.0000000000000E+00
 0.9077632654769E+00  0.2903864622674E+00  0.0000000000000E+00
 0.8843397850549E+00  0.3734384810002E+00  0.0000000000000E+00
 0.9116069964270E+00 -0.1285559006139E+01  0.0000000000000E+00
 0.9316899713668E+00 -0.1193026757043E+01  0.0000000000000E+00
 0.9521372101630E+00 -0.1100579434527E+01  0.0000000000000E+00
 0.9712669246345E+00 -0.1007114018582E+01  0.0000000000000E+00
 0.9885492277025E+00 -0.9124396042416E+00  0.0000000000000E+00
 0.1004116867100E+01 -0.8167895420793E+00  0.0000000000000E+00
 0.1017970116397E+01 -0.7203163784571E+00  0.0000000000000E+00
 0.1029892146207E+01 -0.6231099226104E+00  0.0000000000000E+00
 0.1039806914265E+01 -0.5253340998405E+00  0.0000000000000E+00
 0.1047390058661E+01 -0.4271214459819E+00  0.0000000000000E+00
 0.1052061629884E+01 -0.3286224820412E+00  0.0000000000000E+00
 0.1054318912369E+01 -0.2300523794564E+00  0.0000000000000E+00
 0.1051123913456E+01 -0.1319483668524E+00  0.0000000000000E+00
 0.1039899936664E+01 -0.3589790757152E-01  0.0000000000000E+00
 0.1022325916611E+01  0.5713772993158E-01  0.0000000000000E+00
 0.1000108578933E+01  0.1469942267442E+00  0.0000000000000E+00
 0.9748411330057E+00  0.2342096347455E+00  0.0000000000000E+00
 0.9473296544890E+00  0.3191096167040E+00  0.0000000000000E+00
 0.9179522909491E+00  0.4017373175599E+00  0.0000000000000E+00
 0.9511617784682E+00 -0.1289955727096E+01  0.0000000000000E+00
 0.9751849143037E+00 -0.1195855108645E+01  0.0000000000000E+00
 0.9995804897833E+00 -0.1101855960624E+01  0.0000000000000E+00
 0.1022320918812E+01 -0.1006634290744E+01  0.0000000000000E+00
 0.1042760210326E+01 -0.9099605214829E+00  0.0000000000000E+00
 0.1061048092807E+01 -0.8121140117675E+00  0.0000000000000E+00
 0.1077178597441E+01 -0.7132771542044E+00  0.0000000000000E+00
 0.1090893300493E+01 -0.6135571525397E+00  0.0000000000000E+00
 0.1102117024151E+01 -0.5131508319408E+00  0.0000000000000E+00
 0.1110494810684E+01 -0.4122183303305E+00  0.0000000000000E+00
 0.1115378709188E+01 -0.3109422576558E+00  0.0000000000000E+00
 0.1117413450252E+01 -0.2095827997078E+00  0.0000000000000E+00
 0.1112987711753E+01 -0.1087857727634E+00  0.0000000000000E+00
 0.1099025538743E+01 -0.1045619757369E-01  0.0000000000000E+00
 0.1077543425583E+01  0.8425297894781E-01  0.0000000000000E+00
 0.1050583145880E+01  0.1751452366042E+00  0.0000000000000E+00
 0.1020046981184E+01  0.2628668935907E+00  0.0000000000000E+00
 0.9868920942577E+00  0.3478092274642E+00  0.0000000000000E+00
 0.9515628222668E+00  0.4300243825253E+00  0.0000000000000E+00
 0.9906777116171E+00 -0.1294575089943E+01  0.0000000000000E+00
 0.1018643053905E+01 -0.1198894380829E+01  0.0000000000000E+00
 0.1046989011611E+01 -0.1103331686075E+01  0.0000000000000E+00
 0.1073342200480E+01 -0.1006342042387E+01  0.0000000000000E+00
 0.1096940525724E+01 -0.9076571981345E+00  0.0000000000000E+00
 0.1117950696577E+01 -0.8076025205997E+00  0.0000000000000E+00
 0.1136360501787E+01 -0.7063902489253E+00  0.0000000000000E+00
 0.1151869923269E+01 -0.6041449813834E+00  0.0000000000000E+00
 0.1164404647691E+01 -0.5010964428479E+00  0.0000000000000E+00
 0.1173579121410E+01 -0.3974323738340E+00  0.0000000000000E+00
 0.1178677392146E+01 -0.2933674731123E+00  0.0000000000000E+00
 0.1180491636942E+01 -0.1892069391688E+00  0.0000000000000E+00
 0.1174837201382E+01 -0.8570519195099E-01  0.0000000000000E+00
 0.1158138874929E+01  0.1491520704997E-01  0.0000000000000E+00
 0.1132750712161E+01  0.1113096350441E+00  0.0000000000000E+00
 0.1101049534597E+01  0.2032493700836E+00  0.0000000000000E+00
 0.1065246695648E+01  0.2914889947660E+00  0.0000000000000E+00
 0.1026450444921E+01  0.3764853999090E+00  0.0000000000000E+00
 0.9851713090814E+00  0.4582997285817E+00  0.0000000000000E+00
 0.1030153486187E+01 -0.1299416063908E+01  0.0000000000000E+00
 0.1062063149566E+01 -0.1202143597094E+01  0.0000000000000E+00
 0.1094361604124E+01 -0.1105005688649E+01  0.0000000000000E+00
 0.1124329667181E+01 -0.1006236405536E+01  0.0000000000000E+00
 0.1151089140492E+01 -0.9055288204733E+00  0.0000000000000E+00
 0.1174823714046E+01 -0.8032543090994E+00  0.0000000000000E+00
 0.1195514934100E+01 -0.6996549573837E+00  0.0000000000000E+00
 0.1212821188214E+01 -0.5948727581417E+00  0.0000000000000E+00
 0.1226669027563E+01 -0.4891703357950E+00  0.0000000000000E+00
 0.1236642302499E+01 -0.3827630339536E+00  0.0000000000000E+00
 0.1241957059382E+01 -0.2758976400968E+00  0.0000000000000E+00
 0.1243552922021E+01 -0.1689243637565E+00  0.0000000000000E+00
 0.1236671900766E+01 -0.6270624449766E-01  0.0000000000000E+00
 0.1217239532454E+01  0.4021663203052E-01  0.0000000000000E+00
 0.1187947432381E+01  0.1383079697260E+00  0.0000000000000E+00
 0.1151507469925E+01  0.2313068444249E+00  0.0000000000000E+00
 0.1110440070041E+01  0.3200761012256E+00  0.0000000000000E+00
 0.1066004568916E+01  0.4051382426875E+00  0.0000000000000E+00
 0.1018777682617E+01  0.4865634100600E+00  0.0000000000000E+00
 0.1069587814283E+01 -0.1304477588167E+01  0.0000000000000E+00
 0.1105443981358E+01 -0.1205601752468E+01  0.0000000000000E+00
 0.1141697115360E+01 -0.1106877019225E+01  0.0000000000000E+00
 0.1175282234897E+01 -0.1006316486910E+01  0.0000000000000E+00
 0.1205205038544E+01 -0.9035745510495E+00  0.0000000000000E+00
 0.1231666197044E+01 -0.7990685956414E+00  0.0000000000000E+00
 0.1254641014112E+01 -0.6930705537734E+00  0.0000000000000E+00
 0.1273746282939E+01 -0.5857398128207E+00  0.0000000000000E+00
 0.1288909419242E+01 -0.4773718965968E+00  0.0000000000000E+00
 0.1299683677272E+01 -0.3682097523073E+00  0.0000000000000E+00
 0.1305217102037E+01 -0.2585322560269E+00  0.0000000000000E+00
 0.1306596764446E+01 -0.1487346266938E+00  0.0000000000000E+00
 0.1298491336554E+01 -0.3978853936507E-01  0.0000000000000E+00
 0.1276327105619E+01  0.6544841264325E-01  0.0000000000000E+00
 0.1243133248179E+01  0.1652482624626E+00  0.0000000000000E+00
 0.1201956681431E+01  0.2593178832485E+00  0.0000000000000E+00
 0.1155626901552E+01  0.3486283807115E+00  0.0000000000000E+00
 0.1105554331047E+01  0.4337678676442E+00  0.0000000000000E+00
 0.1052381875283E+01  0.5148154828900E+00  0.0000000000000E+00
 0.1108979381271E+01 -0.1309758563495E+01  0.0000000000000E+00
 0.1148784301020E+01 -0.1209267805530E+01  0.0000000000000E+00
 0.1188994363424E+01 -0.1108944694180E+01  0.0000000000000E+00
 0.1226198788305E+01 -0.1006581360800E+01  0.0000000000000E+00
 0.1259287171406E+01 -0.9017935222202E+00  0.0000000000000E+00
 0.1288477164220E+01 -0.7950445707726E+00  0.0000000000000E+00
 0.1313737827865E+01 -0.6866362869336E+00  0.0000000000000E+00
 0.1334644361185E+01 -0.5767454526446E+00  0.0000000000000E+00
 0.1351125044467E+01 -0.4657004909350E+00  0.0000000000000E+00
 0.1362702535776E+01 -0.3537719530876E+00  0.0000000000000E+00
 0.1368456878830E+01 -0.2412708036395E+00  0.0000000000000E+00
 0.1369622591879E+01 -0.1286372692759E+00  0.0000000000000E+00
 0.1360295005896E+01 -0.1695167627600E-01  0.0000000000000E+00
 0.1335401162004E+01  0.9061089098460E-01  0.0000000000000E+00
 0.1298307798319E+01  0.1921307975221E+00  0.0000000000000E+00
 0.1252396879599E+01  0.2872827133698E+00  0.0000000000000E+00
 0.1200806972730E+01  0.3771460029035E+00  0.0000000000000E+00
 0.1145099586162E+01  0.4623743876070E+00  0.0000000000000E+00
 0.1085983814416E+01  0.5430560033294E+00  0.0000000000000E+00
 0.1148326982225E+01 -0.1315257878269E+01  0.0000000000000E+00
 0.1192082969631E+01 -0.1213140703241E+01  0.0000000000000E+00
 0.1236252275405E+01 -0.1111207719063E+01  0.0000000000000E+00
 0.1277078320301E+01 -0.1007030091224E+01  0.0000000000000E+00
 0.1313334597533E+01 -0.9001848563373E+00  0.0000000000000E+00
 0.1345255739343E+01 -0.7911814150685E+00  0.0000000000000E+00
 0.1372804564196E+01 -0.6803513955696E+00  0.0000000000000E+00
 0.1395514676580E+01 -0.5678889743635E+00  0.0000000000000E+00
 0.1413315221384E+01 -0.4541554735392E+00  0.0000000000000E+00
 0.1425698260390E+01 -0.3394490489509E+00  0.0000000000000E+00
 0.1431675836041E+01 -0.2241127534843E+00  0.0000000000000E+00
 0.1432629914269E+01 -0.1086318199455E+00  0.0000000000000E+00
 0.1422082481760E+01  0.5804758454327E-02  0.0000000000000E+00
 0.1394461336764E+01  0.1157044226246E+00  0.0000000000000E+00
 0.1353470779509E+01  0.2189558719973E+00  0.0000000000000E+00
 0.1302827822250E+01  0.3152015730252E+00  0.0000000000000E+00
 0.1245980102221E+01  0.4056291468740E+00  0.0000000000000E+00
 0.1184640213527E+01  0.4909579222208E+00  0.0000000000000E+00
 0.1119583439729E+01  0.5712850313400E+00  0.0000000000000E+00
 0.1187629400186E+01 -0.1320974387505E+01  0.0000000000000E+00
 0.1235338834732E+01 -0.1217219360904E+01  0.0000000000000E+00
 0.1283469763345E+01 -0.1113665069469E+01  0.0000000000000E+00
 0.1327919807393E+01 -0.1007661714042E+01  0.0000000000000E+00
 0.1367346357854E+01 -0.8987476495021E+00  0.0000000000000E+00
 0.1402001027722E+01 -0.7874782848550E+00  0.0000000000000E+00
 0.1431840392749E+01 -0.6742150962150E+00  0.0000000000000E+00
 0.1456356463060E+01 -0.5591696547043E+00  0.0000000000000E+00
 0.1475479248178E+01 -0.4427361813186E+00  0.0000000000000E+00
 0.1488670213493E+01 -0.3252404369779E+00  0.0000000000000E+00
 0.1494873400188E+01 -0.2070575628063E+00  0.0000000000000E+00
 0.1495618222237E+01 -0.8871779611777E-01  0.0000000000000E+00
 0.1483853318695E+01  0.2848118730761E-01  0.0000000000000E+00
 0.1453507248244E+01  0.1407293698923E+00  0.0000000000000E+00
 0.1408621873807E+01  0.2457237879833E+00  0.0000000000000E+00
 0.1353249255096E+01  0.3430747039949E+00  0.0000000000000E+00
 0.1291146099354E+01  0.4340779940265E+00  0.0000000000000E+00
 0.1224176086056E+01  0.5195185924651E+00  0.0000000000000E+00
 0.1153180687696E+01  0.5995026274340E+00  0.0000000000000E+00
 0.1226885438803E+01 -0.1326906919430E+01  0.0000000000000E+00
 0.1278550763245E+01 -0.1221502668444E+01  0.0000000000000E+00
 0.1330645757439E+01 -0.1116315697018E+01  0.0000000000000E+00
 0.1378722243017E+01 -0.1008475242550E+01  0.0000000000000E+00
 0.1421321509020E+01 -0.8974809766741E+00  0.0000000000000E+00
 0.1458712149199E+01 -0.7839343167424E+00  0.0000000000000E+00
 0.1490844496529E+01 -0.6682265871201E+00  0.0000000000000E+00
 0.1517168966759E+01 -0.5505867535472E+00  0.0000000000000E+00
 0.1537616434081E+01 -0.4314419357761E+00  0.0000000000000E+00
 0.1551617767383E+01 -0.3111455002865E+00  0.0000000000000E+00
 0.1558049006595E+01 -0.1901046763326E+00  0.0000000000000E+00
 0.1558587014113E+01 -0.6889470413509E-01  0.0000000000000E+00
 0.1545607077895E+01  0.5107804239726E-01  0.0000000000000E+00
 0.1512538520417E+01  0.1656861033204E+00  0.0000000000000E+00
 0.1463760767916E+01  0.2724348543701E+00  0.0000000000000E+00
 0.1403660927541E+01  0.3709023534638E+00  0.0000000000000E+00
 0.1336304776212E+01  0.4624927297960E+00  0.0000000000000E+00
 0.1263707078492E+01  0.5480565219923E+00  0.0000000000000E+00
 0.1186775495697E+01  0.6277088534522E+00  0.0000000000000E+00
 0.1266093900534E+01 -0.1333054271612E+01  0.0000000000000E+00
 0.1321717619441E+01 -0.1225989486703E+01  0.0000000000000E+00
 0.1377779183766E+01 -0.1119158525826E+01  0.0000000000000E+00
 0.1429484615149E+01 -0.1009469664182E+01  0.0000000000000E+00
 0.1475259101023E+01 -0.8963838886716E+00  0.0000000000000E+00
 0.1515388215900E+01 -0.7805486249883E+00  0.0000000000000E+00
 0.1549816049915E+01 -0.6623850460261E+00  0.0000000000000E+00
 0.1577951424441E+01 -0.5421395121565E+00  0.0000000000000E+00
 0.1599726078373E+01 -0.4202720417312E+00  0.0000000000000E+00
 0.1614540283988E+01 -0.2971636072724E+00  0.0000000000000E+00
 0.1621202079995E+01 -0.1732535260491E+00  0.0000000000000E+00
 0.1621535777559E+01 -0.4916203958404E-01  0.0000000000000E+00
 0.1607343310144E+01  0.7359576464093E-01  0.0000000000000E+00
 0.1571554767608E+01  0.1905750004316E+00  0.0000000000000E+00
 0.1518887140039E+01  0.2990893854236E+00  0.0000000000000E+00
 0.1454062581912E+01  0.3986847725911E+00  0.0000000000000E+00
 0.1381455939403E+01  0.4908735423656E+00  0.0000000000000E+00
 0.1303233061826E+01  0.5765718361307E+00  0.0000000000000E+00
 0.1220367799190E+01  0.6559037719900E+00  0.0000000000000E+00
 0.1305253598805E+01 -0.1339415213768E+01  0.0000000000000E+00
 0.1364838277184E+01 -0.1230678650124E+01  0.0000000000000E+00
 0.1424868976629E+01 -0.1122192455048E+01  0.0000000000000E+00
 0.1480205918667E+01 -0.1010643942895E+01  0.0000000000000E+00
 0.1529158189524E+01 -0.8954554143590E+00  0.0000000000000E+00
 0.1572028344460E+01 -0.7773203034531E+00  0.0000000000000E+00
 0.1608754230714E+01 -0.6566896318631E+00  0.0000000000000E+00
 0.1638703075296E+01 -0.5338271545977E+00  0.0000000000000E+00
 0.1661807481841E+01 -0.4092257884365E+00  0.0000000000000E+00
 0.1677437125922E+01 -0.2832941124128E+00  0.0000000000000E+00
 0.1684332045081E+01 -0.1565035316807E+00  0.0000000000000E+00
 0.1684463999550E+01 -0.2951928744993E-01  0.0000000000000E+00
 0.1669061565065E+01  0.9603480391581E-01  0.0000000000000E+00
 0.1630555602763E+01  0.2153964461378E+00  0.0000000000000E+00
 0.1574000666993E+01  0.3256877013338E+00  0.0000000000000E+00
 0.1504453959286E+01  0.4264222171044E+00  0.0000000000000E+00
 0.1426599394506E+01  0.5192206232231E+00  0.0000000000000E+00
 0.1342753906311E+01  0.6050646623300E+00  0.0000000000000E+00
 0.1253957533241E+01  0.6840874466600E+00  0.0000000000000E+00
 0.1344363463886E+01 -0.1345988512312E+01  0.0000000000000E+00
 0.1407911726821E+01 -0.1235568990149E+01  0.0000000000000E+00
 0.1471914186453E+01 -0.1125416381172E+01  0.0000000000000E+00
 0.1530885263794E+01 -0.1011997040041E+01  0.0000000000000E+00
 0.1583017944169E+01 -0.8946945797580E+00  0.0000000000000E+00
 0.1628631763594E+01 -0.7742484426668E+00  0.0000000000000E+00
 0.1667658326345E+01 -0.6511394995318E+00  0.0000000000000E+00
 0.1699423265050E+01 -0.5256489000186E+00  0.0000000000000E+00
 0.1723860048123E+01 -0.3983024591913E+00  0.0000000000000E+00
 0.1740307754306E+01 -0.2695363630824E+00  0.0000000000000E+00
 0.1747438419983E+01 -0.1398541046292E+00  0.0000000000000E+00
 0.1747371254871E+01 -0.9965923158563E-02  0.0000000000000E+00
 0.1730761473203E+01  0.1183956207761E+00  0.0000000000000E+00
 0.1689540710963E+01  0.2401508366226E+00  0.0000000000000E+00
 0.1629101087451E+01  0.3522301333911E+00  0.0000000000000E+00
 0.1554834851269E+01  0.4541149528549E+00  0.0000000000000E+00
 0.1471734985641E+01  0.5475341723337E+00  0.0000000000000E+00
 0.1382269508274E+01  0.6335351342853E+00  0.0000000000000E+00
 0.1287544646131E+01  0.7122599445139E+00  0.0000000000000E+00
 0.1383422397442E+01 -0.1352772900237E+01  0.0000000000000E+00
 0.1450936928321E+01 -0.1240659306487E+01  0.0000000000000E+00
 0.1518913831514E+01 -0.1128829170621E+01  0.0000000000000E+00
 0.1581521727071E+01 -0.1013527888730E+01  0.0000000000000E+00
 0.1636837499717E+01 -0.8941003846407E+00  0.0000000000000E+00
 0.1685197666234E+01 -0.7713321090438E+00  0.0000000000000E+00
 0.1726527587863E+01 -0.6457337820702E+00  0.0000000000000E+00
 0.1760111302833E+01 -0.5176039480646E+00  0.0000000000000E+00
 0.1785883144369E+01 -0.3875013202364E+00  0.0000000000000E+00
 0.1803151594260E+01 -0.2558896921055E+00  0.0000000000000E+00
 0.1810520687724E+01 -0.1233046442937E+00  0.0000000000000E+00
 0.1810257084407E+01  0.9498587309285E-02  0.0000000000000E+00
 0.1792442633128E+01  0.1406786827331E+00  0.0000000000000E+00
 0.1748509748313E+01  0.2648385728346E+00  0.0000000000000E+00
 0.1684188114957E+01  0.3787170158914E+00  0.0000000000000E+00
 0.1605205028773E+01  0.4817632473949E+00  0.0000000000000E+00
 0.1516862541040E+01  0.5758143904379E+00  0.0000000000000E+00
 0.1421779753236E+01  0.6619833858726E+00  0.0000000000000E+00
 0.1321129080636E+01  0.7404213325146E+00  0.0000000000000E+00
 0.1422429228029E+01 -0.1359767065724E+01  0.0000000000000E+00
 0.1493912766301E+01 -0.1245948356251E+01  0.0000000000000E+00
 0.1565866852479E+01 -0.1132429649424E+01  0.0000000000000E+00
 0.1632114305621E+01 -0.1015235384149E+01  0.0000000000000E+00
 0.1690615910306E+01 -0.8936717936491E+00  0.0000000000000E+00
 0.1741725164067E+01 -0.7685703369241E+00  0.0000000000000E+00
 0.1785361185048E+01 -0.6404715837209E+00  0.0000000000000E+00
 0.1820766417108E+01 -0.5096914730635E+00  0.0000000000000E+00
 0.1847876058322E+01 -0.3768216161282E+00  0.0000000000000E+00
 0.1865967993429E+01 -0.2423534143737E+00  0.0000000000000E+00
 0.1873578256564E+01 -0.1068545359697E+00  0.0000000000000E+00
 0.1873120957578E+01  0.2887478823199E-01  0.0000000000000E+00
 0.1854104576573E+01  0.1628844638412E+00  0.0000000000000E+00
 0.1807462310716E+01  0.2894600590995E+00  0.0000000000000E+00
 0.1739261411041E+01  0.4051486841471E+00  0.0000000000000E+00
 0.1655564219998E+01  0.5093673677810E+00  0.0000000000000E+00
 0.1561981856234E+01  0.6040614769726E+00  0.0000000000000E+00
 0.1461284504515E+01  0.6904095494733E+00  0.0000000000000E+00
 0.1354710768243E+01  0.7685716765449E+00  0.0000000000000E+00
 0.1461382977685E+01 -0.1366969715541E+01  0.0000000000000E+00
 0.1536838319223E+01 -0.1251434914409E+01  0.0000000000000E+00
 0.1612772384243E+01 -0.1136216660760E+01  0.0000000000000E+00
 0.1682662190401E+01 -0.1017118437462E+01  0.0000000000000E+00
 0.1744352422465E+01 -0.8934077856720E+00  0.0000000000000E+00
 0.1798213558725E+01 -0.7659621727097E+00  0.0000000000000E+00
 0.1844158474159E+01 -0.6353520182180E+00  0.0000000000000E+00
 0.1881388018237E+01 -0.5019106559195E+00  0.0000000000000E+00
 0.1909838253925E+01 -0.3662625948152E+00  0.0000000000000E+00
 0.1928756468782E+01 -0.2289268447810E+00  0.0000000000000E+00
 0.1936610695870E+01 -0.9050316143287E-01  0.0000000000000E+00
 0.1935962495682E+01  0.4816323095776E-01  0.0000000000000E+00
 0.1915746975620E+01  0.1850134485560E+00  0.0000000000000E+00
 0.1866398119422E+01  0.3140157125225E+00  0.0000000000000E+00
 0.1794320744879E+01  0.4315254872332E+00  0.0000000000000E+00
 0.1705912241167E+01  0.5369275943465E+00  0.0000000000000E+00
 0.1607092793932E+01  0.6322756429451E+00  0.0000000000000E+00
 0.1500783670909E+01  0.7188137662650E+00  0.0000000000000E+00
 0.1388289663505E+01  0.7967110474620E+00  0.0000000000000E+00
-0.7394329578238E+00  0.3828904307871E+00  0.0000000000000E+00
-0.7655763767500E+00  0.4111916020047E+00  0.0000000000000E+00
-0.7917197956763E+00  0.4394927732223E+00  0.0000000000000E+00
-0.8178632146026E+00  0.4677939444398E+00  0.0000000000000E+00
-0.8440066335289E+00  0.4960951156574E+00  0.0000000000000E+00
-0.8701500524552E+00  0.5243962868750E+00  0.0000000000000E+00
-0.8962934713814E+00  0.5526974580926E+00  0.0000000000000E+00
-0.9224368903077E+00  0.5809986293101E+00  0.0000000000000E+00
-0.9485803092340E+00  0.6092998005277E+00  0.0000000000000E+00
-0.9747237281603E+00  0.6376009717453E+00  0.0000000000000E+00
-0.1000867147087E+01  0.6659021429629E+00  0.0000000000000E+00
-0.1027010566013E+01  0.6942033141804E+00  0.0000000000000E+00
-0.1053153984939E+01  0.7225044853980E+00  0.0000000000000E+00
-0.1079297403865E+01  0.7508056566156E+00  0.0000000000000E+00
-0.1105440822792E+01  0.7791068278332E+00  0.0000000000000E+00
-0.1131584241718E+01  0.8074079990507E+00  0.0000000000000E+00
-0.1157727660644E+01  0.8357091702683E+00  0.0000000000000E+00
-0.1183871079571E+01  0.8640103414859E+00  0.0000000000000E+00
-0.1210014498497E+01  0.8923115127035E+00  0.0000000000000E+00
-0.7013395436708E+00  0.3928851883992E+00  0.0000000000000E+00
-0.7262154211400E+00  0.4220388918148E+00  0.0000000000000E+00
-0.7510912986091E+00  0.4511925952303E+00  0.0000000000000E+00
-0.7759671760782E+00  0.4803462986459E+00  0.0000000000000E+00
-0.8008430535474E+00  0.5095000020614E+00  0.0000000000000E+00
-0.8257189310165E+00  0.5386537054770E+00  0.0000000000000E+00
-0.8505948084856E+00  0.5678074088926E+00  0.0000000000000E+00
-0.8754706859548E+00  0.5969611123081E+00  0.0000000000000E+00
-0.9003465634239E+00  0.6261148157237E+00  0.0000000000000E+00
-0.9252224408930E+00  0.6552685191392E+00  0.0000000000000E+00
-0.9500983183622E+00  0.6844222225548E+00  0.0000000000000E+00
-0.9749741958313E+00  0.7135759259704E+00  0.0000000000000E+00
-0.9998500733004E+00  0.7427296293859E+00  0.0000000000000E+00
-0.1024725950770E+01  0.7718833328015E+00  0.0000000000000E+00
-0.1049601828239E+01  0.8010370362170E+00  0.0000000000000E+00
-0.1074477705708E+01  0.8301907396326E+00  0.0000000000000E+00
-0.1099353583177E+01  0.8593444430482E+00  0.0000000000000E+00
-0.1124229460646E+01  0.8884981464637E+00  0.0000000000000E+00
-0.1149105338115E+01  0.9176518498793E+00  0.0000000000000E+00
-0.6631144762003E+00  0.4023799804788E+00  0.0000000000000E+00
-0.6867022089859E+00  0.4323453794399E+00  0.0000000000000E+00
-0.7102899417715E+00  0.4623107784010E+00  0.0000000000000E+00
-0.7338776745571E+00  0.4922761773621E+00  0.0000000000000E+00
-0.7574654073427E+00  0.5222415763231E+00  0.0000000000000E+00
-0.7810531401284E+00  0.5522069752842E+00  0.0000000000000E+00
-0.8046408729140E+00  0.5821723742453E+00  0.0000000000000E+00
-0.8282286056996E+00  0.6121377732064E+00  0.0000000000000E+00
-0.8518163384852E+00  0.6421031721674E+00  0.0000000000000E+00
-0.8754040712708E+00  0.6720685711285E+00  0.0000000000000E+00
-0.8989918040564E+00  0.7020339700896E+00  0.0000000000000E+00
-0.9225795368421E+00  0.7319993690506E+00  0.0000000000000E+00
-0.9461672696277E+00  0.7619647680117E+00  0.0000000000000E+00
-0.9697550024133E+00  0.7919301669728E+00  0.0000000000000E+00
-0.9933427351989E+00  0.8218955659339E+00  0.0000000000000E+00
-0.1016930467985E+01  0.8518609648949E+00  0.0000000000000E+00
-0.1040518200770E+01  0.8818263638560E+00  0.0000000000000E+00
-0.1064105933556E+01  0.9117917628171E+00  0.0000000000000E+00
-0.1087693666341E+01  0.9417571617782E+00  0.0000000000000E+00
-0.6247718534183E+00  0.4113904599736E+00  0.0000000000000E+00
-0.6470599869664E+00  0.4421478324469E+00  0.0000000000000E+00
-0.6693481205145E+00  0.4729052049202E+00  0.0000000000000E+00
-0.6916362540626E+00  0.5036625773935E+00  0.0000000000000E+00
-0.7139243876107E+00  0.5344199498667E+00  0.0000000000000E+00
-0.7362125211588E+00  0.5651773223400E+00  0.0000000000000E+00
-0.7585006547069E+00  0.5959346948133E+00  0.0000000000000E+00
-0.7807887882550E+00  0.6266920672866E+00  0.0000000000000E+00
-0.8030769218031E+00  0.6574494397599E+00  0.0000000000000E+00
-0.8253650553512E+00  0.6882068122331E+00  0.0000000000000E+00
-0.8476531888993E+00  0.7189641847064E+00  0.0000000000000E+00
-0.8699413224474E+00  0.7497215571797E+00  0.0000000000000E+00
-0.8922294559955E+00  0.7804789296530E+00  0.0000000000000E+00
-0.9145175895436E+00  0.8112363021263E+00  0.0000000000000E+00
-0.9368057230917E+00  0.8419936745995E+00  0.0000000000000E+00
-0.9590938566398E+00  0.8727510470728E+00  0.0000000000000E+00
-0.9813819901879E+00  0.9035084195461E+00  0.0000000000000E+00
-0.1003670123736E+01  0.9342657920194E+00  0.0000000000000E+00
-0.1025958257284E+01  0.9650231644927E+00  0.0000000000000E+00
-0.5863228019837E+00  0.4199269192811E+00  0.0000000000000E+00
-0.6073059538729E+00  0.4514720689964E+00  0.0000000000000E+00
-0.6282891057621E+00  0.4830172187117E+00  0.0000000000000E+00
-0.6492722576512E+00  0.5145623684270E+00  0.0000000000000E+00
-0.6702554095404E+00  0.5461075181424E+00  0.0000000000000E+00
-0.6912385614296E+00  0.5776526678577E+00  0.0000000000000E+00
-0.7122217133188E+00  0.6091978175730E+00  0.0000000000000E+00
-0.7332048652079E+00  0.6407429672884E+00  0.0000000000000E+00
-0.7541880170971E+00  0.6722881170037E+00  0.0000000000000E+00
-0.7751711689863E+00  0.7038332667190E+00  0.0000000000000E+00
-0.7961543208755E+00  0.7353784164343E+00  0.0000000000000E+00
-0.8171374727647E+00  0.7669235661497E+00  0.0000000000000E+00
-0.8381206246538E+00  0.7984687158650E+00  0.0000000000000E+00
-0.8591037765430E+00  0.8300138655803E+00  0.0000000000000E+00
-0.8800869284322E+00  0.8615590152956E+00  0.0000000000000E+00
-0.9010700803214E+00  0.8931041650110E+00  0.0000000000000E+00
-0.9220532322105E+00  0.9246493147263E+00  0.0000000000000E+00
-0.9430363840997E+00  0.9561944644416E+00  0.0000000000000E+00
-0.9640195359889E+00  0.9877396141569E+00  0.0000000000000E+00
-0.5477768854188E+00  0.4279968810199E+00  0.0000000000000E+00
-0.5674541536864E+00  0.4603381160929E+00  0.0000000000000E+00
-0.5871314219540E+00  0.4926793511658E+00  0.0000000000000E+00
-0.6068086902216E+00  0.5250205862388E+00  0.0000000000000E+00
-0.6264859584892E+00  0.5573618213118E+00  0.0000000000000E+00
-0.6461632267567E+00  0.5897030563848E+00  0.0000000000000E+00
-0.6658404950243E+00  0.6220442914577E+00  0.0000000000000E+00
-0.6855177632919E+00  0.6543855265307E+00  0.0000000000000E+00
-0.7051950315595E+00  0.6867267616037E+00  0.0000000000000E+00
-0.7248722998271E+00  0.7190679966767E+00  0.0000000000000E+00
-0.7445495680947E+00  0.7514092317496E+00  0.0000000000000E+00
-0.7642268363623E+00  0.7837504668226E+00  0.0000000000000E+00
-0.7839041046299E+00  0.8160917018956E+00  0.0000000000000E+00
-0.8035813728974E+00  0.8484329369686E+00  0.0000000000000E+00
-0.8232586411650E+00  0.8807741720415E+00  0.0000000000000E+00
-0.8429359094326E+00  0.9131154071145E+00  0.0000000000000E+00
-0.8626131777002E+00  0.9454566421875E+00  0.0000000000000E+00
-0.8822904459678E+00  0.9777978772605E+00  0.0000000000000E+00
-0.9019677142354E+00  0.1010139112333E+01  0.0000000000000E+00
-0.5091428679054E+00  0.4356052711820E+00  0.0000000000000E+00
-0.5275166038674E+00  0.4687606222180E+00  0.0000000000000E+00
-0.5458903398295E+00  0.5019159732541E+00  0.0000000000000E+00
-0.5642640757915E+00  0.5350713242901E+00  0.0000000000000E+00
-0.5826378117536E+00  0.5682266753261E+00  0.0000000000000E+00
-0.6010115477157E+00  0.6013820263622E+00  0.0000000000000E+00
-0.6193852836777E+00  0.6345373773982E+00  0.0000000000000E+00
-0.6377590196398E+00  0.6676927284343E+00  0.0000000000000E+00
-0.6561327556018E+00  0.7008480794703E+00  0.0000000000000E+00
-0.6745064915639E+00  0.7340034305064E+00  0.0000000000000E+00
-0.6928802275259E+00  0.7671587815424E+00  0.0000000000000E+00
-0.7112539634880E+00  0.8003141325785E+00  0.0000000000000E+00
-0.7296276994500E+00  0.8334694836145E+00  0.0000000000000E+00
-0.7480014354121E+00  0.8666248346506E+00  0.0000000000000E+00
-0.7663751713741E+00  0.8997801856866E+00  0.0000000000000E+00
-0.7847489073362E+00  0.9329355367227E+00  0.0000000000000E+00
-0.8031226432983E+00  0.9660908877587E+00  0.0000000000000E+00
-0.8214963792603E+00  0.9992462387948E+00  0.0000000000000E+00
-0.8398701152224E+00  0.1032401589831E+01  0.0000000000000E+00
-0.4704201189630E+00  0.4427312295667E+00  0.0000000000000E+00
-0.4874864927934E+00  0.4767023850508E+00  0.0000000000000E+00
-0.5045528666239E+00  0.5106735405349E+00  0.0000000000000E+00
-0.5216192404544E+00  0.5446446960190E+00  0.0000000000000E+00
-0.5386856142848E+00  0.5786158515031E+00  0.0000000000000E+00
-0.5557519881153E+00  0.6125870069873E+00  0.0000000000000E+00
-0.5728183619458E+00  0.6465581624714E+00  0.0000000000000E+00
-0.5898847357762E+00  0.6805293179555E+00  0.0000000000000E+00
-0.6069511096067E+00  0.7145004734396E+00  0.0000000000000E+00
-0.6240174834372E+00  0.7484716289237E+00  0.0000000000000E+00
-0.6410838572677E+00  0.7824427844079E+00  0.0000000000000E+00
-0.6581502310981E+00  0.8164139398920E+00  0.0000000000000E+00
-0.6752166049286E+00  0.8503850953761E+00  0.0000000000000E+00
-0.6922829787591E+00  0.8843562508602E+00  0.0000000000000E+00
-0.7093493525895E+00  0.9183274063443E+00  0.0000000000000E+00
-0.7264157264200E+00  0.9522985618284E+00  0.0000000000000E+00
-0.7434821002505E+00  0.9862697173126E+00  0.0000000000000E+00
-0.7605484740810E+00  0.1020240872797E+01  0.0000000000000E+00
-0.7776148479114E+00  0.1054212028281E+01  0.0000000000000E+00
-0.4316001604194E+00  0.4493289287895E+00  0.0000000000000E+00
-0.4473410322604E+00  0.4840760209663E+00  0.0000000000000E+00
-0.4630819041013E+00  0.5188231131430E+00  0.0000000000000E+00
-0.4788227759422E+00  0.5535702053198E+00  0.0000000000000E+00
-0.4945636477831E+00  0.5883172974965E+00  0.0000000000000E+00
-0.5103045196240E+00  0.6230643896733E+00  0.0000000000000E+00
-0.5260453914650E+00  0.6578114818500E+00  0.0000000000000E+00
-0.5417862633059E+00  0.6925585740268E+00  0.0000000000000E+00
-0.5575271351468E+00  0.7273056662035E+00  0.0000000000000E+00
-0.5732680069877E+00  0.7620527583802E+00  0.0000000000000E+00
-0.5890088788287E+00  0.7967998505570E+00  0.0000000000000E+00
-0.6047497506696E+00  0.8315469427337E+00  0.0000000000000E+00
-0.6204906225105E+00  0.8662940349105E+00  0.0000000000000E+00
-0.6362314943514E+00  0.9010411270872E+00  0.0000000000000E+00
-0.6519723661924E+00  0.9357882192640E+00  0.0000000000000E+00
-0.6677132380333E+00  0.9705353114407E+00  0.0000000000000E+00
-0.6834541098742E+00  0.1005282403617E+01  0.0000000000000E+00
-0.6991949817151E+00  0.1040029495794E+01  0.0000000000000E+00
-0.7149358535560E+00  0.1074776587971E+01  0.0000000000000E+00
-0.3926829942859E+00  0.4553717726819E+00  0.0000000000000E+00
-0.4070743133994E+00  0.4908323142830E+00  0.0000000000000E+00
-0.4214656325129E+00  0.5262928558841E+00  0.0000000000000E+00
-0.4358569516264E+00  0.5617533974853E+00  0.0000000000000E+00
-0.4502482707400E+00  0.5972139390864E+00  0.0000000000000E+00
-0.4646395898535E+00  0.6326744806875E+00  0.0000000000000E+00
-0.4790309089670E+00  0.6681350222886E+00  0.0000000000000E+00
-0.4934222280806E+00  0.7035955638897E+00  0.0000000000000E+00
-0.5078135471941E+00  0.7390561054908E+00  0.0000000000000E+00
-0.5222048663076E+00  0.7745166470919E+00  0.0000000000000E+00
-0.5365961854212E+00  0.8099771886930E+00  0.0000000000000E+00
-0.5509875045347E+00  0.8454377302941E+00  0.0000000000000E+00
-0.5653788236482E+00  0.8808982718952E+00  0.0000000000000E+00
-0.5797701427618E+00  0.9163588134963E+00  0.0000000000000E+00
-0.5941614618753E+00  0.9518193550975E+00  0.0000000000000E+00
-0.6085527809888E+00  0.9872798966986E+00  0.0000000000000E+00
-0.6229441001024E+00  0.1022740438300E+01  0.0000000000000E+00
-0.6373354192159E+00  0.1058200979901E+01  0.0000000000000E+00
-0.6517267383294E+00  0.1093661521502E+01  0.0000000000000E+00
-0.3536746458292E+00  0.4608476922473E+00  0.0000000000000E+00
-0.3666922613378E+00  0.4969508181436E+00  0.0000000000000E+00
-0.3797098768463E+00  0.5330539440399E+00  0.0000000000000E+00
-0.3927274923549E+00  0.5691570699361E+00  0.0000000000000E+00
-0.4057451078635E+00  0.6052601958324E+00  0.0000000000000E+00
-0.4187627233720E+00  0.6413633217287E+00  0.0000000000000E+00
-0.4317803388806E+00  0.6774664476250E+00  0.0000000000000E+00
-0.4447979543892E+00  0.7135695735212E+00  0.0000000000000E+00
-0.4578155698977E+00  0.7496726994175E+00  0.0000000000000E+00
-0.4708331854063E+00  0.7857758253138E+00  0.0000000000000E+00
-0.4838508009149E+00  0.8218789512100E+00  0.0000000000000E+00
-0.4968684164235E+00  0.8579820771063E+00  0.0000000000000E+00
-0.5098860319320E+00  0.8940852030026E+00  0.0000000000000E+00
-0.5229036474406E+00  0.9301883288989E+00  0.0000000000000E+00
-0.5359212629492E+00  0.9662914547951E+00  0.0000000000000E+00
-0.5489388784577E+00  0.1002394580691E+01  0.0000000000000E+00
-0.5619564939663E+00  0.1038497706588E+01  0.0000000000000E+00
-0.5749741094749E+00  0.1074600832484E+01  0.0000000000000E+00
-0.5879917249834E+00  0.1110703958380E+01  0.0000000000000E+00
-0.3145837448712E+00  0.4657520002446E+00  0.0000000000000E+00
-0.3262058732712E+00  0.5024255397187E+00  0.0000000000000E+00
-0.3378280016712E+00  0.5390990791928E+00  0.0000000000000E+00
-0.3494501300712E+00  0.5757726186668E+00  0.0000000000000E+00
-0.3610722584712E+00  0.6124461581409E+00  0.0000000000000E+00
-0.3726943868712E+00  0.6491196976150E+00  0.0000000000000E+00
-0.3843165152712E+00  0.6857932370891E+00  0.0000000000000E+00
-0.3959386436712E+00  0.7224667765632E+00  0.0000000000000E+00
-0.4075607720712E+00  0.7591403160373E+00  0.0000000000000E+00
-0.4191829004712E+00  0.7958138555114E+00  0.0000000000000E+00
-0.4308050288712E+00  0.8324873949855E+00  0.0000000000000E+00
-0.4424271572712E+00  0.8691609344596E+00  0.0000000000000E+00
-0.4540492856712E+00  0.9058344739336E+00  0.0000000000000E+00
-0.4656714140712E+00  0.9425080134077E+00  0.0000000000000E+00
-0.4772935424712E+00  0.9791815528818E+00  0.0000000000000E+00
-0.4889156708713E+00  0.1015855092356E+01  0.0000000000000E+00
-0.5005377992713E+00  0.1052528631830E+01  0.0000000000000E+00
-0.5121599276713E+00  0.1089202171304E+01  0.0000000000000E+00
-0.5237820560713E+00  0.1125875710778E+01  0.0000000000000E+00
-0.2754196909618E+00  0.4700832706777E+00  0.0000000000000E+00
-0.2856275626982E+00  0.5072566872297E+00  0.0000000000000E+00
-0.2958354344346E+00  0.5444301037817E+00  0.0000000000000E+00
-0.3060433061710E+00  0.5816035203337E+00  0.0000000000000E+00
-0.3162511779074E+00  0.6187769368857E+00  0.0000000000000E+00
-0.3264590496438E+00  0.6559503534378E+00  0.0000000000000E+00
-0.3366669213802E+00  0.6931237699898E+00  0.0000000000000E+00
-0.3468747931166E+00  0.7302971865418E+00  0.0000000000000E+00
-0.3570826648530E+00  0.7674706030938E+00  0.0000000000000E+00
-0.3672905365894E+00  0.8046440196458E+00  0.0000000000000E+00
-0.3774984083258E+00  0.8418174361978E+00  0.0000000000000E+00
-0.3877062800623E+00  0.8789908527498E+00  0.0000000000000E+00
-0.3979141517987E+00  0.9161642693018E+00  0.0000000000000E+00
-0.4081220235351E+00  0.9533376858538E+00  0.0000000000000E+00
-0.4183298952715E+00  0.9905111024059E+00  0.0000000000000E+00
-0.4285377670079E+00  0.1027684518958E+01  0.0000000000000E+00
-0.4387456387443E+00  0.1064857935510E+01  0.0000000000000E+00
-0.4489535104807E+00  0.1102031352062E+01  0.0000000000000E+00
-0.4591613822171E+00  0.1139204768614E+01  0.0000000000000E+00
-0.2361919209299E+00  0.4738412269098E+00  0.0000000000000E+00
-0.2449696928514E+00  0.5114464367078E+00  0.0000000000000E+00
-0.2537474647729E+00  0.5490516465058E+00  0.0000000000000E+00
-0.2625252366944E+00  0.5866568563038E+00  0.0000000000000E+00
-0.2713030086160E+00  0.6242620661018E+00  0.0000000000000E+00
-0.2800807805375E+00  0.6618672758998E+00  0.0000000000000E+00
-0.2888585524590E+00  0.6994724856977E+00  0.0000000000000E+00
-0.2976363243805E+00  0.7370776954957E+00  0.0000000000000E+00
-0.3064140963021E+00  0.7746829052937E+00  0.0000000000000E+00
-0.3151918682236E+00  0.8122881150917E+00  0.0000000000000E+00
-0.3239696401451E+00  0.8498933248897E+00  0.0000000000000E+00
-0.3327474120667E+00  0.8874985346877E+00  0.0000000000000E+00
-0.3415251839882E+00  0.9251037444857E+00  0.0000000000000E+00
-0.3503029559097E+00  0.9627089542837E+00  0.0000000000000E+00
-0.3590807278312E+00  0.1000314164082E+01  0.0000000000000E+00
-0.3678584997528E+00  0.1037919373880E+01  0.0000000000000E+00
-0.3766362716743E+00  0.1075524583678E+01  0.0000000000000E+00
-0.3854140435958E+00  0.1113129793476E+01  0.0000000000000E+00
-0.3941918155173E+00  0.1150735003274E+01  0.0000000000000E+00
-0.1969098270509E+00  0.4770256980868E+00  0.0000000000000E+00
-0.2042444088384E+00  0.5149968355198E+00  0.0000000000000E+00
-0.2115789906258E+00  0.5529679729529E+00  0.0000000000000E+00
-0.2189135724133E+00  0.5909391103860E+00  0.0000000000000E+00
-0.2262481542008E+00  0.6289102478191E+00  0.0000000000000E+00
-0.2335827359883E+00  0.6668813852521E+00  0.0000000000000E+00
-0.2409173177758E+00  0.7048525226852E+00  0.0000000000000E+00
-0.2482518995633E+00  0.7428236601183E+00  0.0000000000000E+00
-0.2555864813508E+00  0.7807947975513E+00  0.0000000000000E+00
-0.2629210631383E+00  0.8187659349844E+00  0.0000000000000E+00
-0.2702556449257E+00  0.8567370724175E+00  0.0000000000000E+00
-0.2775902267132E+00  0.8947082098506E+00  0.0000000000000E+00
-0.2849248085007E+00  0.9326793472836E+00  0.0000000000000E+00
-0.2922593902882E+00  0.9706504847167E+00  0.0000000000000E+00
-0.2995939720757E+00  0.1008621622150E+01  0.0000000000000E+00
-0.3069285538632E+00  0.1046592759583E+01  0.0000000000000E+00
-0.3142631356507E+00  0.1084563897016E+01  0.0000000000000E+00
-0.3215977174382E+00  0.1122535034449E+01  0.0000000000000E+00
-0.3289322992256E+00  0.1160506171882E+01  0.0000000000000E+00
-0.1575825437874E+00  0.4796361627817E+00  0.0000000000000E+00
-0.1634632579838E+00  0.5179088773513E+00  0.0000000000000E+00
-0.1693439721801E+00  0.5561815919210E+00  0.0000000000000E+00
-0.1752246863765E+00  0.5944543064906E+00  0.0000000000000E+00
-0.1811054005728E+00  0.6327270210602E+00  0.0000000000000E+00
-0.1869861147692E+00  0.6709997356298E+00  0.0000000000000E+00
-0.1928668289655E+00  0.7092724501995E+00  0.0000000000000E+00
-0.1987475431619E+00  0.7475451647691E+00  0.0000000000000E+00
-0.2046282573582E+00  0.7858178793387E+00  0.0000000000000E+00
-0.2105089715546E+00  0.8240905939083E+00  0.0000000000000E+00
-0.2163896857509E+00  0.8623633084779E+00  0.0000000000000E+00
-0.2222703999473E+00  0.9006360230476E+00  0.0000000000000E+00
-0.2281511141436E+00  0.9389087376172E+00  0.0000000000000E+00
-0.2340318283400E+00  0.9771814521868E+00  0.0000000000000E+00
-0.2399125425363E+00  0.1015454166756E+01  0.0000000000000E+00
-0.2457932567327E+00  0.1053726881326E+01  0.0000000000000E+00
-0.2516739709290E+00  0.1091999595896E+01  0.0000000000000E+00
-0.2575546851254E+00  0.1130272310465E+01  0.0000000000000E+00
-0.2634353993217E+00  0.1168545025035E+01  0.0000000000000E+00
-0.1182190059601E+00  0.4816714823591E+00  0.0000000000000E+00
-0.1226373068009E+00  0.5201819624472E+00  0.0000000000000E+00
-0.1270556076417E+00  0.5586924425354E+00  0.0000000000000E+00
-0.1314739084825E+00  0.5972029226235E+00  0.0000000000000E+00
-0.1358922093234E+00  0.6357134027116E+00  0.0000000000000E+00
-0.1403105101642E+00  0.6742238827997E+00  0.0000000000000E+00
-0.1447288110050E+00  0.7127343628879E+00  0.0000000000000E+00
-0.1491471118458E+00  0.7512448429760E+00  0.0000000000000E+00
-0.1535654126866E+00  0.7897553230641E+00  0.0000000000000E+00
-0.1579837135274E+00  0.8282658031523E+00  0.0000000000000E+00
-0.1624020143682E+00  0.8667762832404E+00  0.0000000000000E+00
-0.1668203152090E+00  0.9052867633285E+00  0.0000000000000E+00
-0.1712386160498E+00  0.9437972434166E+00  0.0000000000000E+00
-0.1756569168906E+00  0.9823077235048E+00  0.0000000000000E+00
-0.1800752177314E+00  0.1020818203593E+01  0.0000000000000E+00
-0.1844935185722E+00  0.1059328683681E+01  0.0000000000000E+00
-0.1889118194131E+00  0.1097839163769E+01  0.0000000000000E+00
-0.1933301202539E+00  0.1136349643857E+01  0.0000000000000E+00
-0.1977484210947E+00  0.1174860123945E+01  0.0000000000000E+00
-0.7882810581620E-01  0.4831297079839E+00  0.0000000000000E+00
-0.8177747086543E-01  0.5218135049328E+00  0.0000000000000E+00
-0.8472683591466E-01  0.5604973018818E+00  0.0000000000000E+00
-0.8767620096390E-01  0.5991810988308E+00  0.0000000000000E+00
-0.9062556601313E-01  0.6378648957797E+00  0.0000000000000E+00
-0.9357493106237E-01  0.6765486927287E+00  0.0000000000000E+00
-0.9652429611160E-01  0.7152324896776E+00  0.0000000000000E+00
-0.9947366116083E-01  0.7539162866266E+00  0.0000000000000E+00
-0.1024230262101E+00  0.7926000835756E+00  0.0000000000000E+00
-0.1053723912593E+00  0.8312838805245E+00  0.0000000000000E+00
-0.1083217563085E+00  0.8699676774735E+00  0.0000000000000E+00
-0.1112711213578E+00  0.9086514744224E+00  0.0000000000000E+00
-0.1142204864070E+00  0.9473352713714E+00  0.0000000000000E+00
-0.1171698514562E+00  0.9860190683204E+00  0.0000000000000E+00
-0.1201192165055E+00  0.1024702865269E+01  0.0000000000000E+00
-0.1230685815547E+00  0.1063386662218E+01  0.0000000000000E+00
-0.1260179466039E+00  0.1102070459167E+01  0.0000000000000E+00
-0.1289673116532E+00  0.1140754256116E+01  0.0000000000000E+00
-0.1319166767024E+00  0.1179438053065E+01  0.0000000000000E+00
-0.3941874312013E-01  0.4840078928243E+00  0.0000000000000E+00
-0.4089463112221E-01  0.5227985519517E+00  0.0000000000000E+00
-0.4237051912429E-01  0.5615892110790E+00  0.0000000000000E+00
-0.4384640712637E-01  0.6003798702064E+00  0.0000000000000E+00
-0.4532229512845E-01  0.6391705293337E+00  0.0000000000000E+00
-0.4679818313053E-01  0.6779611884610E+00  0.0000000000000E+00
-0.4827407113261E-01  0.7167518475884E+00  0.0000000000000E+00
-0.4974995913469E-01  0.7555425067157E+00  0.0000000000000E+00
-0.5122584713677E-01  0.7943331658430E+00  0.0000000000000E+00
-0.5270173513885E-01  0.8331238249704E+00  0.0000000000000E+00
-0.5417762314093E-01  0.8719144840977E+00  0.0000000000000E+00
-0.5565351114301E-01  0.9107051432250E+00  0.0000000000000E+00
-0.5712939914509E-01  0.9494958023524E+00  0.0000000000000E+00
-0.5860528714717E-01  0.9882864614797E+00  0.0000000000000E+00
-0.6008117514925E-01  0.1027077120607E+01  0.0000000000000E+00
-0.6155706315133E-01  0.1065867779734E+01  0.0000000000000E+00
-0.6303295115341E-01  0.1104658438862E+01  0.0000000000000E+00
-0.6450883915549E-01  0.1143449097989E+01  0.0000000000000E+00
-0.6598472715757E-01  0.1182239757116E+01  0.0000000000000E+00
 0.2029389626142E-10  0.4843018200064E+00  0.0000000000000E+00
 0.4058818043640E-10  0.5231292357807E+00  0.0000000000000E+00
 0.6088245073360E-10  0.5619566515550E+00  0.0000000000000E+00
 0.8117677654195E-10  0.6007840673293E+00  0.0000000000000E+00
 0.1014709774502E-09  0.6396114831037E+00  0.0000000000000E+00
 0.1217652893808E-09  0.6784388988780E+00  0.0000000000000E+00
 0.1420595458002E-09  0.7172663146523E+00  0.0000000000000E+00
 0.1623538299752E-09  0.7560937304266E+00  0.0000000000000E+00
 0.1826479198611E-09  0.7949211462009E+00  0.0000000000000E+00
 0.2029422873028E-09  0.8337485619753E+00  0.0000000000000E+00
 0.2232365992334E-09  0.8725759777496E+00  0.0000000000000E+00
 0.2435308556528E-09  0.9114033935239E+00  0.0000000000000E+00
 0.2638250010499E-09  0.9502308092982E+00  0.0000000000000E+00
 0.2841192574693E-09  0.9890582250725E+00  0.0000000000000E+00
 0.3044134583776E-09  0.1027885640847E+01  0.0000000000000E+00
 0.3247076037747E-09  0.1066713056621E+01  0.0000000000000E+00
 0.3450020822387E-09  0.1105540472396E+01  0.0000000000000E+00
 0.3652963386581E-09  0.1144367888170E+01  0.0000000000000E+00
 0.3855903730329E-09  0.1183195303944E+01  0.0000000000000E+00
 0.3941874316069E-01  0.4840078928230E+00  0.0000000000000E+00
 0.4089463120334E-01  0.5227985519491E+00  0.0000000000000E+00
 0.4237051924599E-01  0.5615892110751E+00  0.0000000000000E+00
 0.4384640728863E-01  0.6003798702011E+00  0.0000000000000E+00
 0.4532229533128E-01  0.6391705293271E+00  0.0000000000000E+00
 0.4679818337393E-01  0.6779611884531E+00  0.0000000000000E+00
 0.4827407141658E-01  0.7167518475791E+00  0.0000000000000E+00
 0.4974995945922E-01  0.7555425067052E+00  0.0000000000000E+00
 0.5122584750187E-01  0.7943331658312E+00  0.0000000000000E+00
 0.5270173554452E-01  0.8331238249572E+00  0.0000000000000E+00
 0.5417762358717E-01  0.8719144840832E+00  0.0000000000000E+00
 0.5565351162981E-01  0.9107051432092E+00  0.0000000000000E+00
 0.5712939967246E-01  0.9494958023353E+00  0.0000000000000E+00
 0.5860528771511E-01  0.9882864614613E+00  0.0000000000000E+00
 0.6008117575775E-01  0.1027077120587E+01  0.0000000000000E+00
 0.6155706380040E-01  0.1065867779713E+01  0.0000000000000E+00
 0.6303295184305E-01  0.1104658438839E+01  0.0000000000000E+00
 0.6450883988570E-01  0.1143449097965E+01  0.0000000000000E+00
 0.6598472792834E-01  0.1182239757091E+01  0.0000000000000E+00
 0.7882810585671E-01  0.4831297079813E+00  0.0000000000000E+00
 0.8177747094646E-01  0.5218135049277E+00  0.0000000000000E+00
 0.8472683603621E-01  0.5604973018741E+00  0.0000000000000E+00
 0.8767620112596E-01  0.5991810988204E+00  0.0000000000000E+00
 0.9062556621572E-01  0.6378648957668E+00  0.0000000000000E+00
 0.9357493130547E-01  0.6765486927132E+00  0.0000000000000E+00
 0.9652429639522E-01  0.7152324896596E+00  0.0000000000000E+00
 0.9947366148497E-01  0.7539162866059E+00  0.0000000000000E+00
 0.1024230265747E+00  0.7926000835523E+00  0.0000000000000E+00
 0.1053723916645E+00  0.8312838804987E+00  0.0000000000000E+00
 0.1083217567542E+00  0.8699676774451E+00  0.0000000000000E+00
 0.1112711218440E+00  0.9086514743914E+00  0.0000000000000E+00
 0.1142204869337E+00  0.9473352713378E+00  0.0000000000000E+00
 0.1171698520235E+00  0.9860190682842E+00  0.0000000000000E+00
 0.1201192171132E+00  0.1024702865231E+01  0.0000000000000E+00
 0.1230685822030E+00  0.1063386662177E+01  0.0000000000000E+00
 0.1260179472927E+00  0.1102070459123E+01  0.0000000000000E+00
 0.1289673123825E+00  0.1140754256070E+01  0.0000000000000E+00
 0.1319166774722E+00  0.1179438053016E+01  0.0000000000000E+00
 0.1182190060006E+00  0.4816714823553E+00  0.0000000000000E+00
 0.1226373068818E+00  0.5201819624396E+00  0.0000000000000E+00
 0.1270556077630E+00  0.5586924425239E+00  0.0000000000000E+00
 0.1314739086443E+00  0.5972029226082E+00  0.0000000000000E+00
 0.1358922095255E+00  0.6357134026926E+00  0.0000000000000E+00
 0.1403105104068E+00  0.6742238827769E+00  0.0000000000000E+00
 0.1447288112880E+00  0.7127343628612E+00  0.0000000000000E+00
 0.1491471121693E+00  0.7512448429455E+00  0.0000000000000E+00
 0.1535654130505E+00  0.7897553230298E+00  0.0000000000000E+00
 0.1579837139318E+00  0.8282658031141E+00  0.0000000000000E+00
 0.1624020148130E+00  0.8667762831985E+00  0.0000000000000E+00
 0.1668203156943E+00  0.9052867632828E+00  0.0000000000000E+00
 0.1712386165755E+00  0.9437972433671E+00  0.0000000000000E+00
 0.1756569174567E+00  0.9823077234514E+00  0.0000000000000E+00
 0.1800752183380E+00  0.1020818203536E+01  0.0000000000000E+00
 0.1844935192192E+00  0.1059328683620E+01  0.0000000000000E+00
 0.1889118201005E+00  0.1097839163704E+01  0.0000000000000E+00
 0.1933301209817E+00  0.1136349643789E+01  0.0000000000000E+00
 0.1977484218630E+00  0.1174860123873E+01  0.0000000000000E+00
 0.1575825438277E+00  0.4796361627767E+00  0.0000000000000E+00
 0.1634632580644E+00  0.5179088773413E+00  0.0000000000000E+00
 0.1693439723011E+00  0.5561815919059E+00  0.0000000000000E+00
 0.1752246865377E+00  0.5944543064706E+00  0.0000000000000E+00
 0.1811054007744E+00  0.6327270210352E+00  0.0000000000000E+00
 0.1869861150110E+00  0.6709997355998E+00  0.0000000000000E+00
 0.1928668292477E+00  0.7092724501644E+00  0.0000000000000E+00
 0.1987475434844E+00  0.7475451647290E+00  0.0000000000000E+00
 0.2046282577210E+00  0.7858178792936E+00  0.0000000000000E+00
 0.2105089719577E+00  0.8240905938582E+00  0.0000000000000E+00
 0.2163896861943E+00  0.8623633084229E+00  0.0000000000000E+00
 0.2222704004310E+00  0.9006360229875E+00  0.0000000000000E+00
 0.2281511146677E+00  0.9389087375521E+00  0.0000000000000E+00
 0.2340318289043E+00  0.9771814521167E+00  0.0000000000000E+00
 0.2399125431410E+00  0.1015454166681E+01  0.0000000000000E+00
 0.2457932573776E+00  0.1053726881246E+01  0.0000000000000E+00
 0.2516739716143E+00  0.1091999595811E+01  0.0000000000000E+00
 0.2575546858510E+00  0.1130272310375E+01  0.0000000000000E+00
 0.2634354000876E+00  0.1168545024940E+01  0.0000000000000E+00
 0.1969098270910E+00  0.4770256980806E+00  0.0000000000000E+00
 0.2042444089187E+00  0.5149968355075E+00  0.0000000000000E+00
 0.2115789907463E+00  0.5529679729344E+00  0.0000000000000E+00
 0.2189135725740E+00  0.5909391103613E+00  0.0000000000000E+00
 0.2262481544016E+00  0.6289102477881E+00  0.0000000000000E+00
 0.2335827362293E+00  0.6668813852150E+00  0.0000000000000E+00
 0.2409173180569E+00  0.7048525226419E+00  0.0000000000000E+00
 0.2482518998846E+00  0.7428236600688E+00  0.0000000000000E+00
 0.2555864817122E+00  0.7807947974957E+00  0.0000000000000E+00
 0.2629210635399E+00  0.8187659349226E+00  0.0000000000000E+00
 0.2702556453675E+00  0.8567370723495E+00  0.0000000000000E+00
 0.2775902271952E+00  0.8947082097764E+00  0.0000000000000E+00
 0.2849248090228E+00  0.9326793472033E+00  0.0000000000000E+00
 0.2922593908505E+00  0.9706504846302E+00  0.0000000000000E+00
 0.2995939726781E+00  0.1008621622057E+01  0.0000000000000E+00
 0.3069285545058E+00  0.1046592759484E+01  0.0000000000000E+00
 0.3142631363334E+00  0.1084563896911E+01  0.0000000000000E+00
 0.3215977181611E+00  0.1122535034338E+01  0.0000000000000E+00
 0.3289322999887E+00  0.1160506171765E+01  0.0000000000000E+00
 0.2361919209698E+00  0.4738412269025E+00  0.0000000000000E+00
 0.2449696929314E+00  0.5114464366931E+00  0.0000000000000E+00
 0.2537474648929E+00  0.5490516464838E+00  0.0000000000000E+00
 0.2625252368544E+00  0.5866568562744E+00  0.0000000000000E+00
 0.2713030088159E+00  0.6242620660651E+00  0.0000000000000E+00
 0.2800807807774E+00  0.6618672758557E+00  0.0000000000000E+00
 0.2888585527389E+00  0.6994724856464E+00  0.0000000000000E+00
 0.2976363247005E+00  0.7370776954370E+00  0.0000000000000E+00
 0.3064140966620E+00  0.7746829052277E+00  0.0000000000000E+00
 0.3151918686235E+00  0.8122881150183E+00  0.0000000000000E+00
 0.3239696405850E+00  0.8498933248090E+00  0.0000000000000E+00
 0.3327474125465E+00  0.8874985345996E+00  0.0000000000000E+00
 0.3415251845080E+00  0.9251037443903E+00  0.0000000000000E+00
 0.3503029564696E+00  0.9627089541809E+00  0.0000000000000E+00
 0.3590807284311E+00  0.1000314163972E+01  0.0000000000000E+00
 0.3678585003926E+00  0.1037919373762E+01  0.0000000000000E+00
 0.3766362723541E+00  0.1075524583553E+01  0.0000000000000E+00
 0.3854140443156E+00  0.1113129793344E+01  0.0000000000000E+00
 0.3941918162772E+00  0.1150735003134E+01  0.0000000000000E+00
 0.2754196910016E+00  0.4700832706692E+00  0.0000000000000E+00
 0.2856275627779E+00  0.5072566872127E+00  0.0000000000000E+00
 0.2958354345541E+00  0.5444301037562E+00  0.0000000000000E+00
 0.3060433063303E+00  0.5816035202998E+00  0.0000000000000E+00
 0.3162511781066E+00  0.6187769368433E+00  0.0000000000000E+00
 0.3264590498828E+00  0.6559503533868E+00  0.0000000000000E+00
 0.3366669216591E+00  0.6931237699303E+00  0.0000000000000E+00
 0.3468747934353E+00  0.7302971864738E+00  0.0000000000000E+00
 0.3570826652115E+00  0.7674706030173E+00  0.0000000000000E+00
 0.3672905369878E+00  0.8046440195609E+00  0.0000000000000E+00
 0.3774984087640E+00  0.8418174361044E+00  0.0000000000000E+00
 0.3877062805402E+00  0.8789908526479E+00  0.0000000000000E+00
 0.3979141523165E+00  0.9161642691914E+00  0.0000000000000E+00
 0.4081220240927E+00  0.9533376857349E+00  0.0000000000000E+00
 0.4183298958690E+00  0.9905111022785E+00  0.0000000000000E+00
 0.4285377676452E+00  0.1027684518822E+01  0.0000000000000E+00
 0.4387456394214E+00  0.1064857935365E+01  0.0000000000000E+00
 0.4489535111977E+00  0.1102031351909E+01  0.0000000000000E+00
 0.4591613829739E+00  0.1139204768453E+01  0.0000000000000E+00
 0.3145837449108E+00  0.4657520002350E+00  0.0000000000000E+00
 0.3262058733503E+00  0.5024255396995E+00  0.0000000000000E+00
 0.3378280017898E+00  0.5390990791639E+00  0.0000000000000E+00
 0.3494501302294E+00  0.5757726186284E+00  0.0000000000000E+00
 0.3610722586689E+00  0.6124461580929E+00  0.0000000000000E+00
 0.3726943871084E+00  0.6491196975574E+00  0.0000000000000E+00
 0.3843165155480E+00  0.6857932370219E+00  0.0000000000000E+00
 0.3959386439875E+00  0.7224667764863E+00  0.0000000000000E+00
 0.4075607724270E+00  0.7591403159508E+00  0.0000000000000E+00
 0.4191829008666E+00  0.7958138554153E+00  0.0000000000000E+00
 0.4308050293061E+00  0.8324873948798E+00  0.0000000000000E+00
 0.4424271577456E+00  0.8691609343443E+00  0.0000000000000E+00
 0.4540492861852E+00  0.9058344738087E+00  0.0000000000000E+00
 0.4656714146247E+00  0.9425080132732E+00  0.0000000000000E+00
 0.4772935430642E+00  0.9791815527377E+00  0.0000000000000E+00
 0.4889156715038E+00  0.1015855092202E+01  0.0000000000000E+00
 0.5005377999433E+00  0.1052528631667E+01  0.0000000000000E+00
 0.5121599283828E+00  0.1089202171131E+01  0.0000000000000E+00
 0.5237820568224E+00  0.1125875710596E+01  0.0000000000000E+00
 0.3536746458685E+00  0.4608476922366E+00  0.0000000000000E+00
 0.3666922614163E+00  0.4969508181222E+00  0.0000000000000E+00
 0.3797098769641E+00  0.5330539440077E+00  0.0000000000000E+00
 0.3927274925120E+00  0.5691570698933E+00  0.0000000000000E+00
 0.4057451080598E+00  0.6052601957789E+00  0.0000000000000E+00
 0.4187627236076E+00  0.6413633216644E+00  0.0000000000000E+00
 0.4317803391555E+00  0.6774664475500E+00  0.0000000000000E+00
 0.4447979547033E+00  0.7135695734356E+00  0.0000000000000E+00
 0.4578155702512E+00  0.7496726993211E+00  0.0000000000000E+00
 0.4708331857990E+00  0.7857758252067E+00  0.0000000000000E+00
 0.4838508013468E+00  0.8218789510922E+00  0.0000000000000E+00
 0.4968684168947E+00  0.8579820769778E+00  0.0000000000000E+00
 0.5098860324425E+00  0.8940852028634E+00  0.0000000000000E+00
 0.5229036479903E+00  0.9301883287489E+00  0.0000000000000E+00
 0.5359212635382E+00  0.9662914546345E+00  0.0000000000000E+00
 0.5489388790860E+00  0.1002394580520E+01  0.0000000000000E+00
 0.5619564946338E+00  0.1038497706406E+01  0.0000000000000E+00
 0.5749741101817E+00  0.1074600832291E+01  0.0000000000000E+00
 0.5879917257295E+00  0.1110703958177E+01  0.0000000000000E+00
 0.3926829943248E+00  0.4553717726702E+00  0.0000000000000E+00
 0.4070743134774E+00  0.4908323142595E+00  0.0000000000000E+00
 0.4214656326299E+00  0.5262928558488E+00  0.0000000000000E+00
 0.4358569517824E+00  0.5617533974382E+00  0.0000000000000E+00
 0.4502482709349E+00  0.5972139390275E+00  0.0000000000000E+00
 0.4646395900874E+00  0.6326744806169E+00  0.0000000000000E+00
 0.4790309092400E+00  0.6681350222062E+00  0.0000000000000E+00
 0.4934222283925E+00  0.7035955637956E+00  0.0000000000000E+00
 0.5078135475450E+00  0.7390561053849E+00  0.0000000000000E+00
 0.5222048666975E+00  0.7745166469743E+00  0.0000000000000E+00
 0.5365961858501E+00  0.8099771885636E+00  0.0000000000000E+00
 0.5509875050026E+00  0.8454377301529E+00  0.0000000000000E+00
 0.5653788241551E+00  0.8808982717423E+00  0.0000000000000E+00
 0.5797701433076E+00  0.9163588133316E+00  0.0000000000000E+00
 0.5941614624601E+00  0.9518193549210E+00  0.0000000000000E+00
 0.6085527816127E+00  0.9872798965103E+00  0.0000000000000E+00
 0.6229441007652E+00  0.1022740438100E+01  0.0000000000000E+00
 0.6373354199177E+00  0.1058200979689E+01  0.0000000000000E+00
 0.6517267390702E+00  0.1093661521278E+01  0.0000000000000E+00
 0.4316001604581E+00  0.4493289287768E+00  0.0000000000000E+00
 0.4473410323378E+00  0.4840760209408E+00  0.0000000000000E+00
 0.4630819042174E+00  0.5188231131049E+00  0.0000000000000E+00
 0.4788227760970E+00  0.5535702052689E+00  0.0000000000000E+00
 0.4945636479767E+00  0.5883172974329E+00  0.0000000000000E+00
 0.5103045198563E+00  0.6230643895969E+00  0.0000000000000E+00
 0.5260453917359E+00  0.6578114817609E+00  0.0000000000000E+00
 0.5417862636155E+00  0.6925585739250E+00  0.0000000000000E+00
 0.5575271354952E+00  0.7273056660890E+00  0.0000000000000E+00
 0.5732680073748E+00  0.7620527582530E+00  0.0000000000000E+00
 0.5890088792544E+00  0.7967998504170E+00  0.0000000000000E+00
 0.6047497511341E+00  0.8315469425810E+00  0.0000000000000E+00
 0.6204906230137E+00  0.8662940347451E+00  0.0000000000000E+00
 0.6362314948933E+00  0.9010411269091E+00  0.0000000000000E+00
 0.6519723667730E+00  0.9357882190731E+00  0.0000000000000E+00
 0.6677132386526E+00  0.9705353112371E+00  0.0000000000000E+00
 0.6834541105322E+00  0.1005282403401E+01  0.0000000000000E+00
 0.6991949824118E+00  0.1040029495565E+01  0.0000000000000E+00
 0.7149358542915E+00  0.1074776587729E+01  0.0000000000000E+00
 0.4704201190014E+00  0.4427312295532E+00  0.0000000000000E+00
 0.4874864928703E+00  0.4767023850238E+00  0.0000000000000E+00
 0.5045528667393E+00  0.5106735404944E+00  0.0000000000000E+00
 0.5216192406082E+00  0.5446446959651E+00  0.0000000000000E+00
 0.5386856144772E+00  0.5786158514357E+00  0.0000000000000E+00
 0.5557519883461E+00  0.6125870069063E+00  0.0000000000000E+00
 0.5728183622150E+00  0.6465581623769E+00  0.0000000000000E+00
 0.5898847360840E+00  0.6805293178476E+00  0.0000000000000E+00
 0.6069511099529E+00  0.7145004733182E+00  0.0000000000000E+00
 0.6240174838218E+00  0.7484716287888E+00  0.0000000000000E+00
 0.6410838576908E+00  0.7824427842594E+00  0.0000000000000E+00
 0.6581502315597E+00  0.8164139397300E+00  0.0000000000000E+00
 0.6752166054286E+00  0.8503850952007E+00  0.0000000000000E+00
 0.6922829792976E+00  0.8843562506713E+00  0.0000000000000E+00
 0.7093493531665E+00  0.9183274061419E+00  0.0000000000000E+00
 0.7264157270354E+00  0.9522985616125E+00  0.0000000000000E+00
 0.7434821009044E+00  0.9862697170832E+00  0.0000000000000E+00
 0.7605484747733E+00  0.1020240872554E+01  0.0000000000000E+00
 0.7776148486422E+00  0.1054212028024E+01  0.0000000000000E+00
 0.5091428679437E+00  0.4356052711680E+00  0.0000000000000E+00
 0.5275166039441E+00  0.4687606221902E+00  0.0000000000000E+00
 0.5458903399444E+00  0.5019159732123E+00  0.0000000000000E+00
 0.5642640759448E+00  0.5350713242345E+00  0.0000000000000E+00
 0.5826378119451E+00  0.5682266752566E+00  0.0000000000000E+00
 0.6010115479455E+00  0.6013820262787E+00  0.0000000000000E+00
 0.6193852839459E+00  0.6345373773009E+00  0.0000000000000E+00
 0.6377590199462E+00  0.6676927283230E+00  0.0000000000000E+00
 0.6561327559466E+00  0.7008480793452E+00  0.0000000000000E+00
 0.6745064919470E+00  0.7340034303673E+00  0.0000000000000E+00
 0.6928802279473E+00  0.7671587813894E+00  0.0000000000000E+00
 0.7112539639477E+00  0.8003141324116E+00  0.0000000000000E+00
 0.7296276999480E+00  0.8334694834337E+00  0.0000000000000E+00
 0.7480014359484E+00  0.8666248344558E+00  0.0000000000000E+00
 0.7663751719488E+00  0.8997801854780E+00  0.0000000000000E+00
 0.7847489079491E+00  0.9329355365001E+00  0.0000000000000E+00
 0.8031226439495E+00  0.9660908875223E+00  0.0000000000000E+00
 0.8214963799499E+00  0.9992462385444E+00  0.0000000000000E+00
 0.8398701159502E+00  0.1032401589567E+01  0.0000000000000E+00
 0.5477768854571E+00  0.4279968810059E+00  0.0000000000000E+00
 0.5674541537630E+00  0.4603381160649E+00  0.0000000000000E+00
 0.5871314220688E+00  0.4926793511240E+00  0.0000000000000E+00
 0.6068086903747E+00  0.5250205861830E+00  0.0000000000000E+00
 0.6264859586806E+00  0.5573618212420E+00  0.0000000000000E+00
 0.6461632269865E+00  0.5897030563010E+00  0.0000000000000E+00
 0.6658404952923E+00  0.6220442913601E+00  0.0000000000000E+00
 0.6855177635982E+00  0.6543855264191E+00  0.0000000000000E+00
 0.7051950319041E+00  0.6867267614781E+00  0.0000000000000E+00
 0.7248723002099E+00  0.7190679965371E+00  0.0000000000000E+00
 0.7445495685158E+00  0.7514092315961E+00  0.0000000000000E+00
 0.7642268368217E+00  0.7837504666552E+00  0.0000000000000E+00
 0.7839041051276E+00  0.8160917017142E+00  0.0000000000000E+00
 0.8035813734334E+00  0.8484329367732E+00  0.0000000000000E+00
 0.8232586417393E+00  0.8807741718322E+00  0.0000000000000E+00
 0.8429359100452E+00  0.9131154068912E+00  0.0000000000000E+00
 0.8626131783511E+00  0.9454566419503E+00  0.0000000000000E+00
 0.8822904466569E+00  0.9777978770093E+00  0.0000000000000E+00
 0.9019677149628E+00  0.1010139112068E+01  0.0000000000000E+00
 0.5863228020220E+00  0.4199269192670E+00  0.0000000000000E+00
 0.6073059539494E+00  0.4514720689682E+00  0.0000000000000E+00
 0.6282891058768E+00  0.4830172186695E+00  0.0000000000000E+00
 0.6492722578042E+00  0.5145623683708E+00  0.0000000000000E+00
 0.6702554097316E+00  0.5461075180720E+00  0.0000000000000E+00
 0.6912385616590E+00  0.5776526677733E+00  0.0000000000000E+00
 0.7122217135865E+00  0.6091978174745E+00  0.0000000000000E+00
 0.7332048655139E+00  0.6407429671758E+00  0.0000000000000E+00
 0.7541880174413E+00  0.6722881168770E+00  0.0000000000000E+00
 0.7751711693687E+00  0.7038332665783E+00  0.0000000000000E+00
 0.7961543212961E+00  0.7353784162796E+00  0.0000000000000E+00
 0.8171374732236E+00  0.7669235659808E+00  0.0000000000000E+00
 0.8381206251510E+00  0.7984687156821E+00  0.0000000000000E+00
 0.8591037770784E+00  0.8300138653833E+00  0.0000000000000E+00
 0.8800869290058E+00  0.8615590150846E+00  0.0000000000000E+00
 0.9010700809332E+00  0.8931041647858E+00  0.0000000000000E+00
 0.9220532328607E+00  0.9246493144871E+00  0.0000000000000E+00
 0.9430363847881E+00  0.9561944641884E+00  0.0000000000000E+00
 0.9640195367155E+00  0.9877396138896E+00  0.0000000000000E+00
 0.6247718534565E+00  0.4113904599593E+00  0.0000000000000E+00
 0.6470599870427E+00  0.4421478324182E+00  0.0000000000000E+00
 0.6693481206289E+00  0.4729052048771E+00  0.0000000000000E+00
 0.6916362542152E+00  0.5036625773361E+00  0.0000000000000E+00
 0.7139243878014E+00  0.5344199497950E+00  0.0000000000000E+00
 0.7362125213877E+00  0.5651773222539E+00  0.0000000000000E+00
 0.7585006549739E+00  0.5959346947128E+00  0.0000000000000E+00
 0.7807887885601E+00  0.6266920671718E+00  0.0000000000000E+00
 0.8030769221464E+00  0.6574494396307E+00  0.0000000000000E+00
 0.8253650557326E+00  0.6882068120896E+00  0.0000000000000E+00
 0.8476531893188E+00  0.7189641845486E+00  0.0000000000000E+00
 0.8699413229051E+00  0.7497215570075E+00  0.0000000000000E+00
 0.8922294564913E+00  0.7804789294664E+00  0.0000000000000E+00
 0.9145175900776E+00  0.8112363019254E+00  0.0000000000000E+00
 0.9368057236638E+00  0.8419936743843E+00  0.0000000000000E+00
 0.9590938572500E+00  0.8727510468432E+00  0.0000000000000E+00
 0.9813819908363E+00  0.9035084193021E+00  0.0000000000000E+00
 0.1003670124423E+01  0.9342657917611E+00  0.0000000000000E+00
 0.1025958258009E+01  0.9650231642200E+00  0.0000000000000E+00
 0.6631144762382E+00  0.4023799804640E+00  0.0000000000000E+00
 0.6867022090618E+00  0.4323453794102E+00  0.0000000000000E+00
 0.7102899418854E+00  0.4623107783564E+00  0.0000000000000E+00
 0.7338776747089E+00  0.4922761773027E+00  0.0000000000000E+00
 0.7574654075325E+00  0.5222415762489E+00  0.0000000000000E+00
 0.7810531403561E+00  0.5522069751951E+00  0.0000000000000E+00
 0.8046408731796E+00  0.5821723741413E+00  0.0000000000000E+00
 0.8282286060032E+00  0.6121377730876E+00  0.0000000000000E+00
 0.8518163388268E+00  0.6421031720338E+00  0.0000000000000E+00
 0.8754040716504E+00  0.6720685709800E+00  0.0000000000000E+00
 0.8989918044739E+00  0.7020339699262E+00  0.0000000000000E+00
 0.9225795372975E+00  0.7319993688725E+00  0.0000000000000E+00
 0.9461672701211E+00  0.7619647678187E+00  0.0000000000000E+00
 0.9697550029446E+00  0.7919301667649E+00  0.0000000000000E+00
 0.9933427357682E+00  0.8218955657111E+00  0.0000000000000E+00
 0.1016930468592E+01  0.8518609646574E+00  0.0000000000000E+00
 0.1040518201415E+01  0.8818263636036E+00  0.0000000000000E+00
 0.1064105934239E+01  0.9117917625498E+00  0.0000000000000E+00
 0.1087693667062E+01  0.9417571614961E+00  0.0000000000000E+00
 0.7013395437085E+00  0.3928851883836E+00  0.0000000000000E+00
 0.7262154212153E+00  0.4220388917836E+00  0.0000000000000E+00
 0.7510912987220E+00  0.4511925951835E+00  0.0000000000000E+00
 0.7759671762288E+00  0.4803462985835E+00  0.0000000000000E+00
 0.8008430537356E+00  0.5095000019835E+00  0.0000000000000E+00
 0.8257189312424E+00  0.5386537053834E+00  0.0000000000000E+00
 0.8505948087492E+00  0.5678074087834E+00  0.0000000000000E+00
 0.8754706862560E+00  0.5969611121833E+00  0.0000000000000E+00
 0.9003465637627E+00  0.6261148155833E+00  0.0000000000000E+00
 0.9252224412695E+00  0.6552685189833E+00  0.0000000000000E+00
 0.9500983187763E+00  0.6844222223832E+00  0.0000000000000E+00
 0.9749741962831E+00  0.7135759257832E+00  0.0000000000000E+00
 0.9998500737899E+00  0.7427296291831E+00  0.0000000000000E+00
 0.1024725951297E+01  0.7718833325831E+00  0.0000000000000E+00
 0.1049601828803E+01  0.8010370359831E+00  0.0000000000000E+00
 0.1074477706310E+01  0.8301907393830E+00  0.0000000000000E+00
 0.1099353583817E+01  0.8593444427830E+00  0.0000000000000E+00
 0.1124229461324E+01  0.8884981461829E+00  0.0000000000000E+00
 0.1149105338831E+01  0.9176518495829E+00  0.0000000000000E+00
 0.7394329578610E+00  0.3828904307705E+00  0.0000000000000E+00
 0.7655763768245E+00  0.4111916019715E+00  0.0000000000000E+00
 0.7917197957880E+00  0.4394927731724E+00  0.0000000000000E+00
 0.8178632147515E+00  0.4677939443734E+00  0.0000000000000E+00
 0.8440066337150E+00  0.4960951155743E+00  0.0000000000000E+00
 0.8701500526785E+00  0.5243962867753E+00  0.0000000000000E+00
 0.8962934716420E+00  0.5526974579763E+00  0.0000000000000E+00
 0.9224368906055E+00  0.5809986291772E+00  0.0000000000000E+00
 0.9485803095690E+00  0.6092998003782E+00  0.0000000000000E+00
 0.9747237285325E+00  0.6376009715791E+00  0.0000000000000E+00
 0.1000867147496E+01  0.6659021427801E+00  0.0000000000000E+00
 0.1027010566459E+01  0.6942033139810E+00  0.0000000000000E+00
 0.1053153985423E+01  0.7225044851820E+00  0.0000000000000E+00
 0.1079297404386E+01  0.7508056563830E+00  0.0000000000000E+00
 0.1105440823350E+01  0.7791068275839E+00  0.0000000000000E+00
 0.1131584242313E+01  0.8074079987849E+00  0.0000000000000E+00
 0.1157727661277E+01  0.8357091699858E+00  0.0000000000000E+00
 0.1183871080240E+01  0.8640103411868E+00  0.0000000000000E+00
 0.1210014499204E+01  0.8923115123877E+00  0.0000000000000E+00
</DataArray>
</Points>
<Cells>
<DataArray type="Int64" Name="connectivity" format="ascii">
0 11 438 243
243 438 439 244
244 439 440 245
245 440 441 246
246 441 442 247
247 442 443 248
248 443 444 249
249 444 445 250
250 445 446 251
251 446 447 252
252 447 448 253
253 448 449 254
254 449 450 255
255 450 451 256
256 451 452 257
257 452 453 258
258 453 454 259
259 454 455 260
260 455 456 261
261 456 457 262
262 457 458 263
263 458 459 264
264 459 460 265
265 460 461 266
266 461 462 267
267 462 463 268
268 463 464 269
269 464 465 270
270 465 466 271
271 466 467 272
272 467 468 273
273 468 469 274
274 469 470 275
275 470 471 276
276 471 472 277
277 472 473 278
278 473 474 279
279 474 475 280
280 475 476 281
281 476 477 282
282 477 89 3
11 12 478 438
438 478 479 439
439 479 480 440
440 480 481 441
441 481 482 442
442 482 483 443
443 483 484 444
444 484 485 445
445 485 486 446
446 486 487 447
447 487 488 448
448 488 489 449
449 489 490 450
450 490 491 451
451 491 492 452
452 492 493 453
453 493 494 454
454 494 495 455
455 495 496 456
456 496 497 457
457 497 498 458
458 498 499 459
459 499 500 460
460 500 501 461
461 501 502 462
462 502 503 463
463 503 504 464
464 504 505 465
465 505 506 466
466 506 507 467
467 507 508 468
468 508 509 469
469 509 510 470
470 510 511 471
471 511 512 472
472 512 513 473
473 513 514 474
474 514 515 475
475 515 516 476
476 516 517 477
477 517 90 89
12 13 518 478
478 518 519 479
479 519 520 480
480 520 521 481
481 521 522 482
482 522 523 483
483 523 524 484
484 524 525 485
485 525 526 486
486 526 527 487
487 527 528 488
488 528 529 489
489 529 530 490
490 530 531 491
491 531 532 492
492 532 533 493
493 533 534 494
494 534 535 495
495 535 536 496
496 536 537 497
497 537 538 498
498 538 539 499
499 539 540 500
500 540 541 501
501 541 542 502
502 542 543 503
503 543 544 504
504 544 545 505
505 545 546 506
506 546 547 507
507 547 548 508
508 548 549 509
509 549 550 510
510 550 551 511
511 551 552 512
512 552 553 513
513 553 554 514
514 554 555 515
515 555 556 516
516 556 557 517
517 557 91 90
13 14 558 518
518 558 559 519
519 559 560 520
520 560 561 521
521 561 562 522
522 562 563 523
523 563 564 524
524 564 565 525
525 565 566 526
526 566 567 527
527 567 568 528
528 568 569 529
529 569 570 530
530 570 571 531
531 571 572 532
532 572 573 533
533 573 574 534
534 574 575 535
535 575 576 536
536 576 577 537
537 577 578 538
538 578 579 539
539 579 580 540
540 580 581 541
541 581 582 542
542 582 583 543
543 583 584 544
544 584 585 545
545 585 586 546
546 586 587 547
547 587 588 548
548 588 589 549
549 589 590 550
550 590 591 551
551 591 592 552
552 592 593 553
553 593 594 554
554 594 595 555
555 595 596 556
556 596 597 557
557 597 92 91
14 15 598 558
558 598 599 559
559 599 600 560
560 600 601 561
561 601 602 562
562 602 603 563
563 603 604 564
564 604 605 565
565 605 606 566
566 606 607 567
567 607 608 568
568 608 609 569
569 609 610 570
570 610 611 571
571 611 612 572
572 612 613 573
573 613 614 574
574 614 615 575
575 615 616 576
576 616 617 577
577 617 618 578
578 618 619 579
579 619 620 580
580 620 621 581
581 621 622 582
582 622 623 583
583 623 624 584
584 624 625 585
585 625 626 586
586 626 627 587
587 627 628 588
588 628 629 589
589 629 630 590
590 630 631 591
591 631 632 592
592 632 633 593
593 633 634 594
594 634 635 595
595 635 636 596
596 636 637 597
597 637 93 92
15 16 638 598
598 638 639 599
599 639 640 600
600 640 641 601
601 641 642 602
602 642 643 603
603 643 644 604
604 644 645 605
605 645 646 606
606 646 647 607
607 647 648 608
608 648 649 609
609 649 650 610
610 650 651 611
611 651 652 612
612 652 653 613
613 653 654 614
614 654 655 615
615 655 656 616
616 656 657 617
617 657 658 618
618 658 659 619
619 659 660 620
620 660 661 621
621 661 662 622
622 662 663 623
623 663 664 624
624 664 665 625
625 665 666 626
626 666 667 627
627 667 668 628
628 668 669 629
629 669 670 630
630 670 671 631
631 671 672 632
632 672 673 633
633 673 674 634
634 674 675 635
635 675 676 636
636 676 677 637
637 677 94 93
16 17 678 638
638 678 679 639
639 679 680 640
640 680 681 641
641 681 682 642
642 682 683 643
643 683 684 644
644 684 685 645
645 685 686 646
646 686 687 647
647 687 688 648
648 688 689 649
649 689 690 650
650 690 691 651
651 691 692 652
652 692 693 653
653 693 694 654
654 694 695 655
655 695 696 656
656 696 697 657
657 697 698 658
658 698 699 659
659 699 700 660
660 700 701 661
661 701 702 662
662 702 703 663
663 703 704 664
664 704 705 665
665 705 706 666
666 706 707 667
667 707 708 668
668 708 709 669
669 709 710 670
670 710 711 671
671 711 712 672
672 712 713 673
673 713 714 674
674 714 715 675
675 715 716 676
676 716 717 677
677 717 95 94
17 18 718 678
678 718 719 679
679 719 720 680
680 720 721 681
681 721 722 682
682 722 723 683
683 723 724 684
684 724 725 685
685 725 726 686
686 726 727 687
687 727 728 688
688 728 729 689
689 729 730 690
690 730 731 691
691 731 732 692
692 732 733 693
693 733 734 694
694 734 735 695
695 735 736 696
696 736 737 697
697 737 738 698
698 738 739 699
699 739 740 700
700 740 741 701
701 741 742 702
702 742 743 703
703 743 744 704
704 744 745 705
705 745 746 706
706 746 747 707
707 747 748 708
708 748 749 709
709 749 750 710
710 750 751 711
711 751 752 712
712 752 753 713
713 753 754 714
714 754 755 715
715 755 756 716
716 756 757 717
717 757 96 95
18 19 758 718
718 758 759 719
719 759 760 720
720 760 761 721
721 761 762 722
722 762 763 723
723 763 764 724
724 764 765 725
725 765 766 726
726 766 767 727
727 767 768 728
728 768 769 729
729 769 770 730
730 770 771 731
731 771 772 732
732 772 773 733
733 773 774 734
734 774 775 735
735 775 776 736
736 776 777 737
737 777 778 738
738 778 779 739
739 779 780 740
740 780 781 741
741 781 782 742
742 782 783 743
743 783 784 744
744 784 785 745
745 785 786 746
746 786 787 747
747 787 788 748
748 788 789 749
749 789 790 750
750 790 791 751
751 791 792 752
752 792 793 753
753 793 794 754
754 794 795 755
755 795 796 756
756 796 797 757
757 797 97 96
19 20 798 758
758 798 799 759
759 799 800 760
760 800 801 761
761 801 802 762
762 802 803 763
763 803 804 764
764 804 805 765
765 805 806 766
766 806 807 767
767 807 808 768
768 808 809 769
769 809 810 770
770 810 811 771
771 811 812 772
772 812 813 773
773 813 814 774
774 814 815 775
775 815 816 776
776 816 817 777
777 817 818 778
778 818 819 779
779 819 820 780
780 820 821 781
781 821 822 782
782 822 823 783
783 823 824 784
784 824 825 785
785 825 826 786
786 826 827 787
787 827 828 788
788 828 829 789
789 829 830 790
790 830 831 791
791 831 832 792
792 832 833 793
793 833 834 794
794 834 835 795
795 835 836 796
796 836 837 797
797 837 98 97
20 21 838 798
798 838 839 799
799 839 840 800
800 840 841 801
801 841 842 802
802 842 843 803
803 843 844 804
804 844 845 805
805 845 846 806
806 846 847 807
807 847 848 808
808 848 849 809
809 849 850 810
810 850 851 811
811 851 852 812
812 852 853 813
813 853 854 814
814 854 855 815
815 855 856 816
816 856 857 817
817 857 858 818
818 858 859 819
819 859 860 820
820 860 861 821
821 861 862 822
822 862 863 823
823 863 864 824
824 864 865 825
825 865 866 826
826 866 867 827
827 867 868 828
828 868 869 829
829 869 870 830
830 870 871 831
831 871 872 832
832 872 873 833
833 873 874 834
834 874 875 835
835 875 876 836
836 876 877 837
837 877 99 98
21 22 878 838
838 878 879 839
839 879 880 840
840 880 881 841
841 881 882 842
842 882 883 843
843 883 884 844
844 884 885 845
845 885 886 846
846 886 887 847
847 887 888 848
848 888 889 849
849 889 890 850
850 890 891 851
851 891 892 852
852 892 893 853
853 893 894 854
854 894 895 855
855 895 896 856
856 896 897 857
857 897 898 858
858 898 899 859
859 899 900 860
860 900 901 861
861 901 902 862
862 902 903 863
863 903 904 864
864 904 905 865
865 905 906 866
866 906 907 867
867 907 908 868
868 908 909 869
869 909 910 870
870 910 911 871
871 911 912 872
872 912 913 873
873 913 914 874
874 914 915 875
875 915 916 876
876 916 917 877
877 917 100 99
22 23 918 878
878 918 919 879
879 919 920 880
880 920 921 881
881 921 922 882
882 922 923 883
883 923 924 884
884 924 925 885
885 925 926 886
886 926 927 887
887 927 928 888
888 928 929 889
889 929 930 890
890 930 931 891
891 931 932 892
892 932 933 893
893 933 934 894
894 934 935 895
895 935 936 896
896 936 937 897
897 937 938 898
898 938 939 899
899 939 940 900
900 940 941 901
901 941 942 902
902 942 943 903
903 943 944 904
904 944 945 905
905 945 946 906
906 946 947 907
907 947 948 908
908 948 949 909
909 949 950 910
910 950 951 911
911 951 952 912
912 952 953 913
913 953 954 914
914 954 955 915
915 955 956 916
916 956 957 917
917 957 101 100
23 24 958 918
918 958 959 919
919 959 960 920
920 960 961 921
921 961 962 922
922 962 963 923
923 963 964 924
924 964 965 925
925 965 966 926
926 966 967 927
927 967 968 928
928 968 969 929
929 969 970 930
930 970 971 931
931 971 972 932
932 972 973 933
933 973 974 934
934 974 975 935
935 975 976 936
936 976 977 937
937 977 978 938
938 978 979 939
939 979 980 940
940 980 981 941
941 981 982 942
942 982 983 943
943 983 984 944
944 984 985 945
945 985 986 946
946 986 987 947
947 987 988 948
948 988 989 949
949 989 990 950
950 990 991 951
951 991 992 952
952 992 993 953
953 993 994 954
954 994 995 955
955 995 996 956
956 996 997 957
957 997 102 101
24 25 998 958
958 998 999 959
959 999 1000 960
960 1000 1001 961
961 1001 1002 962
962 1002 1003 963
963 1003 1004 964
964 1004 1005 965
965 1005 1006 966
966 1006 1007 967
967 1007 1008 968
968 1008 1009 969
969 1009 1010 970
970 1010 1011 971
971 1011 1012 972
972 1012 1013 973
973 1013 1014 974
974 1014 1015 975
975 1015 1016 976
976 1016 1017 977
977 1017 1018 978
978 1018 1019 979
979 1019 1020 980
980 1020 1021 981
981 1021 1022 982
982 1022 1023 983
983 1023 1024 984
984 1024 1025 985
985 1025 1026 986
986 1026 1027 987
987 1027 1028 988
988 1028 1029 989
989 1029 1030 990
990 1030 1031 991
991 1031 1032 992
992 1032 1033 993
993 1033 1034 994
994 1034 1035 995
995 1035 1036 996
996 1036 1037 997
997 1037 103 102
25 26 1038 998
998 1038 1039 999
999 1039 1040 1000
1000 1040 1041 1001
1001 1041 1042 1002
1002 1042 1043 1003
1003 1043 1044 1004
1004 1044 1045 1005
1005 1045 1046 1006
1006 1046 1047 1007
1007 1047 1048 1008
1008 1048 1049 1009
1009 1049 1050 1010
1010 1050 1051 1011
1011 1051 1052 1012
1012 1052 1053 1013
1013 1053 1054 1014
1014 1054 1055 1015
1015 1055 1056 1016
1016 1056 1057 1017
1017 1057 1058 1018
1018 1058 1059 1019
1019 1059 1060 1020
1020 1060 1061 1021
1021 1061 1062 1022
1022 1062 1063 1023
1023 1063 1064 1024
1024 1064 1065 1025
1025 1065 1066 1026
1026 1066 1067 1027
1027 1067 1068 1028
1028 1068 1069 1029
1029 1069 1070 1030
1030 1070 1071 1031
1031 1071 1072 1032
1032 1072 1073 1033
1033 1073 1074 1034
1034 1074 1075 1035
1035 1075 1076 1036
1036 1076 1077 1037
1037 1077 104 103
26 27 1078 1038
1038 1078 1079 1039
1039 1079 1080 1040
1040 1080 1081 1041
1041 1081 1082 1042
1042 1082 1083 1043
1043 1083 1084 1044
1044 1084 1085 1045
1045 1085 1086 1046
1046 1086 1087 1047
1047 1087 1088 1048
1048 1088 1089 1049
1049 1089 1090 1050
1050 1090 1091 1051
1051 1091 1092 1052
1052 1092 1093 1053
1053 1093 1094 1054
1054 1094 1095 1055
1055 1095 1096 1056
1056 1096 1097 1057
1057 1097 1098 1058
1058 1098 1099 1059
1059 1099 1100 1060
1060 1100 1101 1061
1061 1101 1102 1062
1062 1102 1103 1063
1063 1103 1104 1064
1064 1104 1105 1065
1065 1105 1106 1066
1066 1106 1107 1067
1067 1107 1108 1068
1068 1108 1109 1069
1069 1109 1110 1070
1070 1110 1111 1071
1071 1111 1112 1072
1072 1112 1113 1073
1073 1113 1114 1074
1074 1114 1115 1075
1075 1115 1116 1076
1076 1116 1117 1077
1077 1117 105 104
27 28 1118 1078
1078 1118 1119 1079
1079 1119 1120 1080
1080 1120 1121 1081
1081 1121 1122 1082
1082 1122 1123 1083
1083 1123 1124 1084
1084 1124 1125 1085
1085 1125 1126 1086
1086 1126 1127 1087
1087 1127 1128 1088
1088 1128 1129 1089
1089 1129 1130 1090
1090 1130 1131 1091
1091 1131 1132 1092
1092 1132 1133 1093
1093 1133 1134 1094
1094 1134 1135 1095
1095 1135 1136 1096
1096 1136 1137 1097
1097 1137 1138 1098
1098 1138 1139 1099
1099 1139 1140 1100
1100 1140 1141 1101
1101 1141 1142 1102
1102 1142 1143 1103
1103 1143 1144 1104
1104 1144 1145 1105
1105 1145 1146 1106
1106 1146 1147 1107
1107 1147 1148 1108
1108 1148 1149 1109
1109 1149 1150 1110
1110 1150 1151 1111
1111 1151 1152 1112
1112 1152 1153 1113
1113 1153 1154 1114
1114 1154 1155 1115
1115 1155 1156 1116
1116 1156 1157 1117
1117 1157 106 105
28 29 1158 1118
1118 1158 1159 1119
1119 1159 1160 1120
1120 1160 1161 1121
1121 1161 1162 1122
1122 1162 1163 1123
1123 1163 1164 1124
1124 1164 1165 1125
1125 1165 1166 1126
1126 1166 1167 1127
1127 1167 1168 1128
1128 1168 1169 1129
1129 1169 1170 1130
1130 1170 1171 1131
1131 1171 1172 1132
1132 1172 1173 1133
1133 1173 1174 1134
1134 1174 1175 1135
1135 1175 1176 1136
1136 1176 1177 1137
1137 1177 1178 1138
1138 1178 1179 1139
1139 1179 1180 1140
1140 1180 1181 1141
1141 1181 1182 1142
1142 1182 1183 1143
1143 1183 1184 1144
1144 1184 1185 1145
1145 1185 1186 1146
1146 1186 1187 1147
1147 1187 1188 1148
1148 1188 1189 1149
1149 1189 1190 1150
1150 1190 1191 1151
1151 1191 1192 1152
1152 1192 1193 1153
1153 1193 1194 1154
1154 1194 1195 1155
1155 1195 1196 1156
1156 1196 1197 1157
1157 1197 107 106
29 30 1198 1158
1158 1198 1199 1159
1159 1199 1200 1160
1160 1200 1201 1161
1161 1201 1202 1162
1162 1202 1203 1163
1163 1203 1204 1164
1164 1204 1205 1165
1165 1205 1206 1166
1166 1206 1207 1167
1167 1207 1208 1168
1168 1208 1209 1169
1169 1209 1210 1170
1170 1210 1211 1171
1171 1211 1212 1172
1172 1212 1213 1173
1173 1213 1214 1174
1174 1214 1215 1175
1175 1215 1216 1176
1176 1216 1217 1177
1177 1217 1218 1178
1178 1218 1219 1179
1179 1219 1220 1180
1180 1220 1221 1181
1181 1221 1222 1182
1182 1222 1223 1183
1183 1223 1224 1184
1184 1224 1225 1185
1185 1225 1226 1186
1186 1226 1227 1187
1187 1227 1228 1188
1188 1228 1229 1189
1189 1229 1230 1190
1190 1230 1231 1191
1191 1231 1232 1192
1192 1232 1233 1193
1193 1233 1234 1194
1194 1234 1235 1195
1195 1235 1236 1196
1196 1236 1237 1197
1197 1237 4 107
30 31 1238 1198
1198 1238 1239 1199
1199 1239 1240 1200
1200 1240 1241 1201
1201 1241 1242 1202
1202 1242 1243 1203
1203 1243 1244 1204
1204 1244 1245 1205
1205 1245 1246 1206
1206 1246 1247 1207
1207 1247 1248 1208
1208 1248 1249 1209
1209 1249 1250 1210
1210 1250 1251 1211
1211 1251 1252 1212
1212 1252 1253 1213
1213 1253 1254 1214
1214 1254 1255 1215
1215 1255 1256 1216
1216 1256 1257 1217
1217 1257 1258 1218
1218 1258 1259 1219
1219 1259 1260 1220
1220 1260 1261 1221
1221 1261 1262 1222
1222 1262 1263 1223
1223 1263 1264 1224
1224 1264 1265 1225
1225 1265 1266 1226
1226 1266 1267 1227
1227 1267 1268 1228
1228 1268 1269 1229
1229 1269 1270 1230
1230 1270 1271 1231
1231 1271 1272 1232
1232 1272 1273 1233
1233 1273 1274 1234
1234 1274 1275 1235
1235 1275 1276 1236
1236 1276 1277 1237
1237 1277 108 4
31 32 1278 1238
1238 1278 1279 1239
1239 1279 1280 1240
1240 1280 1281 1241
1241 1281 1282 1242
1242 1282 1283 1243
1243 1283 1284 1244
1244 1284 1285 1245
1245 1285 1286 1246
1246 1286 1287 1247
1247 1287 1288 1248
1248 1288 1289 1249
1249 1289 1290 1250
1250 1290 1291 1251
1251 1291 1292 1252
1252 1292 1293 1253
1253 1293 1294 1254
1254 1294 1295 1255
1255 1295 1296 1256
1256 1296 1297 1257
1257 1297 1298 1258
1258 1298 1299 1259
1259 1299 1300 1260
1260 1300 1301 1261
1261 1301 1302 1262
1262 1302 1303 1263
1263 1303 1304 1264
1264 1304 1305 1265
1265 1305 1306 1266
1266 1306 1307 1267
1267 1307 1308 1268
1268 1308 1309 1269
1269 1309 1310 1270
1270 1310 1311 1271
1271 1311 1312 1272
1272 1312 1313 1273
1273 1313 1314 1274
1274 1314 1315 1275
1275 1315 1316 1276
1276 1316 1317 1277
1277 1317 109 108
32 33 1318 1278
1278 1318 1319 1279
1279 1319 1320 1280
1280 1320 1321 1281
1281 1321 1322 1282
1282 1322 1323 1283
1283 1323 1324 1284
1284 1324 1325 1285
1285 1325 1326 1286
1286 1326 1327 1287
1287 1327 1328 1288
1288 1328 1329 1289
1289 1329 1330 1290
1290 1330 1331 1291
1291 1331 1332 1292
1292 1332 1333 1293
1293 1333 1334 1294
1294 1334 1335 1295
1295 1335 1336 1296
1296 1336 1337 1297
1297 1337 1338 1298
1298 1338 1339 1299
1299 1339 1340 1300
1300 1340 1341 1301
1301 1341 1342 1302
1302 1342 1343 1303
1303 1343 1344 1304
1304 1344 1345 1305
1305 1345 1346 1306
1306 1346 1347 1307
1307 1347 1348 1308
1308 1348 1349 1309
1309 1349 1350 1310
1310 1350 1351 1311
1311 1351 1352 1312
1312 1352 1353 1313
1313 1353 1354 1314
1314 1354 1355 1315
1315 1355 1356 1316
1316 1356 1357 1317
1317 1357 110 109
33 34 1358 1318
1318 1358 1359 1319
1319 1359 1360 1320
1320 1360 1361 1321
1321 1361 1362 1322
1322 1362 1363 1323
1323 1363 1364 1324
1324 1364 1365 1325
1325 1365 1366 1326
1326 1366 1367 1327
1327 1367 1368 1328
1328 1368 1369 1329
1329 1369 1370 1330
1330 1370 1371 1331
1331 1371 1372 1332
1332 1372 1373 1333
1333 1373 1374 1334
1334 1374 1375 1335
1335 1375 1376 1336
1336 1376 1377 1337
1337 1377 1378 1338
1338 1378 1379 1339
1339 1379 1380 1340
1340 1380 1381 1341
1341 1381 1382 1342
1342 1382 1383 1343
1343 1383 1384 1344
1344 1384 1385 1345
1345 1385 1386 1346
1346 1386 1387 1347
1347 1387 1388 1348
1348 1388 1389 1349
1349 1389 1390 1350
1350 1390 1391 1351
1351 1391 1392 1352
1352 1392 1393 1353
1353 1393 1394 1354
1354 1394 1395 1355
1355 1395 1396 1356
1356 1396 1397 1357
1357 1397 111 110
34 35 1398 1358
1358 1398 1399 1359
1359 1399 1400 1360
1360 1400 1401 1361
1361 1401 1402 1362
1362 1402 1403 1363
1363 1403 1404 1364
1364 1404 1405 1365
1365 1405 1406 1366
1366 1406 1407 1367
1367 1407 1408 1368
1368 1408 1409 1369
1369 1409 1410 1370
1370 1410 1411 1371
1371 1411 1412 1372
1372 1412 1413 1373
1373 1413 1414 1374
1374 1414 1415 1375
1375 1415 1416 1376
1376 1416 1417 1377
1377 1417 1418 1378
1378 1418 1419 1379
1379 1419 1420 1380
1380 1420 1421 1381
1381 1421 1422 1382
1382 1422 1423 1383
1383 1423 1424 1384
1384 1424 1425 1385
1385 1425 1426 1386
1386 1426 1427 1387
1387 1427 1428 1388
1388 1428 1429 1389
1389 1429 1430 1390
1390 1430 1431 1391
1391 1431 1432 1392
1392 1432 1433 1393
1393 1433 1434 1394
1394 1434 1435 1395
1395 1435 1436 1396
1396 1436 1437 1397
1397 1437 112 111
35 36 1438 1398
1398 1438 1439 1399
1399 1439 1440 1400
1400 1440 1441 1401
1401 1441 1442 1402
1402 1442 1443 1403
1403 1443 1444 1404
1404 1444 1445 1405
1405 1445 1446 1406
1406 1446 1447 1407
1407 1447 1448 1408
1408 1448 1449 1409
1409 1449 1450 1410
1410 1450 1451 1411
1411 1451 1452 1412
1412 1452 1453 1413
1413 1453 1454 1414
1414 1454 1455 1415
1415 1455 1456 1416
1416 1456 1457 1417
1417 1457 1458 1418
1418 1458 1459 1419
1419 1459 1460 1420
1420 1460 1461 1421
1421 1461 1462 1422
1422 1462 1463 1423
1423 1463 1464 1424
1424 1464 1465 1425
1425 1465 1466 1426
1426 1466 1467 1427
1427 1467 1468 1428
1428 1468 1469 1429
1429 1469 1470 1430
1430 1470 1471 1431
1431 1471 1472 1432
1432 1472 1473 1433
1433 1473 1474 1434
1434 1474 1475 1435
1435 1475 1476 1436
1436 1476 1477 1437
1437 1477 113 112
36 37 1478 1438
1438 1478 1479 1439
1439 1479 1480 1440
1440 1480 1481 1441
1441 1481 1482 1442
1442 1482 1483 1443
1443 1483 1484 1444
1444 1484 1485 1445
1445 1485 1486 1446
1446 1486 1487 1447
1447 1487 1488 1448
1448 1488 1489 1449
1449 1489 1490 1450
1450 1490 1491 1451
1451 1491 1492 1452
1452 1492 1493 1453
1453 1493 1494 1454
1454 1494 1495 1455
1455 1495 1496 1456
1456 1496 1497 1457
1457 1497 1498 1458
1458 1498 1499 1459
1459 1499 1500 1460
1460 1500 1501 1461
1461 1501 1502 1462
1462 1502 1503 1463
1463 1503 1504 1464
1464 1504 1505 1465
1465 1505 1506 1466
1466 1506 1507 1467
1467 1507 1508 1468
1468 1508 1509 1469
1469 1509 1510 1470
1470 1510 1511 1471
1471 1511 1512 1472
1472 1512 1513 1473
1473 1513 1514 1474
1474 1514 1515 1475
1475 1515 1516 1476
1476 1516 1517 1477
1477 1517 114 113
37 38 1518 1478
1478 1518 1519 1479
1479 1519 1520 1480
1480 1520 1521 1481
1481 1521 1522 1482
1482 1522 1523 1483
1483 1523 1524 1484
1484 1524 1525 1485
1485 1525 1526 1486
1486 1526 1527 1487
1487 1527 1528 1488
1488 1528 1529 1489
1489 1529 1530 1490
1490 1530 1531 1491
1491 1531 1532 1492
1492 1532 1533 1493
1493 1533 1534 1494
1494 1534 1535 1495
1495 1535 1536 1496
1496 1536 1537 1497
1497 1537 1538 1498
1498 1538 1539 1499
1499 1539 1540 1500
1500 1540 1541 1501
1501 1541 1542 1502
1502 1542 1543 1503
1503 1543 1544 1504
1504 1544 1545 1505
1505 1545 1546 1506
1506 1546 1547 1507
1507 1547 1548 1508
1508 1548 1549 1509
1509 1549 1550 1510
1510 1550 1551 1511
1511 1551 1552 1512
1512 1552 1553 1513
1513 1553 1554 1514
1514 1554 1555 1515
1515 1555 1556 1516
1516 1556 1557 1517
1517 1557 115 114
38 39 1558 1518
1518 1558 1559 1519
1519 1559 1560 1520
1520 1560 1561 1521
1521 1561 1562 1522
1522 1562 1563 1523
1523 1563 1564 1524
1524 1564 1565 1525
1525 1565 1566 1526
1526 1566 1567 1527
1527 1567 1568 1528
1528 1568 1569 1529
1529 1569 1570 1530
1530 1570 1571 1531
1531 1571 1572 1532
1532 1572 1573 1533
1533 1573 1574 1534
1534 1574 1575 1535
1535 1575 1576 1536
1536 1576 1577 1537
1537 1577 1578 1538
1538 1578 1579 1539
1539 1579 1580 1540
1540 1580 1581 1541
1541 1581 1582 1542
1542 1582 1583 1543
1543 1583 1584 1544
1544 1584 1585 1545
1545 1585 1586 1546
1546 1586 1587 1547
1547 1587 1588 1548
1548 1588 1589 1549
1549 1589 1590 1550
1550 1590 1591 1551
1551 1591 1592 1552
1552 1592 1593 1553
1553 1593 1594 1554
1554 1594 1595 1555
1555 1595 1596 1556
1556 1596 1597 1557
1557 1597 116 115
39 40 1598 1558
1558 1598 1599 1559
1559 1599 1600 1560
1560 1600 1601 1561
1561 1601 1602 1562
1562 1602 1603 1563
1563 1603 1604 1564
1564 1604 1605 1565
1565 1605 1606 1566
1566 1606 1607 1567
1567 1607 1608 1568
1568 1608 1609 1569
1569 1609 1610 1570
1570 1610 1611 1571
1571 1611 1612 1572
1572 1612 1613 1573
1573 1613 1614 1574
1574 1614 1615 1575
1575 1615 1616 1576
1576 1616 1617 1577
1577 1617 1618 1578
1578 1618 1619 1579
1579 1619 1620 1580
1580 1620 1621 1581
1581 1621 1622 1582
1582 1622 1623 1583
1583 1623 1624 1584
1584 1624 1625 1585
1585 1625 1626 1586
1586 1626 1627 1587
1587 1627 1628 1588
1588 1628 1629 1589
1589 1629 1630 1590
1590 1630 1631 1591
1591 1631 1632 1592
1592 1632 1633 1593
1593 1633 1634 1594
1594 1634 1635 1595
1595 1635 1636 1596
1596 1636 1637 1597
1597 1637 117 116
40 41 1638 1598
1598 1638 1639 1599
1599 1639 1640 1600
1600 1640 1641 1601
1601 1641 1642 1602
1602 1642 1643 1603
1603 1643 1644 1604
1604 1644 1645 1605
1605 1645 1646 1606
1606 1646 1647 1607
1607 1647 1648 1608
1608 1648 1649 1609
1609 1649 1650 1610
1610 1650 1651 1611
1611 1651 1652 1612
1612 1652 1653 1613
1613 1653 1654 1614
1614 1654 1655 1615
1615 1655 1656 1616
1616 1656 1657 1617
1617 1657 1658 1618
1618 1658 1659 1619
1619 1659 1660 1620
1620 1660 1661 1621
1621 1661 1662 1622
1622 1662 1663 1623
1623 1663 1664 1624
1624 1664 1665 1625
1625 1665 1666 1626
1626 1666 1667 1627
1627 1667 1668 1628
1628 1668 1669 1629
1629 1669 1670 1630
1630 1670 1671 1631
1631 1671 1672 1632
1632 1672 1673 1633
1633 1673 1674 1634
1634 1674 1675 1635
1635 1675 1676 1636
1636 1676 1677 1637
1637 1677 118 117
41 42 1678 1638
1638 1678 1679 1639
1639 1679 1680 1640
1640 1680 1681 1641
1641 1681 1682 1642
1642 1682 1683 1643
1643 1683 1684 1644
1644 1684 1685 1645
1645 1685 1686 1646
1646 1686 1687 1647
1647 1687 1688 1648
1648 1688 1689 1649
1649 1689 1690 1650
1650 1690 1691 1651
1651 1691 1692 1652
1652 1692 1693 1653
1653 1693 1694 1654
1654 1694 1695 1655
1655 1695 1696 1656
1656 1696 1697 1657
1657 1697 1698 1658
1658 1698 1699 1659
1659 1699 1700 1660
1660 1700 1701 1661
1661 1701 1702 1662
1662 1702 1703 1663
1663 1703 1704 1664
1664 1704 1705 1665
1665 1705 1706 1666
1666 1706 1707 1667
1667 1707 1708 1668
1668 1708 1709 1669
1669 1709 1710 1670
1670 1710 1711 1671
1671 1711 1712 1672
1672 1712 1713 1673
1673 1713 1714 1674
1674 1714 1715 1675
1675 1715 1716 1676
1676 1716 1717 1677
1677 1717 119 118
42 43 1718 1678
1678 1718 1719 1679
1679 1719 1720 1680
1680 1720 1721 1681
1681 1721 1722 1682
1682 1722 1723 1683
1683 1723 1724 1684
1684 1724 1725 1685
1685 1725 1726 1686
1686 1726 1727 1687
1687 1727 1728 1688
1688 1728 1729 1689
1689 1729 1730 1690
1690 1730 1731 1691
1691 1731 1732 1692
1692 1732 1733 1693
1693 1733 1734 1694
1694 1734 1735 1695
1695 1735 1736 1696
1696 1736 1737 1697
1697 1737 1738 1698
1698 1738 1739 1699
1699 1739 1740 1700
1700 1740 1741 1701
1701 1741 1742 1702
1702 1742 1743 1703
1703 1743 1744 1704
1704 1744 1745 1705
1705 1745 1746 1706
1706 1746 1747 1707
1707 1747 1748 1708
1708 1748 1749 1709
1709 1749 1750 1710
1710 1750 1751 1711
1711 1751 1752 1712
1712 1752 1753 1713
1713 1753 1754 1714
1714 1754 1755 1715
1715 1755 1756 1716
1716 1756 1757 1717
1717 1757 120 119
43 44 1758 1718
1718 1758 1759 1719
1719 1759 1760 1720
1720 1760 1761 1721
1721 1761 1762 1722
1722 1762 1763 1723
1723 1763 1764 1724
1724 1764 1765 1725
1725 1765 1766 1726
1726 1766 1767 1727
1727 1767 1768 1728
1728 1768 1769 1729
1729 1769 1770 1730
1730 1770 1771 1731
1731 1771 1772 1732
1732 1772 1773 1733
1733 1773 1774 1734
1734 1774 1775 1735
1735 1775 1776 1736
1736 1776 1777 1737
1737 1777 1778 1738
1738 1778 1779 1739
1739 1779 1780 1740
1740 1780 1781 1741
1741 1781 1782 1742
1742 1782 1783 1743
1743 1783 1784 1744
1744 1784 1785 1745
1745 1785 1786 1746
1746 1786 1787 1747
1747 1787 1788 1748
1748 1788 1789 1749
1749 1789 1790 1750
1750 1790 1791 1751
1751 1791 1792 1752
1752 1792 1793 1753
1753 1793 1794 1754
1754 1794 1795 1755
1755 1795 1796 1756
1756 1796 1797 1757
1757 1797 121 120
44 45 1798 1758
1758 1798 1799 1759
1759 1799 1800 1760
1760 1800 1801 1761
1761 1801 1802 1762
1762 1802 1803 1763
1763 1803 1804 1764
1764 1804 1805 1765
1765 1805 1806 1766
1766 1806 1807 1767
1767 1807 1808 1768
1768 1808 1809 1769
1769 1809 1810 1770
1770 1810 1811 1771
1771 1811 1812 1772
1772 1812 1813 1773
1773 1813 1814 1774
1774 1814 1815 1775
1775 1815 1816 1776
1776 1816 1817 1777
1777 1817 1818 1778
1778 1818 1819 1779
1779 1819 1820 1780
1780 1820 1821 1781
1781 1821 1822 1782
1782 1822 1823 1783
1783 1823 1824 1784
1784 1824 1825 1785
1785 1825 1826 1786
1786 1826 1827 1787
1787 1827 1828 1788
1788 1828 1829 1789
1789 1829 1830 1790
1790 1830 1831 1791
1791 1831 1832 1792
1792 1832 1833 1793
1793 1833 1834 1794
1794 1834 1835 1795
1795 1835 1836 1796
1796 1836 1837 1797
1797 1837 122 121
45 46 1838 1798
1798 1838 1839 1799
1799 1839 1840 1800
1800 1840 1841 1801
1801 1841 1842 1802
1802 1842 1843 1803
1803 1843 1844 1804
1804 1844 1845 1805
1805 1845 1846 1806
1806 1846 1847 1807
1807 1847 1848 1808
1808 1848 1849 1809
1809 1849 1850 1810
1810 1850 1851 1811
1811 1851 1852 1812
1812 1852 1853 1813
1813 1853 1854 1814
1814 1854 1855 1815
1815 1855 1856 1816
1816 1856 1857 1817
1817 1857 1858 1818
1818 1858 1859 1819
1819 1859 1860 1820
1820 1860 1861 1821
1821 1861 1862 1822
1822 1862 1863 1823
1823 1863 1864 1824
1824 1864 1865 1825
1825 1865 1866 1826
1826 1866 1867 1827
1827 1867 1868 1828
1828 1868 1869 1829
1829 1869 1870 1830
1830 1870 1871 1831
1831 1871 1872 1832
1832 1872 1873 1833
1833 1873 1874 1834
1834 1874 1875 1835
1835 1875 1876 1836
1836 1876 1877 1837
1837 1877 123 122
46 47 1878 1838
1838 1878 1879 1839
1839 1879 1880 1840
1840 1880 1881 1841
1841 1881 1882 1842
1842 1882 1883 1843
1843 1883 1884 1844
1844 1884 1885 1845
1845 1885 1886 1846
1846 1886 1887 1847
1847 1887 1888 1848
1848 1888 1889 1849
1849 1889 1890 1850
1850 1890 1891 1851
1851 1891 1892 1852
1852 1892 1893 1853
1853 1893 1894 1854
1854 1894 1895 1855
1855 1895 1896 1856
1856 1896 1897 1857
1857 1897 1898 1858
1858 1898 1899 1859
1859 1899 1900 1860
1860 1900 1901 1861
1861 1901 1902 1862
1862 1902 1903 1863
1863 1903 1904 1864
1864 1904 1905 1865
1865 1905 1906 1866
1866 1906 1907 1867
1867 1907 1908 1868
1868 1908 1909 1869
1869 1909 1910 1870
1870 1910 1911 1871
1871 1911 1912 1872
1872 1912 1913 1873
1873 1913 1914 1874
1874 1914 1915 1875
1875 1915 1916 1876
1876 1916 1917 1877
1877 1917 124 123
47 48 1918 1878
1878 1918 1919 1879
1879 1919 1920 1880
1880 1920 1921 1881
1881 1921 1922 1882
1882 1922 1923 1883
1883 1923 1924 1884
1884 1924 1925 1885
1885 1925 1926 1886
1886 1926 1927 1887
1887 1927 1928 1888
1888 1928 1929 1889
1889 1929 1930 1890
1890 1930 1931 1891
1891 1931 1932 1892
1892 1932 1933 1893
1893 1933 1934 1894
1894 1934 1935 1895
1895 1935 1936 1896
1896 1936 1937 1897
1897 1937 1938 1898
1898 1938 1939 1899
1899 1939 1940 1900
1900 1940 1941 1901
1901 1941 1942 1902
1902 1942 1943 1903
1903 1943 1944 1904
1904 1944 1945 1905
1905 1945 1946 1906
1906 1946 1947 1907
1907 1947 1948 1908
1908 1948 1949 1909
1909 1949 1950 1910
1910 1950 1951 1911
1911 1951 1952 1912
1912 1952 1953 1913
1913 1953 1954 1914
1914 1954 1955 1915
1915 1955 1956 1916
1916 1956 1957 1917
1917 1957 125 124
48 49 1958 1918
1918 1958 1959 1919
1919 1959 1960 1920
1920 1960 1961 1921
1921 1961 1962 1922
1922 1962 1963 1923
1923 1963 1964 1924
1924 1964 1965 1925
1925 1965 1966 1926
1926 1966 1967 1927
1927 1967 1968 1928
1928 1968 1969 1929
1929 1969 1970 1930
1930 1970 1971 1931
1931 1971 1972 1932
1932 1972 1973 1933
1933 1973 1974 1934
1934 1974 1975 1935
1935 1975 1976 1936
1936 1976 1977 1937
1937 1977 1978 1938
1938 1978 1979 1939
1939 1979 1980 1940
1940 1980 1981 1941
1941 1981 1982 1942
1942 1982 1983 1943
1943 1983 1984 1944
1944 1984 1985 1945
1945 1985 1986 1946
1946 1986 1987 1947
1947 1987 1988 1948
1948 1988 1989 1949
1949 1989 1990 1950
1950 1990 1991 1951
1951 1991 1992 1952
1952 1992 1993 1953
1953 1993 1994 1954
1954 1994 1995 1955
1955 1995 1996 1956
1956 1996 1997 1957
1957 1997 126 125
49 1 1998 1958
1958 1998 1999 1959
1959 1999 2000 1960
1960 2000 2001 1961
1961 2001 2002 1962
1962 2002 2003 1963
1963 2003 2004 1964
1964 2004 2005 1965
1965 2005 2006 1966
1966 2006 2007 1967
1967 2007 2008 1968
1968 2008 2009 1969
1969 2009 2010 1970
1970 2010 2011 1971
1971 2011 2012 1972
1972 2012 2013 1973
1973 2013 2014 1974
1974 2014 2015 1975
1975 2015 2016 1976
1976 2016 2017 1977
1977 2017 2018 1978
1978 2018 2019 1979
1979 2019 2020 1980
1980 2020 2021 1981
1981 2021 2022 1982
1982 2022 2023 1983
1983 2023 2024 1984
1984 2024 2025 1985
1985 2025 2026 1986
1986 2026 2027 1987
1987 2027 2028 1988
1988 2028 2029 1989
1989 2029 2030 1990
1990 2030 2031 1991
1991 2031 2032 1992
1992 2032 2033 1993
1993 2033 2034 1994
1994 2034 2035 1995
1995 2035 2036 1996
1996 2036 2037 1997
1997 2037 127 126
1 50 2038 1998
1998 2038 2039 1999
1999 2039 2040 2000
2000 2040 2041 2001
2001 2041 2042 2002
2002 2042 2043 2003
2003 2043 2044 2004
2004 2044 2045 2005
2005 2045 2046 2006
2006 2046 2047 2007
2007 2047 2048 2008
2008 2048 2049 2009
2009 2049 2050 2010
2010 2050 2051 2011
2011 2051 2052 2012
2012 2052 2053 2013
2013 2053 2054 2014
2014 2054 2055 2015
2015 2055 2056 2016
2016 2056 2057 2017
2017 2057 2058 2018
2018 2058 2059 2019
2019 2059 2060 2020
2020 2060 2061 2021
2021 2061 2062 2022
2022 2062 2063 2023
2023 2063 2064 2024
2024 2064 2065 2025
2025 2065 2066 2026
2026 2066 2067 2027
2027 2067 2068 2028
2028 2068 2069 2029
2029 2069 2070 2030
2030 2070 2071 2031
2031 2071 2072 2032
2032 2072 2073 2033
2033 2073 2074 2034
2034 2074 2075 2035
2035 2075 2076 2036
2036 2076 2077 2037
2037 2077 128 127
50 51 2078 2038
2038 2078 2079 2039
2039 2079 2080 2040
2040 2080 2081 2041
2041 2081 2082 2042
2042 2082 2083 2043
2043 2083 2084 2044
2044 2084 2085 2045
2045 2085 2086 2046
2046 2086 2087 2047
2047 2087 2088 2048
2048 2088 2089 2049
2049 2089 2090 2050
2050 2090 2091 2051
2051 2091 2092 2052
2052 2092 2093 2053
2053 2093 2094 2054
2054 2094 2095 2055
2055 2095 2096 2056
2056 2096 2097 2057
2057 2097 2098 2058
2058 2098 2099 2059
2059 2099 2100 2060
2060 2100 2101 2061
2061 2101 2102 2062
2062 2102 2103 2063
2063 2103 2104 2064
2064 2104 2105 2065
2065 2105 2106 2066
2066 2106 2107 2067
2067 2107 2108 2068
2068 2108 2109 2069
2069 2109 2110 2070
2070 2110 2111 2071
2071 2111 2112 2072
2072 2112 2113 2073
2073 2113 2114 2074
2074 2114 2115 2075
2075 2115 2116 2076
2076 2116 2117 2077
2077 2117 129 128
51 52 2118 2078
2078 2118 2119 2079
2079 2119 2120 2080
2080 2120 2121 2081
2081 2121 2122 2082
2082 2122 2123 2083
2083 2123 2124 2084
2084 2124 2125 2085
2085 2125 2126 2086
2086 2126 2127 2087
2087 2127 2128 2088
2088 2128 2129 2089
2089 2129 2130 2090
2090 2130 2131 2091
2091 2131 2132 2092
2092 2132 2133 2093
2093 2133 2134 2094
2094 2134 2135 2095
2095 2135 2136 2096
2096 2136 2137 2097
2097 2137 2138 2098
2098 2138 2139 2099
2099 2139 2140 2100
2100 2140 2141 2101
2101 2141 2142 2102
2102 2142 2143 2103
2103 2143 2144 2104
2104 2144 2145 2105
2105 2145 2146 2106
2106 2146 2147 2107
2107 2147 2148 2108
2108 2148 2149 2109
2109 2149 2150 2110
2110 2150 2151 2111
2111 2151 2152 2112
2112 2152 2153 2113
2113 2153 2154 2114
2114 2154 2155 2115
2115 2155 2156 2116
2116 2156 2157 2117
2117 2157 130 129
52 53 2158 2118
2118 2158 2159 2119
2119 2159 2160 2120
2120 2160 2161 2121
2121 2161 2162 2122
2122 2162 2163 2123
2123 2163 2164 2124
2124 2164 2165 2125
2125 2165 2166 2126
2126 2166 2167 2127
2127 2167 2168 2128
2128 2168 2169 2129
2129 2169 2170 2130
2130 2170 2171 2131
2131 2171 2172 2132
2132 2172 2173 2133
2133 2173 2174 2134
2134 2174 2175 2135
2135 2175 2176 2136
2136 2176 2177 2137
2137 2177 2178 2138
2138 2178 2179 2139
2139 2179 2180 2140
2140 2180 2181 2141
2141 2181 2182 2142
2142 2182 2183 2143
2143 2183 2184 2144
2144 2184 2185 2145
2145 2185 2186 2146
2146 2186 2187 2147
2147 2187 2188 2148
2148 2188 2189 2149
2149 2189 2190 2150
2150 2190 2191 2151
2151 2191 2192 2152
2152 2192 2193 2153
2153 2193 2194 2154
2154 2194 2195 2155
2155 2195 2196 2156
2156 2196 2197 2157
2157 2197 131 130
53 54 2198 2158
2158 2198 2199 2159
2159 2199 2200 2160
2160 2200 2201 2161
2161 2201 2202 2162
2162 2202 2203 2163
2163 2203 2204 2164
2164 2204 2205 2165
2165 2205 2206 2166
2166 2206 2207 2167
2167 2207 2208 2168
2168 2208 2209 2169
2169 2209 2210 2170
2170 2210 2211 2171
2171 2211 2212 2172
2172 2212 2213 2173
2173 2213 2214 2174
2174 2214 2215 2175
2175 2215 2216 2176
2176 2216 2217 2177
2177 2217 2218 2178
2178 2218 2219 2179
2179 2219 2220 2180
2180 2220 2221 2181
2181 2221 2222 2182
2182 2222 2223 2183
2183 2223 2224 2184
2184 2224 2225 2185
2185 2225 2226 2186
2186 2226 2227 2187
2187 2227 2228 2188
2188 2228 2229 2189
2189 2229 2230 2190
2190 2230 2231 2191
2191 2231 2232 2192
2192 2232 2233 2193
2193 2233 2234 2194
2194 2234 2235 2195
2195 2235 2236 2196
2196 2236 2237 2197
2197 2237 132 131
54 55 2238 2198
2198 2238 2239 2199
2199 2239 2240 2200
2200 2240 2241 2201
2201 2241 2242 2202
2202 2242 2243 2203
2203 2243 2244 2204
2204 2244 2245 2205
2205 2245 2246 2206
2206 2246 2247 2207
2207 2247 2248 2208
2208 2248 2249 2209
2209 2249 2250 2210
2210 2250 2251 2211
2211 2251 2252 2212
2212 2252 2253 2213
2213 2253 2254 2214
2214 2254 2255 2215
2215 2255 2256 2216
2216 2256 2257 2217
2217 2257 2258 2218
2218 2258 2259 2219
2219 2259 2260 2220
2220 2260 2261 2221
2221 2261 2262 2222
2222 2262 2263 2223
2223 2263 2264 2224
2224 2264 2265 2225
2225 2265 2266 2226
2226 2266 2267 2227
2227 2267 2268 2228
2228 2268 2269 2229
2229 2269 2270 2230
2230 2270 2271 2231
2231 2271 2272 2232
2232 2272 2273 2233
2233 2273 2274 2234
2234 2274 2275 2235
2235 2275 2276 2236
2236 2276 2277 2237
2237 2277 133 132
55 56 2278 2238
2238 2278 2279 2239
2239 2279 2280 2240
2240 2280 2281 2241
2241 2281 2282 2242
2242 2282 2283 2243
2243 2283 2284 2244
2244 2284 2285 2245
2245 2285 2286 2246
2246 2286 2287 2247
2247 2287 2288 2248
2248 2288 2289 2249
2249 2289 2290 2250
2250 2290 2291 2251
2251 2291 2292 2252
2252 2292 2293 2253
2253 2293 2294 2254
2254 2294 2295 2255
2255 2295 2296 2256
2256 2296 2297 2257
2257 2297 2298 2258
2258 2298 2299 2259
2259 2299 2300 2260
2260 2300 2301 2261
2261 2301 2302 2262
2262 2302 2303 2263
2263 2303 2304 2264
2264 2304 2305 2265
2265 2305 2306 2266
2266 2306 2307 2267
2267 2307 2308 2268
2268 2308 2309 2269
2269 2309 2310 2270
2270 2310 2311 2271
2271 2311 2312 2272
2272 2312 2313 2273
2273 2313 2314 2274
2274 2314 2315 2275
2275 2315 2316 2276
2276 2316 2317 2277
2277 2317 134 133
56 57 2318 2278
2278 2318 2319 2279
2279 2319 2320 2280
2280 2320 2321 2281
2281 2321 2322 2282
2282 2322 2323 2283
2283 2323 2324 2284
2284 2324 2325 2285
2285 2325 2326 2286
2286 2326 2327 2287
2287 2327 2328 2288
2288 2328 2329 2289
2289 2329 2330 2290
2290 2330 2331 2291
2291 2331 2332 2292
2292 2332 2333 2293
2293 2333 2334 2294
2294 2334 2335 2295
2295 2335 2336 2296
2296 2336 2337 2297
2297 2337 2338 2298
2298 2338 2339 2299
2299 2339 2340 2300
2300 2340 2341 2301
2301 2341 2342 2302
2302 2342 2343 2303
2303 2343 2344 2304
2304 2344 2345 2305
2305 2345 2346 2306
2306 2346 2347 2307
2307 2347 2348 2308
2308 2348 2349 2309
2309 2349 2350 2310
2310 2350 2351 2311
2311 2351 2352 2312
2312 2352 2353 2313
2313 2353 2354 2314
2314 2354 2355 2315
2315 2355 2356 2316
2316 2356 2357 2317
2317 2357 135 134
57 58 2358 2318
2318 2358 2359 2319
2319 2359 2360 2320
2320 2360 2361 2321
2321 2361 2362 2322
2322 2362 2363 2323
2323 2363 2364 2324
2324 2364 2365 2325
2325 2365 2366 2326
2326 2366 2367 2327
2327 2367 2368 2328
2328 2368 2369 2329
2329 2369 2370 2330
2330 2370 2371 2331
2331 2371 2372 2332
2332 2372 2373 2333
2333 2373 2374 2334
2334 2374 2375 2335
2335 2375 2376 2336
2336 2376 2377 2337
2337 2377 2378 2338
2338 2378 2379 2339
2339 2379 2380 2340
2340 2380 2381 2341
2341 2381 2382 2342
2342 2382 2383 2343
2343 2383 2384 2344
2344 2384 2385 2345
2345 2385 2386 2346
2346 2386 2387 2347
2347 2387 2388 2348
2348 2388 2389 2349
2349 2389 2390 2350
2350 2390 2391 2351
2351 2391 2392 2352
2352 2392 2393 2353
2353 2393 2394 2354
2354 2394 2395 2355
2355 2395 2396 2356
2356 2396 2397 2357
2357 2397 136 135
58 59 2398 2358
2358 2398 2399 2359
2359 2399 2400 2360
2360 2400 2401 2361
2361 2401 2402 2362
2362 2402 2403 2363
2363 2403 2404 2364
2364 2404 2405 2365
2365 2405 2406 2366
2366 2406 2407 2367
2367 2407 2408 2368
2368 2408 2409 2369
2369 2409 2410 2370
2370 2410 2411 2371
2371 2411 2412 2372
2372 2412 2413 2373
2373 2413 2414 2374
2374 2414 2415 2375
2375 2415 2416 2376
2376 2416 2417 2377
2377 2417 2418 2378
2378 2418 2419 2379
2379 2419 2420 2380
2380 2420 2421 2381
2381 2421 2422 2382
2382 2422 2423 2383
2383 2423 2424 2384
2384 2424 2425 2385
2385 2425 2426 2386
2386 2426 2427 2387
2387 2427 2428 2388
2388 2428 2429 2389
2389 2429 2430 2390
2390 2430 2431 2391
2391 2431 2432 2392
2392 2432 2433 2393
2393 2433 2434 2394
2394 2434 2435 2395
2395 2435 2436 2396
2396 2436 2437 2397
2397 2437 137 136
59 60 2438 2398
2398 2438 2439 2399
2399 2439 2440 2400
2400 2440 2441 2401
2401 2441 2442 2402
2402 2442 2443 2403
2403 2443 2444 2404
2404 2444 2445 2405
2405 2445 2446 2406
2406 2446 2447 2407
2407 2447 2448 2408
2408 2448 2449 2409
2409 2449 2450 2410
2410 2450 2451 2411
2411 2451 2452 2412
2412 2452 2453 2413
2413 2453 2454 2414
2414 2454 2455 2415
2415 2455 2456 2416
2416 2456 2457 2417
2417 2457 2458 2418
2418 2458 2459 2419
2419 2459 2460 2420
2420 2460 2461 2421
2421 2461 2462 2422
2422 2462 2463 2423
2423 2463 2464 2424
2424 2464 2465 2425
2425 2465 2466 2426
2426 2466 2467 2427
2427 2467 2468 2428
2428 2468 2469 2429
2429 2469 2470 2430
2430 2470 2471 2431
2431 2471 2472 2432
2432 2472 2473 2433
2433 2473 2474 2434
2434 2474 2475 2435
2435 2475 2476 2436
2436 2476 2477 2437
2437 2477 138 137
60 61 2478 2438
2438 2478 2479 2439
2439 2479 2480 2440
2440 2480 2481 2441
2441 2481 2482 2442
2442 2482 2483 2443
2443 2483 2484 2444
2444 2484 2485 2445
2445 2485 2486 2446
2446 2486 2487 2447
2447 2487 2488 2448
2448 2488 2489 2449
2449 2489 2490 2450
2450 2490 2491 2451
2451 2491 2492 2452
2452 2492 2493 2453
2453 2493 2494 2454
2454 2494 2495 2455
2455 2495 2496 2456
2456 2496 2497 2457
2457 2497 2498 2458
2458 2498 2499 2459
2459 2499 2500 2460
2460 2500 2501 2461
2461 2501 2502 2462
2462 2502 2503 2463
2463 2503 2504 2464
2464 2504 2505 2465
2465 2505 2506 2466
2466 2506 2507 2467
2467 2507 2508 2468
2468 2508 2509 2469
2469 2509 2510 2470
2470 2510 2511 2471
2471 2511 2512 2472
2472 2512 2513 2473
2473 2513 2514 2474
2474 2514 2515 2475
2475 2515 2516 2476
2476 2516 2517 2477
2477 2517 139 138
61 62 2518 2478
2478 2518 2519 2479
2479 2519 2520 2480
2480 2520 2521 2481
2481 2521 2522 2482
2482 2522 2523 2483
2483 2523 2524 2484
2484 2524 2525 2485
2485 2525 2526 2486
2486 2526 2527 2487
2487 2527 2528 2488
2488 2528 2529 2489
2489 2529 2530 2490
2490 2530 2531 2491
2491 2531 2532 2492
2492 2532 2533 2493
2493 2533 2534 2494
2494 2534 2535 2495
2495 2535 2536 2496
2496 2536 2537 2497
2497 2537 2538 2498
2498 2538 2539 2499
2499 2539 2540 2500
2500 2540 2541 2501
2501 2541 2542 2502
2502 2542 2543 2503
2503 2543 2544 2504
2504 2544 2545 2505
2505 2545 2546 2506
2506 2546 2547 2507
2507 2547 2548 2508
2508 2548 2549 2509
2509 2549 2550 2510
2510 2550 2551 2511
2511 2551 2552 2512
2512 2552 2553 2513
2513 2553 2554 2514
2514 2554 2555 2515
2515 2555 2556 2516
2516 2556 2557 2517
2517 2557 140 139
62 63 2558 2518
2518 2558 2559 2519
2519 2559 2560 2520
2520 2560 2561 2521
2521 2561 2562 2522
2522 2562 2563 2523
2523 2563 2564 2524
2524 2564 2565 2525
2525 2565 2566 2526
2526 2566 2567 2527
2527 2567 2568 2528
2528 2568 2569 2529
2529 2569 2570 2530
2530 2570 2571 2531
2531 2571 2572 2532
2532 2572 2573 2533
2533 2573 2574 2534
2534 2574 2575 2535
2535 2575 2576 2536
2536 2576 2577 2537
2537 2577 2578 2538
2538 2578 2579 2539
2539 2579 2580 2540
2540 2580 2581 2541
2541 2581 2582 2542
2542 2582 2583 2543
2543 2583 2584 2544
2544 2584 2585 2545
2545 2585 2586 2546
2546 2586 2587 2547
2547 2587 2588 2548
2548 2588 2589 2549
2549 2589 2590 2550
2550 2590 2591 2551
2551 2591 2592 2552
2552 2592 2593 2553
2553 2593 2594 2554
2554 2594 2595 2555
2555 2595 2596 2556
2556 2596 2597 2557
2557 2597 141 140
63 64 2598 2558
2558 2598 2599 2559
2559 2599 2600 2560
2560 2600 2601 2561
2561 2601 2602 2562
2562 2602 2603 2563
2563 2603 2604 2564
2564 2604 2605 2565
2565 2605 2606 2566
2566 2606 2607 2567
2567 2607 2608 2568
2568 2608 2609 2569
2569 2609 2610 2570
2570 2610 2611 2571
2571 2611 2612 2572
2572 2612 2613 2573
2573 2613 2614 2574
2574 2614 2615 2575
2575 2615 2616 2576
2576 2616 2617 2577
2577 2617 2618 2578
2578 2618 2619 2579
2579 2619 2620 2580
2580 2620 2621 2581
2581 2621 2622 2582
2582 2622 2623 2583
2583 2623 2624 2584
2584 2624 2625 2585
2585 2625 2626 2586
2586 2626 2627 2587
2587 2627 2628 2588
2588 2628 2629 2589
2589 2629 2630 2590
2590 2630 2631 2591
2591 2631 2632 2592
2592 2632 2633 2593
2593 2633 2634 2594
2594 2634 2635 2595
2595 2635 2636 2596
2596 2636 2637 2597
2597 2637 142 141
64 65 2638 2598
2598 2638 2639 2599
2599 2639 2640 2600
2600 2640 2641 2601
2601 2641 2642 2602
2602 2642 2643 2603
2603 2643 2644 2604
2604 2644 2645 2605
2605 2645 2646 2606
2606 2646 2647 2607
2607 2647 2648 2608
2608 2648 2649 2609
2609 2649 2650 2610
2610 2650 2651 2611
2611 2651 2652 2612
2612 2652 2653 2613
2613 2653 2654 2614
2614 2654 2655 2615
2615 2655 2656 2616
2616 2656 2657 2617
2617 2657 2658 2618
2618 2658 2659 2619
2619 2659 2660 2620
2620 2660 2661 2621
2621 2661 2662 2622
2622 2662 2663 2623
2623 2663 2664 2624
2624 2664 2665 2625
2625 2665 2666 2626
2626 2666 2667 2627
2627 2667 2668 2628
2628 2668 2669 2629
2629 2669 2670 2630
2630 2670 2671 2631
2631 2671 2672 2632
2632 2672 2673 2633
2633 2673 2674 2634
2634 2674 2675 2635
2635 2675 2676 2636
2636 2676 2677 2637
2637 2677 143 142
65 66 2678 2638
2638 2678 2679 2639
2639 2679 2680 2640
2640 2680 2681 2641
2641 2681 2682 2642
2642 2682 2683 2643
2643 2683 2684 2644
2644 2684 2685 2645
2645 2685 2686 2646
2646 2686 2687 2647
2647 2687 2688 2648
2648 2688 2689 2649
2649 2689 2690 2650
2650 2690 2691 2651
2651 2691 2692 2652
2652 2692 2693 2653
2653 2693 2694 2654
2654 2694 2695 2655
2655 2695 2696 2656
2656 2696 2697 2657
2657 2697 2698 2658
2658 2698 2699 2659
2659 2699 2700 2660
2660 2700 2701 2661
2661 2701 2702 2662
2662 2702 2703 2663
2663 2703 2704 2664
2664 2704 2705 2665
2665 2705 2706 2666
2666 2706 2707 2667
2667 2707 2708 2668
2668 2708 2709 2669
2669 2709 2710 2670
2670 2710 2711 2671
2671 2711 2712 2672
2672 2712 2713 2673
2673 2713 2714 2674
2674 2714 2715 2675
2675 2715 2716 2676
2676 2716 2717 2677
2677 2717 144 143
66 67 2718 2678
2678 2718 2719 2679
2679 2719 2720 2680
2680 2720 2721 2681
2681 2721 2722 2682
2682 2722 2723 2683
2683 2723 2724 2684
2684 2724 2725 2685
2685 2725 2726 2686
2686 2726 2727 2687
2687 2727 2728 2688
2688 2728 2729 2689
2689 2729 2730 2690
2690 2730 2731 2691
2691 2731 2732 2692
2692 2732 2733 2693
2693 2733 2734 2694
2694 2734 2735 2695
2695 2735 2736 2696
2696 2736 2737 2697
2697 2737 2738 2698
2698 2738 2739 2699
2699 2739 2740 2700
2700 2740 2741 2701
2701 2741 2742 2702
2702 2742 2743 2703
2703 2743 2744 2704
2704 2744 2745 2705
2705 2745 2746 2706
2706 2746 2747 2707
2707 2747 2748 2708
2708 2748 2749 2709
2709 2749 2750 2710
2710 2750 2751 2711
2711 2751 2752 2712
2712 2752 2753 2713
2713 2753 2754 2714
2714 2754 2755 2715
2715 2755 2756 2716
2716 2756 2757 2717
2717 2757 145 144
67 68 2758 2718
2718 2758 2759 2719
2719 2759 2760 2720
2720 2760 2761 2721
2721 2761 2762 2722
2722 2762 2763 2723
2723 2763 2764 2724
2724 2764 2765 2725
2725 2765 2766 2726
2726 2766 2767 2727
2727 2767 2768 2728
2728 2768 2769 2729
2729 2769 2770 2730
2730 2770 2771 2731
2731 2771 2772 2732
2732 2772 2773 2733
2733 2773 2774 2734
2734 2774 2775 2735
2735 2775 2776 2736
2736 2776 2777 2737
2737 2777 2778 2738
2738 2778 2779 2739
2739 2779 2780 2740
2740 2780 2781 2741
2741 2781 2782 2742
2742 2782 2783 2743
2743 2783 2784 2744
2744 2784 2785 2745
2745 2785 2786 2746
2746 2786 2787 2747
2747 2787 2788 2748
2748 2788 2789 2749
2749 2789 2790 2750
2750 2790 2791 2751
2751 2791 2792 2752
2752 2792 2793 2753
2753 2793 2794 2754
2754 2794 2795 2755
2755 2795 2796 2756
2756 2796 2797 2757
2757 2797 146 145
68 69 2798 2758
2758 2798 2799 2759
2759 2799 2800 2760
2760 2800 2801 2761
2761 2801 2802 2762
2762 2802 2803 2763
2763 2803 2804 2764
2764 2804 2805 2765
2765 2805 2806 2766
2766 2806 2807 2767
2767 2807 2808 2768
2768 2808 2809 2769
2769 2809 2810 2770
2770 2810 2811 2771
2771 2811 2812 2772
2772 2812 2813 2773
2773 2813 2814 2774
2774 2814 2815 2775
2775 2815 2816 2776
2776 2816 2817 2777
2777 2817 2818 2778
2778 2818 2819 2779
2779 2819 2820 2780
2780 2820 2821 2781
2781 2821 2822 2782
2782 2822 2823 2783
2783 2823 2824 2784
2784 2824 2825 2785
2785 2825 2826 2786
2786 2826 2827 2787
2787 2827 2828 2788
2788 2828 2829 2789
2789 2829 2830 2790
2790 2830 2831 2791
2791 2831 2832 2792
2792 2832 2833 2793
2793 2833 2834 2794
2794 2834 2835 2795
2795 2835 2836 2796
2796 2836 2837 2797
2797 2837 5 146
69 70 2838 2798
2798 2838 2839 2799
2799 2839 2840 2800
2800 2840 2841 2801
2801 2841 2842 2802
2802 2842 2843 2803
2803 2843 2844 2804
2804 2844 2845 2805
2805 2845 2846 2806
2806 2846 2847 2807
2807 2847 2848 2808
2808 2848 2849 2809
2809 2849 2850 2810
2810 2850 2851 2811
2811 2851 2852 2812
2812 2852 2853 2813
2813 2853 2854 2814
2814 2854 2855 2815
2815 2855 2856 2816
2816 2856 2857 2817
2817 2857 2858 2818
2818 2858 2859 2819
2819 2859 2860 2820
2820 2860 2861 2821
2821 2861 2862 2822
2822 2862 2863 2823
2823 2863 2864 2824
2824 2864 2865 2825
2825 2865 2866 2826
2826 2866 2867 2827
2827 2867 2868 2828
2828 2868 2869 2829
2829 2869 2870 2830
2830 2870 2871 2831
2831 2871 2872 2832
2832 2872 2873 2833
2833 2873 2874 2834
2834 2874 2875 2835
2835 2875 2876 2836
2836 2876 2877 2837
2837 2877 147 5
70 71 2878 2838
2838 2878 2879 2839
2839 2879 2880 2840
2840 2880 2881 2841
2841 2881 2882 2842
2842 2882 2883 2843
2843 2883 2884 2844
2844 2884 2885 2845
2845 2885 2886 2846
2846 2886 2887 2847
2847 2887 2888 2848
2848 2888 2889 2849
2849 2889 2890 2850
2850 2890 2891 2851
2851 2891 2892 2852
2852 2892 2893 2853
2853 2893 2894 2854
2854 2894 2895 2855
2855 2895 2896 2856
2856 2896 2897 2857
2857 2897 2898 2858
2858 2898 2899 2859
2859 2899 2900 2860
2860 2900 2901 2861
2861 2901 2902 2862
2862 2902 2903 2863
2863 2903 2904 2864
2864 2904 2905 2865
2865 2905 2906 2866
2866 2906 2907 2867
2867 2907 2908 2868
2868 2908 2909 2869
2869 2909 2910 2870
2870 2910 2911 2871
2871 2911 2912 2872
2872 2912 2913 2873
2873 2913 2914 2874
2874 2914 2915 2875
2875 2915 2916 2876
2876 2916 2917 2877
2877 2917 148 147
71 72 2918 2878
2878 2918 2919 2879
2879 2919 2920 2880
2880 2920 2921 2881
2881 2921 2922 2882
2882 2922 2923 2883
2883 2923 2924 2884
2884 2924 2925 2885
2885 2925 2926 2886
2886 2926 2927 2887
2887 2927 2928 2888
2888 2928 2929 2889
2889 2929 2930 2890
2890 2930 2931 2891
2891 2931 2932 2892
2892 2932 2933 2893
2893 2933 2934 2894
2894 2934 2935 2895
2895 2935 2936 2896
2896 2936 2937 2897
2897 2937 2938 2898
2898 2938 2939 2899
2899 2939 2940 2900
2900 2940 2941 2901
2901 2941 2942 2902
2902 2942 2943 2903
2903 2943 2944 2904
2904 2944 2945 2905
2905 2945 2946 2906
2906 2946 2947 2907
2907 2947 2948 2908
2908 2948 2949 2909
2909 2949 2950 2910
2910 2950 2951 2911
2911 2951 2952 2912
2912 2952 2953 2913
2913 2953 2954 2914
2914 2954 2955 2915
2915 2955 2956 2916
2916 2956 2957 2917
2917 2957 149 148
72 73 2958 2918
2918 2958 2959 2919
2919 2959 2960 2920
2920 2960 2961 2921
2921 2961 2962 2922
2922 2962 2963 2923
2923 2963 2964 2924
2924 2964 2965 2925
2925 2965 2966 2926
2926 2966 2967 2927
2927 2967 2968 2928
2928 2968 2969 2929
2929 2969 2970 2930
2930 2970 2971 2931
2931 2971 2972 2932
2932 2972 2973 2933
2933 2973 2974 2934
2934 2974 2975 2935
2935 2975 2976 2936
2936 2976 2977 2937
2937 2977 2978 2938
2938 2978 2979 2939
2939 2979 2980 2940
2940 2980 2981 2941
2941 2981 2982 2942
2942 2982 2983 2943
2943 2983 2984 2944
2944 2984 2985 2945
2945 2985 2986 2946
2946 2986 2987 2947
2947 2987 2988 2948
2948 2988 2989 2949
2949 2989 2990 2950
2950 2990 2991 2951
2951 2991 2992 2952
2952 2992 2993 2953
2953 2993 2994 2954
2954 2994 2995 2955
2955 2995 2996 2956
2956 2996 2997 2957
2957 2997 150 149
73 74 2998 2958
2958 2998 2999 2959
2959 2999 3000 2960
2960 3000 3001 2961
2961 3001 3002 2962
2962 3002 3003 2963
2963 3003 3004 2964
2964 3004 3005 2965
2965 3005 3006 2966
2966 3006 3007 2967
2967 3007 3008 2968
2968 3008 3009 2969
2969 3009 3010 2970
2970 3010 3011 2971
2971 3011 3012 2972
2972 3012 3013 2973
2973 3013 3014 2974
2974 3014 3015 2975
2975 3015 3016 2976
2976 3016 3017 2977
2977 3017 3018 2978
2978 3018 3019 2979
2979 3019 3020 2980
2980 3020 3021 2981
2981 3021 3022 2982
2982 3022 3023 2983
2983 3023 3024 2984
2984 3024 3025 2985
2985 3025 3026 2986
2986 3026 3027 2987
2987 3027 3028 2988
2988 3028 3029 2989
2989 3029 3030 2990
2990 3030 3031 2991
2991 3031 3032 2992
2992 3032 3033 2993
2993 3033 3034 2994
2994 3034 3035 2995
2995 3035 3036 2996
2996 3036 3037 2997
2997 3037 151 150
74 75 3038 2998
2998 3038 3039 2999
2999 3039 3040 3000
3000 3040 3041 3001
3001 3041 3042 3002
3002 3042 3043 3003
3003 3043 3044 3004
3004 3044 3045 3005
3005 3045 3046 3006
3006 3046 3047 3007
3007 3047 3048 3008
3008 3048 3049 3009
3009 3049 3050 3010
3010 3050 3051 3011
3011 3051 3052 3012
3012 3052 3053 3013
3013 3053 3054 3014
3014 3054 3055 3015
3015 3055 3056 3016
3016 3056 3057 3017
3017 3057 3058 3018
3018 3058 3059 3019
3019 3059 3060 3020
3020 3060 3061 3021
3021 3061 3062 3022
3022 3062 3063 3023
3023 3063 3064 3024
3024 3064 3065 3025
3025 3065 3066 3026
3026 3066 3067 3027
3027 3067 3068 3028
3028 3068 3069 3029
3029 3069 3070 3030
3030 3070 3071 3031
3031 3071 3072 3032
3032 3072 3073 3033
3033 3073 3074 3034
3034 3074 3075 3035
3035 3075 3076 3036
3036 3076 3077 3037
3037 3077 152 151
75 76 3078 3038
3038 3078 3079 3039
3039 3079 3080 3040
3040 3080 3081 3041
3041 3081 3082 3042
3042 3082 3083 3043
3043 3083 3084 3044
3044 3084 3085 3045
3045 3085 3086 3046
3046 3086 3087 3047
3047 3087 3088 3048
3048 3088 3089 3049
3049 3089 3090 3050
3050 3090 3091 3051
3051 3091 3092 3052
3052 3092 3093 3053
3053 3093 3094 3054
3054 3094 3095 3055
3055 3095 3096 3056
3056 3096 3097 3057
3057 3097 3098 3058
3058 3098 3099 3059
3059 3099 3100 3060
3060 3100 3101 3061
3061 3101 3102 3062
3062 3102 3103 3063
3063 3103 3104 3064
3064 3104 3105 3065
3065 3105 3106 3066
3066 3106 3107 3067
3067 3107 3108 3068
3068 3108 3109 3069
3069 3109 3110 3070
3070 3110 3111 3071
3071 3111 3112 3072
3072 3112 3113 3073
3073 3113 3114 3074
3074 3114 3115 3075
3075 3115 3116 3076
3076 3116 3117 3077
3077 3117 153 152
76 77 3118 3078
3078 3118 3119 3079
3079 3119 3120 3080
3080 3120 3121 3081
3081 3121 3122 3082
3082 3122 3123 3083
3083 3123 3124 3084
3084 3124 3125 3085
3085 3125 3126 3086
3086 3126 3127 3087
3087 3127 3128 3088
3088 3128 3129 3089
3089 3129 3130 3090
3090 3130 3131 3091
3091 3131 3132 3092
3092 3132 3133 3093
3093 3133 3134 3094
3094 3134 3135 3095
3095 3135 3136 3096
3096 3136 3137 3097
3097 3137 3138 3098
3098 3138 3139 3099
3099 3139 3140 3100
3100 3140 3141 3101
3101 3141 3142 3102
3102 3142 3143 3103
3103 3143 3144 3104
3104 3144 3145 3105
3105 3145 3146 3106
3106 3146 3147 3107
3107 3147 3148 3108
3108 3148 3149 3109
3109 3149 3150 3110
3110 3150 3151 3111
3111 3151 3152 3112
3112 3152 3153 3113
3113 3153 3154 3114
3114 3154 3155 3115
3115 3155 3156 3116
3116 3156 3157 3117
3117 3157 154 153
77 78 3158 3118
3118 3158 3159 3119
3119 3159 3160 3120
3120 3160 3161 3121
3121 3161 3162 3122
3122 3162 3163 3123
3123 3163 3164 3124
3124 3164 3165 3125
3125 3165 3166 3126
3126 3166 3167 3127
3127 3167 3168 3128
3128 3168 3169 3129
3129 3169 3170 3130
3130 3170 3171 3131
3131 3171 3172 3132
3132 3172 3173 3133
3133 3173 3174 3134
3134 3174 3175 3135
3135 3175 3176 3136
3136 3176 3177 3137
3137 3177 3178 3138
3138 3178 3179 3139
3139 3179 3180 3140
3140 3180 3181 3141
3141 3181 3182 3142
3142 3182 3183 3143
3143 3183 3184 3144
3144 3184 3185 3145
3145 3185 3186 3146
3146 3186 3187 3147
3147 3187 3188 3148
3148 3188 3189 3149
3149 3189 3190 3150
3150 3190 3191 3151
3151 3191 3192 3152
3152 3192 3193 3153
3153 3193 3194 3154
3154 3194 3195 3155
3155 3195 3196 3156
3156 3196 3197 3157
3157 3197 155 154
78 79 3198 3158
3158 3198 3199 3159
3159 3199 3200 3160
3160 3200 3201 3161
3161 3201 3202 3162
3162 3202 3203 3163
3163 3203 3204 3164
3164 3204 3205 3165
3165 3205 3206 3166
3166 3206 3207 3167
3167 3207 3208 3168
3168 3208 3209 3169
3169 3209 3210 3170
3170 3210 3211 3171
3171 3211 3212 3172
3172 3212 3213 3173
3173 3213 3214 3174
3174 3214 3215 3175
3175 3215 3216 3176
3176 3216 3217 3177
3177 3217 3218 3178
3178 3218 3219 3179
3179 3219 3220 3180
3180 3220 3221 3181
3181 3221 3222 3182
3182 3222 3223 3183
3183 3223 3224 3184
3184 3224 3225 3185
3185 3225 3226 3186
3186 3226 3227 3187
3187 3227 3228 3188
3188 3228 3229 3189
3189 3229 3230 3190
3190 3230 3231 3191
3191 3231 3232 3192
3192 3232 3233 3193
3193 3233 3234 3194
3194 3234 3235 3195
3195 3235 3236 3196
3196 3236 3237 3197
3197 3237 156 155
79 80 3238 3198
3198 3238 3239 3199
3199 3239 3240 3200
3200 3240 3241 3201
3201 3241 3242 3202
3202 3242 3243 3203
3203 3243 3244 3204
3204 3244 3245 3205
3205 3245 3246 3206
3206 3246 3247 3207
3207 3247 3248 3208
3208 3248 3249 3209
3209 3249 3250 3210
3210 3250 3251 3211
3211 3251 3252 3212
3212 3252 3253 3213
3213 3253 3254 3214
3214 3254 3255 3215
3215 3255 3256 3216
3216 3256 3257 3217
3217 3257 3258 3218
3218 3258 3259 3219
3219 3259 3260 3220
3220 3260 3261 3221
3221 3261 3262 3222
3222 3262 3263 3223
3223 3263 3264 3224
3224 3264 3265 3225
3225 3265 3266 3226
3226 3266 3267 3227
3227 3267 3268 3228
3228 3268 3269 3229
3229 3269 3270 3230
3230 3270 3271 3231
3231 3271 3272 3232
3232 3272 3273 3233
3233 3273 3274 3234
3234 3274 3275 3235
3235 3275 3276 3236
3236 3276 3277 3237
3237 3277 157 156
80 81 3278 3238
3238 3278 3279 3239
3239 3279 3280 3240
3240 3280 3281 3241
3241 3281 3282 3242
3242 3282 3283 3243
3243 3283 3284 3244
3244 3284 3285 3245
3245 3285 3286 3246
3246 3286 3287 3247
3247 3287 3288 3248
3248 3288 3289 3249
3249 3289 3290 3250
3250 3290 3291 3251
3251 3291 3292 3252
3252 3292 3293 3253
3253 3293 3294 3254
3254 3294 3295 3255
3255 3295 3296 3256
3256 3296 3297 3257
3257 3297 3298 3258
3258 3298 3299 3259
3259 3299 3300 3260
3260 3300 3301 3261
3261 3301 3302 3262
3262 3302 3303 3263
3263 3303 3304 3264
3264 3304 3305 3265
3265 3305 3306 3266
3266 3306 3307 3267
3267 3307 3308 3268
3268 3308 3309 3269
3269 3309 3310 3270
3270 3310 3311 3271
3271 3311 3312 3272
3272 3312 3313 3273
3273 3313 3314 3274
3274 3314 3315 3275
3275 3315 3316 3276
3276 3316 3317 3277
3277 3317 158 157
81 82 3318 3278
3278 3318 3319 3279
3279 3319 3320 3280
3280 3320 3321 3281
3281 3321 3322 3282
3282 3322 3323 3283
3283 3323 3324 3284
3284 3324 3325 3285
3285 3325 3326 3286
3286 3326 3327 3287
3287 3327 3328 3288
3288 3328 3329 3289
3289 3329 3330 3290
3290 3330 3331 3291
3291 3331 3332 3292
3292 3332 3333 3293
3293 3333 3334 3294
3294 3334 3335 3295
3295 3335 3336 3296
3296 3336 3337 3297
3297 3337 3338 3298
3298 3338 3339 3299
3299 3339 3340 3300
3300 3340 3341 3301
3301 3341 3342 3302
3302 3342 3343 3303
3303 3343 3344 3304
3304 3344 3345 3305
3305 3345 3346 3306
3306 3346 3347 3307
3307 3347 3348 3308
3308 3348 3349 3309
3309 3349 3350 3310
3310 3350 3351 3311
3311 3351 3352 3312
3312 3352 3353 3313
3313 3353 3354 3314
3314 3354 3355 3315
3315 3355 3356 3316
3316 3356 3357 3317
3317 3357 159 158
82 83 3358 3318
3318 3358 3359 3319
3319 3359 3360 3320
3320 3360 3361 3321
3321 3361 3362 3322
3322 3362 3363 3323
3323 3363 3364 3324
3324 3364 3365 3325
3325 3365 3366 3326
3326 3366 3367 3327
3327 3367 3368 3328
3328 3368 3369 3329
3329 3369 3370 3330
3330 3370 3371 3331
3331 3371 3372 3332
3332 3372 3373 3333
3333 3373 3374 3334
3334 3374 3375 3335
3335 3375 3376 3336
3336 3376 3377 3337
3337 3377 3378 3338
3338 3378 3379 3339
3339 3379 3380 3340
3340 3380 3381 3341
3341 3381 3382 3342
3342 3382 3383 3343
3343 3383 3384 3344
3344 3384 3385 3345
3345 3385 3386 3346
3346 3386 3387 3347
3347 3387 3388 3348
3348 3388 3389 3349
3349 3389 3390 3350
3350 3390 3391 3351
3351 3391 3392 3352
3352 3392 3393 3353
3353 3393 3394 3354
3354 3394 3395 3355
3355 3395 3396 3356
3356 3396 3397 3357
3357 3397 160 159
83 84 3398 3358
3358 3398 3399 3359
3359 3399 3400 3360
3360 3400 3401 3361
3361 3401 3402 3362
3362 3402 3403 3363
3363 3403 3404 3364
3364 3404 3405 3365
3365 3405 3406 3366
3366 3406 3407 3367
3367 3407 3408 3368
3368 3408 3409 3369
3369 3409 3410 3370
3370 3410 3411 3371
3371 3411 3412 3372
3372 3412 3413 3373
3373 3413 3414 3374
3374 3414 3415 3375
3375 3415 3416 3376
3376 3416 3417 3377
3377 3417 3418 3378
3378 3418 3419 3379
3379 3419 3420 3380
3380 3420 3421 3381
3381 3421 3422 3382
3382 3422 3423 3383
3383 3423 3424 3384
3384 3424 3425 3385
3385 3425 3426 3386
3386 3426 3427 3387
3387 3427 3428 3388
3388 3428 3429 3389
3389 3429 3430 3390
3390 3430 3431 3391
3391 3431 3432 3392
3392 3432 3433 3393
3393 3433 3434 3394
3394 3434 3435 3395
3395 3435 3436 3396
3396 3436 3437 3397
3397 3437 161 160
84 85 3438 3398
3398 3438 3439 3399
3399 3439 3440 3400
3400 3440 3441 3401
3401 3441 3442 3402
3402 3442 3443 3403
3403 3443 3444 3404
3404 3444 3445 3405
3405 3445 3446 3406
3406 3446 3447 3407
3407 3447 3448 3408
3408 3448 3449 3409
3409 3449 3450 3410
3410 3450 3451 3411
3411 3451 3452 3412
3412 3452 3453 3413
3413 3453 3454 3414
3414 3454 3455 3415
3415 3455 3456 3416
3416 3456 3457 3417
3417 3457 3458 3418
3418 3458 3459 3419
3419 3459 3460 3420
3420 3460 3461 3421
3421 3461 3462 3422
3422 3462 3463 3423
3423 3463 3464 3424
3424 3464 3465 3425
3425 3465 3466 3426
3426 3466 3467 3427
3427 3467 3468 3428
3428 3468 3469 3429
3429 3469 3470 3430
3430 3470 3471 3431
3431 3471 3472 3432
3432 3472 3473 3433
3433 3473 3474 3434
3434 3474 3475 3435
3435 3475 3476 3436
3436 3476 3477 3437
3437 3477 162 161
85 86 3478 3438
3438 3478 3479 3439
3439 3479 3480 3440
3440 3480 3481 3441
3441 3481 3482 3442
3442 3482 3483 3443
3443 3483 3484 3444
3444 3484 3485 3445
3445 3485 3486 3446
3446 3486 3487 3447
3447 3487 3488 3448
3448 3488 3489 3449
3449 3489 3490 3450
3450 3490 3491 3451
3451 3491 3492 3452
3452 3492 3493 3453
3453 3493 3494 3454
3454 3494 3495 3455
3455 3495 3496 3456
3456 3496 3497 3457
3457 3497 3498 3458
3458 3498 3499 3459
3459 3499 3500 3460
3460 3500 3501 3461
3461 3501 3502 3462
3462 3502 3503 3463
3463 3503 3504 3464
3464 3504 3505 3465
3465 3505 3506 3466
3466 3506 3507 3467
3467 3507 3508 3468
3468 3508 3509 3469
3469 3509 3510 3470
3470 3510 3511 3471
3471 3511 3512 3472
3472 3512 3513 3473
3473 3513 3514 3474
3474 3514 3515 3475
3475 3515 3516 3476
3476 3516 3517 3477
3477 3517 163 162
86 87 3518 3478
3478 3518 3519 3479
3479 3519 3520 3480
3480 3520 3521 3481
3481 3521 3522 3482
3482 3522 3523 3483
3483 3523 3524 3484
3484 3524 3525 3485
3485 3525 3526 3486
3486 3526 3527 3487
3487 3527 3528 3488
3488 3528 3529 3489
3489 3529 3530 3490
3490 3530 3531 3491
3491 3531 3532 3492
3492 3532 3533 3493
3493 3533 3534 3494
3494 3534 3535 3495
3495 3535 3536 3496
3496 3536 3537 3497
3497 3537 3538 3498
3498 3538 3539 3499
3499 3539 3540 3500
3500 3540 3541 3501
3501 3541 3542 3502
3502 3542 3543 3503
3503 3543 3544 3504
3504 3544 3545 3505
3505 3545 3546 3506
3506 3546 3547 3507
3507 3547 3548 3508
3508 3548 3549 3509
3509 3549 3550 3510
3510 3550 3551 3511
3511 3551 3552 3512
3512 3552 3553 3513
3513 3553 3554 3514
3514 3554 3555 3515
3515 3555 3556 3516
3516 3556 3557 3517
3517 3557 164 163
87 88 3558 3518
3518 3558 3559 3519
3519 3559 3560 3520
3520 3560 3561 3521
3521 3561 3562 3522
3522 3562 3563 3523
3523 3563 3564 3524
3524 3564 3565 3525
3525 3565 3566 3526
3526 3566 3567 3527
3527 3567 3568 3528
3528 3568 3569 3529
3529 3569 3570 3530
3530 3570 3571 3531
3531 3571 3572 3532
3532 3572 3573 3533
3533 3573 3574 3534
3534 3574 3575 3535
3535 3575 3576 3536
3536 3576 3577 3537
3537 3577 3578 3538
3538 3578 3579 3539
3539 3579 3580 3540
3540 3580 3581 3541
3541 3581 3582 3542
3542 3582 3583 3543
3543 3583 3584 3544
3544 3584 3585 3545
3545 3585 3586 3546
3546 3586 3587 3547
3547 3587 3588 3548
3548 3588 3589 3549
3549 3589 3590 3550
3550 3590 3591 3551
3551 3591 3592 3552
3552 3592 3593 3553
3553 3593 3594 3554
3554 3594 3595 3555
3555 3595 3596 3556
3556 3596 3597 3557
3557 3597 165 164
88 2 322 3558
3558 322 321 3559
3559 321 320 3560
3560 320 319 3561
3561 319 318 3562
3562 318 317 3563
3563 317 316 3564
3564 316 315 3565
3565 315 314 3566
3566 314 313 3567
3567 313 312 3568
3568 312 311 3569
3569 311 310 3570
3570 310 309 3571
3571 309 308 3572
3572 308 307 3573
3573 307 306 3574
3574 306 305 3575
3575 305 304 3576
3576 304 303 3577
3577 303 302 3578
3578 302 301 3579
3579 301 300 3580
3580 300 299 3581
3581 299 298 3582
3582 298 297 3583
3583 297 296 3584
3584 296 295 3585
3585 295 294 3586
3586 294 293 3587
3587 293 292 3588
3588 292 291 3589
3589 291 290 3590
3590 290 289 3591
3591 289 288 3592
3592 288 287 3593
3593 287 286 3594
3594 286 285 3595
3595 285 284 3596
3596 284 283 3597
3597 283 6 165
4 108 3598 380
380 3598 3599 379
379 3599 3600 378
378 3600 3601 377
377 3601 3602 376
376 3602 3603 375
375 3603 3604 374
374 3604 3605 373
373 3605 3606 372
372 3606 3607 371
371 3607 3608 370
370 3608 3609 369
369 3609 3610 368
368 3610 3611 367
367 3611 3612 366
366 3612 3613 365
365 3613 3614 364
364 3614 3615 363
363 3615 3616 362
362 3616 323 9
108 109 3617 3598
3598 3617 3618 3599
3599 3618 3619 3600
3600 3619 3620 3601
3601 3620 3621 3602
3602 3621 3622 3603
3603 3622 3623 3604
3604 3623 3624 3605
3605 3624 3625 3606
3606 3625 3626 3607
3607 3626 3627 3608
3608 3627 3628 3609
3609 3628 3629 3610
3610 3629 3630 3611
3611 3630 3631 3612
3612 3631 3632 3613
3613 3632 3633 3614
3614 3633 3634 3615
3615 3634 3635 3616
3616 3635 324 323
109 110 3636 3617
3617 3636 3637 3618
3618 3637 3638 3619
3619 3638 3639 3620
3620 3639 3640 3621
3621 3640 3641 3622
3622 3641 3642 3623
3623 3642 3643 3624
3624 3643 3644 3625
3625 3644 3645 3626
3626 3645 3646 3627
3627 3646 3647 3628
3628 3647 3648 3629
3629 3648 3649 3630
3630 3649 3650 3631
3631 3650 3651 3632
3632 3651 3652 3633
3633 3652 3653 3634
3634 3653 3654 3635
3635 3654 325 324
110 111 3655 3636
3636 3655 3656 3637
3637 3656 3657 3638
3638 3657 3658 3639
3639 3658 3659 3640
3640 3659 3660 3641
3641 3660 3661 3642
3642 3661 3662 3643
3643 3662 3663 3644
3644 3663 3664 3645
3645 3664 3665 3646
3646 3665 3666 3647
3647 3666 3667 3648
3648 3667 3668 3649
3649 3668 3669 3650
3650 3669 3670 3651
3651 3670 3671 3652
3652 3671 3672 3653
3653 3672 3673 3654
3654 3673 326 325
111 112 3674 3655
3655 3674 3675 3656
3656 3675 3676 3657
3657 3676 3677 3658
3658 3677 3678 3659
3659 3678 3679 3660
3660 3679 3680 3661
3661 3680 3681 3662
3662 3681 3682 3663
3663 3682 3683 3664
3664 3683 3684 3665
3665 3684 3685 3666
3666 3685 3686 3667
3667 3686 3687 3668
3668 3687 3688 3669
3669 3688 3689 3670
3670 3689 3690 3671
3671 3690 3691 3672
3672 3691 3692 3673
3673 3692 327 326
112 113 3693 3674
3674 3693 3694 3675
3675 3694 3695 3676
3676 3695 3696 3677
3677 3696 3697 3678
3678 3697 3698 3679
3679 3698 3699 3680
3680 3699 3700 3681
3681 3700 3701 3682
3682 3701 3702 3683
3683 3702 3703 3684
3684 3703 3704 3685
3685 3704 3705 3686
3686 3705 3706 3687
3687 3706 3707 3688
3688 3707 3708 3689
3689 3708 3709 3690
3690 3709 3710 3691
3691 3710 3711 3692
3692 3711 328 327
113 114 3712 3693
3693 3712 3713 3694
3694 3713 3714 3695
3695 3714 3715 3696
3696 3715 3716 3697
3697 3716 3717 3698
3698 3717 3718 3699
3699 3718 3719 3700
3700 3719 3720 3701
3701 3720 3721 3702
3702 3721 3722 3703
3703 3722 3723 3704
3704 3723 3724 3705
3705 3724 3725 3706
3706 3725 3726 3707
3707 3726 3727 3708
3708 3727 3728 3709
3709 3728 3729 3710
3710 3729 3730 3711
3711 3730 329 328
114 115 3731 3712
3712 3731 3732 3713
3713 3732 3733 3714
3714 3733 3734 3715
3715 3734 3735 3716
3716 3735 3736 3717
3717 3736 3737 3718
3718 3737 3738 3719
3719 3738 3739 3720
3720 3739 3740 3721
3721 3740 3741 3722
3722 3741 3742 3723
3723 3742 3743 3724
3724 3743 3744 3725
3725 3744 3745 3726
3726 3745 3746 3727
3727 3746 3747 3728
3728 3747 3748 3729
3729 3748 3749 3730
3730 3749 330 329
115 116 3750 3731
3731 3750 3751 3732
3732 3751 3752 3733
3733 3752 3753 3734
3734 3753 3754 3735
3735 3754 3755 3736
3736 3755 3756 3737
3737 3756 3757 3738
3738 3757 3758 3739
3739 3758 3759 3740
3740 3759 3760 3741
3741 3760 3761 3742
3742 3761 3762 3743
3743 3762 3763 3744
3744 3763 3764 3745
3745 3764 3765 3746
3746 3765 3766 3747
3747 3766 3767 3748
3748 3767 3768 3749
3749 3768 331 330
116 117 3769 3750
3750 3769 3770 3751
3751 3770 3771 3752
3752 3771 3772 3753
3753 3772 3773 3754
3754 3773 3774 3755
3755 3774 3775 3756
3756 3775 3776 3757
3757 3776 3777 3758
3758 3777 3778 3759
3759 3778 3779 3760
3760 3779 3780 3761
3761 3780 3781 3762
3762 3781 3782 3763
3763 3782 3783 3764
3764 3783 3784 3765
3765 3784 3785 3766
3766 3785 3786 3767
3767 3786 3787 3768
3768 3787 332 331
117 118 3788 3769
3769 3788 3789 3770
3770 3789 3790 3771
3771 3790 3791 3772
3772 3791 3792 3773
3773 3792 3793 3774
3774 3793 3794 3775
3775 3794 3795 3776
3776 3795 3796 3777
3777 3796 3797 3778
3778 3797 3798 3779
3779 3798 3799 3780
3780 3799 3800 3781
3781 3800 3801 3782
3782 3801 3802 3783
3783 3802 3803 3784
3784 3803 3804 3785
3785 3804 3805 3786
3786 3805 3806 3787
3787 3806 333 332
118 119 3807 3788
3788 3807 3808 3789
3789 3808 3809 3790
3790 3809 3810 3791
3791 3810 3811 3792
3792 3811 3812 3793
3793 3812 3813 3794
3794 3813 3814 3795
3795 3814 3815 3796
3796 3815 3816 3797
3797 3816 3817 3798
3798 3817 3818 3799
3799 3818 3819 3800
3800 3819 3820 3801
3801 3820 3821 3802
3802 3821 3822 3803
3803 3822 3823 3804
3804 3823 3824 3805
3805 3824 3825 3806
3806 3825 334 333
119 120 3826 3807
3807 3826 3827 3808
3808 3827 3828 3809
3809 3828 3829 3810
3810 3829 3830 3811
3811 3830 3831 3812
3812 3831 3832 3813
3813 3832 3833 3814
3814 3833 3834 3815
3815 3834 3835 3816
3816 3835 3836 3817
3817 3836 3837 3818
3818 3837 3838 3819
3819 3838 3839 3820
3820 3839 3840 3821
3821 3840 3841 3822
3822 3841 3842 3823
3823 3842 3843 3824
3824 3843 3844 3825
3825 3844 335 334
120 121 3845 3826
3826 3845 3846 3827
3827 3846 3847 3828
3828 3847 3848 3829
3829 3848 3849 3830
3830 3849 3850 3831
3831 3850 3851 3832
3832 3851 3852 3833
3833 3852 3853 3834
3834 3853 3854 3835
3835 3854 3855 3836
3836 3855 3856 3837
3837 3856 3857 3838
3838 3857 3858 3839
3839 3858 3859 3840
3840 3859 3860 3841
3841 3860 3861 3842
3842 3861 3862 3843
3843 3862 3863 3844
3844 3863 336 335
121 122 3864 3845
3845 3864 3865 3846
3846 3865 3866 3847
3847 3866 3867 3848
3848 3867 3868 3849
3849 3868 3869 3850
3850 3869 3870 3851
3851 3870 3871 3852
3852 3871 3872 3853
3853 3872 3873 3854
3854 3873 3874 3855
3855 3874 3875 3856
3856 3875 3876 3857
3857 3876 3877 3858
3858 3877 3878 3859
3859 3878 3879 3860
3860 3879 3880 3861
3861 3880 3881 3862
3862 3881 3882 3863
3863 3882 337 336
122 123 3883 3864
3864 3883 3884 3865
3865 3884 3885 3866
3866 3885 3886 3867
3867 3886 3887 3868
3868 3887 3888 3869
3869 3888 3889 3870
3870 3889 3890 3871
3871 3890 3891 3872
3872 3891 3892 3873
3873 3892 3893 3874
3874 3893 3894 3875
3875 3894 3895 3876
3876 3895 3896 3877
3877 3896 3897 3878
3878 3897 3898 3879
3879 3898 3899 3880
3880 3899 3900 3881
3881 3900 3901 3882
3882 3901 338 337
123 124 3902 3883
3883 3902 3903 3884
3884 3903 3904 3885
3885 3904 3905 3886
3886 3905 3906 3887
3887 3906 3907 3888
3888 3907 3908 3889
3889 3908 3909 3890
3890 3909 3910 3891
3891 3910 3911 3892
3892 3911 3912 3893
3893 3912 3913 3894
3894 3913 3914 3895
3895 3914 3915 3896
3896 3915 3916 3897
3897 3916 3917 3898
3898 3917 3918 3899
3899 3918 3919 3900
3900 3919 3920 3901
3901 3920 339 338
124 125 3921 3902
3902 3921 3922 3903
3903 3922 3923 3904
3904 3923 3924 3905
3905 3924 3925 3906
3906 3925 3926 3907
3907 3926 3927 3908
3908 3927 3928 3909
3909 3928 3929 3910
3910 3929 3930 3911
3911 3930 3931 3912
3912 3931 3932 3913
3913 3932 3933 3914
3914 3933 3934 3915
3915 3934 3935 3916
3916 3935 3936 3917
3917 3936 3937 3918
3918 3937 3938 3919
3919 3938 3939 3920
3920 3939 340 339
125 126 3940 3921
3921 3940 3941 3922
3922 3941 3942 3923
3923 3942 3943 3924
3924 3943 3944 3925
3925 3944 3945 3926
3926 3945 3946 3927
3927 3946 3947 3928
3928 3947 3948 3929
3929 3948 3949 3930
3930 3949 3950 3931
3931 3950 3951 3932
3932 3951 3952 3933
3933 3952 3953 3934
3934 3953 3954 3935
3935 3954 3955 3936
3936 3955 3956 3937
3937 3956 3957 3938
3938 3957 3958 3939
3939 3958 341 340
126 127 3959 3940
3940 3959 3960 3941
3941 3960 3961 3942
3942 3961 3962 3943
3943 3962 3963 3944
3944 3963 3964 3945
3945 3964 3965 3946
3946 3965 3966 3947
3947 3966 3967 3948
3948 3967 3968 3949
3949 3968 3969 3950
3950 3969 3970 3951
3951 3970 3971 3952
3952 3971 3972 3953
3953 3972 3973 3954
3954 3973 3974 3955
3955 3974 3975 3956
3956 3975 3976 3957
3957 3976 3977 3958
3958 3977 342 341
127 128 3978 3959
3959 3978 3979 3960
3960 3979 3980 3961
3961 3980 3981 3962
3962 3981 3982 3963
3963 3982 3983 3964
3964 3983 3984 3965
3965 3984 3985 3966
3966 3985 3986 3967
3967 3986 3987 3968
3968 3987 3988 3969
3969 3988 3989 3970
3970 3989 3990 3971
3971 3990 3991 3972
3972 3991 3992 3973
3973 3992 3993 3974
3974 3993 3994 3975
3975 3994 3995 3976
3976 3995 3996 3977
3977 3996 343 342
128 129 3997 3978
3978 3997 3998 3979
3979 3998 3999 3980
3980 3999 4000 3981
3981 4000 4001 3982
3982 4001 4002 3983
3983 4002 4003 3984
3984 4003 4004 3985
3985 4004 4005 3986
3986 4005 4006 3987
3987 4006 4007 3988
3988 4007 4008 3989
3989 4008 4009 3990
3990 4009 4010 3991
3991 4010 4011 3992
3992 4011 4012 3993
3993 4012 4013 3994
3994 4013 4014 3995
3995 4014 4015 3996
3996 4015 344 343
129 130 4016 3997
3997 4016 4017 3998
3998 4017 4018 3999
3999 4018 4019 4000
4000 4019 4020 4001
4001 4020 4021 4002
4002 4021 4022 4003
4003 4022 4023 4004
4004 4023 4024 4005
4005 4024 4025 4006
4006 4025 4026 4007
4007 4026 4027 4008
4008 4027 4028 4009
4009 4028 4029 4010
4010 4029 4030 4011
4011 4030 4031 4012
4012 4031 4032 4013
4013 4032 4033 4014
4014 4033 4034 4015
4015 4034 345 344
130 131 4035 4016
4016 4035 4036 4017
4017 4036 4037 4018
4018 4037 4038 4019
4019 4038 4039 4020
4020 4039 4040 4021
4021 4040 4041 4022
4022 4041 4042 4023
4023 4042 4043 4024
4024 4043 4044 4025
4025 4044 4045 4026
4026 4045 4046 4027
4027 4046 4047 4028
4028 4047 4048 4029
4029 4048 4049 4030
4030 4049 4050 4031
4031 4050 4051 4032
4032 4051 4052 4033
4033 4052 4053 4034
4034 4053 346 345
131 132 4054 4035
4035 4054 4055 4036
4036 4055 4056 4037
4037 4056 4057 4038
4038 4057 4058 4039
4039 4058 4059 4040
4040 4059 4060 4041
4041 4060 4061 4042
4042 4061 4062 4043
4043 4062 4063 4044
4044 4063 4064 4045
4045 4064 4065 4046
4046 4065 4066 4047
4047 4066 4067 4048
4048 4067 4068 4049
4049 4068 4069 4050
4050 4069 4070 4051
4051 4070 4071 4052
4052 4071 4072 4053
4053 4072 347 346
132 133 4073 4054
4054 4073 4074 4055
4055 4074 4075 4056
4056 4075 4076 4057
4057 4076 4077 4058
4058 4077 4078 4059
4059 4078 4079 4060
4060 4079 4080 4061
4061 4080 4081 4062
4062 4081 4082 4063
4063 4082 4083 4064
4064 4083 4084 4065
4065 4084 4085 4066
4066 4085 4086 4067
4067 4086 4087 4068
4068 4087 4088 4069
4069 4088 4089 4070
4070 4089 4090 4071
4071 4090 4091 4072
4072 4091 348 347
133 134 4092 4073
4073 4092 4093 4074
4074 4093 4094 4075
4075 4094 4095 4076
4076 4095 4096 4077
4077 4096 4097 4078
4078 4097 4098 4079
4079 4098 4099 4080
4080 4099 4100 4081
4081 4100 4101 4082
4082 4101 4102 4083
4083 4102 4103 4084
4084 4103 4104 4085
4085 4104 4105 4086
4086 4105 4106 4087
4087 4106 4107 4088
4088 4107 4108 4089
4089 4108 4109 4090
4090 4109 4110 4091
4091 4110 349 348
134 135 4111 4092
4092 4111 4112 4093
4093 4112 4113 4094
4094 4113 4114 4095
4095 4114 4115 4096
4096 4115 4116 4097
4097 4116 4117 4098
4098 4117 4118 4099
4099 4118 4119 4100
4100 4119 4120 4101
4101 4120 4121 4102
4102 4121 4122 4103
4103 4122 4123 4104
4104 4123 4124 4105
4105 4124 4125 4106
4106 4125 4126 4107
4107 4126 4127 4108
4108 4127 4128 4109
4109 4128 4129 4110
4110 4129 350 349
135 136 4130 4111
4111 4130 4131 4112
4112 4131 4132 4113
4113 4132 4133 4114
4114 4133 4134 4115
4115 4134 4135 4116
4116 4135 4136 4117
4117 4136 4137 4118
4118 4137 4138 4119
4119 4138 4139 4120
4120 4139 4140 4121
4121 4140 4141 4122
4122 4141 4142 4123
4123 4142 4143 4124
4124 4143 4144 4125
4125 4144 4145 4126
4126 4145 4146 4127
4127 4146 4147 4128
4128 4147 4148 4129
4129 4148 351 350
136 137 4149 4130
4130 4149 4150 4131
4131 4150 4151 4132
4132 4151 4152 4133
4133 4152 4153 4134
4134 4153 4154 4135
4135 4154 4155 4136
4136 4155 4156 4137
4137 4156 4157 4138
4138 4157 4158 4139
4139 4158 4159 4140
4140 4159 4160 4141
4141 4160 4161 4142
4142 4161 4162 4143
4143 4162 4163 4144
4144 4163 4164 4145
4145 4164 4165 4146
4146 4165 4166 4147
4147 4166 4167 4148
4148 4167 352 351
137 138 4168 4149
4149 4168 4169 4150
4150 4169 4170 4151
4151 4170 4171 4152
4152 4171 4172 4153
4153 4172 4173 4154
4154 4173 4174 4155
4155 4174 4175 4156
4156 4175 4176 4157
4157 4176 4177 4158
4158 4177 4178 4159
4159 4178 4179 4160
4160 4179 4180 4161
4161 4180 4181 4162
4162 4181 4182 4163
4163 4182 4183 4164
4164 4183 4184 4165
4165 4184 4185 4166
4166 4185 4186 4167
4167 4186 353 352
138 139 4187 4168
4168 4187 4188 4169
4169 4188 4189 4170
4170 4189 4190 4171
4171 4190 4191 4172
4172 4191 4192 4173
4173 4192 4193 4174
4174 4193 4194 4175
4175 4194 4195 4176
4176 4195 4196 4177
4177 4196 4197 4178
4178 4197 4198 4179
4179 4198 4199 4180
4180 4199 4200 4181
4181 4200 4201 4182
4182 4201 4202 4183
4183 4202 4203 4184
4184 4203 4204 4185
4185 4204 4205 4186
4186 4205 354 353
139 140 4206 4187
4187 4206 4207 4188
4188 4207 4208 4189
4189 4208 4209 4190
4190 4209 4210 4191
4191 4210 4211 4192
4192 4211 4212 4193
4193 4212 4213 4194
4194 4213 4214 4195
4195 4214 4215 4196
4196 4215 4216 4197
4197 4216 4217 4198
4198 4217 4218 4199
4199 4218 4219 4200
4200 4219 4220 4201
4201 4220 4221 4202
4202 4221 4222 4203
4203 4222 4223 4204
4204 4223 4224 4205
4205 4224 355 354
140 141 4225 4206
4206 4225 4226 4207
4207 4226 4227 4208
4208 4227 4228 4209
4209 4228 4229 4210
4210 4229 4230 4211
4211 4230 4231 4212
4212 4231 4232 4213
4213 4232 4233 4214
4214 4233 4234 4215
4215 4234 4235 4216
4216 4235 4236 4217
4217 4236 4237 4218
4218 4237 4238 4219
4219 4238 4239 4220
4220 4239 4240 4221
4221 4240 4241 4222
4222 4241 4242 4223
4223 4242 4243 4224
4224 4243 356 355
141 142 4244 4225
4225 4244 4245 4226
4226 4245 4246 4227
4227 4246 4247 4228
4228 4247 4248 4229
4229 4248 4249 4230
4230 4249 4250 4231
4231 4250 4251 4232
4232 4251 4252 4233
4233 4252 4253 4234
4234 4253 4254 4235
4235 4254 4255 4236
4236 4255 4256 4237
4237 4256 4257 4238
4238 4257 4258 4239
4239 4258 4259 4240
4240 4259 4260 4241
4241 4260 4261 4242
4242 4261 4262 4243
4243 4262 357 356
142 143 4263 4244
4244 4263 4264 4245
4245 4264 4265 4246
4246 4265 4266 4247
4247 4266 4267 4248
4248 4267 4268 4249
4249 4268 4269 4250
4250 4269 4270 4251
4251 4270 4271 4252
4252 4271 4272 4253
4253 4272 4273 4254
4254 4273 4274 4255
4255 4274 4275 4256
4256 4275 4276 4257
4257 4276 4277 4258
4258 4277 4278 4259
4259 4278 4279 4260
4260 4279 4280 4261
4261 4280 4281 4262
4262 4281 358 357
143 144 4282 4263
4263 4282 4283 4264
4264 4283 4284 4265
4265 4284 4285 4266
4266 4285 4286 4267
4267 4286 4287 4268
4268 4287 4288 4269
4269 4288 4289 4270
4270 4289 4290 4271
4271 4290 4291 4272
4272 4291 4292 4273
4273 4292 4293 4274
4274 4293 4294 4275
4275 4294 4295 4276
4276 4295 4296 4277
4277 4296 4297 4278
4278 4297 4298 4279
4279 4298 4299 4280
4280 4299 4300 4281
4281 4300 359 358
144 145 4301 4282
4282 4301 4302 4283
4283 4302 4303 4284
4284 4303 4304 4285
4285 4304 4305 4286
4286 4305 4306 4287
4287 4306 4307 4288
4288 4307 4308 4289
4289 4308 4309 4290
4290 4309 4310 4291
4291 4310 4311 4292
4292 4311 4312 4293
4293 4312 4313 4294
4294 4313 4314 4295
4295 4314 4315 4296
4296 4315 4316 4297
4297 4316 4317 4298
4298 4317 4318 4299
4299 4318 4319 4300
4300 4319 360 359
145 146 4320 4301
4301 4320 4321 4302
4302 4321 4322 4303
4303 4322 4323 4304
4304 4323 4324 4305
4305 4324 4325 4306
4306 4325 4326 4307
4307 4326 4327 4308
4308 4327 4328 4309
4309 4328 4329 4310
4310 4329 4330 4311
4311 4330 4331 4312
4312 4331 4332 4313
4313 4332 4333 4314
4314 4333 4334 4315
4315 4334 4335 4316
4316 4335 4336 4317
4317 4336 4337 4318
4318 4337 4338 4319
4319 4338 361 360
146 5 399 4320
4320 399 398 4321
4321 398 397 4322
4322 397 396 4323
4323 396 395 4324
4324 395 394 4325
4325 394 393 4326
4326 393 392 4327
4327 392 391 4328
4328 391 390 4329
4329 390 389 4330
4330 389 388 4331
4331 388 387 4332
4332 387 386 4333
4333 386 385 4334
4334 385 384 4335
4335 384 383 4336
4336 383 382 4337
4337 382 381 4338
4338 381 10 361
3 89 4339 166
166 4339 4340 167
167 4340 4341 168
168 4341 4342 169
169 4342 4343 170
170 4343 4344 171
171 4344 4345 172
172 4345 4346 173
173 4346 4347 174
174 4347 4348 175
175 4348 4349 176
176 4349 4350 177
177 4350 4351 178
178 4351 4352 179
179 4352 4353 180
180 4353 4354 181
181 4354 4355 182
182 4355 4356 183
183 4356 4357 184
184 4357 418 7
89 90 4358 4339
4339 4358 4359 4340
4340 4359 4360 4341
4341 4360 4361 4342
4342 4361 4362 4343
4343 4362 4363 4344
4344 4363 4364 4345
4345 4364 4365 4346
4346 4365 4366 4347
4347 4366 4367 4348
4348 4367 4368 4349
4349 4368 4369 4350
4350 4369 4370 4351
4351 4370 4371 4352
4352 4371 4372 4353
4353 4372 4373 4354
4354 4373 4374 4355
4355 4374 4375 4356
4356 4375 4376 4357
4357 4376 417 418
90 91 4377 4358
4358 4377 4378 4359
4359 4378 4379 4360
4360 4379 4380 4361
4361 4380 4381 4362
4362 4381 4382 4363
4363 4382 4383 4364
4364 4383 4384 4365
4365 4384 4385 4366
4366 4385 4386 4367
4367 4386 4387 4368
4368 4387 4388 4369
4369 4388 4389 4370
4370 4389 4390 4371
4371 4390 4391 4372
4372 4391 4392 4373
4373 4392 4393 4374
4374 4393 4394 4375
4375 4394 4395 4376
4376 4395 416 417
91 92 4396 4377
4377 4396 4397 4378
4378 4397 4398 4379
4379 4398 4399 4380
4380 4399 4400 4381
4381 4400 4401 4382
4382 4401 4402 4383
4383 4402 4403 4384
4384 4403 4404 4385
4385 4404 4405 4386
4386 4405 4406 4387
4387 4406 4407 4388
4388 4407 4408 4389
4389 4408 4409 4390
4390 4409 4410 4391
4391 4410 4411 4392
4392 4411 4412 4393
4393 4412 4413 4394
4394 4413 4414 4395
4395 4414 415 416
92 93 4415 4396
4396 4415 4416 4397
4397 4416 4417 4398
4398 4417 4418 4399
4399 4418 4419 4400
4400 4419 4420 4401
4401 4420 4421 4402
4402 4421 4422 4403
4403 4422 4423 4404
4404 4423 4424 4405
4405 4424 4425 4406
4406 4425 4426 4407
4407 4426 4427 4408
4408 4427 4428 4409
4409 4428 4429 4410
4410 4429 4430 4411
4411 4430 4431 4412
4412 4431 4432 4413
4413 4432 4433 4414
4414 4433 414 415
93 94 4434 4415
4415 4434 4435 4416
4416 4435 4436 4417
4417 4436 4437 4418
4418 4437 4438 4419
4419 4438 4439 4420
4420 4439 4440 4421
4421 4440 4441 4422
4422 4441 4442 4423
4423 4442 4443 4424
4424 4443 4444 4425
4425 4444 4445 4426
4426 4445 4446 4427
4427 4446 4447 4428
4428 4447 4448 4429
4429 4448 4449 4430
4430 4449 4450 4431
4431 4450 4451 4432
4432 4451 4452 4433
4433 4452 413 414
94 95 4453 4434
4434 4453 4454 4435
4435 4454 4455 4436
4436 4455 4456 4437
4437 4456 4457 4438
4438 4457 4458 4439
4439 4458 4459 4440
4440 4459 4460 4441
4441 4460 4461 4442
4442 4461 4462 4443
4443 4462 4463 4444
4444 4463 4464 4445
4445 4464 4465 4446
4446 4465 4466 4447
4447 4466 4467 4448
4448 4467 4468 4449
4449 4468 4469 4450
4450 4469 4470 4451
4451 4470 4471 4452
4452 4471 412 413
95 96 4472 4453
4453 4472 4473 4454
4454 4473 4474 4455
4455 4474 4475 4456
4456 4475 4476 4457
4457 4476 4477 4458
4458 4477 4478 4459
4459 4478 4479 4460
4460 4479 4480 4461
4461 4480 4481 4462
4462 4481 4482 4463
4463 4482 4483 4464
4464 4483 4484 4465
4465 4484 4485 4466
4466 4485 4486 4467
4467 4486 4487 4468
4468 4487 4488 4469
4469 4488 4489 4470
4470 4489 4490 4471
4471 4490 411 412
96 97 4491 4472
4472 4491 4492 4473
4473 4492 4493 4474
4474 4493 4494 4475
4475 4494 4495 4476
4476 4495 4496 4477
4477 4496 4497 4478
4478 4497 4498 4479
4479 4498 4499 4480
4480 4499 4500 4481
4481 4500 4501 4482
4482 4501 4502 4483
4483 4502 4503 4484
4484 4503 4504 4485
4485 4504 4505 4486
4486 4505 4506 4487
4487 4506 4507 4488
4488 4507 4508 4489
4489 4508 4509 4490
4490 4509 410 411
97 98 4510 4491
4491 4510 4511 4492
4492 4511 4512 4493
4493 4512 4513 4494
4494 4513 4514 4495
4495 4514 4515 4496
4496 4515 4516 4497
4497 4516 4517 4498
4498 4517 4518 4499
4499 4518 4519 4500
4500 4519 4520 4501
4501 4520 4521 4502
4502 4521 4522 4503
4503 4522 4523 4504
4504 4523 4524 4505
4505 4524 4525 4506
4506 4525 4526 4507
4507 4526 4527 4508
4508 4527 4528 4509
4509 4528 409 410
98 99 4529 4510
4510 4529 4530 4511
4511 4530 4531 4512
4512 4531 4532 4513
4513 4532 4533 4514
4514 4533 4534 4515
4515 4534 4535 4516
4516 4535 4536 4517
4517 4536 4537 4518
4518 4537 4538 4519
4519 4538 4539 4520
4520 4539 4540 4521
4521 4540 4541 4522
4522 4541 4542 4523
4523 4542 4543 4524
4524 4543 4544 4525
4525 4544 4545 4526
4526 4545 4546 4527
4527 4546 4547 4528
4528 4547 408 409
99 100 4548 4529
4529 4548 4549 4530
4530 4549 4550 4531
4531 4550 4551 4532
4532 4551 4552 4533
4533 4552 4553 4534
4534 4553 4554 4535
4535 4554 4555 4536
4536 4555 4556 4537
4537 4556 4557 4538
4538 4557 4558 4539
4539 4558 4559 4540
4540 4559 4560 4541
4541 4560 4561 4542
4542 4561 4562 4543
4543 4562 4563 4544
4544 4563 4564 4545
4545 4564 4565 4546
4546 4565 4566 4547
4547 4566 407 408
100 101 4567 4548
4548 4567 4568 4549
4549 4568 4569 4550
4550 4569 4570 4551
4551 4570 4571 4552
4552 4571 4572 4553
4553 4572 4573 4554
4554 4573 4574 4555
4555 4574 4575 4556
4556 4575 4576 4557
4557 4576 4577 4558
4558 4577 4578 4559
4559 4578 4579 4560
4560 4579 4580 4561
4561 4580 4581 4562
4562 4581 4582 4563
4563 4582 4583 4564
4564 4583 4584 4565
4565 4584 4585 4566
4566 4585 406 407
101 102 4586 4567
4567 4586 4587 4568
4568 4587 4588 4569
4569 4588 4589 4570
4570 4589 4590 4571
4571 4590 4591 4572
4572 4591 4592 4573
4573 4592 4593 4574
4574 4593 4594 4575
4575 4594 4595 4576
4576 4595 4596 4577
4577 4596 4597 4578
4578 4597 4598 4579
4579 4598 4599 4580
4580 4599 4600 4581
4581 4600 4601 4582
4582 4601 4602 4583
4583 4602 4603 4584
4584 4603 4604 4585
4585 4604 405 406
102 103 4605 4586
4586 4605 4606 4587
4587 4606 4607 4588
4588 4607 4608 4589
4589 4608 4609 4590
4590 4609 4610 4591
4591 4610 4611 4592
4592 4611 4612 4593
4593 4612 4613 4594
4594 4613 4614 4595
4595 4614 4615 4596
4596 4615 4616 4597
4597 4616 4617 4598
4598 4617 4618 4599
4599 4618 4619 4600
4600 4619 4620 4601
4601 4620 4621 4602
4602 4621 4622 4603
4603 4622 4623 4604
4604 4623 404 405
103 104 4624 4605
4605 4624 4625 4606
4606 4625 4626 4607
4607 4626 4627 4608
4608 4627 4628 4609
4609 4628 4629 4610
4610 4629 4630 4611
4611 4630 4631 4612
4612 4631 4632 4613
4613 4632 4633 4614
4614 4633 4634 4615
4615 4634 4635 4616
4616 4635 4636 4617
4617 4636 4637 4618
4618 4637 4638 4619
4619 4638 4639 4620
4620 4639 4640 4621
4621 4640 4641 4622
4622 4641 4642 4623
4623 4642 403 404
104 105 4643 4624
4624 4643 4644 4625
4625 4644 4645 4626
4626 4645 4646 4627
4627 4646 4647 4628
4628 4647 4648 4629
4629 4648 4649 4630
4630 4649 4650 4631
4631 4650 4651 4632
4632 4651 4652 4633
4633 4652 4653 4634
4634 4653 4654 4635
4635 4654 4655 4636
4636 4655 4656 4637
4637 4656 4657 4638
4638 4657 4658 4639
4639 4658 4659 4640
4640 4659 4660 4641
4641 4660 4661 4642
4642 4661 402 403
105 106 4662 4643
4643 4662 4663 4644
4644 4663 4664 4645
4645 4664 4665 4646
4646 4665 4666 4647
4647 4666 4667 4648
4648 4667 4668 4649
4649 4668 4669 4650
4650 4669 4670 4651
4651 4670 4671 4652
4652 4671 4672 4653
4653 4672 4673 4654
4654 4673 4674 4655
4655 4674 4675 4656
4656 4675 4676 4657
4657 4676 4677 4658
4658 4677 4678 4659
4659 4678 4679 4660
4660 4679 4680 4661
4661 4680 401 402
106 107 4681 4662
4662 4681 4682 4663
4663 4682 4683 4664
4664 4683 4684 4665
4665 4684 4685 4666
4666 4685 4686 4667
4667 4686 4687 4668
4668 4687 4688 4669
4669 4688 4689 4670
4670 4689 4690 4671
4671 4690 4691 4672
4672 4691 4692 4673
4673 4692 4693 4674
4674 4693 4694 4675
4675 4694 4695 4676
4676 4695 4696 4677
4677 4696 4697 4678
4678 4697 4698 4679
4679 4698 4699 4680
4680 4699 400 401
107 4 380 4681
4681 380 379 4682
4682 379 378 4683
4683 378 377 4684
4684 377 376 4685
4685 376 375 4686
4686 375 374 4687
4687 374 373 4688
4688 373 372 4689
4689 372 371 4690
4690 371 370 4691
4691 370 369 4692
4692 369 368 4693
4693 368 367 4694
4694 367 366 4695
4695 366 365 4696
4696 365 364 4697
4697 364 363 4698
4698 363 362 4699
4699 362 9 400
5 147 4700 399
399 4700 4701 398
398 4701 4702 397
397 4702 4703 396
396 4703 4704 395
395 4704 4705 394
394 4705 4706 393
393 4706 4707 392
392 4707 4708 391
391 4708 4709 390
390 4709 4710 389
389 4710 4711 388
388 4711 4712 387
387 4712 4713 386
386 4713 4714 385
385 4714 4715 384
384 4715 4716 383
383 4716 4717 382
382 4717 4718 381
381 4718 419 10
147 148 4719 4700
4700 4719 4720 4701
4701 4720 4721 4702
4702 4721 4722 4703
4703 4722 4723 4704
4704 4723 4724 4705
4705 4724 4725 4706
4706 4725 4726 4707
4707 4726 4727 4708
4708 4727 4728 4709
4709 4728 4729 4710
4710 4729 4730 4711
4711 4730 4731 4712
4712 4731 4732 4713
4713 4732 4733 4714
4714 4733 4734 4715
4715 4734 4735 4716
4716 4735 4736 4717
4717 4736 4737 4718
4718 4737 420 419
148 149 4738 4719
4719 4738 4739 4720
4720 4739 4740 4721
4721 4740 4741 4722
4722 4741 4742 4723
4723 4742 4743 4724
4724 4743 4744 4725
4725 4744 4745 4726
4726 4745 4746 4727
4727 4746 4747 4728
4728 4747 4748 4729
4729 4748 4749 4730
4730 4749 4750 4731
4731 4750 4751 4732
4732 4751 4752 4733
4733 4752 4753 4734
4734 4753 4754 4735
4735 4754 4755 4736
4736 4755 4756 4737
4737 4756 421 420
149 150 4757 4738
4738 4757 4758 4739
4739 4758 4759 4740
4740 4759 4760 4741
4741 4760 4761 4742
4742 4761 4762 4743
4743 4762 4763 4744
4744 4763 4764 4745
4745 4764 4765 4746
4746 4765 4766 4747
4747 4766 4767 4748
4748 4767 4768 4749
4749 4768 4769 4750
4750 4769 4770 4751
4751 4770 4771 4752
4752 4771 4772 4753
4753 4772 4773 4754
4754 4773 4774 4755
4755 4774 4775 4756
4756 4775 422 421
150 151 4776 4757
4757 4776 4777 4758
4758 4777 4778 4759
4759 4778 4779 4760
4760 4779 4780 4761
4761 4780 4781 4762
4762 4781 4782 4763
4763 4782 4783 4764
4764 4783 4784 4765
4765 4784 4785 4766
4766 4785 4786 4767
4767 4786 4787 4768
4768 4787 4788 4769
4769 4788 4789 4770
4770 4789 4790 4771
4771 4790 4791 4772
4772 4791 4792 4773
4773 4792 4793 4774
4774 4793 4794 4775
4775 4794 423 422
151 152 4795 4776
4776 4795 4796 4777
4777 4796 4797 4778
4778 4797 4798 4779
4779 4798 4799 4780
4780 4799 4800 4781
4781 4800 4801 4782
4782 4801 4802 4783
4783 4802 4803 4784
4784 4803 4804 4785
4785 4804 4805 4786
4786 4805 4806 4787
4787 4806 4807 4788
4788 4807 4808 4789
4789 4808 4809 4790
4790 4809 4810 4791
4791 4810 4811 4792
4792 4811 4812 4793
4793 4812 4813 4794
4794 4813 424 423
152 153 4814 4795
4795 4814 4815 4796
4796 4815 4816 4797
4797 4816 4817 4798
4798 4817 4818 4799
4799 4818 4819 4800
4800 4819 4820 4801
4801 4820 4821 4802
4802 4821 4822 4803
4803 4822 4823 4804
4804 4823 4824 4805
4805 4824 4825 4806
4806 4825 4826 4807
4807 4826 4827 4808
4808 4827 4828 4809
4809 4828 4829 4810
4810 4829 4830 4811
4811 4830 4831 4812
4812 4831 4832 4813
4813 4832 425 424
153 154 4833 4814
4814 4833 4834 4815
4815 4834 4835 4816
4816 4835 4836 4817
4817 4836 4837 4818
4818 4837 4838 4819
4819 4838 4839 4820
4820 4839 4840 4821
4821 4840 4841 4822
4822 4841 4842 4823
4823 4842 4843 4824
4824 4843 4844 4825
4825 4844 4845 4826
4826 4845 4846 4827
4827 4846 4847 4828
4828 4847 4848 4829
4829 4848 4849 4830
4830 4849 4850 4831
4831 4850 4851 4832
4832 4851 426 425
154 155 4852 4833
4833 4852 4853 4834
4834 4853 4854 4835
4835 4854 4855 4836
4836 4855 4856 4837
4837 4856 4857 4838
4838 4857 4858 4839
4839 4858 4859 4840
4840 4859 4860 4841
4841 4860 4861 4842
4842 4861 4862 4843
4843 4862 4863 4844
4844 4863 4864 4845
4845 4864 4865 4846
4846 4865 4866 4847
4847 4866 4867 4848
4848 4867 4868 4849
4849 4868 4869 4850
4850 4869 4870 4851
4851 4870 427 426
155 156 4871 4852
4852 4871 4872 4853
4853 4872 4873 4854
4854 4873 4874 4855
4855 4874 4875 4856
4856 4875 4876 4857
4857 4876 4877 4858
4858 4877 4878 4859
4859 4878 4879 4860
4860 4879 4880 4861
4861 4880 4881 4862
4862 4881 4882 4863
4863 4882 4883 4864
4864 4883 4884 4865
4865 4884 4885 4866
4866 4885 4886 4867
4867 4886 4887 4868
4868 4887 4888 4869
4869 4888 4889 4870
4870 4889 428 427
156 157 4890 4871
4871 4890 4891 4872
4872 4891 4892 4873
4873 4892 4893 4874
4874 4893 4894 4875
4875 4894 4895 4876
4876 4895 4896 4877
4877 4896 4897 4878
4878 4897 4898 4879
4879 4898 4899 4880
4880 4899 4900 4881
4881 4900 4901 4882
4882 4901 4902 4883
4883 4902 4903 4884
4884 4903 4904 4885
4885 4904 4905 4886
4886 4905 4906 4887
4887 4906 4907 4888
4888 4907 4908 4889
4889 4908 429 428
157 158 4909 4890
4890 4909 4910 4891
4891 4910 4911 4892
4892 4911 4912 4893
4893 4912 4913 4894
4894 4913 4914 4895
4895 4914 4915 4896
4896 4915 4916 4897
4897 4916 4917 4898
4898 4917 4918 4899
4899 4918 4919 4900
4900 4919 4920 4901
4901 4920 4921 4902
4902 4921 4922 4903
4903 4922 4923 4904
4904 4923 4924 4905
4905 4924 4925 4906
4906 4925 4926 4907
4907 4926 4927 4908
4908 4927 430 429
158 159 4928 4909
4909 4928 4929 4910
4910 4929 4930 4911
4911 4930 4931 4912
4912 4931 4932 4913
4913 4932 4933 4914
4914 4933 4934 4915
4915 4934 4935 4916
4916 4935 4936 4917
4917 4936 4937 4918
4918 4937 4938 4919
4919 4938 4939 4920
4920 4939 4940 4921
4921 4940 4941 4922
4922 4941 4942 4923
4923 4942 4943 4924
4924 4943 4944 4925
4925 4944 4945 4926
4926 4945 4946 4927
4927 4946 431 430
159 160 4947 4928
4928 4947 4948 4929
4929 4948 4949 4930
4930 4949 4950 4931
4931 4950 4951 4932
4932 4951 4952 4933
4933 4952 4953 4934
4934 4953 4954 4935
4935 4954 4955 4936
4936 4955 4956 4937
4937 4956 4957 4938
4938 4957 4958 4939
4939 4958 4959 4940
4940 4959 4960 4941
4941 4960 4961 4942
4942 4961 4962 4943
4943 4962 4963 4944
4944 4963 4964 4945
4945 4964 4965 4946
4946 4965 432 431
160 161 4966 4947
4947 4966 4967 4948
4948 4967 4968 4949
4949 4968 4969 4950
4950 4969 4970 4951
4951 4970 4971 4952
4952 4971 4972 4953
4953 4972 4973 4954
4954 4973 4974 4955
4955 4974 4975 4956
4956 4975 4976 4957
4957 4976 4977 4958
4958 4977 4978 4959
4959 4978 4979 4960
4960 4979 4980 4961
4961 4980 4981 4962
4962 4981 4982 4963
4963 4982 4983 4964
4964 4983 4984 4965
4965 4984 433 432
161 162 4985 4966
4966 4985 4986 4967
4967 4986 4987 4968
4968 4987 4988 4969
4969 4988 4989 4970
4970 4989 4990 4971
4971 4990 4991 4972
4972 4991 4992 4973
4973 4992 4993 4974
4974 4993 4994 4975
4975 4994 4995 4976
4976 4995 4996 4977
4977 4996 4997 4978
4978 4997 4998 4979
4979 4998 4999 4980
4980 4999 5000 4981
4981 5000 5001 4982
4982 5001 5002 4983
4983 5002 5003 4984
4984 5003 434 433
162 163 5004 4985
4985 5004 5005 4986
4986 5005 5006 4987
4987 5006 5007 4988
4988 5007 5008 4989
4989 5008 5009 4990
4990 5009 5010 4991
4991 5010 5011 4992
4992 5011 5012 4993
4993 5012 5013 4994
4994 5013 5014 4995
4995 5014 5015 4996
4996 5015 5016 4997
4997 5016 5017 4998
4998 5017 5018 4999
4999 5018 5019 5000
5000 5019 5020 5001
5001 5020 5021 5002
5002 5021 5022 5003
5003 5022 435 434
163 164 5023 5004
5004 5023 5024 5005
5005 5024 5025 5006
5006 5025 5026 5007
5007 5026 5027 5008
5008 5027 5028 5009
5009 5028 5029 5010
5010 5029 5030 5011
5011 5030 5031 5012
5012 5031 5032 5013
5013 5032 5033 5014
5014 5033 5034 5015
5015 5034 5035 5016
5016 5035 5036 5017
5017 5036 5037 5018
5018 5037 5038 5019
5019 5038 5039 5020
5020 5039 5040 5021
5021 5040 5041 5022
5022 5041 436 435
164 165 5042 5023
5023 5042 5043 5024
5024 5043 5044 5025
5025 5044 5045 5026
5026 5045 5046 5027
5027 5046 5047 5028
5028 5047 5048 5029
5029 5048 5049 5030
5030 5049 5050 5031
5031 5050 5051 5032
5032 5051 5052 5033
5033 5052 5053 5034
5034 5053 5054 5035
5035 5054 5055 5036
5036 5055 5056 5037
5037 5056 5057 5038
5038 5057 5058 5039
5039 5058 5059 5040
5040 5059 5060 5041
5041 5060 437 436
165 6 242 5042
5042 242 241 5043
5043 241 240 5044
5044 240 239 5045
5045 239 238 5046
5046 238 237 5047
5047 237 236 5048
5048 236 235 5049
5049 235 234 5050
5050 234 233 5051
5051 233 232 5052
5052 232 231 5053
5053 231 230 5054
5054 230 229 5055
5055 229 228 5056
5056 228 227 5057
5057 227 226 5058
5058 226 225 5059
5059 225 224 5060
5060 224 8 437
9 323 5061 400
400 5061 5062 401
401 5062 5063 402
402 5063 5064 403
403 5064 5065 404
404 5065 5066 405
405 5066 5067 406
406 5067 5068 407
407 5068 5069 408
408 5069 5070 409
409 5070 5071 410
410 5071 5072 411
411 5072 5073 412
412 5073 5074 413
413 5074 5075 414
414 5075 5076 415
415 5076 5077 416
416 5077 5078 417
417 5078 5079 418
418 5079 185 7
323 324 5080 5061
5061 5080 5081 5062
5062 5081 5082 5063
5063 5082 5083 5064
5064 5083 5084 5065
5065 5084 5085 5066
5066 5085 5086 5067
5067 5086 5087 5068
5068 5087 5088 5069
5069 5088 5089 5070
5070 5089 5090 5071
5071 5090 5091 5072
5072 5091 5092 5073
5073 5092 5093 5074
5074 5093 5094 5075
5075 5094 5095 5076
5076 5095 5096 5077
5077 5096 5097 5078
5078 5097 5098 5079
5079 5098 186 185
324 325 5099 5080
5080 5099 5100 5081
5081 5100 5101 5082
5082 5101 5102 5083
5083 5102 5103 5084
5084 5103 5104 5085
5085 5104 5105 5086
5086 5105 5106 5087
5087 5106 5107 5088
5088 5107 5108 5089
5089 5108 5109 5090
5090 5109 5110 5091
5091 5110 5111 5092
5092 5111 5112 5093
5093 5112 5113 5094
5094 5113 5114 5095
5095 5114 5115 5096
5096 5115 5116 5097
5097 5116 5117 5098
5098 5117 187 186
325 326 5118 5099
5099 5118 5119 5100
5100 5119 5120 5101
5101 5120 5121 5102
5102 5121 5122 5103
5103 5122 5123 5104
5104 5123 5124 5105
5105 5124 5125 5106
5106 5125 5126 5107
5107 5126 5127 5108
5108 5127 5128 5109
5109 5128 5129 5110
5110 5129 5130 5111
5111 5130 5131 5112
5112 5131 5132 5113
5113 5132 5133 5114
5114 5133 5134 5115
5115 5134 5135 5116
5116 5135 5136 5117
5117 5136 188 187
326 327 5137 5118
5118 5137 5138 5119
5119 5138 5139 5120
5120 5139 5140 5121
5121 5140 5141 5122
5122 5141 5142 5123
5123 5142 5143 5124
5124 5143 5144 5125
5125 5144 5145 5126
5126 5145 5146 5127
5127 5146 5147 5128
5128 5147 5148 5129
5129 5148 5149 5130
5130 5149 5150 5131
5131 5150 5151 5132
5132 5151 5152 5133
5133 5152 5153 5134
5134 5153 5154 5135
5135 5154 5155 5136
5136 5155 189 188
327 328 5156 5137
5137 5156 5157 5138
5138 5157 5158 5139
5139 5158 5159 5140
5140 5159 5160 5141
5141 5160 5161 5142
5142 5161 5162 5143
5143 5162 5163 5144
5144 5163 5164 5145
5145 5164 5165 5146
5146 5165 5166 5147
5147 5166 5167 5148
5148 5167 5168 5149
5149 5168 5169 5150
5150 5169 5170 5151
5151 5170 5171 5152
5152 5171 5172 5153
5153 5172 5173 5154
5154 5173 5174 5155
5155 5174 190 189
328 329 5175 5156
5156 5175 5176 5157
5157 5176 5177 5158
5158 5177 5178 5159
5159 5178 5179 5160
5160 5179 5180 5161
5161 5180 5181 5162
5162 5181 5182 5163
5163 5182 5183 5164
5164 5183 5184 5165
5165 5184 5185 5166
5166 5185 5186 5167
5167 5186 5187 5168
5168 5187 5188 5169
5169 5188 5189 5170
5170 5189 5190 5171
5171 5190 5191 5172
5172 5191 5192 5173
5173 5192 5193 5174
5174 5193 191 190
329 330 5194 5175
5175 5194 5195 5176
5176 5195 5196 5177
5177 5196 5197 5178
5178 5197 5198 5179
5179 5198 5199 5180
5180 5199 5200 5181
5181 5200 5201 5182
5182 5201 5202 5183
5183 5202 5203 5184
5184 5203 5204 5185
5185 5204 5205 5186
5186 5205 5206 5187
5187 5206 5207 5188
5188 5207 5208 5189
5189 5208 5209 5190
5190 5209 5210 5191
5191 5210 5211 5192
5192 5211 5212 5193
5193 5212 192 191
330 331 5213 5194
5194 5213 5214 5195
5195 5214 5215 5196
5196 5215 5216 5197
5197 5216 5217 5198
5198 5217 5218 5199
5199 5218 5219 5200
5200 5219 5220 5201
5201 5220 5221 5202
5202 5221 5222 5203
5203 5222 5223 5204
5204 5223 5224 5205
5205 5224 5225 5206
5206 5225 5226 5207
5207 5226 5227 5208
5208 5227 5228 5209
5209 5228 5229 5210
5210 5229 5230 5211
5211 5230 5231 5212
5212 5231 193 192
331 332 5232 5213
5213 5232 5233 5214
5214 5233 5234 5215
5215 5234 5235 5216
5216 5235 5236 5217
5217 5236 5237 5218
5218 5237 5238 5219
5219 5238 5239 5220
5220 5239 5240 5221
5221 5240 5241 5222
5222 5241 5242 5223
5223 5242 5243 5224
5224 5243 5244 5225
5225 5244 5245 5226
5226 5245 5246 5227
5227 5246 5247 5228
5228 5247 5248 5229
5229 5248 5249 5230
5230 5249 5250 5231
5231 5250 194 193
332 333 5251 5232
5232 5251 5252 5233
5233 5252 5253 5234
5234 5253 5254 5235
5235 5254 5255 5236
5236 5255 5256 5237
5237 5256 5257 5238
5238 5257 5258 5239
5239 5258 5259 5240
5240 5259 5260 5241
5241 5260 5261 5242
5242 5261 5262 5243
5243 5262 5263 5244
5244 5263 5264 5245
5245 5264 5265 5246
5246 5265 5266 5247
5247 5266 5267 5248
5248 5267 5268 5249
5249 5268 5269 5250
5250 5269 195 194
333 334 5270 5251
5251 5270 5271 5252
5252 5271 5272 5253
5253 5272 5273 5254
5254 5273 5274 5255
5255 5274 5275 5256
5256 5275 5276 5257
5257 5276 5277 5258
5258 5277 5278 5259
5259 5278 5279 5260
5260 5279 5280 5261
5261 5280 5281 5262
5262 5281 5282 5263
5263 5282 5283 5264
5264 5283 5284 5265
5265 5284 5285 5266
5266 5285 5286 5267
5267 5286 5287 5268
5268 5287 5288 5269
5269 5288 196 195
334 335 5289 5270
5270 5289 5290 5271
5271 5290 5291 5272
5272 5291 5292 5273
5273 5292 5293 5274
5274 5293 5294 5275
5275 5294 5295 5276
5276 5295 5296 5277
5277 5296 5297 5278
5278 5297 5298 5279
5279 5298 5299 5280
5280 5299 5300 5281
5281 5300 5301 5282
5282 5301 5302 5283
5283 5302 5303 5284
5284 5303 5304 5285
5285 5304 5305 5286
5286 5305 5306 5287
5287 5306 5307 5288
5288 5307 197 196
335 336 5308 5289
5289 5308 5309 5290
5290 5309 5310 5291
5291 5310 5311 5292
5292 5311 5312 5293
5293 5312 5313 5294
5294 5313 5314 5295
5295 5314 5315 5296
5296 5315 5316 5297
5297 5316 5317 5298
5298 5317 5318 5299
5299 5318 5319 5300
5300 5319 5320 5301
5301 5320 5321 5302
5302 5321 5322 5303
5303 5322 5323 5304
5304 5323 5324 5305
5305 5324 5325 5306
5306 5325 5326 5307
5307 5326 198 197
336 337 5327 5308
5308 5327 5328 5309
5309 5328 5329 5310
5310 5329 5330 5311
5311 5330 5331 5312
5312 5331 5332 5313
5313 5332 5333 5314
5314 5333 5334 5315
5315 5334 5335 5316
5316 5335 5336 5317
5317 5336 5337 5318
5318 5337 5338 5319
5319 5338 5339 5320
5320 5339 5340 5321
5321 5340 5341 5322
5322 5341 5342 5323
5323 5342 5343 5324
5324 5343 5344 5325
5325 5344 5345 5326
5326 5345 199 198
337 338 5346 5327
5327 5346 5347 5328
5328 5347 5348 5329
5329 5348 5349 5330
5330 5349 5350 5331
5331 5350 5351 5332
5332 5351 5352 5333
5333 5352 5353 5334
5334 5353 5354 5335
5335 5354 5355 5336
5336 5355 5356 5337
5337 5356 5357 5338
5338 5357 5358 5339
5339 5358 5359 5340
5340 5359 5360 5341
5341 5360 5361 5342
5342 5361 5362 5343
5343 5362 5363 5344
5344 5363 5364 5345
5345 5364 200 199
338 339 5365 5346
5346 5365 5366 5347
5347 5366 5367 5348
5348 5367 5368 5349
5349 5368 5369 5350
5350 5369 5370 5351
5351 5370 5371 5352
5352 5371 5372 5353
5353 5372 5373 5354
5354 5373 5374 5355
5355 5374 5375 5356
5356 5375 5376 5357
5357 5376 5377 5358
5358 5377 5378 5359
5359 5378 5379 5360
5360 5379 5380 5361
5361 5380 5381 5362
5362 5381 5382 5363
5363 5382 5383 5364
5364 5383 201 200
339 340 5384 5365
5365 5384 5385 5366
5366 5385 5386 5367
5367 5386 5387 5368
5368 5387 5388 5369
5369 5388 5389 5370
5370 5389 5390 5371
5371 5390 5391 5372
5372 5391 5392 5373
5373 5392 5393 5374
5374 5393 5394 5375
5375 5394 5395 5376
5376 5395 5396 5377
5377 5396 5397 5378
5378 5397 5398 5379
5379 5398 5399 5380
5380 5399 5400 5381
5381 5400 5401 5382
5382 5401 5402 5383
5383 5402 202 201
340 341 5403 5384
5384 5403 5404 5385
5385 5404 5405 5386
5386 5405 5406 5387
5387 5406 5407 5388
5388 5407 5408 5389
5389 5408 5409 5390
5390 5409 5410 5391
5391 5410 5411 5392
5392 5411 5412 5393
5393 5412 5413 5394
5394 5413 5414 5395
5395 5414 5415 5396
5396 5415 5416 5397
5397 5416 5417 5398
5398 5417 5418 5399
5399 5418 5419 5400
5400 5419 5420 5401
5401 5420 5421 5402
5402 5421 203 202
341 342 5422 5403
5403 5422 5423 5404
5404 5423 5424 5405
5405 5424 5425 5406
5406 5425 5426 5407
5407 5426 5427 5408
5408 5427 5428 5409
5409 5428 5429 5410
5410 5429 5430 5411
5411 5430 5431 5412
5412 5431 5432 5413
5413 5432 5433 5414
5414 5433 5434 5415
5415 5434 5435 5416
5416 5435 5436 5417
5417 5436 5437 5418
5418 5437 5438 5419
5419 5438 5439 5420
5420 5439 5440 5421
5421 5440 204 203
342 343 5441 5422
5422 5441 5442 5423
5423 5442 5443 5424
5424 5443 5444 5425
5425 5444 5445 5426
5426 5445 5446 5427
5427 5446 5447 5428
5428 5447 5448 5429
5429 5448 5449 5430
5430 5449 5450 5431
5431 5450 5451 5432
5432 5451 5452 5433
5433 5452 5453 5434
5434 5453 5454 5435
5435 5454 5455 5436
5436 5455 5456 5437
5437 5456 5457 5438
5438 5457 5458 5439
5439 5458 5459 5440
5440 5459 205 204
343 344 5460 5441
5441 5460 5461 5442
5442 5461 5462 5443
5443 5462 5463 5444
5444 5463 5464 5445
5445 5464 5465 5446
5446 5465 5466 5447
5447 5466 5467 5448
5448 5467 5468 5449
5449 5468 5469 5450
5450 5469 5470 5451
5451 5470 5471 5452
5452 5471 5472 5453
5453 5472 5473 5454
5454 5473 5474 5455
5455 5474 5475 5456
5456 5475 5476 5457
5457 5476 5477 5458
5458 5477 5478 5459
5459 5478 206 205
344 345 5479 5460
5460 5479 5480 5461
5461 5480 5481 5462
5462 5481 5482 5463
5463 5482 5483 5464
5464 5483 5484 5465
5465 5484 5485 5466
5466 5485 5486 5467
5467 5486 5487 5468
5468 5487 5488 5469
5469 5488 5489 5470
5470 5489 5490 5471
5471 5490 5491 5472
5472 5491 5492 5473
5473 5492 5493 5474
5474 5493 5494 5475
5475 5494 5495 5476
5476 5495 5496 5477
5477 5496 5497 5478
5478 5497 207 206
345 346 5498 5479
5479 5498 5499 5480
5480 5499 5500 5481
5481 5500 5501 5482
5482 5501 5502 5483
5483 5502 5503 5484
5484 5503 5504 5485
5485 5504 5505 5486
5486 5505 5506 5487
5487 5506 5507 5488
5488 5507 5508 5489
5489 5508 5509 5490
5490 5509 5510 5491
5491 5510 5511 5492
5492 5511 5512 5493
5493 5512 5513 5494
5494 5513 5514 5495
5495 5514 5515 5496
5496 5515 5516 5497
5497 5516 208 207
346 347 5517 5498
5498 5517 5518 5499
5499 5518 5519 5500
5500 5519 5520 5501
5501 5520 5521 5502
5502 5521 5522 5503
5503 5522 5523 5504
5504 5523 5524 5505
5505 5524 5525 5506
5506 5525 5526 5507
5507 5526 5527 5508
5508 5527 5528 5509
5509 5528 5529 5510
5510 5529 5530 5511
5511 5530 5531 5512
5512 5531 5532 5513
5513 5532 5533 5514
5514 5533 5534 5515
5515 5534 5535 5516
5516 5535 209 208
347 348 5536 5517
5517 5536 5537 5518
5518 5537 5538 5519
5519 5538 5539 5520
5520 5539 5540 5521
5521 5540 5541 5522
5522 5541 5542 5523
5523 5542 5543 5524
5524 5543 5544 5525
5525 5544 5545 5526
5526 5545 5546 5527
5527 5546 5547 5528
5528 5547 5548 5529
5529 5548 5549 5530
5530 5549 5550 5531
5531 5550 5551 5532
5532 5551 5552 5533
5533 5552 5553 5534
5534 5553 5554 5535
5535 5554 210 209
348 349 5555 5536
5536 5555 5556 5537
5537 5556 5557 5538
5538 5557 5558 5539
5539 5558 5559 5540
5540 5559 5560 5541
5541 5560 5561 5542
5542 5561 5562 5543
5543 5562 5563 5544
5544 5563 5564 5545
5545 5564 5565 5546
5546 5565 5566 5547
5547 5566 5567 5548
5548 5567 5568 5549
5549 5568 5569 5550
5550 5569 5570 5551
5551 5570 5571 5552
5552 5571 5572 5553
5553 5572 5573 5554
5554 5573 211 210
349 350 5574 5555
5555 5574 5575 5556
5556 5575 5576 5557
5557 5576 5577 5558
5558 5577 5578 5559
5559 5578 5579 5560
5560 5579 5580 5561
5561 5580 5581 5562
5562 5581 5582 5563
5563 5582 5583 5564
5564 5583 5584 5565
5565 5584 5585 5566
5566 5585 5586 5567
5567 5586 5587 5568
5568 5587 5588 5569
5569 5588 5589 5570
5570 5589 5590 5571
5571 5590 5591 5572
5572 5591 5592 5573
5573 5592 212 211
350 351 5593 5574
5574 5593 5594 5575
5575 5594 5595 5576
5576 5595 5596 5577
5577 5596 5597 5578
5578 5597 5598 5579
5579 5598 5599 5580
5580 5599 5600 5581
5581 5600 5601 5582
5582 5601 5602 5583
5583 5602 5603 5584
5584 5603 5604 5585
5585 5604 5605 5586
5586 5605 5606 5587
5587 5606 5607 5588
5588 5607 5608 5589
5589 5608 5609 5590
5590 5609 5610 5591
5591 5610 5611 5592
5592 5611 213 212
351 352 5612 5593
5593 5612 5613 5594
5594 5613 5614 5595
5595 5614 5615 5596
5596 5615 5616 5597
5597 5616 5617 5598
5598 5617 5618 5599
5599 5618 5619 5600
5600 5619 5620 5601
5601 5620 5621 5602
5602 5621 5622 5603
5603 5622 5623 5604
5604 5623 5624 5605
5605 5624 5625 5606
5606 5625 5626 5607
5607 5626 5627 5608
5608 5627 5628 5609
5609 5628 5629 5610
5610 5629 5630 5611
5611 5630 214 213
352 353 5631 5612
5612 5631 5632 5613
5613 5632 5633 5614
5614 5633 5634 5615
5615 5634 5635 5616
5616 5635 5636 5617
5617 5636 5637 5618
5618 5637 5638 5619
5619 5638 5639 5620
5620 5639 5640 5621
5621 5640 5641 5622
5622 5641 5642 5623
5623 5642 5643 5624
5624 5643 5644 5625
5625 5644 5645 5626
5626 5645 5646 5627
5627 5646 5647 5628
5628 5647 5648 5629
5629 5648 5649 5630
5630 5649 215 214
353 354 5650 5631
5631 5650 5651 5632
5632 5651 5652 5633
5633 5652 5653 5634
5634 5653 5654 5635
5635 5654 5655 5636
5636 5655 5656 5637
5637 5656 5657 5638
5638 5657 5658 5639
5639 5658 5659 5640
5640 5659 5660 5641
5641 5660 5661 5642
5642 5661 5662 5643
5643 5662 5663 5644
5644 5663 5664 5645
5645 5664 5665 5646
5646 5665 5666 5647
5647 5666 5667 5648
5648 5667 5668 5649
5649 5668 216 215
354 355 5669 5650
5650 5669 5670 5651
5651 5670 5671 5652
5652 5671 5672 5653
5653 5672 5673 5654
5654 5673 5674 5655
5655 5674 5675 5656
5656 5675 5676 5657
5657 5676 5677 5658
5658 5677 5678 5659
5659 5678 5679 5660
5660 5679 5680 5661
5661 5680 5681 5662
5662 5681 5682 5663
5663 5682 5683 5664
5664 5683 5684 5665
5665 5684 5685 5666
5666 5685 5686 5667
5667 5686 5687 5668
5668 5687 217 216
355 356 5688 5669
5669 5688 5689 5670
5670 5689 5690 5671
5671 5690 5691 5672
5672 5691 5692 5673
5673 5692 5693 5674
5674 5693 5694 5675
5675 5694 5695 5676
5676 5695 5696 5677
5677 5696 5697 5678
5678 5697 5698 5679
5679 5698 5699 5680
5680 5699 5700 5681
5681 5700 5701 5682
5682 5701 5702 5683
5683 5702 5703 5684
5684 5703 5704 5685
5685 5704 5705 5686
5686 5705 5706 5687
5687 5706 218 217
356 357 5707 5688
5688 5707 5708 5689
5689 5708 5709 5690
5690 5709 5710 5691
5691 5710 5711 5692
5692 5711 5712 5693
5693 5712 5713 5694
5694 5713 5714 5695
5695 5714 5715 5696
5696 5715 5716 5697
5697 5716 5717 5698
5698 5717 5718 5699
5699 5718 5719 5700
5700 5719 5720 5701
5701 5720 5721 5702
5702 5721 5722 5703
5703 5722 5723 5704
5704 5723 5724 5705
5705 5724 5725 5706
5706 5725 219 218
357 358 5726 5707
5707 5726 5727 5708
5708 5727 5728 5709
5709 5728 5729 5710
5710 5729 5730 5711
5711 5730 5731 5712
5712 5731 5732 5713
5713 5732 5733 5714
5714 5733 5734 5715
5715 5734 5735 5716
5716 5735 5736 5717
5717 5736 5737 5718
5718 5737 5738 5719
5719 5738 5739 5720
5720 5739 5740 5721
5721 5740 5741 5722
5722 5741 5742 5723
5723 5742 5743 5724
5724 5743 5744 5725
5725 5744 220 219
358 359 5745 5726
5726 5745 5746 5727
5727 5746 5747 5728
5728 5747 5748 5729
5729 5748 5749 5730
5730 5749 5750 5731
5731 5750 5751 5732
5732 5751 5752 5733
5733 5752 5753 5734
5734 5753 5754 5735
5735 5754 5755 5736
5736 5755 5756 5737
5737 5756 5757 5738
5738 5757 5758 5739
5739 5758 5759 5740
5740 5759 5760 5741
5741 5760 5761 5742
5742 5761 5762 5743
5743 5762 5763 5744
5744 5763 221 220
359 360 5764 5745
5745 5764 5765 5746
5746 5765 5766 5747
5747 5766 5767 5748
5748 5767 5768 5749
5749 5768 5769 5750
5750 5769 5770 5751
5751 5770 5771 5752
5752 5771 5772 5753
5753 5772 5773 5754
5754 5773 5774 5755
5755 5774 5775 5756
5756 5775 5776 5757
5757 5776 5777 5758
5758 5777 5778 5759
5759 5778 5779 5760
5760 5779 5780 5761
5761 5780 5781 5762
5762 5781 5782 5763
5763 5782 222 221
360 361 5783 5764
5764 5783 5784 5765
5765 5784 5785 5766
5766 5785 5786 5767
5767 5786 5787 5768
5768 5787 5788 5769
5769 5788 5789 5770
5770 5789 5790 5771
5771 5790 5791 5772
5772 5791 5792 5773
5773 5792 5793 5774
5774 5793 5794 5775
5775 5794 5795 5776
5776 5795 5796 5777
5777 5796 5797 5778
5778 5797 5798 5779
5779 5798 5799 5780
5780 5799 5800 5781
5781 5800 5801 5782
5782 5801 223 222
361 10 419 5783
5783 419 420 5784
5784 420 421 5785
5785 421 422 5786
5786 422 423 5787
5787 423 424 5788
5788 424 425 5789
5789 425 426 5790
5790 426 427 5791
5791 427 428 5792
5792 428 429 5793
5793 429 430 5794
5794 430 431 5795
5795 431 432 5796
5796 432 433 5797
5797 433 434 5798
5798 434 435 5799
5799 435 436 5800
5800 436 437 5801
5801 437 8 223
</DataArray>
<DataArray type="Int64" Name="offsets" format="ascii">
4
8
12
16
20
24
28
32
36
40
44
48
52
56
60
64
68
72
76
80
84
88
92
96
100
104
108
112
116
120
124
128
132
136
140
144
148
152
156
160
164
168
172
176
180
184
188
192
196
200
204
208
212
216
220
224
228
232
236
240
244
248
252
256
260
264
268
272
276
280
284
288
292
296
300
304
308
312
316
320
324
328
332
336
340
344
348
352
356
360
364
368
372
376
380
384
388
392
396
400
404
408
412
416
420
424
428
432
436
440
444
448
452
456
460
464
468
472
476
480
484
488
492
496
500
504
508
512
516
520
524
528
532
536
540
544
548
552
556
560
564
568
572
576
580
584
588
592
596
600
604
608
612
616
620
624
628
632
636
640
644
648
652
656
660
664
668
672
676
680
684
688
692
696
700
704
708
712
716
720
724
728
732
736
740
744
748
752
756
760
764
768
772
776
780
784
788
792
796
800
804
808
812
816
820
824
828
832
836
840
844
848
852
856
860
864
868
872
876
880
884
888
892
896
900
904
908
912
916
920
924
928
932
936
940
944
948
952
956
960
964
968
972
976
980
984
988
992
996
1000
1004
1008
1012
1016
1020
1024
1028
1032
1036
1040
1044
1048
1052
1056
1060
1064
1068
1072
1076
1080
1084
1088
1092
1096
1100
1104
1108
1112
1116
1120
1124
1128
1132
1136
1140
1144
1148
1152
1156
1160
1164
1168
1172
1176
1180
1184
1188
1192
1196
1200
1204
1208
1212
1216
1220
1224
1228
1232
1236
1240
1244
1248
1252
1256
1260
1264
1268
1272
1276
1280
1284
1288
1292
1296
1300
1304
1308
1312
1316
1320
1324
1328
1332
1336
1340
1344
1348
1352
1356
1360
1364
1368
1372
1376
1380
1384
1388
1392
1396
1400
1404
1408
1412
1416
1420
1424
1428
1432
1436
1440
1444
1448
1452
1456
1460
1464
1468
1472
1476
1480
1484
1488
1492
1496
1500
1504
1508
1512
1516
1520
1524
1528
1532
1536
1540
1544
1548
1552
1556
1560
1564
1568
1572
1576
1580
1584
1588
1592
1596
1600
1604
1608
1612
1616
1620
1624
1628
1632
1636
1640
1644
1648
1652
1656
1660
1664
1668
1672
1676
1680
1684
1688
1692
1696
1700
1704
1708
1712
1716
1720
1724
1728
1732
1736
1740
1744
1748
1752
1756
1760
1764
1768
1772
1776
1780
1784
1788
1792
1796
1800
1804
1808
1812
1816
1820
1824
1828
1832
1836
1840
1844
1848
1852
1856
1860
1864
1868
1872
1876
1880
1884
1888
1892
1896
1900
1904
1908
1912
1916
1920
1924
1928
1932
1936
1940
1944
1948
1952
1956
1960
1964
1968
1972
1976
1980
1984
1988
1992
1996
2000
2004
2008
2012
2016
2020
2024
2028
2032
2036
2040
2044
2048
2052
2056
2060
2064
2068
2072
2076
2080
2084
2088
2092
2096
2100
2104
2108
2112
2116
2120
2124
2128
2132
2136
2140
2144
2148
2152
2156
2160
2164
2168
2172
2176
2180
2184
2188
2192
2196
2200
2204
2208
2212
2216
2220
2224
2228
2232
2236
2240
2244
2248
2252
2256
2260
2264
2268
2272
2276
2280
2284
2288
2292
2296
2300
2304
2308
2312
2316
2320
2324
2328
2332
2336
2340
2344
2348
2352
2356
2360
2364
2368
2372
2376
2380
2384
2388
2392
2396
2400
2404
2408
2412
2416
2420
2424
2428
2432
2436
2440
2444
2448
2452
2456
2460
2464
2468
2472
2476
2480
2484
2488
2492
2496
2500
2504
2508
2512
2516
2520
2524
2528
2532
2536
2540
2544
2548
2552
2556
2560
2564
2568
2572
2576
2580
2584
2588
2592
2596
2600
2604
2608
2612
2616
2620
2624
2628
2632
2636
2640
2644
2648
2652
2656
2660
2664
2668
2672
2676
2680
2684
2688
2692
2696
2700
2704
2708
2712
2716
2720
2724
2728
2732
2736
2740
2744
2748
2752
2756
2760
2764
2768
2772
2776
2780
2784
2788
2792
2796
2800
2804
2808
2812
2816
2820
2824
2828
2832
2836
2840
2844
2848
2852
2856
2860
2864
2868
2872
2876
2880
2884
2888
2892
2896
2900
2904
2908
2912
2916
2920
2924
2928
2932
2936
2940
2944
2948
2952
2956
2960
2964
2968
2972
2976
2980
2984
2988
2992
2996
3000
3004
3008
3012
3016
3020
3024
3028
3032
3036
3040
3044
3048
3052
3056
3060
3064
3068
3072
3076
3080
3084
3088
3092
3096
3100
3104
3108
3112
3116
3120
3124
3128
3132
3136
3140
3144
3148
3152
3156
3160
3164
3168
3172
3176
3180
3184
3188
3192
3196
3200
3204
3208
3212
3216
3220
3224
3228
3232
3236
3240
3244
3248
3252
3256
3260
3264
3268
3272
3276
3280
3284
3288
3292
3296
3300
3304
3308
3312
3316
3320
3324
3328
3332
3336
3340
3344
3348
3352
3356
3360
3364
3368
3372
3376
3380
3384
3388
3392
3396
3400
3404
3408
3412
3416
3420
3424
3428
3432
3436
3440
3444
3448
3452
3456
3460
3464
3468
3472
3476
3480
3484
3488
3492
3496
3500
3504
3508
3512
3516
3520
3524
3528
3532
3536
3540
3544
3548
3552
3556
3560
3564
3568
3572
3576
3580
3584
3588
3592
3596
3600
3604
3608
3612
3616
3620
3624
3628
3632
3636
3640
3644
3648
3652
3656
3660
3664
3668
3672
3676
3680
3684
3688
3692
3696
3700
3704
3708
3712
3716
3720
3724
3728
3732
3736
3740
3744
3748
3752
3756
3760
3764
3768
3772
3776
3780
3784
3788
3792
3796
3800
3804
3808
3812
3816
3820
3824
3828
3832
3836
3840
3844
3848
3852
3856
3860
3864
3868
3872
3876
3880
3884
3888
3892
3896
3900
3904
3908
3912
3916
3920
3924
3928
3932
3936
3940
3944
3948
3952
3956
3960
3964
3968
3972
3976
3980
3984
3988
3992
3996
4000
4004
4008
4012
4016
4020
4024
4028
4032
4036
4040
4044
4048
4052
4056
4060
4064
4068
4072
4076
4080
4084
4088
4092
4096
4100
4104
4108
4112
4116
4120
4124
4128
4132
4136
4140
4144
4148
4152
4156
4160
4164
4168
4172
4176
4180
4184
4188
4192
4196
4200
4204
4208
4212
4216
4220
4224
4228
4232
4236
4240
4244
4248
4252
4256
4260
4264
4268
4272
4276
4280
4284
4288
4292
4296
4300
4304
4308
4312
4316
4320
4324
4328
4332
4336
4340
4344
4348
4352
4356
4360
4364
4368
4372
4376
4380
4384
4388
4392
4396
4400
4404
4408
4412
4416
4420
4424
4428
4432
4436
4440
4444
4448
4452
4456
4460
4464
4468
4472
4476
4480
4484
4488
4492
4496
4500
4504
4508
4512
4516
4520
4524
4528
4532
4536
4540
4544
4548
4552
4556
4560
4564
4568
4572
4576
4580
4584
4588
4592
4596
4600
4604
4608
4612
4616
4620
4624
4628
4632
4636
4640
4644
4648
4652
4656
4660
4664
4668
4672
4676
4680
4684
4688
4692
4696
4700
4704
4708
4712
4716
4720
4724
4728
4732
4736
4740
4744
4748
4752
4756
4760
4764
4768
4772
4776
4780
4784
4788
4792
4796
4800
4804
4808
4812
4816
4820
4824
4828
4832
4836
4840
4844
4848
4852
4856
4860
4864
4868
4872
4876
4880
4884
4888
4892
4896
4900
4904
4908
4912
4916
4920
4924
4928
4932
4936
4940
4944
4948
4952
4956
4960
4964
4968
4972
4976
4980
4984
4988
4992
4996
5000
5004
5008
5012
5016
5020
5024
5028
5032
5036
5040
5044
5048
5052
5056
5060
5064
5068
5072
5076
5080
5084
5088
5092
5096
5100
5104
5108
5112
5116
5120
5124
5128
5132
5136
5140
5144
5148
5152
5156
5160
5164
5168
5172
5176
5180
5184
5188
5192
5196
5200
5204
5208
5212
5216
5220
5224
5228
5232
5236
5240
5244
5248
5252
5256
5260
5264
5268
5272
5276
5280
5284
5288
5292
5296
5300
5304
5308
5312
5316
5320
5324
5328
5332
5336
5340
5344
5348
5352
5356
5360
5364
5368
5372
5376
5380
5384
5388
5392
5396
5400
5404
5408
5412
5416
5420
5424
5428
5432
5436
5440
5444
5448
5452
5456
5460
5464
5468
5472
5476
5480
5484
5488
5492
5496
5500
5504
5508
5512
5516
5520
5524
5528
5532
5536
5540
5544
5548
5552
5556
5560
5564
5568
5572
5576
5580
5584
5588
5592
5596
5600
5604
5608
5612
5616
5620
5624
5628
5632
5636
5640
5644
5648
5652
5656
5660
5664
5668
5672
5676
5680
5684
5688
5692
5696
5700
5704
5708
5712
5716
5720
5724
5728
5732
5736
5740
5744
5748
5752
5756
5760
5764
5768
5772
5776
5780
5784
5788
5792
5796
5800
5804
5808
5812
5816
5820
5824
5828
5832
5836
5840
5844
5848
5852
5856
5860
5864
5868
5872
5876
5880
5884
5888
5892
5896
5900
5904
5908
5912
5916
5920
5924
5928
5932
5936
5940
5944
5948
5952
5956
5960
5964
5968
5972
5976
5980
5984
5988
5992
5996
6000
6004
6008
6012
6016
6020
6024
6028
6032
6036
6040
6044
6048
6052
6056
6060
6064
6068
6072
6076
6080
6084
6088
6092
6096
6100
6104
6108
6112
6116
6120
6124
6128
6132
6136
6140
6144
6148
6152
6156
6160
6164
6168
6172
6176
6180
6184
6188
6192
6196
6200
6204
6208
6212
6216
6220
6224
6228
6232
6236
6240
6244
6248
6252
6256
6260
6264
6268
6272
6276
6280
6284
6288
6292
6296
6300
6304
6308
6312
6316
6320
6324
6328
6332
6336
6340
6344
6348
6352
6356
6360
6364
6368
6372
6376
6380
6384
6388
6392
6396
6400
6404
6408
6412
6416
6420
6424
6428
6432
6436
6440
6444
6448
6452
6456
6460
6464
6468
6472
6476
6480
6484
6488
6492
6496
6500
6504
6508
6512
6516
6520
6524
6528
6532
6536
6540
6544
6548
6552
6556
6560
6564
6568
6572
6576
6580
6584
6588
6592
6596
6600
6604
6608
6612
6616
6620
6624
6628
6632
6636
6640
6644
6648
6652
6656
6660
6664
6668
6672
6676
6680
6684
6688
6692
6696
6700
6704
6708
6712
6716
6720
6724
6728
6732
6736
6740
6744
6748
6752
6756
6760
6764
6768
6772
6776
6780
6784
6788
6792
6796
6800
6804
6808
6812
6816
6820
6824
6828
6832
6836
6840
6844
6848
6852
6856
6860
6864
6868
6872
6876
6880
6884
6888
6892
6896
6900
6904
6908
6912
6916
6920
6924
6928
6932
6936
6940
6944
6948
6952
6956
6960
6964
6968
6972
6976
6980
6984
6988
6992
6996
7000
7004
7008
7012
7016
7020
7024
7028
7032
7036
7040
7044
7048
7052
7056
7060
7064
7068
7072
7076
7080
7084
7088
7092
7096
7100
7104
7108
7112
7116
7120
7124
7128
7132
7136
7140
7144
7148
7152
7156
7160
7164
7168
7172
7176
7180
7184
7188
7192
7196
7200
7204
7208
7212
7216
7220
7224
7228
7232
7236
7240
7244
7248
7252
7256
7260
7264
7268
7272
7276
7280
7284
7288
7292
7296
7300
7304
7308
7312
7316
7320
7324
7328
7332
7336
7340
7344
7348
7352
7356
7360
7364
7368
7372
7376
7380
7384
7388
7392
7396
7400
7404
7408
7412
7416
7420
7424
7428
7432
7436
7440
7444
7448
7452
7456
7460
7464
7468
7472
7476
7480
7484
7488
7492
7496
7500
7504
7508
7512
7516
7520
7524
7528
7532
7536
7540
7544
7548
7552
7556
7560
7564
7568
7572
7576
7580
7584
7588
7592
7596
7600
7604
7608
7612
7616
7620
7624
7628
7632
7636
7640
7644
7648
7652
7656
7660
7664
7668
7672
7676
7680
7684
7688
7692
7696
7700
7704
7708
7712
7716
7720
7724
7728
7732
7736
7740
7744
7748
7752
7756
7760
7764
7768
7772
7776
7780
7784
7788
7792
7796
7800
7804
7808
7812
7816
7820
7824
7828
7832
7836
7840
7844
7848
7852
7856
7860
7864
7868
7872
7876
7880
7884
7888
7892
7896
7900
7904
7908
7912
7916
7920
7924
7928
7932
7936
7940
7944
7948
7952
7956
7960
7964
7968
7972
7976
7980
7984
7988
7992
7996
8000
8004
8008
8012
8016
8020
8024
8028
8032
8036
8040
8044
8048
8052
8056
8060
8064
8068
8072
8076
8080
8084
8088
8092
8096
8100
8104
8108
8112
8116
8120
8124
8128
8132
8136
8140
8144
8148
8152
8156
8160
8164
8168
8172
8176
8180
8184
8188
8192
8196
8200
8204
8208
8212
8216
8220
8224
8228
8232
8236
8240
8244
8248
8252
8256
8260
8264
8268
8272
8276
8280
8284
8288
8292
8296
8300
8304
8308
8312
8316
8320
8324
8328
8332
8336
8340
8344
8348
8352
8356
8360
8364
8368
8372
8376
8380
8384
8388
8392
8396
8400
8404
8408
8412
8416
8420
8424
8428
8432
8436
8440
8444
8448
8452
8456
8460
8464
8468
8472
8476
8480
8484
8488
8492
8496
8500
8504
8508
8512
8516
8520
8524
8528
8532
8536
8540
8544
8548
8552
8556
8560
8564
8568
8572
8576
8580
8584
8588
8592
8596
8600
8604
8608
8612
8616
8620
8624
8628
8632
8636
8640
8644
8648
8652
8656
8660
8664
8668
8672
8676
8680
8684
8688
8692
8696
8700
8704
8708
8712
8716
8720
8724
8728
8732
8736
8740
8744
8748
8752
8756
8760
8764
8768
8772
8776
8780
8784
8788
8792
8796
8800
8804
8808
8812
8816
8820
8824
8828
8832
8836
8840
8844
8848
8852
8856
8860
8864
8868
8872
8876
8880
8884
8888
8892
8896
8900
8904
8908
8912
8916
8920
8924
8928
8932
8936
8940
8944
8948
8952
8956
8960
8964
8968
8972
8976
8980
8984
8988
8992
8996
9000
9004
9008
9012
9016
9020
9024
9028
9032
9036
9040
9044
9048
9052
9056
9060
9064
9068
9072
9076
9080
9084
9088
9092
9096
9100
9104
9108
9112
9116
9120
9124
9128
9132
9136
9140
9144
9148
9152
9156
9160
9164
9168
9172
9176
9180
9184
9188
9192
9196
9200
9204
9208
9212
9216
9220
9224
9228
9232
9236
9240
9244
9248
9252
9256
9260
9264
9268
9272
9276
9280
9284
9288
9292
9296
9300
9304
9308
9312
9316
9320
9324
9328
9332
9336
9340
9344
9348
9352
9356
9360
9364
9368
9372
9376
9380
9384
9388
9392
9396
9400
9404
9408
9412
9416
9420
9424
9428
9432
9436
9440
9444
9448
9452
9456
9460
9464
9468
9472
9476
9480
9484
9488
9492
9496
9500
9504
9508
9512
9516
9520
9524
9528
9532
9536
9540
9544
9548
9552
9556
9560
9564
9568
9572
9576
9580
9584
9588
9592
9596
9600
9604
9608
9612
9616
9620
9624
9628
9632
9636
9640
9644
9648
9652
9656
9660
9664
9668
9672
9676
9680
9684
9688
9692
9696
9700
9704
9708
9712
9716
9720
9724
9728
9732
9736
9740
9744
9748
9752
9756
9760
9764
9768
9772
9776
9780
9784
9788
9792
9796
9800
9804
9808
9812
9816
9820
9824
9828
9832
9836
9840
9844
9848
9852
9856
9860
9864
9868
9872
9876
9880
9884
9888
9892
9896
9900
9904
9908
9912
9916
9920
9924
9928
9932
9936
9940
9944
9948
9952
9956
9960
9964
9968
9972
9976
9980
9984
9988
9992
9996
10000
10004
10008
10012
10016
10020
10024
10028
10032
10036
10040
10044
10048
10052
10056
10060
10064
10068
10072
10076
10080
10084
10088
10092
10096
10100
10104
10108
10112
10116
10120
10124
10128
10132
10136
10140
10144
10148
10152
10156
10160
10164
10168
10172
10176
10180
10184
10188
10192
10196
10200
10204
10208
10212
10216
10220
10224
10228
10232
10236
10240
10244
10248
10252
10256
10260
10264
10268
10272
10276
10280
10284
10288
10292
10296
10300
10304
10308
10312
10316
10320
10324
10328
10332
10336
10340
10344
10348
10352
10356
10360
10364
10368
10372
10376
10380
10384
10388
10392
10396
10400
10404
10408
10412
10416
10420
10424
10428
10432
10436
10440
10444
10448
10452
10456
10460
10464
10468
10472
10476
10480
10484
10488
10492
10496
10500
10504
10508
10512
10516
10520
10524
10528
10532
10536
10540
10544
10548
10552
10556
10560
10564
10568
10572
10576
10580
10584
10588
10592
10596
10600
10604
10608
10612
10616
10620
10624
10628
10632
10636
10640
10644
10648
10652
10656
10660
10664
10668
10672
10676
10680
10684
10688
10692
10696
10700
10704
10708
10712
10716
10720
10724
10728
10732
10736
10740
10744
10748
10752
10756
10760
10764
10768
10772
10776
10780
10784
10788
10792
10796
10800
10804
10808
10812
10816
10820
10824
10828
10832
10836
10840
10844
10848
10852
10856
10860
10864
10868
10872
10876
10880
10884
10888
10892
10896
10900
10904
10908
10912
10916
10920
10924
10928
10932
10936
10940
10944
10948
10952
10956
10960
10964
10968
10972
10976
10980
10984
10988
10992
10996
11000
11004
11008
11012
11016
11020
11024
11028
11032
11036
11040
11044
11048
11052
11056
11060
11064
11068
11072
11076
11080
11084
11088
11092
11096
11100
11104
11108
11112
11116
11120
11124
11128
11132
11136
11140
11144
11148
11152
11156
11160
11164
11168
11172
11176
11180
11184
11188
11192
11196
11200
11204
11208
11212
11216
11220
11224
11228
11232
11236
11240
11244
11248
11252
11256
11260
11264
11268
11272
11276
11280
11284
11288
11292
11296
11300
11304
11308
11312
11316
11320
11324
11328
11332
11336
11340
11344
11348
11352
11356
11360
11364
11368
11372
11376
11380
11384
11388
11392
11396
11400
11404
11408
11412
11416
11420
11424
11428
11432
11436
11440
11444
11448
11452
11456
11460
11464
11468
11472
11476
11480
11484
11488
11492
11496
11500
11504
11508
11512
11516
11520
11524
11528
11532
11536
11540
11544
11548
11552
11556
11560
11564
11568
11572
11576
11580
11584
11588
11592
11596
11600
11604
11608
11612
11616
11620
11624
11628
11632
11636
11640
11644
11648
11652
11656
11660
11664
11668
11672
11676
11680
11684
11688
11692
11696
11700
11704
11708
11712
11716
11720
11724
11728
11732
11736
11740
11744
11748
11752
11756
11760
11764
11768
11772
11776
11780
11784
11788
11792
11796
11800
11804
11808
11812
11816
11820
11824
11828
11832
11836
11840
11844
11848
11852
11856
11860
11864
11868
11872
11876
11880
11884
11888
11892
11896
11900
11904
11908
11912
11916
11920
11924
11928
11932
11936
11940
11944
11948
11952
11956
11960
11964
11968
11972
11976
11980
11984
11988
11992
11996
12000
12004
12008
12012
12016
12020
12024
12028
12032
12036
12040
12044
12048
12052
12056
12060
12064
12068
12072
12076
12080
12084
12088
12092
12096
12100
12104
12108
12112
12116
12120
12124
12128
12132
12136
12140
12144
12148
12152
12156
12160
12164
12168
12172
12176
12180
12184
12188
12192
12196
12200
12204
12208
12212
12216
12220
12224
12228
12232
12236
12240
12244
12248
12252
12256
12260
12264
12268
12272
12276
12280
12284
12288
12292
12296
12300
12304
12308
12312
12316
12320
12324
12328
12332
12336
12340
12344
12348
12352
12356
12360
12364
12368
12372
12376
12380
12384
12388
12392
12396
12400
12404
12408
12412
12416
12420
12424
12428
12432
12436
12440
12444
12448
12452
12456
12460
12464
12468
12472
12476
12480
12484
12488
12492
12496
12500
12504
12508
12512
12516
12520
12524
12528
12532
12536
12540
12544
12548
12552
12556
12560
12564
12568
12572
12576
12580
12584
12588
12592
12596
12600
12604
12608
12612
12616
12620
12624
12628
12632
12636
12640
12644
12648
12652
12656
12660
12664
12668
12672
12676
12680
12684
12688
12692
12696
12700
12704
12708
12712
12716
12720
12724
12728
12732
12736
12740
12744
12748
12752
12756
12760
12764
12768
12772
12776
12780
12784
12788
12792
12796
12800
12804
12808
12812
12816
12820
12824
12828
12832
12836
12840
12844
12848
12852
12856
12860
12864
12868
12872
12876
12880
12884
12888
12892
12896
12900
12904
12908
12912
12916
12920
12924
12928
12932
12936
12940
12944
12948
12952
12956
12960
12964
12968
12972
12976
12980
12984
12988
12992
12996
13000
13004
13008
13012
13016
13020
13024
13028
13032
13036
13040
13044
13048
13052
13056
13060
13064
13068
13072
13076
13080
13084
13088
13092
13096
13100
13104
13108
13112
13116
13120
13124
13128
13132
13136
13140
13144
13148
13152
13156
13160
13164
13168
13172
13176
13180
13184
13188
13192
13196
13200
13204
13208
13212
13216
13220
13224
13228
13232
13236
13240
13244
13248
13252
13256
13260
13264
13268
13272
13276
13280
13284
13288
13292
13296
13300
13304
13308
13312
13316
13320
13324
13328
13332
13336
13340
13344
13348
13352
13356
13360
13364
13368
13372
13376
13380
13384
13388
13392
13396
13400
13404
13408
13412
13416
13420
13424
13428
13432
13436
13440
13444
13448
13452
13456
13460
13464
13468
13472
13476
13480
13484
13488
13492
13496
13500
13504
13508
13512
13516
13520
13524
13528
13532
13536
13540
13544
13548
13552
13556
13560
13564
13568
13572
13576
13580
13584
13588
13592
13596
13600
13604
13608
13612
13616
13620
13624
13628
13632
13636
13640
13644
13648
13652
13656
13660
13664
13668
13672
13676
13680
13684
13688
13692
13696
13700
13704
13708
13712
13716
13720
13724
13728
13732
13736
13740
13744
13748
13752
13756
13760
13764
13768
13772
13776
13780
13784
13788
13792
13796
13800
13804
13808
13812
13816
13820
13824
13828
13832
13836
13840
13844
13848
13852
13856
13860
13864
13868
13872
13876
13880
13884
13888
13892
13896
13900
13904
13908
13912
13916
13920
13924
13928
13932
13936
13940
13944
13948
13952
13956
13960
13964
13968
13972
13976
13980
13984
13988
13992
13996
14000
14004
14008
14012
14016
14020
14024
14028
14032
14036
14040
14044
14048
14052
14056
14060
14064
14068
14072
14076
14080
14084
14088
14092
14096
14100
14104
14108
14112
14116
14120
14124
14128
14132
14136
14140
14144
14148
14152
14156
14160
14164
14168
14172
14176
14180
14184
14188
14192
14196
14200
14204
14208
14212
14216
14220
14224
14228
14232
14236
14240
14244
14248
14252
14256
14260
14264
14268
14272
14276
14280
14284
14288
14292
14296
14300
14304
14308
14312
14316
14320
14324
14328
14332
14336
14340
14344
14348
14352
14356
14360
14364
14368
14372
14376
14380
14384
14388
14392
14396
14400
14404
14408
14412
14416
14420
14424
14428
14432
14436
14440
14444
14448
14452
14456
14460
14464
14468
14472
14476
14480
14484
14488
14492
14496
14500
14504
14508
14512
14516
14520
14524
14528
14532
14536
14540
14544
14548
14552
14556
14560
14564
14568
14572
14576
14580
14584
14588
14592
14596
14600
14604
14608
14612
14616
14620
14624
14628
14632
14636
14640
14644
14648
14652
14656
14660
14664
14668
14672
14676
14680
14684
14688
14692
14696
14700
14704
14708
14712
14716
14720
14724
14728
14732
14736
14740
14744
14748
14752
14756
14760
14764
14768
14772
14776
14780
14784
14788
14792
14796
14800
14804
14808
14812
14816
14820
14824
14828
14832
14836
14840
14844
14848
14852
14856
14860
14864
14868
14872
14876
14880
14884
14888
14892
14896
14900
14904
14908
14912
14916
14920
14924
14928
14932
14936
14940
14944
14948
14952
14956
14960
14964
14968
14972
14976
14980
14984
14988
14992
14996
15000
15004
15008
15012
15016
15020
15024
15028
15032
15036
15040
15044
15048
15052
15056
15060
15064
15068
15072
15076
15080
15084
15088
15092
15096
15100
15104
15108
15112
15116
15120
15124
15128
15132
15136
15140
15144
15148
15152
15156
15160
15164
15168
15172
15176
15180
15184
15188
15192
15196
15200
15204
15208
15212
15216
15220
15224
15228
15232
15236
15240
15244
15248
15252
15256
15260
15264
15268
15272
15276
15280
15284
15288
15292
15296
15300
15304
15308
15312
15316
15320
15324
15328
15332
15336
15340
15344
15348
15352
15356
15360
15364
15368
15372
15376
15380
15384
15388
15392
15396
15400
15404
15408
15412
15416
15420
15424
15428
15432
15436
15440
15444
15448
15452
15456
15460
15464
15468
15472
15476
15480
15484
15488
15492
15496
15500
15504
15508
15512
15516
15520
15524
15528
15532
15536
15540
15544
15548
15552
15556
15560
15564
15568
15572
15576
15580
15584
15588
15592
15596
15600
15604
15608
15612
15616
15620
15624
15628
15632
15636
15640
15644
15648
15652
15656
15660
15664
15668
15672
15676
15680
15684
15688
15692
15696
15700
15704
15708
15712
15716
15720
15724
15728
15732
15736
15740
15744
15748
15752
15756
15760
15764
15768
15772
15776
15780
15784
15788
15792
15796
15800
15804
15808
15812
15816
15820
15824
15828
15832
15836
15840
15844
15848
15852
15856
15860
15864
15868
15872
15876
15880
15884
15888
15892
15896
15900
15904
15908
15912
15916
15920
15924
15928
15932
15936
15940
15944
15948
15952
15956
15960
15964
15968
15972
15976
15980
15984
15988
15992
15996
16000
16004
16008
16012
16016
16020
16024
16028
16032
16036
16040
16044
16048
16052
16056
16060
16064
16068
16072
16076
16080
16084
16088
16092
16096
16100
16104
16108
16112
16116
16120
16124
16128
16132
16136
16140
16144
16148
16152
16156
16160
16164
16168
16172
16176
16180
16184
16188
16192
16196
16200
16204
16208
16212
16216
16220
16224
16228
16232
16236
16240
16244
16248
16252
16256
16260
16264
16268
16272
16276
16280
16284
16288
16292
16296
16300
16304
16308
16312
16316
16320
16324
16328
16332
16336
16340
16344
16348
16352
16356
16360
16364
16368
16372
16376
16380
16384
16388
16392
16396
16400
16404
16408
16412
16416
16420
16424
16428
16432
16436
16440
16444
16448
16452
16456
16460
16464
16468
16472
16476
16480
16484
16488
16492
16496
16500
16504
16508
16512
16516
16520
16524
16528
16532
16536
16540
16544
16548
16552
16556
16560
16564
16568
16572
16576
16580
16584
16588
16592
16596
16600
16604
16608
16612
16616
16620
16624
16628
16632
16636
16640
16644
16648
16652
16656
16660
16664
16668
16672
16676
16680
16684
16688
16692
16696
16700
16704
16708
16712
16716
16720
16724
16728
16732
16736
16740
16744
16748
16752
16756
16760
16764
16768
16772
16776
16780
16784
16788
16792
16796
16800
16804
16808
16812
16816
16820
16824
16828
16832
16836
16840
16844
16848
16852
16856
16860
16864
16868
16872
16876
16880
16884
16888
16892
16896
16900
16904
16908
16912
16916
16920
16924
16928
16932
16936
16940
16944
16948
16952
16956
16960
16964
16968
16972
16976
16980
16984
16988
16992
16996
17000
17004
17008
17012
17016
17020
17024
17028
17032
17036
17040
17044
17048
17052
17056
17060
17064
17068
17072
17076
17080
17084
17088
17092
17096
17100
17104
17108
17112
17116
17120
17124
17128
17132
17136
17140
17144
17148
17152
17156
17160
17164
17168
17172
17176
17180
17184
17188
17192
17196
17200
17204
17208
17212
17216
17220
17224
17228
17232
17236
17240
17244
17248
17252
17256
17260
17264
17268
17272
17276
17280
17284
17288
17292
17296
17300
17304
17308
17312
17316
17320
17324
17328
17332
17336
17340
17344
17348
17352
17356
17360
17364
17368
17372
17376
17380
17384
17388
17392
17396
17400
17404
17408
17412
17416
17420
17424
17428
17432
17436
17440
17444
17448
17452
17456
17460
17464
17468
17472
17476
17480
17484
17488
17492
17496
17500
17504
17508
17512
17516
17520
17524
17528
17532
17536
17540
17544
17548
17552
17556
17560
17564
17568
17572
17576
17580
17584
17588
17592
17596
17600
17604
17608
17612
17616
17620
17624
17628
17632
17636
17640
17644
17648
17652
17656
17660
17664
17668
17672
17676
17680
17684
17688
17692
17696
17700
17704
17708
17712
17716
17720
17724
17728
17732
17736
17740
17744
17748
17752
17756
17760
17764
17768
17772
17776
17780
17784
17788
17792
17796
17800
17804
17808
17812
17816
17820
17824
17828
17832
17836
17840
17844
17848
17852
17856
17860
17864
17868
17872
17876
17880
17884
17888
17892
17896
17900
17904
17908
17912
17916
17920
17924
17928
17932
17936
17940
17944
17948
17952
17956
17960
17964
17968
17972
17976
17980
17984
17988
17992
17996
18000
18004
18008
18012
18016
18020
18024
18028
18032
18036
18040
18044
18048
18052
18056
18060
18064
18068
18072
18076
18080
18084
18088
18092
18096
18100
18104
18108
18112
18116
18120
18124
18128
18132
18136
18140
18144
18148
18152
18156
18160
18164
18168
18172
18176
18180
18184
18188
18192
18196
18200
18204
18208
18212
18216
18220
18224
18228
18232
18236
18240
18244
18248
18252
18256
18260
18264
18268
18272
18276
18280
18284
18288
18292
18296
18300
18304
18308
18312
18316
18320
18324
18328
18332
18336
18340
18344
18348
18352
18356
18360
18364
18368
18372
18376
18380
18384
18388
18392
18396
18400
18404
18408
18412
18416
18420
18424
18428
18432
18436
18440
18444
18448
18452
18456
18460
18464
18468
18472
18476
18480
18484
18488
18492
18496
18500
18504
18508
18512
18516
18520
18524
18528
18532
18536
18540
18544
18548
18552
18556
18560
18564
18568
18572
18576
18580
18584
18588
18592
18596
18600
18604
18608
18612
18616
18620
18624
18628
18632
18636
18640
18644
18648
18652
18656
18660
18664
18668
18672
18676
18680
18684
18688
18692
18696
18700
18704
18708
18712
18716
18720
18724
18728
18732
18736
18740
18744
18748
18752
18756
18760
18764
18768
18772
18776
18780
18784
18788
18792
18796
18800
18804
18808
18812
18816
18820
18824
18828
18832
18836
18840
18844
18848
18852
18856
18860
18864
18868
18872
18876
18880
18884
18888
18892
18896
18900
18904
18908
18912
18916
18920
18924
18928
18932
18936
18940
18944
18948
18952
18956
18960
18964
18968
18972
18976
18980
18984
18988
18992
18996
19000
19004
19008
19012
19016
19020
19024
19028
19032
19036
19040
19044
19048
19052
19056
19060
19064
19068
19072
19076
19080
19084
19088
19092
19096
19100
19104
19108
19112
19116
19120
19124
19128
19132
19136
19140
19144
19148
19152
19156
19160
19164
19168
19172
19176
19180
19184
19188
19192
19196
19200
19204
19208
19212
19216
19220
19224
19228
19232
19236
19240
19244
19248
19252
19256
19260
19264
19268
19272
19276
19280
19284
19288
19292
19296
19300
19304
19308
19312
19316
19320
19324
19328
19332
19336
19340
19344
19348
19352
19356
19360
19364
19368
19372
19376
19380
19384
19388
19392
19396
19400
19404
19408
19412
19416
19420
19424
19428
19432
19436
19440
19444
19448
19452
19456
19460
19464
19468
19472
19476
19480
19484
19488
19492
19496
19500
19504
19508
19512
19516
19520
19524
19528
19532
19536
19540
19544
19548
19552
19556
19560
19564
19568
19572
19576
19580
19584
19588
19592
19596
19600
19604
19608
19612
19616
19620
19624
19628
19632
19636
19640
19644
19648
19652
19656
19660
19664
19668
19672
19676
19680
19684
19688
19692
19696
19700
19704
19708
19712
19716
19720
19724
19728
19732
19736
19740
19744
19748
19752
19756
19760
19764
19768
19772
19776
19780
19784
19788
19792
19796
19800
19804
19808
19812
19816
19820
19824
19828
19832
19836
19840
19844
19848
19852
19856
19860
19864
19868
19872
19876
19880
19884
19888
19892
19896
19900
19904
19908
19912
19916
19920
19924
19928
19932
19936
19940
19944
19948
19952
19956
19960
19964
19968
19972
19976
19980
19984
19988
19992
19996
20000
20004
20008
20012
20016
20020
20024
20028
20032
20036
20040
20044
20048
20052
20056
20060
20064
20068
20072
20076
20080
20084
20088
20092
20096
20100
20104
20108
20112
20116
20120
20124
20128
20132
20136
20140
20144
20148
20152
20156
20160
20164
20168
20172
20176
20180
20184
20188
20192
20196
20200
20204
20208
20212
20216
20220
20224
20228
20232
20236
20240
20244
20248
20252
20256
20260
20264
20268
20272
20276
20280
20284
20288
20292
20296
20300
20304
20308
20312
20316
20320
20324
20328
20332
20336
20340
20344
20348
20352
20356
20360
20364
20368
20372
20376
20380
20384
20388
20392
20396
20400
20404
20408
20412
20416
20420
20424
20428
20432
20436
20440
20444
20448
20452
20456
20460
20464
20468
20472
20476
20480
20484
20488
20492
20496
20500
20504
20508
20512
20516
20520
20524
20528
20532
20536
20540
20544
20548
20552
20556
20560
20564
20568
20572
20576
20580
20584
20588
20592
20596
20600
20604
20608
20612
20616
20620
20624
20628
20632
20636
20640
20644
20648
20652
20656
20660
20664
20668
20672
20676
20680
20684
20688
20692
20696
20700
20704
20708
20712
20716
20720
20724
20728
20732
20736
20740
20744
20748
20752
20756
20760
20764
20768
20772
20776
20780
20784
20788
20792
20796
20800
20804
20808
20812
20816
20820
20824
20828
20832
20836
20840
20844
20848
20852
20856
20860
20864
20868
20872
20876
20880
20884
20888
20892
20896
20900
20904
20908
20912
20916
20920
20924
20928
20932
20936
20940
20944
20948
20952
20956
20960
20964
20968
20972
20976
20980
20984
20988
20992
20996
21000
21004
21008
21012
21016
21020
21024
21028
21032
21036
21040
21044
21048
21052
21056
21060
21064
21068
21072
21076
21080
21084
21088
21092
21096
21100
21104
21108
21112
21116
21120
21124
21128
21132
21136
21140
21144
21148
21152
21156
21160
21164
21168
21172
21176
21180
21184
21188
21192
21196
21200
21204
21208
21212
21216
21220
21224
21228
21232
21236
21240
21244
21248
21252
21256
21260
21264
21268
21272
21276
21280
21284
21288
21292
21296
21300
21304
21308
21312
21316
21320
21324
21328
21332
21336
21340
21344
21348
21352
21356
21360
21364
21368
21372
21376
21380
21384
21388
21392
21396
21400
21404
21408
21412
21416
21420
21424
21428
21432
21436
21440
21444
21448
21452
21456
21460
21464
21468
21472
21476
21480
21484
21488
21492
21496
21500
21504
21508
21512
21516
21520
21524
21528
21532
21536
21540
21544
21548
21552
21556
21560
21564
21568
21572
21576
21580
21584
21588
21592
21596
21600
21604
21608
21612
21616
21620
21624
21628
21632
21636
21640
21644
21648
21652
21656
21660
21664
21668
21672
21676
21680
21684
21688
21692
21696
21700
21704
21708
21712
21716
21720
21724
21728
21732
21736
21740
21744
21748
21752
21756
21760
21764
21768
21772
21776
21780
21784
21788
21792
21796
21800
21804
21808
21812
21816
21820
21824
21828
21832
21836
21840
21844
21848
21852
21856
21860
21864
21868
21872
21876
21880
21884
21888
21892
21896
21900
21904
21908
21912
21916
21920
21924
21928
21932
21936
21940
21944
21948
21952
21956
21960
21964
21968
21972
21976
21980
21984
21988
21992
21996
22000
22004
22008
22012
22016
22020
22024
22028
22032
22036
22040
22044
22048
22052
22056
22060
22064
22068
22072
22076
22080
22084
22088
22092
22096
22100
22104
22108
22112
22116
22120
22124
22128
22132
22136
22140
22144
22148
22152
22156
22160
22164
22168
22172
22176
22180
22184
22188
22192
22196
22200
22204
22208
22212
22216
22220
22224
22228
22232
22236
22240
22244
22248
22252
22256
22260
22264
22268
22272
22276
22280
22284
22288
22292
22296
22300
22304
22308
22312
22316
22320
22324
22328
22332
22336
22340
22344
22348
22352
22356
22360
22364
22368
22372
22376
22380
22384
22388
22392
22396
22400
22404
22408
22412
22416
22420
22424
22428
22432
22436
22440
22444
22448
22452
22456
22460
22464
22468
22472
22476
22480
22484
22488
22492
22496
22500
22504
22508
22512
22516
22520
22524
22528
22532
22536
22540
22544
22548
22552
22556
22560
22564
22568
22572
22576
22580
22584
22588
22592
22596
22600
22604
22608
22612
22616
22620
22624
22628
22632
22636
22640
22644
22648
22652
22656
22660
22664
22668
22672
22676
22680
22684
22688
22692
22696
22700
22704
22708
22712
22716
22720
</DataArray>
<DataArray type="Int64" Name="types" format="ascii">
9
9
9
9
9
9
9
9
9
9
9
9
9
9
9
9
9
9
9
9
9
9
9
9
9
9
9
9
9
9
9
9
9
9
9
9
9
9
9
9
9
9
9
9
9
9
9
9
9
9
9
9
9
9
9
9
9
9
9
9
9
9
9
9
9
9
9
9
9
9
9
9
9
9
9
9
9
9
9
9
9
9
9
9
9
9
9
9
9
9
9
9
9
9
9
9
9
9
9
9
9
9
9
9
9
9
9
9
9
9
9
9
9
9
9
9
9
9
9
9
9
9
9
9
9
9
9
9
9
9
9
9
9
9
9
9
9
9
9
9
9
9
9
9
9
9
9
9
9
9
9
9
9
9
9
9
9
9
9
9
9
9
9
9
9
9
9
9
9
9
9
9
9
9
9
9
9
9
9
9
9
9
9
9
9
9
9
9
9
9
9
9
9
9
9
9
9
9
9
9
9
9
9
9
9
9
9
9
9
9
9
9
9
9
9
9
9
9
9
9
9
9
9
9
9
9
9
9
9
9
9
9
9
9
9
9
9
9
9
9
9
9
9
9
9
9
9
9
9
9
9
9
9
9
9
9
9
9
9
9
9
9
9
9
9
9
9
9
9
9
9
9
9
9
9
9
9
9
9
9
9
9
9
9
9
9
9
9
9
9
9
9
9
9
9
9
9
9
9
9
9
9
9
9
9
9
9
9
9
9
9
9
9
9
9
9
9
9
9
9
9
9
9
9
9
9
9
9
9
9
9
9
9
9
9
9
9
9
9
9
9
9
9
9
9
9
9
9
9
9
9
9
9
9
9
9
9
9
9
9
9
9
9
9
9
9
9
9
9
9
9
9
9
9
9
9
9
9
9
9
9
9
9
9
9
9
9
9
9
9
9
9
9
9
9
9
9
9
9
9
9
9
9
9
9
9
9
9
9
9
9
9
9
9
9
9
9
9
9
9
9
9
9
9
9
9
9
9
9
9
9
9
9
9
9
9
9
9
9
9
9
9
9
9
9
9
9
9
9
9
9
9
9
9
9
9
9
9
9
9
9
9
9
9
9
9
9
9
9
9
9
9
9
9
9
9
9
9
9
9
9
9
9
9
9
9
9
9
9
9
9
9
9
9
9
9
9
9
9
9
9
9
9
9
9
9
9
9
9
9
9
9
9
9
9
9
9
9
9
9
9
9
9
9
9
9
9
9
9
9
9
9
9
9
9
9
9
9
9
9
9
9
9
9
9
9
9
9
9
9
9
9
9
9
9
9
9
9
9
9
9
9
9
9
9
9
9
9
9
9
9
9
9
9
9
9
9
9
9
9
9
9
9
9
9
9
9
9
9
9
9
9
9
9
9
9
9
9
9
9
9
9
9
9
9
9
9
9
9
9
9
9
9
9
9
9
9
9
9
9
9
9
9
9
9
9
9
9
9
9
9
9
9
9
9
9
9
9
9
9
9
9
9
9
9
9
9
9
9
9
9
9
9
9
9
9
9
9
9
9
9
9
9
9
9
9
9
9
9
9
9
9
9
9
9
9
9
9
9
9
9
9
9
9
9
9
9
9
9
9
9
9
9
9
9
9
9
9
9
9
9
9
9
9
9
9
9
9
9
9
9
9
9
9
9
9
9
9
9
9
9
9
9
9
9
9
9
9
9
9
9
9
9
9
9
9
9
9
9
9
9
9
9
9
9
9
9
9
9
9
9
9
9
9
9
9
9
9
9
9
9
9
9
9
9
9
9
9
9
9
9
9
9
9
9
9
9
9
9
9
9
9
9
9
9
9
9
9
9
9
9
9
9
9
9
9
9
9
9
9
9
9
9
9
9
9
9
9
9
9
9
9
9
9
9
9
9
9
9
9
9
9
9
9
9
9
9
9
9
9
9
9
9
9
9
9
9
9
9
9
9
9
9
9
9
9
9
9
9
9
9
9
9
9
9
9
9
9
9
9
9
9
9
9
9
9
9
9
9
9
9
9
9
9
9
9
9
9
9
9
9
9
9
9
9
9
9
9
9
9
9
9
9
9
9
9
9
9
9
9
9
9
9
9
9
9
9
9
9
9
9
9
9
9
9
9
9
9
9
9
9
9
9
9
9
9
9
9
9
9
9
9
9
9
9
9
9
9
9
9
9
9
9
9
9
9
9
9
9
9
9
9
9
9
9
9
9
9
9
9
9
9
9
9
9
9
9
9
9
9
9
9
9
9
9
9
9
9
9
9
9
9
9
9
9
9
9
9
9
9
9
9
9
9
9
9
9
9
9
9
9
9
9
9
9
9
9
9
9
9
9
9
9
9
9
9
9
9
9
9
9
9
9
9
9
9
9
9
9
9
9
9
9
9
9
9
9
9
9
9
9
9
9
9
9
9
9
9
9
9
9
9
9
9
9
9
9
9
9
9
9
9
9
9
9
9
9
9
9
9
9
9
9
9
9
9
9
9
9
9
9
9
9
9
9
9
9
9
9
9
9
9
9
9
9
9
9
9
9
9
9
9
9
9
9
9
9
9
9
9
9
9
9
9
9
9
9
9
9
9
9
9
9
9
9
9
9
9
9
9
9
9
9
9
9
9
9
9
9
9
9
9
9
9
9
9
9
9
9
9
9
9
9
9
9
9
9
9
9
9
9
9
9
9
9
9
9
9
9
9
9
9
9
9
9
9
9
9
9
9
9
9
9
9
9
9
9
9
9
9
9
9
9
9
9
9
9
9
9
9
9
9
9
9
9
9
9
9
9
9
9
9
9
9
9
9
9
9
9
9
9
9
9
9
9
9
9
9
9
9
9
9
9
9
9
9
9
9
9
9
9
9
9
9
9
9
9
9
9
9
9
9
9
9
9
9
9
9
9
9
9
9
9
9
9
9
9
9
9
9
9
9
9
9
9
9
9
9
9
9
9
9
9
9
9
9
9
9
9
9
9
9
9
9
9
9
9
9
9
9
9
9
9
9
9
9
9
9
9
9
9
9
9
9
9
9
9
9
9
9
9
9
9
9
9
9
9
9
9
9
9
9
9
9
9
9
9
9
9
9
9
9
9
9
9
9
9
9
9
9
9
9
9
9
9
9
9
9
9
9
9
9
9
9
9
9
9
9
9
9
9
9
9
9
9
9
9
9
9
9
9
9
9
9
9
9
9
9
9
9
9
9
9
9
9
9
9
9
9
9
9
9
9
9
9
9
9
9
9
9
9
9
9
9
9
9
9
9
9
9
9
9
9
9
9
9
9
9
9
9
9
9
9
9
9
9
9
9
9
9
9
9
9
9
9
9
9
9
9
9
9
9
9
9
9
9
9
9
9
9
9
9
9
9
9
9
9
9
9
9
9
9
9
9
9
9
9
9
9
9
9
9
9
9
9
9
9
9
9
9
9
9
9
9
9
9
9
9
9
9
9
9
9
9
9
9
9
9
9
9
9
9
9
9
9
9
9
9
9
9
9
9
9
9
9
9
9
9
9
9
9
9
9
9
9
9
9
9
9
9
9
9
9
9
9
9
9
9
9
9
9
9
9
9
9
9
9
9
9
9
9
9
9
9
9
9
9
9
9
9
9
9
9
9
9
9
9
9
9
9
9
9
9
9
9
9
9
9
9
9
9
9
9
9
9
9
9
9
9
9
9
9
9
9
9
9
9
9
9
9
9
9
9
9
9
9
9
9
9
9
9
9
9
9
9
9
9
9
9
9
9
9
9
9
9
9
9
9
9
9
9
9
9
9
9
9
9
9
9
9
9
9
9
9
9
9
9
9
9
9
9
9
9
9
9
9
9
9
9
9
9
9
9
9
9
9
9
9
9
9
9
9
9
9
9
9
9
9
9
9
9
9
9
9
9
9
9
9
9
9
9
9
9
9
9
9
9
9
9
9
9
9
9
9
9
9
9
9
9
9
9
9
9
9
9
9
9
9
9
9
9
9
9
9
9
9
9
9
9
9
9
9
9
9
9
9
9
9
9
9
9
9
9
9
9
9
9
9
9
9
9
9
9
9
9
9
9
9
9
9
9
9
9
9
9
9
9
9
9
9
9
9
9
9
9
9
9
9
9
9
9
9
9
9
9
9
9
9
9
9
9
9
9
9
9
9
9
9
9
9
9
9
9
9
9
9
9
9
9
9
9
9
9
9
9
9
9
9
9
9
9
9
9
9
9
9
9
9
9
9
9
9
9
9
9
9
9
9
9
9
9
9
9
9
9
9
9
9
9
9
9
9
9
9
9
9
9
9
9
9
9
9
9
9
9
9
9
9
9
9
9
9
9
9
9
9
9
9
9
9
9
9
9
9
9
9
9
9
9
9
9
9
9
9
9
9
9
9
9
9
9
9
9
9
9
9
9
9
9
9
9
9
9
9
9
9
9
9
9
9
9
9
9
9
9
9
9
9
9
9
9
9
9
9
9
9
9
9
9
9
9
9
9
9
9
9
9
9
9
9
9
9
9
9
9
9
9
9
9
9
9
9
9
9
9
9
9
9
9
9
9
9
9
9
9
9
9
9
9
9
9
9
9
9
9
9
9
9
9
9
9
9
9
9
9
9
9
9
9
9
9
9
9
9
9
9
9
9
9
9
9
9
9
9
9
9
9
9
9
9
9
9
9
9
9
9
9
9
9
9
9
9
9
9
9
9
9
9
9
9
9
9
9
9
9
9
9
9
9
9
9
9
9
9
9
9
9
9
9
9
9
9
9
9
9
9
9
9
9
9
9
9
9
9
9
9
9
9
9
9
9
9
9
9
9
9
9
9
9
9
9
9
9
9
9
9
9
9
9
9
9
9
9
9
9
9
9
9
9
9
9
9
9
9
9
9
9
9
9
9
9
9
9
9
9
9
9
9
9
9
9
9
9
9
9
9
9
9
9
9
9
9
9
9
9
9
9
9
9
9
9
9
9
9
9
9
9
9
9
9
9
9
9
9
9
9
9
9
9
9
9
9
9
9
9
9
9
9
9
9
9
9
9
9
9
9
9
9
9
9
9
9
9
9
9
9
9
9
9
9
9
9
9
9
9
9
9
9
9
9
9
9
9
9
9
9
9
9
9
9
9
9
9
9
9
9
9
9
9
9
9
9
9
9
9
9
9
9
9
9
9
9
9
9
9
9
9
9
9
9
9
9
9
9
9
9
9
9
9
9
9
9
9
9
9
9
9
9
9
9
9
9
9
9
9
9
9
9
9
9
9
9
9
9
9
9
9
9
9
9
9
9
9
9
9
9
9
9
9
9
9
9
9
9
9
9
9
9
9
9
9
9
9
9
9
9
9
9
9
9
9
9
9
9
9
9
9
9
9
9
9
9
9
9
9
9
9
9
9
9
9
9
9
9
9
9
9
9
9
9
9
9
9
9
9
9
9
9
9
9
9
9
9
9
9
9
9
9
9
9
9
9
9
9
9
9
9
9
9
9
9
9
9
9
9
9
9
9
9
9
9
9
9
9
9
9
9
9
9
9
9
9
9
9
9
9
9
9
9
9
9
9
9
9
9
9
9
9
9
9
9
9
9
9
9
9
9
9
9
9
9
9
9
9
9
9
9
9
9
9
9
9
9
9
9
9
9
9
9
9
9
9
9
9
9
9
9
9
9
9
9
9
9
9
9
9
9
9
9
9
9
9
9
9
9
9
9
9
9
9
9
9
9
9
9
9
9
9
9
9
9
9
9
9
9
9
9
9
9
9
9
9
9
9
9
9
9
9
9
9
9
9
9
9
9
9
9
9
9
9
9
9
9
9
9
9
9
9
9
9
9
9
9
9
9
9
9
9
9
9
9
9
9
9
9
9
9
9
9
9
9
9
9
9
9
9
9
9
9
9
9
9
9
9
9
9
9
9
9
9
9
9
9
9
9
9
9
9
9
9
9
9
9
9
9
9
9
9
9
9
9
9
9
9
9
9
9
9
9
9
9
9
9
9
9
9
9
9
9
9
9
9
9
9
9
9
9
9
9
9
9
9
9
9
9
9
9
9
9
9
9
9
9
9
9
9
9
9
9
9
9
9
9
9
9
9
9
9
9
9
9
9
9
9
9
9
9
9
9
9
9
9
9
9
9
9
9
9
9
9
9
9
9
9
9
9
9
9
9
9
9
9
9
9
9
9
9
9
9
9
9
9
9
9
9
9
9
9
9
9
9
9
9
9
9
9
9
9
9
9
9
9
9
9
9
9
9
9
9
9
9
9
9
9
9
9
9
9
9
9
9
9
9
9
9
9
9
9
9
9
9
9
9
9
9
9
9
9
9
9
9
9
9
9
9
9
9
9
9
9
9
9
9
9
9
9
9
9
9
9
9
9
9
9
9
9
9
9
9
9
9
9
9
9
9
9
9
9
9
9
9
9
9
9
9
9
9
9
9
9
9
9
9
9
9
9
9
9
9
9
9
9
9
9
9
9
9
9
9
9
9
9
9
9
9
9
9
9
9
9
9
9
9
9
9
9
9
9
9
9
9
9
9
9
9
9
9
9
9
9
9
9
9
9
9
9
9
9
9
9
9
9
9
9
9
9
9
9
9
9
9
9
9
9
9
9
9
9
9
9
9
9
9
9
9
9
9
9
9
9
9
9
9
9
9
9
9
9
9
9
9
9
9
9
9
9
9
9
9
9
9
9
9
9
9
9
9
9
9
9
9
9
9
9
9
9
9
9
9
9
9
9
9
9
9
9
9
9
9
9
9
9
9
9
9
9
9
9
9
9
9
9
9
9
9
9
9
9
9
9
9
9
9
9
9
9
9
9
9
9
9
9
9
9
9
9
9
9
9
9
9
9
9
9
9
9
9
9
9
9
9
9
9
9
9
9
9
9
9
9
9
9
9
9
9
9
9
9
9
9
9
9
9
9
9
9
9
9
9
9
9
9
9
9
9
9
9
9
9
9
9
9
9
9
9
9
9
9
9
9
9
9
9
9
9
9
9
9
9
9
9
9
9
9
9
9
9
9
9
9
9
9
9
9
9
9
9
9
9
9
9
9
9
9
9
9
9
9
9
9
9
9
9
9
9
9
9
9
9
9
9
9
9
9
9
9
9
9
9
9
9
9
9
9
9
9
9
9
9
9
9
9
9
9
9
9
9
9
9
9
9
9
9
9
9
9
9
9
9
9
9
9
9
9
9
9
9
9
9
9
9
9
9
9
9
9
9
9
9
9
9
9
9
9
9
9
9
9
9
9
9
9
9
9
9
9
9
9
9
9
9
9
9
9
9
9
9
9
9
9
9
9
9
9
9
9
9
9
9
9
9
9
9
9
9
9
9
9
9
9
9
9
9
9
9
9
9
9
9
9
9
9
9
9
9
9
9
9
9
9
9
9
9
9
9
9
9
9
9
9
9
9
9
9
9
9
9
9
9
9
9
9
9
9
9
9
9
9
9
9
9
9
9
9
9
9
9
9
9
9
9
9
9
9
9
9
9
9
9
9
9
9
9
9
9
9
9
9
9
9
9
9
9
9
9
9
9
9
9
9
9
9
9
9
9
9
9
9
9
9
9
9
9
9
9
9
9
9
9
9
9
9
9
9
9
9
9
9
9
9
9
9
9
9
9
9
9
9
9
9
9
9
9
9
9
9
9
9
9
9
9
9
9
9
9
9
9
9
9
9
9
9
9
9
9
9
9
9
9
9
9
9
9
9
9
9
9
9
9
9
9
9
9
9
9
9
9
9
9
9
9
9
9
9
9
9
9
9
9
9
9
9
9
9
9
9
9
9
9
9
9
9
9
9
9
9
9
9
9
9
9
9
9
9
9
9
9
9
9
9
9
9
9
9
9
9
9
9
9
9
9
9
9
9
9
9
9
9
9
9
9
9
9
9
9
9
9
9
9
9
9
9
9
9
9
9
9
9
9
9
9
9
9
9
9
9
9
9
9
9
9
9
9
9
9
9
9
9
9
9
9
9
9
9
9
9
9
9
9
9
9
9
9
9
9
9
9
9
9
9
9
9
9
9
9
9
9
9
9
9
9
9
9
9
9
9
9
9
9
9
9
9
9
9
9
9
9
9
9
9
9
9
9
9
9
9
9
9
9
9
9
9
9
9
9
9
9
9
9
9
9
9
9
9
9
9
9
9
9
9
9
9
9
9
9
9
9
9
9
9
9
9
9
9
9
9
9
9
9
9
9
9
9
9
9
9
9
9
9
9
9
9
9
9
9
9
9
9
9
9
9
9
9
9
9
9
9
9
9
9
9
9
9
9
9
9
9
9
9
9
9
9
9
9
9
9
9
9
9
9
9
9
9
9
9
9
9
9
9
9
9
9
9
9
9
9
9
9
9
9
9
9
9
9
9
9
9
9
9
9
9
9
9
9
9
9
9
9
9
9
9
9
9
9
9
9
9
9
9
9
9
9
9
9
9
9
9
9
9
9
9
9
9
9
9
9
9
9
9
9
9
9
9
9
9
9
9
9
9
9
9
9
9
9
9
9
9
9
9
9
9
9
9
9
9
9
9
9
9
9
9
9
9
9
9
9
9
9
9
9
9
9
9
9
9
9
9
9
9
9
9
9
9
9
9
9
9
9
9
9
9
9
9
9
9
9
9
9
9
9
9
9
9
9
9
9
9
9
9
9
9
9
9
9
9
9
9
9
9
9
9
9
9
9
9
9
9
9
9
9
9
9
9
9
9
9
9
9
9
9
9
9
9
9
9
9
9
9
9
9
9
9
9
9
9
9
9
9
9
9
9
9
9
9
9
9
9
9
9
9
9
9
9
9
9
9
9
9
9
9
9
9
9
9
9
9
9
9
9
9
9
9
9
9
9
9
9
9
9
9
9
9
9
9
9
9
9
9
9
9
9
9
9
9
9
9
9
9
9
9
9
9
9
9
9
9
9
9
9
9
9
9
9
9
9
9
9
9
9
9
9
9
9
9
9
9
9
9
9
9
9
9
9
9
9
9
9
9
9
9
9
9
9
9
9
9
9
9
9
9
9
9
9
9
9
9
9
9
9
9
9
9
9
9
9
9
9
9
9
9
9
9
9
9
9
9
9
9
9
9
9
9
9
9
9
9
9
9
9
9
9
9
9
9
9
9
9
9
9
9
9
9
9
9
9
9
9
9
9
9
9
9
9
9
9
9
9
9
9
9
9
9
9
9
9
9
9
9
9
9
9
9
9
9
9
9
9
9
9
9
9
9
9
9
9
9
9
9
9
9
9
9
9
9
9
9
9
9
9
9
9
9
9
9
9
9
9
9
9
9
9
9
9
9
9
9
9
9
9
9
9
9
9
9
9
9
9
9
9
9
9
9
9
9
9
9
9
9
9
9
9
9
9
9
9
9
9
9
9
9
9
9
9
9
9
9
9
9
9
9
9
9
9
9
9
9
9
9
9
9
9
9
9
9
9
9
9
9
9
9
9
9
9
9
9
9
9
9
9
9
9
9
9
9
9
9
9
9
9
9
9
9
9
9
9
9
9
9
9
9
9
9
9
9
9
9
9
9
9
9
9
9
9
9
9
9
9
9
9
9
9
9
9
9
9
9
9
9
9
9
9
9
9
9
9
9
9
9
9
9
9
9
9
9
9
9
9
9
9
9
9
9
9
9
9
9
9
9
9
9
9
9
9
9
9
9
9
9
9
9
9
9
9
9
9
9
9
9
9
9
9
9
9
9
9
9
9
9
9
9
9
9
9
9
9
9
9
9
9
9
9
9
9
9
9
9
9
9
9
9
9
9
9
9
9
9
9
9
9
9
9
9
9
9
9
9
9
9
9
9
9
9
9
9
9
9
9
9
9
9
9
9
9
9
9
9
9
9
9
9
9
9
9
9
9
9
9
9
9
9
9
9
9
9
9
9
9
9
9
9
9
9
9
9
9
9
9
9
9
9
9
9
9
9
9
9
9
9
9
9
9
9
9
9
9
9
9
9
9
9
9
9
9
9
9
9
9
9
9
9
9
9
9
9
9
9
9
9
9
9
9
9
9
9
9
9
9
9
9
9
9
9
9
9
9
9
9
9
9
9
9
9
9
9
9
9
9
9
9
9
9
9
9
9
9
9
9
9
9
9
9
9
9
9
9
9
9
9
9
9
9
9
9
9
9
9
9
9
9
9
9
9
9
9
9
9
9
9
9
9
9
9
9
9
9
9
9
9
9
9
9
9
9
9
9
9
9
9
9
9
9
9
9
9
9
9
9
9
9
9
9
9
9
9
9
9
9
9
9
9
9
9
9
9
9
9
9
9
9
9
9
9
9
9
9
9
9
9
9
9
9
9
9
9
9
9
9
9
9
9
9
9
9
9
9
9
9
9
9
9
9
9
9
9
9
9
9
9
9
9
9
9
9
9
9
9
9
9
9
9
9
9
9
9
9
9
9
9
9
9
9
9
9
9
9
9
9
9
9
9
9
9
9
9
9
9
9
9
9
9
9
9
9
9
9
9
9
9
9
9
9
9
9
9
9
9
9
9
9
9
9
9
9
9
9
9
9
9
9
9
9
9
9
9
9
9
9
9
9
9
9
9
9
9
9
9
9
9
9
9
9
9
9
9
9
9
9
9
9
9
9
9
9
9
9
9
9
9
9
9
9
9
9
9
9
9
9
9
9
9
9
9
9
9
9
9
9
9
9
9
9
9
9
9
9
9
9
9
9
9
9
9
9
9
9
9
9
9
9
9
9
9
9
9
9
9
9
9
9
9
9
9
9
9
9
9
9
9
9
9
9
9
9
9
9
9
9
9
9
9
9
9
9
9
9
9
9
9
9
9
9
9
9
9
9
9
9
9
9
9
9
9
9
9
9
9
9
9
9
9
9
9
9
9
9
9
9
9
9
9
9
9
9
9
9
9
9
9
9
9
9
9
9
9
9
9
9
9
9
9
9
9
9
9
9
9
9
9
9
9
9
9
9
9
9
9
9
9
9
9
9
9
9
9
9
9
9
9
9
9
9
9
9
9
9
9
9
9
9
9
9
9
9
9
9
9
9
9
9
9
9
9
9
9
9
9
9
9
9
9
9
9
9
9
9
9
9
9
9
9
9
9
9
9
9
9
9
9
9
9
9
9
9
9
9
9
9
9
9
9
9
9
9
9
9
9
9
9
9
9
9
9
9
9
9
9
9
9
9
9
9
9
9
9
9
9
9
9
9
9
9
9
9
9
9
9
9
9
9
9
9
9
9
9
9
9
9
9
9
9
9
9
9
9
9
9
9
9
9
9
9
9
9
9
9
9
9
9
9
9
9
9
9
9
9
9
9
9
9
9
9
9
9
9
9
9
9
9
9
9
9
9
9
9
9
9
9
9
9
9
9
9
9
9
9
9
9
9
9
9
9
9
9
9
9
9
9
9
9
9
9
9
9
9
9
9
9
9
9
9
9
9
9
9
9
9
9
9
9
9
9
9
9
9
9
9
9
9
9
9
9
9
9
9
9
9
9
9
9
9
9
9
9
9
9
9
9
9
9
9
9
9
9
9
9
9
9
9
9
9
9
9
9
9
9
9
9
9
9
9
9
9
9
9
9
9
9
9
9
9
9
9
9
9
9
9
9
9
9
9
9
9
9
9
9
9
9
9
9
9
9
9
9
9
9
9
9
9
9
9
9
9
9
9
9
9
9
9
9
9
9
9
9
9
9
9
9
9
9
9
9
9
9
9
9
9
9
9
9
9
9
9
9
9
9
9
9
9
9
9
9
9
9
9
9
9
9
9
9
9
9
9
9
9
9
9
9
9
9
9
9
9
9
9
9
9
9
9
9
9
9
9
9
9
9
9
9
9
9
9
9
9
9
9
9
9
9
9
9
9
9
9
9
9
9
9
9
9
9
9
9
9
9
9
9
9
9
9
9
9
9
9
9
9
9
9
9
9
9
9
9
9
9
9
9
9
9
9
9
9
9
9
9
9
9
9
9
9
9
9
9
9
9
9
9
9
9
9
9
9
9
9
9
9
9
9
9
9
9
9
9
9
9
9
9
9
9
9
9
9
9
9
9
9
9
9
9
9
9
9
9
9
9
9
9
9
9
9
9
9
9
9
9
9
9
9
9
9
9
9
9
9
9
9
9
9
9
9
9
9
9
9
9
9
9
9
9
9
9
9
9
9
9
9
9
9
9
9
9
9
9
9
9
9
9
9
9
9
9
9
9
9
9
9
9
9
9
9
9
9
9
9
9
9
9
9
9
9
9
9
9
9
9
9
9
9
9
9
9
9
9
9
9
9
9
9
9
9
9
9
9
9
9
9
9
9
9
9
9
9
9
9
9
9
9
9
9
9
9
9
9
9
9
9
9
9
9
9
9
9
9
9
9
9
9
9
9
9
9
9
9
9
9
9
9
9
9
9
9
9
9
9
9
9
9
9
9
9
9
9
9
9
9
9
9
9
9
9
9
9
9
9
9
9
9
9
9
9
9
9
9
9
9
9
9
9
9
9
9
9
9
9
9
9
9
9
9
9
9
9
9
9
9
9
9
9
9
9
9
9
9
9
9
9
9
9
9
9
9
9
9
9
9
9
9
9
9
9
9
9
9
9
9
9
9
9
9
9
9
9
9
9
9
9
9
9
9
9
9
9
9
9
9
9
9
9
9
9
9
9
9
9
9
9
9
9
9
9
9
9
9
9
9
9
9
9
9
9
9
9
9
9
9
9
9
9
9
9
9
9
9
9
9
9
9
9
9
9
9
9
9
9
9
9
9
9
9
9
9
9
9
9
9
9
9
9
9
9
9
9
9
9
9
9
9
9
9
9
9
9
9
9
9
9
9
9
9
9
9
9
9
9
9
9
9
9
9
9
9
9
9
9
9
9
9
9
9
9
9
9
9
9
9
9
9
9
9
9
9
9
9
9
9
9
9
9
9
9
9
9
9
9
9
9
9
9
9
9
9
9
</DataArray>
</Cells>
<PointData Vectors="'U'">
<DataArray type="Float64" Name="U" NumberOfComponents="2" ComponentName0="U1" ComponentName1="U2" format="ascii">
-0.1768106397637E-37 -0.4525887404754E-37
-0.3694992933077E-37 -0.5332216876746E-37
-0.1823862023995E-37  0.4666769965253E-37
-0.4521085345564E-01 -0.5869332034998E-01
-0.3867375906506E-01 -0.2524353635480E-01
-0.2544651723933E-01 -0.9747849187665E-02
-0.1674034650867E-01 -0.1977139073942E-01
-0.7011095795175E+00 -0.3166121403831E+00
-0.1865572288981E+00 -0.4446337002817E+00
-0.6982476357768E+00 -0.3783689814197E+00
-0.8848292307485E-01 -0.6727929456046E+00
-0.7422328665733E-37 -0.2109049758596E-36
-0.7351752224606E-37 -0.1905978646714E-36
-0.7159789175763E-37 -0.1769174601015E-36
-0.6956554248780E-37 -0.1665723865684E-36
-0.6764211036550E-37 -0.1582324730466E-36
-0.6587002665214E-37 -0.1512184028395E-36
-0.6424567598807E-37 -0.1451371314687E-36
-0.6275340814114E-37 -0.1397426817557E-36
-0.6137573308433E-37 -0.1348722093531E-36
-0.6009647128673E-37 -0.1304131074705E-36
-0.5890156872177E-37 -0.1262847120734E-36
-0.5777911221514E-37 -0.1224275143951E-36
-0.5671909117130E-37 -0.1187965069334E-36
-0.5571310401010E-37 -0.1153569025530E-36
-0.5475408225627E-37 -0.1120813030487E-36
-0.5383605243938E-37 -0.1089477657679E-36
-0.5295393869309E-37 -0.1059384515515E-36
-0.5210340236031E-37 -0.1030386589384E-36
-0.5128071518141E-37 -0.1002361243719E-36
-0.5048306190665E-37 -0.9752073233748E-37
-0.4970957555630E-37 -0.9491120460444E-37
-0.4895516949227E-37 -0.9237133357988E-37
-0.4821780207477E-37 -0.8989439507664E-37
-0.4749554416806E-37 -0.8747451569246E-37
-0.4678666779852E-37 -0.8510647100141E-37
-0.4608961666308E-37 -0.8278557134701E-37
-0.4540298023576E-37 -0.8050756401170E-37
-0.4472547250697E-37 -0.7826855921049E-37
-0.4405591405584E-37 -0.7606496816545E-37
-0.4339321715014E-37 -0.7389345351264E-37
-0.4273637318603E-37 -0.7175088765310E-37
-0.4208444212091E-37 -0.6963431745532E-37
-0.4143654373974E-37 -0.6754093620002E-37
-0.4079185031971E-37 -0.6546805978557E-37
-0.4014958053563E-37 -0.6341310667140E-37
-0.3950899449701E-37 -0.6137358219654E-37
-0.3886938954875E-37 -0.5934706360817E-37
-0.3823009700883E-37 -0.5733118883753E-37
-0.3759047956954E-37 -0.5532364672137E-37
-0.3630786640269E-37 -0.5132452224444E-37
-0.3566373801584E-37 -0.4932850420269E-37
-0.3501701811306E-37 -0.4733193633399E-37
-0.3436720740097E-37 -0.4533266058258E-37
-0.3371383382915E-37 -0.4332853518049E-37
-0.3305645350076E-37 -0.4131743100416E-37
-0.3239465200987E-37 -0.3929722840911E-37
-0.3172804614111E-37 -0.3726581287548E-37
-0.3105628615494E-37 -0.3522107212368E-37
-0.3037905847451E-37 -0.3316089195074E-37
-0.2969608893902E-37 -0.3108315171568E-37
-0.2900714666247E-37 -0.2898571940051E-37
-0.2831204851530E-37 -0.2686644470046E-37
-0.2761066448701E-37 -0.2472315141435E-37
-0.2690292401432E-37 -0.2255362862469E-37
-0.2618882339911E-37 -0.2035561879770E-37
-0.2546843452010E-37 -0.1812680388849E-37
-0.2474191480533E-37 -0.1586478401144E-37
-0.2400951765360E-37 -0.1356705289005E-37
-0.2327108547713E-37 -0.1123071233006E-37
-0.2252692823853E-37 -0.8840551626542E-38
-0.2177870302996E-37 -0.6407096568781E-38
-0.2102718805668E-37 -0.3927155102200E-38
-0.2027347646694E-37 -0.1397133179402E-38
-0.1951894216188E-37  0.1187027171515E-38
-0.1876530331505E-37  0.3829990493739E-38
-0.1801470833593E-37  0.6537228661467E-38
-0.1726985138593E-37  0.9315305598079E-38
-0.1653412911867E-37  0.1217229016072E-37
-0.1581185520973E-37  0.1511837140356E-37
-0.1510855633025E-37  0.1816680999175E-37
-0.1443137817376E-37  0.2133545959018E-37
-0.1378962565576E-37  0.2464932995048E-37
-0.1319540490412E-37  0.2814516251219E-37
-0.1266405913127E-37  0.3188025623845E-37
-0.1221285834609E-37  0.3595137664854E-37
-0.1185048007403E-37  0.4054186981346E-37
-0.1151612562548E-37  0.4606892889104E-37
-0.1067994842485E-37  0.5382860125445E-37
-0.4501897936472E-01 -0.5222457483665E-01
-0.4452732955782E-01 -0.4821358668018E-01
-0.4403636053008E-01 -0.4526917533062E-01
-0.4360224875452E-01 -0.4291545717183E-01
-0.4321730818592E-01 -0.4093249466918E-01
-0.4286676724933E-01 -0.3920398897252E-01
-0.4253869393290E-01 -0.3766263394200E-01
-0.4222495086616E-01 -0.3626637671968E-01
-0.4192024304897E-01 -0.3498716141128E-01
-0.4162114932982E-01 -0.3380521060295E-01
-0.4132543477716E-01 -0.3270593887399E-01
-0.4103161105498E-01 -0.3167818717223E-01
-0.4073866600374E-01 -0.3071316297880E-01
-0.4044589605985E-01 -0.2980376439037E-01
-0.4015280437110E-01 -0.2894413923055E-01
-0.3985903852515E-01 -0.2812938315717E-01
-0.3956435513991E-01 -0.2735532715907E-01
-0.3926860422000E-01 -0.2661838126087E-01
-0.3897173582313E-01 -0.2591541408764E-01
-0.3837971427840E-01 -0.2461173767377E-01
-0.3808328199747E-01 -0.2400541283539E-01
-0.3778493695708E-01 -0.2342254223529E-01
-0.3748471125864E-01 -0.2286144481910E-01
-0.3718259902308E-01 -0.2232052110349E-01
-0.3687857634947E-01 -0.2179829548643E-01
-0.3657261583601E-01 -0.2129340310916E-01
-0.3626469160887E-01 -0.2080458066688E-01
-0.3595478158517E-01 -0.2033065685043E-01
-0.3564286881872E-01 -0.1987054466366E-01
-0.3532894212618E-01 -0.1942323477136E-01
-0.3501299623152E-01 -0.1898778979397E-01
-0.3469503203476E-01 -0.1856334011993E-01
-0.3437505662641E-01 -0.1814908044206E-01
-0.3405308312667E-01 -0.1774426700148E-01
-0.3372913069922E-01 -0.1734821585705E-01
-0.3340322395599E-01 -0.1696030110619E-01
-0.3307539262383E-01 -0.1657995408736E-01
-0.3274567100157E-01 -0.1620666289620E-01
-0.3241409731039E-01 -0.1583997230011E-01
-0.3208071295454E-01 -0.1547948402941E-01
-0.3174556165161E-01 -0.1512485736774E-01
-0.3140868846642E-01 -0.1477581005724E-01
-0.3107013878630E-01 -0.1443211953869E-01
-0.3072995720212E-01 -0.1409362447722E-01
-0.3038818632159E-01 -0.1376022659780E-01
-0.3004486564038E-01 -0.1343189295382E-01
-0.2970002998064E-01 -0.1310865816795E-01
-0.2935370845351E-01 -0.1279062757921E-01
-0.2900592314309E-01 -0.1247798053264E-01
-0.2865668792248E-01 -0.1217097420851E-01
-0.2830600755351E-01 -0.1186994809276E-01
-0.2795387671965E-01 -0.1157532869103E-01
-0.2760027976505E-01 -0.1128763490603E-01
-0.2724519156245E-01 -0.1100748373684E-01
-0.2688857966811E-01 -0.1073559486844E-01
-0.2653040964544E-01 -0.1047279161042E-01
-0.2617065509479E-01 -0.1021998935350E-01
-0.2580930880597E-01 -0.9978126874714E-02
-0.2507532611315E-01 -0.9529164442125E-02
-0.2470004628740E-01 -0.9328091522872E-02
-0.2432121883668E-01 -0.9146504174496E-02
-0.2393889511635E-01 -0.8986754528757E-02
-0.2355290438342E-01 -0.8851631727998E-02
-0.2316293167811E-01 -0.8744461070245E-02
-0.2276854107282E-01 -0.8669219818614E-02
-0.2236916542800E-01 -0.8630702944353E-02
-0.2196407126451E-01 -0.8634761480470E-02
-0.2155229430508E-01 -0.8688651967160E-02
-0.2113252822337E-01 -0.8801564699414E-02
-0.2070294461276E-01 -0.8985453806282E-02
-0.2026089797486E-01 -0.9256404935684E-02
-0.1980246872619E-01 -0.9637011162412E-02
-0.1932184197313E-01 -0.1016074504760E-01
-0.1881079402053E-01 -0.1088051096676E-01
-0.1825981926044E-01 -0.1188659170672E-01
-0.1766643873185E-01 -0.1334776141360E-01
-0.1707979408999E-01 -0.1562557156226E-01
-0.1814266206203E+00 -0.1740825372071E+00
-0.2647688286344E+00 -0.2588065952229E+00
-0.3383988929088E+00 -0.3138542306748E+00
-0.4031865471077E+00 -0.3495730760009E+00
-0.4603494189673E+00 -0.3719120778616E+00
-0.5104843802179E+00 -0.3853708462926E+00
-0.5542473124673E+00 -0.3924371431232E+00
-0.5921979814740E+00 -0.3945590794599E+00
-0.6247126744936E+00 -0.3930314969964E+00
-0.6521390569589E+00 -0.3887720921446E+00
-0.6748641529782E+00 -0.3824527909104E+00
-0.6932140473634E+00 -0.3754922372452E+00
-0.7077113296777E+00 -0.3671987938982E+00
-0.7185158628415E+00 -0.3567661804229E+00
-0.7253658226631E+00 -0.3452605288628E+00
-0.7280902106604E+00 -0.3340046608970E+00
-0.7267935701774E+00 -0.3243879265554E+00
-0.7216970729855E+00 -0.3175762128073E+00
-0.7130978725941E+00 -0.3146287389214E+00
-0.6945514149017E+00 -0.3193992856432E+00
-0.6872196267222E+00 -0.3239508770371E+00
-0.6791691761548E+00 -0.3302944472705E+00
-0.6703992893851E+00 -0.3385555231454E+00
-0.6608809619302E+00 -0.3488986863593E+00
-0.6505669889690E+00 -0.3615194390052E+00
-0.6394065851121E+00 -0.3766398752898E+00
-0.6274773302612E+00 -0.3945593240981E+00
-0.6150196877201E+00 -0.4157043801474E+00
-0.6021852714807E+00 -0.4405781548400E+00
-0.5890541446259E+00 -0.4698373602984E+00
-0.5756813098557E+00 -0.5044416185053E+00
-0.5621628776771E+00 -0.5459658900987E+00
-0.5484780571470E+00 -0.5976242265906E+00
-0.5344822796727E+00 -0.6631895342138E+00
-0.5212732163383E+00 -0.7393693960053E+00
-0.5104614604848E+00 -0.8186339432457E+00
-0.5027094266493E+00 -0.8965988182331E+00
-0.4980684209484E+00 -0.9702788540840E+00
-0.4962981388548E+00 -0.1037442585064E+01
-0.4969404272616E+00 -0.1096357242729E+01
-0.4992978996655E+00 -0.1145713952579E+01
-0.5026240701752E+00 -0.1184529614994E+01
-0.5061688845709E+00 -0.1212088827233E+01
-0.5091770699665E+00 -0.1227915490328E+01
-0.5108870843729E+00 -0.1231756399299E+01
-0.5105311883901E+00 -0.1223572849702E+01
-0.5073385363079E+00 -0.1203540156033E+01
-0.5005451175854E+00 -0.1172051436290E+01
-0.4894207597566E+00 -0.1129726791781E+01
-0.4733350575654E+00 -0.1077422566495E+01
-0.4519048816316E+00 -0.1016226524619E+01
-0.4252897106181E+00 -0.9474177955791E+00
-0.3945394091634E+00 -0.8724024213525E+00
-0.3606010085074E+00 -0.7928882251569E+00
-0.3241092660312E+00 -0.7112206955692E+00
-0.2860893319772E+00 -0.6306465779586E+00
-0.2487702355718E+00 -0.5561501671937E+00
-0.2155004199360E+00 -0.4937838396205E+00
-0.1266434642109E+00 -0.3612947599726E+00
-0.7316895335379E-01 -0.3003912377612E+00
-0.2406042025671E-01 -0.2544105515079E+00
 0.2118093780013E-01 -0.2196106342785E+00
 0.6333141555740E-01 -0.1941776057120E+00
 0.1033025103672E+00 -0.1778097867824E+00
 0.1410135225153E+00 -0.1704561895350E+00
 0.1751681513408E+00 -0.1722236724380E+00
 0.2036953157022E+00 -0.1793173692264E+00
 0.2258585097484E+00 -0.1880208564164E+00
 0.2412750627037E+00 -0.1975136503203E+00
 0.2497745520207E+00 -0.2064553475360E+00
 0.2512167604651E+00 -0.2136640934674E+00
 0.2453550901365E+00 -0.2179019789954E+00
 0.2318287597284E+00 -0.2176984602866E+00
 0.2100179218227E+00 -0.2109304373778E+00
 0.1791160797937E+00 -0.1939009656754E+00
 0.1378065504127E+00 -0.1613603194291E+00
 0.8457881347039E-01 -0.1042399562712E+00
-0.8902360533629E-03 -0.1560589977779E-02
-0.1509907664604E-02 -0.2694904200577E-02
-0.2068151973524E-02 -0.3750791952027E-02
-0.2594892019508E-02 -0.4754886091962E-02
-0.3110576383240E-02 -0.5725231467430E-02
-0.3624348173909E-02 -0.6670869778613E-02
-0.4142520758925E-02 -0.7597145245033E-02
-0.4669047167653E-02 -0.8507562147483E-02
-0.5206635565008E-02 -0.9404571431494E-02
-0.5757107314222E-02 -0.1029002842195E-01
-0.6321677284953E-02 -0.1116545397135E-01
-0.6901110258998E-02 -0.1203220054056E-01
-0.7495845081169E-02 -0.1289159393856E-01
-0.8106072080499E-02 -0.1374503451570E-01
-0.8731751229882E-02 -0.1459404735714E-01
-0.9372751301794E-02 -0.1544053886476E-01
-0.1002878587233E-01 -0.1628685263072E-01
-0.1069945441774E-01 -0.1713616247577E-01
-0.1138430032278E-01 -0.1799353729164E-01
-0.1208443256284E-01 -0.1886879066631E-01
-0.1280457929165E-01 -0.1977482781033E-01
-0.1355023145875E-01 -0.2071799918390E-01
-0.1432507113177E-01 -0.2169836801003E-01
-0.1513101928162E-01 -0.2271401931861E-01
-0.1596920713966E-01 -0.2376377013065E-01
-0.1684081489214E-01 -0.2484822786943E-01
-0.1774759419924E-01 -0.2596997325851E-01
-0.1869220241301E-01 -0.2713351612810E-01
-0.1967848409668E-01 -0.2834520475390E-01
-0.2071174532590E-01 -0.2961266214664E-01
-0.2179859027239E-01 -0.3094307996632E-01
-0.2294673606284E-01 -0.3234406264194E-01
-0.2416574629629E-01 -0.3382864329170E-01
-0.2546852062980E-01 -0.3541609975681E-01
-0.2687306495241E-01 -0.3713440430919E-01
-0.2840494610280E-01 -0.3902525005870E-01
-0.3010579980897E-01 -0.4115568266544E-01
-0.3203644017137E-01 -0.4364104090105E-01
-0.3437167394202E-01 -0.4671459720434E-01
-0.3723973786290E-01 -0.5109571433150E-01
-0.2146287136216E-01 -0.1467861518051E-01
-0.2226508550049E-01 -0.1194336478936E-01
-0.2261334156754E-01 -0.1015523184557E-01
-0.2262068986788E-01 -0.8778818849451E-02
-0.2242502884587E-01 -0.7644541219039E-02
-0.2207623474941E-01 -0.6671417415235E-02
-0.2160893215592E-01 -0.5814224209301E-02
-0.2104550281689E-01 -0.5046068520833E-02
-0.2040275333651E-01 -0.4349543715082E-02
-0.1969389298471E-01 -0.3712843486383E-02
-0.1892993544522E-01 -0.3127713946574E-02
-0.1812089146988E-01 -0.2588873770828E-02
-0.1727676724893E-01 -0.2093424248737E-02
-0.1640676899702E-01 -0.1638446702694E-02
-0.1551892485995E-01 -0.1220796684468E-02
-0.1462037422825E-01 -0.8376485334461E-03
-0.1371764572854E-01 -0.4866308872024E-03
-0.1281683788266E-01 -0.1659958292146E-03
-0.1192378137800E-01  0.1250849143224E-03
-0.1104410759778E-01  0.3861328763315E-03
-0.1018311318886E-01  0.6151745528079E-03
-0.9345339241377E-02  0.8095247272196E-03
-0.8533965538854E-02  0.9687447109142E-03
-0.7750769956960E-02  0.1096685065080E-02
-0.6997101543135E-02  0.1196455937244E-02
-0.6274298853470E-02  0.1270319537257E-02
-0.5583689810951E-02  0.1320074287158E-02
-0.4926547285704E-02  0.1347205885726E-02
-0.4304200036529E-02  0.1352964735575E-02
-0.3717936826006E-02  0.1338427634167E-02
-0.3169062220085E-02  0.1304531233264E-02
-0.2658908482922E-02  0.1252100362212E-02
-0.2188834495497E-02  0.1181867690814E-02
-0.1760238909578E-02  0.1094487152023E-02
-0.1374559835222E-02  0.9905407752271E-03
-0.1033278288838E-02  0.8705329072719E-03
-0.7378344835051E-03  0.7348709724071E-03
-0.4896758797879E-03  0.5837834291181E-03
-0.2891331627209E-03  0.4169081942439E-03
-0.1363629882870E-03  0.2346674530906E-03
-0.6960541969220E+00 -0.3894783433302E+00
-0.6935739386285E+00 -0.4016072408509E+00
-0.6907063959226E+00 -0.4146699999669E+00
-0.6874068256778E+00 -0.4286319346883E+00
-0.6836321653291E+00 -0.4434660591148E+00
-0.6793358955555E+00 -0.4591415440686E+00
-0.6744668710277E+00 -0.4756184578960E+00
-0.6689695164353E+00 -0.4928451247369E+00
-0.6627845788817E+00 -0.5107554667353E+00
-0.6558504969613E+00 -0.5292665415215E+00
-0.6481052371001E+00 -0.5482774114298E+00
-0.6394883842486E+00 -0.5676688328619E+00
-0.6299434237071E+00 -0.5873036304988E+00
-0.6194200910731E+00 -0.6070278938922E+00
-0.6078766287928E+00 -0.6266730770101E+00
-0.5952817340251E+00 -0.6460590170162E+00
-0.5816160379072E+00 -0.6649976131353E+00
-0.5668730110501E+00 -0.6832967867234E+00
-0.5510593293343E+00 -0.7007643805278E+00
-0.5341947892617E+00 -0.7172118424852E+00
-0.5163118748090E+00 -0.7324576008451E+00
-0.4974550695617E+00 -0.7463301471063E+00
-0.4776799964488E+00 -0.7586708767167E+00
-0.4570524227200E+00 -0.7693363646898E+00
-0.4356472367182E+00 -0.7782002574798E+00
-0.4135474385310E+00 -0.7851548562275E+00
-0.3908431564004E+00 -0.7901124148629E+00
-0.3676306985673E+00 -0.7930061903214E+00
-0.3440115906526E+00 -0.7937912733495E+00
-0.3200916346760E+00 -0.7924452173147E+00
-0.2959799329220E+00 -0.7889684619917E+00
-0.2717878515706E+00 -0.7833844413793E+00
-0.2476279254848E+00 -0.7757390835280E+00
-0.2236129822675E+00 -0.7660994896556E+00
-0.1998550056151E+00 -0.7545538763020E+00
-0.1764637922173E+00 -0.7412119045782E+00
-0.1535446468011E+00 -0.7262035668390E+00
-0.1311951232860E+00 -0.7096784637447E+00
-0.1094999275692E+00 -0.6918035278290E+00
-0.6854707416835E+00 -0.3672072192717E+00
-0.6701156742266E+00 -0.3545373139495E+00
-0.6524792521287E+00 -0.3403489466776E+00
-0.6328379457954E+00 -0.3247622241030E+00
-0.6113837056149E+00 -0.3079237331302E+00
-0.5882367096172E+00 -0.2899772398545E+00
-0.5634398599058E+00 -0.2710601255413E+00
-0.5369732720446E+00 -0.2513075902302E+00
-0.5087567434409E+00 -0.2308744294508E+00
-0.4787205880257E+00 -0.2099500693264E+00
-0.4468040325327E+00 -0.1887503295420E+00
-0.4128919792848E+00 -0.1675134265099E+00
-0.3768138204325E+00 -0.1464980131520E+00
-0.3383365747952E+00 -0.1259703857950E+00
-0.2971704754150E+00 -0.1061928959572E+00
-0.2529827760663E+00 -0.8741191552338E-01
-0.2054137091736E+00 -0.6984111572922E-01
-0.1540937182375E+00 -0.5363278463945E-01
-0.9864631803377E-01 -0.3882545867901E-01
-0.6996326131323E-01 -0.6261101827066E+00
-0.5329412900640E-01 -0.5807393556248E+00
-0.3812185337248E-01 -0.5365497037152E+00
-0.2420868793350E-01 -0.4935605787726E+00
-0.1143663936421E-01 -0.4517742549751E+00
 0.2332168285348E-03 -0.4111768289784E+00
 0.1077722855791E-01 -0.3717458973864E+00
 0.2012489746876E-01 -0.3334600808786E+00
 0.2815908699751E-01 -0.2963324423826E+00
 0.3479006440241E-01 -0.2604217387156E+00
 0.3995793000962E-01 -0.2258193340226E+00
 0.4353795249501E-01 -0.1926598014007E+00
 0.4533173511414E-01 -0.1611259362220E+00
 0.4505724758432E-01 -0.1314428857303E+00
 0.4235200157093E-01 -0.1038759561891E+00
 0.3678495606217E-01 -0.7872998846463E-01
 0.2785986154495E-01 -0.5634893559971E-01
 0.1500276972874E-01 -0.3711472284730E-01
-0.2478752194600E-02 -0.2144314291626E-01
-0.7044763710425E+00 -0.3744527429309E+00
-0.7098196672613E+00 -0.3701771452133E+00
-0.7142371521266E+00 -0.3656671087319E+00
-0.7177545689367E+00 -0.3610159521938E+00
-0.7204153559374E+00 -0.3563043704727E+00
-0.7222720599443E+00 -0.3516064088544E+00
-0.7233826894297E+00 -0.3469912591475E+00
-0.7238094154774E+00 -0.3425237415111E+00
-0.7236179361011E+00 -0.3382641548558E+00
-0.7228769572113E+00 -0.3342678380565E+00
-0.7216575615314E+00 -0.3305846368334E+00
-0.7200324281314E+00 -0.3272584094519E+00
-0.7180749553690E+00 -0.3243266571146E+00
-0.7158583813528E+00 -0.3218203169941E+00
-0.7134550084758E+00 -0.3197637030216E+00
-0.7109356639592E+00 -0.3181745378047E+00
-0.7083695018081E+00 -0.3170639234121E+00
-0.7058249645904E+00 -0.3164363037955E+00
-0.7033711432399E+00 -0.3162879723356E+00
-0.8089604339424E-01 -0.6771672799143E+00
-0.7384457123538E-01 -0.6799974449959E+00
-0.6747034982242E-01 -0.6811909692635E+00
-0.6188771538610E-01 -0.6806782331153E+00
-0.5721065280517E-01 -0.6783867925047E+00
-0.5355928244380E-01 -0.6742493271905E+00
-0.5106252478421E-01 -0.6682075350392E+00
-0.4985888321078E-01 -0.6602165749560E+00
-0.5009632476906E-01 -0.6502498907147E+00
-0.5193145674934E-01 -0.6383048027163E+00
-0.5552790266457E-01 -0.6244090900489E+00
-0.6105350649288E-01 -0.6086288074553E+00
-0.6867567157198E-01 -0.5910776119073E+00
-0.7855364717194E-01 -0.5719279411301E+00
-0.9082574235957E-01 -0.5514244745233E+00
-0.1055877288452E+00 -0.5299005272087E+00
-0.1228558267251E+00 -0.5077979269894E+00
-0.1424967329733E+00 -0.4856928185620E+00
-0.1641012041424E+00 -0.4643205445935E+00
-0.7476828460334E-03 -0.1294548354081E-02
-0.1410967776279E-02 -0.2491979201780E-02
-0.1971501489462E-02 -0.3557389758706E-02
-0.2505017355796E-02 -0.4569352072502E-02
-0.3024948175708E-02 -0.5543185530656E-02
-0.3542714021098E-02 -0.6489949649149E-02
-0.4064495251720E-02 -0.7415703518865E-02
-0.4594480408310E-02 -0.8324469388630E-02
-0.5135436181405E-02 -0.9219039774530E-02
-0.5689233283068E-02 -0.1010151488314E-01
-0.6257106339973E-02 -0.1097359673508E-01
-0.6839825454148E-02 -0.1183677632682E-01
-0.7437822134252E-02 -0.1269248800010E-01
-0.8051268655960E-02 -0.1354221900185E-01
-0.8680095573635E-02 -0.1438756506173E-01
-0.9324128237802E-02 -0.1523049042630E-01
-0.9983014717103E-02 -0.1607338213525E-01
-0.1065623883309E-01 -0.1691944921491E-01
-0.1134324709368E-01 -0.1777326347610E-01
-0.1204528195540E-01 -0.1864119587439E-01
-0.1276753966557E-01 -0.1953244180771E-01
-0.1351605380068E-01 -0.2045363397588E-01
-0.1429475779459E-01 -0.2140707114126E-01
-0.1510555702499E-01 -0.2239273547946E-01
-0.1594947247428E-01 -0.2341035849586E-01
-0.1682760901035E-01 -0.2446058629508E-01
-0.1774173942313E-01 -0.2554543010653E-01
-0.1869466863145E-01 -0.2666839418116E-01
-0.1969054558655E-01 -0.2783443533933E-01
-0.2073501413872E-01 -0.2905000224527E-01
-0.2183474601210E-01 -0.3032210215797E-01
-0.2299755043133E-01 -0.3165735522358E-01
-0.2423352041054E-01 -0.3306575747659E-01
-0.2555653848521E-01 -0.3456207932854E-01
-0.2698603311072E-01 -0.3616736468473E-01
-0.2855102521514E-01 -0.3791187392517E-01
-0.3029537074077E-01 -0.3984127830274E-01
-0.3230753406606E-01 -0.4202476346735E-01
-0.3471419244728E-01 -0.4460068145690E-01
-0.3826204870697E-01 -0.4765315034927E-01
-0.6517697599851E-03 -0.1158770946485E-02
-0.1305552270133E-02 -0.2311487304607E-02
-0.1877696709967E-02 -0.3384001991705E-02
-0.2415258230979E-02 -0.4395782756284E-02
-0.2939838591809E-02 -0.5369885057510E-02
-0.3461441722678E-02 -0.6315544763612E-02
-0.3986838388876E-02 -0.7239304289280E-02
-0.4520256636094E-02 -0.8145333498414E-02
-0.5064556557401E-02 -0.9036615716124E-02
-0.5621646727101E-02 -0.9915395751722E-02
-0.6192783860273E-02 -0.1078349324774E-01
-0.6778743649326E-02 -0.1164249089042E-01
-0.7379951741253E-02 -0.1249389272396E-01
-0.7996564352121E-02 -0.1333923480360E-01
-0.8628485768185E-02 -0.1418013920354E-01
-0.9275504418087E-02 -0.1501856423312E-01
-0.9937215051948E-02 -0.1585683582041E-01
-0.1061305379980E-01 -0.1669791100407E-01
-0.1130268068878E-01 -0.1754531942206E-01
-0.1200772306315E-01 -0.1840322873664E-01
-0.1273347544222E-01 -0.1927892012324E-01
-0.1348595855243E-01 -0.2017894958837E-01
-0.1426920008654E-01 -0.2110678503543E-01
-0.1508521063614E-01 -0.2206359676748E-01
-0.1593508811399E-01 -0.2304975659723E-01
-0.1682001674822E-01 -0.2406594521680E-01
-0.1774189384835E-01 -0.2511371740437E-01
-0.1870373413829E-01 -0.2619574694510E-01
-0.1970994789377E-01 -0.2731594227826E-01
-0.2076634647549E-01 -0.2847976973694E-01
-0.2187978465364E-01 -0.2969334002002E-01
-0.2305856243079E-01 -0.3096182161902E-01
-0.2431359805661E-01 -0.3229246763565E-01
-0.2566001596908E-01 -0.3369569059520E-01
-0.2711950343781E-01 -0.3518579198782E-01
-0.2872426086298E-01 -0.3678227625667E-01
-0.3052791470641E-01 -0.3851061622132E-01
-0.3262192329173E-01 -0.4040883219079E-01
-0.3522132287213E-01 -0.4250082099880E-01
-0.3897960918633E-01 -0.4487860105783E-01
-0.5841874195416E-03 -0.1073559668628E-02
-0.1210264816715E-02 -0.2170351084557E-02
-0.1785768156286E-02 -0.3228089936639E-02
-0.2327471430275E-02 -0.4235378425428E-02
-0.2855737926124E-02 -0.5205658808118E-02
-0.3380995947551E-02 -0.6148000417711E-02
-0.3909831783317E-02 -0.7068174369102E-02
-0.4446590768189E-02 -0.7970317982105E-02
-0.4994162333540E-02 -0.8857408909078E-02
-0.5554487646841E-02 -0.9731739580952E-02
-0.6128837415300E-02 -0.1059517867587E-01
-0.6717991124656E-02 -0.1144935172955E-01
-0.7322368712465E-02 -0.1229579180962E-01
-0.7942113004379E-02 -0.1313604452779E-01
-0.8577108240107E-02 -0.1397171286617E-01
-0.9227118908662E-02 -0.1480468724837E-01
-0.9891719403757E-02 -0.1563712454773E-01
-0.1057041962082E-01 -0.1647152449017E-01
-0.1126322188593E-01 -0.1731041208654E-01
-0.1197210924785E-01 -0.1815653344844E-01
-0.1270229919343E-01 -0.1901606130807E-01
-0.1345958141926E-01 -0.1989538710517E-01
-0.1424796227329E-01 -0.2079854444666E-01
-0.1506958999584E-01 -0.2172739421935E-01
-0.1592573887963E-01 -0.2268271451904E-01
-0.1681777241238E-01 -0.2366518688752E-01
-0.1774778615369E-01 -0.2467598996848E-01
-0.1871903010313E-01 -0.2571712777220E-01
-0.1973613704466E-01 -0.2679166319269E-01
-0.2080507928282E-01 -0.2790411222181E-01
-0.2193300437337E-01 -0.2905945617536E-01
-0.2312886923727E-01 -0.3026128587611E-01
-0.2440457259326E-01 -0.3151434677267E-01
-0.2577669980416E-01 -0.3282518423035E-01
-0.2726912859190E-01 -0.3420236025199E-01
-0.2891815141985E-01 -0.3565632257005E-01
-0.3078242991848E-01 -0.3719970765986E-01
-0.3296672843444E-01 -0.3884433142479E-01
-0.3569693243524E-01 -0.4060187535473E-01
-0.3938101772423E-01 -0.4260903099550E-01
-0.5339422422548E-03 -0.1013381098416E-02
-0.1128014239203E-02 -0.2059117366690E-02
-0.1698602262710E-02 -0.3091289897390E-02
-0.2242329854431E-02 -0.4087583572517E-02
-0.2773405703677E-02 -0.5050790647140E-02
-0.3301775197926E-02 -0.5987448102820E-02
-0.3833780138788E-02 -0.6902456021612E-02
-0.4373700689701E-02 -0.7799526375665E-02
-0.4924426624955E-02 -0.8681495159992E-02
-0.5487901574198E-02 -0.9550596125738E-02
-0.6065399657376E-02 -0.1040868121149E-01
-0.6657698488029E-02 -0.1125736921455E-01
-0.7265211521952E-02 -0.1209818159143E-01
-0.7888071352785E-02 -0.1293263462272E-01
-0.8526150903195E-02 -0.1376226879690E-01
-0.9179209374100E-02 -0.1458884966636E-01
-0.9846850484835E-02 -0.1541427734123E-01
-0.1052874688827E-01 -0.1624053207368E-01
-0.1122526059632E-01 -0.1706930898968E-01
-0.1193864185333E-01 -0.1790241666441E-01
-0.1267394564561E-01 -0.1874532245708E-01
-0.1343665643640E-01 -0.1960421790176E-01
-0.1423069604069E-01 -0.2048336315229E-01
-0.1505834575308E-01 -0.2138497683124E-01
-0.1592110060512E-01 -0.2231006006987E-01
-0.1682056079053E-01 -0.2325925546800E-01
-0.1775906322050E-01 -0.2423342618641E-01
-0.1874010060153E-01 -0.2523403068747E-01
-0.1976851617879E-01 -0.2626341196697E-01
-0.2085047570330E-01 -0.2732517977945E-01
-0.2199348990247E-01 -0.2842316396974E-01
-0.2320721978595E-01 -0.2955945410270E-01
-0.2450457893145E-01 -0.3073662078350E-01
-0.2590353365893E-01 -0.3195807726965E-01
-0.2742998330078E-01 -0.3322793912250E-01
-0.2912291211481E-01 -0.3455076859263E-01
-0.3104416097059E-01 -0.3593125346742E-01
-0.3330014384381E-01 -0.3737472082376E-01
-0.3607487910394E-01 -0.3891021533526E-01
-0.3957419047276E-01 -0.4067895098906E-01
-0.4948413783090E-03 -0.9674592472347E-03
-0.1057739215102E-02 -0.1969013606663E-02
-0.1617927427704E-02 -0.2971902042799E-02
-0.2160724921582E-02 -0.3952091689567E-02
-0.2693403821921E-02 -0.4905092179718E-02
-0.3224196123799E-02 -0.5833913506634E-02
-0.3758970071951E-02 -0.6742187381353E-02
-0.4301805883495E-02 -0.7633008273645E-02
-0.4855522973319E-02 -0.8508915761284E-02
-0.5422036153706E-02 -0.9371996812694E-02
-0.6002605141745E-02 -0.1022402217818E-01
-0.6597997850542E-02 -0.1106655678990E-01
-0.7208619227558E-02 -0.1190107121722E-01
-0.7834595103337E-02 -0.1272901565700E-01
-0.8475797328413E-02 -0.1355182895841E-01
-0.9132002826936E-02 -0.1437110433294E-01
-0.9802891093140E-02 -0.1518843729437E-01
-0.1048834276093E-01 -0.1600530854283E-01
-0.1118904547464E-01 -0.1682276368727E-01
-0.1190742979301E-01 -0.1764197691979E-01
-0.1264834974496E-01 -0.1846792373215E-01
-0.1341697301690E-01 -0.1930657405993E-01
-0.1421710907774E-01 -0.2016221885297E-01
-0.1505115604758E-01 -0.2103721928130E-01
-0.1592084128810E-01 -0.2193266577732E-01
-0.1682802740300E-01 -0.2284912814874E-01
-0.1777531144821E-01 -0.2378720050005E-01
-0.1876642861870E-01 -0.2474788947573E-01
-0.1980643242716E-01 -0.2573291597511E-01
-0.2090171045607E-01 -0.2674506106359E-01
-0.2206016035285E-01 -0.2778709384520E-01
-0.2329211680679E-01 -0.2885980034868E-01
-0.2461140214375E-01 -0.2996401061536E-01
-0.2603711718000E-01 -0.3110082061121E-01
-0.2759648546010E-01 -0.3227145967078E-01
-0.2932956946059E-01 -0.3347730745284E-01
-0.3129748537767E-01 -0.3472072319185E-01
-0.3359504996200E-01 -0.3601131290853E-01
-0.3635047082886E-01 -0.3739275351002E-01
-0.3963899290095E-01 -0.3898783141888E-01
-0.4632767329200E-03 -0.9304299237854E-03
-0.9975264657750E-03 -0.1893901682192E-02
-0.1544261415913E-02 -0.2867162403930E-02
-0.2083371647081E-02 -0.3828101830037E-02
-0.2616210797803E-02 -0.4768214193752E-02
-0.3148621810026E-02 -0.5687258888445E-02
-0.3685673309684E-02 -0.6587327970901E-02
-0.4231115720983E-02 -0.7470757822906E-02
-0.4787621420885E-02 -0.8339679860796E-02
-0.5357037153954E-02 -0.9195954895887E-02
-0.5940587379456E-02 -0.1004121600189E-01
-0.6539019992800E-02 -0.1087693050232E-01
-0.7152728445444E-02 -0.1170448182001E-01
-0.7781835102888E-02 -0.1252522085344E-01
-0.8426221643004E-02 -0.1334045160043E-01
-0.9085705368204E-02 -0.1415156196271E-01
-0.9760074803440E-02 -0.1495982951989E-01
-0.1044943016841E-01 -0.1576629035047E-01
-0.1115473238016E-01 -0.1657149188028E-01
-0.1187852201450E-01 -0.1737616690244E-01
-0.1262543917938E-01 -0.1818491647685E-01
-0.1340034974378E-01 -0.1900347325212E-01
-0.1420694317595E-01 -0.1983604400224E-01
-0.1504771632300E-01 -0.2068499683319E-01
-0.1592462187324E-01 -0.2155142014440E-01
-0.1683978816327E-01 -0.2243578749934E-01
-0.1779607376327E-01 -0.2333846135082E-01
-0.1879745019196E-01 -0.2426007216348E-01
-0.1984917976612E-01 -0.2520180974004E-01
-0.2095788047596E-01 -0.2616573238692E-01
-0.2213181745052E-01 -0.2715370168195E-01
-0.2338190213835E-01 -0.2816546759626E-01
-0.2472265982488E-01 -0.2920059571294E-01
-0.2617390118051E-01 -0.3025870261669E-01
-0.2776326518932E-01 -0.3133953777593E-01
-0.2953002978949E-01 -0.3244360743711E-01
-0.3153034500591E-01 -0.3357473553093E-01
-0.3384028290470E-01 -0.3474912279835E-01
-0.3653780373896E-01 -0.3601635589763E-01
-0.3962320440824E-01 -0.3747475177211E-01
-0.4370453723152E-03 -0.8993192926076E-03
-0.9455344850545E-03 -0.1829635783222E-02
-0.1477416698283E-02 -0.2774365650972E-02
-0.2010665629775E-02 -0.3714451318782E-02
-0.2542203286452E-02 -0.4639645064935E-02
-0.3075355438144E-02 -0.5547232506342E-02
-0.3614132696916E-02 -0.6437760042084E-02
-0.4161824806126E-02 -0.7312721465095E-02
-0.4720883576165E-02 -0.8173766256635E-02
-0.5293045305871E-02 -0.9022466844980E-02
-0.5879476040817E-02 -0.9860270583989E-02
-0.6480891797108E-02 -0.1068850885296E-01
-0.7097670572558E-02 -0.1150844573739E-01
-0.7729934043588E-02 -0.1232130425708E-01
-0.8377583885693E-02 -0.1312822774566E-01
-0.9040496173891E-02 -0.1393038072519E-01
-0.9718586789888E-02 -0.1472873223001E-01
-0.1041216591084E-01 -0.1552393797598E-01
-0.1112241308682E-01 -0.1631616527382E-01
-0.1185192608714E-01 -0.1710583060918E-01
-0.1260513176817E-01 -0.1789722729786E-01
-0.1338661890804E-01 -0.1869583955745E-01
-0.1419995945691E-01 -0.1950572267034E-01
-0.1504773192793E-01 -0.2032916900216E-01
-0.1593209713080E-01 -0.2116720698391E-01
-0.1685543753000E-01 -0.2202020164442E-01
-0.1782086211982E-01 -0.2288831700584E-01
-0.1883256578371E-01 -0.2377187399080E-01
-0.1989600934113E-01 -0.2467162254949E-01
-0.2101802619378E-01 -0.2558902237468E-01
-0.2220719135539E-01 -0.2652521251109E-01
-0.2347484587992E-01 -0.2747920092276E-01
-0.2483593759760E-01 -0.2844976233362E-01
-0.2631046524210E-01 -0.2943578815745E-01
-0.2792551188658E-01 -0.3043668723964E-01
-0.2971777095646E-01 -0.3145370288594E-01
-0.3173544153208E-01 -0.3249364694769E-01
-0.3403429931765E-01 -0.3357778246190E-01
-0.3665358821586E-01 -0.3475495031301E-01
-0.3955452305813E-01 -0.3610072455482E-01
-0.4147392449331E-03 -0.8723467522104E-03
-0.9002204917382E-03 -0.1773392134393E-02
-0.1416875083423E-02 -0.2691205825487E-02
-0.1942718011802E-02 -0.3609858661564E-02
-0.2471631972465E-02 -0.4518744356792E-02
-0.3004636338871E-02 -0.5413496706464E-02
-0.3544555091737E-02 -0.6293302675108E-02
-0.4094107891321E-02 -0.7158803661738E-02
-0.4655459066623E-02 -0.8011127059601E-02
-0.5230193379110E-02 -0.8851513952225E-02
-0.5819394530142E-02 -0.9681188003396E-02
-0.6423733938607E-02 -0.1050131268474E-01
-0.7043569375809E-02 -0.1131300554669E-01
-0.7679023680641E-02 -0.1211733851481E-01
-0.8330026648255E-02 -0.1291527632657E-01
-0.8996525362750E-02 -0.1370775442804E-01
-0.9678568579460E-02 -0.1449545517556E-01
-0.1037665517684E-01 -0.1527871548803E-01
-0.1109213325384E-01 -0.1605741196846E-01
-0.1182761940304E-01 -0.1683172755257E-01
-0.1258733471913E-01 -0.1760568709960E-01
-0.1337561751198E-01 -0.1838451941617E-01
-0.1419592883646E-01 -0.1917209029367E-01
-0.1505091317765E-01 -0.1997056882383E-01
-0.1594291684070E-01 -0.2078089055540E-01
-0.1687455520715E-01 -0.2160330996252E-01
-0.1784916743726E-01 -0.2243782500911E-01
-0.1887115120445E-01 -0.2328450968846E-01
-0.1994614368150E-01 -0.2414376631737E-01
-0.2108115632746E-01 -0.2501658840706E-01
-0.2228498628229E-01 -0.2590358696580E-01
-0.2356922226502E-01 -0.2680331788461E-01
-0.2494891396213E-01 -0.2771419351862E-01
-0.2644370346285E-01 -0.2863499413090E-01
-0.2807921185051E-01 -0.2956559658222E-01
-0.2988815646634E-01 -0.3050881061896E-01
-0.3190940969094E-01 -0.3147442961572E-01
-0.3418017003485E-01 -0.3248634342449E-01
-0.3671233974582E-01 -0.3358900880611E-01
-0.3944920089678E-01 -0.3483939264483E-01
-0.3954199864065E-03 -0.8483815092554E-03
-0.8603518971752E-03 -0.1723210033291E-02
-0.1362002151012E-02 -0.2615817183130E-02
-0.1879438317120E-02 -0.3513081860879E-02
-0.2404623418570E-02 -0.4404803849783E-02
-0.2936636861682E-02 -0.5285651742086E-02
-0.3477108150780E-02 -0.6153726558916E-02
-0.4028116220888E-02 -0.7008873977487E-02
-0.4591482659472E-02 -0.7851691409852E-02
-0.5168603751541E-02 -0.8683064129665E-02
-0.5760457843294E-02 -0.9503965027631E-02
-0.6367658862354E-02 -0.1031536469984E-01
-0.6990538937172E-02 -0.1111821249962E-01
-0.7629222656464E-02 -0.1191341175563E-01
-0.8283673155185E-02 -0.1270173806151E-01
-0.8953914350315E-02 -0.1348390109626E-01
-0.9640123822015E-02 -0.1426032382944E-01
-0.1034296263889E-01 -0.1503107857653E-01
-0.1106390417074E-01 -0.1579581823570E-01
-0.1180555633199E-01 -0.1655454827646E-01
-0.1257194479764E-01 -0.1731104949145E-01
-0.1336718228843E-01 -0.1807029211708E-01
-0.1419462633281E-01 -0.1883593310684E-01
-0.1505697261245E-01 -0.1960999411149E-01
-0.1595672752436E-01 -0.2039330304494E-01
-0.1689671209733E-01 -0.2118601046653E-01
-0.1788046847857E-01 -0.2198798146578E-01
-0.1891256891043E-01 -0.2279910365994E-01
-0.1999879282205E-01 -0.2361952308991E-01
-0.2114627387988E-01 -0.2444989910640E-01
-0.2236392248596E-01 -0.2529050272960E-01
-0.2366337488416E-01 -0.2613970118291E-01
-0.2505945527726E-01 -0.2699590048058E-01
-0.2657094149440E-01 -0.2785821982447E-01
-0.2822125831480E-01 -0.2872747708852E-01
-0.3003830912608E-01 -0.2960825638080E-01
-0.3205155509960E-01 -0.3051260717424E-01
-0.3428271201791E-01 -0.3146494161421E-01
-0.3672552575065E-01 -0.3250388416704E-01
-0.3931710849127E-01 -0.3367202040958E-01
-0.3784385760131E-03 -0.8266708639044E-03
-0.8249593949622E-03 -0.1677698335876E-02
-0.1312156960320E-02 -0.2546720501127E-02
-0.1820611663283E-02 -0.3422994910652E-02
-0.2341199268307E-02 -0.4297103356801E-02
-0.2871464123218E-02 -0.5163260756004E-02
-0.3411919385040E-02 -0.6018767786676E-02
-0.3963975528671E-02 -0.6862774791445E-02
-0.4529072178836E-02 -0.7695369537976E-02
-0.5108386516174E-02 -0.8517073951237E-02
-0.5702770820705E-02 -0.9328593784402E-02
-0.6312769128195E-02 -0.1013068902675E-01
-0.6938682046898E-02 -0.1092412491818E-01
-0.7580635041336E-02 -0.1170962433560E-01
-0.8238626598710E-02 -0.1248776950493E-01
-0.8912757583234E-02 -0.1325905356854E-01
-0.9603323882054E-02 -0.1402366855568E-01
-0.1031112083724E-01 -0.1478146792781E-01
-0.1103771073493E-01 -0.1553193112627E-01
-0.1178567305770E-01 -0.1627492527650E-01
-0.1255884895792E-01 -0.1701400345310E-01
-0.1336114714791E-01 -0.1775387753353E-01
-0.1419582793716E-01 -0.1849798844161E-01
-0.1506562380077E-01 -0.1924820175171E-01
-0.1597317447068E-01 -0.2000523584365E-01
-0.1692147558623E-01 -0.2076915079146E-01
-0.1791423986506E-01 -0.2153971315018E-01
-0.1895617900252E-01 -0.2231668281028E-01
-0.2005317030501E-01 -0.2310003734609E-01
-0.2121240035025E-01 -0.2389022662506E-01
-0.2244277218906E-01 -0.2468735213190E-01
-0.2375576727871E-01 -0.2548981512688E-01
-0.2516567835653E-01 -0.2629628643480E-01
-0.2668999269214E-01 -0.2710651149588E-01
-0.2834943194987E-01 -0.2792243891583E-01
-0.3016676976632E-01 -0.2875024783779E-01
-0.3216278655431E-01 -0.2960333294899E-01
-0.3434705429791E-01 -0.3050517443158E-01
-0.3670191665893E-01 -0.3148838399740E-01
-0.3916451335326E-01 -0.3258471314098E-01
-0.3633311998834E-03 -0.8066940712809E-03
-0.7932823212585E-03 -0.1635848823728E-02
-0.1266742514622E-02 -0.2482750177111E-02
-0.1765956532034E-02 -0.3338613825152E-02
-0.2281301221406E-02 -0.4194949826047E-02
-0.2809166513610E-02 -0.5045872983777E-02
-0.3349077244012E-02 -0.5888140740462E-02
-0.3901785378289E-02 -0.6720328823017E-02
-0.4468327238907E-02 -0.7542056948967E-02
-0.5049638107803E-02 -0.8353490780226E-02
-0.5646426801559E-02 -0.9155062487313E-02
-0.6259156131506E-02 -0.9947310788931E-02
-0.6888089050735E-02 -0.1073080655352E-01
-0.7533349541343E-02 -0.1150608560919E-01
-0.8194970380361E-02 -0.1227353766876E-01
-0.8873124897875E-02 -0.1303345208811E-01
-0.9568212804818E-02 -0.1378581725023E-01
-0.1028113652872E-01 -0.1453030560068E-01
-0.1101351707602E-01 -0.1526626112043E-01
-0.1176789105451E-01 -0.1599344083296E-01
-0.1254792525542E-01 -0.1671518220172E-01
-0.1335734215393E-01 -0.1743594180741E-01
-0.1419930922092E-01 -0.1815894537568E-01
-0.1507658126576E-01 -0.1888590402565E-01
-0.1599190400602E-01 -0.1961743354245E-01
-0.1694841438362E-01 -0.2035352184810E-01
-0.1794995943112E-01 -0.2109387196758E-01
-0.1900134960731E-01 -0.2183817203214E-01
-0.2010850803670E-01 -0.2258631275933E-01
-0.2127859685677E-01 -0.2333864678962E-01
-0.2252038826274E-01 -0.2409525191769E-01
-0.2384501818652E-01 -0.2485473865671E-01
-0.2526598388659E-01 -0.2561622839244E-01
-0.2679916218716E-01 -0.2638023773978E-01
-0.2846229647159E-01 -0.2714983229881E-01
-0.3027311881501E-01 -0.2793242132618E-01
-0.3224486718260E-01 -0.2874191779951E-01
-0.3437800383861E-01 -0.2960001485301E-01
-0.3664817581671E-01 -0.3053375368954E-01
-0.3899558821184E-01 -0.3156679958089E-01
-0.3497567679043E-03 -0.7880790577159E-03
-0.7647210546656E-03 -0.1596916089442E-02
-0.1225224898120E-02 -0.2422986985472E-02
-0.1715163676154E-02 -0.3259096354239E-02
-0.2224814900584E-02 -0.4097700218709E-02
-0.2749742958572E-02 -0.4933042459006E-02
-0.3288633936704E-02 -0.5761549622293E-02
-0.3841619585775E-02 -0.6581346081388E-02
-0.4409328704181E-02 -0.7391638433572E-02
-0.4992440419032E-02 -0.8192254819050E-02
-0.5591506658463E-02 -0.8983356086690E-02
-0.6206899184484E-02 -0.9765255583878E-02
-0.6838837119883E-02 -0.1053832486504E-01
-0.7487439256359E-02 -0.1130291077875E-01
-0.8152768933807E-02 -0.1205921526482E-01
-0.8835064055453E-02 -0.1280733846395E-01
-0.9534811557628E-02 -0.1354709018663E-01
-0.1025299554853E-01 -0.1427799291303E-01
-0.1099127068269E-01 -0.1499928430146E-01
-0.1175211976121E-01 -0.1571063246860E-01
-0.1253904396324E-01 -0.1641516923037E-01
-0.1335559349977E-01 -0.1711710124823E-01
-0.1420484513791E-01 -0.1781944517327E-01
-0.1508956124036E-01 -0.1852376594001E-01
-0.1601256599202E-01 -0.1923058949691E-01
-0.1697710308531E-01 -0.1993985308793E-01
-0.1798711502550E-01 -0.2065123095981E-01
-0.1904746641973E-01 -0.2136439164647E-01
-0.2016406944141E-01 -0.2207921223614E-01
-0.2134398154729E-01 -0.2279604469522E-01
-0.2259572535064E-01 -0.2351506090967E-01
-0.2392992257824E-01 -0.2423520748982E-01
-0.2535906546694E-01 -0.2495616483189E-01
-0.2689721346000E-01 -0.2567925449164E-01
-0.2855905784468E-01 -0.2640852110342E-01
-0.3035764578398E-01 -0.2715219027720E-01
-0.3229993843644E-01 -0.2792404989303E-01
-0.3437981665148E-01 -0.2874359579404E-01
-0.3656939301596E-01 -0.2963298390071E-01
-0.3881323950013E-01 -0.3060984446254E-01
-0.3374580615522E-03 -0.7705526281552E-03
-0.7387992264013E-03 -0.1560338831159E-02
-0.1187136741931E-02 -0.2366702821694E-02
-0.1667920508730E-02 -0.3183729800004E-02
-0.2171589751633E-02 -0.4004772299495E-02
-0.2693152994111E-02 -0.4824341449759E-02
-0.3230609478062E-02 -0.5638698184429E-02
-0.3783527532997E-02 -0.6445630129879E-02
-0.4352138800302E-02 -0.7243991878664E-02
-0.4936860400725E-02 -0.8033301178046E-02
-0.5538078227590E-02 -0.8813457038863E-02
-0.6156064973031E-02 -0.9584549155446E-02
-0.6790989930985E-02 -0.1034674960790E-01
-0.7442961890695E-02 -0.1110021831498E-01
-0.8112068907676E-02 -0.1184497703985E-01
-0.8798603232721E-02 -0.1258095198245E-01
-0.9503121599227E-02 -0.1330779689083E-01
-0.1022666658823E-01 -0.1402490977385E-01
-0.1097090553190E-01 -0.1473144472594E-01
-0.1173825872222E-01 -0.1542699752953E-01
-0.1253206876249E-01 -0.1611450330818E-01
-0.1335572403841E-01 -0.1679792598384E-01
-0.1421221049649E-01 -0.1748008268223E-01
-0.1510428283076E-01 -0.1816240456501E-01
-0.1603481627556E-01 -0.1884534404644E-01
-0.1700712624207E-01 -0.1952881074517E-01
-0.1802521043917E-01 -0.2021248358431E-01
-0.1909394084531E-01 -0.2089605874985E-01
-0.2021916015438E-01 -0.2157946301870E-01
-0.2140774256736E-01 -0.2226312687845E-01
-0.2266785321521E-01 -0.2294740544030E-01
-0.2400945986582E-01 -0.2363166328668E-01
-0.2544389948542E-01 -0.2431618423597E-01
-0.2698331254784E-01 -0.2500305090691E-01
-0.2863942001214E-01 -0.2569708859444E-01
-0.3042109152997E-01 -0.2640695420817E-01
-0.3233023748199E-01 -0.2714586141449E-01
-0.3435615869627E-01 -0.2793099219019E-01
-0.3646949909919E-01 -0.2878034575484E-01
-0.3861957547979E-01 -0.2970702312768E-01
-0.3262367782952E-03 -0.7539094786618E-03
-0.7151348164775E-03 -0.1525687278886E-02
-0.1152073417614E-02 -0.2313317395229E-02
-0.1623925353243E-02 -0.3111914630705E-02
-0.2121454336272E-02 -0.3915647452265E-02
-0.2639326290593E-02 -0.4719368972134E-02
-0.3174996306955E-02 -0.5519297234807E-02
-0.3727536074742E-02 -0.6312983289749E-02
-0.4296801692894E-02 -0.7098991483197E-02
-0.4882950023455E-02 -0.7876561542480E-02
-0.5486196035294E-02 -0.8645345737852E-02
-0.6106707292258E-02 -0.9405216753776E-02
-0.6744597637336E-02 -0.1015615116466E-01
-0.7399960245442E-02 -0.1089812728560E-01
-0.8072900494707E-02 -0.1163099631937E-01
-0.8763753326746E-02 -0.1235452581197E-01
-0.9473127862088E-02 -0.1306823343903E-01
-0.1020210420140E-01 -0.1377141380268E-01
-0.1095234459192E-01 -0.1446315559113E-01
-0.1172619945914E-01 -0.1514299573470E-01
-0.1252685808262E-01 -0.1581368119274E-01
-0.1335755430414E-01 -0.1647894165932E-01
-0.1422118104628E-01 -0.1714140639438E-01
-0.1512046966830E-01 -0.1780238756544E-01
-0.1605831934881E-01 -0.1846228218411E-01
-0.1703808232568E-01 -0.1912099555270E-01
-0.1806377088993E-01 -0.1977824244831E-01
-0.1914021716915E-01 -0.2043378815766E-01
-0.2027313676642E-01 -0.2108766172511E-01
-0.2146914742377E-01 -0.2174043371746E-01
-0.2273596396467E-01 -0.2239270451973E-01
-0.2408279274474E-01 -0.2304429970791E-01
-0.2551972307271E-01 -0.2369610213177E-01
-0.2705696413915E-01 -0.2435086405099E-01
-0.2870345631384E-01 -0.2501397719676E-01
-0.3046446158935E-01 -0.2569420883750E-01
-0.3233794090524E-01 -0.2640391642986E-01
-0.3431014716613E-01 -0.2715802859432E-01
-0.3635156971282E-01 -0.2797106678291E-01
-0.3841617870545E-01 -0.2885270116997E-01
-0.3159370137992E-03 -0.7379922147847E-03
-0.6934183574631E-03 -0.1492627370368E-02
-0.1119686326860E-02 -0.2262364964939E-02
-0.1582895031876E-02 -0.3043147728786E-02
-0.2074227470170E-02 -0.3829868790345E-02
-0.2588170985048E-02 -0.4617755460148E-02
-0.3121764027209E-02 -0.5403070117088E-02
-0.3673651865186E-02 -0.6183210932086E-02
-0.4243344485117E-02 -0.6956510614523E-02
-0.4830746608741E-02 -0.7721965774233E-02
-0.5435901354196E-02 -0.8479001061119E-02
-0.6058867091526E-02 -0.9227282755394E-02
-0.6699697135632E-02 -0.9966599313927E-02
-0.7358462952404E-02 -0.1069675537762E-01
-0.8035278843260E-02 -0.1141744256941E-01
-0.8730510064351E-02 -0.1212828468210E-01
-0.9444801262726E-02 -0.1282868101554E-01
-0.1017925123606E-01 -0.1351784034901E-01
-0.1093550185967E-01 -0.1419480077929E-01
-0.1171582708986E-01 -0.1485905174015E-01
-0.1252326641616E-01 -0.1551316039398E-01
-0.1336090367534E-01 -0.1616063163302E-01
-0.1423153473058E-01 -0.1680391967367E-01
-0.1513785157772E-01 -0.1744423356427E-01
-0.1608275074661E-01 -0.1808193358522E-01
-0.1706958708129E-01 -0.1871694321898E-01
-0.1810234745508E-01 -0.1934904119230E-01
-0.1918577803106E-01 -0.1997809696482E-01
-0.2032541287376E-01 -0.2060428350637E-01
-0.2152754818947E-01 -0.2122835617817E-01
-0.2279937323387E-01 -0.2185119859929E-01
-0.2414925818410E-01 -0.2247310893724E-01
-0.2558600440417E-01 -0.2309553066532E-01
-0.2711794722658E-01 -0.2372177065069E-01
-0.2875150224206E-01 -0.2435758438509E-01
-0.3048889657650E-01 -0.2501160227567E-01
-0.3232508543439E-01 -0.2569517275535E-01
-0.3424441918440E-01 -0.2642112842072E-01
-0.3621804366646E-01 -0.2720110753358E-01
-0.3820427203917E-01 -0.2804214984410E-01
-0.3064340330476E-03 -0.7226780721370E-03
-0.6733965551930E-03 -0.1460895880229E-02
-0.1089675465751E-02 -0.2213468981858E-02
-0.1544568241963E-02 -0.2977006964206E-02
-0.2029725956498E-02 -0.3747036722218E-02
-0.2539580556196E-02 -0.4519164568485E-02
-0.3070863889758E-02 -0.5289756311797E-02
-0.3621863855481E-02 -0.6056124737863E-02
-0.4191778480693E-02 -0.6816424114463E-02
-0.4780273424136E-02 -0.7569443221717E-02
-0.5387222504065E-02 -0.8314400774119E-02
-0.6012572746831E-02 -0.9050770255657E-02
-0.6656312533865E-02 -0.9778162099146E-02
-0.7318485340911E-02 -0.1049621718818E-01
-0.7999205456579E-02 -0.1120447940663E-01
-0.8698855893097E-02 -0.1190244309807E-01
-0.9418100823682E-02 -0.1258940488044E-01
-0.1015804084894E-01 -0.1326450257376E-01
-0.1092028408606E-01 -0.1392673603567E-01
-0.1170702179671E-01 -0.1457555703303E-01
-0.1252114564050E-01 -0.1521336122512E-01
-0.1336559166031E-01 -0.1584343868070E-01
-0.1424305308649E-01 -0.1646808186239E-01
-0.1515616629919E-01 -0.1708841275407E-01
-0.1610779930024E-01 -0.1770477315831E-01
-0.1710127645818E-01 -0.1831712560218E-01
-0.1814052070370E-01 -0.1892533719518E-01
-0.1923014854623E-01 -0.1952941002188E-01
-0.2037546296846E-01 -0.2012969207906E-01
-0.2158238349513E-01 -0.2072715295050E-01
-0.2285751704725E-01 -0.2132297715667E-01
-0.2420835365685E-01 -0.2191792327066E-01
-0.2564241035298E-01 -0.2251393582762E-01
-0.2716625630027E-01 -0.2311475491847E-01
-0.2878407097241E-01 -0.2372632307898E-01
-0.3049558618471E-01 -0.2435695619868E-01
-0.3229353456458E-01 -0.2501693373386E-01
-0.3416120446869E-01 -0.2571719479542E-01
-0.3607087894283E-01 -0.2646699972792E-01
-0.3798482290950E-01 -0.2727134331275E-01
-0.2976264490180E-03 -0.7078698492414E-03
-0.6548599509268E-03 -0.1430282838314E-02
-0.1061782289652E-02 -0.2166322772801E-02
-0.1508706381700E-02 -0.2913137710247E-02
-0.1987769713884E-02 -0.3666803375150E-02
-0.2493439271268E-02 -0.4423293019015E-02
-0.3022232818481E-02 -0.5179113505226E-02
-0.3572145800610E-02 -0.5931545024668E-02
-0.4142100615271E-02 -0.6678610091649E-02
-0.4731540484604E-02 -0.7418923771407E-02
-0.5340175358119E-02 -0.8151521840924E-02
-0.5967840523257E-02 -0.8875700697175E-02
-0.6614455774773E-02 -0.9590904866766E-02
-0.7280030385826E-02 -0.1029662283394E-01
-0.7964669545153E-02 -0.1099226305986E-01
-0.8668761670589E-02 -0.1167720404874E-01
-0.9392975485421E-02 -0.1235065371860E-01
-0.1013839820570E-01 -0.1301169166267E-01
-0.1090659226854E-01 -0.1365928999929E-01
-0.1169966016689E-01 -0.1429287150042E-01
-0.1252034630339E-01 -0.1491466853260E-01
-0.1337143920517E-01 -0.1552776656372E-01
-0.1425552266325E-01 -0.1613430954569E-01
-0.1517516113913E-01 -0.1673534797226E-01
-0.1613316914461E-01 -0.1733122230895E-01
-0.1713280903697E-01 -0.1792195277200E-01
-0.1817790346845E-01 -0.1850751527744E-01
-0.1927289906930E-01 -0.1908806642910E-01
-0.2042282432143E-01 -0.1966415057724E-01
-0.2163317778858E-01 -0.2023696769422E-01
-0.2290994544560E-01 -0.2080800464760E-01
-0.2425972061115E-01 -0.2137845153515E-01
-0.2568877439183E-01 -0.2195068353859E-01
-0.2720205038094E-01 -0.2252875755512E-01
-0.2880178914408E-01 -0.2311865806000E-01
-0.3048571432188E-01 -0.2372826804469E-01
-0.3224497112435E-01 -0.2436680090409E-01
-0.3406239244088E-01 -0.2504351798849E-01
-0.3591166472734E-01 -0.2576572606472E-01
-0.3775860995003E-01 -0.2653680969407E-01
-0.2894306545027E-03 -0.6934895679728E-03
-0.6376335776903E-03 -0.1400618887129E-02
-0.1035783305159E-02 -0.2120674778832E-02
-0.1475092905410E-02 -0.2851241386697E-02
-0.1948184990305E-02 -0.3588866714479E-02
-0.2449626359955E-02 -0.4329869193528E-02
-0.2975796889714E-02 -0.5070918467280E-02
-0.3524458655404E-02 -0.5809302256567E-02
-0.4094294967170E-02 -0.6542951230047E-02
-0.4684545499126E-02 -0.7270338645767E-02
-0.5294764008187E-02 -0.7990340640964E-02
-0.5924675184388E-02 -0.8702093532423E-02
-0.6574127369489E-02 -0.9404889461189E-02
-0.7243089694200E-02 -0.1009807683755E-01
-0.7931649310809E-02 -0.1078094119837E-01
-0.8640188172101E-02 -0.1145275809068E-01
-0.9369365668958E-02 -0.1211265926268E-01
-0.1012024194063E-01 -0.1275967712778E-01
-0.1089432296410E-01 -0.1339276513049E-01
-0.1169361642114E-01 -0.1401132478276E-01
-0.1252071884775E-01 -0.1461743322612E-01
-0.1337826996562E-01 -0.1521398153680E-01
-0.1426873638479E-01 -0.1580297797218E-01
-0.1519459448321E-01 -0.1638541616204E-01
-0.1615858143476E-01 -0.1696165077907E-01
-0.1716386793913E-01 -0.1753177577328E-01
-0.1821414278690E-01 -0.1809589215154E-01
-0.1931364671878E-01 -0.1865432669091E-01
-0.2046709714852E-01 -0.1920783271300E-01
-0.2167953846260E-01 -0.1975784572470E-01
-0.2295631396076E-01 -0.2030614412348E-01
-0.2430312685336E-01 -0.2085431006065E-01
-0.2572506664363E-01 -0.2140507576035E-01
-0.2722561055017E-01 -0.2196271011748E-01
-0.2880534943448E-01 -0.2253312623303E-01
-0.3046042582741E-01 -0.2312370343629E-01
-0.3218090367517E-01 -0.2374263127470E-01
-0.3394959084180E-01 -0.2439770463618E-01
-0.3574170352356E-01 -0.2509462817282E-01
-0.3752626395247E-01 -0.2583551641793E-01
-0.2817767791049E-03 -0.6794739517370E-03
-0.6215698362354E-03 -0.1371766040917E-02
-0.1011484514135E-02 -0.2076317212712E-02
-0.1443531893411E-02 -0.2791065879612E-02
-0.1910806216209E-02 -0.3512964830501E-02
-0.2408019119868E-02 -0.4238650987607E-02
-0.2931474252674E-02 -0.4964967048556E-02
-0.3478752784332E-02 -0.5689237872835E-02
-0.4048334277064E-02 -0.6409335662397E-02
-0.4639274908398E-02 -0.7123620962935E-02
-0.5250981545437E-02 -0.7830833095331E-02
-0.5883070709429E-02 -0.8529965916506E-02
-0.6535317203791E-02 -0.9220173558866E-02
-0.7207644500330E-02 -0.9900677248979E-02
-0.7900113152703E-02 -0.1057065205477E-01
-0.8613087437919E-02 -0.1122928271918E-01
-0.9347204636442E-02 -0.1187563611644E-01
-0.1010348542692E-01 -0.1250870717152E-01
-0.1088336945671E-01 -0.1312743856978E-01
-0.1168876353825E-01 -0.1373121748873E-01
-0.1252211475632E-01 -0.1432197368967E-01
-0.1338591150092E-01 -0.1490241384206E-01
-0.1428249480505E-01 -0.1547442262081E-01
-0.1521423712531E-01 -0.1603895014836E-01
-0.1618377574488E-01 -0.1659637893922E-01
-0.1719416222331E-01 -0.1714688991969E-01
-0.1824892106842E-01 -0.1769072138744E-01
-0.1935205581085E-01 -0.1822838021572E-01
-0.2050794337295E-01 -0.1876083383452E-01
-0.2172115142363E-01 -0.1928974967050E-01
-0.2299637385625E-01 -0.1981717816276E-01
-0.2433844904956E-01 -0.2034504839543E-01
-0.2575136711294E-01 -0.2087637815990E-01
-0.2723730556009E-01 -0.2141555833345E-01
-0.2879547651469E-01 -0.2196834652305E-01
-0.3042080754010E-01 -0.2254158355442E-01
-0.3210267996096E-01 -0.2314250180769E-01
-0.3382417462854E-01 -0.2377762082991E-01
-0.3556207512746E-01 -0.2445134388876E-01
-0.3728828753337E-01 -0.2516476763334E-01
-0.2746057019993E-03 -0.6657711673622E-03
-0.6065430271620E-03 -0.1343610803991E-02
-0.9887166878738E-03 -0.2033077294309E-02
-0.1413846262119E-02 -0.2732397596086E-02
-0.1875476917527E-02 -0.3438870636856E-02
-0.2368495161265E-02 -0.4149423285274E-02
-0.2889177524473E-02 -0.4861073557485E-02
-0.3434969945650E-02 -0.5571204572195E-02
-0.4004181424661E-02 -0.6277657467921E-02
-0.4595704967992E-02 -0.6978706080929E-02
-0.5208810917995E-02 -0.7672974708806E-02
-0.5843011083523E-02 -0.8359332424971E-02
-0.6498005386515E-02 -0.9036810122087E-02
-0.7173666648021E-02 -0.9704514962248E-02
-0.7870020792173E-02 -0.1036152378275E-01
-0.8587403980381E-02 -0.1100694195909E-01
-0.9326419685645E-02 -0.1163978172693E-01
-0.1008803789301E-01 -0.1225900909839E-01
-0.1087362280024E-01 -0.1286356295405E-01
-0.1168497427778E-01 -0.1345282232437E-01
-0.1252438760078E-01 -0.1402857712679E-01
-0.1339419636105E-01 -0.1459335921648E-01
-0.1429660722073E-01 -0.1514894089710E-01
-0.1523387338324E-01 -0.1569624066421E-01
-0.1620851113867E-01 -0.1623568042338E-01
-0.1722342778927E-01 -0.1676753846233E-01
-0.1828195656150E-01 -0.1729219868704E-01
-0.1938783736861E-01 -0.1781035289693E-01
-0.2054508429478E-01 -0.1832318157097E-01
-0.2175777561390E-01 -0.1883257381016E-01
-0.2302996186052E-01 -0.1934082702424E-01
-0.2436565615510E-01 -0.1985017023982E-01
-0.2576784248415E-01 -0.2036384084299E-01
-0.2723756468777E-01 -0.2088627739723E-01
-0.2877290305725E-01 -0.2142302294154E-01
-0.3036787948286E-01 -0.2198037173902E-01
-0.3201150129979E-01 -0.2256467627017E-01
-0.3368732982948E-01 -0.2318135896537E-01
-0.3537368112912E-01 -0.2383373390788E-01
-0.3704507401654E-01 -0.2452219698601E-01
-0.2678619923895E-03 -0.6523264705105E-03
-0.5924403256487E-03 -0.1316050841735E-02
-0.9673320795825E-03 -0.1990820450963E-02
-0.1385886708872E-02 -0.2675098656294E-02
-0.1842074267609E-02 -0.3366480100430E-02
-0.2330973104032E-02 -0.4062152750177E-02
-0.2848869395803E-02 -0.4759306133698E-02
-0.3393111518985E-02 -0.5455395354707E-02
-0.3961867245209E-02 -0.6148252043965E-02
-0.4553885480311E-02 -0.6836085849241E-02
-0.5168310318439E-02 -0.7517426346019E-02
-0.5804552530747E-02 -0.8191035268000E-02
-0.6462235980491E-02 -0.8855835397489E-02
-0.7141177926401E-02 -0.9510833408102E-02
-0.7841361773649E-02 -0.1015502037183E-01
-0.8563085515607E-02 -0.1078743364153E-01
-0.9306907840719E-02 -0.1140704065853E-01
-0.1007373773964E-01 -0.1201278655650E-01
-0.1086485572517E-01 -0.1260361274261E-01
-0.1168194937337E-01 -0.1317889583259E-01
-0.1252716055721E-01 -0.1374029449898E-01
-0.1340266564744E-01 -0.1429017656338E-01
-0.1431052988086E-01 -0.1483021315156E-01
-0.1525287468069E-01 -0.1536130150138E-01
-0.1623207834650E-01 -0.1588391147399E-01
-0.1725088446031E-01 -0.1639842461195E-01
-0.1831241560648E-01 -0.1690537264542E-01
-0.1942013197681E-01 -0.1740562944208E-01
-0.2057767626438E-01 -0.1790057859509E-01
-0.2178864258339E-01 -0.1839231161788E-01
-0.2305646616036E-01 -0.1888334008261E-01
-0.2438439895344E-01 -0.1937614185629E-01
-0.2577453433437E-01 -0.1987411166140E-01
-0.2722696025370E-01 -0.2038167557058E-01
-0.2873886307643E-01 -0.2090412657628E-01
-0.3030362941533E-01 -0.2144723022170E-01
-0.3191013643274E-01 -0.2201655357995E-01
-0.3354254721438E-01 -0.2261658847043E-01
-0.3518065670465E-01 -0.2324977422674E-01
-0.3680115887606E-01 -0.2391587373307E-01
-0.2615077105765E-03 -0.6391179859957E-03
-0.5791738110773E-03 -0.1289019718788E-02
-0.9471997708409E-03 -0.1949420050128E-02
-0.1359497106816E-02 -0.2618975870196E-02
-0.1810434914341E-02 -0.3295534454832E-02
-0.2295294108550E-02 -0.3976517872947E-02
-0.2810400344538E-02 -0.4659280772802E-02
-0.3353037473750E-02 -0.5341359682477E-02
-0.3921259402020E-02 -0.6020594399072E-02
-0.4513689850749E-02 -0.6695150222897E-02
-0.5129357675952E-02 -0.7363480714896E-02
-0.5767577313898E-02 -0.8024256744249E-02
-0.6427896473470E-02 -0.8676307304739E-02
-0.7110073065203E-02 -0.9318551186712E-02
-0.7814041341940E-02 -0.9949904892859E-02
-0.8540052509404E-02 -0.1056934754570E-01
-0.9288610986041E-02 -0.1117581000523E-01
-0.1006055569481E-01 -0.1176822306424E-01
-0.1085707578698E-01 -0.1234553575349E-01
-0.1167974077437E-01 -0.1290712680276E-01
-0.1253053595942E-01 -0.1345453002703E-01
-0.1341147612124E-01 -0.1398995729544E-01
-0.1432447646275E-01 -0.1451498722112E-01
-0.1527151321493E-01 -0.1503050402799E-01
-0.1625480939816E-01 -0.1553703241518E-01
-0.1727692547471E-01 -0.1603506180146E-01
-0.1834075418530E-01 -0.1652527307650E-01
-0.1944945991389E-01 -0.1700871890632E-01
-0.2060630496749E-01 -0.1748697641552E-01
-0.2181440298098E-01 -0.1796232195599E-01
-0.2307659791890E-01 -0.1843745286347E-01
-0.2439543556203E-01 -0.1891505375783E-01
-0.2577221564055E-01 -0.1939862788919E-01
-0.2720621526148E-01 -0.1989254496972E-01
-0.2869391440372E-01 -0.2040182694603E-01
-0.3022826996357E-01 -0.2093173307529E-01
-0.3179820282395E-01 -0.2148712465749E-01
-0.3338856406926E-01 -0.2207169361171E-01
-0.3498053088708E-01 -0.2268715551162E-01
-0.3655286166133E-01 -0.2333275063938E-01
-0.2555045031246E-03 -0.6261151922392E-03
-0.5666614958603E-03 -0.1262451015598E-02
-0.9282038028214E-03 -0.1908772811253E-02
-0.1334546179321E-02 -0.2563896389645E-02
-0.1780430554482E-02 -0.3225884841149E-02
-0.2261344995178E-02 -0.3892369155350E-02
-0.2773677214504E-02 -0.4560860560337E-02
-0.3314674084077E-02 -0.5228982514540E-02
-0.3882299922259E-02 -0.5894596832743E-02
-0.4475070971584E-02 -0.6555841502108E-02
-0.5091911730677E-02 -0.7211111070922E-02
-0.5732045359019E-02 -0.7859001103748E-02
-0.6394943843953E-02 -0.8498260614185E-02
-0.7080302571998E-02 -0.9127732689732E-02
-0.7788000725041E-02 -0.9746269941305E-02
-0.8518234947144E-02 -0.1035280240416E-01
-0.9271446820200E-02 -0.1094623184835E-01
-0.1004839694535E-01 -0.1152548055983E-01
-0.1085017595122E-01 -0.1208950962953E-01
-0.1167822963059E-01 -0.1263770380000E-01
-0.1253438329103E-01 -0.1317147794583E-01
-0.1342048550269E-01 -0.1369289541984E-01
-0.1433829301816E-01 -0.1420344990163E-01
-0.1528962433876E-01 -0.1470401930310E-01
-0.1627653155759E-01 -0.1519518810112E-01
-0.1730137505158E-01 -0.1567755590365E-01
-0.1836680180394E-01 -0.1615195146636E-01
-0.1947566854749E-01 -0.1661960019229E-01
-0.2063085343665E-01 -0.1708226059885E-01
-0.2183499923852E-01 -0.1754237469220E-01
-0.2309038847157E-01 -0.1800279755047E-01
-0.2439891939182E-01 -0.1846638219356E-01
-0.2576119321007E-01 -0.1893669951642E-01
-0.2717580973522E-01 -0.1941803055366E-01
-0.2863870583285E-01 -0.1991511745450E-01
-0.3014257678655E-01 -0.2043274331502E-01
-0.3167652044038E-01 -0.2097513974020E-01
-0.3322611847463E-01 -0.2154531500679E-01
-0.3477386805119E-01 -0.2214437493261E-01
-0.3630029132188E-01 -0.2277119335462E-01
-0.2498185254411E-03 -0.6132922211323E-03
-0.5548310070980E-03 -0.1236288272738E-02
-0.9102406542227E-03 -0.1868790581585E-02
-0.1310914343067E-02 -0.2509745662126E-02
-0.1751941198276E-02 -0.3157401089337E-02
-0.2229016559624E-02 -0.3809573712980E-02
-0.2738606874067E-02 -0.4463921657063E-02
-0.3277944695596E-02 -0.5118157894836E-02
-0.3844925996227E-02 -0.5770176941777E-02
-0.4437975823265E-02 -0.6418103957081E-02
-0.5055924824571E-02 -0.7060289758155E-02
-0.5697910120739E-02 -0.7695269106890E-02
-0.6363328851420E-02 -0.8321724165707E-02
-0.7051811289091E-02 -0.8938433948501E-02
-0.7763176338067E-02 -0.9544197275556E-02
-0.8497559132340E-02 -0.1013790359876E-01
-0.9255330717065E-02 -0.1071843242055E-01
-0.1003716587476E-01 -0.1128470270784E-01
-0.1084405004465E-01 -0.1183569142387E-01
-0.1167729981877E-01 -0.1237079259740E-01
-0.1253857696074E-01 -0.1289130756984E-01
-0.1342955912681E-01 -0.1339915792583E-01
-0.1435183652608E-01 -0.1389575889803E-01
-0.1530705834020E-01 -0.1438198729235E-01
-0.1629709173578E-01 -0.1485849047879E-01
-0.1732408240841E-01 -0.1532597849060E-01
-0.1839041878195E-01 -0.1578542442818E-01
-0.1949864196110E-01 -0.1623821820168E-01
-0.2065124669550E-01 -0.1668628588173E-01
-0.2185041923134E-01 -0.1713221534779E-01
-0.2309791445431E-01 -0.1757899275996E-01
-0.2439504319014E-01 -0.1802960547927E-01
-0.2574179927968E-01 -0.1848765871026E-01
-0.2713622643028E-01 -0.1895732229436E-01
-0.2857385900236E-01 -0.1944305914550E-01
-0.3004726779365E-01 -0.1994921055076E-01
-0.3154582581769E-01 -0.2047945056354E-01
-0.3305586954641E-01 -0.2103620118935E-01
-0.3456112688483E-01 -0.2162007015794E-01
-0.3604368512019E-01 -0.2222961672367E-01
-0.2444196348083E-03 -0.6006269345218E-03
-0.5436179578430E-03 -0.1210483164159E-02
-0.8932173527313E-03 -0.1829397610173E-02
-0.1288492310178E-02 -0.2456424389232E-02
-0.1724854601737E-02 -0.3089968930409E-02
-0.2198203774827E-02 -0.3728013119968E-02
-0.2705096911340E-02 -0.4368351850065E-02
-0.3242770636030E-02 -0.5008788077136E-02
-0.3809070920268E-02 -0.5647257114453E-02
-0.4402346368111E-02 -0.6281883510199E-02
-0.5021343732400E-02 -0.6910987960364E-02
-0.5665119368105E-02 -0.7533057790662E-02
-0.6332996798167E-02 -0.8146720648988E-02
-0.7024539140408E-02 -0.8750702462711E-02
-0.7739500507650E-02 -0.9343757744830E-02
-0.8477948370774E-02 -0.9924743236956E-02
-0.9240176354856E-02 -0.1049252236555E-01
-0.1002676663606E-01 -0.1104601536071E-01
-0.1083859328343E-01 -0.1158421827112E-01
-0.1167683843583E-01 -0.1210653706680E-01
-0.1254299675262E-01 -0.1261416442499E-01
-0.1343857031667E-01 -0.1310888619881E-01
-0.1436497512875E-01 -0.1359204458653E-01
-0.1532368045523E-01 -0.1406451907261E-01
-0.1631635616199E-01 -0.1452702135774E-01
-0.1734492092785E-01 -0.1498037030876E-01
-0.1841149469333E-01 -0.1542567801298E-01
-0.1951829838970E-01 -0.1586448905028E-01
-0.2066744788722E-01 -0.1629888221978E-01
-0.2186069086507E-01 -0.1673157167511E-01
-0.2309929085555E-01 -0.1716565000619E-01
-0.2438403103624E-01 -0.1760420934861E-01
-0.2571438365293E-01 -0.1805086278644E-01
-0.2708794496863E-01 -0.1850965459068E-01
-0.2849996707887E-01 -0.1898477577990E-01
-0.2994300697869E-01 -0.1948016240543E-01
-0.3140678563787E-01 -0.1999899684451E-01
-0.3287839918100E-01 -0.2054320137703E-01
-0.3434272314406E-01 -0.2111296946753E-01
-0.3578324960078E-01 -0.2170659366575E-01
-0.2392807512640E-03 -0.5881002228542E-03
-0.5329646332007E-03 -0.1184994008898E-02
-0.8770499159337E-03 -0.1790528354928E-02
-0.1267179855825E-02 -0.2403845998798E-02
-0.1699065685896E-02 -0.3023487602365E-02
-0.2168805862561E-02 -0.3647581476437E-02
-0.2673056168772E-02 -0.4274049191104E-02
-0.3209071990496E-02 -0.4900782668070E-02
-0.3774664948898E-02 -0.5525764035027E-02
-0.4368120392381E-02 -0.6147127460736E-02
-0.4988110464924E-02 -0.6763175546605E-02
-0.5633615950039E-02 -0.7372360386728E-02
-0.6303888265172E-02 -0.7973266589701E-02
-0.6998421839076E-02 -0.8564577280549E-02
-0.7716902141784E-02 -0.9145011503477E-02
-0.8459323587283E-02 -0.9713400540295E-02
-0.9225896268292E-02 -0.1026859733134E-01
-0.1001710363853E-01 -0.1080952737625E-01
-0.1083370270148E-01 -0.1133520844365E-01
-0.1167673617185E-01 -0.1184506049167E-01
-0.1254752812994E-01 -0.1234017184690E-01
-0.1344740058087E-01 -0.1282219794920E-01
-0.1437758816167E-01 -0.1329241233814E-01
-0.1533937064508E-01 -0.1375169963383E-01
-0.1633420979573E-01 -0.1420083579010E-01
-0.1736378705640E-01 -0.1464074534049E-01
-0.1842994656392E-01 -0.1507267253155E-01
-0.1953458749815E-01 -0.1549830565751E-01
-0.2067945442767E-01 -0.1591986101593E-01
-0.2186587699846E-01 -0.1634016018734E-01
-0.2309466484706E-01 -0.1676237993085E-01
-0.2436613164453E-01 -0.1718969202251E-01
-0.2567930757780E-01 -0.1762569713900E-01
-0.2703143794895E-01 -0.1807430619219E-01
-0.2841759465881E-01 -0.1853945050424E-01
-0.2983040989027E-01 -0.1902469777810E-01
-0.3126000498091E-01 -0.1953279894948E-01
-0.3269422922744E-01 -0.2006525022538E-01
-0.3411902924125E-01 -0.2062189859716E-01
-0.3551916911259E-01 -0.2120081089707E-01
-0.2343773507155E-03 -0.5756954518836E-03
-0.5228189298368E-03 -0.1159784568490E-02
-0.8616620589983E-03 -0.1752125686298E-02
-0.1246884740601E-02 -0.2351934518037E-02
-0.1674475962401E-02 -0.2957867751463E-02
-0.2140726263298E-02 -0.3568183617385E-02
-0.2642395131269E-02 -0.4180920630602E-02
-0.3176768234240E-02 -0.4794057660731E-02
-0.3741636029975E-02 -0.5405628016094E-02
-0.4335232258539E-02 -0.6013784003764E-02
-0.4956163001075E-02 -0.6616820690505E-02
-0.5603338498205E-02 -0.7213165993533E-02
-0.6275939785745E-02 -0.7801372062569E-02
-0.6973391529503E-02 -0.8380088766207E-02
-0.7695307331891E-02 -0.8948007858958E-02
-0.8441603876720E-02 -0.9503941799906E-02
-0.9212402341495E-02 -0.1004673805436E-01
-0.1000808198362E-01 -0.1057533084543E-01
-0.1082927753476E-01 -0.1108876173607E-01
-0.1167688764229E-01 -0.1158646612502E-01
-0.1255206249842E-01 -0.1206943173912E-01
-0.1345593976933E-01 -0.1253918821059E-01
-0.1438956614060E-01 -0.1299694381004E-01
-0.1535402333111E-01 -0.1344358952928E-01
-0.1635055570180E-01 -0.1387996415250E-01
-0.1738059918454E-01 -0.1430709338360E-01
-0.1844571709541E-01 -0.1472634566431E-01
-0.1954748777801E-01 -0.1513954134544E-01
-0.2068729443797E-01 -0.1554901904200E-01
-0.2186607088863E-01 -0.1595769005995E-01
-0.2308421044969E-01 -0.1636879563938E-01
-0.2434161281117E-01 -0.1678556626738E-01
-0.2563693896062E-01 -0.1721157526299E-01
-0.2696716819819E-01 -0.1765059763829E-01
-0.2832727839810E-01 -0.1810632047973E-01
-0.2971004800654E-01 -0.1858197932895E-01
-0.3110603565145E-01 -0.1907994793155E-01
-0.3250383026526E-01 -0.1960135914865E-01
-0.3389037980032E-01 -0.2014576929774E-01
-0.3525160685287E-01 -0.2071105500627E-01
-0.2296870591713E-03 -0.5633980146563E-03
-0.5131334966447E-03 -0.1134823068359E-02
-0.8469841233218E-03 -0.1714139412382E-02
-0.1227521780574E-02 -0.2300622798142E-02
-0.1650992996711E-02 -0.2893029637650E-02
-0.2113872556704E-02 -0.3489733538861E-02
-0.2613026224782E-02 -0.4088880787410E-02
-0.3145778775202E-02 -0.4688534555556E-02
-0.3709910469243E-02 -0.5286782408443E-02
-0.4303613609502E-02 -0.5881801847452E-02
-0.4925435988120E-02 -0.6471889627586E-02
-0.5574222104109E-02 -0.7055459434312E-02
-0.6249084490925E-02 -0.7631040639041E-02
-0.6949377392989E-02 -0.8197258647217E-02
-0.7674639907875E-02 -0.8752785439938E-02
-0.8424706997252E-02 -0.9296420688605E-02
-0.9199606232371E-02 -0.9827010835921E-02
-0.9999607819214E-02 -0.1034350175033E-01
-0.1082521950646E-01 -0.1084496032208E-01
-0.1167719159818E-01 -0.1133083826694E-01
-0.1255649732137E-01 -0.1180202590147E-01
-0.1346408605389E-01 -0.1225993095945E-01
-0.1440081054874E-01 -0.1270569890663E-01
-0.1536754691066E-01 -0.1314022723437E-01
-0.1636531419844E-01 -0.1356441495827E-01
-0.1739529631264E-01 -0.1397938335763E-01
-0.1845877272292E-01 -0.1438661626300E-01
-0.1955700387924E-01 -0.1478805406352E-01
-0.2069102328450E-01 -0.1518614290048E-01
-0.2186139199522E-01 -0.1558386749836E-01
-0.2306812386887E-01 -0.1598451649303E-01
-0.2431075684463E-01 -0.1639136202562E-01
-0.2558764876022E-01 -0.1680793965950E-01
-0.2689558719325E-01 -0.1723789005496E-01
-0.2822952836239E-01 -0.1768467359233E-01
-0.2958245341494E-01 -0.1815122837958E-01
-0.3094538350550E-01 -0.1863959946738E-01
-0.3230762945221E-01 -0.1915060991126E-01
-0.3365707715705E-01 -0.1968357186753E-01
-0.3498070911101E-01 -0.2023620203152E-01
-0.2251893273591E-03 -0.5511949663190E-03
-0.5038650375261E-03 -0.1110081395797E-02
-0.8329521880750E-03 -0.1676525056416E-02
-0.1209012047559E-02 -0.2249851014299E-02
-0.1628529913328E-02 -0.2828901575821E-02
-0.2088156346640E-02 -0.3412152980967E-02
-0.2584864035641E-02 -0.3997850790963E-02
-0.3116023406043E-02 -0.4584139487469E-02
-0.3679413512473E-02 -0.5169162977109E-02
-0.4273194004736E-02 -0.5751129778541E-02
-0.4895861385538E-02 -0.6328346356056E-02
-0.5546198946122E-02 -0.6899221058655E-02
-0.6223252705634E-02 -0.7462269276901E-02
-0.6926306201841E-02 -0.8016099996509E-02
-0.7654821938879E-02 -0.8559372284857E-02
-0.8408549807581E-02 -0.9090878472944E-02
-0.9187419739983E-02 -0.9609467893897E-02
-0.9991588635265E-02 -0.1011410047079E-01
-0.1082143304907E-01 -0.1060386943297E-01
-0.1167755106638E-01 -0.1107824313587E-01
-0.1256073615618E-01 -0.1153801712214E-01
-0.1347174582240E-01 -0.1198448046398E-01
-0.1441123353238E-01 -0.1241871742670E-01
-0.1537986318262E-01 -0.1284163113533E-01
-0.1637842192708E-01 -0.1325417722458E-01
-0.1740783666877E-01 -0.1365756606629E-01
-0.1846910168357E-01 -0.1405338748358E-01
-0.1956316405324E-01 -0.1444368979735E-01
-0.2069072038057E-01 -0.1483101251657E-01
-0.2185198224383E-01 -0.1521839900460E-01
-0.2304661950883E-01 -0.1560917073430E-01
-0.2427385685453E-01 -0.1600662793010E-01
-0.2553180829489E-01 -0.1641426182040E-01
-0.2681713421236E-01 -0.1683558338523E-01
-0.2812482967170E-01 -0.1727384498875E-01
-0.2944812308032E-01 -0.1773172012418E-01
-0.3077851460459E-01 -0.1821096831447E-01
-0.3210601687733E-01 -0.1871214863891E-01
-0.3341939623293E-01 -0.1923436806684E-01
-0.3470660872168E-01 -0.1977520880028E-01
-0.2208651688558E-03 -0.5390747229870E-03
-0.4949737446612E-03 -0.1085534437728E-02
-0.8195073343219E-03 -0.1639242839464E-02
-0.1191282186763E-02 -0.2199565399068E-02
-0.1607004951427E-02 -0.2765418591779E-02
-0.2063493132849E-02 -0.3335370174452E-02
-0.2557825476675E-02 -0.3907757228516E-02
-0.3087422688804E-02 -0.4480802411995E-02
-0.3650069863245E-02 -0.5052707310886E-02
-0.4243901501718E-02 -0.5621716254987E-02
-0.4867369063304E-02 -0.6186152371584E-02
-0.5519198875788E-02 -0.6744426591062E-02
-0.6198372504578E-02 -0.7295048270617E-02
-0.6904102830597E-02 -0.7836617286280E-02
-0.7635774187221E-02 -0.8367786009405E-02
-0.8393048653136E-02 -0.8887344307774E-02
-0.9175755116131E-02 -0.9394147798504E-02
-0.9983933496989E-02 -0.9887172376298E-02
-0.1081782545496E-01 -0.1036553812268E-01
-0.1167787340641E-01 -0.1082872982773E-01
-0.1256468859466E-01 -0.1127745035749E-01
-0.1347883346524E-01 -0.1171287271672E-01
-0.1442075748208E-01 -0.1213602078410E-01
-0.1539090665940E-01 -0.1254780157082E-01
-0.1638983082209E-01 -0.1294922285766E-01
-0.1741819625981E-01 -0.1334157692531E-01
-0.1847671208073E-01 -0.1372654981404E-01
-0.1956601769179E-01 -0.1410628579000E-01
-0.2068648622710E-01 -0.1448340436299E-01
-0.2183800270729E-01 -0.1486099432555E-01
-0.2301992659249E-01 -0.1524239780591E-01
-0.2423121379203E-01 -0.1563093262104E-01
-0.2546978733202E-01 -0.1603004224195E-01
-0.2673223612088E-01 -0.1644311497176E-01
-0.2801364442769E-01 -0.1687321433922E-01
-0.2930752288969E-01 -0.1732277991012E-01
-0.3060586067482E-01 -0.1779332401869E-01
-0.3189935115252E-01 -0.1828518107711E-01
-0.3317758906042E-01 -0.1879728556165E-01
-0.3442942824466E-01 -0.1932710624367E-01
-0.2166969493517E-03 -0.5270268117746E-03
-0.4864228377489E-03 -0.1061159529729E-02
-0.8065950362415E-03 -0.1602256827164E-02
-0.1174263837240E-02 -0.2149717164295E-02
-0.1586341070724E-02 -0.2702521253837E-02
-0.2039802178761E-02 -0.3259318721465E-02
-0.2531829911613E-02 -0.3818531174750E-02
-0.3059898280337E-02 -0.4378456327794E-02
-0.3621804139108E-02 -0.4937354236233E-02
-0.4215663180751E-02 -0.5493508985167E-02
-0.4839887349663E-02 -0.6045266380913E-02
-0.5493149957725E-02 -0.6591046955478E-02
-0.6174370223067E-02 -0.7129361175088E-02
-0.6882690721605E-02 -0.7658806409966E-02
-0.7617416515350E-02 -0.8178033932918E-02
-0.8378119703815E-02 -0.8685835476859E-02
-0.9164525326578E-02 -0.9181075838656E-02
-0.9976553224525E-02 -0.9662748331258E-02
-0.1081430696801E-01 -0.1012999992788E-01
-0.1167807030155E-01 -0.1058233114980E-01
-0.1256827013069E-01 -0.1102035376344E-01
-0.1348527108433E-01 -0.1144512669083E-01
-0.1442931453602E-01 -0.1185761351665E-01
-0.1540062380838E-01 -0.1225872261665E-01
-0.1639950702951E-01 -0.1264950872320E-01
-0.1742636740878E-01 -0.1303133830400E-01
-0.1848162999571E-01 -0.1340598363219E-01
-0.1956563300437E-01 -0.1377567320435E-01
-0.2067843971232E-01 -0.1414309404648E-01
-0.2181963068576E-01 -0.1451136871502E-01
-0.2298828631212E-01 -0.1488384999395E-01
-0.2418313409998E-01 -0.1526386547972E-01
-0.2540195275772E-01 -0.1565481003707E-01
-0.2664130755311E-01 -0.1605995798948E-01
-0.2789641369211E-01 -0.1648220322416E-01
-0.2916109130609E-01 -0.1692377986743E-01
-0.3042782380150E-01 -0.1738598707780E-01
-0.3168796413893E-01 -0.1786896835541E-01
-0.3293188861673E-01 -0.1837151305984E-01
-0.3414928245532E-01 -0.1889099369406E-01
-0.2126682172177E-03 -0.5150416616105E-03
-0.4781781896338E-03 -0.1036935994085E-02
-0.7941646585969E-03 -0.1565534209288E-02
-0.1157893142554E-02 -0.2100261578741E-02
-0.1566465606925E-02 -0.2640154653948E-02
-0.2017006383882E-02 -0.3183936595609E-02
-0.2506799249886E-02 -0.3730107299672E-02
-0.3033373209668E-02 -0.4277036538702E-02
-0.3594541274117E-02 -0.4823043241481E-02
-0.4188405617817E-02 -0.5366454499178E-02
-0.4813343530782E-02 -0.5905643997773E-02
-0.5467978964435E-02 -0.6439048076672E-02
-0.6151170924054E-02 -0.6965184701459E-02
-0.6861992306680E-02 -0.7482654669712E-02
-0.7599668248031E-02 -0.7990113160741E-02
-0.8363679245701E-02 -0.8486357577059E-02
-0.9153644264265E-02 -0.8970264317207E-02
-0.9969360521188E-02 -0.9440845112885E-02
-0.1081079081889E-01 -0.9897273422759E-02
-0.1167805768725E-01 -0.1033906432962E-01
-0.1257140195931E-01 -0.1076673957883E-01
-0.1349098812990E-01 -0.1118124542076E-01
-0.1443684601218E-01 -0.1158348458576E-01
-0.1540897223134E-01 -0.1197436361896E-01
-0.1640742978430E-01 -0.1235497841364E-01
-0.1743235728723E-01 -0.1272676150204E-01
-0.1848389765219E-01 -0.1309156133019E-01
-0.1956209482944E-01 -0.1345167928441E-01
-0.2066671564771E-01 -0.1380985833911E-01
-0.2179705713439E-01 -0.1416924461856E-01
-0.2295194942299E-01 -0.1453319352401E-01
-0.2412992784750E-01 -0.1490503691224E-01
-0.2532866767650E-01 -0.1528812226214E-01
-0.2654475134478E-01 -0.1568561980339E-01
-0.2777355941788E-01 -0.1610027266157E-01
-0.2900924262336E-01 -0.1653413584507E-01
-0.3024478044480E-01 -0.1698832550175E-01
-0.3147216490952E-01 -0.1746282321670E-01
-0.3268251197840E-01 -0.1795629606505E-01
-0.3386628020633E-01 -0.1846603399547E-01
-0.2087635676328E-03 -0.5031104268130E-03
-0.4702080229438E-03 -0.1012844750766E-02
-0.7821690439650E-03 -0.1529044690836E-02
-0.1142110341722E-02 -0.2051157181612E-02
-0.1547309977042E-02 -0.2578267527579E-02
-0.1995032169913E-02 -0.3109165264736E-02
-0.2482658025839E-02 -0.3642423073952E-02
-0.3007772122345E-02 -0.4176479988814E-02
-0.3568206881641E-02 -0.4709713957210E-02
-0.4162055317535E-02 -0.5240497768814E-02
-0.4787664312799E-02 -0.5767237487824E-02
-0.5443611835554E-02 -0.6288390735942E-02
-0.6128698830268E-02 -0.6802488674484E-02
-0.6841929393078E-02 -0.7308140832377E-02
-0.7582448496895E-02 -0.7804010740876E-02
-0.8349643932171E-02 -0.8288904781092E-02
-0.9143026917652E-02 -0.8761712927981E-02
-0.9962270050882E-02 -0.9221465913219E-02
-0.1080719320168E-01 -0.9667362859433E-02
-0.1167775561254E-01 -0.1009893180944E-01
-0.1257401070092E-01 -0.1051660509219E-01
-0.1349592095762E-01 -0.1092121716054E-01
-0.1444330176182E-01 -0.1131360874289E-01
-0.1541591977438E-01 -0.1169468077788E-01
-0.1641359023955E-01 -0.1206556404263E-01
-0.1743618643770E-01 -0.1242774872446E-01
-0.1848357162862E-01 -0.1278314940588E-01
-0.1955550257322E-01 -0.1313412945661E-01
-0.2065146252869E-01 -0.1348347713903E-01
-0.2177048441894E-01 -0.1383435330796E-01
-0.2291117425204E-01 -0.1419010967200E-01
-0.2407190732052E-01 -0.1455407876677E-01
-0.2525029093023E-01 -0.1492956354573E-01
-0.2644295925373E-01 -0.1531964082568E-01
-0.2764548645667E-01 -0.1572692132452E-01
-0.2885237006301E-01 -0.1615330518673E-01
-0.3005708513289E-01 -0.1659975231137E-01
-0.3125224336872E-01 -0.1706610727607E-01
-0.3242966323609E-01 -0.1755093380062E-01
-0.3358052618377E-01 -0.1805144995395E-01
-0.2049685344351E-03 -0.4912248376106E-03
-0.4624826654636E-03 -0.9888679875132E-03
-0.7705641753405E-03 -0.1492759973054E-02
-0.1126859429495E-02 -0.2002365105476E-02
-0.1528809429913E-02 -0.2516811484789E-02
-0.1973809381426E-02 -0.3034948910179E-02
-0.2459333465739E-02 -0.3555418046192E-02
-0.2983021494865E-02 -0.4076724643311E-02
-0.3542727578511E-02 -0.4597305660173E-02
-0.4136539105020E-02 -0.5115581835024E-02
-0.4762776243395E-02 -0.5629995510534E-02
-0.5419974098040E-02 -0.6139030416502E-02
-0.6106877718330E-02 -0.6641235973328E-02
-0.6822423511854E-02 -0.7135235161980E-02
-0.7565676447222E-02 -0.7619703788324E-02
-0.8335930996453E-02 -0.8093460057317E-02
-0.9132589498811E-02 -0.8555409077287E-02
-0.9955198472384E-02 -0.9004600771371E-02
-0.1080343320354E-01 -0.9440258722405E-02
-0.1167708805016E-01 -0.9861921936212E-02
-0.1257602807115E-01 -0.1026993348234E-01
-0.1350001233105E-01 -0.1066501639036E-01
-0.1444863947287E-01 -0.1104794771411E-01
-0.1542144360022E-01 -0.1141961851339E-01
-0.1641799028102E-01 -0.1178118778082E-01
-0.1743788731755E-01 -0.1213419475357E-01
-0.1848072114343E-01 -0.1248061020714E-01
-0.1954596828724E-01 -0.1282284904778E-01
-0.2063284050978E-01 -0.1316373502881E-01
-0.2174012435879E-01 -0.1350643612299E-01
-0.2286622504481E-01 -0.1385429553109E-01
-0.2400938595377E-01 -0.1421064449891E-01
-0.2516717689189E-01 -0.1457874559349E-01
-0.2633631280888E-01 -0.1496159339432E-01
-0.2751258448599E-01 -0.1536168391486E-01
-0.2869084856862E-01 -0.1578078476263E-01
-0.2986507368569E-01 -0.1621972335816E-01
-0.3102847334000E-01 -0.1667822866158E-01
-0.3217353590877E-01 -0.1715477660581E-01
-0.3329212224486E-01 -0.1764652137507E-01
-0.2012695048837E-03 -0.4793770726977E-03
-0.4549743543298E-03 -0.9649888784835E-03
-0.7593089025478E-03 -0.1456653309042E-02
-0.1112087877334E-02 -0.1953848491535E-02
-0.1510902838965E-02 -0.2455740337746E-02
-0.1953271203614E-02 -0.2961233732992E-02
-0.2436755548591E-02 -0.3469033188990E-02
-0.2959049826284E-02 -0.3977708917377E-02
-0.3518031277123E-02 -0.4485756806931E-02
-0.4111784482026E-02 -0.4991647451223E-02
-0.4738606097183E-02 -0.5493862867358E-02
-0.5396991250878E-02 -0.5990917148531E-02
-0.6085631278176E-02 -0.6481382466467E-02
-0.6803396231926E-02 -0.6963899440299E-02
-0.7549271610261E-02 -0.7437159590416E-02
-0.8322458428855E-02 -0.7899995361753E-02
-0.9122249534411E-02 -0.8351328167342E-02
-0.9948064433619E-02 -0.8790226955687E-02
-0.1079943269053E-01 -0.9215938219143E-02
-0.1167598265889E-01 -0.9628009571767E-02
-0.1257739050026E-01 -0.1002669456052E-01
-0.1350321087395E-01 -0.1041260470248E-01
-0.1445282392845E-01 -0.1078645123789E-01
-0.1542552922789E-01 -0.1114911065465E-01
-0.1642064133082E-01 -0.1150176318226E-01
-0.1743750286530E-01 -0.1184598837768E-01
-0.1847542640890E-01 -0.1218380340207E-01
-0.1953361487220E-01 -0.1251766470743E-01
-0.2061101956918E-01 -0.1285042253433E-01
-0.2170619651725E-01 -0.1318524543638E-01
-0.2281737059502E-01 -0.1352546455739E-01
-0.2394267753922E-01 -0.1387440920492E-01
-0.2507967547111E-01 -0.1423530667616E-01
-0.2622518424510E-01 -0.1461108075831E-01
-0.2737522985206E-01 -0.1500412975425E-01
-0.2852503734210E-01 -0.1541610930141E-01
-0.2966906605304E-01 -0.1584773550148E-01
-0.3080111522124E-01 -0.1629864006724E-01
-0.3191431495522E-01 -0.1676722381876E-01
-0.3300116843825E-01 -0.1725058268581E-01
-0.1976536535229E-03 -0.4675596500853E-03
-0.4476570812899E-03 -0.9411913439712E-03
-0.7483647234763E-03 -0.1420699123910E-02
-0.1097746408601E-02 -0.1905571987519E-02
-0.1493532535649E-02 -0.2395009518968E-02
-0.1933354100761E-02 -0.2887967348578E-02
-0.2414857068190E-02 -0.3383210323988E-02
-0.2935787816387E-02 -0.3879371172384E-02
-0.3494047455315E-02 -0.4375004624730E-02
-0.4087719956956E-02 -0.4868632777586E-02
-0.4715081233971E-02 -0.5358780298600E-02
-0.5374589122971E-02 -0.5843995403508E-02
-0.6064883446123E-02 -0.6322876998020E-02
-0.6784769447827E-02 -0.6794087041347E-02
-0.7533154048603E-02 -0.7256335767971E-02
-0.8309145125504E-02 -0.7708471887009E-02
-0.9111925925519E-02 -0.8149433936599E-02
-0.9940788530929E-02 -0.8578309401632E-02
-0.1079511615376E-01 -0.8994365823723E-02
-0.1167437050180E-01 -0.9397156751607E-02
-0.1257803870522E-01 -0.9786845554472E-02
-0.1350547047521E-01 -0.1016393172008E-01
-0.1445582622300E-01 -0.1052905812409E-01
-0.1542816954226E-01 -0.1088308163648E-01
-0.1642156314259E-01 -0.1122719650263E-01
-0.1743508509146E-01 -0.1156301379734E-01
-0.1846777705420E-01 -0.1189258741798E-01
-0.1951857440597E-01 -0.1221840580050E-01
-0.2058617785754E-01 -0.1254333737316E-01
-0.2166892673132E-01 -0.1287054565106E-01
-0.2276488315076E-01 -0.1320334721805E-01
-0.2387209571461E-01 -0.1354506985367E-01
-0.2498813235897E-01 -0.1389891142999E-01
-0.2610993759150E-01 -0.1426773649213E-01
-0.2723378745207E-01 -0.1465386190771E-01
-0.2835528230900E-01 -0.1505885033446E-01
-0.2946936901250E-01 -0.1548332545933E-01
-0.3057041849450E-01 -0.1592683753824E-01
-0.3165217869874E-01 -0.1638772246501E-01
-0.3270776404519E-01 -0.1686302145614E-01
-0.1941088921149E-03 -0.4557653330391E-03
-0.4405064721812E-03 -0.9174598423682E-03
-0.7376956109735E-03 -0.1384872683623E-02
-0.1083788818888E-02 -0.1857501305179E-02
-0.1476644176268E-02 -0.2334575560691E-02
-0.1913997770055E-02 -0.2815098233786E-02
-0.2393573691950E-02 -0.3297891582793E-02
-0.2913168525542E-02 -0.3781649227110E-02
-0.3470707397831E-02 -0.4264984695668E-02
-0.4064275340890E-02 -0.4746473047876E-02
-0.4692129920825E-02 -0.5224684233509E-02
-0.5352694194599E-02 -0.5698203923378E-02
-0.6044558702310E-02 -0.6165661290369E-02
-0.6766465633099E-02 -0.6625742902561E-02
-0.7517244568555E-02 -0.7077180311915E-02
-0.8295911005231E-02 -0.7518840163389E-02
-0.9101538976262E-02 -0.7949678626815E-02
-0.9933293237319E-02 -0.8368800948656E-02
-0.1079041052432E-01 -0.8775493589281E-02
-0.1167218573318E-01 -0.9169313079749E-02
-0.1257791723182E-01 -0.9550331593026E-02
-0.1350674966715E-01 -0.9918935677841E-02
-0.1445762295872E-01 -0.1027569693316E-01
-0.1542936379562E-01 -0.1062144727231E-01
-0.1642078260625E-01 -0.1095738754974E-01
-0.1743069370292E-01 -0.1128515152207E-01
-0.1845787061217E-01 -0.1160682033465E-01
-0.1950098656849E-01 -0.1192490522984E-01
-0.2055850017433E-01 -0.1224228512475E-01
-0.2162854578796E-01 -0.1256211363264E-01
-0.2270903746239E-01 -0.1288769111130E-01
-0.2379795355328E-01 -0.1322234504766E-01
-0.2489288928984E-01 -0.1356925025553E-01
-0.2599092965084E-01 -0.1393122357718E-01
-0.2708861235446E-01 -0.1431051602962E-01
-0.2818191816769E-01 -0.1470861489893E-01
-0.2926627832445E-01 -0.1512606843867E-01
-0.3033662361331E-01 -0.1556235905486E-01
-0.3138730009786E-01 -0.1601576577471E-01
-0.3241200797678E-01 -0.1648327679823E-01
-0.1906238331128E-03 -0.4439870487186E-03
-0.4334996958220E-03 -0.8937791910677E-03
-0.7272678802025E-03 -0.1349149810321E-02
-0.1070171838544E-02 -0.1809602839335E-02
-0.1460186643490E-02 -0.2274395645211E-02
-0.1895145116938E-02 -0.2742575247838E-02
-0.2372844027042E-02 -0.3213018939449E-02
-0.2891127529972E-02 -0.3684479935898E-02
-0.3447944425063E-02 -0.4155630603457E-02
-0.4041382026431E-02 -0.4625100296501E-02
-0.4669681635105E-02 -0.5091506600665E-02
-0.5331233899494E-02 -0.5553475612118E-02
-0.6024582348960E-02 -0.6009669912594E-02
-0.6748408074596E-02 -0.6458803565672E-02
-0.7501464892943E-02 -0.6899631693262E-02
-0.8282677105576E-02 -0.7331040236480E-02
-0.9091010399267E-02 -0.7752003228847E-02
-0.9925502804176E-02 -0.8161642656962E-02
-0.1078524495780E-01 -0.8559261540246E-02
-0.1166936525149E-01 -0.8944416201832E-02
-0.1257697396023E-01 -0.9317086265829E-02
-0.1350701096773E-01 -0.9677544073178E-02
-0.1445819541040E-01 -0.1002628672028E-01
-0.1542911658789E-01 -0.1036411558609E-01
-0.1641833254905E-01 -0.1069223058849E-01
-0.1742439474962E-01 -0.1101227932086E-01
-0.1844581106226E-01 -0.1132636083857E-01
-0.1948099716331E-01 -0.1163700033825E-01
-0.2052817658340E-01 -0.1194708001501E-01
-0.2158528827730E-01 -0.1225973930966E-01
-0.2265011003155E-01 -0.1257826132660E-01
-0.2372056335698E-01 -0.1290597511172E-01
-0.2479428448149E-01 -0.1324603913870E-01
-0.2586851110828E-01 -0.1360123399669E-01
-0.2694005148756E-01 -0.1397375980142E-01
-0.2800527045366E-01 -0.1436504489391E-01
-0.2906008087705E-01 -0.1477557746850E-01
-0.3009996389507E-01 -0.1520478386685E-01
-0.3111984807899E-01 -0.1565089250814E-01
-0.3211399932250E-01 -0.1611083864954E-01
-0.1871877647175E-03 -0.4322178174588E-03
-0.4266153978651E-03 -0.8701344106410E-03
-0.7170500903558E-03 -0.1313506633900E-02
-0.1056855031125E-02 -0.1761843333553E-02
-0.1444111977321E-02 -0.2214427206930E-02
-0.1876742248189E-02 -0.2670347203739E-02
-0.2352609691051E-02 -0.3128533786841E-02
-0.2869603069876E-02 -0.3587798800851E-02
-0.3425694106167E-02 -0.4046873603187E-02
-0.4018973245768E-02 -0.4504443097801E-02
-0.4647667344330E-02 -0.4959174640683E-02
-0.5310136903227E-02 -0.5409737420386E-02
-0.6004880765479E-02 -0.5854830232856E-02
-0.6730521084577E-02 -0.6293197191909E-02
-0.7485737812660E-02 -0.6723618936849E-02
-0.8269365658103E-02 -0.7145001796537E-02
-0.9080263300408E-02 -0.7556337666708E-02
-0.9917343141729E-02 -0.7956764047224E-02
-0.1077955059663E-01 -0.8345597970340E-02
-0.1166584832940E-01 -0.8722392164873E-02
-0.1257515958823E-01 -0.9087032048755E-02
-0.1350622020268E-01 -0.9439674160330E-02
-0.1445752867548E-01 -0.9780737598308E-02
-0.1542743684138E-01 -0.1011098743913E-01
-0.1641425054522E-01 -0.1043161501859E-01
-0.1741625929864E-01 -0.1074427292786E-01
-0.1843170742438E-01 -0.1105106892270E-01
-0.1945875671552E-01 -0.1135453355838E-01
-0.2049540112824E-01 -0.1165754546568E-01
-0.2153939156105E-01 -0.1196322607292E-01
-0.2258837847569E-01 -0.1227484065424E-01
-0.2364023654294E-01 -0.1259572209320E-01
-0.2469265312306E-01 -0.1292901944975E-01
-0.2574302761934E-01 -0.1327748836992E-01
-0.2678844522670E-01 -0.1364329245780E-01
-0.2782565742439E-01 -0.1402781655961E-01
-0.2885105659264E-01 -0.1443150287999E-01
-0.2986066714456E-01 -0.1485373199796E-01
-0.3084998859980E-01 -0.1529268648221E-01
-0.3181383765353E-01 -0.1574524730313E-01
-0.1837906358854E-03 -0.4204506909968E-03
-0.4198336562029E-03 -0.8465105887700E-03
-0.7070129764084E-03 -0.1277919374764E-02
-0.1043800723967E-02 -0.1714189586641E-02
-0.1428375333441E-02 -0.2154627580956E-02
-0.1858738482833E-02 -0.2598362487078E-02
-0.2332815389229E-02 -0.3044376556931E-02
-0.2848536193934E-02 -0.3491539621451E-02
-0.3403894460819E-02 -0.3938642320851E-02
-0.3996984312571E-02 -0.4384426327450E-02
-0.4626019767545E-02 -0.4827610733910E-02
-0.5289333362564E-02 -0.5266910238524E-02
-0.5985381645038E-02 -0.5701062372598E-02
-0.6712730195250E-02 -0.6128843572054E-02
-0.7469987321580E-02 -0.6549061682064E-02
-0.8255900147657E-02 -0.6960644285817E-02
-0.9069222147498E-02 -0.7362600949074E-02
-0.9908741682859E-02 -0.7754083295640E-02
-0.1077326031489E-01 -0.8134419682086E-02
-0.1166157622561E-01 -0.8503155703078E-02
-0.1257242709623E-01 -0.8860080638295E-02
-0.1350434581121E-01 -0.9205233335113E-02
-0.1445561081203E-01 -0.9538951172527E-02
-0.1542433677100E-01 -0.9861957010368E-02
-0.1640857773223E-01 -0.1017542589009E-01
-0.1740636213052E-01 -0.1048100657564E-01
-0.1841567239363E-01 -0.1078080641205E-01
-0.1943441913098E-01 -0.1107735289826E-01
-0.2046037062755E-01 -0.1137351450398E-01
-0.2149109483383E-01 -0.1167239107461E-01
-0.2252412098674E-01 -0.1197722974784E-01
-0.2355728361044E-01 -0.1229136977751E-01
-0.2458832790996E-01 -0.1261795782165E-01
-0.2561482089701E-01 -0.1295973572389E-01
-0.2663412892474E-01 -0.1331884449645E-01
-0.2764339183529E-01 -0.1369664017307E-01
-0.2863948018715E-01 -0.1409353202709E-01
-0.2961895711374E-01 -0.1450886401357E-01
-0.3057788555443E-01 -0.1494077639041E-01
-0.3151162319031E-01 -0.1538609327526E-01
-0.1804230499809E-03 -0.4086786982385E-03
-0.4131359551431E-03 -0.8228927608364E-03
-0.6971294072766E-03 -0.1242364152947E-02
-0.1030973967454E-02 -0.1666608194063E-02
-0.1412934966671E-02 -0.2094953692150E-02
-0.1841086380297E-02 -0.2526568716911E-02
-0.2313408999337E-02 -0.2960486381049E-02
-0.2827870902292E-02 -0.3395634179571E-02
-0.3382486152416E-02 -0.3830862482301E-02
-0.3975352850781E-02 -0.4264970946969E-02
-0.4604673621399E-02 -0.4696732245042E-02
-0.5268755169069E-02 -0.5124908800434E-02
-0.5966014216069E-02 -0.5548279165410E-02
-0.6694962339404E-02 -0.5965654134423E-02
-0.7454138738793E-02 -0.6375870233848E-02
-0.8242205359844E-02 -0.6777876987305E-02
-0.9057812727602E-02 -0.7170701291824E-02
-0.9899627235407E-02 -0.7553507388039E-02
-0.1076630845116E-01 -0.7925632171729E-02
-0.1165649178434E-01 -0.8286610453854E-02
-0.1256873120027E-01 -0.8636133199573E-02
-0.1350135814113E-01 -0.8974119415662E-02
-0.1445243196930E-01 -0.9300820853504E-02
-0.1541983085268E-01 -0.9616912138042E-02
-0.1640135763398E-01 -0.9923544266795E-02
-0.1739478045361E-01 -0.1022235336858E-01
-0.1839782100674E-01 -0.1051543733038E-01
-0.1940814040158E-01 -0.1080531228079E-01
-0.2042328352976E-01 -0.1109483005248E-01
-0.2144063825167E-01 -0.1138706544816E-01
-0.2245761585716E-01 -0.1168524726021E-01
-0.2347201416335E-01 -0.1199272373639E-01
-0.2448163961129E-01 -0.1231264612115E-01
-0.2548422979740E-01 -0.1264775341079E-01
-0.2647743440203E-01 -0.1300017757484E-01
-0.2745878263811E-01 -0.1337125995994E-01
-0.2842562282456E-01 -0.1376138924423E-01
-0.2937505484357E-01 -0.1416988104568E-01
-0.3030370156254E-01 -0.1459483590667E-01
-0.3120745686628E-01 -0.1503301749596E-01
-0.1770762660135E-03 -0.3968947973171E-03
-0.4065051760580E-03 -0.7992658043074E-03
-0.6873743672841E-03 -0.1206816819052E-02
-0.1018342519904E-02 -0.1619065318247E-02
-0.1397752237233E-02 -0.2035361777822E-02
-0.1823741784634E-02 -0.2454912441872E-02
-0.2294341664058E-02 -0.2876800783876E-02
-0.2807554288909E-02 -0.3300011954239E-02
-0.3361412674106E-02 -0.3723456666501E-02
-0.3954019012010E-02 -0.4145993806370E-02
-0.4583565852739E-02 -0.4566451379439E-02
-0.5248336178930E-02 -0.4983641592475E-02
-0.5946709450825E-02 -0.5396386113807E-02
-0.6677146019559E-02 -0.5803531942879E-02
-0.7438118820944E-02 -0.6203945594778E-02
-0.8228207419993E-02 -0.6596599084197E-02
-0.9045962096788E-02 -0.6980536199482E-02
-0.9889929827398E-02 -0.7354932219334E-02
-0.1075863053438E-01 -0.7719129744275E-02
-0.1165053902787E-01 -0.8072649087184E-02
-0.1256402779833E-01 -0.8415080509659E-02
-0.1349722873845E-01 -0.8746220799539E-02
-0.1444798351504E-01 -0.9066232027336E-02
-0.1541393479221E-01 -0.9375734501255E-02
-0.1639263498941E-01 -0.9675847415492E-02
-0.1738159263052E-01 -0.9968185474016E-02
-0.1837826932801E-01 -0.1025482808561E-01
-0.1938007733765E-01 -0.1053827171446E-01
-0.2038433880049E-01 -0.1082134507607E-01
-0.2138826209615E-01 -0.1110709442423E-01
-0.2238914103820E-01 -0.1139872992497E-01
-0.2338473695478E-01 -0.1169961137790E-01
-0.2437291764118E-01 -0.1201290147664E-01
-0.2535159138470E-01 -0.1234134713012E-01
-0.2631869138737E-01 -0.1268708454815E-01
-0.2727213660257E-01 -0.1305145417192E-01
-0.2820975367146E-01 -0.1343483598648E-01
-0.2912917989041E-01 -0.1383652501620E-01
-0.3002759863516E-01 -0.1425458400957E-01
-0.3090144026565E-01 -0.1468571175271E-01
-0.1737422066320E-03 -0.3850918329080E-03
-0.3999256027407E-03 -0.7756143446653E-03
-0.6777249585743E-03 -0.1171252803531E-02
-0.1005876855751E-02 -0.1571526483527E-02
-0.1382791638171E-02 -0.1975807139682E-02
-0.1806663884245E-02 -0.2383338867781E-02
-0.2275567891515E-02 -0.2793255408653E-02
-0.2787536684763E-02 -0.3204599865290E-02
-0.3340620529853E-02 -0.3616344083929E-02
-0.3932925684151E-02 -0.4027407467387E-02
-0.4562635860699E-02 -0.4436675054924E-02
-0.5228012432183E-02 -0.4843010772282E-02
-0.5927400264437E-02 -0.5245281349746E-02
-0.6659211469341E-02 -0.5642371691540E-02
-0.7421855868702E-02 -0.6033179485644E-02
-0.8213833827984E-02 -0.6416699698306E-02
-0.9033598527051E-02 -0.6791992514405E-02
-0.9879580550280E-02 -0.7158242647903E-02
-0.1075016300819E-01 -0.7514795568955E-02
-0.1164366274782E-01 -0.7861153359470E-02
-0.1255827341577E-01 -0.8196803008169E-02
-0.1349192963653E-01 -0.8521416510207E-02
-0.1444225716333E-01 -0.8835062097494E-02
-0.1540666449606E-01 -0.9138299656909E-02
-0.1638245458525E-01 -0.9432208837989E-02
-0.1736687691116E-01 -0.9718374149938E-02
-0.1835713314458E-01 -0.9998847494611E-02
-0.1935038631184E-01 -0.1027609731761E-01
-0.2034373482300E-01 -0.1055292260978E-01
-0.2133420595079E-01 -0.1083233736774E-01
-0.2231897370809E-01 -0.1111753260986E-01
-0.2329575993630E-01 -0.1141188202392E-01
-0.2426249062694E-01 -0.1171856638835E-01
-0.2521724198262E-01 -0.1204035108036E-01
-0.2615822893331E-01 -0.1237938967212E-01
-0.2708375989926E-01 -0.1273703535301E-01
-0.2799214140024E-01 -0.1311367117471E-01
-0.2888155148990E-01 -0.1350857908054E-01
-0.2974973876887E-01 -0.1391978554784E-01
-0.3059367547968E-01 -0.1434391940652E-01
-0.1704134722463E-03 -0.3732624979019E-03
-0.3933829401260E-03 -0.7519226709418E-03
-0.6681604226563E-03 -0.1135646981358E-02
-0.9935501952058E-03 -0.1523956392053E-02
-0.1368020842629E-02 -0.1916243921271E-02
-0.1789815286629E-02 -0.2311791613525E-02
-0.2257045664377E-02 -0.2709783771577E-02
-0.2767771803217E-02 -0.3109322045387E-02
-0.3320059412511E-02 -0.3509440381212E-02
-0.3912018693740E-02 -0.3909120049867E-02
-0.4541825711170E-02 -0.4307304792985E-02
-0.5207722364636E-02 -0.4702912102579E-02
-0.5908021708123E-02 -0.5094855604941E-02
-0.6641090811133E-02 -0.5482059703076E-02
-0.7405279831819E-02 -0.5863454362167E-02
-0.8199013493806E-02 -0.6238057915708E-02
-0.9020651455759E-02 -0.6604946442702E-02
-0.9868511405976E-02 -0.6963312514432E-02
-0.1074084295990E-01 -0.7312501685240E-02
-0.1163580810143E-01 -0.7651994102544E-02
-0.1255142465584E-01 -0.7981170766496E-02
-0.1348543265041E-01 -0.8299576144866E-02
-0.1443524410741E-01 -0.8607180410949E-02
-0.1539803504691E-01 -0.8904476945499E-02
-0.1637086009257E-01 -0.9192498160307E-02
-0.1735071016822E-01 -0.9472789624345E-02
-0.1833452666188E-01 -0.9747366662975E-02
-0.1931922200038E-01 -0.1001866121288E-01
-0.2030166829260E-01 -0.1028943568492E-01
-0.2127870786875E-01 -0.1056266775417E-01
-0.2224738982952E-01 -0.1084152836062E-01
-0.2320539029644E-01 -0.1112940703529E-01
-0.2415068696865E-01 -0.1142950894215E-01
-0.2508151822131E-01 -0.1174462826266E-01
-0.2599637683121E-01 -0.1207694899445E-01
-0.2689395968420E-01 -0.1242785081821E-01
-0.2777305569160E-01 -0.1279773176942E-01
-0.2863238971317E-01 -0.1318586831516E-01
-0.2947028452104E-01 -0.1359025207032E-01
-0.3028426492825E-01 -0.1400743640238E-01
-0.1670833607995E-03 -0.3613992985525E-03
-0.3868643453008E-03 -0.7281746587937E-03
-0.6586621795235E-03 -0.1099973548726E-02
-0.9813385536637E-03 -0.1476318756136E-02
-0.1353410769387E-02 -0.1856624905546E-02
-0.1773162106978E-02 -0.2240212489615E-02
-0.2238736556913E-02 -0.2626317039869E-02
-0.2748216887472E-02 -0.3014099635230E-02
-0.3299682379308E-02 -0.3402657467141E-02
-0.3891247002826E-02 -0.3791035096618E-02
-0.4521080344794E-02 -0.4178236624568E-02
-0.5187407013925E-02 -0.4563234894748E-02
-0.5888511158365E-02 -0.4944992185055E-02
-0.6622718212225E-02 -0.5322473923791E-02
-0.7388322415497E-02 -0.5694643419990E-02
-0.8183676777160E-02 -0.6060542790509E-02
-0.9007051441520E-02 -0.6419263546378E-02
-0.9856655162272E-02 -0.6770004613299E-02
-0.1073060785920E-01 -0.7112108945947E-02
-0.1162692021850E-01 -0.7445031132794E-02
-0.1254343766116E-01 -0.7768043358893E-02
-0.1347770868154E-01 -0.8080559705095E-02
-0.1442693416157E-01 -0.8382448048120E-02
-0.1538805968548E-01 -0.8674129243238E-02
-0.1635789290549E-01 -0.8956580854206E-02
-0.1733316662855E-01 -0.9231300799016E-02
-0.1831056118695E-01 -0.9500258690387E-02
-0.1928673610269E-01 -0.9765841259671E-02
-0.2025833307966E-01 -0.1003076711909E-01
-0.2122200350054E-01 -0.1029797304889E-01
-0.2217466366238E-01 -0.1057060839829E-01
-0.2311393445561E-01 -0.1085207994687E-01
-0.2403783536311E-01 -0.1114562308955E-01
-0.2494475806206E-01 -0.1145407089944E-01
-0.2583346701873E-01 -0.1177965089714E-01
-0.2670304568650E-01 -0.1212378330648E-01
-0.2755276874135E-01 -0.1248689353297E-01
-0.2838191661740E-01 -0.1286826060637E-01
-0.2918939955965E-01 -0.1326584287594E-01
-0.2997331112702E-01 -0.1367611252751E-01
-0.1637458928811E-03 -0.3494945223150E-03
-0.3803584701178E-03 -0.7043536994028E-03
-0.6492138833440E-03 -0.1064205909105E-02
-0.9692208097173E-03 -0.1428576143683E-02
-0.1338935665662E-02 -0.1796901329079E-02
-0.1756674070015E-02 -0.2168541296219E-02
-0.2220605859913E-02 -0.2542783831194E-02
-0.2728832860607E-02 -0.2918850600791E-02
-0.3279446025789E-02 -0.3295903360180E-02
-0.3870562901917E-02 -0.3673051458101E-02
-0.4500347780481E-02 -0.4049361012943E-02
-0.5167010222196E-02 -0.4423861965627E-02
-0.5868808504989E-02 -0.4795566952047E-02
-0.6604030042880E-02 -0.5163483920414E-02
-0.7370917191969E-02 -0.5526610593377E-02
-0.8167755535496E-02 -0.5884013332657E-02
-0.8992730131384E-02 -0.6234798708002E-02
-0.9843945221950E-02 -0.6578170623090E-02
-0.1071939531239E-01 -0.6913466904249E-02
-0.1161694382481E-01 -0.7240113087365E-02
-0.1253426759183E-01 -0.7557269642484E-02
-0.1346872703829E-01 -0.7864217317342E-02
-0.1441731491629E-01 -0.8160717483479E-02
-0.1537674880110E-01 -0.8447112566882E-02
-0.1634359098130E-01 -0.8724317796703E-02
-0.1731431659576E-01 -0.8993774782346E-02
-0.1828534378979E-01 -0.9257398204766E-02
-0.1925307602377E-01 -0.9517520626835E-02
-0.2021391904010E-01 -0.9776809171440E-02
-0.2116432515698E-01 -0.1003815449111E-01
-0.2210106720642E-01 -0.1030468207266E-01
-0.2302169799585E-01 -0.1057981661839E-01
-0.2392426527964E-01 -0.1086682900379E-01
-0.2480730180100E-01 -0.1116860098231E-01
-0.2566983499778E-01 -0.1148741680840E-01
-0.2651133183209E-01 -0.1182475182826E-01
-0.2733155681449E-01 -0.1218107200154E-01
-0.2813035743640E-01 -0.1255566776246E-01
-0.2890724923001E-01 -0.1294646630648E-01
-0.2966091643634E-01 -0.1334985294147E-01
-0.1603958420780E-03 -0.3375402077498E-03
-0.3738555152188E-03 -0.6804426330063E-03
-0.6398014944654E-03 -0.1028316567081E-02
-0.9571787915694E-03 -0.1380689835175E-02
-0.1324573207210E-02 -0.1737022712014E-02
-0.1740324625565E-02 -0.2096715641222E-02
-0.2202622714629E-02 -0.2459110037018E-02
-0.2709584480123E-02 -0.2823489577693E-02
-0.3259310660969E-02 -0.3189082065415E-02
-0.3849922202581E-02 -0.3555063207827E-02
-0.4479579318845E-02 -0.3920562807498E-02
-0.5146478840512E-02 -0.4284669624270E-02
-0.5848856343966E-02 -0.4646448334295E-02
-0.6584965042824E-02 -0.5004950901044E-02
-0.7352999724458E-02 -0.5359210572868E-02
-0.8151183188268E-02 -0.5708318507707E-02
-0.8977620247743E-02 -0.6051396098482E-02
-0.9830315514541E-02 -0.6387651029391E-02
-0.1070714284145E-01 -0.6716413680271E-02
-0.1160582289181E-01 -0.7037077225544E-02
-0.1252386813006E-01 -0.7348687486551E-02
-0.1345845478171E-01 -0.7650388885686E-02
-0.1440637091533E-01 -0.7941832161036E-02
-0.1536410893816E-01 -0.8223275576956E-02
-0.1632798768700E-01 -0.8495564714310E-02
-0.1729422516593E-01 -0.8760076298639E-02
-0.1825897594085E-01 -0.9018660773098E-02
-0.1921838351359E-01 -0.9273587253924E-02
-0.2016861076416E-01 -0.9527463112747E-02
-0.2110590079687E-01 -0.9783126834336E-02
-0.2202686956531E-01 -0.1004367682851E-01
-0.2292898552460E-01 -0.1031255546430E-01
-0.2381030740118E-01 -0.1059307358414E-01
-0.2466949308624E-01 -0.1088817103152E-01
-0.2550582132203E-01 -0.1120020217512E-01
-0.2631913798749E-01 -0.1153071280573E-01
-0.2710970194988E-01 -0.1188022376906E-01
-0.2787794192605E-01 -0.1224804695484E-01
-0.2862400125921E-01 -0.1263208139292E-01
-0.2934718291532E-01 -0.1302862009344E-01
-0.1570287703181E-03 -0.3255281150726E-03
-0.3673472945480E-03 -0.6564236829696E-03
-0.6304133657426E-03 -0.9922770222606E-03
-0.9451973784775E-03 -0.1332619680129E-02
-0.1310304610838E-02 -0.1676936686825E-02
-0.1724091071475E-02 -0.2024670756090E-02
-0.2184760247992E-02 -0.2375218641908E-02
-0.2690440488040E-02 -0.2727927708347E-02
-0.3239240473656E-02 -0.3082093439395E-02
-0.3829284418697E-02 -0.3436959538931E-02
-0.4458729733743E-02 -0.3791721170065E-02
-0.5125762922624E-02 -0.4145527620702E-02
-0.5828600162246E-02 -0.4497497286136E-02
-0.6565464483390E-02 -0.4846727670892E-02
-0.7334507690956E-02 -0.5192288740944E-02
-0.8133894785347E-02 -0.5533297135626E-02
-0.8961655583586E-02 -0.5868889022622E-02
-0.9815700400259E-02 -0.6198274901921E-02
-0.1069378767846E-01 -0.6520775656422E-02
-0.1159350030379E-01 -0.6835749031351E-02
-0.1251219100277E-01 -0.7142123273747E-02
-0.1344685608742E-01 -0.7438903485684E-02
-0.1439408284383E-01 -0.7725625779128E-02
-0.1535014180389E-01 -0.8002458758653E-02
-0.1631111063171E-01 -0.8270171275293E-02
-0.1727295090669E-01 -0.8530066720237E-02
-0.1823155208233E-01 -0.8783921917642E-02
-0.1918279320441E-01 -0.9033932911697E-02
-0.2012258618444E-01 -0.9282638403316E-02
-0.2104695283712E-01 -0.9532817720027E-02
-0.2195233610570E-01 -0.9787537846791E-02
-0.2283610032209E-01 -0.1005025741342E-01
-0.2369629385813E-01 -0.1032433075041E-01
-0.2453167975569E-01 -0.1061276470108E-01
-0.2534177294147E-01 -0.1091799732175E-01
-0.2612679158725E-01 -0.1124166111994E-01
-0.2688749354521E-01 -0.1158434768222E-01
-0.2762490554776E-01 -0.1194540207122E-01
-0.2833982622569E-01 -0.1232269942410E-01
-0.2903221185387E-01 -0.1271243558459E-01
-0.1536410687889E-03 -0.3134496977110E-03
-0.3608273121195E-03 -0.6322783928878E-03
-0.6210403464159E-03 -0.9560576695831E-03
-0.9332646221555E-03 -0.1284323965301E-02
-0.1296114766273E-02 -0.1616588846364E-02
-0.1707954693236E-02 -0.1952339340437E-02
-0.2166995721214E-02 -0.2291029582260E-02
-0.2671373771669E-02 -0.2632072529791E-02
-0.3219203708208E-02 -0.2974833116911E-02
-0.3808612957705E-02 -0.3318624733502E-02
-0.4437757476154E-02 -0.3662709584151E-02
-0.5104815934878E-02 -0.4006299186819E-02
-0.5807988543531E-02 -0.4348567347761E-02
-0.6545472355955E-02 -0.4688658695274E-02
-0.7315381039700E-02 -0.5025681220325E-02
-0.8115827112244E-02 -0.5358777905871E-02
-0.8944771039119E-02 -0.5687099882726E-02
-0.9800034619128E-02 -0.6009859789448E-02
-0.1067926660815E-01 -0.6326367288234E-02
-0.1157991757489E-01 -0.6635941927413E-02
-0.1249918555458E-01 -0.6937391506547E-02
-0.1343389165648E-01 -0.7229578855844E-02
-0.1438042676145E-01 -0.7511921664125E-02
-0.1533484331365E-01 -0.7784493682860E-02
-0.1629298052448E-01 -0.8047980254817E-02
-0.1725054454478E-01 -0.8303603169436E-02
-0.1820315818630E-01 -0.8553056206373E-02
-0.1914643111096E-01 -0.8798452352999E-02
-0.2007601512442E-01 -0.9042251993400E-02
-0.2098769689049E-01 -0.9287167225249E-02
-0.2187772754953E-01 -0.9536227931828E-02
-0.2274334395627E-01 -0.9792906204130E-02
-0.2358255849998E-01 -0.1006060217248E-01
-0.2439421481797E-01 -0.1034239791703E-01
-0.2517804481855E-01 -0.1064082892556E-01
-0.2593462965923E-01 -0.1095763183286E-01
-0.2666523043462E-01 -0.1129348674652E-01
-0.2737149119006E-01 -0.1164778580985E-01
-0.2805489857557E-01 -0.1201838629874E-01
-0.2871610384673E-01 -0.1240138286984E-01
-0.1502300044117E-03 -0.3012960729887E-03
-0.3542908503209E-03 -0.6079875609860E-03
-0.6116759013458E-03 -0.9196276949508E-03
-0.9213718837303E-03 -0.1235759276912E-02
-0.1281992380315E-02 -0.1555922585766E-02
-0.1691900910484E-02 -0.1879651401243E-02
-0.2149310679364E-02 -0.2206459600612E-02
-0.2652361520359E-02 -0.2535827857352E-02
-0.3199172832981E-02 -0.2867192432455E-02
-0.3787875303373E-02 -0.3199938123630E-02
-0.4416624870478E-02 -0.3533395850923E-02
-0.5083594961291E-02 -0.3866841056998E-02
-0.5786973373427E-02 -0.4199504675573E-02
-0.6524935564932E-02 -0.4530580121557E-02
-0.7295562154930E-02 -0.4859214867315E-02
-0.8096918811459E-02 -0.5184579321150E-02
-0.8926902680196E-02 -0.5505840052008E-02
-0.9783253267159E-02 -0.5822211503158E-02
-0.1066351584203E-01 -0.6132990779861E-02
-0.1156501460100E-01 -0.6437456827388E-02
-0.1248479835683E-01 -0.6734294223846E-02
-0.1341951816078E-01 -0.7022220668561E-02
-0.1436537336405E-01 -0.7300531890902E-02
-0.1531820265292E-01 -0.7569201979946E-02
-0.1627361002928E-01 -0.7828826379066E-02
-0.1722704762167E-01 -0.8080537268136E-02
-0.1817387024168E-01 -0.8325935966041E-02
-0.1910941301115E-01 -0.8567042071974E-02
-0.2002905767462E-01 -0.8806227233746E-02
-0.2092834028056E-01 -0.9046127043227E-02
-0.2180329880714E-01 -0.9289727077686E-02
-0.2265101562870E-01 -0.9540508427309E-02
-0.2346943692395E-01 -0.9801917831700E-02
-0.2425745725428E-01 -0.1007711993375E-01
-0.2501500145428E-01 -0.1036876148171E-01
-0.2574300084484E-01 -0.1067870194208E-01
-0.2644322300112E-01 -0.1100773007657E-01
-0.2711795089287E-01 -0.1135530181813E-01
-0.2776939755553E-01 -0.1171926493911E-01
-0.2839895869475E-01 -0.1209561005833E-01
-0.1467937725674E-03 -0.2890579913928E-03
-0.3477350713147E-03 -0.5835311712792E-03
-0.6023162477224E-03 -0.8829549663487E-03
-0.9095139885876E-03 -0.1186880358927E-02
-0.1267930135768E-02 -0.1494878943467E-02
-0.1675919433220E-02 -0.1806534096415E-02
-0.2131691105506E-02 -0.2121422110804E-02
-0.2633385382881E-02 -0.2439093685785E-02
-0.3179124707499E-02 -0.2759058365007E-02
-0.3767043197569E-02 -0.3080774080344E-02
-0.4395298312216E-02 -0.3403642116074E-02
-0.5062060914127E-02 -0.3727003520863E-02
-0.5765510055527E-02 -0.4050148104112E-02
-0.6503804137963E-02 -0.4372319830020E-02
-0.7274996046464E-02 -0.4692707289218E-02
-0.8077110534228E-02 -0.5010509658042E-02
-0.8907987833384E-02 -0.5324909755205E-02
-0.9765291814826E-02 -0.5635123895086E-02
-0.1064647093953E-01 -0.5940435740020E-02
-0.1154872946229E-01 -0.6240081651768E-02
-0.1246897286902E-01 -0.6532620361366E-02
-0.1340368773957E-01 -0.6816621722715E-02
-0.1434888729125E-01 -0.7091256300328E-02
-0.1530020137398E-01 -0.7356394183937E-02
-0.1625300263550E-01 -0.7612535012215E-02
-0.1720249113598E-01 -0.7860713704202E-02
-0.1814375268886E-01 -0.8102429790814E-02
-0.1907184272589E-01 -0.8339598847923E-02
-0.1998186241432E-01 -0.8574492576616E-02
-0.2086908035327E-01 -0.8809659483570E-02
-0.2172929757548E-01 -0.9048031911755E-02
-0.2255941128770E-01 -0.9293093532930E-02
-0.2335726632128E-01 -0.9548336654565E-02
-0.2412177274117E-01 -0.9817014580323E-02
-0.2485301847968E-01 -0.1010189906462E-01
-0.2555226763511E-01 -0.1040499250446E-01
-0.2622179560518E-01 -0.1072721524365E-01
-0.2686454789057E-01 -0.1106810723352E-01
-0.2748350839011E-01 -0.1142551813381E-01
-0.2808087548917E-01 -0.1179533320006E-01
-0.1433315569380E-03 -0.2767258034467E-03
-0.3411591331915E-03 -0.5588883194275E-03
-0.5929605110701E-03 -0.8460059175831E-03
-0.8976894004382E-03 -0.1137639964388E-02
-0.1253924865688E-02 -0.1433396439084E-02
-0.1660004427721E-02 -0.1732911582058E-02
-0.2114127579220E-02 -0.2035827075458E-02
-0.2614431625625E-02 -0.2341766111713E-02
-0.3159040749208E-02 -0.2650313512422E-02
-0.3746092822789E-02 -0.2961002039131E-02
-0.4373748469756E-02 -0.3273304938669E-02
-0.5040178753761E-02 -0.3586630521685E-02
-0.5743557743331E-02 -0.3900329255372E-02
-0.6482031459363E-02 -0.4213697531745E-02
-0.7253630570293E-02 -0.4525966906030E-02
-0.8056345130997E-02 -0.4836366966616E-02
-0.8887965227070E-02 -0.5144097980279E-02
-0.9746086178325E-02 -0.5448378657028E-02
-0.1062806678792E-01 -0.5748478845081E-02
-0.1153099828890E-01 -0.6043590834758E-02
-0.1245164916600E-01 -0.6332145084252E-02
-0.1338634756144E-01 -0.6612561086480E-02
-0.1433092649460E-01 -0.6883881441742E-02
-0.1528081254187E-01 -0.7145868473339E-02
-0.1623115155776E-01 -0.7398920709484E-02
-0.1717689418419E-01 -0.7643968632966E-02
-0.1811285680885E-01 -0.7882400858371E-02
-0.1903381029795E-01 -0.8116018077963E-02
-0.1993456446932E-01 -0.8346980063759E-02
-0.2081010256342E-01 -0.8577736283259E-02
-0.2165596266867E-01 -0.8811155006276E-02
-0.2246882247001E-01 -0.9050713798268E-02
-0.2324638510569E-01 -0.9299947233809E-02
-0.2398753427692E-01 -0.9562201737412E-02
-0.2469248433123E-01 -0.9840387458089E-02
-0.2536280889223E-01 -0.1013667123112E-01
-0.2600128944853E-01 -0.1045213113544E-01
-0.2661155910578E-01 -0.1078641573062E-01
-0.2719742380219E-01 -0.1113739190381E-01
-0.2776195297393E-01 -0.1150084016220E-01
-0.1398435972689E-03 -0.2642894221513E-03
-0.3345643219121E-03 -0.5340371279114E-03
-0.5836109005897E-03 -0.8087454152013E-03
-0.8859004124774E-03 -0.1087988686120E-02
-0.1239977738085E-02 -0.1371410890283E-02
-0.1644154684566E-02 -0.1658704841225E-02
-0.2096615429678E-02 -0.1949580868743E-02
-0.2595491279977E-02 -0.2243737244767E-02
-0.3138907086716E-02 -0.2540836056336E-02
-0.3725004971145E-02 -0.2840486515683E-02
-0.4351950474961E-02 -0.3142235347645E-02
-0.5017917701681E-02 -0.3445559737529E-02
-0.5721079571228E-02 -0.3749872623514E-02
-0.6459574509650E-02 -0.4054524831965E-02
-0.7231416662883E-02 -0.4358792964903E-02
-0.8034567863353E-02 -0.4661939007239E-02
-0.8866775161620E-02 -0.4963182308817E-02
-0.9725572827032E-02 -0.5261745016802E-02
-0.1060823762483E-01 -0.5556883375340E-02
-0.1151175517463E-01 -0.5847744677356E-02
-0.1243276371632E-01 -0.6132628935796E-02
-0.1336743943746E-01 -0.6409803022716E-02
-0.1431144165181E-01 -0.6678179260504E-02
-0.1525999991371E-01 -0.6937409115313E-02
-0.1620803864568E-01 -0.7187785427833E-02
-0.1715026257386E-01 -0.7430127688139E-02
-0.1808121903099E-01 -0.7665704807932E-02
-0.1899539001747E-01 -0.7896191630863E-02
-0.1988728333020E-01 -0.8123623310553E-02
-0.2075157823120E-01 -0.8350336915800E-02
-0.2158352194095E-01 -0.8579123728025E-02
-0.2237953469444E-01 -0.8813443919258E-02
-0.2313713211676E-01 -0.9056868300123E-02
-0.2385512248479E-01 -0.9312838721316E-02
-0.2453380178040E-01 -0.9584416353712E-02
-0.2517502244228E-01 -0.9873955281188E-02
-0.2578206567830E-01 -0.1018272106554E-01
-0.2635927787118E-01 -0.1051050077755E-01
-0.2691134553774E-01 -0.1085519904663E-01
-0.2744228976191E-01 -0.1121249473387E-01
-0.1363312668730E-03 -0.2517382802186E-03
-0.3279542028463E-03 -0.5089546498337E-03
-0.5742729086915E-03 -0.7711366093713E-03
-0.8741533606295E-03 -0.1037874771085E-02
-0.1226094455965E-02 -0.1308855218589E-02
-0.1628373794054E-02 -0.1583831511675E-02
-0.2079154889720E-02 -0.1862586150839E-02
-0.2576560287239E-02 -0.2144895143623E-02
-0.3118714710261E-02 -0.2430499764323E-02
-0.3703765213057E-02 -0.2719087169751E-02
-0.4329884118298E-02 -0.3010278955634E-02
-0.4995251464810E-02 -0.3303622727245E-02
-0.5698042905041E-02 -0.3598595730068E-02
-0.6436394133823E-02 -0.3894605367324E-02
-0.7208308613808E-02 -0.4190975629342E-02
-0.8011726663770E-02 -0.4487003260094E-02
-0.8844359736363E-02 -0.4781928814115E-02
-0.9703688956214E-02 -0.5074979494135E-02
-0.1058691713361E-01 -0.5365398799825E-02
-0.1149093216989E-01 -0.5652288734755E-02
-0.1241224924466E-01 -0.5933817002934E-02
-0.1334689952012E-01 -0.6208095909673E-02
-0.1429037566392E-01 -0.6473905754784E-02
-0.1523771719119E-01 -0.6730784847709E-02
-0.1618363334699E-01 -0.6978916637601E-02
-0.1712258745678E-01 -0.7219003851979E-02
-0.1804885920989E-01 -0.7452187434008E-02
-0.1895663834747E-01 -0.7680005477425E-02
-0.1984012048501E-01 -0.7904355242189E-02
-0.2069366202126E-01 -0.8127446656595E-02
-0.2151218985436E-01 -0.8351978892527E-02
-0.2229182546688E-01 -0.8581380510487E-02
-0.2302984547884E-01 -0.8819249263833E-02
-0.2372492571898E-01 -0.9069121942986E-02
-0.2437738951766E-01 -0.9334222049068E-02
-0.2498932804993E-01 -0.9617114765804E-02
-0.2556450918819E-01 -0.9919286717650E-02
-0.2610801744621E-01 -0.1024069968518E-01
-0.2662548640913E-01 -0.1057932337572E-01
-0.2712198487637E-01 -0.1093074146411E-01
-0.1327971619189E-03 -0.2390612801607E-03
-0.3213347955875E-03 -0.4836167571625E-03
-0.5649555383517E-03 -0.7331407628070E-03
-0.8624588609691E-03 -0.9872439119929E-03
-0.1212285472770E-02 -0.1245659238718E-02
-0.1612670327545E-02 -0.1508205709123E-02
-0.2061751248878E-02 -0.1774741752760E-02
-0.2557639639228E-02 -0.2045123777538E-02
-0.3098459618222E-02 -0.2319174031447E-02
-0.3682364065416E-02 -0.2596658920598E-02
-0.4307534049373E-02 -0.2877276134883E-02
-0.4972158473195E-02 -0.3160645147342E-02
-0.5674419615525E-02 -0.3446309356885E-02
-0.6412455343304E-02 -0.3733735025394E-02
-0.7184264383238E-02 -0.4022296152362E-02
-0.7987772451309E-02 -0.4311327017139E-02
-0.8820663143170E-02 -0.4600092036829E-02
-0.9680372736307E-02 -0.4887825725870E-02
-0.1056403862458E-01 -0.5173760418785E-02
-0.1146845936866E-01 -0.5456953246350E-02
-0.1239003469439E-01 -0.5735438105505E-02
-0.1332465810597E-01 -0.6007171162167E-02
-0.1426766325497E-01 -0.6270799604089E-02
-0.1521390736709E-01 -0.6525747197490E-02
-0.1615789174537E-01 -0.6772085327571E-02
-0.1709384400235E-01 -0.7010395168270E-02
-0.1801577888813E-01 -0.7241682166813E-02
-0.1891759175710E-01 -0.7467337051824E-02
-0.1979315685884E-01 -0.7689105516907E-02
-0.2063648911417E-01 -0.7909054320298E-02
-0.2144216463222E-01 -0.8129773124455E-02
-0.2220596180781E-01 -0.8354641413093E-02
-0.2292486100712E-01 -0.8587270740540E-02
-0.2359733986658E-01 -0.8831288789815E-02
-0.2422368371394E-01 -0.9090090642422E-02
-0.2480617076212E-01 -0.9366477037087E-02
-0.2534903323200E-01 -0.9662193114043E-02
-0.2585811558781E-01 -0.9977418662876E-02
-0.2634007298576E-01 -0.1031022469268E-01
-0.2680113845622E-01 -0.1065611113691E-01
-0.1292452047894E-03 -0.2262467338192E-03
-0.3147147754629E-03 -0.4579980051869E-03
-0.5556715602325E-03 -0.6947170444425E-03
-0.8508320696048E-03 -0.9360389983742E-03
-0.1198566217049E-02 -0.1181749409877E-02
-0.1597058014659E-02 -0.1431737820769E-02
-0.2044414992427E-02 -0.1685942541753E-02
-0.2538735499630E-02 -0.1944302977701E-02
-0.3078142943149E-02 -0.2206723918351E-02
-0.3660797141234E-02 -0.2473052062963E-02
-0.4284889963470E-02 -0.2743062195242E-02
-0.4948622110434E-02 -0.3016446970327E-02
-0.5650186353225E-02 -0.3292817777669E-02
-0.6387727629264E-02 -0.3571702157222E-02
-0.7159245941641E-02 -0.3852527033863E-02
-0.7962659480522E-02 -0.4134667445901E-02
-0.8795632003940E-02 -0.4417414916381E-02
-0.9655563616352E-02 -0.4700014227256E-02
-0.1053953528007E-01 -0.4981688919196E-02
-0.1144426506802E-01 -0.5261452452308E-02
-0.1236604527033E-01 -0.5537203841910E-02
-0.1330063952290E-01 -0.5806741974443E-02
-0.1424323065606E-01 -0.6068580578813E-02
-0.1518850214799E-01 -0.6322028531811E-02
-0.1613075565442E-01 -0.6567043684721E-02
-0.1706399008949E-01 -0.6804082061148E-02
-0.1798195951585E-01 -0.7034007079640E-02
-0.1887826441935E-01 -0.7258052056033E-02
-0.1974644999224E-01 -0.7477797315152E-02
-0.2058017196393E-01 -0.7695149313311E-02
-0.2137362484031E-01 -0.7912568535044E-02
-0.2212219708471E-01 -0.8133364400911E-02
-0.2282250988584E-01 -0.8361144649852E-02
-0.2347276753171E-01 -0.8599619341353E-02
-0.2407313923631E-01 -0.8852361375544E-02
-0.2462602430346E-01 -0.9122431470174E-02
-0.2513608461501E-01 -0.9411874499049E-02
-0.2560994019098E-01 -0.9721138949981E-02
-0.2605534885066E-01 -0.1004844427020E-01
-0.2647985173985E-01 -0.1038922618990E-01
-0.1256807655666E-03 -0.2132822890117E-03
-0.3081057093715E-03 -0.4320714703961E-03
-0.5464378083046E-03 -0.6558222870647E-03
-0.8392929729184E-03 -0.8841998317143E-03
-0.1184957333173E-02 -0.1117048562861E-02
-0.1581555923542E-02 -0.1354334294721E-02
-0.2027161935816E-02 -0.1596079305840E-02
-0.2519859318802E-02 -0.1842308430439E-02
-0.3057771073917E-02 -0.2093010251891E-02
-0.3639065301390E-02 -0.2348112464314E-02
-0.4261946798692E-02 -0.2607467660751E-02
-0.4924630965360E-02 -0.2870842817795E-02
-0.5625324857120E-02 -0.3137919118985E-02
-0.6362185323710E-02 -0.3408287931862E-02
-0.7133219671925E-02 -0.3681432329450E-02
-0.7936345767371E-02 -0.3956771810338E-02
-0.8769215798989E-02 -0.4233628880905E-02
-0.9629202731396E-02 -0.4511262309141E-02
-0.1051334051576E-01 -0.4788890079524E-02
-0.1141827605550E-01 -0.5065484048806E-02
-0.1234020261923E-01 -0.5338807758629E-02
-0.1327476216300E-01 -0.5606502166964E-02
-0.1421699543873E-01 -0.5866948027128E-02
-0.1516142152354E-01 -0.6119340150885E-02
-0.1610215184472E-01 -0.6363522768454E-02
-0.1703296510177E-01 -0.6599824586760E-02
-0.1794736071939E-01 -0.6828961752358E-02
-0.1883864587132E-01 -0.7052001032402E-02
-0.1970003105726E-01 -0.7270343809387E-02
-0.2052479673340E-01 -0.7485718302358E-02
-0.2130672547282E-01 -0.7700434007065E-02
-0.2204076720869E-01 -0.7917705578488E-02
-0.2272311567478E-01 -0.8141114211021E-02
-0.2335161668667E-01 -0.8374438299616E-02
-0.2392623068741E-01 -0.8621430596307E-02
-0.2444939481563E-01 -0.8885435287912E-02
-0.2492614983993E-01 -0.9168841861523E-02
-0.2536389697932E-01 -0.9472425511730E-02
-0.2577157993713E-01 -0.9794612101271E-02
-0.2615822630025E-01 -0.1013080623400E-01
-0.1221108050332E-03 -0.2001548351776E-03
-0.3015223289482E-03 -0.4058085433456E-03
-0.5372755118868E-03 -0.6164106772649E-03
-0.8278666967616E-03 -0.8316627584451E-03
-0.1171484915987E-02 -0.1051475542098E-02
-0.1566188612526E-02 -0.1275897347318E-02
-0.2010013314627E-02 -0.1505038558404E-02
-0.2501027894668E-02 -0.1739011587864E-02
-0.3037355719143E-02 -0.1977889634874E-02
-0.3617174745850E-02 -0.2221681657984E-02
-0.4238704873115E-02 -0.2470318425377E-02
-0.4900179026519E-02 -0.2723642153260E-02
-0.5599822211166E-02 -0.2981405559052E-02
-0.6335807915659E-02 -0.3243266503709E-02
-0.7106156735309E-02 -0.3508767743244E-02
-0.7908793488145E-02 -0.3777377442606E-02
-0.8741367277722E-02 -0.4048453650738E-02
-0.9601233301351E-02 -0.4321273667539E-02
-0.1048538834263E-01 -0.4595054102603E-02
-0.1139041790635E-01 -0.4868728224505E-02
-0.1231242502897E-01 -0.5139924051275E-02
-0.1324693854113E-01 -0.5406124511231E-02
-0.1418886637701E-01 -0.5665578780645E-02
-0.1513257336006E-01 -0.5917369731648E-02
-0.1607199127893E-01 -0.6161229454899E-02
-0.1700068869479E-01 -0.6397358856994E-02
-0.1791191847629E-01 -0.6626323188303E-02
-0.1879869847135E-01 -0.6849014851162E-02
-0.1965390150478E-01 -0.7066643400227E-02
-0.2047041913491E-01 -0.7280740513987E-02
-0.2124159317161E-01 -0.7493441027464E-02
-0.2196188569609E-01 -0.7707836346706E-02
-0.2262698999494E-01 -0.7927452667244E-02
-0.2323429801080E-01 -0.8156115971781E-02
-0.2378345236109E-01 -0.8397755169308E-02
-0.2427682400831E-01 -0.8656019365318E-02
-0.2471976100733E-01 -0.8933690795346E-02
-0.2512043779176E-01 -0.9231937990045E-02
-0.2548906318568E-01 -0.9549458138685E-02
-0.2583635950918E-01 -0.9881670927196E-02
-0.1185440479549E-03 -0.1868503838345E-03
-0.2949828577358E-03 -0.3791786845970E-03
-0.5282106878972E-03 -0.5764333997307E-03
-0.8165838619079E-03 -0.7783602673785E-03
-0.1158180771810E-02 -0.9849448455302E-03
-0.1550986295045E-02 -0.1196324713540E-02
-0.1992995884703E-02 -0.1412702435173E-02
-0.2482263449330E-02 -0.1634279719167E-02
-0.3016913997281E-02 -0.1861214642790E-02
-0.3595137145675E-02 -0.2093597168988E-02
-0.4215170079002E-02 -0.2331436187714E-02
-0.4875265952088E-02 -0.2574649801347E-02
-0.5573671196791E-02 -0.2823063900764E-02
-0.6308580485563E-02 -0.3076405600843E-02
-0.7078033578604E-02 -0.3334281185541E-02
-0.7879969542494E-02 -0.3596212218840E-02
-0.8712043054684E-02 -0.3861597579533E-02
-0.9571601234735E-02 -0.4129738538725E-02
-0.1045561395207E-01 -0.4399855536452E-02
-0.1136061552083E-01 -0.4670847302272E-02
-0.1228262788419E-01 -0.4940206883165E-02
-0.1321707562485E-01 -0.5205259678599E-02
-0.1415874359358E-01 -0.5464125682935E-02
-0.1510185328713E-01 -0.5715779382187E-02
-0.1604016864156E-01 -0.5959843964081E-02
-0.1696705984709E-01 -0.6196393996451E-02
-0.1787554354018E-01 -0.6425842187644E-02
-0.1875835503595E-01 -0.6648900549055E-02
-0.1960802977022E-01 -0.6866575177807E-02
-0.2041706014754E-01 -0.7080183137500E-02
-0.2117832109401E-01 -0.7291659553212E-02
-0.2188573815366E-01 -0.7503940447233E-02
-0.2253442753070E-01 -0.7720462323437E-02
-0.2312122166307E-01 -0.7945069985539E-02
-0.2364531819468E-01 -0.8181857277302E-02
-0.2410889292193E-01 -0.8434795828002E-02
-0.2451750374072E-01 -0.8707112446641E-02
-0.2488006971719E-01 -0.9000443985277E-02
-0.2520814268613E-01 -0.9313838031729E-02
-0.2551434767009E-01 -0.9642755219772E-02
-0.1149911923696E-03 -0.1733538941671E-03
-0.2885093947370E-03 -0.3521491273914E-03
-0.5192745920154E-03 -0.5358381787939E-03
-0.8054809644076E-03 -0.7242204796191E-03
-0.1145082668850E-02 -0.9173661667595E-03
-0.1535984966535E-02 -0.1115509317439E-02
-0.1976141969370E-02 -0.1318948525376E-02
-0.2463593646952E-02 -0.1527975901751E-02
-0.2996468467044E-02 -0.1742833958183E-02
-0.3572969716726E-02 -0.1963692770084E-02
-0.4191354021864E-02 -0.2190638805987E-02
-0.4849897289994E-02 -0.2423666376134E-02
-0.5546870603834E-02 -0.2662676041497E-02
-0.6280494109434E-02 -0.2907466995475E-02
-0.7048832424669E-02 -0.3157713193814E-02
-0.7849846114032E-02 -0.3412994874106E-02
-0.8681204217206E-02 -0.3672757804410E-02
-0.9540255757433E-02 -0.3936333627972E-02
-0.1042395433894E-01 -0.4202952928860E-02
-0.1132879371313E-01 -0.4471485072074E-02
-0.1225072418687E-01 -0.4739289349574E-02
-0.1318507524199E-01 -0.5003534785859E-02
-0.1412651879372E-01 -0.5262215660324E-02
-0.1506914467706E-01 -0.5514203174355E-02
-0.1600656195771E-01 -0.5759016785310E-02
-0.1693195597942E-01 -0.5996608393271E-02
-0.1783811988342E-01 -0.6227238876324E-02
-0.1871751639415E-01 -0.6451436144408E-02
-0.1956234772093E-01 -0.6669993142054E-02
-0.2036470120256E-01 -0.6883995251077E-02
-0.2111696287346E-01 -0.7095152198461E-02
-0.2181247542889E-01 -0.7306209244242E-02
-0.2244569931457E-01 -0.7520471940728E-02
-0.2301279225057E-01 -0.7741765786348E-02
-0.2351236004673E-01 -0.7974328501357E-02
-0.2394622527823E-01 -0.8222466047952E-02
-0.2432002364788E-01 -0.8489903524050E-02
-0.2464336783185E-01 -0.8778838282787E-02
-0.2492921372372E-01 -0.9088745335472E-02
-0.2519230943361E-01 -0.9415251507821E-02
-0.1114599988085E-03 -0.1596390849135E-03
-0.2821116111728E-03 -0.3246495125979E-03
-0.5104713190944E-03 -0.4944955543611E-03
-0.7945478183907E-03 -0.6690417698766E-03
-0.1132158138199E-02 -0.8484543514733E-03
-0.1521123475341E-02 -0.1033071982242E-02
-0.1959357024331E-02 -0.1223293363056E-02
-0.2444887158838E-02 -0.1419502121547E-02
-0.2975848501148E-02 -0.1622024882198E-02
-0.3550460556064E-02 -0.1831111341314E-02
-0.4167001871784E-02 -0.2046925729001E-02
-0.4823773852076E-02 -0.2269539946296E-02
-0.5519075652412E-02 -0.2498932125896E-02
-0.6251157437624E-02 -0.2734978136823E-02
-0.7018114773361E-02 -0.2977425920427E-02
-0.7817937574420E-02 -0.3225922192140E-02
-0.8648318864432E-02 -0.3479968517153E-02
-0.9506620541702E-02 -0.3738936351745E-02
-0.1038979157695E-01 -0.4002075832829E-02
-0.1129429653701E-01 -0.4268234875535E-02
-0.1221602376636E-01 -0.4534641350241E-02
-0.1315021651760E-01 -0.4798309795752E-02
-0.1409144337154E-01 -0.5057113607638E-02
-0.1503367350994E-01 -0.5309827769608E-02
-0.1597037340856E-01 -0.5555875374887E-02
-0.1689455633158E-01 -0.5795091378073E-02
-0.1779880379822E-01 -0.6027587157867E-02
-0.1867531482994E-01 -0.6253703728559E-02
-0.1951596114599E-01 -0.6474011052499E-02
-0.2031241686054E-01 -0.6689344069399E-02
-0.2105655305426E-01 -0.6901157563762E-02
-0.2174107539017E-01 -0.7111963756799E-02
-0.2235969500926E-01 -0.7324885373146E-02
-0.2290775420403E-01 -0.7543677348337E-02
-0.2338308175253E-01 -0.7772688362578E-02
-0.2378693929720E-01 -0.8016566242500E-02
-0.2412486003901E-01 -0.8279599882210E-02
-0.2440706171649E-01 -0.8564663660176E-02
-0.2464800457916E-01 -0.8871818609823E-02
-0.2486476358143E-01 -0.9196756395642E-02
-0.1079708200833E-03 -0.1456986412091E-03
-0.2758371978233E-03 -0.2966761643829E-03
-0.5018762259285E-03 -0.4524166337537E-03
-0.7838854014165E-03 -0.6128638417591E-03
-0.1119531719320E-02 -0.7782928577092E-03
-0.1506549245977E-02 -0.9491549183801E-03
-0.1942812062606E-02 -0.1125951576709E-02
-0.2426340106700E-02 -0.1309157220079E-02
-0.2955277047420E-02 -0.1499180278693E-02
-0.3527860882647E-02 -0.1696347639488E-02
-0.4142393975384E-02 -0.1900899599695E-02
-0.4797205169170E-02 -0.2112985197014E-02
-0.5490624173707E-02 -0.2332661248861E-02
-0.6220934705706E-02 -0.2559883204908E-02
-0.6986268376980E-02 -0.2794477782622E-02
-0.7784651454131E-02 -0.3036164725847E-02
-0.8613809970235E-02 -0.3284509360469E-02
-0.9471129398285E-02 -0.3538931790545E-02
-0.1035356576515E-01 -0.3798710857640E-02
-0.1125756620224E-01 -0.4062681107824E-02
-0.1217896741991E-01 -0.4327942017484E-02
-0.1311293629656E-01 -0.4591356531973E-02
-0.1405394923725E-01 -0.4850683338387E-02
-0.1499586821593E-01 -0.5104610168816E-02
-0.1593203299321E-01 -0.5352473793926E-02
-0.1685530254243E-01 -0.5594001583105E-02
-0.1775806540850E-01 -0.5829162477648E-02
-0.1863227474551E-01 -0.6058113631189E-02
-0.1946948610605E-01 -0.6281198849756E-02
-0.2026096674232E-01 -0.6498990627705E-02
-0.2099806401921E-01 -0.6712664788026E-02
-0.2167281115559E-01 -0.6924460373540E-02
-0.2227809272880E-01 -0.7137261562873E-02
-0.2280830227504E-01 -0.7354689877328E-02
-0.2326029651009E-01 -0.7581153715518E-02
-0.2363453541610E-01 -0.7821631109022E-02
-0.2393621132339E-01 -0.8081030179843E-02
-0.2417600150876E-01 -0.8363035597225E-02
-0.2436987867479E-01 -0.8668461574950E-02
-0.2453766461565E-01 -0.8993363398456E-02
-0.1045421480077E-03 -0.1315135877319E-03
-0.2697232817578E-03 -0.2681869111202E-03
-0.4935400447807E-03 -0.4095348978930E-03
-0.7735508503850E-03 -0.5555974907663E-03
-0.1107260956776E-02 -0.7067732698678E-03
-0.1492316588295E-02 -0.8636339414975E-03
-0.1926556585016E-02 -0.1026785539988E-02
-0.2407996856916E-02 -0.1196791058758E-02
-0.2934793542640E-02 -0.1374137206497E-02
-0.3505205469299E-02 -0.1559224697181E-02
-0.4117560492954E-02 -0.1752367510381E-02
-0.4770216459856E-02 -0.1953790861902E-02
-0.5461535629700E-02 -0.2163631035499E-02
-0.6189838272108E-02 -0.2381925847735E-02
-0.6953296651123E-02 -0.2608585750787E-02
-0.7749980046201E-02 -0.2843410585146E-02
-0.8577656437376E-02 -0.3086038289341E-02
-0.9433745754885E-02 -0.3335947659240E-02
-0.1031522312855E-01 -0.3592456840920E-02
-0.1121853037477E-01 -0.3854396587291E-02
-0.1213946309831E-01 -0.4118741928490E-02
-0.1307312169822E-01 -0.4382207945140E-02
-0.1401390169331E-01 -0.4642446100910E-02
-0.1495557178959E-01 -0.4898067760496E-02
-0.1589136196410E-01 -0.5148335912502E-02
-0.1681399646152E-01 -0.5392882765207E-02
-0.1771569218614E-01 -0.5631545555624E-02
-0.1858817817408E-01 -0.5864304926688E-02
-0.1942271371049E-01 -0.6091280191872E-02
-0.2021017316917E-01 -0.6312774266374E-02
-0.2094138114120E-01 -0.6529663876163E-02
-0.2160767365978E-01 -0.6743875686504E-02
-0.2220103937400E-01 -0.6957994715827E-02
-0.2271478818908E-01 -0.7175433434967E-02
-0.2314458984845E-01 -0.7400588893241E-02
-0.2348981548764E-01 -0.7638737543644E-02
-0.2375500891716E-01 -0.7895454959494E-02
-0.2395107571939E-01 -0.8175390366204E-02
-0.2409550414354E-01 -0.8480347631102E-02
-0.2421095512945E-01 -0.8807186734191E-02
-0.1011959138222E-03 -0.1170627664515E-03
-0.2638135529555E-03 -0.2391350063578E-03
-0.4855214579164E-03 -0.3657770471163E-03
-0.7636090859842E-03 -0.4971457414750E-03
-0.1095410239235E-02 -0.6337796204866E-03
-0.1478485719133E-02 -0.7763783373473E-03
-0.1910645415022E-02 -0.9256524084210E-03
-0.2389906917047E-02 -0.1082249540740E-02
-0.2914442710075E-02 -0.1246729810957E-02
-0.3482534755964E-02 -0.1419563399621E-02
-0.4092537792744E-02 -0.1601134856437E-02
-0.4742839786225E-02 -0.1791744062343E-02
-0.5431836982334E-02 -0.1991607142160E-02
-0.6157888575226E-02 -0.2200846852664E-02
-0.6919211471607E-02 -0.2419462417894E-02
-0.7713924152842E-02 -0.2647341308389E-02
-0.8539845289555E-02 -0.2884203826672E-02
-0.9394440280302E-02 -0.3129598790836E-02
-0.1027471574821E-01 -0.3382895821900E-02
-0.1117712067056E-01 -0.3642933087989E-02
-0.1209742022607E-01 -0.3906566129491E-02
-0.1303065816477E-01 -0.4170366771114E-02
-0.1397116040171E-01 -0.4431888080931E-02
-0.1491261667041E-01 -0.4689677904716E-02
-0.1584816502401E-01 -0.4942940568698E-02
-0.1677041618998E-01 -0.5191228762034E-02
-0.1767143933664E-01 -0.5434262726469E-02
-0.1854276499784E-01 -0.5671858840221E-02
-0.1937538185541E-01 -0.5903919450699E-02
-0.2015979376073E-01 -0.6130477265272E-02
-0.2088631498993E-01 -0.6352096008898E-02
-0.2154557377775E-01 -0.6570354570195E-02
-0.2212860666158E-01 -0.6787475808867E-02
-0.2262750976597E-01 -0.7006575256168E-02
-0.2303653510762E-01 -0.7231944447885E-02
-0.2335362878152E-01 -0.7469098400917E-02
-0.2358229004494E-01 -0.7724312609813E-02
-0.2373332142548E-01 -0.8003368153448E-02
-0.2382561488558E-01 -0.8309386972856E-02
-0.2388487058714E-01 -0.8640289793838E-02
-0.9795815849119E-04 -0.1023223894827E-03
-0.2581593535064E-03 -0.2094679702760E-03
-0.4778880865632E-03 -0.3210615715760E-03
-0.7541333176512E-03 -0.4374024915946E-03
-0.1084050860859E-02 -0.5591874326438E-03
-0.1465122566722E-02 -0.6872503616031E-03
-0.1895138422447E-02 -0.8224040015402E-03
-0.2372124678914E-02 -0.9653747731513E-03
-0.2894274366880E-02 -0.1116789695675E-02
-0.3459894742783E-02 -0.1277183032006E-02
-0.4067368448459E-02 -0.1447006048491E-02
-0.4715114180908E-02 -0.1626631181270E-02
-0.5401562982292E-02 -0.1816354280912E-02
-0.6125114617134E-02 -0.2016385288429E-02
-0.6884033875285E-02 -0.2226817192881E-02
-0.7676494002269E-02 -0.2447633007355E-02
-0.8500372776782E-02 -0.2678646039483E-02
-0.9353192135991E-02 -0.2919487823964E-02
-0.1023200291808E-01 -0.3169593338845E-02
-0.1113327408429E-01 -0.3427821170288E-02
-0.1205275116983E-01 -0.3690913443602E-02
-0.1298543092748E-01 -0.3955304264147E-02
-0.1392558078985E-01 -0.4218458493823E-02
-0.1486682601114E-01 -0.4478875284680E-02
-0.1580223135312E-01 -0.4735718026009E-02
-0.1672431671362E-01 -0.4988478827840E-02
-0.1762502979127E-01 -0.5236779835574E-02
-0.1849573188657E-01 -0.5480290794580E-02
-0.1932717244601E-01 -0.5718711454895E-02
-0.2010951597363E-01 -0.5951811922566E-02
-0.2083259198488E-01 -0.6179837981570E-02
-0.2148632800620E-01 -0.6403992895851E-02
-0.2206077172315E-01 -0.6626075961797E-02
-0.2254668858704E-01 -0.6848807925388E-02
-0.2293667421130E-01 -0.7076255071891E-02
-0.2322686399066E-01 -0.7314074156314E-02
-0.2341921361548E-01 -0.7569241575589E-02
-0.2352394515170E-01 -0.7848849414824E-02
-0.2356112725466E-01 -0.8157685981799E-02
-0.2355980208505E-01 -0.8495027146096E-02
-0.9485991456523E-04 -0.8726535901696E-04
-0.2528210731511E-03 -0.1791261118452E-03
-0.4707176262322E-03 -0.2752968983572E-03
-0.7452055207818E-03 -0.3762508808261E-03
-0.1073260952861E-02 -0.4828626481009E-03
-0.1452298440667E-02 -0.5961047433291E-03
-0.1880100143079E-02 -0.7168867357431E-03
-0.2354709087232E-02 -0.8460052881458E-03
-0.2874343174188E-02 -0.9841463496306E-03
-0.3437336832992E-02 -0.1131901881789E-02
-0.4042101188969E-02 -0.1289785287850E-02
-0.4687085729201E-02 -0.1458238819662E-02
-0.5370756421639E-02 -0.1637637358066E-02
-0.6091554430768E-02 -0.1828279801785E-02
-0.6847794776957E-02 -0.2030357690680E-02
-0.7637710223698E-02 -0.2243957740356E-02
-0.8459245582001E-02 -0.2468997753415E-02
-0.9309990365352E-02 -0.2705206114373E-02
-0.1018705266845E-01 -0.2952098917114E-02
-0.1108693460932E-01 -0.3208570161645E-02
-0.1200537292252E-01 -0.3471255892412E-02
-0.1293732671466E-01 -0.3736459019060E-02
-0.1387701572853E-01 -0.4001567753386E-02
-0.1481801525799E-01 -0.4265049328416E-02
-0.1575333600332E-01 -0.4526046489091E-02
-0.1667543098104E-01 -0.4784012993007E-02
-0.1757615474705E-01 -0.5038496071395E-02
-0.1844673189777E-01 -0.5289042200492E-02
-0.1927770935218E-01 -0.5535170593921E-02
-0.2005895228382E-01 -0.5776406307679E-02
-0.2077984522497E-01 -0.6012684221167E-02
-0.2142964318141E-01 -0.6244816319014E-02
-0.2199739465420E-01 -0.6474124315210E-02
-0.2247244190205E-01 -0.6702831226950E-02
-0.2284549014005E-01 -0.6934632641901E-02
-0.2311043495606E-01 -0.7175182933567E-02
-0.2326707020895E-01 -0.7432111501753E-02
-0.2332437227203E-01 -0.7713984332773E-02
-0.2330319925503E-01 -0.8027646684159E-02
-0.2323626724489E-01 -0.8374146621977E-02
-0.9193838595731E-04 -0.7186031420134E-04
-0.2478699369764E-03 -0.1480405471995E-03
-0.4640991435376E-03 -0.2283790130044E-03
-0.7369168259518E-03 -0.3135613352171E-03
-0.1063125228897E-02 -0.4046604652978E-03
-0.1440089535338E-02 -0.5027882299017E-03
-0.1865599283979E-02 -0.6089416357089E-03
-0.2337723232298E-02 -0.7239763358330E-03
-0.2854708329530E-02 -0.8486276330154E-03
-0.3414917623212E-02 -0.9835378940140E-03
-0.4016790794370E-02 -0.1129277400825E-02
-0.4658807596272E-02 -0.1286354831598E-02
-0.5339468336268E-02 -0.1455222726474E-02
-0.6057255514428E-02 -0.1636270077147E-02
-0.6810535688217E-02 -0.1829791339948E-02
-0.7597604873214E-02 -0.2035985147546E-02
-0.8416482130893E-02 -0.2254886047584E-02
-0.9264835430342E-02 -0.2486334911622E-02
-0.1013984346943E-01 -0.2729946780695E-02
-0.1103805506318E-01 -0.2984668308863E-02
-0.1195520901579E-01 -0.3247038244500E-02
-0.1288623571184E-01 -0.3513235894748E-02
-0.1382531749124E-01 -0.3780585736870E-02
-0.1476599405331E-01 -0.4047541734561E-02
-0.1570124167670E-01 -0.4313248731890E-02
-0.1662347145879E-01 -0.4577147528376E-02
-0.1752447481839E-01 -0.4838737851857E-02
-0.1839537486355E-01 -0.5097472152709E-02
-0.1922655732591E-01 -0.5352719481826E-02
-0.2000763638818E-01 -0.5603788874250E-02
-0.2072760603114E-01 -0.5850326413075E-02
-0.2137510081152E-01 -0.6092754748468E-02
-0.2193819329783E-01 -0.6331879185736E-02
-0.2240474791607E-01 -0.6569325466081E-02
-0.2276336901402E-01 -0.6808251128536E-02
-0.2300525446785E-01 -0.7054108295312E-02
-0.2312728921608E-01 -0.7315056680042E-02
-0.2313629888294E-01 -0.7601256412534E-02
-0.2305329210762E-01 -0.7922061364531E-02
-0.2291493130427E-01 -0.8280891662053E-02
-0.8923855847041E-04 -0.5607028919767E-04
-0.2433903064101E-03 -0.1161304955197E-03
-0.4581345233029E-03 -0.1801883947143E-03
-0.7293677291038E-03 -0.2491892570891E-03
-0.1053734468737E-02 -0.3244241364878E-03
-0.1428576234753E-02 -0.4071392310165E-03
-0.1851708109220E-02 -0.4984044580892E-03
-0.2321233869455E-02 -0.5991202621343E-03
-0.2835433203541E-02 -0.7100603234987E-03
-0.3392698639832E-02 -0.8319093756723E-03
-0.3991497932868E-02 -0.9652887249330E-03
-0.4630339988696E-02 -0.1110769430208E-02
-0.5307758141711E-02 -0.1268879547203E-02
-0.6022275213048E-02 -0.1440098464229E-02
-0.6772309418626E-02 -0.1624827229356E-02
-0.7556222498742E-02 -0.1823384387293E-02
-0.8372114005352E-02 -0.2035934080696E-02
-0.9217740906778E-02 -0.2262446851811E-02
-0.1009036613156E-01 -0.2502656826112E-02
-0.1098659913631E-01 -0.2755583123636E-02
-0.1190219167577E-01 -0.3017677699751E-02
-0.1283205378397E-01 -0.3285005045447E-02
-0.1377034000077E-01 -0.3554840161625E-02
-0.1471056846598E-01 -0.3825644134991E-02
-0.1564570089775E-01 -0.4096588893951E-02
-0.1656813218487E-01 -0.4367130601024E-02
-0.1746962185008E-01 -0.4636752896884E-02
-0.1834122867541E-01 -0.4904849228519E-02
-0.1917322210972E-01 -0.5170677452430E-02
-0.1995502084714E-01 -0.5433372249302E-02
-0.2067529687848E-01 -0.5692330967801E-02
-0.2132214191832E-01 -0.5947612304837E-02
-0.2188271597837E-01 -0.6199491322741E-02
-0.2234340413500E-01 -0.6448913376488E-02
-0.2269054873263E-01 -0.6698319373176E-02
-0.2291219128301E-01 -0.6952699461051E-02
-0.2300143474655E-01 -0.7220516774215E-02
-0.2296174649197E-01 -0.7513564663336E-02
-0.2281325570213E-01 -0.7844220843250E-02
-0.2259666126143E-01 -0.8219123205246E-02
-0.8681544509217E-04 -0.3985078694570E-04
-0.2394826551664E-03 -0.8329953169824E-04
-0.4529400118763E-03 -0.1305860588396E-03
-0.7226679799595E-03 -0.1829723594867E-03
-0.1045184646547E-02 -0.2419838189068E-03
-0.1417842192152E-02 -0.3089876418899E-03
-0.1838501709712E-02 -0.3851059653267E-03
-0.2305310873299E-02 -0.4712669826645E-03
-0.2816584925460E-02 -0.5682707222435E-03
-0.3370746021589E-02 -0.6768357427401E-03
-0.3966288933636E-02 -0.7976280369752E-03
-0.4601750039187E-02 -0.9312763526518E-03
-0.5275693683505E-02 -0.1078381250672E-02
-0.5986681020598E-02 -0.1239511773364E-02
-0.6733180732290E-02 -0.1415178211526E-02
-0.7513621225754E-02 -0.1605826417493E-02
-0.8326187458560E-02 -0.1811763311047E-02
-0.9168735352075E-02 -0.2033107830663E-02
-0.1003862592616E-01 -0.2269735906376E-02
-0.1093254368730E-01 -0.2520761943672E-02
-0.1184626423958E-01 -0.2782563711721E-02
-0.1277468496870E-01 -0.3051101057225E-02
-0.1371194136418E-01 -0.3323615082282E-02
-0.1465154354821E-01 -0.3598595924740E-02
-0.1558645858010E-01 -0.3875269501314E-02
-0.1650909132926E-01 -0.4153138210652E-02
-0.1741120142107E-01 -0.4431704627637E-02
-0.1828382155326E-01 -0.4710343613546E-02
-0.1911715194666E-01 -0.4988249229727E-02
-0.1990047660897E-01 -0.5264436665844E-02
-0.2062222652324E-01 -0.5538114818835E-02
-0.2127005362919E-01 -0.5809032940912E-02
-0.2183031359725E-01 -0.6076958305367E-02
-0.2228797914810E-01 -0.6342107424899E-02
-0.2262705146008E-01 -0.6606035438632E-02
-0.2283200255019E-01 -0.6872957630438E-02
-0.2289118026032E-01 -0.7151279804477E-02
-0.2280311933931E-01 -0.7454325899782E-02
-0.2258545078912E-01 -0.7798051053649E-02
-0.2228261463537E-01 -0.8193483282272E-02
-0.8473728837637E-04 -0.2314694450518E-04
-0.2362674282540E-03 -0.4943030961313E-04
-0.4486477234125E-03 -0.7940846017505E-04
-0.7169359353138E-03 -0.1147277213621E-03
-0.1037575602993E-02 -0.1571556597580E-03
-0.1407973181327E-02 -0.2081549731507E-03
-0.1826057185243E-02 -0.2688724185055E-03
-0.2290026655047E-02 -0.3402446006581E-03
-0.2798233942475E-02 -0.4230853675886E-03
-0.3349130171773E-02 -0.5181383637181E-03
-0.3941235517774E-02 -0.6261075845714E-03
-0.4573111633986E-02 -0.7476741547636E-03
-0.5243351216529E-02 -0.8835071806386E-03
-0.5950550812242E-02 -0.1034263343869E-02
-0.6693226968495E-02 -0.1200563406609E-02
-0.7469873885891E-02 -0.1382986811763E-02
-0.8278765080558E-02 -0.1581996343213E-02
-0.9117864422801E-02 -0.1797879508685E-02
-0.9984645021608E-02 -0.2030679666229E-02
-0.1087588138734E-01 -0.2279632923883E-02
-0.1178738393077E-01 -0.2541058141627E-02
-0.1271404432723E-01 -0.2810822383707E-02
-0.1364998677332E-01 -0.3086149724674E-02
-0.1458872629281E-01 -0.3365582508174E-02
-0.1552325506530E-01 -0.3648428992888E-02
-0.1644601434281E-01 -0.3934270719244E-02
-0.1734879613090E-01 -0.4222667254665E-02
-0.1822264543103E-01 -0.4513020011160E-02
-0.1905774074123E-01 -0.4804514386827E-02
-0.1984329491710E-01 -0.5096113858884E-02
-0.2056758828658E-01 -0.5386920542706E-02
-0.2121795918551E-01 -0.5676462580194E-02
-0.2178011343113E-01 -0.5964069872781E-02
-0.2223775971418E-01 -0.6249239300607E-02
-0.2257259805343E-01 -0.6532514511411E-02
-0.2276523192988E-01 -0.6816996684172E-02
-0.2279824674131E-01 -0.7110518768976E-02
-0.2266325814819E-01 -0.7427601735649E-02
-0.2237292175922E-01 -0.7788297264690E-02
-0.2197437986257E-01 -0.8209624401814E-02
-0.8309024077422E-04 -0.5889232022875E-05
-0.2338900241168E-03 -0.1437698321833E-04
-0.4454068059530E-03 -0.2646094631938E-04
-0.7122970375903E-03 -0.4424871418580E-04
-0.1031009127077E-02 -0.6974129474564E-04
-0.1399055697556E-02 -0.1044547936763E-03
-0.1814452717517E-02 -0.1495261637681E-03
-0.2275455492701E-02 -0.2058799725895E-03
-0.2780453476267E-02 -0.2743316049242E-03
-0.3327925279481E-02 -0.3556411914252E-03
-0.3916414361935E-02 -0.4505438522683E-03
-0.4544505029357E-02 -0.5597672019222E-03
-0.5210815126130E-02 -0.6840439218356E-03
-0.5913972780547E-02 -0.8241148278551E-03
-0.6652538365232E-02 -0.9807105085622E-03
-0.7425068908731E-02 -0.1154548495126E-02
-0.8229927337498E-02 -0.1346259768465E-02
-0.9065192975481E-02 -0.1556321768383E-02
-0.9928464968574E-02 -0.1784974160469E-02
-0.1081662342890E-01 -0.2031605580251E-02
-0.1172552467466E-01 -0.2292494773017E-02
-0.1265006079329E-01 -0.2563430058045E-02
-0.1358435137739E-01 -0.2841636623897E-02
-0.1452192858026E-01 -0.3125732944104E-02
-0.1545582921793E-01 -0.3415138756661E-02
-0.1637855727594E-01 -0.3709549004947E-02
-0.1728196924657E-01 -0.4008620643510E-02
-0.1815716006052E-01 -0.4311830558421E-02
-0.1899433257920E-01 -0.4618417069571E-02
-0.1978269157959E-01 -0.4927371287349E-02
-0.2051046203096E-01 -0.5237791129697E-02
-0.2116481290469E-01 -0.5549108420578E-02
-0.2173099758265E-01 -0.5860344260934E-02
-0.2219169678146E-01 -0.6170368486968E-02
-0.2252650446351E-01 -0.6478679839697E-02
-0.2271206191899E-01 -0.6786959226289E-02
-0.2272427948166E-01 -0.7101804771124E-02
-0.2254547116935E-01 -0.7438253706542E-02
-0.2217963559695E-01 -0.7820782705493E-02
-0.2167420154672E-01 -0.8274541879638E-02
-0.8198540212506E-04  0.1201329596374E-04
-0.2325271590843E-03  0.2204585241331E-04
-0.4433837140696E-03  0.2849042540205E-04
-0.7088810156662E-03  0.2869763996951E-04
-0.1025586444583E-02  0.2047171245316E-04
-0.1391175458437E-02  0.2306191431507E-05
-0.1803766687944E-02 -0.2688660212199E-04
-0.2261672927510E-02 -0.6799958085096E-04
-0.2763319049431E-02 -0.1218384605431E-03
-0.3307208909932E-02 -0.1891717257582E-03
-0.3891906725506E-02 -0.2707587055027E-03
-0.4516016519578E-02 -0.3673671030139E-03
-0.5178177681324E-02 -0.4797871648678E-03
-0.5877045387592E-02 -0.6088386605960E-03
-0.6611218420150E-02 -0.7553590106464E-03
-0.7379311355728E-02 -0.9202056977719E-03
-0.8179774443225E-02 -0.1104188488614E-02
-0.9010807705369E-02 -0.1307996758073E-02
-0.9870149868856E-02 -0.1532098955880E-02
-0.1075480297993E-01 -0.1776072597291E-02
-0.1166068064751E-01 -0.2036179910479E-02
-0.1258268070490E-01 -0.2308147458827E-02
-0.1351492380522E-01 -0.2589220936512E-02
-0.1445097080264E-01 -0.2878118956607E-02
-0.1538392228393E-01 -0.3174401708129E-02
-0.1630637097979E-01 -0.3477912293564E-02
-0.1721026939827E-01 -0.3788447015884E-02
-0.1808679849227E-01 -0.4105609862122E-02
-0.1892622830074E-01 -0.4428758276732E-02
-0.1971781449778E-01 -0.4756999323186E-02
-0.2044982126720E-01 -0.5089547560997E-02
-0.2110940270384E-01 -0.5425899101410E-02
-0.2168159087294E-01 -0.5764959208728E-02
-0.2214835789360E-01 -0.6105170636617E-02
-0.2248756604750E-01 -0.6445107025957E-02
-0.2267211132330E-01 -0.6784860966652E-02
-0.2267062741146E-01 -0.7129063887561E-02
-0.2245350321964E-01 -0.7492122649454E-02
-0.2201080726263E-01 -0.7902781819994E-02
-0.2138536188550E-01 -0.8397071923223E-02
-0.8156972572670E-04  0.3068404288472E-04
-0.2323947142730E-03  0.6007964992630E-04
-0.4427604689655E-03  0.8572874653471E-04
-0.7068172216745E-03  0.1043720273481E-03
-0.1021405126829E-02  0.1137081438711E-03
-0.1384415875486E-02  0.1123265791366E-03
-0.1794076803815E-02  0.9922874896339E-04
-0.2248755127844E-02  0.7356964096119E-04
-0.2746907944322E-02  0.3456261866951E-04
-0.3287061489246E-02 -0.1856177686643E-04
-0.3867797929170E-02 -0.8658028092032E-04
-0.4487737903126E-02 -0.1702938447677E-03
-0.5145538516637E-02 -0.2705432446725E-03
-0.5839876963910E-02 -0.3882202316629E-03
-0.6569383843208E-02 -0.5242632706233E-03
-0.7332723594346E-02 -0.6796680142771E-03
-0.8128428059385E-02 -0.8554304163883E-03
-0.8954819856522E-02 -0.1052473374845E-02
-0.9809789786581E-02 -0.1271530419859E-02
-0.1069047892426E-01 -0.1512411380243E-02
-0.1159287003344E-01 -0.1771392351110E-02
-0.1251187140475E-01 -0.2044159324874E-02
-0.1344160965391E-01 -0.2327999119482E-02
-0.1437568545466E-01 -0.2621753543890E-02
-0.1530728181083E-01 -0.2925150676628E-02
-0.1622910549390E-01 -0.3238215936049E-02
-0.1713323559185E-01 -0.3560927759090E-02
-0.1801097313897E-01 -0.3893070536198E-02
-0.1885269332925E-01 -0.4234189411675E-02
-0.1964775383108E-01 -0.4583600769232E-02
-0.2038454532332E-01 -0.4940769564299E-02
-0.2105036143203E-01 -0.5305447440233E-02
-0.2163026226074E-01 -0.5676680762106E-02
-0.2210589536143E-01 -0.6052808298850E-02
-0.2245394282325E-01 -0.6431813203259E-02
-0.2264417482229E-01 -0.6812324851314E-02
-0.2263797161243E-01 -0.7196412958271E-02
-0.2239135602183E-01 -0.7596202585998E-02
-0.2187331362176E-01 -0.8043566358149E-02
-0.2111284303141E-01 -0.8588667576177E-02
-0.8204350896308E-04  0.5029783776685E-04
-0.2337566489534E-03  0.1000469201059E-03
-0.4437289085836E-03  0.1455969255198E-03
-0.7062276003828E-03  0.1830611302533E-03
-0.1018555788756E-02  0.2102015911259E-03
-0.1378856746107E-02  0.2258082302492E-03
-0.1785459330604E-02  0.2290030183001E-03
-0.2236778304346E-02  0.2189993754990E-03
-0.2731298683561E-02  0.1950369648726E-03
-0.3267565781789E-02  0.1563517277302E-03
-0.3844176797151E-02  0.1021560879493E-03
-0.4459765873526E-02  0.3162304261936E-04
-0.5113003977871E-02 -0.5613071794990E-04
-0.5802585079784E-02 -0.1620601489722E-03
-0.6527164191255E-02 -0.2871958610353E-03
-0.7285445679809E-02 -0.4326651594491E-03
-0.8076032949673E-02 -0.5996523777731E-03
-0.8897368264743E-02 -0.7893331931588E-03
-0.9747504792145E-02 -0.1002746190129E-02
-0.1062374033003E-01 -0.1239986181696E-02
-0.1152213939016E-01 -0.1497383419169E-02
-0.1243762522430E-01 -0.1770610709613E-02
-0.1336433519819E-01 -0.2057017778134E-02
-0.1429592094352E-01 -0.2355590125232E-02
-0.1522566592486E-01 -0.2666247633019E-02
-0.1614641495235E-01 -0.2989230164290E-02
-0.1705040282087E-01 -0.3324741293403E-02
-0.1792908255859E-01 -0.3672800168225E-02
-0.1877296676491E-01 -0.4033208274935E-02
-0.1957155483615E-01 -0.4405584503669E-02
-0.2031343701764E-01 -0.4789782464892E-02
-0.2098618871455E-01 -0.5186020363925E-02
-0.2157514449341E-01 -0.5593796909059E-02
-0.2206204257192E-01 -0.6011794005162E-02
-0.2242307166886E-01 -0.6437994514497E-02
-0.2262592443363E-01 -0.6870163275037E-02
-0.2262574295817E-01 -0.7307759085677E-02
-0.2236279473249E-01 -0.7758714341586E-02
-0.2177614543073E-01 -0.8255201164003E-02
-0.2086451496408E-01 -0.8864662216611E-02
-0.8368951333604E-04  0.7111552934833E-04
-0.2369329081769E-03  0.1423896567350E-03
-0.4464774141366E-03  0.2085059849743E-03
-0.7072172680384E-03  0.2650699909919E-03
-0.1017119381492E-02  0.3101891673680E-03
-0.1374573348490E-02  0.3429541157694E-03
-0.1777988427549E-02  0.3626186496009E-03
-0.2225818178505E-02  0.3684589884544E-03
-0.2716570510982E-02  0.3597459487915E-03
-0.3248806327406E-02  0.3357260238568E-03
-0.3821135022702E-02  0.2956070685989E-03
-0.4432201284738E-02  0.2385434802477E-03
-0.5080686268156E-02  0.1636182585416E-03
-0.5765295589984E-02  0.6982371498202E-04
-0.6484700999216E-02 -0.4395082241697E-04
-0.7237635154027E-02 -0.1789520930317E-03
-0.8022758302740E-02 -0.3365471367155E-03
-0.8838622608123E-02 -0.5181779880673E-03
-0.9683449695805E-02 -0.7252308865089E-03
-0.1055471176141E-01 -0.9581504991096E-03
-0.1144856863451E-01 -0.1213376452903E-02
-0.1235996369337E-01 -0.1486605210810E-02
-0.1328305105007E-01 -0.1775272142816E-02
-0.1421154532958E-01 -0.2078521844592E-02
-0.1513884773758E-01 -0.2396483494325E-02
-0.1605796286018E-01 -0.2729639560664E-02
-0.1696130809442E-01 -0.3078461574361E-02
-0.1784051854127E-01 -0.3443259154889E-02
-0.1868627104845E-01 -0.3824157188791E-02
-0.1948823258290E-01 -0.4221163772807E-02
-0.2023524523132E-01 -0.4634652055479E-02
-0.2091528379869E-01 -0.5065520386491E-02
-0.2151417532139E-01 -0.5514063965276E-02
-0.2201414934435E-01 -0.5979860490732E-02
-0.2239164229342E-01 -0.6461735254547E-02
-0.2261363747436E-01 -0.6957785137019E-02
-0.2263129336087E-01 -0.7465975689720E-02
-0.2237023788960E-01 -0.7988820647941E-02
-0.2173066553306E-01 -0.8553648758798E-02
-0.2065329419663E-01 -0.9246425809864E-02
-0.8692344481862E-04  0.9355206239563E-04
-0.2422994775264E-03  0.1877280528841E-03
-0.4511645513944E-03  0.2749315092391E-03
-0.7098645209678E-03  0.3507049089348E-03
-0.1017166406331E-02  0.4139060211898E-03
-0.1371635874998E-02  0.4639663708675E-03
-0.1771735593963E-02  0.5002559743499E-03
-0.2215949525190E-02  0.5221147385512E-03
-0.2702802851551E-02  0.5288463907411E-03
-0.3230868819762E-02  0.5197119899885E-03
-0.3798766431193E-02  0.4939207832790E-03
-0.4405148259919E-02  0.4506161561502E-03
-0.5048702357607E-02  0.3888569510110E-03
-0.5728141295999E-02  0.3075946773461E-03
-0.6442146255489E-02  0.2056536030179E-03
-0.7189465919751E-02  0.8168592137686E-04
-0.7968798313858E-02 -0.6584148253904E-04
-0.8778786687849E-02 -0.2386392740302E-03
-0.9617819629968E-02 -0.4384834217130E-03
-0.1048355971579E-01 -0.6662494892993E-03
-0.1137227674707E-01 -0.9185649940835E-03
-0.1227894179606E-01 -0.1191201688736E-02
-0.1319773543076E-01 -0.1481703600989E-02
-0.1412244964039E-01 -0.1789380675178E-02
-0.1504661960534E-01 -0.2114578316923E-02
-0.1596342761668E-01 -0.2458043097757E-02
-0.1686549678047E-01 -0.2820556814546E-02
-0.1774467305748E-01 -0.3202778583751E-02
-0.1859182119936E-01 -0.3605222537659E-02
-0.1939678725205E-01 -0.4028359513204E-02
-0.2014869109309E-01 -0.4473189431630E-02
-0.2083598846889E-01 -0.4941483181945E-02
-0.2144516240134E-01 -0.5434675865384E-02
-0.2195926294069E-01 -0.5953855116044E-02
-0.2235567114712E-01 -0.6499735648566E-02
-0.2260208642953E-01 -0.7072481611428E-02
-0.2264891537822E-01 -0.7671419413344E-02
-0.2241254742039E-01 -0.8295350263970E-02
-0.2174992832410E-01 -0.8960042873752E-02
-0.2050103089209E-01 -0.9765223104779E-02
-0.9238514376071E-04  0.1183247097706E-03
-0.2502599062527E-03  0.2369440864496E-03
-0.4578732778864E-03  0.3453727145301E-03
-0.7142170581061E-03  0.4402472807173E-03
-0.1018758897611E-02  0.5215835565653E-03
-0.1370108706269E-02  0.5890435408430E-03
-0.1766769524387E-02  0.6420916524626E-03
-0.2207245870893E-02  0.6801289012691E-03
-0.2690074881645E-02  0.7024897084675E-03
-0.3213839599368E-02  0.7084533718850E-03
-0.3777166341888E-02  0.6972359501122E-03
-0.4378713388356E-02  0.6679775113353E-03
-0.5017172943549E-02  0.6197227333463E-03
-0.5691260569415E-02  0.5513953947746E-03
-0.6399660548734E-02  0.4617720355309E-03
-0.7141126266117E-02  0.3494276809260E-03
-0.7914371898768E-02  0.2126933443141E-03
-0.8718101982271E-02  0.4960771305284E-04
-0.9550857431403E-02 -0.1420285312834E-03
-0.1041050145992E-01 -0.3636240568686E-03
-0.1129342918777E-01 -0.6121106453670E-03
-0.1219465286270E-01 -0.8834105940889E-03
-0.1310839749846E-01 -0.1175197868562E-02
-0.1402855125138E-01 -0.1486938253325E-02
-0.1494879786889E-01 -0.1819184047924E-02
-0.1586250919701E-01 -0.2172957097004E-02
-0.1676253042812E-01 -0.2549390414970E-02
-0.1764094577508E-01 -0.2949559086002E-02
-0.1848883338369E-01 -0.3374436361674E-02
-0.1929621894992E-01 -0.3825010447784E-02
-0.2005249706191E-01 -0.4302969857940E-02
-0.2074663822509E-01 -0.4811095580728E-02
-0.2136587135350E-01 -0.5352269007971E-02
-0.2189426229814E-01 -0.5929680456273E-02
-0.2231067424242E-01 -0.6547097948979E-02
-0.2258476477835E-01 -0.7208796800764E-02
-0.2266919135994E-01 -0.7919729409711E-02
-0.2248118804988E-01 -0.8683128981201E-02
-0.2184495970280E-01 -0.9501069553054E-02
-0.2044505857093E-01 -0.1046934664143E-01
-0.1011087976471E-03  0.1468253691749E-03
-0.2611261912363E-03  0.2912569744463E-03
-0.4665511650234E-03  0.4202154879743E-03
-0.7203102577108E-03  0.5339444930007E-03
-0.1021950641576E-02  0.6334516349893E-03
-0.1370049748895E-02  0.7183749677299E-03
-0.1763156652443E-02  0.7882987294935E-03
-0.2199779003131E-02  0.8426586133989E-03
-0.2678465177928E-02  0.8808213961842E-03
-0.3197805071567E-02  0.9020861913513E-03
-0.3756430857030E-02  0.9056813104896E-03
-0.4353004800228E-02  0.8907510774596E-03
-0.4986221223629E-02  0.8563362497328E-03
-0.5654795688912E-02  0.8013466357050E-03
-0.6357410651539E-02  0.7245300361452E-03
-0.7092815386701E-02  0.6244118290184E-03
-0.7859720116339E-02  0.4992306172493E-03
-0.8656850310803E-02  0.3468252324680E-03
-0.9482862936122E-02  0.1645667270686E-03
-0.1033581689537E-01 -0.4961512698125E-04
-0.1121224691448E-01 -0.2931377230376E-03
-0.1210723321071E-01 -0.5621873348782E-03
-0.1301507961409E-01 -0.8545818246808E-03
-0.1392979627097E-01 -0.1169906803647E-02
-0.1484522707460E-01 -0.1508888347192E-02
-0.1575493627772E-01 -0.1872820038862E-02
-0.1665199604055E-01 -0.2263223041848E-02
-0.1752875181856E-01 -0.2681667653566E-02
-0.1837653039201E-01 -0.3129675737013E-02
-0.1918553900807E-01 -0.3608788882937E-02
-0.1994541470531E-01 -0.4121366155095E-02
-0.2064562206602E-01 -0.4671240164178E-02
-0.2127412112437E-01 -0.5262957832363E-02
-0.2181606131059E-01 -0.5902337141268E-02
-0.2225192467479E-01 -0.6597161316474E-02
-0.2255440239516E-01 -0.7358217011427E-02
-0.2267987466677E-01 -0.8199834603580E-02
-0.2255537763880E-01 -0.9144657155111E-02
-0.2201237273806E-01 -0.1020350077765E-01
-0.2054713937823E-01 -0.1143759874075E-01
-0.1148340952826E-03  0.1822765575536E-03
-0.2747187434495E-03  0.3519577665047E-03
-0.4770278806786E-03  0.4994632501555E-03
-0.7282138415926E-03  0.6321146175129E-03
-0.1026769444543E-02  0.7496984672684E-03
-0.1371518100923E-02  0.8521496416946E-03
-0.1760959114632E-02  0.9390433295378E-03
-0.2193619266007E-02  0.1009856175865E-02
-0.2668051050677E-02  0.1063980736442E-02
-0.3182851046987E-02  0.1100738794224E-02
-0.3736655946281E-02  0.1119375732898E-02
-0.4328131003120E-02  0.1119047665022E-02
-0.4955971358323E-02  0.1098801629017E-02
-0.5618890722325E-02  0.1057547413511E-02
-0.6315566574337E-02  0.9940238387665E-03
-0.7044738284865E-02  0.9067360628363E-03
-0.7805099410868E-02  0.7938796982674E-03
-0.8595353445328E-02  0.6531878933306E-03
-0.9414204906139E-02  0.4816680496466E-03
-0.1025986530508E-01  0.2764336205528E-03
-0.1112901713969E-01  0.3927900337038E-04
-0.1201686547214E-01 -0.2264200840180E-03
-0.1291785731133E-01 -0.5186172419374E-03
-0.1382615984496E-01 -0.8369388427112E-03
-0.1473578269028E-01 -0.1182218164542E-02
-0.1564047272409E-01 -0.1555998189059E-02
-0.1653351718820E-01 -0.1960216386919E-02
-0.1740753086794E-01 -0.2397029458403E-02
-0.1825414099149E-01 -0.2868651985701E-02
-0.1906377130068E-01 -0.3377220465171E-02
-0.1982625105535E-01 -0.3925602201665E-02
-0.2053143663039E-01 -0.4518559789721E-02
-0.2116791244434E-01 -0.5162430256918E-02
-0.2172174956680E-01 -0.5865990405361E-02
-0.2217510154332E-01 -0.6641776936440E-02
-0.2250302437636E-01 -0.7508379677975E-02
-0.2266921423923E-01 -0.8495109951083E-02
-0.2260300926465E-01 -0.9648052394109E-02
-0.2220192036715E-01 -0.1106413531296E-01
-0.2088981337666E-01 -0.1279854703886E-01
-0.9774994825177E-01 -0.3794829003653E-01
-0.1524538666999E+00 -0.5265011156330E-01
-0.2030109269364E+00 -0.6888054196086E-01
-0.2498612269289E+00 -0.8659554584360E-01
-0.2934099082131E+00 -0.1056361738222E+00
-0.3340341483196E+00 -0.1257811232988E+00
-0.3720742335018E+00 -0.1467765306077E+00
-0.4078219525727E+00 -0.1683526962209E+00
-0.4415098763950E+00 -0.1902361132948E+00
-0.4733069475513E+00 -0.2121614614933E+00
-0.5033244694938E+00 -0.2338845020735E+00
-0.5316239976318E+00 -0.2551810342117E+00
-0.5582687424839E+00 -0.2758520481337E+00
-0.5833219955862E+00 -0.2957296574725E+00
-0.6067927061084E+00 -0.3146603115330E+00
-0.6286282953426E+00 -0.3324930226215E+00
-0.6486981269608E+00 -0.3490716945796E+00
-0.6667997671787E+00 -0.3642410802056E+00
-0.6826236792497E+00 -0.3778265933723E+00
-0.9675609941449E-01 -0.3708517321233E-01
-0.1506584975673E+00 -0.5171027486542E-01
-0.2004026706479E+00 -0.6799893984939E-01
-0.2464903795032E+00 -0.8589513010390E-01
-0.2893605538889E+00 -0.1052313354754E+00
-0.3294071468021E+00 -0.1257784444191E+00
-0.3669775167106E+00 -0.1472750751286E+00
-0.4023654128564E+00 -0.1694444669019E+00
-0.4358030966430E+00 -0.1920066980398E+00
-0.4674578499166E+00 -0.2146906910211E+00
-0.4974384484957E+00 -0.2372454269988E+00
-0.5258068459958E+00 -0.2594404649882E+00
-0.5526195512675E+00 -0.2810689977366E+00
-0.5779257109243E+00 -0.3019500733908E+00
-0.6017239136463E+00 -0.3219152391957E+00
-0.6239515249854E+00 -0.3407973178398E+00
-0.6444704271213E+00 -0.3584220029835E+00
-0.6630668107082E+00 -0.3745997956714E+00
-0.6794788766236E+00 -0.3890677440399E+00
-0.9566301570611E-01 -0.3624784059659E-01
-0.1486971202812E+00 -0.5081238625627E-01
-0.1975771196299E+00 -0.6718965154201E-01
-0.2428580547630E+00 -0.8530047487431E-01
-0.2850104253322E+00 -0.1049655865771E+00
-0.3244438038592E+00 -0.1259470410670E+00
-0.3615120732793E+00 -0.1479759386992E+00
-0.3965106913489E+00 -0.1707689204691E+00
-0.4296715230890E+00 -0.1940403900410E+00
-0.4611605130841E+00 -0.2175140437557E+00
-0.4910846353850E+00 -0.2409332431844E+00
-0.5195056405586E+00 -0.2640622362570E+00
-0.5464739581891E+00 -0.2866872137784E+00
-0.5720267958977E+00 -0.3086157804138E+00
-0.5961533923112E+00 -0.3296649694978E+00
-0.6187831372316E+00 -0.3496501202472E+00
-0.6397724586877E+00 -0.3683738307841E+00
-0.6589135798173E+00 -0.3856096459142E+00
-0.6759558505348E+00 -0.4011038658666E+00
-0.9446812968604E-01 -0.3543644329536E-01
-0.1465627416118E+00 -0.4995651626497E-01
-0.1945243682421E+00 -0.6644745107493E-01
-0.2389537255388E+00 -0.8480254441649E-01
-0.2803489815520E+00 -0.1048266897013E+00
-0.3191337427308E+00 -0.1262717883840E+00
-0.3556675755639E+00 -0.1488612788469E+00
-0.3902472273865E+00 -0.1723056892661E+00
-0.4231040332990E+00 -0.1963144592312E+00
-0.4544028047925E+00 -0.2206069574907E+00
-0.4842491726756E+00 -0.2449220582109E+00
-0.5127043760005E+00 -0.2690195623241E+00
-0.5398135220724E+00 -0.2926794552100E+00
-0.5656040055718E+00 -0.3156989945754E+00
-0.5900574220763E+00 -0.3378813356602E+00
-0.6130972833806E+00 -0.3590243423525E+00
-0.6345790186854E+00 -0.3789087428327E+00
-0.6542959041429E+00 -0.3972936011008E+00
-0.6719903848582E+00 -0.4139288151499E+00
-0.9316877603810E-01 -0.3465058681459E-01
-0.1442496676853E+00 -0.4914122629672E-01
-0.1912365584187E+00 -0.6576795509917E-01
-0.2347685857721E+00 -0.8439307293155E-01
-0.2753672809167E+00 -0.1048028872996E+00
-0.3134680691205E+00 -0.1267376793006E+00
-0.3494350673938E+00 -0.1499130255187E+00
-0.3835657151382E+00 -0.1740337963054E+00
-0.4160905720222E+00 -0.1988052643702E+00
-0.4471733984578E+00 -0.2239434496050E+00
-0.4769188110574E+00 -0.2491838687718E+00
-0.5053874572501E+00 -0.2742827506103E+00
-0.5326200173475E+00 -0.2990146662188E+00
-0.5586361536146E+00 -0.3231676690598E+00
-0.5834115948043E+00 -0.3465323009507E+00
-0.6068662133396E+00 -0.3688909034249E+00
-0.6288543856256E+00 -0.3900091369801E+00
-0.6491662001844E+00 -0.4096361193213E+00
-0.6675295581709E+00 -0.4275203276718E+00
-0.9176262329033E-01 -0.3388960676785E-01
-0.1417533254319E+00 -0.4836488222813E-01
-0.1877075024768E+00 -0.6514687964432E-01
-0.2302956314893E+00 -0.8406429695607E-01
-0.2700580789963E+00 -0.1048827465008E+00
-0.3074394933795E+00 -0.1273297515914E+00
-0.3428070961368E+00 -0.1511128217907E+00
-0.3764582326560E+00 -0.1759316337892E+00
-0.4086223124507E+00 -0.2014881206695E+00
-0.4394620203002E+00 -0.2274959698088E+00
-0.4690812066173E+00 -0.2536884527747E+00
-0.4975400300494E+00 -0.2798191446936E+00
-0.5248757222828E+00 -0.3056581268405E+00
-0.5511021137845E+00 -0.3309856565002E+00
-0.5761907477258E+00 -0.3555816262025E+00
-0.6000589867036E+00 -0.3792162937553E+00
-0.6225595979643E+00 -0.4016441348861E+00
-0.6434771721108E+00 -0.4226060772584E+00
-0.6625228050181E+00 -0.4418439657050E+00
-0.9024781767003E-01 -0.3315287684562E-01
-0.1390702421835E+00 -0.4762581911520E-01
-0.1839325745835E+00 -0.6458007006208E-01
-0.2255296176042E+00 -0.8380868882513E-01
-0.2644159019235E+00 -0.1050550267681E+00
-0.3010424342487E+00 -0.1280330078844E+00
-0.3357778415430E+00 -0.1524419803618E+00
-0.3689183995677E+00 -0.1779769089538E+00
-0.4006918632459E+00 -0.2043372279645E+00
-0.4312597197688E+00 -0.2312353164140E+00
-0.4607252414290E+00 -0.2584033047372E+00
-0.4891483218246E+00 -0.2855931118205E+00
-0.5165637170850E+00 -0.3125714495343E+00
-0.5429810936701E+00 -0.3391124755014E+00
-0.5683691204260E+00 -0.3649878901221E+00
-0.5926433952507E+00 -0.3899589425600E+00
-0.6156548181276E+00 -0.4137717300923E+00
-0.6371818643291E+00 -0.4361596280075E+00
-0.6569193913555E+00 -0.4568550193396E+00
-0.8862307119878E-01 -0.3243986462798E-01
-0.1361980673144E+00 -0.4692243937327E-01
-0.1799086799360E+00 -0.6406347653003E-01
-0.2204670455610E+00 -0.8361886574420E-01
-0.2584370824202E+00 -0.1053085719780E+00
-0.2942730954008E+00 -0.1288323636994E+00
-0.3283432151182E+00 -0.1538814616166E+00
-0.3609415038106E+00 -0.1801466385723E+00
-0.3922934326282E+00 -0.2073256738295E+00
-0.4225590773921E+00 -0.2351306587649E+00
-0.4518412624466E+00 -0.2632936890846E+00
-0.4801998947630E+00 -0.2915661176127E+00
-0.5076681607250E+00 -0.3197125908362E+00
-0.5342529514210E+00 -0.3475030708996E+00
-0.5599211268067E+00 -0.3747035521759E+00
-0.5845871809007E+00 -0.4010690444637E+00
-0.6081003719602E+00 -0.4263395258210E+00
-0.6302335836172E+00 -0.4502417043943E+00
-0.6506674957717E+00 -0.4724976718814E+00
-0.8688771355825E-01 -0.3175014803707E-01
-0.1331355975783E+00 -0.4625323439682E-01
-0.1756342541651E+00 -0.6359314236676E-01
-0.2151061712441E+00 -0.8348753348309E-01
-0.2521198031578E+00 -0.1056322508538E+00
-0.2871295493024E+00 -0.1297126085326E+00
-0.3205009826632E+00 -0.1554118634182E+00
-0.3525246642384E+00 -0.1824171576559E+00
-0.3834230373257E+00 -0.2104254583589E+00
-0.4133544627275E+00 -0.2391495798720E+00
-0.4424213810493E+00 -0.2683226951798E+00
-0.4706839921638E+00 -0.2976967608709E+00
-0.4981747087686E+00 -0.3270357946232E+00
-0.5248987943411E+00 -0.3561075324062E+00
-0.5508222116698E+00 -0.3846746799426E+00
-0.5758590498849E+00 -0.4124885522364E+00
-0.5998575493363E+00 -0.4392851802126E+00
-0.6225862226205E+00 -0.4647860285245E+00
-0.6437143803118E+00 -0.4887037297825E+00
-0.8504172952089E-01 -0.3108341114610E-01
-0.1298828014287E+00 -0.4561678524992E-01
-0.1711092715249E+00 -0.6316519073492E-01
-0.2094470151766E+00 -0.8340745881373E-01
-0.2454641273150E+00 -0.1060149306853E+00
-0.2796117971320E+00 -0.1306584004635E+00
-0.3122508563677E+00 -0.1570134447172E+00
-0.3436669577035E+00 -0.1847641736601E+00
-0.3740786688238E+00 -0.2136075786408E+00
-0.4036422430187E+00 -0.2432581906063E+00
-0.4324597259789E+00 -0.2734513698948E+00
-0.4605918518436E+00 -0.3039408972337E+00
-0.4880709332997E+00 -0.3344916625815E+00
-0.5149015551016E+00 -0.3648711382215E+00
-0.5410495935795E+00 -0.3948410623460E+00
-0.5664294819722E+00 -0.4241514864963E+00
-0.5908893283334E+00 -0.4525367457673E+00
-0.6141948726422E+00 -0.4797150371484E+00
-0.6360071613150E+00 -0.5053915518720E+00
-0.8308578461538E-01 -0.3043943261654E-01
-0.1264408380889E+00 -0.4501175371852E-01
-0.1663352557991E+00 -0.6277581381268E-01
-0.2034913780862E+00 -0.8337145740990E-01
-0.2384720336978E+00 -0.1064454738367E+00
-0.2717218336816E+00 -0.1316542830434E+00
-0.3035945954565E+00 -0.1586661710711E+00
-0.3343695598563E+00 -0.1871628439298E+00
-0.3642604789935E+00 -0.2168421387551E+00
-0.3934210189579E+00 -0.2474212691376E+00
-0.4219527366666E+00 -0.2786388754686E+00
-0.4499170795338E+00 -0.3102517972690E+00
-0.4773468101785E+00 -0.3420273093774E+00
-0.5042466168216E+00 -0.3737345341241E+00
-0.5305830167551E+00 -0.4051364688292E+00
-0.5562715572349E+00 -0.4359842682141E+00
-0.5811612355836E+00 -0.4660129317903E+00
-0.6050167755726E+00 -0.4949397861919E+00
-0.6274941100771E+00 -0.5224653757179E+00
-0.8102124142224E-01 -0.2981807106131E-01
-0.1228120672974E+00 -0.4443687059074E-01
-0.1613152824544E+00 -0.6242126618912E-01
-0.1972428449044E+00 -0.8337239585415E-01
-0.2311474344789E+00 -0.1069127560055E+00
-0.2634636884612E+00 -0.1326847292982E+00
-0.2945360775140E+00 -0.1603497923423E+00
-0.3246358521911E+00 -0.1895878923236E+00
-0.3539709286870E+00 -0.2200985077532E+00
-0.3826918223019E+00 -0.2516024594150E+00
-0.4108994211475E+00 -0.2838427231594E+00
-0.4386559884209E+00 -0.3165804123448E+00
-0.4659951653914E+00 -0.3495866699877E+00
-0.4929223793899E+00 -0.3826341073019E+00
-0.5194054329385E+00 -0.4154891082826E+00
-0.5453617404326E+00 -0.4479062346246E+00
-0.5706422487850E+00 -0.4796235702574E+00
-0.5950124374566E+00 -0.5103602163619E+00
-0.6181261540359E+00 -0.5398153147025E+00
-0.7885017041593E-01 -0.2921925026850E-01
-0.1190000547896E+00 -0.4389092479551E-01
-0.1560539789018E+00 -0.6209786373427E-01
-0.1907067877962E+00 -0.8340320515664E-01
-0.2234961911360E+00 -0.1074057011640E+00
-0.2548434634468E+00 -0.1337342060084E+00
-0.2850813651133E+00 -0.1620439437270E+00
-0.3144715236734E+00 -0.1920137527963E+00
-0.3432149310112E+00 -0.2233455096811E+00
-0.3714583094179E+00 -0.2557645095036E+00
-0.3993016118252E+00 -0.2890190608222E+00
-0.4268079355462E+00 -0.3228757164148E+00
-0.4540121111698E+00 -0.3571109094652E+00
-0.4809208063626E+00 -0.3915024818533E+00
-0.5075036642111E+00 -0.4258222172551E+00
-0.5336806708508E+00 -0.4598302961805E+00
-0.5593057564216E+00 -0.4932702832023E+00
-0.5841468535795E+00 -0.5258657666652E+00
-0.6078585310171E+00 -0.5573178698428E+00
-0.7657535327312E-01 -0.2864294443111E-01
-0.1150095684865E+00 -0.4337275393061E-01
-0.1505575152156E+00 -0.6180198761168E-01
-0.1838903588996E+00 -0.8345690434775E-01
-0.2155261183720E+00 -0.1079133313379E+00
-0.2458693565555E+00 -0.1347872569810E+00
-0.2752387559626E+00 -0.1637282697714E+00
-0.3038846540987E+00 -0.1944147407023E+00
-0.3319999751006E+00 -0.2265516478210E+00
-0.3597269344859E+00 -0.2598695539355E+00
-0.3871641997137E+00 -0.2941230192865E+00
-0.4143756329197E+00 -0.3290851263571E+00
-0.4413974500036E+00 -0.3645389323644E+00
-0.4682379338704E+00 -0.4002691327760E+00
-0.4948690294520E+00 -0.4360547856848E+00
-0.5212139302520E+00 -0.4716637666683E+00
-0.5471305193355E+00 -0.5068474013021E+00
-0.5723907614014E+00 -0.5413363714351E+00
-0.5966524938629E+00 -0.5748370160623E+00
-0.7420027886355E-01 -0.2808916402584E-01
-0.1108465649530E+00 -0.4288123690258E-01
-0.1448335841755E+00 -0.6153009343410E-01
-0.1768024712866E+00 -0.8352663305979E-01
-0.2072469744417E+00 -0.1084248292922E+00
-0.2365516691457E+00 -0.1358286029623E+00
-0.2650188144753E+00 -0.1653825689101E+00
-0.2928857762904E+00 -0.1967652493870E+00
-0.3203362261726E+00 -0.2296853608704E+00
-0.3475070961666E+00 -0.2638794376394E+00
-0.3744953384746E+00 -0.2991091138131E+00
-0.4013654227348E+00 -0.3351549941505E+00
-0.4281550353554E+00 -0.3718079822811E+00
-0.4548743298827E+00 -0.4088611096177E+00
-0.4814979187277E+00 -0.4461024180918E+00
-0.5079527605884E+00 -0.4833093728822E+00
-0.5341015841485E+00 -0.5202431396670E+00
-0.5597218415297E+00 -0.5566438440614E+00
-0.5844769473355E+00 -0.5922258797207E+00
-0.7172913412139E-01 -0.2755794299783E-01
-0.1065181688910E+00 -0.4241528925738E-01
-0.1388913734140E+00 -0.6127872542059E-01
-0.1694537706279E+00 -0.8360569196317E-01
-0.1986704398199E+00 -0.1089296120986E+00
-0.2269027985856E+00 -0.1368432555698E+00
-0.2544343844306E+00 -0.1669869555975E+00
-0.2814879148731E+00 -0.1990399690252E+00
-0.3082365970697E+00 -0.2327153079264E+00
-0.3348112498548E+00 -0.2677560779407E+00
-0.3613066069814E+00 -0.3039316960569E+00
-0.3877875022835E+00 -0.3410311648358E+00
-0.4142930718540E+00 -0.3788543248229E+00
-0.4408354827985E+00 -0.4172038648724E+00
-0.4673922874521E+00 -0.4558783291240E+00
-0.4938946906724E+00 -0.4946664446548E+00
-0.5202110877451E+00 -0.5333410275959E+00
-0.5461257747137E+00 -0.5716536332280E+00
-0.5713098760293E+00 -0.6093289872189E+00
-0.6916678419668E-01 -0.2704932636104E-01
-0.1020326367672E+00 -0.4197386027157E-01
-0.1327415187665E+00 -0.6104453440956E-01
-0.1618565858861E+00 -0.8368758956205E-01
-0.1898100727681E+00 -0.1094174136809E+00
-0.2169372054015E+00 -0.1378166428780E+00
-0.2435005736530E+00 -0.1685220370585E+00
-0.2697065941874E+00 -0.2012141238027E+00
-0.2957167855593E+00 -0.2356106768648E+00
-0.3216549815114E+00 -0.2714618568357E+00
-0.3476131281700E+00 -0.3085454452779E+00
-0.3736560982759E+00 -0.3466595846748E+00
-0.3998243564666E+00 -0.3856139938196E+00
-0.4261321214225E+00 -0.4252221622329E+00
-0.4525600702999E+00 -0.4652944425111E+00
-0.4790440656615E+00 -0.5056322438841E+00
-0.5054589347689E+00 -0.5460215315639E+00
-0.5315971148062E+00 -0.5862268554219E+00
-0.5571394796962E+00 -0.6259849257604E+00
-0.6651874780621E-01 -0.2656335960686E-01
-0.9739931376408E-01 -0.4155593282191E-01
-0.1263960500612E+00 -0.6082429980042E-01
-0.1540248713369E+00 -0.8376609415929E-01
-0.1806812543337E+00 -0.1098783738191E+00
-0.2066713670104E+00 -0.1387347428921E+00
-0.2322347214440E+00 -0.1699690997625E+00
-0.2575598241077E+00 -0.2032637214781E+00
-0.2827952835634E+00 -0.2383415090449E+00
-0.3080570461521E+00 -0.2749600352289E+00
-0.3334336437867E+00 -0.3129058891194E+00
-0.3589895864653E+00 -0.3519869485714E+00
-0.3847664524107E+00 -0.3920235889694E+00
-0.4107804529185E+00 -0.4328410522110E+00
-0.4370154946656E+00 -0.4742625792862E+00
-0.4634124502659E+00 -0.5161034133042E+00
-0.4898533077247E+00 -0.5581638387588E+00
-0.5161399228519E+00 -0.6002225379189E+00
-0.5419649412561E+00 -0.6420292627988E+00
-0.6379116451380E-01 -0.2610007930438E-01
-0.9262857858311E-01 -0.4116052525241E-01
-0.1198683222509E+00 -0.6061495434448E-01
-0.1459741317252E+00 -0.8383528956120E-01
-0.1713011139369E+00 -0.1103031318034E+00
-0.1961237088600E+00 -0.1395842226783E+00
-0.2206563394527E+00 -0.1713103028626E+00
-0.2450680544092E+00 -0.2051658118150E+00
-0.2694933489550E+00 -0.2408790357185E+00
-0.2940393616350E+00 -0.2782151829265E+00
-0.3187905356700E+00 -0.3169699456379E+00
-0.3438105471771E+00 -0.3569613758278E+00
-0.3691417861321E+00 -0.3980211108085E+00
-0.3948023081889E+00 -0.4399868967226E+00
-0.4207792813757E+00 -0.4826957102203E+00
-0.4470188909686E+00 -0.5259775086768E+00
-0.4734109931962E+00 -0.5696477443641E+00
-0.4997681482234E+00 -0.6134999752499E+00
-0.5257968300826E+00 -0.6572975450164E+00
-0.6099075470382E-01 -0.2565950514175E-01
-0.8773177724534E-01 -0.4078669519868E-01
-0.1131729332555E+00 -0.6041361115575E-01
-0.1377213320628E+00 -0.8388963311784E-01
-0.1616884371119E+00 -0.1106829224529E+00
-0.1853145144965E+00 -0.1403525798961E+00
-0.2087870273196E+00 -0.1725288742458E+00
-0.2322540986655E+00 -0.2068987482421E+00
-0.2558349403849E+00 -0.2431960189287E+00
-0.2796269575363E+00 -0.2811936152465E+00
-0.3037097925313E+00 -0.3206964751175E+00
-0.3281457547553E+00 -0.3615330999962E+00
-0.3529776642175E+00 -0.4035468153603E+00
-0.3782251901147E+00 -0.4465884203983E+00
-0.4038787265378E+00 -0.4905092433197E+00
-0.4298900301820E+00 -0.5351545740589E+00
-0.4561575192855E+00 -0.5803555844525E+00
-0.4825057635257E+00 -0.6259211119949E+00
-0.5086571773651E+00 -0.6716282501865E+00
-0.5812477256412E-01 -0.2524163351161E-01
-0.8272114630744E-01 -0.4043354518543E-01
-0.1063256289604E+00 -0.6021759221881E-01
-0.1292847925121E+00 -0.8392401468391E-01
-0.1518635558341E+00 -0.1110096722799E+00
-0.1742658149504E+00 -0.1410282835970E+00
-0.1966503633789E+00 -0.1736093049959E+00
-0.2191430277691E+00 -0.2084424472511E+00
-0.2418466149437E+00 -0.2452670898262E+00
-0.2648478785399E+00 -0.2838638272286E+00
-0.2882209211989E+00 -0.3240468302729E+00
-0.3120260993911E+00 -0.3656551585128E+00
-0.3363062082011E+00 -0.4085440704577E+00
-0.3610822222011E+00 -0.4525777656323E+00
-0.3863476621684E+00 -0.4976223161804E+00
-0.4120600717470E+00 -0.5435387191780E+00
-0.4381271090154E+00 -0.5901741578461E+00
-0.4643866730875E+00 -0.6373528807693E+00
-0.4905792758397E+00 -0.6848656088356E+00
-0.5520095200971E-01 -0.2484643267502E-01
-0.7760972525758E-01 -0.4010022975767E-01
-0.9934319492958E-01 -0.6002445765641E-01
-0.1206840677336E+00 -0.8393381512516E-01
-0.1418482206663E+00 -0.1112760936773E+00
-0.1630012565431E+00 -0.1416009112925E+00
-0.1842717693804E+00 -0.1745375382263E+00
-0.2057620318654E+00 -0.2097786402244E+00
-0.2275573872338E+00 -0.2470690775381E+00
-0.2497330406651E+00 -0.2861969166606E+00
-0.2723568003818E+00 -0.3269853937005E+00
-0.2954864391902E+00 -0.3692840680570E+00
-0.3191642050841E+00 -0.4129601959856E+00
-0.3434119958032E+00 -0.4578915287465E+00
-0.3682262951388E+00 -0.5039590639682E+00
-0.3935706007091E+00 -0.5510396606539E+00
-0.4193624602511E+00 -0.5989965874863E+00
-0.4454544160629E+00 -0.6476694350983E+00
-0.4716072513848E+00 -0.6968622624948E+00
-0.5222744619518E-01 -0.2447383962620E-01
-0.7241125907303E-01 -0.3978596398756E-01
-0.9224333601748E-01 -0.5983203508547E-01
-0.1119398120277E+00 -0.8391496303132E-01
-0.1316654561865E+00 -0.1114757749872E+00
-0.1515459486997E+00 -0.1420612791997E+00
-0.1716783509176E+00 -0.1753011480491E+00
-0.1921402524433E+00 -0.2108911120733E+00
-0.2129985516163E+00 -0.2485813212779E+00
-0.2343160420900E+00 -0.2881669865600E+00
-0.2561534787251E+00 -0.3294800907219E+00
-0.2785653843805E+00 -0.3723804707263E+00
-0.3015928758747E+00 -0.4167472693605E+00
-0.3252583191971E+00 -0.4624717538769E+00
-0.3495609297927E+00 -0.5094498338239E+00
-0.3744702671214E+00 -0.5575741910899E+00
-0.3999143692384E+00 -0.6067240781716E+00
-0.4257616942612E+00 -0.6567542263811E+00
-0.4517954323535E+00 -0.7074816961714E+00
-0.4921276142064E-01 -0.2412375876243E-01
-0.6714009218060E-01 -0.3949003320100E-01
-0.8504454539305E-01 -0.5963844843832E-01
-0.1030736320004E+00 -0.8386398840204E-01
-0.1213394016385E+00 -0.1116032644772E+00
-0.1399262939262E+00 -0.1424015627887E+00
-0.1588987159302E+00 -0.1758895047033E+00
-0.1783085871502E+00 -0.2117659213555E+00
-0.1982034703826E+00 -0.2497859587250E+00
-0.2186329315124E+00 -0.2897515181435E+00
-0.2396499203466E+00 -0.3315028662486E+00
-0.2613050172951E+00 -0.3749097367537E+00
-0.2836375665726E+00 -0.4198628784629E+00
-0.3066698743082E+00 -0.4662668626475E+00
-0.3304035825652E+00 -0.5140323191285E+00
-0.3548143465190E+00 -0.5630675450287E+00
-0.3798412183223E+00 -0.6132675361341E+00
-0.4053697565872E+00 -0.6645018864456E+00
-0.4312075810084E+00 -0.7166003577229E+00
-0.4616568568440E-01 -0.2379606238329E-01
-0.6181105411820E-01 -0.3921180373147E-01
-0.7776596323258E-01 -0.5944214566583E-01
-0.9410792697788E-01 -0.8377807221389E-01
-0.1108951370618E+00 -0.1116541464980E+00
-0.1281698003116E+00 -0.1426154051155E+00
-0.1459627718031E+00 -0.1762939223310E+00
-0.1642994680483E+00 -0.2123915971217E+00
-0.1832073287925E+00 -0.2506681843924E+00
-0.2027219352663E+00 -0.2909317061656E+00
-0.2228876994691E+00 -0.3330301153604E+00
-0.2437505503870E+00 -0.3768425108641E+00
-0.2653473648895E+00 -0.4222708060843E+00
-0.2876997860032E+00 -0.4692325002871E+00
-0.3108114960062E+00 -0.5176525908830E+00
-0.3346641884828E+00 -0.5674546364138E+00
-0.3592083454458E+00 -0.6185490251725E+00
-0.3843476707649E+00 -0.6708198950852E+00
-0.4099160418773E+00 -0.7241094906537E+00
-0.4309521272442E-01 -0.2349059310940E-01
-0.5643933819847E-01 -0.3895073458685E-01
-0.7042722666806E-01 -0.5924192485544E-01
-0.8506571900231E-01 -0.8365509092840E-01
-0.1003584970170E+00 -0.1116251082838E+00
-0.1163048790166E+00 -0.1426980106313E+00
-0.1329015039161E+00 -0.1765077860978E+00
-0.1501466165844E+00 -0.2127593079333E+00
-0.1680468606922E+00 -0.2512164718941E+00
-0.1866231473905E+00 -0.2916927487209E+00
-0.2059106489352E+00 -0.3340430575952E+00
-0.2259499279146E+00 -0.3781551898735E+00
-0.2467746495752E+00 -0.4239416307912E+00
-0.2684051124994E+00 -0.4713322802125E+00
-0.2908465630566E+00 -0.5202660055924E+00
-0.3140865672217E+00 -0.5706811455837E+00
-0.3380873139437E+00 -0.6225030387460E+00
-0.3627715070470E+00 -0.6756300227030E+00
-0.3880008355114E+00 -0.7299166978944E+00
-0.4001046328073E-01 -0.2320716833388E-01
-0.5104037592708E-01 -0.3870638998473E-01
-0.6304831444117E-01 -0.5903695841856E-01
-0.7597047639908E-01 -0.8349365521518E-01
-0.8975587640217E-01 -0.1115139961734E+00
-0.1043606317593E+00 -0.1426462225735E+00
-0.1197467411804E+00 -0.1765266558622E+00
-0.1358847813242E+00 -0.2128629990830E+00
-0.1527600512559E+00 -0.2514227547007E+00
-0.1703781896870E+00 -0.2920240844123E+00
-0.1887644702038E+00 -0.3345280459858E+00
-0.2079533796947E+00 -0.3788303205387E+00
-0.2279745818821E+00 -0.4248532310391E+00
-0.2488462678907E+00 -0.4725384116946E+00
-0.2705746743003E+00 -0.5218379723941E+00
-0.2931529487572E+00 -0.5727044380013E+00
-0.3165550990203E+00 -0.6250775735093E+00
-0.3407234509587E+00 -0.6788695434740E+00
-0.3655487143885E+00 -0.7339472463411E+00
-0.3692060014750E-01 -0.2294558645192E-01
-0.4562970158912E-01 -0.3847845245169E-01
-0.5564937915529E-01 -0.5882681496662E-01
-0.6684592294439E-01 -0.8329314238214E-01
-0.7911402015964E-01 -0.1113198605211E+00
-0.9236662043569E-01 -0.1424585828097E+00
-0.1065309014993E+00 -0.1763483446102E+00
-0.1215494525392E+00 -0.2126994952915E+00
-0.1373858123520E+00 -0.2512825614250E+00
-0.1540298389021E+00 -0.2919195714880E+00
-0.1714963038416E+00 -0.3344768039077E+00
-0.1898129282361E+00 -0.3788569091721E+00
-0.2090045432911E+00 -0.4249911825133E+00
-0.2290863841532E+00 -0.4728321990556E+00
-0.2500649989615E+00 -0.5223445665295E+00
-0.2719386884512E+00 -0.5734943014954E+00
-0.2946932062935E+00 -0.6262349938276E+00
-0.3182908604007E+00 -0.6804922164605E+00
-0.3426521946406E+00 -0.7361451243798E+00
-0.3383474561276E-01 -0.2270563548552E-01
-0.4022282048998E-01 -0.3826673679066E-01
-0.4825058363120E-01 -0.5861147882356E-01
-0.5771585078882E-01 -0.8305372209182E-01
-0.6845981572314E-01 -0.1110429884253E+00
-0.8035263770600E-01 -0.1421353726342E+00
-0.9328673537395E-01 -0.1759729692725E+00
-0.1071765707163E+00 -0.2122685653158E+00
-0.1219636459444E+00 -0.2507951006151E+00
-0.1376216342940E+00 -0.2913776022992E+00
-0.1541542712142E+00 -0.3338865815401E+00
-0.1715818572560E+00 -0.3782306335312E+00
-0.1899235248401E+00 -0.4243490382546E+00
-0.2091906153135E+00 -0.4722044013519E+00
-0.2293891993678E+00 -0.5217729776902E+00
-0.2505221543454E+00 -0.5730334905194E+00
-0.2725867108523E+00 -0.6259526775931E+00
-0.2955652450514E+00 -0.6804690323079E+00
-0.3194085290611E+00 -0.7364738645961E+00
-0.3076189548041E-01 -0.2248710348215E-01
-0.3483507203672E-01 -0.3807120447442E-01
-0.4087193103538E-01 -0.5839136701911E-01
-0.4860392669923E-01 -0.8277637558566E-01
-0.5782007896461E-01 -0.1106849248215E+00
-0.6834847164050E-01 -0.1416786351768E+00
-0.8004706401899E-01 -0.1754029743762E+00
-0.9280222934620E-01 -0.2115729483105E+00
-0.1065333003918E+00 -0.2499632938607E+00
-0.1211974752953E+00 -0.2904011505348E+00
-0.1367870021719E+00 -0.3327602280182E+00
-0.1533141619463E+00 -0.3769539519549E+00
-0.1707914946724E+00 -0.4229284858235E+00
-0.1892254173048E+00 -0.4706554462974E+00
-0.2086206197599E+00 -0.5201217862409E+00
-0.2289838238452E+00 -0.5713180682150E+00
-0.2503232677977E+00 -0.6242234303220E+00
-0.2726412165501E+00 -0.6787887108666E+00
-0.2959186635961E+00 -0.7349171267214E+00
-0.2771083351771E-01 -0.2228979085642E-01
-0.2948149330987E-01 -0.3789197837241E-01
-0.3353309521252E-01 -0.5816734370030E-01
-0.3953349824844E-01 -0.8246290857120E-01
-0.4722134021717E-01 -0.1102484822931E+00
-0.5638367081729E-01 -0.1410921798026E+00
-0.6684451807162E-01 -0.1746431286729E+00
-0.7846237760384E-01 -0.2106183415293E+00
-0.9113442453655E-01 -0.2487937558540E+00
-0.1048012130119E+00 -0.2889977486198E+00
-0.1194431507525E+00 -0.3311061755675E+00
-0.1350639810566E+00 -0.3750361056937E+00
-0.1516687420937E+00 -0.4207393782473E+00
-0.1692578003986E+00 -0.4681954969915E+00
-0.1878334452748E+00 -0.5174010680806E+00
-0.2074053484534E+00 -0.5683575486104E+00
-0.2279920849074E+00 -0.6210556663917E+00
-0.2496153872852E+00 -0.6754579410886E+00
-0.2722861318501E+00 -0.7314790317290E+00
-0.2469004795532E-01 -0.2211352429401E-01
-0.2417668532160E-01 -0.3772935722433E-01
-0.2625325352996E-01 -0.5794073171824E-01
-0.3052740239738E-01 -0.8211595820346E-01
-0.3668963321421E-01 -0.1097377406215E+00
-0.4448731335374E-01 -0.1403815698136E+00
-0.5371128119358E-01 -0.1737004960421E+00
-0.6419252815765E-01 -0.2094133503044E+00
-0.7580622575647E-01 -0.2472967214038E+00
-0.8847624234449E-01 -0.2871793936356E+00
-0.1021709055330E+00 -0.3289383320720E+00
-0.1168850167840E+00 -0.3724930097476E+00
-0.1326152036151E+00 -0.4177996345957E+00
-0.1493545598850E+00 -0.4648443693800E+00
-0.1671018379238E+00 -0.5136323282191E+00
-0.1858685946901E+00 -0.5641748404183E+00
-0.2056828680220E+00 -0.6164733583482E+00
-0.2265852232948E+00 -0.6705013405079E+00
-0.2486158692150E+00 -0.7261841851496E+00
-0.2170764723902E-01 -0.2195817105748E-01
-0.1893467615653E-01 -0.3758382839412E-01
-0.1905091359975E-01 -0.5771332057082E-01
-0.2160776573440E-01 -0.8173899439196E-01
-0.2625027496000E-01 -0.1091580369905E+00
-0.3268776721714E-01 -0.1395540944673E+00
-0.4067882564396E-01 -0.1725843815039E+00
-0.5002745732752E-01 -0.2079694007219E+00
-0.6058711972388E-01 -0.2454859187952E+00
-0.7226508290086E-01 -0.2849623788372E+00
-0.8501748221831E-01 -0.3262758758282E+00
-0.9882992834288E-01 -0.3693470229654E+00
-0.1136897548355E+00 -0.4141350007931E+00
-0.1295814680418E+00 -0.4606312941656E+00
-0.1464990340207E+00 -0.5088482601511E+00
-0.1644546478532E+00 -0.5588059894370E+00
-0.1834847266894E+00 -0.6105157532414E+00
-0.2036478536729E+00 -0.6639611369109E+00
-0.2250129470552E+00 -0.7190772783312E+00
-0.1877128251114E-01 -0.2182365261346E-01
-0.1376879395182E-01 -0.3745607723876E-01
-0.1194375252533E-01 -0.5748737101456E-01
-0.1279582213472E-01 -0.8133631876205E-01
-0.1592767064797E-01 -0.1085159522675E+00
-0.2101248480118E-01 -0.1386187322133E+00
-0.2777769198752E-01 -0.1713062609068E+00
-0.3600095957175E-01 -0.2063006259799E+00
-0.4551444455525E-01 -0.2433784027766E+00
-0.5620903260345E-01 -0.2823670652407E+00
-0.6802869248002E-01 -0.3231429658115E+00
-0.8094980131463E-01 -0.3656266093840E+00
-0.9494957651023E-01 -0.4097786849258E+00
-0.1100025434695E+00 -0.4555945489594E+00
-0.1260965325453E+00 -0.5030923712543E+00
-0.1432429248411E+00 -0.5522997660694E+00
-0.1614851978720E+00 -0.6032368991805E+00
-0.1808990003219E+00 -0.6558966535411E+00
-0.2015814972165E+00 -0.7102224317344E+00
-0.1588807795458E-01 -0.2170995270887E-01
-0.8691542987316E-02 -0.3734698598368E-01
-0.4948451611873E-02 -0.5726561259864E-01
-0.4111720603449E-02 -0.8091306047828E-01
-0.5745105760453E-02 -0.1078192926976E+00
-0.9487781264383E-02 -0.1375861015165E+00
-0.1503724787786E-01 -0.1698796886794E+00
-0.2214557612632E-01 -0.2044237193713E+00
-0.3062414430502E-01 -0.2409943383531E+00
-0.4034778394353E-01 -0.2794175798592E+00
-0.5124846273144E-01 -0.3195683458852E+00
-0.6329354549651E-01 -0.3613658528961E+00
-0.7644942026686E-01 -0.4047708167011E+00
-0.9067919294651E-01 -0.4497809094517E+00
-0.1059631489559E+00 -0.4964184425423E+00
-0.1223101633250E+00 -0.5447170681490E+00
-0.1397691388013E+00 -0.5947049163740E+00
-0.1584317179334E+00 -0.6463835029580E+00
-0.1784233968767E+00 -0.6997025699092E+00
-0.1306457264223E-01 -0.2161710926796E-01
-0.3714486276738E-02 -0.3725761189806E-01
 0.1919464421385E-02 -0.5705123346551E-01
 0.4425651652948E-02 -0.8047518167225E-01
 0.4275428374370E-02 -0.1070770802448E+00
 0.1861336262380E-02 -0.1364684132345E+00
-0.2485514276954E-02 -0.1683202004322E+00
-0.8492410575227E-02 -0.2023577805685E+00
-0.1595056324476E-01 -0.2383567707786E+00
-0.2471917588991E-01 -0.2761414846829E+00
-0.3471850841689E-01 -0.3155848932710E+00
-0.4590746203479E-01 -0.3566038780266E+00
-0.5824103565949E-01 -0.3991577603885E+00
-0.7166949820876E-01 -0.4432449711798E+00
-0.8616422980539E-01 -0.4888899266201E+00
-0.1017296473885E+00 -0.5361303312030E+00
-0.1184179327387E+00 -0.5850011792649E+00
-0.1363353908377E+00 -0.6355125235100E+00
-0.1556369492153E+00 -0.6876186464981E+00
-0.1030669058293E-01 -0.2154516671702E-01
 0.1151873914330E-02 -0.3718910344659E-01
 0.8645814728842E-02 -0.5684786296884E-01
 0.1279887138081E-01 -0.8002949855832E-01
 0.1411342997787E-01 -0.1062995551981E+00
 0.1301136944487E-01 -0.1352794035776E+00
 0.9851056431040E-02 -0.1666451896351E+00
 0.4929116616262E-02 -0.2001241319623E+00
-0.1526173180909E-02 -0.2354913590414E+00
-0.9358872879744E-02 -0.2725693790930E+00
-0.1847792177366E-01 -0.3112290634429E+00
-0.2883470436145E-01 -0.3513841111218E+00
-0.4037246065952E-01 -0.3929911787146E+00
-0.5302724687069E-01 -0.4360480790370E+00
-0.6676052668375E-01 -0.4805791610729E+00
-0.8157016007079E-01 -0.5266229045260E+00
-0.9750857055815E-01 -0.5742194318555E+00
-0.1146945772841E+00 -0.6233881374283E+00
-0.1333149645891E+00 -0.6740877511651E+00
-0.7619757402857E-02 -0.2149395460103E-01
 0.5898244156526E-02 -0.3714251534230E-01
 0.1521800117047E-01 -0.5665953302474E-01
 0.2099218133320E-01 -0.7958380827547E-01
 0.2375002106487E-01 -0.1054982011801E+00
 0.2394045614802E-01 -0.1340342615591E+00
 0.2194772046611E-01 -0.1648737719472E+00
 0.1809140102290E-01 -0.1977461692366E+00
 0.1261853824559E-01 -0.2324261401536E+00
 0.5699742913788E-02 -0.2687345359191E+00
-0.2563014403792E-02 -0.3065403302572E+00
-0.1211503439092E-01 -0.3457535263850E+00
-0.2288765308337E-01 -0.3863270346702E+00
-0.3480133774525E-01 -0.4282570153719E+00
-0.4780708507485E-01 -0.4715659467775E+00
-0.6189503884778E-01 -0.5162892856957E+00
-0.7711350199206E-01 -0.5624655928273E+00
-0.9358881074178E-01 -0.6101265221158E+00
-0.1115433793447E+00 -0.6592402037562E+00
-0.5008726163027E-02 -0.2146263760522E-01
 0.1051679782661E-01 -0.3711793686358E-01
 0.2162542741988E-01 -0.5649102629954E-01
 0.2899160996792E-01 -0.7914714076785E-01
 0.3316802177856E-01 -0.1046857319979E+00
 0.3462848068752E-01 -0.1327495239382E+00
 0.3378157142441E-01 -0.1630266336822E+00
 0.3096883424949E-01 -0.1952491239317E+00
 0.2645518752870E-01 -0.2291914436677E+00
 0.2042563433740E-01 -0.2646724826780E+00
 0.1299284320600E-01 -0.3015605467750E+00
 0.4215429195691E-02 -0.3397618276457E+00
-0.5826145510528E-02 -0.3792244886221E+00
-0.1703522271552E-01 -0.4199424769734E+00
-0.2935225219521E-01 -0.4619352171435E+00
-0.4275941502739E-01 -0.5052327275711E+00
-0.5730017947145E-01 -0.5498635952070E+00
-0.7309500675650E-01 -0.5958530541667E+00
-0.9039941451446E-01 -0.6432109363264E+00
-0.1774451436593E+00 -0.1373445077620E+00
-0.2664911499233E+00 -0.2243962400629E+00
-0.3400656965045E+00 -0.2855828978982E+00
-0.4045856257108E+00 -0.3258929825159E+00
-0.4613951816215E+00 -0.3517530800244E+00
-0.5112459041462E+00 -0.3679477483346E+00
-0.5548082428635E+00 -0.3772789308309E+00
-0.5926317916039E+00 -0.3813789179787E+00
-0.6250715125577E+00 -0.3816065707158E+00
-0.6524640987846E+00 -0.3788958135012E+00
-0.6751367625673E+00 -0.3739560694170E+00
-0.6933741351438E+00 -0.3679970937239E+00
-0.7077062272736E+00 -0.3602287086261E+00
-0.7182950071828E+00 -0.3502518508978E+00
-0.7250375607745E+00 -0.3394727810028E+00
-0.7278815877937E+00 -0.3292402887298E+00
-0.7269514284005E+00 -0.3208415452397E+00
-0.7224194054354E+00 -0.3152951140238E+00
-0.7145164820288E+00 -0.3135022504878E+00
-0.1691043164427E+00 -0.1166491103248E+00
-0.2637167631400E+00 -0.1934019766337E+00
-0.3394885093643E+00 -0.2567729838255E+00
-0.4043985137951E+00 -0.3010563661429E+00
-0.4612488604644E+00 -0.3304274266551E+00
-0.5110307167784E+00 -0.3495043102457E+00
-0.5545272490155E+00 -0.3612432800116E+00
-0.5923204149656E+00 -0.3674303257490E+00
-0.6247717842236E+00 -0.3695019060657E+00
-0.6522071026995E+00 -0.3684238968371E+00
-0.6749349944693E+00 -0.3648803368580E+00
-0.6932259601721E+00 -0.3600227107807E+00
-0.7075577119000E+00 -0.3530854559310E+00
-0.7180688768304E+00 -0.3438940543917E+00
-0.7247829437320E+00 -0.3340531495209E+00
-0.7277758355391E+00 -0.3249542706878E+00
-0.7272055441381E+00 -0.3177994797033E+00
-0.7232224475656E+00 -0.3134888113816E+00
-0.7160167213858E+00 -0.3127840988822E+00
-0.1612049102155E+00 -0.1022954500761E+00
-0.2576719769399E+00 -0.1690750090827E+00
-0.3361775491383E+00 -0.2295890382907E+00
-0.4023176257021E+00 -0.2759610212857E+00
-0.4596496483588E+00 -0.3083483439622E+00
-0.5096442941924E+00 -0.3302453891222E+00
-0.5532552812929E+00 -0.3444512118878E+00
-0.5911459461475E+00 -0.3528081038727E+00
-0.6237132883452E+00 -0.3568054106040E+00
-0.6512930861477E+00 -0.3574323900712E+00
-0.6741882727569E+00 -0.3553719585965E+00
-0.6926648418106E+00 -0.3517448149520E+00
-0.7071309072006E+00 -0.3458576166781E+00
-0.7176964929646E+00 -0.3377049803360E+00
-0.7244831317507E+00 -0.3289947613077E+00
-0.7276788213509E+00 -0.3211345261987E+00
-0.7274911267672E+00 -0.3152574624201E+00
-0.7240697432279E+00 -0.3121665730112E+00
-0.7175995191879E+00 -0.3125382873094E+00
-0.1541897569050E+00 -0.9164175237223E-01
-0.2503223093161E+00 -0.1497285024020E+00
-0.3305557940348E+00 -0.2056780649248E+00
-0.3982114502418E+00 -0.2518046062918E+00
-0.4564201932020E+00 -0.2861614642610E+00
-0.5069161517928E+00 -0.3105151327450E+00
-0.5508484435255E+00 -0.3271036340239E+00
-0.5889872469568E+00 -0.3376494694331E+00
-0.6217933719126E+00 -0.3436264456065E+00
-0.6496299428137E+00 -0.3460308135150E+00
-0.6728045887941E+00 -0.3455508658367E+00
-0.6915876878297E+00 -0.3432843388858E+00
-0.7063117062178E+00 -0.3386303728800E+00
-0.7170567797939E+00 -0.3317206840049E+00
-0.7240250074161E+00 -0.3243050649363E+00
-0.7274984685706E+00 -0.3177818126282E+00
-0.7277402888458E+00 -0.3132209293828E+00
-0.7249167660000E+00 -0.3113529700269E+00
-0.7192123928860E+00 -0.3127905548267E+00
-0.1480653424840E+00 -0.8337247362843E-01
-0.2425703766854E+00 -0.1341369714540E+00
-0.3234443872715E+00 -0.1850776239111E+00
-0.3923134210903E+00 -0.2295174588541E+00
-0.4515320646865E+00 -0.2646033976689E+00
-0.5027459063946E+00 -0.2907785580768E+00
-0.5471911710829E+00 -0.3094870596947E+00
-0.5857339695259E+00 -0.3221439930054E+00
-0.6189093981694E+00 -0.3301073704826E+00
-0.6471197752978E+00 -0.3343416421244E+00
-0.6706857024011E+00 -0.3355313822141E+00
-0.6898904886105E+00 -0.3347441123788E+00
-0.7049914024314E+00 -0.3314806875069E+00
-0.7160381535015E+00 -0.3259847648209E+00
-0.7233015135697E+00 -0.3200035543045E+00
-0.7271420418486E+00 -0.3149060440972E+00
-0.7278784531692E+00 -0.3117024924650E+00
-0.7256996684673E+00 -0.3110647070224E+00
-0.7207903444259E+00 -0.3135536761182E+00
-0.1427142145198E+00 -0.7674738540674E-01
-0.2348667204721E+00 -0.1213998415725E+00
-0.3154685804254E+00 -0.1674654968462E+00
-0.3850351515941E+00 -0.2094428732897E+00
-0.4451327722957E+00 -0.2442686516536E+00
-0.4971331319356E+00 -0.2715287703983E+00
-0.5422215318666E+00 -0.2919488281792E+00
-0.5813015067488E+00 -0.3065312932842E+00
-0.6149694306769E+00 -0.3164228489344E+00
-0.6436673809760E+00 -0.3225031991777E+00
-0.6677332367986E+00 -0.3254293319691E+00
-0.6874698292417E+00 -0.3262210746040E+00
-0.7030631836119E+00 -0.3244815652714E+00
-0.7145325170099E+00 -0.3205435577317E+00
-0.7222077385441E+00 -0.3161159167571E+00
-0.7265141282260E+00 -0.3125222364802E+00
-0.7278217146156E+00 -0.3107137249702E+00
-0.7263425525991E+00 -0.3113111390404E+00
-0.7222596740326E+00 -0.3148301114450E+00
-0.1380019390018E+00 -0.7130416853122E-01
-0.2274233673940E+00 -0.1108658266840E+00
-0.3070603037224E+00 -0.1524337568509E+00
-0.3767726777102E+00 -0.1916168311080E+00
-0.4374652746818E+00 -0.2254979984439E+00
-0.4901742558314E+00 -0.2531812459251E+00
-0.5359429399057E+00 -0.2748428169931E+00
-0.5756442609606E+00 -0.2910802071306E+00
-0.6099026343571E+00 -0.3027736986288E+00
-0.6391881388009E+00 -0.3106695420512E+00
-0.6638538568666E+00 -0.3153661532096E+00
-0.6842249606635E+00 -0.3178114922009E+00
-0.7004216260592E+00 -0.3177044867391E+00
-0.7124326670295E+00 -0.3154439568161E+00
-0.7206381199351E+00 -0.3126695996103E+00
-0.7255150820031E+00 -0.3106452454883E+00
-0.7274782852983E+00 -0.3102620382556E+00
-0.7267604793297E+00 -0.3120936147785E+00
-0.7235406278810E+00 -0.3166133461794E+00
-0.1338041464661E+00 -0.6673661037431E-01
-0.2203274000713E+00 -0.1020542117386E+00
-0.2985005122607E+00 -0.1395908338973E+00
-0.3678528552661E+00 -0.1759206659174E+00
-0.4287897501525E+00 -0.2084376274920E+00
-0.4820245995060E+00 -0.2360223279050E+00
-0.5284176136218E+00 -0.2584762578333E+00
-0.5687600618123E+00 -0.2760567924446E+00
-0.6036664518851E+00 -0.2893721116333E+00
-0.6336144696768E+00 -0.2990055718020E+00
-0.6589639726909E+00 -0.3054689462372E+00
-0.6800604181090E+00 -0.3096128227398E+00
-0.6969635169704E+00 -0.3112200408489E+00
-0.7096316209169E+00 -0.3107315779647E+00
-0.7184853160213E+00 -0.3096901373298E+00
-0.7240409311830E+00 -0.3092861159610E+00
-0.7267498938883E+00 -0.3103483131179E+00
-0.7268617668024E+00 -0.3134049110800E+00
-0.7245489168840E+00 -0.3188881451273E+00
-0.1300139863248E+00 -0.6283291040920E-01
-0.2135985348826E+00 -0.9460373818798E-01
-0.2899633319204E+00 -0.1285896588271E+00
-0.3585248994076E+00 -0.1621684525946E+00
-0.4193439967176E+00 -0.1931033932607E+00
-0.4728602822154E+00 -0.2202171687381E+00
-0.5197467343730E+00 -0.2430810063161E+00
-0.5606849298357E+00 -0.2616950842127E+00
-0.5962481647732E+00 -0.2764224911988E+00
-0.6268995962605E+00 -0.2876773140248E+00
-0.6529933887409E+00 -0.2958667131023E+00
-0.6748886745556E+00 -0.3017226823809E+00
-0.6925894295235E+00 -0.3050970521848E+00
-0.7060232050715E+00 -0.3064487284128E+00
-0.7156404589799E+00 -0.3071982516489E+00
-0.7219841256510E+00 -0.3084492843409E+00
-0.7255333361340E+00 -0.3109650651893E+00
-0.7265498293015E+00 -0.3152284926499E+00
-0.7251970469336E+00 -0.3216304858166E+00
-0.1265425494149E+00 -0.5944187840435E-01
-0.2072205376582E+00 -0.8823840866604E-01
-0.2815492307864E+00 -0.1191324233909E+00
-0.3489689150038E+00 -0.1501520797409E+00
-0.4093272988893E+00 -0.1794314940294E+00
-0.4628528130261E+00 -0.2058344768137E+00
-0.5100496456493E+00 -0.2288098923240E+00
-0.5514818129277E+00 -0.2481796243116E+00
-0.5876612288606E+00 -0.2641043576648E+00
-0.6190179301115E+00 -0.2768401900194E+00
-0.6458872508342E+00 -0.2866838094438E+00
-0.6686322822738E+00 -0.2942354764159E+00
-0.6872055578841E+00 -0.2994003789983E+00
-0.7015034433183E+00 -0.3026321614005E+00
-0.7119943617946E+00 -0.3052074109689E+00
-0.7192349789653E+00 -0.3081303910114E+00
-0.7237222467623E+00 -0.3120949254022E+00
-0.7257249601611E+00 -0.3175377606816E+00
-0.7253956300304E+00 -0.3248073771990E+00
-0.1233170836020E+00 -0.5645298456477E-01
-0.2011588530984E+00 -0.8274450763859E-01
-0.2733086736596E+00 -0.1109671273506E+00
-0.3393084879787E+00 -0.1396641235427E+00
-0.3988970724539E+00 -0.1673129364911E+00
-0.4521550140716E+00 -0.1928727915778E+00
-0.4994477535544E+00 -0.2157453827669E+00
-0.5412283900159E+00 -0.2356400390079E+00
-0.5779385187657E+00 -0.2525611779274E+00
-0.6099626072821E+00 -0.2666284668296E+00
-0.6376061056552E+00 -0.2780323706679E+00
-0.6612251254457E+00 -0.2872375140544E+00
-0.6807254172601E+00 -0.2941877008050E+00
-0.6959723599965E+00 -0.2993106140464E+00
-0.7074393946326E+00 -0.3037217239116E+00
-0.7156837022162E+00 -0.3083145598377E+00
-0.7212092256593E+00 -0.3137094316840E+00
-0.7242862632083E+00 -0.3202953938527E+00
-0.7250547811468E+00 -0.3283767103533E+00
-0.1202786530003E+00 -0.5378394640242E-01
-0.1953707464491E+00 -0.7795477288880E-01
-0.2652586670532E+00 -0.1038818766657E+00
-0.3296229507023E+00 -0.1305088798675E+00
-0.3881714903780E+00 -0.1566158395953E+00
-0.4408948232178E+00 -0.1812824985224E+00
-0.4880539543015E+00 -0.2039126166792E+00
-0.5300067629429E+00 -0.2241533619644E+00
-0.5671248654942E+00 -0.2418955082181E+00
-0.5997413559791E+00 -0.2571478251527E+00
-0.6281244263544E+00 -0.2700054369827E+00
-0.6526126984710E+00 -0.2808016945500E+00
-0.6730711625011E+00 -0.2895058072664E+00
-0.6893359065355E+00 -0.2965022965300E+00
-0.7018718017833E+00 -0.3027341900534E+00
-0.7112229610912E+00 -0.3089751726802E+00
-0.7178884076346E+00 -0.3157682112048E+00
-0.7221338811781E+00 -0.3234528896704E+00
-0.7240856488275E+00 -0.3322872096025E+00
-0.1173798671626E+00 -0.5137266356110E-01
-0.1898112149027E+00 -0.7373725152411E-01
-0.2573943545787E+00 -0.9769906610590E-01
-0.3199579810414E+00 -0.1225072285875E+00
-0.3772345726375E+00 -0.1471994738938E+00
-0.4291739386689E+00 -0.1709827046119E+00
-0.4759667120897E+00 -0.1932926114086E+00
-0.5178959723665E+00 -0.2137503421867E+00
-0.5552704291280E+00 -0.2321689416095E+00
-0.5883719280440E+00 -0.2484714871594E+00
-0.6174282550745E+00 -0.2626718821360E+00
-0.6427516014720E+00 -0.2749827786839E+00
-0.6641744537848E+00 -0.2853870212522E+00
-0.6815078094366E+00 -0.2942126429776E+00
-0.6951942565767E+00 -0.3022254784263E+00
-0.7057508675662E+00 -0.3100732970688E+00
-0.7136585338152E+00 -0.3182187189556E+00
-0.7191716540750E+00 -0.3269504190831E+00
-0.7224021424063E+00 -0.3364784927174E+00
-0.1145828657921E+00 -0.4917175965220E-01
-0.1844364038788E+00 -0.6998722708269E-01
-0.2496971569664E+00 -0.9227009445298E-01
-0.3103342997154E+00 -0.1154982240315E+00
-0.3661419370119E+00 -0.1389228648999E+00
-0.4170691643478E+00 -0.1618735306637E+00
-0.4632674826064E+00 -0.1838338364958E+00
-0.5049672120153E+00 -0.2044231196646E+00
-0.5424255513018E+00 -0.2234050180354E+00
-0.5758779088761E+00 -0.2406393230703E+00
-0.6055125666539E+00 -0.2560734532434E+00
-0.6316085277567E+00 -0.2698138566514E+00
-0.6539768697274E+00 -0.2818462766012E+00
-0.6724111416147E+00 -0.2924326502115E+00
-0.6873183857260E+00 -0.3021634916642E+00
-0.6991742138337E+00 -0.3115580499232E+00
-0.7084265138422E+00 -0.3209968393021E+00
-0.7153103553791E+00 -0.3307171853373E+00
-0.7199229991721E+00 -0.3408812287237E+00
-0.1118576193774E+00 -0.4714478961014E-01
-0.1792055535850E+00 -0.6662126391306E-01
-0.2421405536061E+00 -0.8747082161418E-01
-0.3007547069986E+00 -0.1093390398888E+00
-0.3549264548438E+00 -0.1316499717775E+00
-0.4046351989653E+00 -0.1538448872817E+00
-0.4500204320286E+00 -0.1754617463246E+00
-0.4912813144668E+00 -0.1961329108188E+00
-0.5286372607177E+00 -0.2155937131871E+00
-0.5622853911994E+00 -0.2336591494386E+00
-0.5923788518753E+00 -0.2502237918362E+00
-0.6191590726774E+00 -0.2653042630173E+00
-0.6424299412621E+00 -0.2788791439212E+00
-0.6619794301402E+00 -0.2911380193227E+00
-0.6781668728157E+00 -0.3025039123959E+00
-0.6914115777628E+00 -0.3133682711627E+00
-0.7021113251285E+00 -0.3240288129643E+00
-0.7104716885974E+00 -0.3346726668989E+00
-0.7165745069267E+00 -0.3454173923599E+00
-0.1091805192149E+00 -0.4526352639955E-01
-0.1740820374329E+00 -0.6357269871587E-01
-0.2346941941849E+00 -0.8319769218652E-01
-0.2912097139002E+00 -0.1039040435059E+00
-0.3436034486727E+00 -0.1252526413268E+00
-0.3919080728681E+00 -0.1467825971030E+00
-0.4362736108178E+00 -0.1680863074896E+00
-0.4768879550899E+00 -0.1888169804982E+00
-0.5139472733611E+00 -0.2086964942787E+00
-0.5476206572201E+00 -0.2275093943399E+00
-0.5780331973180E+00 -0.2451090135896E+00
-0.6053866166634E+00 -0.2614388194383E+00
-0.6294949234674E+00 -0.2764607455589E+00
-0.6501570568430E+00 -0.2902888650979E+00
-0.6676745531283E+00 -0.3031916536804E+00
-0.6823954588225E+00 -0.3154356742034E+00
-0.6946477321517E+00 -0.3272353321973E+00
-0.7045931209386E+00 -0.3387294829456E+00
-0.7122944741677E+00 -0.3500008630186E+00
-0.1065332222061E+00 -0.4350597777404E-01
-0.1690338448255E+00 -0.6078817714726E-01
-0.2273268349803E+00 -0.7936442378896E-01
-0.2816820367925E+00 -0.9908343546577E-01
-0.3321753218665E+00 -0.1196121222011E+00
-0.3789087922378E+00 -0.1405725960184E+00
-0.4220610206706E+00 -0.1616078115716E+00
-0.4618261111878E+00 -0.1823946570180E+00
-0.4983912465515E+00 -0.2026513545787E+00
-0.5319088502688E+00 -0.2221425140981E+00
-0.5624849969081E+00 -0.2406894364513E+00
-0.5902815266225E+00 -0.2581781955172E+00
-0.6151425524749E+00 -0.2745453064628E+00
-0.6368991436821E+00 -0.2898293542387E+00
-0.6557876782785E+00 -0.3041617919087E+00
-0.6720720992189E+00 -0.3176893654663E+00
-0.6859881951363E+00 -0.3305382306871E+00
-0.6976332617570E+00 -0.3428000579946E+00
-0.7070384069062E+00 -0.3545388843980E+00
-0.1039017011357E+00 -0.4185498250397E-01
-0.1640337417134E+00 -0.5822492978379E-01
-0.2200084403139E+00 -0.7589918712919E-01
-0.2721501878205E+00 -0.9478161701755E-01
-0.3206355800884E+00 -0.1146196347107E+00
-0.3656469315565E+00 -0.1351037561760E+00
-0.4074051979953E+00 -0.1559213162079E+00
-0.4461254214976E+00 -0.1767723549933E+00
-0.4819990350571E+00 -0.1973774867382E+00
-0.5151735126082E+00 -0.2174887011848E+00
-0.5457462775650E+00 -0.2369021206366E+00
-0.5738408143954E+00 -0.2554603093926E+00
-0.5993532756714E+00 -0.2730663195002E+00
-0.6221716046174E+00 -0.2896867093809E+00
-0.6424626965365E+00 -0.3053379049092E+00
-0.6603960589771E+00 -0.3200558744127E+00
-0.6760997987939E+00 -0.3338723363314E+00
-0.6895754245449E+00 -0.3468085964115E+00
-0.7007893371521E+00 -0.3589385866675E+00
-0.1012754123355E+00 -0.4029706262806E-01
-0.1590592594962E+00 -0.5584903081343E-01
-0.2127118390732E+00 -0.7274185148002E-01
-0.2625912381777E+00 -0.9091538426475E-01
-0.3089722305569E+00 -0.1101763129098E+00
-0.3521240090721E+00 -0.1302697615940E+00
-0.3923200556615E+00 -0.1509200428555E+00
-0.4298082192173E+00 -0.1718477652218E+00
-0.4647957927394E+00 -0.1927793303383E+00
-0.4974368034668E+00 -0.2134594708984E+00
-0.5278314463603E+00 -0.2336639487508E+00
-0.5560681136379E+00 -0.2532028510118E+00
-0.5821181414895E+00 -0.2719381818486E+00
-0.6059528721744E+00 -0.2897706903618E+00
-0.6276667946808E+00 -0.3066278482750E+00
-0.6473277085792E+00 -0.3224493941939E+00
-0.6649433485977E+00 -0.3371752450955E+00
-0.6804214539005E+00 -0.3507337648222E+00
-0.6935742844363E+00 -0.3631201908845E+00
 0.9036848054092E-03 -0.2188318996183E-01
 0.2132264329755E-01 -0.3818445248748E-01
 0.3704575636940E-01 -0.5800513406756E-01
 0.4869490035067E-01 -0.8092766232040E-01
 0.5675268324468E-01 -0.1065552697385E+00
 0.6166573632526E-01 -0.1345208514602E+00
 0.6383597457253E-01 -0.1645045936327E+00
 0.6360040743597E-01 -0.1962360506849E+00
 0.6123628001785E-01 -0.2294877949564E+00
 0.5693458750802E-01 -0.2640844833621E+00
 0.5080216438129E-01 -0.2999095095739E+00
 0.4295613348671E-01 -0.3368873067534E+00
 0.3330025639117E-01 -0.3750174274902E+00
 0.2179288454329E-01 -0.4143034696528E+00
 0.8625926331137E-02 -0.4547592640823E+00
-0.6068628933445E-02 -0.4964349657172E+00
-0.2224828279869E-01 -0.5394137434612E+00
-0.3999935808356E-01 -0.5837626627598E+00
-0.5954053647020E-01 -0.6296004653379E+00
 0.4328259664642E-02 -0.2237220515968E-01
 0.2770027093902E-01 -0.3933548682540E-01
 0.4627716096079E-01 -0.5976065375162E-01
 0.6060677045975E-01 -0.8321813569019E-01
 0.7108469937433E-01 -0.1092812485373E+00
 0.7811230787556E-01 -0.1375495027675E+00
 0.8206778432538E-01 -0.1676841686288E+00
 0.8326951349852E-01 -0.1994106381888E+00
 0.8199623009450E-01 -0.2325033502224E+00
 0.7843740933250E-01 -0.2668020675006E+00
 0.7269022917763E-01 -0.3022214761115E+00
 0.6492982665393E-01 -0.3387026585202E+00
 0.5489305805160E-01 -0.3763423562480E+00
 0.4240084859531E-01 -0.4152320144926E+00
 0.2775762563354E-01 -0.4554039432403E+00
 0.1119182455420E-01 -0.4969489115839E+00
-0.7177344475947E-02 -0.5400190942186E+00
-0.2740019350894E-01 -0.5847736015691E+00
-0.4959902026244E-01 -0.6314187867895E+00
 0.7789188585158E-02 -0.2292381312071E-01
 0.3412872879089E-01 -0.4058826340538E-01
 0.5553857485153E-01 -0.6164751637112E-01
 0.7249027367511E-01 -0.8564046941050E-01
 0.8529616835640E-01 -0.1120951426641E+00
 0.9431936721190E-01 -0.1405682984558E+00
 0.9992238912725E-01 -0.1706986588922E+00
 0.1024137170009E+00 -0.2022087578176E+00
 0.1020806438409E+00 -0.2348804639054E+00
 0.9911834336130E-01 -0.2685770848286E+00
 0.9362164335502E-01 -0.3032553414984E+00
 0.8582144646976E-01 -0.3388801910021E+00
 0.7531447457819E-01 -0.3756841020078E+00
 0.6181320109464E-01 -0.4139142594567E+00
 0.4572622484572E-01 -0.4536524518629E+00
 0.2736913376294E-01 -0.4950410537381E+00
 0.6927850311494E-02 -0.5382942515586E+00
-0.1560562391447E-01 -0.5836353707336E+00
-0.4034633029214E-01 -0.6312613741028E+00
 0.1128444439036E-01 -0.2354768460097E-01
 0.4060377542416E-01 -0.4196624059975E-01
 0.6481702453706E-01 -0.6370213710255E-01
 0.8431526950002E-01 -0.8824104098410E-01
 0.9933408208269E-01 -0.1150473905403E+00
 0.1102080052329E+00 -0.1436263700462E+00
 0.1172944461944E+00 -0.1735918792164E+00
 0.1209024900644E+00 -0.2046664490543E+00
 0.1213358448969E+00 -0.2366466291213E+00
 0.1188024156041E+00 -0.2694285087593E+00
 0.1134017376029E+00 -0.3030227488578E+00
 0.1054168651199E+00 -0.3374260011915E+00
 0.9433493730282E-01 -0.3730426335787E+00
 0.7979585713099E-01 -0.4103408106280E+00
 0.6230591262422E-01 -0.4494805726959E+00
 0.4225640321684E-01 -0.4906636470853E+00
 0.1988367559493E-01 -0.5341496955473E+00
-0.4810265740741E-02 -0.5801994971779E+00
-0.3197248470308E-01 -0.6290265413973E+00
 0.1481536110764E-01 -0.2425543913685E-01
 0.4712511636323E-01 -0.4349662318077E-01
 0.7410174384104E-01 -0.6596811682312E-01
 0.9605164339032E-01 -0.9107491075864E-01
 0.1131437179189E+00 -0.1181974556875E+00
 0.1256973507603E+00 -0.1467812485128E+00
 0.1340779226698E+00 -0.1764153919246E+00
 0.1386071688271E+00 -0.2068278240507E+00
 0.1396132625612E+00 -0.2378394769792E+00
 0.1373233441305E+00 -0.2693901810906E+00
 0.1318479992542E+00 -0.3015567529747E+00
 0.1235171246010E+00 -0.3343754991436E+00
 0.1117411832072E+00 -0.3684543651341E+00
 0.9612799172501E-01 -0.4045413831614E+00
 0.7727605434399E-01 -0.4429005209406E+00
 0.5563957183544E-01 -0.4837991161000E+00
 0.3147945911275E-01 -0.5275300198741E+00
 0.4782782224252E-02 -0.5743938907718E+00
-0.2465122804879E-01 -0.6246437025423E+00
 0.1838680466965E-01 -0.2506161066218E-01
 0.5369639219814E-01 -0.4521314787841E-01
 0.8338373688518E-01 -0.6849825923558E-01
 0.1076681014149E+00 -0.9420720112360E-01
 0.1266673569929E+00 -0.1216136540910E+00
 0.1407035780808E+00 -0.1500971750396E+00
 0.1501658598387E+00 -0.1792256072660E+00
 0.1554017552759E+00 -0.2087414584830E+00
 0.1567715487504E+00 -0.2385031392426E+00
 0.1545269375988E+00 -0.2685071400684E+00
 0.1487944393203E+00 -0.2989087941984E+00
 0.1399435685034E+00 -0.3297915169136E+00
 0.1273416546781E+00 -0.3619923773269E+00
 0.1106072247394E+00 -0.3965890828422E+00
 0.9042703311476E-01 -0.4339714599382E+00
 0.6730543103940E-01 -0.4744797846060E+00
 0.4150361491242E-01 -0.5184368808360E+00
 0.1297410580910E-01 -0.5661931680069E+00
-0.1855027576386E-01 -0.6180671027531E+00
 0.2200767200449E-01 -0.2598497142617E-01
 0.6032503958280E-01 -0.4715834757170E-01
 0.9265455538369E-01 -0.7135692056403E-01
 0.1191302639423E+00 -0.9771421190410E-01
 0.1398423249341E+00 -0.1253725393526E+00
 0.1551385578471E+00 -0.1536426585417E+00
 0.1654500610453E+00 -0.1820799486987E+00
 0.1711638887616E+00 -0.2104558464594E+00
 0.1726788487764E+00 -0.2386835639344E+00
 0.1702745251871E+00 -0.2668313470294E+00
 0.1640960377145E+00 -0.2951452270656E+00
 0.1545432299567E+00 -0.3237621266915E+00
 0.1409729571644E+00 -0.3537664533621E+00
 0.1230576317453E+00 -0.3866036900246E+00
 0.1015703251510E+00 -0.4228064591063E+00
 0.7705604048435E-01 -0.4627961248701E+00
 0.4975540789238E-01 -0.5069272948101E+00
 0.1957200568652E-01 -0.5556160351316E+00
-0.1383597936316E-01 -0.6092752552860E+00
 0.2569162636322E-01 -0.2705003354557E-01
 0.6702189955713E-01 -0.4938617972771E-01
 0.1019043873435E+00 -0.7462242104752E-01
 0.1303979340945E+00 -0.1016843010550E+00
 0.1525984452263E+00 -0.1295575244065E+00
 0.1689082546880E+00 -0.1574869621015E+00
 0.1798208738212E+00 -0.1850318805218E+00
 0.1857760887011E+00 -0.2120138577745E+00
 0.1872153379449E+00 -0.2384231502297E+00
 0.1844465407980E+00 -0.2644169348223E+00
 0.1776332351027E+00 -0.2903434082820E+00
 0.1671943392151E+00 -0.3163976616804E+00
 0.1525068255206E+00 -0.3439214013277E+00
 0.1333386776404E+00 -0.3747517313536E+00
 0.1105496723253E+00 -0.4095740510883E+00
 0.8472000359858E-01 -0.4488976202529E+00
 0.5605356369006E-01 -0.4931142662647E+00
 0.2439560676150E-01 -0.5427262095410E+00
-0.1067446993651E-01 -0.5982755322008E+00
 0.2945804211205E-01 -0.2828902732946E-01
 0.7380042680539E-01 -0.5196524289883E-01
 0.1111192558251E+00 -0.7838972042876E-01
 0.1414214713398E+00 -0.1062183231529E+00
 0.1648549515772E+00 -0.1342563993079E+00
 0.1819110814986E+00 -0.1616951392825E+00
 0.1931673255797E+00 -0.1881246025879E+00
 0.1991275030652E+00 -0.2134463168795E+00
 0.2002761573236E+00 -0.2377549930485E+00
 0.1969462388162E+00 -0.2613153229721E+00
 0.1893162693134E+00 -0.2845874703831E+00
 0.1778114600283E+00 -0.3078267340401E+00
 0.1618565837759E+00 -0.3326332269406E+00
 0.1413535793709E+00 -0.3612432082172E+00
 0.1172509648679E+00 -0.3944957991539E+00
 0.9016243867108E-01 -0.4329917107181E+00
 0.6024421416064E-01 -0.4771674903660E+00
 0.2727944698010E-01 -0.5276359055911E+00
-0.9230125145121E-02 -0.5851099027210E+00
 0.3333315184421E-01 -0.2974461903757E-01
 0.8067523280287E-01 -0.5498293799355E-01
 0.1202770022309E+00 -0.8277344501420E-01
 0.1521371124437E+00 -0.1114293406640E+00
 0.1765169755185E+00 -0.1395571891738E+00
 0.1940365396140E+00 -0.1663211430028E+00
 0.2053780137849E+00 -0.1913832829374E+00
 0.2111164652832E+00 -0.2147649766138E+00
 0.2117748517619E+00 -0.2366972656264E+00
 0.2077034154047E+00 -0.2575707233261E+00
 0.1990890029125E+00 -0.2779641237089E+00
 0.1863496503357E+00 -0.2981913938938E+00
 0.1689822583738E+00 -0.3201032869632E+00
 0.1470560681665E+00 -0.3463254167218E+00
 0.1216106993806E+00 -0.3778410616367E+00
 0.9329420776654E-01 -0.4153408248567E+00
 0.6220946624295E-01 -0.4593137390415E+00
 0.2808002496680E-01 -0.5105098154942E+00
-0.9661701750531E-02 -0.5698613171519E+00
 0.3735140599035E-01 -0.3147379819650E-01
 0.8765957053724E-01 -0.5855106128230E-01
 0.1293416000157E+00 -0.8791132527820E-01
 0.1624611189142E+00 -0.1174410444853E+00
 0.1874719339243E+00 -0.1455414997753E+00
 0.2051647713672E+00 -0.1713984195118E+00
 0.2163433881942E+00 -0.1948058624979E+00
 0.2216542637776E+00 -0.2159554832354E+00
 0.2216473904480E+00 -0.2352485531170E+00
 0.2166779329631E+00 -0.2532167288601E+00
 0.2069318387443E+00 -0.2705589080354E+00
 0.1928071124922E+00 -0.2876416577814E+00
 0.1738937110892E+00 -0.3065506062208E+00
 0.1504550350175E+00 -0.3302741109017E+00
 0.1236227470099E+00 -0.3599189098234E+00
 0.9408056704935E-01 -0.3962571120110E+00
 0.6187684534363E-01 -0.4398358554456E+00
 0.2668445570924E-01 -0.4915686518089E+00
-0.1211618148099E-01 -0.5526603243361E+00
 0.4155696468271E-01 -0.3355362627187E-01
 0.9476098553965E-01 -0.6281352821706E-01
 0.1382549895366E+00 -0.9396790552071E-01
 0.1722825678185E+00 -0.1243837437330E+00
 0.1975863464140E+00 -0.1522739766861E+00
 0.2151678960070E+00 -0.1769273458934E+00
 0.2259601208605E+00 -0.1983528932531E+00
 0.2306703454202E+00 -0.2169715033886E+00
 0.2298565327679E+00 -0.2333853568031E+00
 0.2238625444076E+00 -0.2482748334676E+00
 0.2128631354738E+00 -0.2624533592777E+00
 0.1972257516458E+00 -0.2763297029236E+00
 0.1766512288221E+00 -0.2922026567738E+00
 0.1516164864973E+00 -0.3133822082692E+00
 0.1233429047668E+00 -0.3410671066588E+00
 0.9254880751335E-01 -0.3760943095914E+00
 0.5922936634783E-01 -0.4190695468606E+00
 0.2302117962389E-01 -0.4710915467416E+00
-0.1672012116545E-01 -0.5336917432905E+00
 0.4600518829523E-01 -0.3609009751720E-01
 0.1019739110342E+00 -0.6795736477175E-01
 0.1469254291298E+00 -0.1011380140926E+00
 0.1814550546630E+00 -0.1323858102470E+00
 0.2067044797015E+00 -0.1597858609383E+00
 0.2239147446273E+00 -0.1828591804315E+00
 0.2341385481867E+00 -0.2019377913858E+00
 0.2381190727596E+00 -0.2177319659979E+00
 0.2363961015094E+00 -0.2310631666837E+00
 0.2292844465857E+00 -0.2427554386989E+00
 0.2169386590951E+00 -0.2537231441104E+00
 0.1996893243750E+00 -0.2644037409820E+00
 0.1773632749242E+00 -0.2772847735416E+00
 0.1506623726191E+00 -0.2959461842663E+00
 0.1208905599782E+00 -0.3216379141773E+00
 0.8879411026956E-01 -0.3552360011817E+00
 0.5431564433135E-01 -0.3973969317079E+00
 0.1707261827868E-01 -0.4494164615476E+00
-0.2356803176826E-01 -0.5132011017641E+00
 0.5076363669812E-01 -0.3923242796513E-01
 0.1092668370606E+00 -0.7422872219621E-01
 0.1552108347979E+00 -0.1096484053575E+00
 0.1897883322912E+00 -0.1415564797737E+00
 0.2146513847097E+00 -0.1680499391059E+00
 0.2312811560826E+00 -0.1890773455723E+00
 0.2408137459178E+00 -0.2054207149698E+00
 0.2439872932570E+00 -0.2181242550442E+00
 0.2412940214358E+00 -0.2282223162485E+00
 0.2330046798930E+00 -0.2366612618625E+00
 0.2192486107665E+00 -0.2444368132152E+00
 0.2003190050601E+00 -0.2520015838914E+00
 0.1761812711670E+00 -0.2620087358221E+00
 0.1477658976770E+00 -0.2782508383945E+00
 0.1164465797367E+00 -0.3019809841493E+00
 0.8298233136660E-01 -0.3340797484036E+00
 0.4725889482421E-01 -0.3752357238416E+00
 0.8889416499870E-02 -0.4269375538321E+00
-0.3270709561903E-01 -0.4915004420436E+00
 0.5591134132787E-01 -0.4319735997606E-01
 0.1165594944206E+00 -0.8195679961357E-01
 0.1628954726323E+00 -0.1197531325235E+00
 0.1970431922776E+00 -0.1519525051296E+00
 0.2212453041323E+00 -0.1769441247247E+00
 0.2371682751272E+00 -0.1953804837007E+00
 0.2459595522272E+00 -0.2086119221791E+00
 0.2483006490961E+00 -0.2180164486949E+00
 0.2446124603602E+00 -0.2247983131005E+00
 0.2351146571298E+00 -0.2299918792378E+00
 0.2199121583936E+00 -0.2346543246283E+00
 0.1992666386643E+00 -0.2392438828138E+00
 0.1732917248428E+00 -0.2465613742397E+00
 0.1431433044079E+00 -0.2605537091161E+00
 0.1102466284787E+00 -0.2824242804931E+00
 0.7534797487660E-01 -0.3130168817954E+00
 0.3826288850012E-01 -0.3530226468178E+00
-0.1394634588106E-02 -0.4040977861317E+00
-0.4411729744089E-01 -0.4689727044500E+00
 0.6153275562355E-01 -0.4831373860586E-01
 0.1236810734486E+00 -0.9158968143432E-01
 0.1696591272749E+00 -0.1317114280548E+00
 0.2029392048652E+00 -0.1635140501077E+00
 0.2263271726103E+00 -0.1862060462953E+00
 0.2415296426295E+00 -0.2014786753973E+00
 0.2496012566345E+00 -0.2112938860912E+00
 0.2511249342958E+00 -0.2172781486547E+00
 0.2464436735619E+00 -0.2207337518496E+00
 0.2357296616264E+00 -0.2227472207558E+00
 0.2190699089528E+00 -0.2244244120426E+00
 0.1967063693210E+00 -0.2262271952931E+00
 0.1689065120940E+00 -0.2310942911667E+00
 0.1370427991699E+00 -0.2430712437472E+00
 0.1025696089930E+00 -0.2632551770783E+00
 0.6618538745627E-01 -0.2924088750124E+00
 0.2761155740630E-01 -0.3311895099307E+00
-0.1354914129222E-01 -0.3813740217971E+00
-0.5768605562062E-01 -0.4460729941739E+00
 0.6769707806924E-01 -0.5511096991583E-01
 0.1302876150876E+00 -0.1037497560158E+00
 0.1750486292896E+00 -0.1457105778117E+00
 0.2071959948613E+00 -0.1759536935196E+00
 0.2298180341501E+00 -0.1953929676927E+00
 0.2443971484894E+00 -0.2070345058643E+00
 0.2518178182092E+00 -0.2132610341085E+00
 0.2525600483964E+00 -0.2158030277582E+00
 0.2469014725755E+00 -0.2159872094301E+00
 0.2349800562753E+00 -0.2149281769846E+00
 0.2168751497990E+00 -0.2137804359313E+00
 0.1928256440188E+00 -0.2130170329538E+00
 0.1632525865273E+00 -0.2157158827469E+00
 0.1297321582976E+00 -0.2259688310096E+00
 0.9372261674212E-01 -0.2447060207539E+00
 0.5583164813403E-01 -0.2725633484230E+00
 0.1565764944033E-01 -0.3101317591749E+00
-0.2724070822964E-01 -0.3592497012409E+00
-0.7317672911198E-01 -0.4233233349827E+00
 0.7437785972237E-01 -0.6453712283164E-01
 0.1357069597022E+00 -0.1192846488172E+00
 0.1784801251660E+00 -0.1616619388899E+00
 0.2096786496944E+00 -0.1885532488036E+00
 0.2317758205670E+00 -0.2039720618870E+00
 0.2458800009767E+00 -0.2117427644464E+00
 0.2527305435700E+00 -0.2143590107646E+00
 0.2527274658311E+00 -0.2135228680482E+00
 0.2461103770993E+00 -0.2105360312926E+00
 0.2330013498759E+00 -0.2065346331185E+00
 0.2134846629784E+00 -0.2027342868744E+00
 0.1878166898903E+00 -0.1996406914119E+00
 0.1565627382013E+00 -0.2004856845177E+00
 0.1214873301390E+00 -0.2093569684616E+00
 0.8402500062781E-01 -0.2269461832940E+00
 0.4464533166962E-01 -0.2537196897009E+00
 0.2793282441488E-02 -0.2901714470533E+00
-0.4204378406920E-01 -0.3381697204913E+00
-0.9019668790932E-01 -0.4012902380214E+00
 0.8122061357791E-01 -0.7851176697060E-01
 0.1384882894705E+00 -0.1393631251075E+00
 0.1796931078547E+00 -0.1782653194060E+00
 0.2105305049109E+00 -0.2004237496123E+00
 0.2323694642227E+00 -0.2114957560809E+00
 0.2461398706215E+00 -0.2153971814897E+00
 0.2524820516057E+00 -0.2145012666427E+00
 0.2517569970532E+00 -0.2104075913016E+00
 0.2441945667727E+00 -0.2043763587254E+00
 0.2299239430533E+00 -0.1975614627600E+00
 0.2090489136468E+00 -0.1912698111447E+00
 0.1818689935553E+00 -0.1860753020507E+00
 0.1490702503935E+00 -0.1854115886960E+00
 0.1125851691285E+00 -0.1932953198932E+00
 0.7379379375157E-01 -0.2100843777979E+00
 0.3298383033783E-01 -0.2360392730406E+00
-0.1057584560476E-01 -0.2715512196692E+00
-0.5751076227397E-01 -0.3184604772041E+00
-0.1081750887688E+00 -0.3805266685461E+00
-0.7026988293562E+00 -0.3855568168903E+00
-0.7083335266162E+00 -0.3813522976057E+00
-0.7129707104391E+00 -0.3768499948751E+00
-0.7166537723315E+00 -0.3721110850039E+00
-0.7194247746034E+00 -0.3672128337689E+00
-0.7213308910719E+00 -0.3622355526502E+00
-0.7224244085242E+00 -0.3572579723958E+00
-0.7227631352411E+00 -0.3523555486955E+00
-0.7224103622377E+00 -0.3475995778098E+00
-0.7214345401146E+00 -0.3430565014456E+00
-0.7199086355541E+00 -0.3387872221395E+00
-0.7179092284694E+00 -0.3348464381598E+00
-0.7155154512321E+00 -0.3312820678790E+00
-0.7128079101021E+00 -0.3281348388212E+00
-0.7098677579138E+00 -0.3254380914849E+00
-0.7067760968516E+00 -0.3232178062816E+00
-0.7036140033114E+00 -0.3214928705180E+00
-0.7004632772746E+00 -0.3202756029332E+00
-0.6974111650605E+00 -0.3195738293285E+00
-0.7005020332558E+00 -0.3977777409074E+00
-0.7064593294479E+00 -0.3936309362113E+00
-0.7113929056381E+00 -0.3891540236012E+00
-0.7153173394062E+00 -0.3843760296102E+00
-0.7182658099706E+00 -0.3793578171544E+00
-0.7202788383220E+00 -0.3741741473431E+00
-0.7214032839609E+00 -0.3689053530811E+00
-0.7216924495568E+00 -0.3636328152388E+00
-0.7212064595540E+00 -0.3584364253161E+00
-0.7200123074355E+00 -0.3533928967463E+00
-0.7181834797916E+00 -0.3485744357893E+00
-0.7157991656898E+00 -0.3440475890888E+00
-0.7129431439766E+00 -0.3398722561459E+00
-0.7097024975983E+00 -0.3361009353716E+00
-0.7061663505366E+00 -0.3327782958205E+00
-0.7024248655941E+00 -0.3299411569122E+00
-0.6985686695215E+00 -0.3276189220965E+00
-0.6946890426197E+00 -0.3258346018247E+00
-0.6908772016508E+00 -0.3246068013293E+00
-0.6979471170580E+00 -0.4110770307104E+00
-0.7042334042656E+00 -0.4070785247088E+00
-0.7094936235773E+00 -0.4026879149683E+00
-0.7137094211658E+00 -0.3979319711868E+00
-0.7168925197346E+00 -0.3928602481052E+00
-0.7190698375111E+00 -0.3875400064124E+00
-0.7202782691664E+00 -0.3820491074290E+00
-0.7205634967905E+00 -0.3764710692542E+00
-0.7199799282904E+00 -0.3708916002084E+00
-0.7185908243351E+00 -0.3653960613257E+00
-0.7164681453926E+00 -0.3600674078217E+00
-0.7136919545139E+00 -0.3549843864435E+00
-0.7103493478879E+00 -0.3502199325087E+00
-0.7065329878222E+00 -0.3458398304450E+00
-0.7023394052888E+00 -0.3419017720213E+00
-0.6978673053369E+00 -0.3384549624877E+00
-0.6932161585726E+00 -0.3355403837933E+00
-0.6884850290803E+00 -0.3331916889792E+00
-0.6837712433014E+00 -0.3314360969428E+00
-0.6950102223403E+00 -0.4254176665739E+00
-0.7016547863290E+00 -0.4216964878393E+00
-0.7072684712979E+00 -0.4174986132443E+00
-0.7118131243393E+00 -0.4128567892596E+00
-0.7152783013328E+00 -0.4078176265707E+00
-0.7176725419813E+00 -0.4024432132559E+00
-0.7190180181999E+00 -0.3968082905028E+00
-0.7193484355162E+00 -0.3909965807362E+00
-0.7187085884467E+00 -0.3850975563832E+00
-0.7171544715813E+00 -0.3792036582106E+00
-0.7147533592566E+00 -0.3734078018454E+00
-0.7115835063828E+00 -0.3678010200309E+00
-0.7077332828132E+00 -0.3624701924510E+00
-0.7032996695906E+00 -0.3574959323956E+00
-0.6983861678565E+00 -0.3529508072439E+00
-0.6931003204730E+00 -0.3488981396412E+00
-0.6875511662240E+00 -0.3453916259026E+00
-0.6818470929868E+00 -0.3424758330237E+00
-0.6760947699733E+00 -0.3401873124641E+00
-0.6916457989286E+00 -0.4407737151664E+00
-0.6986890804222E+00 -0.4374735742995E+00
-0.7046920465649E+00 -0.4336021020876E+00
-0.7096042848512E+00 -0.4291959967501E+00
-0.7133968131322E+00 -0.4243011453181E+00
-0.7160588735271E+00 -0.4189763502648E+00
-0.7175948005754E+00 -0.4132933076241E+00
-0.7180223906509E+00 -0.4073348395819E+00
-0.7173725706932E+00 -0.4011925788768E+00
-0.7156897526791E+00 -0.3949645500063E+00
-0.7130323363754E+00 -0.3887526814504E+00
-0.7094729522231E+00 -0.3826601845142E+00
-0.7050981189808E+00 -0.3767887543567E+00
-0.7000070622246E+00 -0.3712356419999E+00
-0.6943095406674E+00 -0.3660907815873E+00
-0.6881227018427E+00 -0.3614343076494E+00
-0.6815672741439E+00 -0.3573349070549E+00
-0.6747637756094E+00 -0.3538494695696E+00
-0.6678299062876E+00 -0.3510244378774E+00
-0.6878008451380E+00 -0.4571181322712E+00
-0.6952856730804E+00 -0.4543925574866E+00
-0.7017197401754E+00 -0.4509992072206E+00
-0.7070430568911E+00 -0.4469740542656E+00
-0.7112107541780E+00 -0.4423606656478E+00
-0.7141932911058E+00 -0.4372140582543E+00
-0.7159755430405E+00 -0.4316021020405E+00
-0.7165563114116E+00 -0.4256052696042E+00
-0.7159486214079E+00 -0.4193154839292E+00
-0.7141806432645E+00 -0.4128344663886E+00
-0.7112969007607E+00 -0.4062716984682E+00
-0.7073593951512E+00 -0.3997419514262E+00
-0.7024482537826E+00 -0.3933622976203E+00
-0.6966614820639E+00 -0.3872485615754E+00
-0.6901133885139E+00 -0.3815113006563E+00
-0.6829313464476E+00 -0.3762516313108E+00
-0.6752508504490E+00 -0.3715575142701E+00
-0.6672093472186E+00 -0.3675013888510E+00
-0.6589398748974E+00 -0.3641401964459E+00
-0.6834172718121E+00 -0.4744168290240E+00
-0.6913841342459E+00 -0.4724279976843E+00
-0.6982927565710E+00 -0.4696787533507E+00
-0.7040737343682E+00 -0.4661995458369E+00
-0.7086675455939E+00 -0.4620284206100E+00
-0.7120263524513E+00 -0.4572143686839E+00
-0.7141146408280E+00 -0.4518193539562E+00
-0.7149098382266E+00 -0.4459191377292E+00
-0.7144034185582E+00 -0.4396032426721E+00
-0.7126025810293E+00 -0.4329742990054E+00
-0.7095323712183E+00 -0.4261468396908E+00
-0.7052379920730E+00 -0.4192454636605E+00
-0.6997869466585E+00 -0.4124021908142E+00
-0.6932705140045E+00 -0.4057527998139E+00
-0.6858038758324E+00 -0.3994319942939E+00
-0.6775240485119E+00 -0.3935674538408E+00
-0.6685848249560E+00 -0.3882732707673E+00
-0.6591484322043E+00 -0.3836439036045E+00
-0.6493744976023E+00 -0.3797502850163E+00
-0.6784265908155E+00 -0.4926237400987E+00
-0.6869064386572E+00 -0.4915424863749E+00
-0.6943279835598E+00 -0.4896170566945E+00
-0.7006119429919E+00 -0.4868684129097E+00
-0.7056846507580E+00 -0.4833254935165E+00
-0.7094803144154E+00 -0.4790280647860E+00
-0.7119424668895E+00 -0.4740290074308E+00
-0.7130253463252E+00 -0.4683958952795E+00
-0.7126956708656E+00 -0.4622119573978E+00
-0.7109350225981E+00 -0.4555765239078E+00
-0.7077428831471E+00 -0.4486049583049E+00
-0.7031402430272E+00 -0.4414279481593E+00
-0.6971735810538E+00 -0.4341898901021E+00
-0.6899188159912E+00 -0.4270459727757E+00
-0.6814845061989E+00 -0.4201574562051E+00
-0.6720130589561E+00 -0.4136846420214E+00
-0.6616781135678E+00 -0.4077773570364E+00
-0.6506761778103E+00 -0.4025637275343E+00
-0.6392118101004E+00 -0.3981393909180E+00
-0.6727487553715E+00 -0.5116757374557E+00
-0.6817549170080E+00 -0.5116800676420E+00
-0.6897148277721E+00 -0.5107711781744E+00
-0.6965394303024E+00 -0.5089576801811E+00
-0.7021416374937E+00 -0.5062561785509E+00
-0.7064384234520E+00 -0.5026937766294E+00
-0.7093524878062E+00 -0.4983104745807E+00
-0.7108139454964E+00 -0.4931612763526E+00
-0.7107624264327E+00 -0.4873179963188E+00
-0.7091498593781E+00 -0.4808707964826E+00
-0.7059441277933E+00 -0.4739294339820E+00
-0.7011337255009E+00 -0.4666240914191E+00
-0.6947334751254E+00 -0.4591055090716E+00
-0.6867912432733E+00 -0.4515439269033E+00
-0.6773952862779E+00 -0.4441260529268E+00
-0.6666812103960E+00 -0.4370489071792E+00
-0.6548361829957E+00 -0.4305090508267E+00
-0.6420960734993E+00 -0.4246861949874E+00
-0.6287309290675E+00 -0.4197227158323E+00
-0.6663036108947E+00 -0.5314891132484E+00
-0.6758314725063E+00 -0.5327602100893E+00
-0.6843393637114E+00 -0.5330690629432E+00
-0.6917294331457E+00 -0.5324103903905E+00
-0.6979025585334E+00 -0.5307862413232E+00
-0.7027599624840E+00 -0.5282082515617E+00
-0.7062046681254E+00 -0.5247000445059E+00
-0.7081430693151E+00 -0.5202996482769E+00
-0.7084869229858E+00 -0.5150619178915E+00
-0.7071560563768E+00 -0.5090609966994E+00
-0.7040820782184E+00 -0.5023928354331E+00
-0.6992134092265E+00 -0.4951777196033E+00
-0.6925220001112E+00 -0.4875626309655E+00
-0.6840121581214E+00 -0.4797230545767E+00
-0.6737318854553E+00 -0.4718634695085E+00
-0.6617868315079E+00 -0.4642150948550E+00
-0.6483558945574E+00 -0.4570283279429E+00
-0.6337038285222E+00 -0.4505554863543E+00
-0.6181791697089E+00 -0.4450200964729E+00
-0.6590122410502E+00 -0.5519573613858E+00
-0.6690392557128E+00 -0.5546742177678E+00
-0.6780866863305E+00 -0.5564043602152E+00
-0.6860496396323E+00 -0.5571285243630E+00
-0.6928190399685E+00 -0.5568334482427E+00
-0.6982826688051E+00 -0.5555138781803E+00
-0.7023261602646E+00 -0.5531748271812E+00
-0.7048341266839E+00 -0.5498340413994E+00
-0.7056916489609E+00 -0.5455247043339E+00
-0.7047864013633E+00 -0.5402984589186E+00
-0.7020117311305E+00 -0.5342288480647E+00
-0.6972711087920E+00 -0.5274152659676E+00
-0.6904845302951E+00 -0.5199874686755E+00
-0.6815977156908E+00 -0.5121105844828E+00
-0.6705953407174E+00 -0.5039903172218E+00
-0.6575200728922E+00 -0.4958774668003E+00
-0.6424996009342E+00 -0.4880695406176E+00
-0.6257833884675E+00 -0.4809040088666E+00
-0.6077798603649E+00 -0.4747290970813E+00
-0.6507979924308E+00 -0.5729502284727E+00
-0.6612832981654E+00 -0.5772831995698E+00
-0.6708418105131E+00 -0.5806330092899E+00
-0.6793637647634E+00 -0.5829677907567E+00
-0.6867326592860E+00 -0.5842599492926E+00
-0.6928257318094E+00 -0.5844878481600E+00
-0.6975143964881E+00 -0.5836377619746E+00
-0.7006647503372E+00 -0.5817061124939E+00
-0.7021383097245E+00 -0.5787020561722E+00
-0.7017931810349E+00 -0.5746505491768E+00
-0.6994859328791E+00 -0.5695960696252E+00
-0.6950745502227E+00 -0.5636072330502E+00
-0.6884230540367E+00 -0.5567826014868E+00
-0.6794087319215E+00 -0.5492580601185E+00
-0.6679335790532E+00 -0.5412162018222E+00
-0.6539427540330E+00 -0.5328981483355E+00
-0.6374552143711E+00 -0.5246178715163E+00
-0.6186160339248E+00 -0.5167773818078E+00
-0.5977900262399E+00 -0.5098731934771E+00
-0.6415885213892E+00 -0.5943136636110E+00
-0.6524727291243E+00 -0.6004171635818E+00
-0.6624925791265E+00 -0.6055709604234E+00
-0.6715356075064E+00 -0.6097332990671E+00
-0.6794804430461E+00 -0.6128649536007E+00
-0.6861967873919E+00 -0.6149305485400E+00
-0.6915453053528E+00 -0.6159001038844E+00
-0.6953774846201E+00 -0.6157508398938E+00
-0.6975355519261E+00 -0.6144693200187E+00
-0.6978525576341E+00 -0.6120540658892E+00
-0.6961527788373E+00 -0.6085188483161E+00
-0.6922526629758E+00 -0.6038969541521E+00
-0.6859626722708E+00 -0.5982468720073E+00
-0.6770906561267E+00 -0.5916600669993E+00
-0.6654479065983E+00 -0.5842718923952E+00
-0.6508601582731E+00 -0.5762773379047E+00
-0.6331882983080E+00 -0.5679545114276E+00
-0.6123699865267E+00 -0.5597008761254E+00
-0.5885129400106E+00 -0.5520923065075E+00
-0.6313185301436E+00 -0.6158708038834E+00
-0.6425242408378E+00 -0.6238754363644E+00
-0.6529343468370E+00 -0.6309934921310E+00
-0.6624355135382E+00 -0.6371769770148E+00
-0.6709036675050E+00 -0.6423790574594E+00
-0.6782035451208E+00 -0.6465550719062E+00
-0.6841880841776E+00 -0.6496637135594E+00
-0.6886976785037E+00 -0.6516684149196E+00
-0.6915593169726E+00 -0.6525389952956E+00
-0.6925856240349E+00 -0.6522536766059E+00
-0.6915738128550E+00 -0.6508016348123E+00
-0.6883045586267E+00 -0.6481863476499E+00
-0.6825408045423E+00 -0.6444301502639E+00
-0.6740265367977E+00 -0.6395806695456E+00
-0.6624856327572E+00 -0.6337202777603E+00
-0.6476210667819E+00 -0.6269806152696E+00
-0.6291152252444E+00 -0.6195661245170E+00
-0.6066337758024E+00 -0.6117951261331E+00
-0.5798395229377E+00 -0.6041788992764E+00
-0.6199327692569E+00 -0.6374241668507E+00
-0.6313661870878E+00 -0.6474287720544E+00
-0.6420757160802E+00 -0.6566368688995E+00
-0.6519484857893E+00 -0.6649981098748E+00
-0.6608592898106E+00 -0.6724625149305E+00
-0.6686697223603E+00 -0.6789813140806E+00
-0.6752270831834E+00 -0.6845079501672E+00
-0.6803630351707E+00 -0.6889992666387E+00
-0.6838919775168E+00 -0.6924169291724E+00
-0.6856090637251E+00 -0.6947291631025E+00
-0.6852877418771E+00 -0.6959129352467E+00
-0.6826766129187E+00 -0.6959567784568E+00
-0.6774952683116E+00 -0.6948645680097E+00
-0.6694285340563E+00 -0.6926607442318E+00
-0.6581181114295E+00 -0.6893978006389E+00
-0.6431497192614E+00 -0.6851674574057E+00
-0.6240319031471E+00 -0.6801181297411E+00
-0.6001573643450E+00 -0.6744838545492E+00
-0.5707238944166E+00 -0.6686363236397E+00
-0.6073886895714E+00 -0.6587594624801E+00
-0.6189422847388E+00 -0.6708241105805E+00
-0.6298438398717E+00 -0.6822041288452E+00
-0.6399819109862E+00 -0.6928501006932E+00
-0.6492312937932E+00 -0.7027126234060E+00
-0.6574517400474E+00 -0.7117430783699E+00
-0.6644863651058E+00 -0.7198945762455E+00
-0.6701596977935E+00 -0.7271230971336E+00
-0.6742752866253E+00 -0.7333888644849E+00
-0.6766127220036E+00 -0.7386580130088E+00
-0.6769238509969E+00 -0.7429046366523E+00
-0.6749278305000E+00 -0.7461133346076E+00
-0.6703044504490E+00 -0.7482824125644E+00
-0.6626847920169E+00 -0.7494279410750E+00
-0.6516376238006E+00 -0.7495889094989E+00
-0.6366486693228E+00 -0.7488336865818E+00
-0.6170872220321E+00 -0.7472677192398E+00
-0.5921486769629E+00 -0.7450409996341E+00
-0.5607443477505E+00 -0.7423483955804E+00
-0.5936584229758E+00 -0.6796504957367E+00
-0.6052143146350E+00 -0.6937912458612E+00
-0.6161881780970E+00 -0.7073742565363E+00
-0.6264708714970E+00 -0.7203531908921E+00
-0.6359382878339E+00 -0.7326814806988E+00
-0.6444496677110E+00 -0.7443130030739E+00
-0.6518455422100E+00 -0.7552029241042E+00
-0.6579452345913E+00 -0.7653087113727E+00
-0.6625438085690E+00 -0.7745913251990E+00
-0.6654082926715E+00 -0.7830166005489E+00
-0.6662729247933E+00 -0.7905568253081E+00
-0.6648330329291E+00 -0.7971924993741E+00
-0.6607369715367E+00 -0.8029142082303E+00
-0.6535752248576E+00 -0.8077244325812E+00
-0.6428652954937E+00 -0.8116388699235E+00
-0.6280302069249E+00 -0.8146862969729E+00
-0.6083672204583E+00 -0.8169047026690E+00
-0.5830019809688E+00 -0.8183283067775E+00
-0.5508245043062E+00 -0.8189504688816E+00
-0.5787299033790E+00 -0.6998644798265E+00
-0.5901635056612E+00 -0.7160501598043E+00
-0.6010821884565E+00 -0.7318124978704E+00
-0.6113801760029E+00 -0.7471091702529E+00
-0.6209358706979E+00 -0.7618972005600E+00
-0.6296098338649E+00 -0.7761334554750E+00
-0.6372423717370E+00 -0.7897752625174E+00
-0.6436506511310E+00 -0.8027811250902E+00
-0.6486252372995E+00 -0.8151115054804E+00
-0.6519259030625E+00 -0.8267296291748E+00
-0.6532764993842E+00 -0.8376022291677E+00
-0.6523585990016E+00 -0.8477000863638E+00
-0.6488035236081E+00 -0.8569981120181E+00
-0.6421822458244E+00 -0.8654745233916E+00
-0.6319925539976E+00 -0.8731083151841E+00
-0.6176428999253E+00 -0.8798735931895E+00
-0.5984330039764E+00 -0.8857281959881E+00
-0.5735338092642E+00 -0.8905920103053E+00
-0.5419817632469E+00 -0.8943088940536E+00
-0.5626071396911E+00 -0.7191672179335E+00
-0.5737906414041E+00 -0.7373180301069E+00
-0.5845231261397E+00 -0.7551799190656E+00
-0.5947036098879E+00 -0.7727144540788E+00
-0.6042149312530E+00 -0.7898817901668E+00
-0.6129215264609E+00 -0.8066408857369E+00
-0.6206668292538E+00 -0.8229497698390E+00
-0.6272702342416E+00 -0.8387658110563E+00
-0.6325235489715E+00 -0.8540459253839E+00
-0.6361868426615E+00 -0.8687466317849E+00
-0.6379835824125E+00 -0.8828238165024E+00
-0.6375949376447E+00 -0.8962319921860E+00
-0.6346531467684E+00 -0.9089227220421E+00
-0.6287339149391E+00 -0.9208417029639E+00
-0.6193480327976E+00 -0.9319237406293E+00
-0.6059329805990E+00 -0.9420844936349E+00
-0.5878465770564E+00 -0.9512074923953E+00
-0.5643678971237E+00 -0.9591250845484E+00
-0.5347128621476E+00 -0.9655951125308E+00
-0.5453098756733E+00 -0.7373277858973E+00
-0.5561153220730E+00 -0.7573153212758E+00
-0.5665306785182E+00 -0.7771414130773E+00
-0.5764615866490E+00 -0.7967706291309E+00
-0.5857977857459E+00 -0.8161649880253E+00
-0.5944108444549E+00 -0.8352838274372E+00
-0.6021515734666E+00 -0.8540836433007E+00
-0.6088470873465E+00 -0.8725178392707E+00
-0.6142974882837E+00 -0.8905363077215E+00
-0.6182721545826E+00 -0.9080847343333E+00
-0.6205056388158E+00 -0.9251034753491E+00
-0.6206932269842E+00 -0.9415257966879E+00
-0.6184863026402E+00 -0.9572751851317E+00
-0.6134878373953E+00 -0.9722613469398E+00
-0.6052486606898E+00 -0.9863744189734E+00
-0.5932657351241E+00 -0.9994769025461E+00
-0.5769846059060E+00 -0.1011393081814E+01
-0.5558088533565E+00 -0.1021896721713E+01
-0.5291186161381E+00 -0.1030699334520E+01
-0.5268733777642E+00 -0.7541239005387E+00
-0.5371757926860E+00 -0.7757734222139E+00
-0.5471465358401E+00 -0.7973759024413E+00
-0.5567000247128E+00 -0.8188975477358E+00
-0.5657357588448E+00 -0.8403005765344E+00
-0.5741361735373E+00 -0.8615427105628E+00
-0.5817642555615E+00 -0.8825765705488E+00
-0.5884609210098E+00 -0.9033489162483E+00
-0.5940421752694E+00 -0.9237996555527E+00
-0.5982961041793E+00 -0.9438605266612E+00
-0.6009797917499E+00 -0.9634533307552E+00
-0.6018163334042E+00 -0.9824875622552E+00
-0.6004922289386E+00 -0.1000857256124E+01
-0.5966556149600E+00 -0.1018436863058E+01
-0.5899160448757E+00 -0.1035076010097E+01
-0.5798468322487E+00 -0.1050593175319E+01
-0.5659911482192E+00 -0.1064768722537E+01
-0.5478727629533E+00 -0.1077338363319E+01
-0.5250113300066E+00 -0.1087988747395E+01
-0.5073491400020E+00 -0.7693499514869E+00
-0.5170308599991E+00 -0.7924478053269E+00
-0.5264371876119E+00 -0.8155948110006E+00
-0.5354935717243E+00 -0.8387572433670E+00
-0.5441122349544E+00 -0.8618957751659E+00
-0.5521902944450E+00 -0.8849646071451E+00
-0.5596077314303E+00 -0.9079104592297E+00
-0.5662252374145E+00 -0.9306713737745E+00
-0.5718819901498E+00 -0.9531752744014E+00
-0.5763934495059E+00 -0.9753382162073E+00
-0.5795493153160E+00 -0.9970622566945E+00
-0.5811118608376E+00 -0.1018232876220E+01
-0.5808149493239E+00 -0.1038715891101E+01
-0.5783641529042E+00 -0.1058353847966E+01
-0.5734385003155E+00 -0.1076961989412E+01
-0.5656944109370E+00 -0.1094324069708E+01
-0.5547722075985E+00 -0.1110188565494E+01
-0.5403051340471E+00 -0.1124266099721E+01
-0.5219300306496E+00 -0.1136229030063E+01
-0.4868017653239E+00 -0.7828178196641E+00
-0.4957544822546E+00 -0.8071170039136E+00
-0.5044862760799E+00 -0.8315393932006E+00
-0.5129358022824E+00 -0.8560497650914E+00
-0.5210308284530E+00 -0.8806056532511E+00
-0.5286867279159E+00 -0.9051561667631E+00
-0.5358049036955E+00 -0.9296406524038E+00
-0.5422711841317E+00 -0.9539871672677E+00
-0.5479542565110E+00 -0.9781107316766E+00
-0.5527042387289E+00 -0.1001911337678E+01
-0.5563515322911E+00 -0.1025271699393E+01
-0.5587061517726E+00 -0.1048054752134E+01
-0.5595577804707E+00 -0.1070100944032E+01
-0.5586768446296E+00 -0.1091225424972E+01
-0.5558168980271E+00 -0.1111215329962E+01
-0.5507185181746E+00 -0.1129827470834E+01
-0.5431146915529E+00 -0.1146786860790E+01
-0.5327373073154E+00 -0.1161786537728E+01
-0.5193239684890E+00 -0.1174489045959E+01
-0.4653071044514E+00 -0.7943584746087E+00
-0.4734329597277E+00 -0.8195835476672E+00
-0.4813907602646E+00 -0.8449809530770E+00
-0.4891342991098E+00 -0.8705125654244E+00
-0.4966093532806E+00 -0.8961314842493E+00
-0.5037526174384E+00 -0.9217806181509E+00
-0.5104906340710E+00 -0.9473911122769E+00
-0.5167387608296E+00 -0.9728806047094E+00
-0.5224002342060E+00 -0.9981513076503E+00
-0.5273654119098E+00 -0.1023087924894E+01
-0.5315113033523E+00 -0.1047555439528E+01
-0.5347015249288E+00 -0.1071396837183E+01
-0.5367868365111E+00 -0.1094430872297E+01
-0.5376064140212E+00 -0.1116450037588E+01
-0.5369899713238E+00 -0.1137218953983E+01
-0.5347607456619E+00 -0.1156473443164E+01
-0.5307392032216E+00 -0.1173920548809E+01
-0.5247471370784E+00 -0.1189239702311E+01
-0.5166116942538E+00 -0.1202085063091E+01
-0.4429510623814E+00 -0.8038241422678E+00
-0.4501635134498E+00 -0.8296763510304E+00
-0.4572592011455E+00 -0.8557233451237E+00
-0.4642085915485E+00 -0.8819229362823E+00
-0.4709773901199E+00 -0.9082228584143E+00
-0.4775259477033E+00 -0.9345592037127E+00
-0.4838087101528E+00 -0.9608547140146E+00
-0.4897737411353E+00 -0.9870169273573E+00
-0.4953623549813E+00 -0.1012936194665E+01
-0.5005089053503E+00 -0.1038483603057E+01
-0.5051407847132E+00 -0.1063508870413E+01
-0.5091786958757E+00 -0.1087838310108E+01
-0.5125372546731E+00 -0.1111273003501E+01
-0.5151259662001E+00 -0.1133587355785E+01
-0.5168505807356E+00 -0.1154528238118E+01
-0.5176147815737E+00 -0.1173814919593E+01
-0.5173220980800E+00 -0.1191139947889E+01
-0.5158778978336E+00 -0.1206171034999E+01
-0.5131913194538E+00 -0.1218553853420E+01
-0.4198284248755E+00 -0.8110901441011E+00
-0.4260529289713E+00 -0.8372527446665E+00
-0.4322102190872E+00 -0.8636050941195E+00
-0.4382884482439E+00 -0.8901000600130E+00
-0.4442744769639E+00 -0.9166794452472E+00
-0.4501537531560E+00 -0.9432723653642E+00
-0.4559102670625E+00 -0.9697934986089E+00
-0.4615265951283E+00 -0.9961412150794E+00
-0.4669840397565E+00 -0.1022195607261E+01
-0.4722628653013E+00 -0.1047816468053E+01
-0.4773426236804E+00 -0.1072841292123E+01
-0.4822025537975E+00 -0.1097083409848E+01
-0.4868220261505E+00 -0.1120330396915E+01
-0.4911809882642E+00 -0.1142342931299E+01
-0.4952603530532E+00 -0.1162854284166E+01
-0.4990422719978E+00 -0.1181570620962E+01
-0.5025102632647E+00 -0.1198172241807E+01
-0.5056492310269E+00 -0.1212315799468E+01
-0.5084455027477E+00 -0.1223637405605E+01
-0.3960418536095E+00 -0.8160564315193E+00
-0.4012165485698E+00 -0.8422001900015E+00
-0.4063715240579E+00 -0.8685012016086E+00
-0.4115130220643E+00 -0.8949067821095E+00
-0.4166494933979E+00 -0.9213525638419E+00
-0.4217919252012E+00 -0.9477608995618E+00
-0.4269542676482E+00 -0.9740391601372E+00
-0.4321539608277E+00 -0.1000077927275E+01
-0.4374125388009E+00 -0.1025749096300E+01
-0.4427562657829E+00 -0.1050903927996E+01
-0.4482167388721E+00 -0.1075371117799E+01
-0.4538313714311E+00 -0.1098954982183E+01
-0.4596436519848E+00 -0.1121433893061E+01
-0.4657030602368E+00 -0.1142559118476E+01
-0.4720645240928E+00 -0.1162054247119E+01
-0.4787873348124E+00 -0.1179615380290E+01
-0.4859335203019E+00 -0.1194912260445E+01
-0.4935658213163E+00 -0.1207590459103E+01
-0.5017456032147E+00 -0.1217274651174E+01
-0.3717009473254E+00 -0.8186489861747E+00
-0.3757773867800E+00 -0.8444379921444E+00
-0.3798791605423E+00 -0.8703251153060E+00
-0.3840303438099E+00 -0.8962517582053E+00
-0.3882605781792E+00 -0.9221474020695E+00
-0.3926057902606E+00 -0.9479281162391E+00
-0.3971090391174E+00 -0.9734949899796E+00
-0.4018214906074E+00 -0.9987324666340E+00
-0.4068034706696E+00 -0.1023506571572E+01
-0.4121255131069E+00 -0.1047663050138E+01
-0.4178692869471E+00 -0.1071025460485E+01
-0.4241282598748E+00 -0.1093393295031E+01
-0.4310079274474E+00 -0.1114540233497E+01
-0.4386254181205E+00 -0.1134212661060E+01
-0.4471082822235E+00 -0.1152128618215E+01
-0.4565923022419E+00 -0.1167977385147E+01
-0.4672182455281E+00 -0.1181419945688E+01
-0.4791276559705E+00 -0.1192090613906E+01
-0.4924580831414E+00 -0.1199600099817E+01
-0.3469212590830E+00 -0.8188211693210E+00
-0.3498651892290E+00 -0.8439191448025E+00
-0.3528767044026E+00 -0.8690310406744E+00
-0.3559968100808E+00 -0.8940921942043E+00
-0.3592751282711E+00 -0.9190261314334E+00
-0.3627709089873E+00 -0.9437432578175E+00
-0.3665542263789E+00 -0.9681395165378E+00
-0.3707073666142E+00 -0.9920949495960E+00
-0.3753263387750E+00 -0.1015472112520E+01
-0.3805223928436E+00 -0.1038114324986E+01
-0.3864233955796E+00 -0.1059843768168E+01
-0.3931748826735E+00 -0.1080459463318E+01
-0.4009405691014E+00 -0.1099735189490E+01
-0.4099020620409E+00 -0.1117417429000E+01
-0.4202574905792E+00 -0.1133223473836E+01
-0.4322187572648E+00 -0.1146839890994E+01
-0.4460071307646E+00 -0.1157921637460E+01
-0.4618469844547E+00 -0.1166092267452E+01
-0.4799577837775E+00 -0.1170945866298E+01
-0.3218235774918E+00 -0.8165552082414E+00
-0.3236160011205E+00 -0.8406326589547E+00
-0.3255152270860E+00 -0.8646171138501E+00
-0.3275777294544E+00 -0.8884378653566E+00
-0.3298711956515E+00 -0.9120127628827E+00
-0.3324756707455E+00 -0.9352471706898E+00
-0.3354850059603E+00 -0.9580329655526E+00
-0.3390086258177E+00 -0.9802474258982E+00
-0.3431735162822E+00 -0.1001751910981E+01
-0.3481262919540E+00 -0.1022390277306E+01
-0.3540351791520E+00 -0.1041987008681E+01
-0.3610917256743E+00 -0.1060345047495E+01
-0.3695120044273E+00 -0.1077243322185E+01
-0.3795370151354E+00 -0.1092433983451E+01
-0.3914319132053E+00 -0.1105639404078E+01
-0.4054836165919E+00 -0.1116549074002E+01
-0.4219962772058E+00 -0.1124816638821E+01
-0.4412839537616E+00 -0.1130057505786E+01
-0.4636596952514E+00 -0.1131847879991E+01
-0.2965330996944E+00 -0.8118640761275E+00
-0.2971715167906E+00 -0.8346068713980E+00
-0.2979529426084E+00 -0.8571301492317E+00
-0.2989475090054E+00 -0.8793573054623E+00
-0.3002385606147E+00 -0.9012007561620E+00
-0.3019236956349E+00 -0.9225613028999E+00
-0.3041163600865E+00 -0.9433276171769E+00
-0.3069479654414E+00 -0.9633755728887E+00
-0.3105703703728E+00 -0.9825672756299E+00
-0.3151585582224E+00 -0.1000749722188E+01
-0.3209133599152E+00 -0.1017753046903E+01
-0.3280640705861E+00 -0.1033388299420E+01
-0.3368707687604E+00 -0.1047444671479E+01
-0.3476260632706E+00 -0.1059686073517E+01
-0.3606558645807E+00 -0.1069846974405E+01
-0.3763186216616E+00 -0.1077627479368E+01
-0.3950022937024E+00 -0.1082687735502E+01
-0.4171182095590E+00 -0.1084641872175E+01
-0.4430900971138E+00 -0.1083051805452E+01
-0.2711783944119E+00 -0.8047938413885E+00
-0.2706779919382E+00 -0.8259139654594E+00
-0.2703542449213E+00 -0.8466722895240E+00
-0.2702891676150E+00 -0.8669864709341E+00
-0.2705791854563E+00 -0.8867635372195E+00
-0.2713358009126E+00 -0.9058999079201E+00
-0.2726872665174E+00 -0.9242815560294E+00
-0.2747810533003E+00 -0.9417838852039E+00
-0.2777868276201E+00 -0.9582711746429E+00
-0.2818997381272E+00 -0.9735955582754E+00
-0.2873439115835E+00 -0.9875955168147E+00
-0.2943761036869E+00 -0.1000093800734E+01
-0.3032894343390E+00 -0.1010894625118E+01
-0.3144170539193E+00 -0.1019779899847E+01
-0.3281354284277E+00 -0.1026504203807E+01
-0.3448666785604E+00 -0.1030788208814E+01
-0.3650791357781E+00 -0.1032310347056E+01
-0.3892850589441E+00 -0.1030696669481E+01
-0.4180350555332E+00 -0.1025508546256E+01
-0.2458899650555E+00 -0.7954261308482E+00
-0.2442844106099E+00 -0.8146753116630E+00
-0.2428878332891E+00 -0.8334089349239E+00
-0.2417929396253E+00 -0.8515388214939E+00
-0.2411069064858E+00 -0.8689662243041E+00
-0.2409514953907E+00 -0.8855829398402E+00
-0.2414648820240E+00 -0.9012723336541E+00
-0.2428045524183E+00 -0.9159098005037E+00
-0.2451507532882E+00 -0.9293626046966E+00
-0.2487102821553E+00 -0.9414892187744E+00
-0.2537206219909E+00 -0.9521382039704E+00
-0.2604545288714E+00 -0.9611465629458E+00
-0.2692252086754E+00 -0.9683373509480E+00
-0.2803921765831E+00 -0.9735161866429E+00
-0.2943677629064E+00 -0.9764661479864E+00
-0.3116239642886E+00 -0.9769403927091E+00
-0.3326988100426E+00 -0.9746517951663E+00
-0.3582009570717E+00 -0.9692591315608E+00
-0.3888114246680E+00 -0.9603499729000E+00
-0.2207981241867E+00 -0.7838767620127E+00
-0.2181393954169E+00 -0.8010597998331E+00
-0.2157231724062E+00 -0.8175661818560E+00
-0.2136528409092E+00 -0.8333010701543E+00
-0.2120446049331E+00 -0.8481589206313E+00
-0.2110272220437E+00 -0.8620262532231E+00
-0.2107444156195E+00 -0.8747836847338E+00
-0.2113583931907E+00 -0.8863067840979E+00
-0.2130536968815E+00 -0.8964661659010E+00
-0.2160412520163E+00 -0.9051271395964E+00
-0.2205627957253E+00 -0.9121491050581E+00
-0.2268960192766E+00 -0.9173846497912E+00
-0.2353608125175E+00 -0.9206781361388E+00
-0.2463270477736E+00 -0.9218633797385E+00
-0.2602243605996E+00 -0.9207597773617E+00
-0.2775542613420E+00 -0.9171659029893E+00
-0.2989044998206E+00 -0.9108491744287E+00
-0.3249640294844E+00 -0.9015300250343E+00
-0.3565350630179E+00 -0.8888603649939E+00
-0.1960287240187E+00 -0.7702685112955E+00
-0.1923836536207E+00 -0.7852303220400E+00
-0.1890193372513E+00 -0.7993518695875E+00
-0.1860510124535E+00 -0.8125299103251E+00
-0.1836021957874E+00 -0.8246506571620E+00
-0.1818053446051E+00 -0.8355951228939E+00
-0.1808057586918E+00 -0.8452416963728E+00
-0.1807659470003E+00 -0.8534669995194E+00
-0.1818696554053E+00 -0.8601458448990E+00
-0.1843257042224E+00 -0.8651511201465E+00
-0.1883721543402E+00 -0.8683537853767E+00
-0.1942813120458E+00 -0.8696229845008E+00
-0.2023661791724E+00 -0.8688261196546E+00
-0.2129891135474E+00 -0.8658285920762E+00
-0.2265737160663E+00 -0.8604926733951E+00
-0.2436213278996E+00 -0.8526745219471E+00
-0.2647336528222E+00 -0.8422175168988E+00
-0.2906426733720E+00 -0.8289385988256E+00
-0.3222425155640E+00 -0.8126029036962E+00
-0.1717021325868E+00 -0.7547349558225E+00
-0.1671490987228E+00 -0.7673518844798E+00
-0.1629250423682E+00 -0.7789683893604E+00
-0.1591580126993E+00 -0.7894692554629E+00
-0.1559758072548E+00 -0.7987317630062E+00
-0.1535105376543E+00 -0.8066326371261E+00
-0.1519054298020E+00 -0.8130505595655E+00
-0.1513199469366E+00 -0.8178656801661E+00
-0.1519332577470E+00 -0.8209592262257E+00
-0.1539472753076E+00 -0.8222135744054E+00
-0.1575898670249E+00 -0.8215129406899E+00
-0.1631188372180E+00 -0.8187446686270E+00
-0.1708273252235E+00 -0.8138010908893E+00
-0.1810515043680E+00 -0.8065819246801E+00
-0.1941819494380E+00 -0.7969970807453E+00
-0.2106808417456E+00 -0.7849695052020E+00
-0.2311088911133E+00 -0.7704368817624E+00
-0.2561676755293E+00 -0.7533488255693E+00
-0.2867676998956E+00 -0.7336496227451E+00
-0.1479305985149E+00 -0.7374357555915E+00
-0.1425586023527E+00 -0.7476239696319E+00
-0.1375816521609E+00 -0.7566585886920E+00
-0.1331389592483E+00 -0.7644088171013E+00
-0.1293557224256E+00 -0.7707435244706E+00
-0.1263590783398E+00 -0.7755407983708E+00
-0.1242881496893E+00 -0.7786847414553E+00
-0.1232976934121E+00 -0.7800636668487E+00
-0.1235603838975E+00 -0.7795693962617E+00
-0.1252684654468E+00 -0.7770977808576E+00
-0.1286354805525E+00 -0.7725502415177E+00
-0.1338984521887E+00 -0.7658363057009E+00
-0.1413209589772E+00 -0.7568772730694E+00
-0.1511977482416E+00 -0.7456113240425E+00
-0.1638619750479E+00 -0.7320005999734E+00
-0.1796971647195E+00 -0.7160410219561E+00
-0.1991577613683E+00 -0.6977758931833E+00
-0.2228086352828E+00 -0.6773138844594E+00
-0.2514044412165E+00 -0.6548481999114E+00
-0.1248149465883E+00 -0.7185616715348E+00
-0.1187229435784E+00 -0.7262851181606E+00
-0.1131259023410E+00 -0.7327108248989E+00
-0.1081552482171E+00 -0.7376825076197E+00
-0.1039227964035E+00 -0.7410751154981E+00
-0.1005507151500E+00 -0.7427776901720E+00
-0.9817436178081E-01 -0.7426875573874E+00
-0.9694418508627E-01 -0.7407079434728E+00
-0.9702623300906E-01 -0.7367481217014E+00
-0.9860247950699E-01 -0.7307250408180E+00
-0.1018710252415E+00 -0.7225661242953E+00
-0.1070462387023E+00 -0.7122132618941E+00
-0.1143588543937E+00 -0.6996283151536E+00
-0.1240560799077E+00 -0.6848007869295E+00
-0.1364018801956E+00 -0.6677587823419E+00
-0.1516777712053E+00 -0.6485852513797E+00
-0.1701855912988E+00 -0.6274429993391E+00
-0.1922538465416E+00 -0.6046159327844E+00
-0.2182678891144E+00 -0.5805814869773E+00
-0.1024249779731E+00 -0.6983382957626E+00
-0.9575457554629E-01 -0.7036345700798E+00
-0.8970467372488E-01 -0.7074490029969E+00
-0.8436224055557E-01 -0.7096535487308E+00
-0.7983740663854E-01 -0.7101478547920E+00
-0.7625096883301E-01 -0.7088426889648E+00
-0.7373679253036E-01 -0.7056561037104E+00
-0.7244146366348E-01 -0.7005140735923E+00
-0.7252425374973E-01 -0.6933529676673E+00
-0.7415671673702E-01 -0.6841231618094E+00
-0.7752186666692E-01 -0.6727936996823E+00
-0.8281266893792E-01 -0.6593582266332E+00
-0.9022945579555E-01 -0.6438426667550E+00
-0.9997562320436E-01 -0.6263154294689E+00
-0.1122504927346E+00 -0.6069014589115E+00
-0.1272374065487E+00 -0.5858023727301E+00
-0.1450827017063E+00 -0.5633271116112E+00
-0.1658587961467E+00 -0.5399414637900E+00
-0.1894746148126E+00 -0.5163630732014E+00
</DataArray>
</PointData>
   <DataArray type="Float64" Name="Load" NumberOfComponents="1"    ComponentName0="Load" format="ascii">
 0.9113541977689E+01
 0.8057546888337E+01
 0.7227433085211E+01
 0.6889433625380E+01
 0.6639988390002E+01
 0.6464217488768E+01
 0.6326164334807E+01
 0.6214053702762E+01
 0.6119772315468E+01
 0.6039005366352E+01
 0.5969225102389E+01
 0.5909182297417E+01
 0.5858526616778E+01
 0.5817661731598E+01
 0.5787728762873E+01
 0.5770736515189E+01
 0.5769950952542E+01
 0.5790968358351E+01
 0.5844308391511E+01
 0.5944917730872E+01
 0.6082194906444E+01
 0.6215493263080E+01
 0.6314430595357E+01
 0.6372658472788E+01
 0.6398394430209E+01
 0.6403868422894E+01
 0.6399592332708E+01
 0.6392396474364E+01
 0.6384760428218E+01
 0.6374241334469E+01
 0.6359470399740E+01
 0.6351343221766E+01
 0.6365255628953E+01
 0.6411087606221E+01
 0.6498589244164E+01
 0.6636698436445E+01
 0.6852108875270E+01
 0.7106369170423E+01
 0.7686260193710E+01
 0.6883630805810E+01
 0.1419845268216E+02
 0.7690496081682E+01
 0.7890036685520E+01
 0.7272842306967E+01
 0.6876658975829E+01
 0.6627528678728E+01
 0.6439672868291E+01
 0.6294875753557E+01
 0.6177221085660E+01
 0.6079024645689E+01
 0.5995448126498E+01
 0.5923749140702E+01
 0.5862466460671E+01
 0.5811087889047E+01
 0.5769871327496E+01
 0.5739809918029E+01
 0.5722722191122E+01
 0.5721554909263E+01
 0.5740890821524E+01
 0.5785542600884E+01
 0.5855744052089E+01
 0.5941595522693E+01
 0.6024760773664E+01
 0.6088795577363E+01
 0.6126706338362E+01
 0.6140096715699E+01
 0.6134578292769E+01
 0.6115961863326E+01
 0.6088136342775E+01
 0.6052506739096E+01
 0.6009404403062E+01
 0.5960187317428E+01
 0.5907753589632E+01
 0.5855226193970E+01
 0.5803266419092E+01
 0.5746334447286E+01
 0.5672317851588E+01
 0.5538732645130E+01
 0.5312240320848E+01
 0.4624952520153E+01
 0.3519969719554E+01
 0.1199611966137E+02
 0.6892543807811E+01
 0.7387847643801E+01
 0.7170811130096E+01
 0.6823956785086E+01
 0.6582695601397E+01
 0.6398042385055E+01
 0.6251587281483E+01
 0.6132063809557E+01
 0.6031944615942E+01
 0.5946766457520E+01
 0.5873784517918E+01
 0.5811495043291E+01
 0.5759289266469E+01
 0.5717290386667E+01
 0.5686290780011E+01
 0.5667770896894E+01
 0.5663979356408E+01
 0.5677347450139E+01
 0.5707685546906E+01
 0.5750245826618E+01
 0.5797911684201E+01
 0.5842789195443E+01
 0.5876663171963E+01
 0.5893634537170E+01
 0.5891913805500E+01
 0.5872791194607E+01
 0.5838557020535E+01
 0.5790901273963E+01
 0.5730679719593E+01
 0.5658844818194E+01
 0.5576022067475E+01
 0.5480680516024E+01
 0.5369095795855E+01
 0.5234384018535E+01
 0.5063165916786E+01
 0.4828365180446E+01
 0.4488117532946E+01
 0.3959087023102E+01
 0.3116253771101E+01
 0.3298089955909E+01
 0.1099514806884E+02
 0.6370485410685E+01
 0.6910873031516E+01
 0.6946368797564E+01
 0.6723039530072E+01
 0.6510068852777E+01
 0.6338015645825E+01
 0.6196250245738E+01
 0.6078189438137E+01
 0.5978266855853E+01
 0.5892719767794E+01
 0.5819137014766E+01
 0.5756109215066E+01
 0.5703005946433E+01
 0.5659829161724E+01
 0.5627127744797E+01
 0.5605923106857E+01
 0.5597449736375E+01
 0.5601906091528E+01
 0.5616223732587E+01
 0.5634558696614E+01
 0.5652349325069E+01
 0.5666981200006E+01
 0.5674860552077E+01
 0.5671455677458E+01
 0.5653436830904E+01
 0.5619427341097E+01
 0.5569262925183E+01
 0.5503065112384E+01
 0.5421083313675E+01
 0.5323809480239E+01
 0.5210549184367E+01
 0.5077251512862E+01
 0.4916618785744E+01
 0.4718220531448E+01
 0.4465841613300E+01
 0.4135304926767E+01
 0.3696607433259E+01
 0.3121498571129E+01
 0.2624873120591E+01
 0.4083329682904E+01
 0.1012056192933E+02
 0.5993751733882E+01
 0.6506357472223E+01
 0.6678422953960E+01
 0.6576498491404E+01
 0.6412525165676E+01
 0.6260747557903E+01
 0.6128989806215E+01
 0.6015636560991E+01
 0.5917902603931E+01
 0.5833211768488E+01
 0.5759713833128E+01
 0.5696237827569E+01
 0.5642198739005E+01
 0.5597496795337E+01
 0.5562412441721E+01
 0.5537424541388E+01
 0.5522678188186E+01
 0.5516667085953E+01
 0.5515043206374E+01
 0.5512342029183E+01
 0.5505937180386E+01
 0.5495953803389E+01
 0.5481353510828E+01
 0.5458774704486E+01
 0.5424347090070E+01
 0.5375175549415E+01
 0.5309503209395E+01
 0.5226341000628E+01
 0.5125273358323E+01
 0.5006036696169E+01
 0.4866870312744E+01
 0.4702563226817E+01
 0.4504757194530E+01
 0.4262828507388E+01
 0.3963666712647E+01
 0.3594219431216E+01
 0.3152282889093E+01
 0.2706641199762E+01
 0.2725806424766E+01
 0.4790220126317E+01
 0.9405786491469E+01
 0.5702531360430E+01
 0.6168368319635E+01
 0.6407562212471E+01
 0.6401193264676E+01
 0.6293152469149E+01
 0.6168246627955E+01
 0.6050518360827E+01
 0.5944699996600E+01
 0.5850964672864E+01
 0.5768272883232E+01
 0.5695521978310E+01
 0.5631893669669E+01
 0.5576911010956E+01
 0.5530396863931E+01
 0.5492358490338E+01
 0.5462717104283E+01
 0.5440666333874E+01
 0.5423624451072E+01
 0.5406930164308E+01
 0.5385971570352E+01
 0.5359484488857E+01
 0.5329003524480E+01
 0.5294879518577E+01
 0.5254649586172E+01
 0.5204419328201E+01
 0.5140543671640E+01
 0.5060320440556E+01
 0.4962003599860E+01
 0.4844585514346E+01
 0.4707154576834E+01
 0.4547387903060E+01
 0.4360026958879E+01
 0.4137508824647E+01
 0.3871786692166E+01
 0.3556670561104E+01
 0.3194736333899E+01
 0.2820610004538E+01
 0.2592573927540E+01
 0.3077871685467E+01
 0.5263940287492E+01
 0.8838207811518E+01
 0.5465728351964E+01
 0.5883416071653E+01
 0.6150656373518E+01
 0.6212479183475E+01
 0.6157349371226E+01
 0.6062761509999E+01
 0.5961999104829E+01
 0.5865917888241E+01
 0.5777730808385E+01
 0.5698052904410E+01
 0.5626659590886E+01
 0.5563168257558E+01
 0.5507262790269E+01
 0.5458717833234E+01
 0.5417286147668E+01
 0.5382387375471E+01
 0.5352502272790E+01
 0.5324500402109E+01
 0.5293926503841E+01
 0.5257086555786E+01
 0.5213638773736E+01
 0.5165809263041E+01
 0.5114683227004E+01
 0.5058467934466E+01
 0.4993503697760E+01
 0.4915893656355E+01
 0.4822459382100E+01
 0.4710995379752E+01
 0.4580080086029E+01
 0.4428434271551E+01
 0.4253717377646E+01
 0.4051503966985E+01
 0.3816364155398E+01
 0.3544658337587E+01
 0.3239055934720E+01
 0.2919711436712E+01
 0.2657226466235E+01
 0.2669660128367E+01
 0.3468668230013E+01
 0.5554584273126E+01
 0.8387606636213E+01
 0.5265680930310E+01
 0.5639386835076E+01
 0.5913257986573E+01
 0.6020836223789E+01
 0.6010961645200E+01
 0.5946924722660E+01
 0.5864814586437E+01
 0.5780032469746E+01
 0.5698614184591E+01
 0.5622804978533E+01
 0.5553306657339E+01
 0.5490224216380E+01
 0.5433442676934E+01
 0.5382721186329E+01
 0.5337599718040E+01
 0.5297100223499E+01
 0.5259244318078E+01
 0.5220733498724E+01
 0.5177564722647E+01
 0.5126875663740E+01
 0.5068934425960E+01
 0.5006268829894E+01
 0.4940335345403E+01
 0.4869846229144E+01
 0.4791501683450E+01
 0.4701468728295E+01
 0.4596428768122E+01
 0.4473976207932E+01
 0.4332504962433E+01
 0.4170697014698E+01
 0.3986680429669E+01
 0.3777513659820E+01
 0.3540754831478E+01
 0.3278110064580E+01
 0.3001733705603E+01
 0.2748776699312E+01
 0.2618309427353E+01
 0.2846265543684E+01
 0.3816136455565E+01
 0.5723979804297E+01
 0.8024990729113E+01
 0.5091660514642E+01
 0.5426854763548E+01
 0.5695935601502E+01
 0.5832536151580E+01
 0.5859027125642E+01
 0.5823493103135E+01
 0.5760473294090E+01
 0.5687914810753E+01
 0.5614135656847E+01
 0.5542866963085E+01
 0.5475713662177E+01
 0.5413286149073E+01
 0.5355698027037E+01
 0.5302727507097E+01
 0.5253760258924E+01
 0.5207544557735E+01
 0.5161867208848E+01
 0.5113512787777E+01
 0.5059022311545E+01
 0.4996237379752E+01
 0.4925823962261E+01
 0.4850404360911E+01
 0.4771611080340E+01
 0.4688551297087E+01
 0.4598342165799E+01
 0.4497411637431E+01
 0.4382541711808E+01
 0.4251350979302E+01
 0.4102285121554E+01
 0.3934297037048E+01
 0.3746368382549E+01
 0.3537468731610E+01
 0.3308576585307E+01
 0.3067007497787E+01
 0.2834032719315E+01
 0.2661199399868E+01
 0.2664022120650E+01
 0.3059731795496E+01
 0.4101102820006E+01
 0.5816771547802E+01
 0.7727931443604E+01
 0.4936790231045E+01
 0.5238765342461E+01
 0.5497246319203E+01
 0.5650949941898E+01
 0.5705386329838E+01
 0.5695040607846E+01
 0.5650514409823E+01
 0.5590504231616E+01
 0.5524890473773E+01
 0.5458642816677E+01
 0.5394188826525E+01
 0.5332630425996E+01
 0.5274324099079E+01
 0.5219101270722E+01
 0.5166259645462E+01
 0.5114396792244E+01
 0.5061243552799E+01
 0.5003820775238E+01
 0.4939224019366E+01
 0.4865874205971E+01
 0.4784696743237E+01
 0.4698304889462E+01
 0.4608408871612E+01
 0.4514441734317E+01
 0.4413960578316E+01
 0.4303775831439E+01
 0.4180942521716E+01
 0.4043291323699E+01
 0.3889533629993E+01
 0.3719150021498E+01
 0.3532246332306E+01
 0.3329928959362E+01
 0.3116699126869E+01
 0.2905263594308E+01
 0.2724888589511E+01
 0.2637379012795E+01
 0.2761299696546E+01
 0.3274851146928E+01
 0.4326932256020E+01
 0.5861746112275E+01
 0.7480218900015E+01
 0.4796462354217E+01
 0.5069877745878E+01
 0.5315087290525E+01
 0.5477627030651E+01
 0.5552741244461E+01
 0.5563773544668E+01
 0.5536411800419E+01
 0.5488757775680E+01
 0.5431516673160E+01
 0.5370583645256E+01
 0.5309085091422E+01
 0.5248574460518E+01
 0.5189652844694E+01
 0.5132235957624E+01
 0.5075599429293E+01
 0.5018299336927E+01
 0.4958143168667E+01
 0.4892473043435E+01
 0.4818910525437E+01
 0.4736350168598E+01
 0.4645890154728E+01
 0.4550090457675E+01
 0.4450696352580E+01
 0.4347425958199E+01
 0.4238282611616E+01
 0.4120532821890E+01
 0.3991626933716E+01
 0.3849758086024E+01
 0.3694078971043E+01
 0.3524788598730E+01
 0.3343277973999E+01
 0.3152850650545E+01
 0.2961393623715E+01
 0.2786444815330E+01
 0.2663564937982E+01
 0.2659781529333E+01
 0.2885530914326E+01
 0.3474816798231E+01
 0.4503201571177E+01
 0.5876894330527E+01
 0.7270351803036E+01
 0.4667472541927E+01
 0.4916280126851E+01
 0.5147287419354E+01
 0.5313037133484E+01
 0.5402870477210E+01
 0.5431468453277E+01
 0.5419501921246E+01
 0.5383607225423E+01
 0.5334667449679E+01
 0.5279169555663E+01
 0.5220787278225E+01
 0.5161465975272E+01
 0.5102041897110E+01
 0.5042540670016E+01
 0.4982275169562E+01
 0.4919849600983E+01
 0.4853240424247E+01
 0.4780151104757E+01
 0.4698685078955E+01
 0.4608126913948E+01
 0.4509696271744E+01
 0.4405889108092E+01
 0.4298474358008E+01
 0.4187432821764E+01
 0.4071212205580E+01
 0.3947577733835E+01
 0.3814459298974E+01
 0.3670525893406E+01
 0.3515502564688E+01
 0.3350431045604E+01
 0.3178054046572E+01
 0.3003807060559E+01
 0.2838658344970E+01
 0.2704168216472E+01
 0.2640086949054E+01
 0.2713633496337E+01
 0.3020118277109E+01
 0.3653165523668E+01
 0.4639892626255E+01
 0.5873437823950E+01
 0.7090133812999E+01
 0.4547520895884E+01
 0.4775023854878E+01
 0.4991846541812E+01
 0.5157043358255E+01
 0.5256862710295E+01
 0.5299487905368E+01
 0.5300943942922E+01
 0.5275925829951E+01
 0.5234988016230E+01
 0.5184893331280E+01
 0.5129699963291E+01
 0.5071672746923E+01
 0.5011864360772E+01
 0.4950428941509E+01
 0.4886765719146E+01
 0.4819595769385E+01
 0.4747124499783E+01
 0.4667428530225E+01
 0.4579045701828E+01
 0.4481587111831E+01
 0.4376366123767E+01
 0.4265822185963E+01
 0.4151753285639E+01
 0.4034391790086E+01
 0.3912623683764E+01
 0.3784734795386E+01
 0.3649188992988E+01
 0.3505209848659E+01
 0.3353181741368E+01
 0.3195053829164E+01
 0.3034911856912E+01
 0.2880167637637E+01
 0.2744448533704E+01
 0.2652349007802E+01
 0.2645533704492E+01
 0.2787229947115E+01
 0.3154755855671E+01
 0.3808697083619E+01
 0.4745623799773E+01
 0.5858451255953E+01
 0.6933635531197E+01
 0.4434911434129E+01
 0.4643859841170E+01
 0.4847013517279E+01
 0.5009191808672E+01
 0.5115317020308E+01
 0.5168833961067E+01
 0.5181707576401E+01
 0.5166506149323E+01
 0.5133097243985E+01
 0.5088246359266E+01
 0.5036236418351E+01
 0.4979573099796E+01
 0.4919499687814E+01
 0.4856309772811E+01
 0.4789526325427E+01
 0.4718036481667E+01
 0.4640309895337E+01
 0.4554791169565E+01
 0.4460407625452E+01
 0.4357049943026E+01
 0.4246112527956E+01
 0.4129994931915E+01
 0.4010537690051E+01
 0.3888219932254E+01
 0.3762357209867E+01
 0.3631763258930E+01
 0.3495466543087E+01
 0.3353293022969E+01
 0.3206333783616E+01
 0.3057460810156E+01
 0.2912037805853E+01
 0.2779233739069E+01
 0.2674829304544E+01
 0.2625357465624E+01
 0.2672225526499E+01
 0.2871802589454E+01
 0.3283531964752E+01
 0.3942661492686E+01
 0.4827343741177E+01
 0.5836469442172E+01
 0.6796480402609E+01
 0.4328364010537E+01
 0.4521051052580E+01
 0.4711293314293E+01
 0.4868883601839E+01
 0.4978498257499E+01
 0.5040213483483E+01
 0.5062579901049E+01
 0.5056048398463E+01
 0.5029574234994E+01
 0.4989707045551E+01
 0.4940808913667E+01
 0.4885547418448E+01
 0.4825325844919E+01
 0.4760580744618E+01
 0.4690984535347E+01
 0.4615622627566E+01
 0.4533246075580E+01
 0.4442652665800E+01
 0.4343119177395E+01
 0.4234781682815E+01
 0.4119112233743E+01
 0.3998490705029E+01
 0.3874816605130E+01
 0.3748813958648E+01
 0.3620217067707E+01
 0.3488364122201E+01
 0.3352859699153E+01
 0.3214153662893E+01
 0.3074058071041E+01
 0.2936344826323E+01
 0.2807549885474E+01
 0.2698335603833E+01
 0.2626074351245E+01
 0.2618120545674E+01
 0.2713793849992E+01
 0.2961093000135E+01
 0.3403387875920E+01
 0.4057293541187E+01
 0.4890501795633E+01
 0.5810458173878E+01
 0.6675365815668E+01
 0.4226892597596E+01
 0.4405239246347E+01
 0.4583425355764E+01
 0.4735474013074E+01
 0.4846451124803E+01
 0.4914101564839E+01
 0.4944183069515E+01
 0.4945157339526E+01
 0.4924949638787E+01
 0.4889731840418E+01
 0.4843820616691E+01
 0.4789970919261E+01
 0.4729712907415E+01
 0.4663623013253E+01
 0.4591538162016E+01
 0.4512760266769E+01
 0.4426325989400E+01
 0.4331366491792E+01
 0.4227473402790E+01
 0.4115003392056E+01
 0.3995507995764E+01
 0.3871367975937E+01
 0.3744558132391E+01
 0.3616046232509E+01
 0.3485972502227E+01
 0.3354187932664E+01
 0.3220869576683E+01
 0.3087091391113E+01
 0.2955374607066E+01
 0.2830339810144E+01
 0.2719560865752E+01
 0.2634898924831E+01
 0.2594729425518E+01
 0.2626180852287E+01
 0.2765136667193E+01
 0.3050821859245E+01
 0.3513024817228E+01
 0.4155080054758E+01
 0.4939328357244E+01
 0.5782406325755E+01
 0.6567743842247E+01
 0.4129724146022E+01
 0.4295349643200E+01
 0.4462352568729E+01
 0.4608327322264E+01
 0.4719080996984E+01
 0.4790796889144E+01
 0.4826996739981E+01
 0.4834345212519E+01
 0.4819701026230E+01
 0.4788748700445E+01
 0.4745659058331E+01
 0.4693207664056E+01
 0.4633017944915E+01
 0.4565797774672E+01
 0.4491554565693E+01
 0.4409813906254E+01
 0.4319893291904E+01
 0.4221235245900E+01
 0.4113716665956E+01
 0.3997896656106E+01
 0.3875410583311E+01
 0.3748659118647E+01
 0.3619706848294E+01
 0.3489763454813E+01
 0.3359360261447E+01
 0.3228843097737E+01
 0.3098946139433E+01
 0.2971351158411E+01
 0.2849257318300E+01
 0.2738062508589E+01
 0.2646224253141E+01
 0.2586488932739E+01
 0.2577651819348E+01
 0.2645715502979E+01
 0.2822289932739E+01
 0.3138185229032E+01
 0.3612182176744E+01
 0.4238411083623E+01
 0.4977095690293E+01
 0.5753694448264E+01
 0.6471609304611E+01
 0.4036243056810E+01
 0.4190522088251E+01
 0.4347189776555E+01
 0.4486845205324E+01
 0.4596209715978E+01
 0.4670467226604E+01
 0.4711381314595E+01
 0.4724038462612E+01
 0.4714251514446E+01
 0.4687152764035E+01
 0.4646691133783E+01
 0.4595605811948E+01
 0.4535581104353E+01
 0.4467443915266E+01
 0.4391370808757E+01
 0.4307109801944E+01
 0.4214248412712E+01
 0.4112517932204E+01
 0.4002055219696E+01
 0.3883608120202E+01
 0.3758900880867E+01
 0.3630370539897E+01
 0.3500183253131E+01
 0.3369787317789E+01
 0.3240088409215E+01
 0.3111904459084E+01
 0.2986502721127E+01
 0.2866144458862E+01
 0.2754661753844E+01
 0.2658144540487E+01
 0.2585766484253E+01
 0.2550838781686E+01
 0.2572031596376E+01
 0.2673518847124E+01
 0.2882255564134E+01
 0.3221436595415E+01
 0.3701179617797E+01
 0.4309432445553E+01
 0.5006316814557E+01
 0.5725324575317E+01
 0.6385362870612E+01
 0.3945952301231E+01
 0.4090060752871E+01
 0.4237194929019E+01
 0.4370479612295E+01
 0.4477613255682E+01
 0.4553185382845E+01
 0.4597599737432E+01
 0.4614586471038E+01
 0.4608970791011E+01
 0.4585303917007E+01
 0.4547259518120E+01
 0.4497494029696E+01
 0.4437722747433E+01
 0.4368876588873E+01
 0.4291294363813E+01
 0.4204939102947E+01
 0.4109653639081E+01
 0.4005435749236E+01
 0.3892660380185E+01
 0.3772253260261E+01
 0.3646032114352E+01
 0.3516483767791E+01
 0.3385884651092E+01
 0.3255916527906E+01
 0.3127840959290E+01
 0.3002921798535E+01
 0.2882929261085E+01
 0.2770667511437E+01
 0.2670547282506E+01
 0.2589256088016E+01
 0.2536508668907E+01
 0.2525866755357E+01
 0.2575397288151E+01
 0.2706956998084E+01
 0.2942820837518E+01
 0.3299564198175E+01
 0.3780639142727E+01
 0.4369993639031E+01
 0.5028913158148E+01
 0.5698008608313E+01
 0.6307720278770E+01
 0.3858445718002E+01
 0.3993396750335E+01
 0.4131744375115E+01
 0.4258736738066E+01
 0.4363046575109E+01
 0.4438956828848E+01
 0.4485836763027E+01
 0.4506271003301E+01
 0.4504177766786E+01
 0.4483525889575E+01
 0.4447680330590E+01
 0.4399178944278E+01
 0.4339741491693E+01
 0.4270386507301E+01
 0.4191604160658E+01
 0.4103560762272E+01
 0.4006337389653E+01
 0.3900176779006E+01
 0.3785672738808E+01
 0.3663919663899E+01
 0.3536832199248E+01
 0.3406957217597E+01
 0.3276687011571E+01
 0.3147929734582E+01
 0.3022282951890E+01
 0.2901427986567E+01
 0.2787604035852E+01
 0.2684116365804E+01
 0.2595894273065E+01
 0.2530122757938E+01
 0.2496880634668E+01
 0.2509684989666E+01
 0.2585608239124E+01
 0.2743904492616E+01
 0.3002391186129E+01
 0.3372053432158E+01
 0.3851316040597E+01
 0.4421674254891E+01
 0.5046268741311E+01
 0.5672420401150E+01
 0.6237410075848E+01
 0.3773391229256E+01
 0.3900089925526E+01
 0.4030365219860E+01
 0.4151256649889E+01
 0.4252368963517E+01
 0.4327878002984E+01
 0.4376379176862E+01
 0.4399503595991E+01
 0.4400354844193E+01
 0.4382338837872E+01
 0.4348495849437E+01
 0.4301219953841E+01
 0.4242213269710E+01
 0.4172565507004E+01
 0.4092904706001E+01
 0.4003585563038E+01
 0.3904908426639E+01
 0.3797339546109E+01
 0.3681673356976E+01
 0.3559163519233E+01
 0.3431822644338E+01
 0.3302263990897E+01
 0.3172997154070E+01
 0.3046145978349E+01
 0.2923620598888E+01
 0.2807486937602E+01
 0.2700413421337E+01
 0.2606157693517E+01
 0.2530100096475E+01
 0.2479816628926E+01
 0.2465574947177E+01
 0.2500585892969E+01
 0.2600642903738E+01
 0.2782307732904E+01
 0.3059344597940E+01
 0.3438157613117E+01
 0.3913466277024E+01
 0.4465457253656E+01
 0.5059296794963E+01
 0.5648695010099E+01
 0.6177314912490E+01
 0.3690510694750E+01
 0.3809751613926E+01
 0.3932613774266E+01
 0.4047649203036E+01
 0.4145334264172E+01
 0.4219874602900E+01
 0.4269299143900E+01
 0.4294455659373E+01
 0.4297728640783E+01
 0.4281993881043E+01
 0.4249964014185E+01
 0.4203872727577E+01
 0.4145386250995E+01
 0.4075649365043E+01
 0.3995412951371E+01
 0.3905203519647E+01
 0.3805521287438E+01
 0.3697035700342E+01
 0.3580725165853E+01
 0.3457993590258E+01
 0.3330951029299E+01
 0.3202280557868E+01
 0.3074607900661E+01
 0.2950260567792E+01
 0.2831437638761E+01
 0.2720556987067E+01
 0.2620676595732E+01
 0.2535957572741E+01
 0.2472163677755E+01
 0.2437157380160E+01
 0.2441232192500E+01
 0.2497074216916E+01
 0.2619011558587E+01
 0.2820957165786E+01
 0.3113091821972E+01
 0.3498123026310E+01
 0.3968104666251E+01
 0.4502628061520E+01
 0.5069238016665E+01
 0.5625994383206E+01
 0.6129639027308E+01
 0.3609559159931E+01
 0.3722021374714E+01
 0.3838050209522E+01
 0.3947478874169E+01
 0.4041587512437E+01
 0.4114705365468E+01
 0.4164459145775E+01
 0.4191061215079E+01
 0.4196269970828E+01
 0.4182471310842E+01
 0.4152056309961E+01
 0.4107088206231E+01
 0.4049182296750E+01
 0.3979522918989E+01
 0.3898968084988E+01
 0.3808199011121E+01
 0.3707896999612E+01
 0.3598916199352E+01
 0.3482404342759E+01
 0.3359907397864E+01
 0.3233631506926E+01
 0.3106331257857E+01
 0.2980746187078E+01
 0.2859396043175E+01
 0.2744747665629E+01
 0.2639541960387E+01
 0.2547191216113E+01
 0.2472215857909E+01
 0.2420700681338E+01
 0.2400697935111E+01
 0.2422382180113E+01
 0.2497740119831E+01
 0.2639525065528E+01
 0.2859118041725E+01
 0.3163570050862E+01
 0.3552620530005E+01
 0.4016412356430E+01
 0.4534497701285E+01
 0.5076576174307E+01
 0.5605605758919E+01
 0.6084471440564E+01
 0.3530333618050E+01
 0.3636622548132E+01
 0.3746350493583E+01
 0.3850441463818E+01
 0.3940908959663E+01
 0.4012266795797E+01
 0.4061868109730E+01
 0.4089416717338E+01
 0.4096133062177E+01
 0.4083958091139E+01
 0.4054974833459E+01
 0.4011072193575E+01
 0.3953803127922E+01
 0.3884377391037E+01
 0.3803744485612E+01
 0.3712723075715E+01
 0.3612157125333E+01
 0.3503067882951E+01
 0.3386758464555E+01
 0.3264908407470E+01
 0.3139817040919E+01
 0.3014310004884E+01
 0.2891236482174E+01
 0.2773296176265E+01
 0.2663202691259E+01
 0.2563991897453E+01
 0.2479396194973E+01
 0.2414252157039E+01
 0.2374904612397E+01
 0.2369503833898E+01
 0.2407978320682E+01
 0.2501484951716E+01
 0.2661163819680E+01
 0.2896041032658E+01
 0.3210479620333E+01
 0.3601861748497E+01
 0.4059013081785E+01
 0.4561761556562E+01
 0.5081998511936E+01
 0.5586733229794E+01
 0.6043124651934E+01
 0.3452659650784E+01
 0.3553318441009E+01
 0.3657235617533E+01
 0.3756267783836E+01
 0.3843093526486E+01
 0.3912448830800E+01
 0.3961513282978E+01
 0.3989589727202E+01
 0.3997442030257E+01
 0.3986612936522E+01
 0.3958896071561E+01
 0.3916007042898E+01
 0.3859428321043E+01
 0.3790382504678E+01
 0.3709895473907E+01
 0.3618906372228E+01
 0.3518403980811E+01
 0.3409559862656E+01
 0.3293819071048E+01
 0.3172985808166E+01
 0.3049448307324E+01
 0.2926100962989E+01
 0.2805896938937E+01
 0.2691703053372E+01
 0.2586459162143E+01
 0.2493469246983E+01
 0.2416753143015E+01
 0.2361421993640E+01
 0.2334022122971E+01
 0.2342717205746E+01
 0.2397083032424E+01
 0.2507358880770E+01
 0.2683089975442E+01
 0.2931158652483E+01
 0.3253649292011E+01
 0.3646095187195E+01
 0.4096447576274E+01
 0.4585040262730E+01
 0.5085830934633E+01
 0.5569168863800E+01
 0.6005715795484E+01
 0.3376385879529E+01
 0.3471905105388E+01
 0.3570463706943E+01
 0.3664719096864E+01
 0.3747950932819E+01
 0.3815138634515E+01
 0.3863365489550E+01
 0.3891623778806E+01
 0.3900294486737E+01
 0.3890568614504E+01
 0.3863972266251E+01
 0.3822052556010E+01
 0.3766216149269E+01
 0.3697687542264E+01
 0.3617554704030E+01
 0.3526860880093E+01
 0.3426722535289E+01
 0.3318445513289E+01
 0.3203603712713E+01
 0.3084116661027E+01
 0.2962456011217E+01
 0.2841581093873E+01
 0.2724542216661E+01
 0.2614360187337E+01
 0.2514181313204E+01
 0.2427552287637E+01
 0.2358749512895E+01
 0.2313119186523E+01
 0.2297354070295E+01
 0.2319555634382E+01
 0.2388862223958E+01
 0.2514546557017E+01
 0.2704619995936E+01
 0.2964046225292E+01
 0.3292999146086E+01
 0.3685577977301E+01
 0.4129194163948E+01
 0.4604823596653E+01
 0.5088312173202E+01
 0.5552827650381E+01
 0.5972022982141E+01
 0.3301379669690E+01
 0.3392205347031E+01
 0.3485823662983E+01
 0.3575582914223E+01
 0.3655305111508E+01
 0.3720223093831E+01
 0.3767383142638E+01
 0.3795542414273E+01
 0.3804764766962E+01
 0.3795934189712E+01
 0.3770332889034E+01
 0.3729347036478E+01
 0.3674304540270E+01
 0.3606422433861E+01
 0.3526837484248E+01
 0.3436681441237E+01
 0.3337182103434E+01
 0.3229764253077E+01
 0.3116117810352E+01
 0.2998267881409E+01
 0.2878763046058E+01
 0.2760622528271E+01
 0.2646986068638E+01
 0.2541015286295E+01
 0.2446044016772E+01
 0.2365837852098E+01
 0.2304900874152E+01
 0.2268777269590E+01
 0.2264255592863E+01
 0.2299309973822E+01
 0.2382578673247E+01
 0.2522352494991E+01
 0.2725199701308E+01
 0.2994390420246E+01
 0.3328511424199E+01
 0.3720563364756E+01
 0.4157665764822E+01
 0.4621504142233E+01
 0.5089631916363E+01
 0.5537632302146E+01
 0.5941745391122E+01
 0.3227523710292E+01
 0.3314063862623E+01
 0.3403129909321E+01
 0.3488669237479E+01
 0.3564993192348E+01
 0.3627590371961E+01
 0.3673515267661E+01
 0.3701352494348E+01
 0.3710906775014E+01
 0.3702797157011E+01
 0.3678086160099E+01
 0.3638008440508E+01
 0.3583812111504E+01
 0.3516698860200E+01
 0.3437842034246E+01
 0.3348447173505E+01
 0.3249837873821E+01
 0.3143543155269E+01
 0.3031356357925E+01
 0.2915398072798E+01
 0.2798286497788E+01
 0.2683094752467E+01
 0.2573043685509E+01
 0.2471422683019E+01
 0.2381735164848E+01
 0.2307943447482E+01
 0.2254752479384E+01
 0.2227870160979E+01
 0.2234135424226E+01
 0.2281341350015E+01
 0.2377584696450E+01
 0.2530186745462E+01
 0.2744382305485E+01
 0.3021963674203E+01
 0.3360209734904E+01
 0.3751291312024E+01
 0.4182215609484E+01
 0.4635400458082E+01
 0.5089936079764E+01
 0.5523496027072E+01
 0.5914563984030E+01
 0.3154713252046E+01
 0.3237343292376E+01
 0.3322218037616E+01
 0.3403807244631E+01
 0.3476864281969E+01
 0.3537130812369E+01
 0.3581703779849E+01
 0.3609046927184E+01
 0.3618756504194E+01
 0.3611225475833E+01
 0.3587320611927E+01
 0.3548135632161E+01
 0.3494839306654E+01
 0.3428611415967E+01
 0.3350650749450E+01
 0.3262222846964E+01
 0.3164732377959E+01
 0.3059798498843E+01
 0.2949305571701E+01
 0.2835459308505E+01
 0.2720939583627E+01
 0.2608866697329E+01
 0.2502533886472E+01
 0.2405345533587E+01
 0.2320957724820E+01
 0.2253508956667E+01
 0.2207880351211E+01
 0.2189912334776E+01
 0.2206454693887E+01
 0.2265077623119E+01
 0.2373314498823E+01
 0.2537551355315E+01
 0.2761809392986E+01
 0.3046603841595E+01
 0.3388143737198E+01
 0.3777983235018E+01
 0.4203144465743E+01
 0.4646771032893E+01
 0.5089332020179E+01
 0.5510319468549E+01
 0.5890162045293E+01
 0.3082853851765E+01
 0.3161920991967E+01
 0.3242941176292E+01
 0.3320842374206E+01
 0.3390778148093E+01
 0.3448737365721E+01
 0.3491885156722E+01
 0.3518606877487E+01
 0.3528334219764E+01
 0.3521269443555E+01
 0.3498106612435E+01
 0.3459809653034E+01
 0.3407469548376E+01
 0.3342238758419E+01
 0.3265331408061E+01
 0.3178060166234E+01
 0.3081896843917E+01
 0.2978537196082E+01
 0.2869944412621E+01
 0.2758398776581E+01
 0.2646633431793E+01
 0.2537808631843E+01
 0.2435281064274E+01
 0.2342557706879E+01
 0.2263431419653E+01
 0.2202197912214E+01
 0.2163891922700E+01
 0.2154458555725E+01
 0.2180725298226E+01
 0.2250009459121E+01
 0.2369276492083E+01
 0.2544027897843E+01
 0.2777194744715E+01
 0.3068198129678E+01
 0.3412378081452E+01
 0.3800839580004E+01
 0.4220707110768E+01
 0.4655824350965E+01
 0.5087893633875E+01
 0.5497992277860E+01
 0.5868232945398E+01
 0.3011859513592E+01
 0.3087686375272E+01
 0.3165166951873E+01
 0.3239633772499E+01
 0.3306603892792E+01
 0.3362305689324E+01
 0.3403991646919E+01
 0.3430003547532E+01
 0.3439646340670E+01
 0.3432963406073E+01
 0.3410497827400E+01
 0.3373094983251E+01
 0.3321770390924E+01
 0.3257644736470E+01
 0.3181938328407E+01
 0.3095998976271E+01
 0.3001352456665E+01
 0.2899758118449E+01
 0.2793245999487E+01
 0.2684160301535E+01
 0.2575278713841E+01
 0.2469793874889E+01
 0.2371116905742E+01
 0.2282845402944E+01
 0.2208894095484E+01
 0.2153698435137E+01
 0.2122426347573E+01
 0.2121103304588E+01
 0.2156507981436E+01
 0.2235686201551E+01
 0.2365045835650E+01
 0.2549266243573E+01
 0.2790310766910E+01
 0.3086670510723E+01
 0.3432984558757E+01
 0.3820039038401E+01
 0.4235117976590E+01
 0.4662726769934E+01
 0.5085666424811E+01
 0.5486395880768E+01
 0.5848483322075E+01
 0.2941651144038E+01
 0.3014538709399E+01
 0.3088774931346E+01
 0.3160052058327E+01
 0.3224218656201E+01
 0.3277734014154E+01
 0.3317952110769E+01
 0.3343199589801E+01
 0.3352687035630E+01
 0.3346327286031E+01
 0.3324532582793E+01
 0.3288040747627E+01
 0.3237794628438E+01
 0.3174879462492E+01
 0.3100513446204E+01
 0.3016068366388E+01
 0.2923111501230E+01
 0.2823453294596E+01
 0.2719178882722E+01
 0.2612685709148E+01
 0.2506787094948E+01
 0.2404700293587E+01
 0.2309881864757E+01
 0.2226008492528E+01
 0.2157102790759E+01
 0.2107723876797E+01
 0.2083154537840E+01
 0.2089479964663E+01
 0.2133410219440E+01
 0.2221711688646E+01
 0.2360257383767E+01
 0.2552974632404E+01
 0.2800977233777E+01
 0.3101971944043E+01
 0.3450036608014E+01
 0.3835738744245E+01
 0.4246556095574E+01
 0.4667609034647E+01
 0.5082672324508E+01
 0.5475406385565E+01
 0.5830634408434E+01
 0.2872155258249E+01
 0.2942385274387E+01
 0.3013654462971E+01
 0.3081977372960E+01
 0.3143506388022E+01
 0.3194922866246E+01
 0.3233692590177E+01
 0.3258150229674E+01
 0.3267439582341E+01
 0.3261367952345E+01
 0.3240235136255E+01
 0.3204681872314E+01
 0.3155581367774E+01
 0.3093980343215E+01
 0.3021087336395E+01
 0.2938287703773E+01
 0.2847178423436E+01
 0.2749609015854E+01
 0.2647708213336E+01
 0.2543916068727E+01
 0.2441072537979E+01
 0.2342411628246E+01
 0.2251426435460E+01
 0.2171861637426E+01
 0.2107834581208E+01
 0.2064013251667E+01
 0.2045779024059E+01
 0.2059259867858E+01
 0.2111084018370E+01
 0.2207740156347E+01
 0.2354599168318E+01
 0.2554911024376E+01
 0.2809052025269E+01
 0.3114072814042E+01
 0.3463605514768E+01
 0.3848075037402E+01
 0.4255169451227E+01
 0.4670571813944E+01
 0.5078914126710E+01
 0.5464897289111E+01
 0.5814422728189E+01
 0.2803302889194E+01
 0.2871139817708E+01
 0.2939702845976E+01
 0.3005297680058E+01
 0.3064356703149E+01
 0.3113774698402E+01
 0.3151136675504E+01
 0.3174804153370E+01
 0.3183877521864E+01
 0.3178080441359E+01
 0.3157616853868E+01
 0.3123040182193E+01
 0.3075157056567E+01
 0.3014973064435E+01
 0.2943680179149E+01
 0.2862667599687E+01
 0.2773550812852E+01
 0.2678206853501E+01
 0.2578796810461E+01
 0.2477792816081E+01
 0.2378052466472E+01
 0.2282818653575E+01
 0.2195612243107E+01
 0.2120235219970E+01
 0.2060887241769E+01
 0.2022331513630E+01
 0.2010033698882E+01
 0.2030151269395E+01
 0.2089223716104E+01
 0.2193472339659E+01
 0.2347806503765E+01
 0.2554875673684E+01
 0.2814423577076E+01
 0.3122957123176E+01
 0.3473757841464E+01
 0.3857164556606E+01
 0.4261078831238E+01
 0.4671690480274E+01
 0.5074379479752E+01
 0.5454741930206E+01
 0.5799600600065E+01
 0.2735028661363E+01
 0.2800721246465E+01
 0.2866823768879E+01
 0.2929907278013E+01
 0.2986663821272E+01
 0.3034193463020E+01
 0.3070205711208E+01
 0.3093104194599E+01
 0.3101965623308E+01
 0.3096449025936E+01
 0.3076677274770E+01
 0.3043125414273E+01
 0.2996536439829E+01
 0.2937872503999E+01
 0.2868302646619E+01
 0.2789210786435E+01
 0.2702220286152E+01
 0.2609224565078E+01
 0.2512406103801E+01
 0.2414258733840E+01
 0.2317648765347E+01
 0.2225820159544E+01
 0.2142312943107E+01
 0.2070976081808E+01
 0.2016079736315E+01
 0.1982469696516E+01
 0.1975683473059E+01
 0.2001898292183E+01
 0.2067563848754E+01
 0.2178651850174E+01
 0.2339656754969E+01
 0.2552704840194E+01
 0.2817004785560E+01
 0.3128618072781E+01
 0.3480553757079E+01
 0.3863105511078E+01
 0.4264381248057E+01
 0.4671019257939E+01
 0.5069044431787E+01
 0.5444815693452E+01
 0.5785936641704E+01
 0.2667269999220E+01
 0.2731052515279E+01
 0.2794925972981E+01
 0.2855705499774E+01
 0.2910325596714E+01
 0.2956084160521E+01
 0.2990818888746E+01
 0.3012987867225E+01
 0.3021660695754E+01
 0.3016448157260E+01
 0.2997405079243E+01
 0.2964936158302E+01
 0.2919723456034E+01
 0.2862683586367E+01
 0.2794956726931E+01
 0.2717912924265E+01
 0.2633173291677E+01
 0.2542636911378E+01
 0.2448496973486E+01
 0.2353258813119E+01
 0.2259788646141E+01
 0.2171323782870E+01
 0.2091414964772E+01
 0.2023948114781E+01
 0.1973252583996E+01
 0.1944244972030E+01
 0.1942523900550E+01
 0.1974279904148E+01
 0.2045877156678E+01
 0.2163061902293E+01
 0.2329964787547E+01
 0.2548265540127E+01
 0.2816728134989E+01
 0.3131054729891E+01
 0.3484046009426E+01
 0.3865979015884E+01
 0.4265152961991E+01
 0.4668594822747E+01
 0.5062876555132E+01
 0.5434998012932E+01
 0.5773216359890E+01
 0.2599966446423E+01
 0.2662059672984E+01
 0.2723922099763E+01
 0.2782595569333E+01
 0.2835242628728E+01
 0.2879352373741E+01
 0.2912893247182E+01
 0.2934387762585E+01
 0.2942912256359E+01
 0.2938043276255E+01
 0.2919778946990E+01
 0.2888460704722E+01
 0.2844712049734E+01
 0.2789402055063E+01
 0.2723636462065E+01
 0.2648763315193E+01
 0.2566391812182E+01
 0.2478416361014E+01
 0.2387030464590E+01
 0.2294740975366E+01
 0.2204405358524E+01
 0.2119246675289E+01
 0.2042818091581E+01
 0.1979032702174E+01
 0.1932268106945E+01
 0.1907500636196E+01
 0.1910380791665E+01
 0.1947108959956E+01
 0.2023972776170E+01
 0.2146522432374E+01
 0.2318579098486E+01
 0.2541451241550E+01
 0.2813541860042E+01
 0.3130269557779E+01
 0.3484279366126E+01
 0.3865850424774E+01
 0.4263452142645E+01
 0.4664439419465E+01
 0.5055837690158E+01
 0.5425174199461E+01
 0.5761242895696E+01
 0.2533059076216E+01
 0.2593671040064E+01
 0.2653727691133E+01
 0.2710483592648E+01
 0.2761317447703E+01
 0.2803903801857E+01
 0.2836343606283E+01
 0.2857231838224E+01
 0.2865663076550E+01
 0.2861191508977E+01
 0.2843768313124E+01
 0.2813677803074E+01
 0.2771486901985E+01
 0.2718015164366E+01
 0.2654328601831E+01
 0.2581745526944E+01
 0.2501853969710E+01
 0.2416533687134E+01
 0.2327968381927E+01
 0.2238656661636E+01
 0.2151438757849E+01
 0.2069516021470E+01
 0.1996435894143E+01
 0.1936129029604E+01
 0.1893010581108E+01
 0.1872106048317E+01
 0.1879109842274E+01
 0.1920231342907E+01
 0.2001694659155E+01
 0.2128887640825E+01
 0.2305378607195E+01
 0.2532178405230E+01
 0.2807406973912E+01
 0.3126266620713E+01
 0.3481290377761E+01
 0.3862770596787E+01
 0.4259321180302E+01
 0.4658563538282E+01
 0.5047886337619E+01
 0.5415237124756E+01
 0.5749837872231E+01
 0.2466489977989E+01
 0.2525816495749E+01
 0.2584260319826E+01
 0.2639277667579E+01
 0.2688453776645E+01
 0.2729643809224E+01
 0.2761082458658E+01
 0.2781443628681E+01
 0.2789849635167E+01
 0.2785842270267E+01
 0.2769334041552E+01
 0.2740557347519E+01
 0.2700024094130E+01
 0.2648502306078E+01
 0.2587013190904E+01
 0.2516837945165E+01
 0.2439534551862E+01
 0.2356958476761E+01
 0.2271273787094E+01
 0.2184961313342E+01
 0.2100835755279E+01
 0.2022069435820E+01
 0.1952196047600E+01
 0.1895154299068E+01
 0.1855386324734E+01
 0.1837956558290E+01
 0.1848596318663E+01
 0.1893525253469E+01
 0.1978920271145E+01
 0.2110043992401E+01
 0.2290270097111E+01
 0.2520383797149E+01
 0.2798295037843E+01
 0.3119050329392E+01
 0.3475107366213E+01
 0.3856777062141E+01
 0.4252788668425E+01
 0.4650968194939E+01
 0.5038979742254E+01
 0.5405088785854E+01
 0.5738842374769E+01
 0.2400201806708E+01
 0.2458426854122E+01
 0.2515438825220E+01
 0.2568887091008E+01
 0.2616555855051E+01
 0.2656476986720E+01
 0.2687019825833E+01
 0.2706942385008E+01
 0.2715402482251E+01
 0.2711937773766E+01
 0.2696429007934E+01
 0.2669060976782E+01
 0.2630291688953E+01
 0.2580835553461E+01
 0.2521664069852E+01
 0.2454014234256E+01
 0.2379405439534E+01
 0.2299659532947E+01
 0.2216911378710E+01
 0.2133614726915E+01
 0.2052550635005E+01
 0.1976855224974E+01
 0.1910040522272E+01
 0.1856043836402E+01
 0.1819323716088E+01
 0.1804973416512E+01
 0.1818754798594E+01
 0.1866900655140E+01
 0.1955559584865E+01
 0.2089908682427E+01
 0.2273186282451E+01
 0.2506022502707E+01
 0.2786186570419E+01
 0.3108624624564E+01
 0.3465750565991E+01
 0.3847895060898E+01
 0.4243871068851E+01
 0.4641646841322E+01
 0.5029075687327E+01
 0.5394641753772E+01
 0.5728118031459E+01
 0.2334137384585E+01
 0.2391433314022E+01
 0.2447182637179E+01
 0.2499221649088E+01
 0.2545527819627E+01
 0.2584306730316E+01
 0.2614063091112E+01
 0.2633643159838E+01
 0.2642246530152E+01
 0.2639413462312E+01
 0.2624998602811E+01
 0.2599142596233E+01
 0.2562250235024E+01
 0.2514980127253E+01
 0.2458249294923E+01
 0.2393243711737E+01
 0.2321435941492E+01
 0.2244605175935E+01
 0.2164847763328E+01
 0.2084581291504E+01
 0.2006545249530E+01
 0.1933832528486E+01
 0.1869925660723E+01
 0.1818751104877E+01
 0.1784773151973E+01
 0.1773103678051E+01
 0.1789528983850E+01
 0.1840298899549E+01
 0.1931554394492E+01
 0.2068428582495E+01
 0.2254084484482E+01
 0.2489066591169E+01
 0.2771070021188E+01
 0.3094992523014E+01
 0.3453232364904E+01
 0.3836138433697E+01
 0.4232574067458E+01
 0.4630586927628E+01
 0.5018134018996E+01
 0.5383820512338E+01
 0.5717548175317E+01
 0.2268239345952E+01
 0.2324766969383E+01
 0.2379411172100E+01
 0.2430190976801E+01
 0.2475273134348E+01
 0.2513034837457E+01
 0.2542116816571E+01
 0.2561456848826E+01
 0.2570301282886E+01
 0.2568198367433E+01
 0.2554981160527E+01
 0.2530748824790E+01
 0.2495853194753E+01
 0.2450894782895E+01
 0.2396731474909E+01
 0.2334491634207E+01
 0.2265593033986E+01
 0.2191763442127E+01
 0.2115051616891E+01
 0.2037830111120E+01
 0.1962789096006E+01
 0.1892971341823E+01
 0.1831822145432E+01
 0.1783247627800E+01
 0.1751706947983E+01
 0.1742320101385E+01
 0.1760891587797E+01
 0.1813692541066E+01
 0.1906877965017E+01
 0.2045579673306E+01
 0.2232945905027E+01
 0.2469504393975E+01
 0.2752941256810E+01
 0.3078155974698E+01
 0.3437557607792E+01
 0.3821510349853E+01
 0.4218893624116E+01
 0.4617771128566E+01
 0.5006117910382E+01
 0.5372562684089E+01
 0.5707039066231E+01
 0.2202449817545E+01
 0.2258358368552E+01
 0.2312043287556E+01
 0.2361703974670E+01
 0.2405694062866E+01
 0.2442561121152E+01
 0.2471082550158E+01
 0.2490290197992E+01
 0.2499481013974E+01
 0.2498215406726E+01
 0.2486308320257E+01
 0.2463819370446E+01
 0.2431047297844E+01
 0.2388532119177E+01
 0.2337068024432E+01
 0.2277719393811E+01
 0.2211841504347E+01
 0.2141102180304E+01
 0.2067493737201E+01
 0.1993335013026E+01
 0.1921259276752E+01
 0.1854252425532E+01
 0.1795714860368E+01
 0.1749522821221E+01
 0.1720119178344E+01
 0.1712621037448E+01
 0.1732844295327E+01
 0.1787085344076E+01
 0.1881535024994E+01
 0.2021366970584E+01
 0.2209775491545E+01
 0.2447340376482E+01
 0.2731803529716E+01
 0.3058116000593E+01
 0.3418723940485E+01
 0.3804003861265E+01
 0.4202816715644E+01
 0.4603178237779E+01
 0.4992994867576E+01
 0.5360820135616E+01
 0.5696521149393E+01
 0.2136710127452E+01
 0.2192137112896E+01
 0.2244996784110E+01
 0.2293668272523E+01
 0.2336691177677E+01
 0.2372783042374E+01
 0.2400858629215E+01
 0.2420045786977E+01
 0.2429694903984E+01
 0.2429381629623E+01
 0.2418905327843E+01
 0.2398287340993E+01
 0.2367772824873E+01
 0.2327838811600E+01
 0.2279211335948E+01
 0.2222884626958E+01
 0.2160144000206E+01
 0.2092589047146E+01
 0.2022146990293E+01
 0.1951074446461E+01
 0.1881940349190E+01
 0.1817667106261E+01
 0.1761602651164E+01
 0.1717583738492E+01
 0.1690025452613E+01
 0.1684030302280E+01
 0.1705417788178E+01
 0.1760512480472E+01
 0.1855562106908E+01
 0.1995824951471E+01
 0.2184602398538E+01
 0.2422595602082E+01
 0.2707667923353E+01
 0.3034873103262E+01
 0.3396722186022E+01
 0.3783602275520E+01
 0.4184321767534E+01
 0.4586783728640E+01
 0.4978737474821E+01
 0.5348559952618E+01
 0.5685950328369E+01
 0.2070960536683E+01
 0.2126031485756E+01
 0.2178187943571E+01
 0.2225989730475E+01
 0.2268162899941E+01
 0.2303595359935E+01
 0.2331339984575E+01
 0.2350621995707E+01
 0.2360847146510E+01
 0.2361608419700E+01
 0.2352691284917E+01
 0.2334079494387E+01
 0.2305963823433E+01
 0.2268755771214E+01
 0.2223108869962E+01
 0.2169941233988E+01
 0.2110460982725E+01
 0.2046191400607E+01
 0.1978986149980E+01
 0.1911031272013E+01
 0.1844824066565E+01
 0.1783216971437E+01
 0.1729497984672E+01
 0.1687454724174E+01
 0.1661462621286E+01
 0.1656597019533E+01
 0.1678671819058E+01
 0.1734040904041E+01
 0.1829028230332E+01
 0.1969018486319E+01
 0.2157481057294E+01
 0.2395308804160E+01
 0.2680554289513E+01
 0.3008427961891E+01
 0.3371536757390E+01
 0.3760279343504E+01
 0.4163378763959E+01
 0.4568559970656E+01
 0.4963323869275E+01
 0.5335765270108E+01
 0.5675309231598E+01
 0.2005139987704E+01
 0.2059968103428E+01
 0.2111531093716E+01
 0.2158571967914E+01
 0.2200005064111E+01
 0.2234889796811E+01
 0.2262417948849E+01
 0.2281912961248E+01
 0.2292837030654E+01
 0.2294801661211E+01
 0.2287579351561E+01
 0.2271116433086E+01
 0.2245548259247E+01
 0.2211218229622E+01
 0.2168703162759E+01
 0.2118839308060E+01
 0.2062750581535E+01
 0.2001876088840E+01
 0.1937987628751E+01
 0.1873192440743E+01
 0.1809909009564E+01
 0.1750913458249E+01
 0.1699426507603E+01
 0.1659176973580E+01
 0.1634488400169E+01
 0.1630395414468E+01
 0.1652695310014E+01
 0.1707769877696E+01
 0.1802035913495E+01
 0.1941044277700E+01
 0.2128492873047E+01
 0.2365538098058E+01
 0.2650492715100E+01
 0.2978782443948E+01
 0.3343146123508E+01
 0.3733999258047E+01
 0.4139949017735E+01
 0.4548476080578E+01
 0.4946737928962E+01
 0.5322435940814E+01
 0.5664608447119E+01
 0.1939185864687E+01
 0.1993871580869E+01
 0.2044938191053E+01
 0.2091315913364E+01
 0.2132110503947E+01
 0.2166554724520E+01
 0.2193980075322E+01
 0.2213808534769E+01
 0.2225559011624E+01
 0.2228861881612E+01
 0.2223476913314E+01
 0.2209312751632E+01
 0.2186448109783E+01
 0.2155155755964E+01
 0.2115931755943E+01
 0.2069524976368E+01
 0.2016968353686E+01
 0.1959609136585E+01
 0.1899129102079E+01
 0.1837548565694E+01
 0.1777200112325E+01
 0.1720777340995E+01
 0.1671426507694E+01
 0.1632807998160E+01
 0.1609180906650E+01
 0.1605524542064E+01
 0.1627606447402E+01
 0.1681831622864E+01
 0.1774722492710E+01
 0.1912032809226E+01
 0.2097748581002E+01
 0.2333363389190E+01
 0.2617525586647E+01
 0.2945940996167E+01
 0.3311523367506E+01
 0.3704716468940E+01
 0.4113984578329E+01
 0.4526497380666E+01
 0.4928969154850E+01
 0.5308589026452E+01
 0.5653887702130E+01
 0.1873033760166E+01
 0.1927664202938E+01
 0.1978318410047E+01
 0.2024119363606E+01
 0.2064368650664E+01
 0.2098474859825E+01
 0.2125909965002E+01
 0.2146194238127E+01
 0.2158902769363E+01
 0.2163684369009E+01
 0.2160285709632E+01
 0.2148577132392E+01
 0.2128579393025E+01
 0.2100492196469E+01
 0.2064727036578E+01
 0.2021940141070E+01
 0.1973066933110E+01
 0.1919355315233E+01
 0.1862389012645E+01
 0.1804093373242E+01
 0.1746708071690E+01
 0.1692838107101E+01
 0.1645548268230E+01
 0.1608420985378E+01
 0.1585638089483E+01
 0.1582107917958E+01
 0.1603552726536E+01
 0.1656392034611E+01
 0.1747261700550E+01
 0.1882150782702E+01
 0.2065391279446E+01
 0.2298889532422E+01
 0.2581710328178E+01
 0.2909912486039E+01
 0.3276636877209E+01
 0.3672375305633E+01
 0.4085427228066E+01
 0.4502584405870E+01
 0.4910012213012E+01
 0.5294259078584E+01
 0.5643216967887E+01
 0.1806617242478E+01
 0.1861265594698E+01
 0.1911577732207E+01
 0.1956876548060E+01
 0.1996665144190E+01
 0.2030530980810E+01
 0.2058087114375E+01
 0.2078951236653E+01
 0.2092753274081E+01
 0.2099159284247E+01
 0.2097901943307E+01
 0.2088812408025E+01
 0.2071852148618E+01
 0.2047145552131E+01
 0.2015016001741E+01
 0.1976022132013E+01
 0.1930995581085E+01
 0.1881077605763E+01
 0.1827745962836E+01
 0.1772823042323E+01
 0.1718448648086E+01
 0.1667133231094E+01
 0.1621853325821E+01
 0.1586104061520E+01
 0.1563977053895E+01
 0.1560293039610E+01
 0.1580710913010E+01
 0.1631651413414E+01
 0.1719865457957E+01
 0.1851604032495E+01
 0.2031600183713E+01
 0.2262250341635E+01
 0.2543122946103E+01
 0.2870712628131E+01
 0.3238451263377E+01
 0.3636909433663E+01
 0.4054207024742E+01
 0.4476691399365E+01
 0.4889866105340E+01
 0.5279498212803E+01
 0.5632697395599E+01
 0.1739867619080E+01
 0.1794592383011E+01
 0.1844618526449E+01
 0.1889477691908E+01
 0.1928881455592E+01
 0.1962599665696E+01
 0.1990386791791E+01
 0.2011956338957E+01
 0.2026990870704E+01
 0.2035171779546E+01
 0.2036216381788E+01
 0.2029915600179E+01
 0.2016170379093E+01
 0.1995027800234E+01
 0.1966719951083E+01
 0.1931703272783E+01
 0.1890699637387E+01
 0.1844736552739E+01
 0.1795177992703E+01
 0.1743735428473E+01
 0.1692441855709E+01
 0.1643707345987E+01
 0.1600413633325E+01
 0.1565959460390E+01
 0.1544333280865E+01
 0.1540250782449E+01
 0.1559286880632E+01
 0.1607845148484E+01
 0.1692785811780E+01
 0.1820640884321E+01
 0.1996595137572E+01
 0.2223613562336E+01
 0.2501862547594E+01
 0.2828367172474E+01
 0.3196928640628E+01
 0.3598241188005E+01
 0.4020240331254E+01
 0.4448764198223E+01
 0.4868532930974E+01
 0.5264375958184E+01
 0.5622462112758E+01
 0.1672713688585E+01
 0.1727557837922E+01
 0.1777339106907E+01
 0.1821808565327E+01
 0.1860894511819E+01
 0.1894553049934E+01
 0.1922679941154E+01
 0.1945082023692E+01
 0.1961491381811E+01
 0.1971602121845E+01
 0.1975114446668E+01
 0.1971777928499E+01
 0.1961431942933E+01
 0.1944044649033E+01
 0.1919754094250E+01
 0.1888910344568E+01
 0.1852119854532E+01
 0.1810289490049E+01
 0.1764661722844E+01
 0.1716829151648E+01
 0.1668711021588E+01
 0.1622611293797E+01
 0.1581310613063E+01
 0.1548102586179E+01
 0.1526859727033E+01
 0.1522174643542E+01
 0.1539515267865E+01
 0.1585244255781E+01
 0.1666316901214E+01
 0.1789555870850E+01
 0.1960641873974E+01
 0.2183186897916E+01
 0.2458056999928E+01
 0.2782916049267E+01
 0.3152030425724E+01
 0.3556280825331E+01
 0.3983427222428E+01
 0.4418737325354E+01
 0.4846016145595E+01
 0.5248978891615E+01
 0.5612676711733E+01
 0.1605081474733E+01
 0.1660071484924E+01
 0.1709633259592E+01
 0.1753750014848E+01
 0.1792576326270E+01
 0.1826258612616E+01
 0.1854833129626E+01
 0.1878196513222E+01
 0.1896126250371E+01
 0.1908325842418E+01
 0.1914476312494E+01
 0.1914284810283E+01
 0.1907528418458E+01
 0.1894095242636E+01
 0.1874027087734E+01
 0.1847563959589E+01
 0.1815191623844E+01
 0.1777689644205E+01
 0.1736171365365E+01
 0.1692102548948E+01
 0.1647281713847E+01
 0.1603901056748E+01
 0.1564634105851E+01
 0.1532660981644E+01
 0.1511725819212E+01
 0.1506279837607E+01
 0.1521658926895E+01
 0.1564155696264E+01
 0.1640796842845E+01
 0.1758693714721E+01
 0.1924058029234E+01
 0.2141225225423E+01
 0.2411869980141E+01
 0.2734418773021E+01
 0.3103719928937E+01
 0.3510925839678E+01
 0.3943648186253E+01
 0.4386530037276E+01
 0.4822318190465E+01
 0.5233410110554E+01
 0.5603539281728E+01
 0.1536893933791E+01
 0.1592038673903E+01
 0.1641389722065E+01
 0.1685177464550E+01
 0.1723793629383E+01
 0.1757578992554E+01
 0.1786708543164E+01
 0.1811163898698E+01
 0.1830762725669E+01
 0.1845213914412E+01
 0.1854177014821E+01
 0.1857315848961E+01
 0.1854344934844E+01
 0.1845071810184E+01
 0.1829440492648E+01
 0.1807577832758E+01
 0.1779844079265E+01
 0.1746885098480E+01
 0.1709677583868E+01
 0.1669552471369E+01
 0.1628180517674E+01
 0.1587636549377E+01
 0.1550481201155E+01
 0.1519773195432E+01
 0.1499116345326E+01
 0.1492802243851E+01
 0.1506008133543E+01
 0.1544922380450E+01
 0.1616609375658E+01
 0.1728453414283E+01
 0.1887219838066E+01
 0.2098039089291E+01
 0.2363509658375E+01
 0.2682961437874E+01
 0.3051966069200E+01
 0.3462060548946E+01
 0.3900760020824E+01
 0.4352040893250E+01
 0.4797437178377E+01
 0.5217788641910E+01
 0.5595279706849E+01
 0.1468070624664E+01
 0.1523360089651E+01
 0.1572491601065E+01
 0.1615960378661E+01
 0.1654407500759E+01
 0.1688371844079E+01
 0.1718164044686E+01
 0.1743844332495E+01
 0.1765264107701E+01
 0.1782132972470E+01
 0.1794086580689E+01
 0.1800744823675E+01
 0.1801759981215E+01
 0.1796859268200E+01
 0.1785888159461E+01
 0.1768857954146E+01
 0.1745999077659E+01
 0.1717817612776E+01
 0.1685146193484E+01
 0.1649172912056E+01
 0.1611433643936E+01
 0.1573880256334E+01
 0.1538954937475E+01
 0.1509587547812E+01
 0.1489230254791E+01
 0.1481997223261E+01
 0.1492879556001E+01
 0.1527922789715E+01
 0.1594185103833E+01
 0.1699292228336E+01
 0.1850569389948E+01
 0.2054004551016E+01
 0.2313239308064E+01
 0.2628665735624E+01
 0.2996748681044E+01
 0.3409556343878E+01
 0.3854590961623E+01
 0.4315140218465E+01
 0.4771361967393E+01
 0.5202248925783E+01
 0.5588157731444E+01
 0.1398527329679E+01
 0.1453931187694E+01
 0.1502815714083E+01
 0.1545961681800E+01
 0.1584273012644E+01
 0.1618489753530E+01
 0.1649053321425E+01
 0.1676094315716E+01
 0.1699490076960E+01
 0.1718945600477E+01
 0.1734070207119E+01
 0.1744439705163E+01
 0.1749645218022E+01
 0.1749334798151E+01
 0.1743255558142E+01
 0.1731301676047E+01
 0.1713570064102E+01
 0.1690421302043E+01
 0.1662536697971E+01
 0.1630953457277E+01
 0.1597065356570E+01
 0.1562695699359E+01
 0.1530162858930E+01
 0.1502260791511E+01
 0.1482279384625E+01
 0.1474138342371E+01
 0.1482615013453E+01
 0.1513570182963E+01
 0.1574002187842E+01
 0.1671729320202E+01
 0.1814622265617E+01
 0.2009574446698E+01
 0.2261390191066E+01
 0.2571700556372E+01
 0.2938066046732E+01
 0.3353273252751E+01
 0.3804935437650E+01
 0.4275659723435E+01
 0.4744064117448E+01
 0.5186940485265E+01
 0.5582458519043E+01
 0.1328175609614E+01
 0.1383641530339E+01
 0.1432231830206E+01
 0.1475037122245E+01
 0.1513238884112E+01
 0.1547780225393E+01
 0.1579226132440E+01
 0.1607767088701E+01
 0.1633297113233E+01
 0.1655510687777E+01
 0.1673988486233E+01
 0.1688262695693E+01
 0.1697865287454E+01
 0.1702367394018E+01
 0.1701419045436E+01
 0.1694796702289E+01
 0.1682460805263E+01
 0.1664621151749E+01
 0.1641800637629E+01
 0.1614877528894E+01
 0.1585096182671E+01
 0.1554145693876E+01
 0.1524215389430E+01
 0.1497956638980E+01
 0.1478487105159E+01
 0.1469516028125E+01
 0.1475580062814E+01
 0.1502311374663E+01
 0.1556586322647E+01
 0.1646348731721E+01
 0.1779975209384E+01
 0.1965290945854E+01
 0.2208376990127E+01
 0.2512296757443E+01
 0.2875945339376E+01
 0.3293063585994E+01
 0.3751549469221E+01
 0.4233378860486E+01
 0.4715483518525E+01
 0.5172026867037E+01
 0.5578483349049E+01
 0.1256922270737E+01
 0.1312373995354E+01
 0.1360601786618E+01
 0.1403034570319E+01
 0.1441147158806E+01
 0.1476085764363E+01
 0.1508528685075E+01
 0.1538713149908E+01
 0.1566539024549E+01
 0.1591683872535E+01
 0.1613697695269E+01
 0.1632070311806E+01
 0.1646277641611E+01
 0.1655817396963E+01
 0.1660245082578E+01
 0.1659219987612E+01
 0.1652563992254E+01
 0.1640331364902E+01
 0.1622879735345E+01
 0.1600920397896E+01
 0.1575540876462E+01
 0.1548290358652E+01
 0.1521223983785E+01
 0.1496844120789E+01
 0.1478086872541E+01
 0.1468436183199E+01
 0.1472162485125E+01
 0.1494625138346E+01
 0.1542509909663E+01
 0.1623801352864E+01
 0.1747313386080E+01
 0.1921799180640E+01
 0.2154716047459E+01
 0.2450765814208E+01
 0.2810456898577E+01
 0.3228778431881E+01
 0.3694148514080E+01
 0.4188009881214E+01
 0.4685501883606E+01
 0.5157679193134E+01
 0.5576527620854E+01
 0.1184668713675E+01
 0.1240003820609E+01
 0.1287778444352E+01
 0.1329793230599E+01
 0.1367832909648E+01
 0.1403244067353E+01
 0.1436804150600E+01
 0.1468780903934E+01
 0.1499067578198E+01
 0.1527318059258E+01
 0.1553050137283E+01
 0.1575713496553E+01
 0.1594732376221E+01
 0.1609536004736E+01
 0.1619589389201E+01
 0.1624436529494E+01
 0.1623759691413E+01
 0.1617453515415E+01
 0.1605703812180E+01
 0.1589046936577E+01
 0.1568406099672E+01
 0.1545184834836E+01
 0.1521299007180E+01
 0.1499095728798E+01
 0.1481320661556E+01
 0.1471218783624E+01
 0.1472770762103E+01
 0.1491020353788E+01
 0.1532390412810E+01
 0.1604805554701E+01
 0.1717416602283E+01
 0.1879861434432E+01
 0.2101046473898E+01
 0.2387523051438E+01
 0.2741733355103E+01
 0.3160277880849E+01
 0.3632408290357E+01
 0.4139190006539E+01
 0.4653900189048E+01
 0.5144043873643E+01
 0.5576819720105E+01
 0.1111310112731E+01
 0.1166397463650E+01
 0.1213604452351E+01
 0.1255142767841E+01
 0.1293124016827E+01
 0.1329088386508E+01
 0.1363893379491E+01
 0.1397817491247E+01
 0.1430733280187E+01
 0.1462264055443E+01
 0.1491894579792E+01
 0.1519037811928E+01
 0.1543072122742E+01
 0.1563364807625E+01
 0.1579296080030E+01
 0.1590298090182E+01
 0.1595913669844E+01
 0.1595874522963E+01
 0.1590188475709E+01
 0.1579209100240E+01
 0.1563687794952E+01
 0.1544876674838E+01
 0.1524547286918E+01
 0.1504885276687E+01
 0.1488437218367E+01
 0.1478196444118E+01
 0.1477832624092E+01
 0.1492034080498E+01
 0.1526888040625E+01
 0.1590146299003E+01
 0.1691163847077E+01
 0.1840371207005E+01
 0.2048154069657E+01
 0.2323116451818E+01
 0.2669994871059E+01
 0.3087446624860E+01
 0.3565967986786E+01
 0.4086484817713E+01
 0.4620342014588E+01
 0.5131117026459E+01
 0.5579289556341E+01
 0.1036734323927E+01
 0.1091411336282E+01
 0.1137910717175E+01
 0.1178902357559E+01
 0.1216841066245E+01
 0.1253448119583E+01
 0.1289635863848E+01
 0.1325669829818E+01
 0.1361386322023E+01
 0.1396371342545E+01
 0.1430076808480E+01
 0.1461883732747E+01
 0.1491132023575E+01
 0.1517135375967E+01
 0.1539196805413E+01
 0.1556641861975E+01
 0.1568875598575E+01
 0.1575464442383E+01
 0.1576232564043E+01
 0.1571343113265E+01
 0.1561368215694E+01
 0.1547402849928E+01
 0.1531069267089E+01
 0.1514385389454E+01
 0.1499690037547E+01
 0.1489712886839E+01
 0.1487793707602E+01
 0.1498229758332E+01
 0.1526703028779E+01
 0.1580672705273E+01
 0.1669535482494E+01
 0.1804366075190E+01
 0.1996997665445E+01
 0.2258261631625E+01
 0.2595583108251E+01
 0.3010214021434E+01
 0.3494441886621E+01
 0.4029385398714E+01
 0.4584424214651E+01
 0.5118865831328E+01
 0.5581545118032E+01
 0.9608193142278E+00
 0.1014862185416E+01
 0.1060467070030E+01
 0.1100811542444E+01
 0.1138709129988E+01
 0.1176042392213E+01
 0.1213746409313E+01
 0.1252046269374E+01
 0.1290725719277E+01
 0.1329327728851E+01
 0.1367273272835E+01
 0.1403918160081E+01
 0.1438573347134E+01
 0.1470509518157E+01
 0.1498962412371E+01
 0.1523158355992E+01
 0.1542367824683E+01
 0.1555990311770E+01
 0.1563660482808E+01
 0.1565342639651E+01
 0.1561421077590E+01
 0.1552826767423E+01
 0.1541026448428E+01
 0.1527862346760E+01
 0.1515454533626E+01
 0.1506254606316E+01
 0.1503252170165E+01
 0.1510318442768E+01
 0.1532661808407E+01
 0.1577323310898E+01
 0.1653551353057E+01
 0.1772856371103E+01
 0.1948411696955E+01
 0.2193410628115E+01
 0.2518404383759E+01
 0.2927917733076E+01
 0.3416760643850E+01
 0.3966810407311E+01
 0.4545364604335E+01
 0.5107031428627E+01
 0.5588235405525E+01
 0.8834257358683E+00
 0.9365751597459E+00
 0.9810688665968E+00
 0.1020659257497E+01
 0.1058528097325E+01
 0.1096689265941E+01
 0.1136059301024E+01
 0.1176790984422E+01
 0.1218598522029E+01
 0.1260977263526E+01
 0.1303320811219E+01
 0.1344968264350E+01
 0.1385213015351E+01
 0.1423295489887E+01
 0.1458396546953E+01
 0.1489653238961E+01
 0.1516206920199E+01
 0.1537290041935E+01
 0.1552342721550E+01
 0.1561122355304E+01
 0.1563817132635E+01
 0.1561187366029E+01
 0.1554538171500E+01
 0.1545527825694E+01
 0.1536045951075E+01
 0.1528251171761E+01
 0.1524763866000E+01
 0.1528998844163E+01
 0.1545630482816E+01
 0.1581160792834E+01
 0.1644482674000E+01
 0.1747270830333E+01
 0.1903823494451E+01
 0.2129731420210E+01
 0.2439101339607E+01
 0.2840529179414E+01
 0.3332328787618E+01
 0.3897897916083E+01
 0.4502901667392E+01
 0.5095047447010E+01
 0.5614297065644E+01
 0.8044216880572E+00
 0.8563918508600E+00
 0.8995475428400E+00
 0.9382933284524E+00
 0.9761826787403E+00
 0.1015315291969E+01
 0.1056536624872E+01
 0.1099890519599E+01
 0.1145004381227E+01
 0.1191322757268E+01
 0.1238217037111E+01
 0.1285019532803E+01
 0.1331018953814E+01
 0.1375440123402E+01
 0.1417423928177E+01
 0.1456031086921E+01
 0.1490282315035E+01
 0.1519245489470E+01
 0.1542163123845E+01
 0.1558579335247E+01
 0.1568479485317E+01
 0.1572448332947E+01
 0.1571625186479E+01
 0.1567477845762E+01
 0.1561655273379E+01
 0.1556010197887E+01
 0.1552778818147E+01
 0.1554897845496E+01
 0.1566462213327E+01
 0.1593331427826E+01
 0.1643837013517E+01
 0.1729495271212E+01
 0.1865383764814E+01
 0.2069355219976E+01
 0.2359399905969E+01
 0.2749056109304E+01
 0.3241358176737E+01
 0.3822437034925E+01
 0.4456651286298E+01
 0.5086611232536E+01
 0.5647441374040E+01
 0.7236515018077E+00
 0.7741023777232E+00
 0.8156637295578E+00
 0.8534795117976E+00
 0.8914666785430E+00
 0.9317459644234E+00
 0.9750268248549E+00
 0.1021204155964E+01
 0.1069802811540E+01
 0.1120216077007E+01
 0.1171800623362E+01
 0.1223893711987E+01
 0.1275793968256E+01
 0.1326727371433E+01
 0.1375812504000E+01
 0.1422049974192E+01
 0.1464351561965E+01
 0.1501625481806E+01
 0.1532914978936E+01
 0.1557545228052E+01
 0.1575292556273E+01
 0.1586561879584E+01
 0.1592323157964E+01
 0.1593847337185E+01
 0.1592531880638E+01
 0.1589909769583E+01
 0.1587818274811E+01
 0.1588698215382E+01
 0.1596030494638E+01
 0.1614947072792E+01
 0.1653026505520E+01
 0.1721277490887E+01
 0.1835094272022E+01
 0.2014253185704E+01
 0.2280792201272E+01
 0.2654103475331E+01
 0.3143483825241E+01
 0.3739434457101E+01
 0.4406244466086E+01
 0.5081324867588E+01
 0.5687784712364E+01
 0.6409413207783E+00
 0.6894712976147E+00
 0.7291523694250E+00
 0.7659682410620E+00
 0.8041710235744E+00
 0.8458123093767E+00
 0.8913871528775E+00
 0.9405997882068E+00
 0.9928601135136E+00
 0.1047513402838E+01
 0.1103911702265E+01
 0.1161410664018E+01
 0.1219334929170E+01
 0.1276930357939E+01
 0.1333313763915E+01
 0.1387445589736E+01
 0.1438144289142E+01
 0.1484166432393E+01
 0.1524356127478E+01
 0.1557814821924E+01
 0.1584104195614E+01
 0.1603445772248E+01
 0.1616637446014E+01
 0.1624747226230E+01
 0.1628909660375E+01
 0.1630323082832E+01
 0.1630410842057E+01
 0.1631103050598E+01
 0.1635242014324E+01
 0.1647167845980E+01
 0.1673541338625E+01
 0.1724515429541E+01
 0.1815244341608E+01
 0.1966851116268E+01
 0.2205303776743E+01
 0.2556694906338E+01
 0.3038441815556E+01
 0.3647726942858E+01
 0.4350553354248E+01
 0.5077987456866E+01
 0.5736443210572E+01
 0.5560948125304E+00
 0.6022307044478E+00
 0.6397183061646E+00
 0.6754945908890E+00
 0.7140871452033E+00
 0.7573551024777E+00
 0.8054871516572E+00
 0.8579563997208E+00
 0.9140511452037E+00
 0.9730766450067E+00
 0.1034393135983E+01
 0.1097389545040E+01
 0.1161433767412E+01
 0.1225811958834E+01
 0.1289662571303E+01
 0.1351929994086E+01
 0.1411359703437E+01
 0.1466568635349E+01
 0.1516204257044E+01
 0.1559140592282E+01
 0.1594719705785E+01
 0.1622976988892E+01
 0.1644536490486E+01
 0.1660257602981E+01
 0.1671000066020E+01
 0.1677611706171E+01
 0.1681086622446E+01
 0.1682831798880E+01
 0.1685035186976E+01
 0.1691201409495E+01
 0.1706943666027E+01
 0.1741240610890E+01
 0.1808400333430E+01
 0.1930075228486E+01
 0.2135634532949E+01
 0.2458456387575E+01
 0.2926206314165E+01
 0.3545871025535E+01
 0.4287625163902E+01
 0.5075490314946E+01
 0.5794896376934E+01
 0.4688870985636E+00
 0.5120716516098E+00
 0.5470309422010E+00
 0.5817794655613E+00
 0.6210121495143E+00
 0.6662303259065E+00
 0.7172126531504E+00
 0.7731666452579E+00
 0.8332610893074E+00
 0.8967748846597E+00
 0.9630918910899E+00
 0.1031650190482E+01
 0.1101878784562E+01
 0.1173125776364E+01
 0.1244577384395E+01
 0.1315190633023E+01
 0.1383664108415E+01
 0.1448492303844E+01
 0.1508131731085E+01
 0.1561226679354E+01
 0.1606895282811E+01
 0.1644984827510E+01
 0.1675944643438E+01
 0.1700420206301E+01
 0.1718984166782E+01
 0.1732117286841E+01
 0.1740369091871E+01
 0.1744613460887E+01
 0.1746376240439E+01
 0.1748302105102E+01
 0.1754864665461E+01
 0.1773602421710E+01
 0.1817380739244E+01
 0.1907373482870E+01
 0.2075306802571E+01
 0.2361875330433E+01
 0.2807199401031E+01
 0.3432141330877E+01
 0.4214840601521E+01
 0.5072597351082E+01
 0.5864952350971E+01
 0.3790564005615E+00
 0.4186330008992E+00
 0.4507183000121E+00
 0.4845328683014E+00
 0.5247565490417E+00
 0.5723160791800E+00
 0.6264701951602E+00
 0.6861394032500E+00
 0.7503871267299E+00
 0.8184857927573E+00
 0.8898604989188E+00
 0.9640147150561E+00
 0.1040456323545E+01
 0.1118617602337E+01
 0.1197761004194E+01
 0.1276889749248E+01
 0.1354688522294E+01
 0.1429553346033E+01
 0.1499759868684E+01
 0.1563722187813E+01
 0.1620330808296E+01
 0.1669243483114E+01
 0.1710734557201E+01
 0.1745230391412E+01
 0.1773003854982E+01
 0.1794151781134E+01
 0.1808764526607E+01
 0.1817176150471E+01
 0.1820250935557E+01
 0.1819767068865E+01
 0.1819003204218E+01
 0.1823857084452E+01
 0.1845222915594E+01
 0.1902701887363E+01
 0.2028799266932E+01
 0.2270638699314E+01
 0.2682640930924E+01
 0.3304691565698E+01
 0.4128830158012E+01
 0.5067665598207E+01
 0.5948797709279E+01
 0.2862928087881E+00
 0.3214872937290E+00
 0.3503609870204E+00
 0.3834608247805E+00
 0.4251556270663E+00
 0.4755211197412E+00
 0.5331916476860E+00
 0.5968021071230E+00
 0.6653399157456E+00
 0.7380969777354E+00
 0.8145585773560E+00
 0.8943093267985E+00
 0.9769528392182E+00
 0.1062027474706E+01
 0.1148902023067E+01
 0.1236664388638E+01
 0.1324026527846E+01
 0.1409318879984E+01
 0.1490652554271E+01
 0.1566213640714E+01
 0.1634661877067E+01
 0.1695464103529E+01
 0.1748719274856E+01
 0.1794628819584E+01
 0.1833152485006E+01
 0.1863986464313E+01
 0.1886749094310E+01
 0.1901232611567E+01
 0.1907650236599E+01
 0.1906925598872E+01
 0.1901121470285E+01
 0.1894361625347E+01
 0.1895151068978E+01
 0.1920474441873E+01
 0.2001630612735E+01
 0.2190039466985E+01
 0.2555119912212E+01
 0.3161857141751E+01
 0.4025284309621E+01
 0.5058282430974E+01
 0.6049123700570E+01
 0.1902255163603E+00
 0.2201261209549E+00
 0.2454873404444E+00
 0.2782787858955E+00
 0.3220861803213E+00
 0.3757952040278E+00
 0.4373387395364E+00
 0.5051026473592E+00
 0.5780447944858E+00
 0.6555072297218E+00
 0.7370544006923E+00
 0.8223663595585E+00
 0.9111574126896E+00
 0.1003092451220E+01
 0.1097677203462E+01
 0.1194127289508E+01
 0.1291232573926E+01
 0.1387302519283E+01
 0.1480309010459E+01
 0.1568216328584E+01
 0.1649450864249E+01
 0.1723286305715E+01
 0.1789644196339E+01
 0.1848493163257E+01
 0.1899465282102E+01
 0.1941840088825E+01
 0.1974753997421E+01
 0.1997461845865E+01
 0.2009548988124E+01
 0.2011118141470E+01
 0.2003030288555E+01
 0.1987566460523E+01
 0.1970552766688E+01
 0.1965489835890E+01
 0.2000353491903E+01
 0.2127401791262E+01
 0.2429456415450E+01
 0.3002737196678E+01
 0.3898732636839E+01
 0.5040751361440E+01
 0.6169333423338E+01
 0.9043978916068E-01
 0.1139796105062E+00
 0.1355732422098E+00
 0.1687382939061E+00
 0.2154931689697E+00
 0.2731419681091E+00
 0.3389071850263E+00
 0.4110106215251E+00
 0.4884425826175E+00
 0.5706275585919E+00
 0.6572264188307E+00
 0.7480264304065E+00
 0.8428646466162E+00
 0.9415501309267E+00
 0.1043754977170E+01
 0.1148868977737E+01
 0.1255821008961E+01
 0.1362959461684E+01
 0.1468155468726E+01
 0.1569164144474E+01
 0.1664176730421E+01
 0.1752269146175E+01
 0.1833179223897E+01
 0.1906630317823E+01
 0.1971910079431E+01
 0.2027866831002E+01
 0.2073149531562E+01
 0.2106487929817E+01
 0.2126878199794E+01
 0.2133663005200E+01
 0.2126556532674E+01
 0.2105993270606E+01
 0.2074959744013E+01
 0.2042858490365E+01
 0.2032442265015E+01
 0.2092406791566E+01
 0.2313910533268E+01
 0.2828323374896E+01
 0.3742410983971E+01
 0.5009297280308E+01
 0.6313855642337E+01
 0.1548813693966E-01
 0.8614587673533E-02
 0.2009626569519E-01
 0.5472961775714E-01
 0.1054609296187E+00
 0.1676421004186E+00
 0.2379315573654E+00
 0.3145181534338E+00
 0.3964900542472E+00
 0.4833820620561E+00
 0.5749647569551E+00
 0.6711407462088E+00
 0.7718779785383E+00
 0.8771430518376E+00
 0.9868004067907E+00
 0.1100461642833E+01
 0.1217266419249E+01
 0.1335681589059E+01
 0.1453535430582E+01
 0.1568397290068E+01
 0.1678223046975E+01
 0.1781881421472E+01
 0.1878911357046E+01
 0.1968769563786E+01
 0.2050378786488E+01
 0.2122144397623E+01
 0.2182228710884E+01
 0.2228857315437E+01
 0.2260492639538E+01
 0.2275811101235E+01
 0.2273486948760E+01
 0.2252180497741E+01
 0.2212009709781E+01
 0.2157942349210E+01
 0.2106106925026E+01
 0.2097151644211E+01
 0.2221672410866E+01
 0.2643636054058E+01
 0.3548505806016E+01
 0.4954790759819E+01
 0.6488608505362E+01
 0.1238466218989E+00
 0.1173398177255E+00
 0.1017240691644E+00
 0.6432787197451E-01
 0.1100786243412E-01
 0.5963161526149E-01
 0.1345047571004E+00
 0.2156420902495E+00
 0.3021603037059E+00
 0.3937086281885E+00
 0.4901726674893E+00
 0.5915735022948E+00
 0.6980133371408E+00
 0.8096239574247E+00
 0.9264818767092E+00
 0.1048465479848E+01
 0.1175006105018E+01
 0.1304792948544E+01
 0.1435698071197E+01
 0.1565146874798E+01
 0.1690863417893E+01
 0.1811491120036E+01
 0.1926338168698E+01
 0.2034557344023E+01
 0.2134680124891E+01
 0.2224662642731E+01
 0.2302191088447E+01
 0.2365016343445E+01
 0.2411136990330E+01
 0.2438692439473E+01
 0.2445488110594E+01
 0.2428581757432E+01
 0.2385350503203E+01
 0.2316278245675E+01
 0.2230099754750E+01
 0.2155833773066E+01
 0.2172237352053E+01
 0.2461550057057E+01
 0.3309524849379E+01
 0.4862708688029E+01
 0.6701658860250E+01
 0.2397443425858E+00
 0.2439313115891E+00
 0.2301957249832E+00
 0.1874441387280E+00
 0.1251945592978E+00
 0.5238149217993E-01
 0.2926270635438E-01
 0.1144430129764E+00
 0.2054440754989E+00
 0.3015594902776E+00
 0.4027678373265E+00
 0.5092042247326E+00
 0.6211029375140E+00
 0.7387617320420E+00
 0.8624796177588E+00
 0.9924382939956E+00
 0.1128445972148E+01
 0.1269546363371E+01
 0.1413784212149E+01
 0.1558514892333E+01
 0.1701243038717E+01
 0.1840353848300E+01
 0.1974862931897E+01
 0.2103554737729E+01
 0.2224534465948E+01
 0.2335313069366E+01
 0.2433127213485E+01
 0.2515290859463E+01
 0.2579415200106E+01
 0.2623261697043E+01
 0.2644009569894E+01
 0.2637413038670E+01
 0.2598448025405E+01
 0.2523403704428E+01
 0.2413521513456E+01
 0.2284167744627E+01
 0.2191819635448E+01
 0.2308873566697E+01
 0.3022704673989E+01
 0.4710060560896E+01
 0.6964068545627E+01
 0.3637963761724E+00
 0.3803682241746E+00
 0.3657178042523E+00
 0.3145865505942E+00
 0.2444239772960E+00
 0.1652901395723E+00
 0.8015229673036E-01
 0.1217979332405E-01
 0.1063619867834E+00
 0.2069021350260E+00
 0.3126835608448E+00
 0.4239300019298E+00
 0.5409990670472E+00
 0.6643477347840E+00
 0.7944960043085E+00
 0.9319493262144E+00
 0.1076971926539E+01
 0.1229122767509E+01
 0.1386809212894E+01
 0.1547447112733E+01
 0.1708354303002E+01
 0.1867599919077E+01
 0.2023792438411E+01
 0.2175238954089E+01
 0.2319571623069E+01
 0.2453879133168E+01
 0.2575003073299E+01
 0.2679868758227E+01
 0.2765767914802E+01
 0.2830252656602E+01
 0.2870183871281E+01
 0.2880459801405E+01
 0.2854279027116E+01
 0.2784486046285E+01
 0.2665472079629E+01
 0.2498758630700E+01
 0.2312105878003E+01
 0.2233499571969E+01
 0.2702131599760E+01
 0.4461625924725E+01
 0.7290653475535E+01
 0.4986082857901E+00
 0.5287113430516E+00
 0.5079901721842E+00
 0.4446673333192E+00
 0.3658522373137E+00
 0.2806658584756E+00
 0.1903979571326E+00
 0.9533809721402E-01
 0.6422926636000E-02
 0.1097240843017E+00
 0.2198697384684E+00
 0.3356674547536E+00
 0.4575775942226E+00
 0.5862019947496E+00
 0.7222669695465E+00
 0.8665979441681E+00
 0.1019969854196E+01
 0.1182636412207E+01
 0.1353642132469E+01
 0.1530694759418E+01
 0.1711003067880E+01
 0.1892219904392E+01
 0.2072339328727E+01
 0.2249010853765E+01
 0.2419333016572E+01
 0.2580027447259E+01
 0.2727642924345E+01
 0.2858784874214E+01
 0.2970463218300E+01
 0.3060154476462E+01
 0.3124742269175E+01
 0.3158871288242E+01
 0.3154926496344E+01
 0.3103693410870E+01
 0.2994294584384E+01
 0.2816206911688E+01
 0.2568020890433E+01
 0.2306943839343E+01
 0.2408151697058E+01
 0.4069245697394E+01
 0.7699535457292E+01
 0.6485924770623E+00
 0.6913846241305E+00
 0.6553234081541E+00
 0.5760758101795E+00
 0.4889304967731E+00
 0.3980125130865E+00
 0.3028412423527E+00
 0.2033161671748E+00
 0.9918609746651E-01
 0.1032476615702E-01
 0.1242943605177E+00
 0.2443544532853E+00
 0.3707411359391E+00
 0.5041788749403E+00
 0.6455733364482E+00
 0.7960369858069E+00
 0.9568587454241E+00
 0.1129152594312E+01
 0.1312981167077E+01
 0.1506757793172E+01
 0.1707759980308E+01
 0.1913048852837E+01
 0.2119631804965E+01
 0.2324210895607E+01
 0.2523279723560E+01
 0.2713299970439E+01
 0.2890706777888E+01
 0.3051903277758E+01
 0.3193604032008E+01
 0.3313225255240E+01
 0.3407967565953E+01
 0.3472971495118E+01
 0.3501147063750E+01
 0.3483309814901E+01
 0.3406279183494E+01
 0.3251160622954E+01
 0.2994925439756E+01
 0.2617343107067E+01
 0.2298455759057E+01
 0.3494091704836E+01
 0.8206751065031E+01
 0.8218729351037E+00
 0.8700288296341E+00
 0.8031124508099E+00
 0.7070826773072E+00
 0.6133936378090E+00
 0.5170567502434E+00
 0.4172645062646E+00
 0.3135040458092E+00
 0.2053247950222E+00
 0.9234152326896E-01
 0.2596177671437E-01
 0.1499514940807E+00
 0.2804216869113E+00
 0.4181719046174E+00
 0.5642502092031E+00
 0.7199976135315E+00
 0.8871419756566E+00
 0.1067731689350E+01
 0.1263327423231E+01
 0.1473796072800E+01
 0.1696887555092E+01
 0.1928751042507E+01
 0.2164735689339E+01
 0.2400146727301E+01
 0.2630808274900E+01
 0.2853108972416E+01
 0.3063658548601E+01
 0.3258884602944E+01
 0.3435153217829E+01
 0.3589565285939E+01
 0.3719711892859E+01
 0.3822105374236E+01
 0.3891996932748E+01
 0.3922801358111E+01
 0.3903614857379E+01
 0.3813600466158E+01
 0.3620806163186E+01
 0.3261849401002E+01
 0.2642940748829E+01
 0.2848501962503E+01
 0.8809355336013E+01
 0.1035535632517E+01
 0.1059785019591E+01
 0.9421577849813E+00
 0.8378327868135E+00
 0.7388878085479E+00
 0.6375957287117E+00
 0.5335651159049E+00
 0.4257811144516E+00
 0.3137809779866E+00
 0.1970893773728E+00
 0.7521264277557E-01
 0.5244262670977E-01
 0.1865821883171E+00
 0.3281172737886E+00
 0.4781934593887E+00
 0.6383070720235E+00
 0.8104763120867E+00
 0.9975292646536E+00
 0.1202966360129E+01
 0.1429478378980E+01
 0.1676228242381E+01
 0.1937811901927E+01
 0.2206696650642E+01
 0.2476136955264E+01
 0.2741275813636E+01
 0.2998739178362E+01
 0.3245726952881E+01
 0.3479112869335E+01
 0.3694963900227E+01
 0.3889304237428E+01
 0.4059496648940E+01
 0.4204563956204E+01
 0.4324472462865E+01
 0.4418382499646E+01
 0.4481629441169E+01
 0.4505034369552E+01
 0.4456778192862E+01
 0.4311513449793E+01
 0.3788878121116E+01
 0.2935219989252E+01
 0.9458740793281E+01
 0.1334130746601E+01
 0.1216448573742E+01
 0.1071069247050E+01
 0.9695296901449E+00
 0.8647201402725E+00
 0.7596763918983E+00
 0.6516159465281E+00
 0.5400836905623E+00
 0.4244793790608E+00
 0.3043274546550E+00
 0.1790954577264E+00
 0.4816568357852E-01
 0.8921720136534E-01
 0.2339957599673E+00
 0.3873644972353E+00
 0.5508942063329E+00
 0.7267253816896E+00
 0.9180199503488E+00
 0.1129998422433E+01
 0.1370687181082E+01
 0.1643041027926E+01
 0.1938552938982E+01
 0.2244612724230E+01
 0.2551576409378E+01
 0.2854034216799E+01
 0.3149356568231E+01
 0.3435878618383E+01
 0.3711543333425E+01
 0.3972728585506E+01
 0.4213035556296E+01
 0.4426758785675E+01
 0.4617387717520E+01
 0.4793629933329E+01
 0.4962042942862E+01
 0.5129994388769E+01
 0.5304809251779E+01
 0.5507536634341E+01
 0.5710855280334E+01
 0.6130128326570E+01
 0.5466668024453E+01
 0.1093163129440E+02
 0.9566643867072E+00
 0.1066657035788E+01
 0.1191452797971E+01
 0.1313156084872E+01
 0.1422270382933E+01
 0.1513841991532E+01
 0.1585517482729E+01
 0.1636400913047E+01
 0.1666413667302E+01
 0.1675991068965E+01
 0.1666016515278E+01
 0.1636993422020E+01
 0.1590089479128E+01
 0.1527682548389E+01
 0.1451243600725E+01
 0.1361161222166E+01
 0.1257373754501E+01
 0.1140023863711E+01
 0.1010158819052E+01
 0.8605909368660E+00
 0.9286768567982E+00
 0.1052305871135E+01
 0.1187935420892E+01
 0.1319825796485E+01
 0.1438576314987E+01
 0.1539239707550E+01
 0.1619447310630E+01
 0.1678276902262E+01
 0.1715610449464E+01
 0.1731861070972E+01
 0.1727824111602E+01
 0.1703998360260E+01
 0.1661532662421E+01
 0.1602484658081E+01
 0.1528121756552E+01
 0.1438943490317E+01
 0.1334788983407E+01
 0.1215442478452E+01
 0.1076328370019E+01
 0.9146415335951E+00
 0.9007655793820E+00
 0.1039877128140E+01
 0.1187300352503E+01
 0.1329502114645E+01
 0.1457793102334E+01
 0.1567373601302E+01
 0.1655921021170E+01
 0.1722524442515E+01
 0.1767068780194E+01
 0.1789944383434E+01
 0.1791863561503E+01
 0.1773401261064E+01
 0.1735650379775E+01
 0.1680339305118E+01
 0.1608564299703E+01
 0.1520637565852E+01
 0.1416102226037E+01
 0.1293274621514E+01
 0.1148668009794E+01
 0.9875984263996E+00
 0.8733837713611E+00
 0.1028970568037E+01
 0.1189069422846E+01
 0.1341882762535E+01
 0.1479679841948E+01
 0.1598028226834E+01
 0.1694741368675E+01
 0.1768971790234E+01
 0.1820635190039E+01
 0.1850116572159E+01
 0.1858090739860E+01
 0.1845189072950E+01
 0.1812434814526E+01
 0.1761261802695E+01
 0.1692521411029E+01
 0.1606264501453E+01
 0.1501588764157E+01
 0.1376801355551E+01
 0.1230854991271E+01
 0.1069881129077E+01
 0.8466589832968E+00
 0.1019531114253E+01
 0.1192926694601E+01
 0.1356650681827E+01
 0.1503967603938E+01
 0.1630962196635E+01
 0.1735688497307E+01
 0.1817418951268E+01
 0.1876132820560E+01
 0.1912237122506E+01
 0.1926396319190E+01
 0.1919279291709E+01
 0.1891828431368E+01
 0.1845203603457E+01
 0.1779998605107E+01
 0.1695998854016E+01
 0.1592189240735E+01
 0.1467374087258E+01
 0.1321557317899E+01
 0.1160256828993E+01
 0.8206780781563E+00
 0.1011483178513E+01
 0.1198649325380E+01
 0.1373514271673E+01
 0.1530372441245E+01
 0.1665913167319E+01
 0.1778519315332E+01
 0.1867641714967E+01
 0.1933359628093E+01
 0.1976128483944E+01
 0.1996622921531E+01
 0.1995534650131E+01
 0.1973719111576E+01
 0.1932092707046E+01
 0.1871014915862E+01
 0.1790106107561E+01
 0.1688404982456E+01
 0.1565029259046E+01
 0.1420343504255E+01
 0.1258748520236E+01
 0.7955134204807E+00
 0.1004751944791E+01
 0.1206036819590E+01
 0.1392204574874E+01
 0.1558607222739E+01
 0.1702602556801E+01
 0.1822969958975E+01
 0.1919392059733E+01
 0.1992084335504E+01
 0.2041575809995E+01
 0.2068568348150E+01
 0.2073768551027E+01
 0.2057948656020E+01
 0.2021820338674E+01
 0.1965559924302E+01
 0.1888695104141E+01
 0.1790314294694E+01
 0.1669661596663E+01
 0.1527051977465E+01
 0.1365710706803E+01
 0.7712344564773E+00
 0.9992609544160E+00
 0.1214899105565E+01
 0.1412462314567E+01
 0.1588384537544E+01
 0.1740740113131E+01
 0.1868758200261E+01
 0.1972398557185E+01
 0.2052046353370E+01
 0.2108327879761E+01
 0.2141988170267E+01
 0.2153748279458E+01
 0.2144309612020E+01
 0.2114222632743E+01
 0.2063527682073E+01
 0.1991688300516E+01
 0.1897802573842E+01
 0.1781096606431E+01
 0.1641628815763E+01
 0.1481515097850E+01
 0.7479108046864E+00
 0.9949333877992E+00
 0.1225050485764E+01
 0.1434032879783E+01
 0.1619415694722E+01
 0.1780026464924E+01
 0.1915585684497E+01
 0.2026367708485E+01
 0.2112956883765E+01
 0.2176098774313E+01
 0.2216597589947E+01
 0.2235194800858E+01
 0.2232539172881E+01
 0.2209060653133E+01
 0.2164698514483E+01
 0.2098862101728E+01
 0.2010619423803E+01
 0.1899091988761E+01
 0.1763989621092E+01
 0.1606431384008E+01
 0.7256130148674E+00
 0.9916923018346E+00
 0.1236307420084E+01
 0.1456663687011E+01
 0.1651410223957E+01
 0.1820154476315E+01
 0.1963139977180E+01
 0.2080985804176E+01
 0.2174500721656E+01
 0.2244569764024E+01
 0.2292072564665E+01
 0.2317781542200E+01
 0.2322313379464E+01
 0.2306012611533E+01
 0.2268743950229E+01
 0.2209867250082E+01
 0.2128395385462E+01
 0.2023303228573E+01
 0.1893929573422E+01
 0.1740521092392E+01
 0.7044122543987E+00
 0.9894607278695E+00
 0.1248487578882E+01
 0.1480103154828E+01
 0.1684075860686E+01
 0.1860810493746E+01
 0.2011096526743E+01
 0.2135921126224E+01
 0.2236338500748E+01
 0.2313391388680E+01
 0.2368050985372E+01
 0.2401133814127E+01
 0.2413245260390E+01
 0.2404674524686E+01
 0.2375233702089E+01
 0.2324239421297E+01
 0.2250639822849E+01
 0.2153252584896E+01
 0.2031062025148E+01
 0.1883570221660E+01
 0.6843795656137E+00
 0.9881617143736E+00
 0.1261409637671E+01
 0.1504100587022E+01
 0.1717119099170E+01
 0.1901675758277E+01
 0.2059120742795E+01
 0.2190826382518E+01
 0.2298109240893E+01
 0.2382185827217E+01
 0.2444134395096E+01
 0.2484829852828E+01
 0.2504886371602E+01
 0.2504564052761E+01
 0.2483642297588E+01
 0.2441404191351E+01
 0.2376735838639E+01
 0.2288307191652E+01
 0.2174787106171E+01
 0.2035059653366E+01
 0.6655849421557E+00
 0.9877184191681E+00
 0.1274893523373E+01
 0.1528406664814E+01
 0.1750246216606E+01
 0.1942428103870E+01
 0.2106870292078E+01
 0.2245341414085E+01
 0.2359433260539E+01
 0.2450549798709E+01
 0.2519890704579E+01
 0.2568403676346E+01
 0.2596730675495E+01
 0.2605126092179E+01
 0.2593355593585E+01
 0.2560681378361E+01
 0.2505938189199E+01
 0.2427669061717E+01
 0.2324277514107E+01
 0.2194148946848E+01
 0.6480963611305E+00
 0.9880542921318E+00
 0.1288760986198E+01
 0.1552774363089E+01
 0.1783164665678E+01
 0.1982743916338E+01
 0.2153997599042E+01
 0.2299096129291E+01
 0.2419915413893E+01
 0.2518058000884E+01
 0.2594857846013E+01
 0.2651349313377E+01
 0.2688219908283E+01
 0.2705739419771E+01
 0.2703677913846E+01
 0.2681290934083E+01
 0.2637376407314E+01
 0.2570375530707E+01
 0.2478477948187E+01
 0.2359676052415E+01
 0.6319788414358E+00
 0.9890933628959E+00
 0.1302836432979E+01
 0.1576960202986E+01
 0.1815584786966E+01
 0.2022300360738E+01
 0.2200152589513E+01
 0.2351713716903E+01
 0.2479148720840E+01
 0.2584267152474E+01
 0.2668548329279E+01
 0.2733126186924E+01
 0.2778750143720E+01
 0.2805724451183E+01
 0.2813840560022E+01
 0.2802361601437E+01
 0.2770063623293E+01
 0.2715309530849E+01
 0.2636119541267E+01
 0.2530178238744E+01
 0.6172935900650E+00
 0.9907606378485E+00
 0.1316947971393E+01
 0.1600725763743E+01
 0.1847221776821E+01
 0.2060777840924E+01
 0.2244985663843E+01
 0.2402814136159E+01
 0.2536718387639E+01
 0.2648720607158E+01
 0.2740454591320E+01
 0.2813165467083E+01
 0.2867679417578E+01
 0.2904352210772E+01
 0.2923012076981E+01
 0.2922942649191E+01
 0.2902910812453E+01
 0.2861219036800E+01
 0.2795749472185E+01
 0.2703938059402E+01
 0.6040972539334E+00
 0.9929825947365E+00
 0.1330928623224E+01
 0.1623839400048E+01
 0.1877797863760E+01
 0.2097862660139E+01
 0.2288150880726E+01
 0.2452017866285E+01
 0.2592206184950E+01
 0.2710953466232E+01
 0.2810055006911E+01
 0.2890877226202E+01
 0.2954336283842E+01
 0.3000854479158E+01
 0.3030310255373E+01
 0.3042018412631E+01
 0.3034745603330E+01
 0.3006743903792E+01
 0.2955773139632E+01
 0.2879051876774E+01
 0.5924413203143E+00
 0.9956877667367E+00
 0.1344617672497E+01
 0.1646078114113E+01
 0.1907044640286E+01
 0.2133249834099E+01
 0.2329309305955E+01
 0.2498949863614E+01
 0.2645195111526E+01
 0.2770498084376E+01
 0.2876820416034E+01
 0.2965658231503E+01
 0.3038029149461E+01
 0.3094434969323E+01
 0.3134815626730E+01
 0.3158525080745E+01
 0.3164334395584E+01
 0.3150447400438E+01
 0.3114502891510E+01
 0.3053508073419E+01
 0.5823716791704E+00
 0.9988073969614E+00
 0.1357862102281E+01
 0.1667229522545E+01
 0.1934705487393E+01
 0.2166645996663E+01
 0.2368132468012E+01
 0.2543243663652E+01
 0.2695274267420E+01
 0.2826889871557E+01
 0.2940221049286E+01
 0.3036900244980E+01
 0.3118056251276E+01
 0.3184281356196E+01
 0.3235586140280E+01
 0.3271369093600E+01
 0.3290406445751E+01
 0.3290849509780E+01
 0.3270206483681E+01
 0.3225259733472E+01
 0.5739283466279E+00
 0.1002276147586E+01
 0.1370518090357E+01
 0.1687093881874E+01
 0.1960538054477E+01
 0.2197772360806E+01
 0.2404305880286E+01
 0.2584545578735E+01
 0.2742043870805E+01
 0.2879673302917E+01
 0.2999733738040E+01
 0.3103998691644E+01
 0.3193716099349E+01
 0.3269577903874E+01
 0.3331672591494E+01
 0.3379446383724E+01
 0.3411678541941E+01
 0.3426459416307E+01
 0.3421150738071E+01
 0.3392284589004E+01
 0.5671453420024E+00
 0.1006032845397E+01
 0.1382452525812E+01
 0.1705486123481E+01
 0.1984316739490E+01
 0.2226367675243E+01
 0.2437532563794E+01
 0.2622518914384E+01
 0.2785120325861E+01
 0.2928408024074E+01
 0.3054849272828E+01
 0.3166361529718E+01
 0.3264318173661E+01
 0.3349518387974E+01
 0.3422134331231E+01
 0.3481661693295E+01
 0.3526879085369E+01
 0.3555805623287E+01
 0.3565638615787E+01
 0.3552631047129E+01
 0.5620506963859E+00
 0.1010021245799E+01
 0.1393544511803E+01
 0.1722237853903E+01
 0.2005835119580E+01
 0.2252191121502E+01
 0.2467536507573E+01
 0.2656848130426E+01
 0.2824141252642E+01
 0.2972674943630E+01
 0.3105079777339E+01
 0.3223418157405E+01
 0.3329193658094E+01
 0.3423319011748E+01
 0.3506054809970E+01
 0.3576947310030E+01
 0.3634770658632E+01
 0.3677462996389E+01
 0.3702040413435E+01
 0.3704452111863E+01
 0.5586665612792E+00
 0.1014190797898E+01
 0.1403686820878E+01
 0.1737199277504E+01
 0.2024908282452E+01
 0.2275025094579E+01
 0.2494066000783E+01
 0.2687242868844E+01
 0.2858770385678E+01
 0.3012082200632E+01
 0.3149965961509E+01
 0.3274628186501E+01
 0.3387705994257E+01
 0.3490231027617E+01
 0.3582556573061E+01
 0.3664280717399E+01
 0.3734170523541E+01
 0.3790076102962E+01
 0.3828820453684E+01
 0.3846032533150E+01
 0.5570093795513E+00
 0.1018497393871E+01
 0.1412787270198E+01
 0.1750240999078E+01
 0.2041375008157E+01
 0.2294677808280E+01
 0.2516896766906E+01
 0.2713441765723E+01
 0.2888702243095E+01
 0.3046270890234E+01
 0.3189084113634E+01
 0.3319489912095E+01
 0.3439261043468E+01
 0.3549552803048E+01
 0.3650815396492E+01
 0.3742700839582E+01
 0.3823968737882E+01
 0.3892378584322E+01
 0.3944556419592E+01
 0.3975807078659E+01
 0.5570900794906E+00
 0.1022904087746E+01
 0.1420769987940E+01
 0.1761255669144E+01
 0.2055099756414E+01
 0.2310985671142E+01
 0.2535834834554E+01
 0.2735215968372E+01
 0.2913666472359E+01
 0.3074920436875E+01
 0.3222052701135E+01
 0.3357548322883E+01
 0.3483316671345E+01
 0.3600641116826E+01
 0.3710073344680E+01
 0.3811322709241E+01
 0.3903143890351E+01
 0.3983208633779E+01
 0.4047951616045E+01
 0.4092365318353E+01
 0.5589142589947E+00
 0.1027381770856E+01
 0.1427576546144E+01
 0.1770159439237E+01
 0.2065974418801E+01
 0.2323815382098E+01
 0.2550719081255E+01
 0.2752372279647E+01
 0.2933431779835E+01
 0.3097753507430E+01
 0.3248538457250E+01
 0.3388402511431E+01
 0.3519391594590E+01
 0.3642921514409E+01
 0.3759650598565E+01
 0.3869350501354E+01
 0.3970776608968E+01
 0.4061521363351E+01
 0.4137843303277E+01
 0.4194451431767E+01
 0.5624823373982E+00
 0.1031909793220E+01
 0.1433166938420E+01
 0.1776893198395E+01
 0.2073919798821E+01
 0.2333065697250E+01
 0.2561423386888E+01
 0.2764755850097E+01
 0.2947809349521E+01
 0.3114540357020E+01
 0.3268261836601E+01
 0.3411712357583E+01
 0.3547073353331E+01
 0.3675897584761E+01
 0.3798955948599E+01
 0.3916088937254E+01
 0.4026061120493E+01
 0.4126398970059E+01
 0.4213208767334E+01
 0.4280962157156E+01
 0.5677896682031E+00
 0.1036476523290E+01
 0.1437520387465E+01
 0.1781423571667E+01
 0.2078886793431E+01
 0.2338668829302E+01
 0.2567858342100E+01
 0.2772252345632E+01
 0.2956655663115E+01
 0.3125102509561E+01
 0.3281001739235E+01
 0.3427204385627E+01
 0.3566025310910E+01
 0.3699159066150E+01
 0.3827495888210E+01
 0.3950953098699E+01
 0.4068315181403E+01
 0.4177059471818E+01
 0.4273170357390E+01
 0.4350944417672E+01
 0.5748266313246E+00
 0.1041079841192E+01
 0.1440635974780E+01
 0.1783743669023E+01
 0.2080857256521E+01
 0.2340591445446E+01
 0.2569972457569E+01
 0.2774789514913E+01
 0.2959874626946E+01
 0.3129315668999E+01
 0.3286599403519E+01
 0.3434676709150E+01
 0.3575992610731E+01
 0.3712388724458E+01
 0.3844882266315E+01
 0.3973476670790E+01
 0.4096988598867E+01
 0.4212864650308E+01
 0.4317000659655E+01
 0.4403594274390E+01
 0.5835787082531E+00
 0.1045727553460E+01
 0.1442533081028E+01
 0.1783873576949E+01
 0.2079844531633E+01
 0.2338835236295E+01
 0.2567752824879E+01
 0.2772338082196E+01
 0.2957418908582E+01
 0.3127111752305E+01
 0.3284961368818E+01
 0.3434002991669E+01
 0.3576807050076E+01
 0.3715367987581E+01
 0.3850838478955E+01
 0.3983318558080E+01
 0.4111670315075E+01
 0.4233327509115E+01
 0.4344128835074E+01
 0.4438258742583E+01
 0.5940265879208E+00
 0.1050437731799E+01
 0.1443251654054E+01
 0.1781860618161E+01
 0.2075893674376E+01
 0.2333437058384E+01
 0.2561225206014E+01
 0.2764911912663E+01
 0.2949290399094E+01
 0.3118479940065E+01
 0.3276061415447E+01
 0.3425135374825E+01
 0.3568390881776E+01
 0.3707981391189E+01
 0.3845204255466E+01
 0.3980267831343E+01
 0.4112093771272E+01
 0.4238118943436E+01
 0.4354148616706E+01
 0.4454441442324E+01
 0.6061463236226E+00
 0.1055238960325E+01
 0.1442852318490E+01
 0.1777779412423E+01
 0.2069081391249E+01
 0.2324468655001E+01
 0.2550453529919E+01
 0.2752567398339E+01
 0.2935539709626E+01
 0.3103466617083E+01
 0.3259941358402E+01
 0.3408106316532E+01
 0.3550759594340E+01
 0.3690219977753E+01
 0.3827939187482E+01
 0.3964247094109E+01
 0.4098140286019E+01
 0.4227072402599E+01
 0.4346826526570E+01
 0.4451810384469E+01
 0.6199095479332E+00
 0.1060170474372E+01
 0.1441416367173E+01
 0.1771731806126E+01
 0.2059515743364E+01
 0.2312035966428E+01
 0.2535538779159E+01
 0.2735402019583E+01
 0.2916264606256E+01
 0.3082174032463E+01
 0.3236710487302E+01
 0.3383029192732E+01
 0.3524023704054E+01
 0.3662183857907E+01
 0.3799125207924E+01
 0.3935314311564E+01
 0.4069840522424E+01
 0.4200185338292E+01
 0.4322104596903E+01
 0.4430199038988E+01
 0.6352836954605E+00
 0.1065282146983E+01
 0.1439045720338E+01
 0.1763846808476E+01
 0.2047335700080E+01
 0.2296278058926E+01
 0.2516617282953E+01
 0.2713552103501E+01
 0.2891607362359E+01
 0.3054757550667E+01
 0.3206543405414E+01
 0.3350097438951E+01
 0.3488389612738E+01
 0.3624084438484E+01
 0.3758968600141E+01
 0.3893663220029E+01
 0.4027373927676E+01
 0.4157619185990E+01
 0.4280093996375E+01
 0.4389581939961E+01
 0.6522320970245E+00
 0.1070634246717E+01
 0.1435863081702E+01
 0.1754280796634E+01
 0.2032710650882E+01
 0.2277365642968E+01
 0.2493858417272E+01
 0.2687189825557E+01
 0.2861751037979E+01
 0.3021421344151E+01
 0.3169675870024E+01
 0.3309581591697E+01
 0.3444159218647E+01
 0.3576246875053E+01
 0.3707802829549E+01
 0.3839622554773E+01
 0.3971064666162E+01
 0.4099698785760E+01
 0.4221080004789E+01
 0.4330074670758E+01
 0.6707134442508E+00
 0.1076296845703E+01
 0.1432012766894E+01
 0.1743218545677E+01
 0.2015839880156E+01
 0.2255499023199E+01
 0.2467461696762E+01
 0.2656519680573E+01
 0.2826914855223E+01
 0.2982412531880E+01
 0.3126398403889E+01
 0.3261823415218E+01
 0.3391727018395E+01
 0.3519113545320E+01
 0.3646095098172E+01
 0.3773656999059E+01
 0.3901371264947E+01
 0.4026905117829E+01
 0.4145547450478E+01
 0.4252003003621E+01
 0.6906796312094E+00
 0.1082348435664E+01
 0.1427664058295E+01
 0.1730876021147E+01
 0.1996951879314E+01
 0.2230904730763E+01
 0.2437653355113E+01
 0.2621774811417E+01
 0.2787348986584E+01
 0.2938013587644E+01
 0.3077047430930E+01
 0.3207226511175E+01
 0.3331571742082E+01
 0.3453244891633E+01
 0.3574463566153E+01
 0.3696377041765E+01
 0.3818869829462E+01
 0.3939842566725E+01
 0.4054191948213E+01
 0.4155982136519E+01
 0.7120676851213E+00
 0.1088875730044E+01
 0.1423020431441E+01
 0.1717508268317E+01
 0.1976300913092E+01
 0.2203829539810E+01
 0.2404682612594E+01
 0.2583214637732E+01
 0.2743328977641E+01
 0.2888533214434E+01
 0.3021993481835E+01
 0.3146243920112E+01
 0.3264242496849E+01
 0.3379306390134E+01
 0.3493697183867E+01
 0.3608603866802E+01
 0.3724230656267E+01
 0.3839150620487E+01
 0.3947877864775E+01
 0.4043057025728E+01
 0.7347777844772E+00
 0.1095964801909E+01
 0.1418366274096E+01
 0.1703416472993E+01
 0.1954153319068E+01
 0.2174533466528E+01
 0.2368817791395E+01
 0.2541123296040E+01
 0.2695156600008E+01
 0.2834290539365E+01
 0.2961626291420E+01
 0.3079365561650E+01
 0.3190340569493E+01
 0.3298043861047E+01
 0.3404724213593E+01
 0.3511478961025E+01
 0.3618447356774E+01
 0.3725150514847E+01
 0.3827397711289E+01
 0.3914997270065E+01
 0.7585015436732E+00
 0.1103895566237E+01
 0.1414167550905E+01
 0.1688913837019E+01
 0.1930762824698E+01
 0.2143284772583E+01
 0.2330348266301E+01
 0.2495799618646E+01
 0.2643164878021E+01
 0.2775633482304E+01
 0.2896275129798E+01
 0.3007121792812E+01
 0.3110547899465E+01
 0.3210194230526E+01
 0.3308564325091E+01
 0.3406371829157E+01
 0.3503361553643E+01
 0.3598652091246E+01
 0.3691087205343E+01
 0.3777400766756E+01
 0.2495227980084E+01
 0.9752308661590E+00
 0.2050189617945E+00
 0.7830542917537E-02
 0.1235108965342E+00
 0.2027747281187E+00
 0.2596476388743E+00
 0.2997783869975E+00
 0.3245866926429E+00
 0.3343870152240E+00
 0.3279551446639E+00
 0.3024652786011E+00
 0.2573443284853E+00
 0.1988629675727E+00
 0.1313434942752E+00
 0.5979011124912E-01
 0.1664763338133E-01
 0.8191449795408E-01
 0.1511638620151E+00
 0.2320964252819E+00
 0.2566333061868E+01
 0.1833926548080E+01
 0.7253403130855E+00
 0.2755377552317E+00
 0.6559355596430E-01
 0.6220310248448E-01
 0.1463047865340E+00
 0.2043572337012E+00
 0.2430429958677E+00
 0.2647757115843E+00
 0.2699860535915E+00
 0.2606470408780E+00
 0.2345915087735E+00
 0.1908649637144E+00
 0.1334953698639E+00
 0.6883404129755E-01
 0.9506870005791E-02
 0.6371357135280E-01
 0.1290117344664E+00
 0.1948158571629E+00
 0.2361504668702E+01
 0.2079188459741E+01
 0.1218936172155E+01
 0.6137889707365E+00
 0.2947612313897E+00
 0.1085080658846E+00
 0.1214309935474E-01
 0.9346876331442E-01
 0.1495234251659E+00
 0.1859605593907E+00
 0.2055354719286E+00
 0.2112428617538E+00
 0.2007120493314E+00
 0.1705805635170E+00
 0.1245639539750E+00
 0.6900975925281E-01
 0.1212705036516E-01
 0.4932165282600E-01
 0.1061598980106E+00
 0.1583095816203E+00
 0.2157287435226E+01
 0.2106167005974E+01
 0.1509007811976E+01
 0.9365696209631E+00
 0.5464168791966E+00
 0.3016393837418E+00
 0.1416873048590E+00
 0.3253344260326E-01
 0.4394142034296E-01
 0.9729978926125E-01
 0.1323137524272E+00
 0.1529120929896E+00
 0.1569912990851E+00
 0.1401327659438E+00
 0.1059507973081E+00
 0.6092595094906E-01
 0.1217253785809E-01
 0.3867191545663E-01
 0.8553947563145E-01
 0.1255595266783E+00
 0.1978358962387E+01
 0.2046210918379E+01
 0.1656753959767E+01
 0.1178351944784E+01
 0.7843900107365E+00
 0.5027460687902E+00
 0.3077236262838E+00
 0.1709260610783E+00
 0.7277135848550E-01
 0.2362245004147E-02
 0.4980312977948E-01
 0.8529929691521E-01
 0.1037661342738E+00
 0.1003373684650E+00
 0.7850632448471E-01
 0.4502198839889E-01
 0.6580300800948E-02
 0.3293409033216E-01
 0.6915677938661E-01
 0.9805290173968E-01
 0.1827486457559E+01
 0.1952065335149E+01
 0.1714652107422E+01
 0.1340964098093E+01
 0.9819365079843E+00
 0.6932417630432E+00
 0.4764218285553E+00
 0.3167328595125E+00
 0.1982334441317E+00
 0.1090234524883E+00
 0.4205733366511E-01
 0.9356967592290E-02
 0.4139163757234E-01
 0.5159345388530E-01
 0.4260842194036E-01
 0.2144956754336E-01
 0.5651257014653E-02
 0.3340784569487E-01
 0.5856279453611E-01
 0.7697498941856E-01
 0.1701272700014E+01
 0.1847716356068E+01
 0.1717936183393E+01
 0.1440183114449E+01
 0.1133475960278E+01
 0.8599867069338E+00
 0.6374238552116E+00
 0.4634893248545E+00
 0.3287867567924E+00
 0.2237195237649E+00
 0.1416700105295E+00
 0.7726940833857E-01
 0.3081634890324E-01
 0.8251343254781E-02
 0.5391956652614E-02
 0.1133870205376E-01
 0.2532907850759E-01
 0.4122469716449E-01
 0.5509215554483E-01
 0.6339113355741E-01
 0.1595466829124E+01
 0.1744530712094E+01
 0.1689245039463E+01
 0.1492681772000E+01
 0.1242892541560E+01
 0.9980907886243E+00
 0.7833417606660E+00
 0.6050341553587E+00
 0.4602139080643E+00
 0.3428471419786E+00
 0.2478582213130E+00
 0.1704723683120E+00
 0.1105524391920E+00
 0.7309382710698E-01
 0.5572087644114E-01
 0.5118840780673E-01
 0.5327327768193E-01
 0.5726810443501E-01
 0.5986118768153E-01
 0.5826441668475E-01
 0.1506129007727E+01
 0.1647825181350E+01
 0.1643061720870E+01
 0.1512430517984E+01
 0.1317475528963E+01
 0.1107974314380E+01
 0.9106751363366E+00
 0.7368895940175E+00
 0.5886625562252E+00
 0.4635867989933E+00
 0.3586818308224E+00
 0.2703162373853E+00
 0.1984035096187E+00
 0.1480598228153E+00
 0.1177407095227E+00
 0.1004859836726E+00
 0.9027119893700E-01
 0.8238316737256E-01
 0.7376431794578E-01
 0.6235055046885E-01
 0.1429920121846E+01
 0.1559840056443E+01
 0.1588649329311E+01
 0.1510280150208E+01
 0.1364998526066E+01
 0.1192832318212E+01
 0.1018936895036E+01
 0.8566565025596E+00
 0.7112890538567E+00
 0.5834352522724E+00
 0.4722350739166E+00
 0.3754714817972E+00
 0.2934080203709E+00
 0.2313856659944E+00
 0.1888452116056E+00
 0.1593019377350E+00
 0.1370449278008E+00
 0.1174191945609E+00
 0.9759900632156E-01
 0.7619416662968E-01
 0.1364101090244E+01
 0.1481204777619E+01
 0.1531900015174E+01
 0.1494369634189E+01
 0.1392539708732E+01
 0.1256971565560E+01
 0.1109555719115E+01
 0.9637143990383E+00
 0.8264573571437E+00
 0.7005242719725E+00
 0.5868591691012E+00
 0.4846678532337E+00
 0.3947315578118E+00
 0.3226680489040E+00
 0.2690168876478E+00
 0.2279633877389E+00
 0.1941957695359E+00
 0.1631380241348E+00
 0.1321229761620E+00
 0.1002932983891E+00
 0.1306456823099E+01
 0.1411701110343E+01
 0.1476496935490E+01
 0.1470677607074E+01
 0.1406094789612E+01
 0.1304877088971E+01
 0.1184981767227E+01
 0.1058715183420E+01
 0.9336215367735E+00
 0.8137246683079E+00
 0.7013012742281E+00
 0.5968037829637E+00
 0.5015655294723E+00
 0.4214593600862E+00
 0.3581510952733E+00
 0.3066543949392E+00
 0.2621405892966E+00
 0.2201302690076E+00
 0.1779924679162E+00
 0.1351355383693E+00
 0.1255208279976E+01
 0.1350677303260E+01
 0.1424654957596E+01
 0.1443515041663E+01
 0.1410534554155E+01
 0.1340734619599E+01
 0.1248072383134E+01
 0.1143096952678E+01
 0.1033073292216E+01
 0.9225908121629E+00
 0.8147649051336E+00
 0.7110212711902E+00
 0.6131746312596E+00
 0.5272583532476E+00
 0.4559963139292E+00
 0.3953415666816E+00
 0.3410379209914E+00
 0.2887382371127E+00
 0.2356887486018E+00
 0.1811246706193E+00
 0.1208932625152E+01
 0.1297279374410E+01
 0.1377602086285E+01
 0.1415919254675E+01
 0.1409696419536E+01
 0.1368214576570E+01
 0.1301705914362E+01
 0.1218698053319E+01
 0.1125667282674E+01
 0.1027222844204E+01
 0.9268766258346E+00
 0.8267265316964E+00
 0.7289297756665E+00
 0.6395259239642E+00
 0.5621382048861E+00
 0.4937224021392E+00
 0.4307056762952E+00
 0.3689617473519E+00
 0.3054513476682E+00
 0.2385509955818E+00
 0.1166496084175E+01
 0.1250582640385E+01
 0.1335899087363E+01
 0.1389956711811E+01
 0.1406516895139E+01
 0.1390396800014E+01
 0.1348554903717E+01
 0.1287478295534E+01
 0.1212577963391E+01
 0.1128103161797E+01
 0.1037604189894E+01
 0.9435674497597E+00
 0.8483202613102E+00
 0.7577090406038E+00
 0.6760130368281E+00
 0.6012034094307E+00
 0.5305420336062E+00
 0.4603323999057E+00
 0.3871786160823E+00
 0.3076064455410E+00
 0.1126999182107E+01
 0.1209666718872E+01
 0.1299656173218E+01
 0.1366953308252E+01
 0.1403166635309E+01
 0.1409767726261E+01
 0.1390962580814E+01
 0.1351329275307E+01
 0.1295104953333E+01
 0.1225939638306E+01
 0.1147154381471E+01
 0.1061382446969E+01
 0.9709462107662E+00
 0.8812743818718E+00
 0.7969710939422E+00
 0.7169493177652E+00
 0.6394938415761E+00
 0.5617545715262E+00
 0.4802434691285E+00
 0.3883917324173E+00
 0.1089732336980E+01
 0.1173657642956E+01
 0.1268681659398E+01
 0.1347669626494E+01
 0.1401174101153E+01
 0.1428253401730E+01
 0.1430883751765E+01
 0.1411951146728E+01
 0.1374526323590E+01
 0.1321530811952E+01
 0.1255869970677E+01
 0.1180131871935E+01
 0.1096486969878E+01
 0.1009730077006E+01
 0.9243970430233E+00
 0.8400863115904E+00
 0.7561766469761E+00
 0.6713823278771E+00
 0.5831348078717E+00
 0.4808538038234E+00
 0.1054142147324E+01
 0.1141748396291E+01
 0.1242584411735E+01
 0.1332433083910E+01
 0.1401535929525E+01
 0.1447270687705E+01
 0.1469865337968E+01
 0.1470775060029E+01
 0.1451991488067E+01
 0.1415657767680E+01
 0.1364139585563E+01
 0.1299824924396E+01
 0.1224635352020E+01
 0.1142588866022E+01
 0.1057763263633E+01
 0.9700807368978E+00
 0.8794899774338E+00
 0.7866985169718E+00
 0.6929196122771E+00
 0.5844117608073E+00
 0.1019804519296E+01
 0.1113218105586E+01
 0.1220823716903E+01
 0.1321239996069E+01
 0.1404821389839E+01
 0.1467789221138E+01
 0.1509051888925E+01
 0.1528915701084E+01
 0.1528437574121E+01
 0.1509000967464E+01
 0.1472334718073E+01
 0.1420465812261E+01
 0.1355021543115E+01
 0.1279225450004E+01
 0.1196459028788E+01
 0.1106652926839E+01
 0.1009812607453E+01
 0.9065017013839E+00
 0.8040345422013E+00
 0.6969690702131E+00
 0.9865065621717E+00
 0.1087308778537E+01
 0.1202706587307E+01
 0.1313866167183E+01
 0.1411283170385E+01
 0.1490399925366E+01
 0.1549204077779E+01
 0.1587147680331E+01
 0.1604518128236E+01
 0.1602035695864E+01
 0.1580793656342E+01
 0.1542090124306E+01
 0.1487177938740E+01
 0.1418757165396E+01
 0.1339381710609E+01
 0.1249012409724E+01
 0.1147459152715E+01
 0.1034835633552E+01
 0.9153975659647E+00
 0.8072390580989E+00
 0.7877495796214E+00
 0.1120724064657E+01
 0.1419845441493E+01
 0.1683159891335E+01
 0.1913765982822E+01
 0.2115361692073E+01
 0.2291710856996E+01
 0.2446624458040E+01
 0.2583717577275E+01
 0.2706164735850E+01
 0.2816975033130E+01
 0.2918924571203E+01
 0.3013761561301E+01
 0.3105560190072E+01
 0.3198047502379E+01
 0.3291012964102E+01
 0.3383682835193E+01
 0.3474990760171E+01
 0.3566988195139E+01
 0.3679148500146E+01
 0.8204277217928E+00
 0.1143933015811E+01
 0.1432639657711E+01
 0.1683754468499E+01
 0.1900653869710E+01
 0.2087728695167E+01
 0.2249210267562E+01
 0.2389277133252E+01
 0.2511867213213E+01
 0.2620360745197E+01
 0.2718004891961E+01
 0.2807979579978E+01
 0.2891805756721E+01
 0.2974622001488E+01
 0.3061853802302E+01
 0.3153152277477E+01
 0.3248011889298E+01
 0.3346684966791E+01
 0.3456609369241E+01
 0.3574345315636E+01
 0.8536315309939E+00
 0.1167240628486E+01
 0.1444659246929E+01
 0.1681999715270E+01
 0.1883042759754E+01
 0.2053060452922E+01
 0.2197051689980E+01
 0.2319754077771E+01
 0.2425483947352E+01
 0.2517870003969E+01
 0.2600383022710E+01
 0.2676264144937E+01
 0.2747113124489E+01
 0.2819720199082E+01
 0.2901349858945E+01
 0.2991871204444E+01
 0.3091168392904E+01
 0.3200443096170E+01
 0.3322127145348E+01
 0.3444916135465E+01
 0.8877529336002E+00
 0.1191059864252E+01
 0.1456228748987E+01
 0.1677970050887E+01
 0.1860772145016E+01
 0.2011134179047E+01
 0.2135073247899E+01
 0.2238046318153E+01
 0.2324804593154E+01
 0.2399197520982E+01
 0.2464842036111E+01
 0.2524938485078E+01
 0.2581273739849E+01
 0.2642588330946E+01
 0.2718144417201E+01
 0.2808006184449E+01
 0.2912052788297E+01
 0.3030019404502E+01
 0.3161238612492E+01
 0.3297587807390E+01
 0.9230578048067E+00
 0.1215942334392E+01
 0.1467705471959E+01
 0.1671710111704E+01
 0.1833623937572E+01
 0.1961630342085E+01
 0.2063038797241E+01
 0.2144152700125E+01
 0.2210167203370E+01
 0.2265079170518E+01
 0.2312560222919E+01
 0.2355624782696E+01
 0.2396298408412E+01
 0.2445373064357E+01
 0.2514000336684E+01
 0.2602329373974E+01
 0.2709810393278E+01
 0.2835084117026E+01
 0.2977311404243E+01
 0.3133106554597E+01
 0.9598591132129E+00
 0.1242441654975E+01
 0.1479407202356E+01
 0.1663129453896E+01
 0.1801201470073E+01
 0.1904065218261E+01
 0.1980608398416E+01
 0.2038066731294E+01
 0.2082027854549E+01
 0.2116507350368E+01
 0.2145081191074E+01
 0.2170392065818E+01
 0.2194696856982E+01
 0.2230763483938E+01
 0.2291365628270E+01
 0.2376700570007E+01
 0.2486043743849E+01
 0.2617818101208E+01
 0.2772424213004E+01
 0.2951311756565E+01
 0.9985561497833E+00
 0.1271138401327E+01
 0.1491525283465E+01
 0.1651896541733E+01
 0.1762830497002E+01
 0.1837721500790E+01
 0.1887308078107E+01
 0.1919777774311E+01
 0.1940977346645E+01
 0.1954735134115E+01
 0.1964317927291E+01
 0.1971771559772E+01
 0.1979540313243E+01
 0.2002170024582E+01
 0.2053681743067E+01
 0.2134418752703E+01
 0.2243905075470E+01
 0.2381071151809E+01
 0.2548384437411E+01
 0.2751996735835E+01
 0.1039672955962E+01
 0.1302631248152E+01
 0.1504046012151E+01
 0.1637323772076E+01
 0.1717460314580E+01
 0.1761589442099E+01
 0.1782515683698E+01
 0.1789289981326E+01
 0.1787770632329E+01
 0.1781300637209E+01
 0.1772563242222E+01
 0.1762761781011E+01
 0.1754475547564E+01
 0.1763743285546E+01
 0.1805366986419E+01
 0.1879925520989E+01
 0.1987562107885E+01
 0.2128297246168E+01
 0.2307226039056E+01
 0.2535346156780E+01
 0.1083894143301E+01
 0.1337511079034E+01
 0.1516641776734E+01
 0.1618234359446E+01
 0.1663561762776E+01
 0.1674324237072E+01
 0.1665475985259E+01
 0.1646672340332E+01
 0.1623381775341E+01
 0.1598061921814E+01
 0.1572492271059E+01
 0.1546797480690E+01
 0.1523657452379E+01
 0.1520258756755E+01
 0.1551620259190E+01
 0.1618551965990E+01
 0.1722051729042E+01
 0.1863677271670E+01
 0.2051614013578E+01
 0.2302158072739E+01
 0.1132104744409E+01
 0.1376307332133E+01
 0.1528515815954E+01
 0.1592794929685E+01
 0.1599023156438E+01
 0.1574233065880E+01
 0.1535363710038E+01
 0.1492155764103E+01
 0.1449089008040E+01
 0.1407237813890E+01
 0.1367144939367E+01
 0.1327672408782E+01
 0.1291611693642E+01
 0.1276919371423E+01
 0.1298189558668E+01
 0.1356324800130E+01
 0.1453222162189E+01
 0.1592270331063E+01
 0.1785126741858E+01
 0.2054045326821E+01
 0.1185436414587E+01
 0.1419391525330E+01
 0.1538173999600E+01
 0.1558300148995E+01
 0.1521053027258E+01
 0.1459318277282E+01
 0.1391422733120E+01
 0.1326293341411E+01
 0.1266590319241E+01
 0.1211444163678E+01
 0.1159876777083E+01
 0.1109413167632E+01
 0.1063041189306E+01
 0.1039110355956E+01
 0.1051114517162E+01
 0.1099764775167E+01
 0.1187664288574E+01
 0.1320112564944E+01
 0.1512471632469E+01
 0.1793654159914E+01
 0.1245320553811E+01
 0.1466807218596E+01
 0.1543081626914E+01
 0.1510896077216E+01
 0.1426117731981E+01
 0.1327426166541E+01
 0.1233221733366E+01
 0.1150196627678E+01
 0.1078138053503E+01
 0.1013705021726E+01
 0.9542635323642E+00
 0.8961028160464E+00
 0.8425878100192E+00
 0.8121157215522E+00
 0.8164286926351E+00
 0.8556339584757E+00
 0.9325752869806E+00
 0.1054241217824E+01
 0.1239653463242E+01
 0.1524925633161E+01
 0.1313544649800E+01
 0.1517966577668E+01
 0.1539135803684E+01
 0.1445238500947E+01
 0.1309982506652E+01
 0.1176588716699E+01
 0.1061074808375E+01
 0.9658419062975E+00
 0.8866545578499E+00
 0.8174020005176E+00
 0.7539421904509E+00
 0.6916571816329E+00
 0.6345629388013E+00
 0.6008059995602E+00
 0.5998143278660E+00
 0.6306029922721E+00
 0.6955177010262E+00
 0.8026210987032E+00
 0.9740991483107E+00
 0.1253412921810E+01
 0.1392296135959E+01
 0.1571092678839E+01
 0.1519837544847E+01
 0.1354118018909E+01
 0.1168010407439E+01
 0.1005697856186E+01
 0.8766612715168E+00
 0.7763856742240E+00
 0.6957480314448E+00
 0.6261112070735E+00
 0.5623791001430E+00
 0.4995705080221E+00
 0.4426729343997E+00
 0.4093201161046E+00
 0.4062172724081E+00
 0.4308212842022E+00
 0.4840343114243E+00
 0.5739329097363E+00
 0.7247195956700E+00
 0.9866637288570E+00
 0.1484145227945E+01
 0.1622149787630E+01
 0.1474973735583E+01
 0.1228205176409E+01
 0.9960471463898E+00
 0.8157071139980E+00
 0.6837815057518E+00
 0.5863213987975E+00
 0.5094991603333E+00
 0.4432938566497E+00
 0.3825850521669E+00
 0.3226679828331E+00
 0.2697827451605E+00
 0.2407850814999E+00
 0.2394574332486E+00
 0.2613926979416E+00
 0.3050733111587E+00
 0.3771491468170E+00
 0.5018551123454E+00
 0.7346718953501E+00
 0.1591804272178E+01
 0.1662671990214E+01
 0.1388524287023E+01
 0.1056423477196E+01
 0.7925849524731E+00
 0.6114503056415E+00
 0.4889256210551E+00
 0.4011180317552E+00
 0.3319325403785E+00
 0.2718815417556E+00
 0.2168350102785E+00
 0.1629169546858E+00
 0.1177709727137E+00
 0.9714648737065E-01
 0.1019145623315E+00
 0.1258084205542E+00
 0.1641840722780E+00
 0.2207699203057E+00
 0.3169828461253E+00
 0.5103887293836E+00
 0.1717225954744E+01
 0.1674953662659E+01
 0.1235506006427E+01
 0.8287027520208E+00
 0.5632104195529E+00
 0.4037057217663E+00
 0.3004804821757E+00
 0.2261384627626E+00
 0.1663148805278E+00
 0.1138856378719E+00
 0.6646987759520E-01
 0.2140608762095E-01
 0.1288413564313E-01
 0.2118283649549E-01
 0.6216615585289E-02
 0.2549585874830E-01
 0.6453184908183E-01
 0.1115382627971E+00
 0.1819266582405E+00
 0.3302369322218E+00
 0.1857579492327E+01
 0.1620183710765E+01
 0.9787660929006E+00
 0.5457493264856E+00
 0.3291509214068E+00
 0.2068333746258E+00
 0.1261574275457E+00
 0.6537781440049E-01
 0.1461929904862E-01
 0.2982312022610E-01
 0.6826432094017E-01
 0.1021333307957E+00
 0.1212840262636E+00
 0.1138066202664E+00
 0.8383866864322E-01
 0.4023088480600E-01
 0.6702521689823E-02
 0.5265439416351E-01
 0.1070899176566E+00
 0.2144710766595E+00
 0.1993454354785E+01
 0.1401512805152E+01
 0.5758170367207E+00
 0.2589902905576E+00
 0.1175720887112E+00
 0.3196645363671E-01
 0.2936841785308E-01
 0.7924060973232E-01
 0.1225631114273E+00
 0.1595702803787E+00
 0.1881355796606E+00
 0.2082847205762E+00
 0.2089870304514E+00
 0.1821653094587E+00
 0.1340939679708E+00
 0.7376228346226E-01
 0.1575326546096E-01
 0.4204586051980E-01
 0.9687330202202E-01
 0.1866770019212E+00
 0.1914578643850E+01
 0.7259573770582E+00
 0.1662177380603E+00
 0.2601169404407E-01
 0.5869162891478E-01
 0.1162298541964E+00
 0.1645170967189E+00
 0.2076534376331E+00
 0.2455201582757E+00
 0.2764008990634E+00
 0.2960398036990E+00
 0.2992302808336E+00
 0.2761580095003E+00
 0.2266083623112E+00
 0.1584205890182E+00
 0.7897237484510E-01
 0.1430369850594E-01
 0.7461869563822E-01
 0.1384926874176E+00
 0.2616742281999E+00
 0.7336765100204E+00
 0.6228227233810E+00
 0.5271250815881E+00
 0.4409517957903E+00
 0.3628958426230E+00
 0.2933047448665E+00
 0.2328142988133E+00
 0.1819930523020E+00
 0.1412091022348E+00
 0.1105979099037E+00
 0.9007645789403E-01
 0.7939762096943E-01
 0.7819811644428E-01
 0.8595775210842E-01
 0.1019395465589E+00
 0.1252447438604E+00
 0.1549152352724E+00
 0.1900319422902E+00
 0.2298236797456E+00
 0.2754727429173E+00
 0.7982496926785E+00
 0.6931246586508E+00
 0.5860497565854E+00
 0.4864529460612E+00
 0.3964362628045E+00
 0.3166226178547E+00
 0.2474290141519E+00
 0.1892206180860E+00
 0.1422867059107E+00
 0.1067746642183E+00
 0.8264592674655E-01
 0.6970496327410E-01
 0.6769616069803E-01
 0.7626123088198E-01
 0.9475843381525E-01
 0.1223192381790E+00
 0.1580599320339E+00
 0.2012335047173E+00
 0.2515259162574E+00
 0.3092248676261E+00
 0.8633152834600E+00
 0.7576712638725E+00
 0.6478313277280E+00
 0.5407313185631E+00
 0.4410683217258E+00
 0.3511040219437E+00
 0.2720775380474E+00
 0.2047900158821E+00
 0.1498057142456E+00
 0.1074842356436E+00
 0.7794118126391E-01
 0.6104371840619E-01
 0.5660143655474E-01
 0.6449682033500E-01
 0.8427233938774E-01
 0.1150260778574E+00
 0.1557788774030E+00
 0.2056971620811E+00
 0.2641138231744E+00
 0.3302516204594E+00
 0.9366048660476E+00
 0.8255140731196E+00
 0.7121906612836E+00
 0.5999120306608E+00
 0.4927209789744E+00
 0.3936806802438E+00
 0.3048687698398E+00
 0.2277601095075E+00
 0.1634541843136E+00
 0.1127595387479E+00
 0.7616312450468E-01
 0.5372403218827E-01
 0.4520542343430E-01
 0.5074981519142E-01
 0.7040452546539E-01
 0.1032500838499E+00
 0.1480533172407E+00
 0.2036828304902E+00
 0.2691159858370E+00
 0.3433466335834E+00
 0.1019596918199E+01
 0.9016083529929E+00
 0.7830188817611E+00
 0.6652259855127E+00
 0.5510941312373E+00
 0.4435492345859E+00
 0.3450756718216E+00
 0.2577003459389E+00
 0.1830974943079E+00
 0.1226533658422E+00
 0.7744481483011E-01
 0.4802876833830E-01
 0.3402217516686E-01
 0.3521807289475E-01
 0.5298162968016E-01
 0.8677018164355E-01
 0.1348576094929E+00
 0.1956558213169E+00
 0.2677841395368E+00
 0.3501365419696E+00
 0.1112627500429E+01
 0.9879291971049E+00
 0.8632165378716E+00
 0.7391792329408E+00
 0.6178471249893E+00
 0.5017563287383E+00
 0.3934467309988E+00
 0.2952784855521E+00
 0.2094092666107E+00
 0.1378182581554E+00
 0.8232846995928E-01
 0.4454340858462E-01
 0.2479089766056E-01
 0.1969985987731E-01
 0.3206787257367E-01
 0.6525239178531E-01
 0.1160192652719E+00
 0.1819043800302E+00
 0.2608539588391E+00
 0.3512930987207E+00
 0.1215927300672E+01
 0.1085475414810E+01
 0.9546663966631E+00
 0.8240589598839E+00
 0.6952180776942E+00
 0.5703252041775E+00
 0.4518269971291E+00
 0.3422392000419E+00
 0.2440733304741E+00
 0.1598396375863E+00
 0.9215587244095E-01
 0.4431355748449E-01
 0.2175173017253E-01
 0.1727222907126E-01
 0.1207743525172E-01
 0.3837029352107E-01
 0.9096519073410E-01
 0.1621390169646E+00
 0.2485877533765E+00
 0.3472505218981E+00
 0.1329772838674E+01
 0.1194943587140E+01
 0.1058778573712E+01
 0.9218904928049E+00
 0.7856070668414E+00
 0.6518398319515E+00
 0.5228906218102E+00
 0.4013103917277E+00
 0.2898332429648E+00
 0.1913887996241E+00
 0.1093044479740E+00
 0.4875483097589E-01
 0.2648150202973E-01
 0.3463735866474E-01
 0.2858116376451E-01
 0.9440023127675E-02
 0.5850344713015E-01
 0.1353157981382E+00
 0.2310509862435E+00
 0.3402339262925E+00
 0.1454480227714E+01
 0.1317014993814E+01
 0.1176871050810E+01
 0.1034711113790E+01
 0.8917071452811E+00
 0.7495431446788E+00
 0.6103375946252E+00
 0.4765719186976E+00
 0.3510609547874E+00
 0.2369926012712E+00
 0.1381826425357E+00
 0.6093690837470E-01
 0.3307695433518E-01
 0.5495250889491E-01
 0.6058054777330E-01
 0.3791051513936E-01
 0.1767193545764E-01
 0.9945303909528E-01
 0.2074054076676E+00
 0.3331596501441E+00
 0.1590238828494E+01
 0.1452174521565E+01
 0.1309984476622E+01
 0.1164289623065E+01
 0.1016096522463E+01
 0.8668501958900E+00
 0.7184277956325E+00
 0.5731255256669E+00
 0.4336713331324E+00
 0.3032947686207E+00
 0.1859774284381E+00
 0.8792342699758E-01
 0.3714370167095E-01
 0.6922490476220E-01
 0.9193116716375E-01
 0.8230815970705E-01
 0.3520541626057E-01
 0.5200680844805E-01
 0.1744542622660E+00
 0.3246539869792E+00
 0.1736986725503E+01
 0.1600579168337E+01
 0.1458684484493E+01
 0.1311790789226E+01
 0.1160697674433E+01
 0.1006575088895E+01
 0.8509919239850E+00
 0.6959411583072E+00
 0.5438855866822E+00
 0.3978507119210E+00
 0.2616437708999E+00
 0.1407070962901E+00
 0.5103989386049E-01
 0.6805347333523E-01
 0.1124882475412E+00
 0.1242260750224E+00
 0.9192481328969E-01
 0.9512877316687E-02
 0.1278172104268E+00
 0.3101862310059E+00
 0.1894307655987E+01
 0.1761958579208E+01
 0.1622975878374E+01
 0.1477668891454E+01
 0.1326603055991E+01
 0.1170648892032E+01
 0.1011020935229E+01
 0.8493198723745E+00
 0.6875942959348E+00
 0.5284422377423E+00
 0.3751967809147E+00
 0.2323873789243E+00
 0.1081138174115E+00
 0.4954355825316E-01
 0.1064870250371E+00
 0.1475988001462E+00
 0.1426346500195E+00
 0.7653510359729E-01
 0.6414853889541E-01
 0.2829058452891E+00
 0.2061371510428E+01
 0.1935522416176E+01
 0.1802196138323E+01
 0.1661528245791E+01
 0.1513862341522E+01
 0.1359785780063E+01
 0.1200165521587E+01
 0.1036190614167E+01
 0.8694323021237E+00
 0.7019364143725E+00
 0.5363732454895E+00
 0.3763125932017E+00
 0.2269308234806E+00
 0.9903636653654E-01
 0.6147325490745E-01
 0.1249883616099E+00
 0.1578558000054E+00
 0.1279913660982E+00
 0.8541715445733E-02
 0.2367477648706E+00
 0.2236911504717E+01
 0.2119902807462E+01
 0.1994921481858E+01
 0.1861974019251E+01
 0.1721235576498E+01
 0.1573076485706E+01
 0.1418091914985E+01
 0.1257138120756E+01
 0.1091382441272E+01
 0.9223771472338E+00
 0.7521724511574E+00
 0.5834966973440E+00
 0.4200700538117E+00
 0.2672797936262E+00
 0.1346171322723E+00
 0.5701868676709E-01
 0.8713489603348E-01
 0.9752460823554E-01
 0.2473045914858E-01
 0.2133844098149E+00
 0.2419238781151E+01
 0.2313149855395E+01
 0.2198933422201E+01
 0.2076526430280E+01
 0.1946007608617E+01
 0.1807622580521E+01
 0.1661812176528E+01
 0.1509246674544E+01
 0.1350870974623E+01
 0.1187967783262E+01
 0.1022248872115E+01
 0.8559897865043E+00
 0.6922330681910E+00
 0.5351023822407E+00
 0.3902973986842E+00
 0.2658518209076E+00
 0.1729889933977E+00
 0.1261065024452E+00
 0.1505155850640E+00
 0.3139473686416E+00
 0.2606303128613E+01
 0.2512805818356E+01
 0.2411303875074E+01
 0.2301707714889E+01
 0.2184050966261E+01
 0.2058519103501E+01
 0.1925480151255E+01
 0.1785520320218E+01
 0.1639488296407E+01
 0.1488552871994E+01
 0.1334279932706E+01
 0.1178736846859E+01
 0.1024635321216E+01
 0.8755278825338E+00
 0.7360778802618E+00
 0.6124270459697E+00
 0.5126950895146E+00
 0.4476812415006E+00
 0.4320106003762E+00
 0.4819234440163E+00
 0.2795797833264E+01
 0.2716062686748E+01
 0.2628627205278E+01
 0.2533383853930E+01
 0.2430328405558E+01
 0.2319590953310E+01
 0.2201466453111E+01
 0.2076447267243E+01
 0.1945259716750E+01
 0.1808906173864E+01
 0.1668713461260E+01
 0.1526386835356E+01
 0.1384065626158E+01
 0.1244369395237E+01
 0.1110406768821E+01
 0.9856789146923E+00
 0.8737049590871E+00
 0.7769023826735E+00
 0.6931913193798E+00
 0.6044117801519E+00
 0.2985280348891E+01
 0.2919947475916E+01
 0.2847300479270E+01
 0.2767190033587E+01
 0.2679542009323E+01
 0.2584386326641E+01
 0.2481881667816E+01
 0.2372337556945E+01
 0.2256233720027E+01
 0.2134234788531E+01
 0.2007195784731E+01
 0.1876149517787E+01
 0.1742259382005E+01
 0.1606706863969E+01
 0.1470455590598E+01
 0.1333778855380E+01
 0.1195322803302E+01
 0.1050249450492E+01
 0.8865349914461E+00
 0.6807531516186E+00
 0.3172279750593E+01
 0.3121479899779E+01
 0.3063750389101E+01
 0.2998855214509E+01
 0.2926595764214E+01
 0.2846832604878E+01
 0.2759499440103E+01
 0.2664609834257E+01
 0.2562254778734E+01
 0.2452586623531E+01
 0.2335781498503E+01
 0.2211967223263E+01
 0.2081095630480E+01
 0.1942725243824E+01
 0.1795659678686E+01
 0.1637356112873E+01
 0.1462986620016E+01
 0.1264050143446E+01
 0.1027057199346E+01
 0.7349859802680E+00
 0.3354381812460E+01
 0.3317790400998E+01
 0.3274592145768E+01
 0.3224411787739E+01
 0.3166866904855E+01
 0.3101578383618E+01
 0.3028171367593E+01
 0.2946266033294E+01
 0.2855455126966E+01
 0.2755262945516E+01
 0.2645077490402E+01
 0.2524043612187E+01
 0.2390899861921E+01
 0.2243735789848E+01
 0.2079641682883E+01
 0.1894228571546E+01
 0.1681039839805E+01
 0.1431075808816E+01
 0.1133207655330E+01
 0.7779580597383E+00
 0.3529293057610E+01
 0.3506202369447E+01
 0.3476728961423E+01
 0.3440312109082E+01
 0.3396335863558E+01
 0.3344126416887E+01
 0.3282941003250E+01
 0.3211945766916E+01
 0.3130179572944E+01
 0.3036499236054E+01
 0.2929499959636E+01
 0.2807403105558E+01
 0.2667902469177E+01
 0.2507961828054E+01
 0.2323565391876E+01
 0.2109449605556E+01
 0.1858918073203E+01
 0.1564008675469E+01
 0.1216684929706E+01
 0.8140322618017E+00
 0.3694883832466E+01
 0.3684277256566E+01
 0.3667395125910E+01
 0.3643462219335E+01
 0.3611597230248E+01
 0.3570800615339E+01
 0.3519934430357E+01
 0.3457692328816E+01
 0.3382557585885E+01
 0.3292746557403E+01
 0.3186134675012E+01
 0.3060162529409E+01
 0.2911721838581E+01
 0.2737027226385E+01
 0.2531493673075E+01
 0.2289668949240E+01
 0.2005327857602E+01
 0.1671954422498E+01
 0.1284277252411E+01
 0.8444480742407E+00
 0.3849201435690E+01
 0.3849816222460E+01
 0.3844148536598E+01
 0.3831195845769E+01
 0.3809800814076E+01
 0.3778633071426E+01
 0.3736163950484E+01
 0.3680633780957E+01
 0.3610011206250E+01
 0.3521944246303E+01
 0.3413703574933E+01
 0.3282120206686E+01
 0.3123523371293E+01
 0.2933691186325E+01
 0.2707839060779E+01
 0.2440692104407E+01
 0.2126727438645E+01
 0.1760783305605E+01
 0.1339736435767E+01
 0.8694603801189E+00
 0.3990497797773E+01
 0.4000885476516E+01
 0.4004887363225E+01
 0.4001275984400E+01
 0.3988627380841E+01
 0.3965299093903E+01
 0.3929403144408E+01
 0.3878774612241E+01
 0.3810936881894E+01
 0.3723065394127E+01
 0.3611953017706E+01
 0.3473982226859E+01
 0.3305112596772E+01
 0.3100897334510E+01
 0.2856550602125E+01
 0.2567100952659E+01
 0.2227698557819E+01
 0.1834261119567E+01
 0.1385220020945E+01
 0.8891826216721E+00
 0.4117231890423E+01
 0.4135810494430E+01
 0.4147827441936E+01
 0.4151847675816E+01
 0.4146207536044E+01
 0.4128990923266E+01
 0.4098002715486E+01
 0.4050740751197E+01
 0.3984368630546E+01
 0.3895692733405E+01
 0.3781148256079E+01
 0.3636800869827E+01
 0.3458372943645E+01
 0.3241306333942E+01
 0.2980878223664E+01
 0.2672396047977E+01
 0.2311528729263E+01
 0.1894959807370E+01
 0.1422188275161E+01
 0.9038201119405E+00
 0.4228061063868E+01
 0.4253154615273E+01
 0.4271462840348E+01
 0.4281373560866E+01
 0.4281024629494E+01
 0.4268279792568E+01
 0.4240703727343E+01
 0.4195537688492E+01
 0.4129678703735E+01
 0.4039666672024E+01
 0.3921685049171E+01
 0.3771582145072E+01
 0.3584921455672E+01
 0.3357071054229E+01
 0.3083344853199E+01
 0.2759217042492E+01
 0.2380663708632E+01
 0.1944823243416E+01
 0.1451851795077E+01
 0.9137293307377E+00
 0.4321831080176E+01
 0.4351696774908E+01
 0.4374527232805E+01
 0.4388573974194E+01
 0.4391828007478E+01
 0.4381996835561E+01
 0.4356481651043E+01
 0.4312355507376E+01
 0.4246345649479E+01
 0.4154824908206E+01
 0.4033818245825E+01
 0.3879031479212E+01
 0.3685910105514E+01
 0.3449737339094E+01
 0.3165783251175E+01
 0.2829526293808E+01
 0.2437003370183E+01
 0.1985486841829E+01
 0.1475392704010E+01
 0.9194525187317E+00
 0.4397565914243E+01
 0.4430410175266E+01
 0.4455958710465E+01
 0.4472374499883E+01
 0.4477559376473E+01
 0.4469134421178E+01
 0.4444419900612E+01
 0.4400414002665E+01
 0.4333773745926E+01
 0.4240803504748E+01
 0.4117457461833E+01
 0.3959362857639E+01
 0.3761871731148E+01
 0.3520150484914E+01
 0.3229320539038E+01
 0.2884674757074E+01
 0.2482031905882E+01
 0.2018434917688E+01
 0.1494104175360E+01
 0.9218031754122E+00
 0.4454459839126E+01
 0.4488445703410E+01
 0.4514873276297E+01
 0.4531867364268E+01
 0.4537298913145E+01
 0.4528773709329E+01
 0.4503616383792E+01
 0.4458847232579E+01
 0.4391156436747E+01
 0.4296882291616E+01
 0.4171999912413E+01
 0.4012126764042E+01
 0.3812552271472E+01
 0.3568301371955E+01
 0.3274247585794E+01
 0.2925304846940E+01
 0.2516767686780E+01
 0.2045014589333E+01
 0.1509479828341E+01
 0.9220140930106E+00
 0.4491872460650E+01
 0.4525120959535E+01
 0.4550548961935E+01
 0.4566288984240E+01
 0.4570232719795E+01
 0.4560038392494E+01
 0.4533120672830E+01
 0.4486621871754E+01
 0.4417373694566E+01
 0.4321858588638E+01
 0.4196176987265E+01
 0.4036025161786E+01
 0.3836689257264E+01
 0.3593064812386E+01
 0.3299718739540E+01
 0.2951026551841E+01
 0.2541457801801E+01
 0.2066226273218E+01
 0.1523194863057E+01
 0.9219543658124E+00
 0.4509325802077E+01
 0.4539916595899E+01
 0.4562425407968E+01
 0.4575019467552E+01
 0.4575646690086E+01
 0.4562078630587E+01
 0.4531904875918E+01
 0.4482491522591E+01
 0.4410924099887E+01
 0.4313947782199E+01
 0.4187909558431E+01
 0.4028703188519E+01
 0.3831718220174E+01
 0.3591799033364E+01
 0.3303229448021E+01
 0.2959775960753E+01
 0.2554861477394E+01
 0.2082061712740E+01
 0.1536736618834E+01
 0.9243197645867E+00
 0.4506504705819E+01
 0.4532490447872E+01
 0.4550133598182E+01
 0.4557617147774E+01
 0.4552957577312E+01
 0.4534095009706E+01
 0.4498878818274E+01
 0.4444999499718E+01
 0.4369906621990E+01
 0.4270728204367E+01
 0.4144191352609E+01
 0.3986537085502E+01
 0.3793422830898E+01
 0.3559811015151E+01
 0.3279852396431E+01
 0.2946792391589E+01
 0.2552966366084E+01
 0.2090049852800E+01
 0.1550157372270E+01
 0.9323869677902E+00
 0.4483266490794E+01
 0.4502730925429E+01
 0.4513570293486E+01
 0.4513893355526E+01
 0.4501780520713E+01
 0.4475400805576E+01
 0.4432950515892E+01
 0.4372536736143E+01
 0.4292066520500E+01
 0.4189154864039E+01
 0.4061037462231E+01
 0.3904469539579E+01
 0.3715593046397E+01
 0.3489759010224E+01
 0.3221299438399E+01
 0.2903260016279E+01
 0.2527148044060E+01
 0.2082847138009E+01
 0.1559177324365E+01
 0.9479417038669E+00
 0.4439679866669E+01
 0.4450852328963E+01
 0.4452992525334E+01
 0.4443984137826E+01
 0.4421983120700E+01
 0.4385475821422E+01
 0.4333098722115E+01
 0.4263442767743E+01
 0.4174924836359E+01
 0.4065706318353E+01
 0.3933624446598E+01
 0.3776101151046E+01
 0.3590002411532E+01
 0.3371422576266E+01
 0.3115366846774E+01
 0.2815309726181E+01
 0.2462635235587E+01
 0.2046091948716E+01
 0.1551774676694E+01
 0.9659046994000E+00
 0.4376021096065E+01
 0.4377332394729E+01
 0.4368862598128E+01
 0.4348109020828E+01
 0.4313405131636E+01
 0.4263722567034E+01
 0.4198230127371E+01
 0.4116024682733E+01
 0.4016016879517E+01
 0.3896906168124E+01
 0.3757163404111E+01
 0.3594982688169E+01
 0.3408174990241E+01
 0.3193972509906E+01
 0.2948699124504E+01
 0.2667239036426E+01
 0.2342220085194E+01
 0.1962858914608E+01
 0.1513870984049E+01
 0.9769905252120E+00
 0.4292882172070E+01
 0.4283028760167E+01
 0.4261931639890E+01
 0.4226644538070E+01
 0.4176068744675E+01
 0.4109911447448E+01
 0.4027941603845E+01
 0.3929680791372E+01
 0.3814429054581E+01
 0.3681339011534E+01
 0.3529472454059E+01
 0.3357819911694E+01
 0.3165270492888E+01
 0.2950510125907E+01
 0.2711802343901E+01
 0.2446562918632E+01
 0.2150544556414E+01
 0.1816310433140E+01
 0.1430414934027E+01
 0.9700117865216E+00
 0.4191435574018E+01
 0.4169427151791E+01
 0.4133239751916E+01
 0.4080121673478E+01
 0.4010281470287E+01
 0.3924524340018E+01
 0.3823017341042E+01
 0.3705473010728E+01
 0.3571389751254E+01
 0.3420222742432E+01
 0.3251502272166E+01
 0.3064919360668E+01
 0.2860393596385E+01
 0.2638124392294E+01
 0.2398609019282E+01
 0.2142570472764E+01
 0.1870656449758E+01
 0.1582444261830E+01
 0.1273542306481E+01
 0.9261216094032E+00
 0.4073673253616E+01
 0.4038446354919E+01
 0.3983614170309E+01
 0.3908501229219E+01
 0.3816565982474E+01
 0.3708980620512E+01
 0.3585740425966E+01
 0.3446433046937E+01
 0.3290565575767E+01
 0.3117744608789E+01
 0.2927794440009E+01
 0.2720873850860E+01
 0.2497624309822E+01
 0.2259378638730E+01
 0.2008462631752E+01
 0.1748636268644E+01
 0.1485714100674E+01
 0.1228461729463E+01
 0.9891439210907E+00
 0.7811769863819E+00
 0.3943851833250E+01
 0.3892083792369E+01
 0.3810625320269E+01
 0.3711178643954E+01
 0.3596657937902E+01
 0.3466821196613E+01
 0.3321078691262E+01
 0.3158848816115E+01
 0.2979706252885E+01
 0.2783432665816E+01
 0.2570084082319E+01
 0.2340103424907E+01
 0.2094510742243E+01
 0.1835217516062E+01
 0.1565546457624E+01
 0.1291105385910E+01
 0.1021332201435E+01
 0.7723360187951E+00
 0.5735063492477E+00
 0.4826930651920E+00
 0.3803832388340E+01
 0.3714571461674E+01
 0.3609103007182E+01
 0.3490646241003E+01
 0.3356418284555E+01
 0.3205707287239E+01
 0.3038223241536E+01
 0.2853959057386E+01
 0.2653094088676E+01
 0.2436017579926E+01
 0.2203404405270E+01
 0.1956353949486E+01
 0.1696621096615E+01
 0.1426998168512E+01
 0.1151950976658E+01
 0.8787020074289E+00
 0.6191210109591E+00
 0.3933550715701E+00
 0.2370776817973E+00
 0.2272750518668E+00
</DataArray>
<CellData Tensors="'E_Centroid','S_Centroid'">
<DataArray type="Float64" Name="E_Centroid" NumberOfComponents="4" ComponentName0="E11" ComponentName1="E22" ComponentName2="E33" ComponentName3="E12" format="ascii">
 0.2640880023914E-02 -0.2043215996608E-01  0.0000000000000E+00 -0.6798803772136E-02
 0.4507599204656E-02 -0.1668620462723E-01  0.0000000000000E+00 -0.4416454200048E-03
 0.3725733231981E-02 -0.1518023550934E-01  0.0000000000000E+00 -0.4781686741582E-03
 0.3616448861521E-02 -0.1442708639750E-01  0.0000000000000E+00 -0.2688671480256E-03
 0.3473507407995E-02 -0.1391272772178E-01  0.0000000000000E+00 -0.1958713273987E-03
 0.3384920888429E-02 -0.1354219461339E-01  0.0000000000000E+00 -0.1491867493515E-03
 0.3312214880652E-02 -0.1325325778705E-01  0.0000000000000E+00 -0.1205182297380E-03
 0.3253828170482E-02 -0.1301817936227E-01  0.0000000000000E+00 -0.1008117277736E-03
 0.3204517905148E-02 -0.1282062535712E-01  0.0000000000000E+00 -0.8641808067336E-04
 0.3162296123304E-02 -0.1265137552899E-01  0.0000000000000E+00 -0.7503212771257E-04
 0.3125791835611E-02 -0.1250516593912E-01  0.0000000000000E+00 -0.6525298448398E-04
 0.3094371006408E-02 -0.1237936611943E-01  0.0000000000000E+00 -0.5608938772858E-04
 0.3067849011350E-02 -0.1227324292081E-01  0.0000000000000E+00 -0.4676562720554E-04
 0.3046438087884E-02 -0.1218764144018E-01  0.0000000000000E+00 -0.3657468999618E-04
 0.3030731197822E-02 -0.1212495531531E-01  0.0000000000000E+00 -0.2474556969279E-04
 0.3021771378765E-02 -0.1208939878696E-01  0.0000000000000E+00 -0.1026856650621E-04
 0.3021243767082E-02 -0.1208783057757E-01  0.0000000000000E+00  0.8486107094141E-05
 0.3032068193297E-02 -0.1213198167455E-01  0.0000000000000E+00  0.3469237504350E-04
 0.3057887336242E-02 -0.1224513388607E-01  0.0000000000000E+00  0.8224269664597E-04
 0.3101075532295E-02 -0.1246223100526E-01  0.0000000000000E+00  0.2099965696087E-03
 0.3156252054625E-02 -0.1276093887570E-01  0.0000000000000E+00  0.5091784749464E-03
 0.3206421388111E-02 -0.1305323911400E-01  0.0000000000000E+00  0.1012385918581E-02
 0.3234235157913E-02 -0.1327642826182E-01  0.0000000000000E+00  0.1669711587707E-02
 0.3232921859701E-02 -0.1341947047365E-01  0.0000000000000E+00  0.2409363549349E-02
 0.3204627787133E-02 -0.1350096426482E-01  0.0000000000000E+00  0.3179998237004E-02
 0.3154715935682E-02 -0.1354714942833E-01  0.0000000000000E+00  0.3958339588469E-02
 0.3087784092848E-02 -0.1358054968482E-01  0.0000000000000E+00  0.4742146540741E-02
 0.3005838094427E-02 -0.1361637473424E-01  0.0000000000000E+00  0.5541602613316E-02
 0.2907649167417E-02 -0.1366128500855E-01  0.0000000000000E+00  0.6372649330289E-02
 0.2790536169947E-02 -0.1371082237531E-01  0.0000000000000E+00  0.7244217023902E-02
 0.2656007389725E-02 -0.1376040626125E-01  0.0000000000000E+00  0.8145493520123E-02
 0.2509688723500E-02 -0.1383263282261E-01  0.0000000000000E+00  0.9072486977154E-02
 0.2353572681612E-02 -0.1396324150599E-01  0.0000000000000E+00  0.1005721240733E-01
 0.2182532941766E-02 -0.1417880847267E-01  0.0000000000000E+00  0.1115622853587E-01
 0.1987102445888E-02 -0.1450783397894E-01  0.0000000000000E+00  0.1244884065879E-01
 0.1737817640491E-02 -0.1498790695694E-01  0.0000000000000E+00  0.1405048498105E-01
 0.1427667269484E-02 -0.1568468358942E-01  0.0000000000000E+00  0.1617689419716E-01
 0.7855669022346E-03 -0.1664892848682E-01  0.0000000000000E+00  0.1915336672666E-01
 0.4376416350348E-03 -0.1822430976404E-01  0.0000000000000E+00  0.2400860718206E-01
-0.5956244812689E-02 -0.1867290979074E-01  0.0000000000000E+00  0.3310173095806E-01
 0.1714963159334E-01 -0.2209456478521E-01  0.0000000000000E+00  0.3829638723592E-01
 0.1784491907106E-02 -0.1750013230119E-01  0.0000000000000E+00 -0.7442787773438E-02
 0.3776467330898E-02 -0.1676328512291E-01  0.0000000000000E+00 -0.3437579968375E-02
 0.3788923490038E-02 -0.1524916215665E-01  0.0000000000000E+00 -0.1330505285021E-02
 0.3558226594955E-02 -0.1443463629093E-01  0.0000000000000E+00 -0.9142960706671E-03
 0.3456126740390E-02 -0.1389385769649E-01  0.0000000000000E+00 -0.6267127376232E-03
 0.3361471755008E-02 -0.1349783615758E-01  0.0000000000000E+00 -0.4773576570778E-03
 0.3289854264489E-02 -0.1319169307784E-01  0.0000000000000E+00 -0.3807128586704E-03
 0.3230094206071E-02 -0.1294398092845E-01  0.0000000000000E+00 -0.3156211138727E-03
 0.3179869983149E-02 -0.1273746795970E-01  0.0000000000000E+00 -0.2680902963186E-03
 0.3136758468931E-02 -0.1256194470405E-01  0.0000000000000E+00 -0.2308184446195E-03
 0.3099546235821E-02 -0.1241151769681E-01  0.0000000000000E+00 -0.1991201297590E-03
 0.3067543023734E-02 -0.1228307583931E-01  0.0000000000000E+00 -0.1697942294341E-03
 0.3040522286375E-02 -0.1217551834073E-01  0.0000000000000E+00 -0.1403525871594E-03
 0.3018620257108E-02 -0.1208938469641E-01  0.0000000000000E+00 -0.1085612453404E-03
 0.3002318356697E-02 -0.1202678121856E-01  0.0000000000000E+00 -0.7202821547958E-04
 0.2992456829471E-02 -0.1199159225296E-01  0.0000000000000E+00 -0.2764168878300E-04
 0.2990333900135E-02 -0.1199015418256E-01  0.0000000000000E+00  0.2948046321838E-04
 0.2997341990816E-02 -0.1203273848962E-01  0.0000000000000E+00  0.1097325428211E-03
 0.3010463820021E-02 -0.1213311293106E-01  0.0000000000000E+00  0.2386761699538E-03
 0.3022185316230E-02 -0.1229682865979E-01  0.0000000000000E+00  0.4543037194265E-03
 0.3029522245195E-02 -0.1250163026752E-01  0.0000000000000E+00  0.7894459885590E-03
 0.3032779624556E-02 -0.1270249491748E-01  0.0000000000000E+00  0.1256126152129E-02
 0.3027721653364E-02 -0.1286207890506E-01  0.0000000000000E+00  0.1837342145120E-02
 0.3007908323488E-02 -0.1296756209322E-01  0.0000000000000E+00  0.2497571656752E-02
 0.2969564499715E-02 -0.1302531089651E-01  0.0000000000000E+00  0.3203470301253E-02
 0.2911811675327E-02 -0.1304952033442E-01  0.0000000000000E+00  0.3934384411636E-02
 0.2834839723822E-02 -0.1305412129562E-01  0.0000000000000E+00  0.4682663839876E-02
 0.2738184518851E-02 -0.1304872616066E-01  0.0000000000000E+00  0.5449588406018E-02
 0.2620822898289E-02 -0.1303718808640E-01  0.0000000000000E+00  0.6238977869057E-02
 0.2483791744839E-02 -0.1301936728095E-01  0.0000000000000E+00  0.7051889773666E-02
 0.2329112439546E-02 -0.1299696575762E-01  0.0000000000000E+00  0.7890178212893E-02
 0.2154542588649E-02 -0.1297802674359E-01  0.0000000000000E+00  0.8762611505238E-02
 0.1952878878558E-02 -0.1297396055615E-01  0.0000000000000E+00  0.9688209760663E-02
 0.1712988474463E-02 -0.1299211451393E-01  0.0000000000000E+00  0.1070029797463E-01
 0.1412977111570E-02 -0.1303031943907E-01  0.0000000000000E+00  0.1184698488291E-01
 0.1022700912792E-02 -0.1307337097450E-01  0.0000000000000E+00  0.1318974032087E-01
 0.4431996463508E-03 -0.1306581614393E-01  0.0000000000000E+00  0.1480584979352E-01
-0.3163714025662E-03 -0.1290461817015E-01  0.0000000000000E+00  0.1668660391325E-01
-0.2138775556158E-02 -0.1201364198926E-01  0.0000000000000E+00  0.1900467634617E-01
-0.2843596710577E-02 -0.9502822101465E-02  0.0000000000000E+00  0.1512750431562E-01
 0.1971986395195E-01 -0.1331869820617E-01  0.0000000000000E+00  0.1173797842466E-01
 0.1263580981818E-02 -0.1587408016493E-01  0.0000000000000E+00 -0.7176675898162E-02
 0.3070343523230E-02 -0.1599515142772E-01  0.0000000000000E+00 -0.4793662471707E-02
 0.3567656280830E-02 -0.1514650377616E-01  0.0000000000000E+00 -0.2455810084464E-02
 0.3483272195151E-02 -0.1435564618803E-01  0.0000000000000E+00 -0.1519202144653E-02
 0.3395789203296E-02 -0.1382444735301E-01  0.0000000000000E+00 -0.1083455533090E-02
 0.3320452426096E-02 -0.1342341522312E-01  0.0000000000000E+00 -0.8169409087885E-03
 0.3253761886383E-02 -0.1310994622846E-01  0.0000000000000E+00 -0.6513909768452E-03
 0.3197186999009E-02 -0.1285554803008E-01  0.0000000000000E+00 -0.5377545286379E-03
 0.3148161058240E-02 -0.1264353889887E-01  0.0000000000000E+00 -0.4549670777174E-03
 0.3105517225585E-02 -0.1246379029814E-01  0.0000000000000E+00 -0.3900269315613E-03
 0.3068279821576E-02 -0.1231024486688E-01  0.0000000000000E+00 -0.3350086601155E-03
 0.3035932242219E-02 -0.1217957203170E-01  0.0000000000000E+00 -0.2844043715262E-03
 0.3008270260726E-02 -0.1207042016702E-01  0.0000000000000E+00 -0.2339729473112E-03
 0.2985369187478E-02 -0.1198304013598E-01  0.0000000000000E+00 -0.1799343648713E-03
 0.2967536121942E-02 -0.1191916364360E-01  0.0000000000000E+00 -0.1182932467781E-03
 0.2955245933646E-02 -0.1188209197008E-01  0.0000000000000E+00 -0.4397058316358E-04
 0.2948941497369E-02 -0.1187702440859E-01  0.0000000000000E+00  0.5090678241726E-04
 0.2947284393004E-02 -0.1191079038741E-01  0.0000000000000E+00  0.1811734806331E-03
 0.2943230667110E-02 -0.1198759897649E-01  0.0000000000000E+00  0.3700829544448E-03
 0.2927673956885E-02 -0.1210184873039E-01  0.0000000000000E+00  0.6370048559539E-03
 0.2900730162549E-02 -0.1223598638894E-01  0.0000000000000E+00  0.9896976444584E-03
 0.2869782734761E-02 -0.1236580463763E-01  0.0000000000000E+00  0.1431172436641E-02
 0.2837248601095E-02 -0.1246968357627E-01  0.0000000000000E+00  0.1958123545448E-02
 0.2798485390137E-02 -0.1253630703385E-01  0.0000000000000E+00  0.2555760791204E-02
 0.2747304453714E-02 -0.1256534392892E-01  0.0000000000000E+00  0.3203980600895E-02
 0.2679191919744E-02 -0.1256281336847E-01  0.0000000000000E+00  0.3885762549732E-02
 0.2591327208258E-02 -0.1253600142228E-01  0.0000000000000E+00  0.4590556503780E-02
 0.2481734563472E-02 -0.1249010801137E-01  0.0000000000000E+00  0.5313016506831E-02
 0.2349759809192E-02 -0.1242737532197E-01  0.0000000000000E+00  0.6049542338691E-02
 0.2197047298204E-02 -0.1234876159474E-01  0.0000000000000E+00  0.6798245373442E-02
 0.2024165315044E-02 -0.1225506150583E-01  0.0000000000000E+00  0.7563013870046E-02
 0.1825481610333E-02 -0.1214554319002E-01  0.0000000000000E+00  0.8351438262580E-02
 0.1590107383573E-02 -0.1201698292138E-01  0.0000000000000E+00  0.9170662673497E-02
 0.1303151247337E-02 -0.1186015081483E-01  0.0000000000000E+00  0.1002922862696E-01
 0.9441010015157E-03 -0.1165201006198E-01  0.0000000000000E+00  0.1093249329623E-01
 0.4757670683815E-03 -0.1134286559348E-01  0.0000000000000E+00  0.1186727909910E-01
-0.1324210947972E-03 -0.1083708215773E-01  0.0000000000000E+00  0.1272848396618E-01
-0.9517767798278E-03 -0.9941878179412E-02  0.0000000000000E+00  0.1326895841996E-01
-0.1811706068799E-02 -0.8218435854282E-02  0.0000000000000E+00  0.1190203384171E-01
 0.1611145509357E-02 -0.6985894802838E-02  0.0000000000000E+00  0.5092293126907E-02
 0.1944569031413E-01 -0.1059326048586E-01  0.0000000000000E+00  0.5054207744990E-02
 0.9441116086167E-03 -0.1479523135066E-01  0.0000000000000E+00 -0.6775625227956E-02
 0.2509740578669E-02 -0.1518819692849E-01  0.0000000000000E+00 -0.5356243834095E-02
 0.3238655094331E-02 -0.1481432949023E-01  0.0000000000000E+00 -0.3326111006935E-02
 0.3343119273026E-02 -0.1420185861697E-01  0.0000000000000E+00 -0.2131695440158E-02
 0.3308873366588E-02 -0.1370469931619E-01  0.0000000000000E+00 -0.1524134540891E-02
 0.3258070525036E-02 -0.1331822138516E-01  0.0000000000000E+00 -0.1160442724829E-02
 0.3204641184387E-02 -0.1300741471680E-01  0.0000000000000E+00 -0.9251164606399E-03
 0.3154581298938E-02 -0.1275226384153E-01  0.0000000000000E+00 -0.7634678778060E-03
 0.3109167608413E-02 -0.1253833407338E-01  0.0000000000000E+00 -0.6446535551363E-03
 0.3068317079304E-02 -0.1235649141587E-01  0.0000000000000E+00 -0.5513048717499E-03
 0.3031793781230E-02 -0.1220100287050E-01  0.0000000000000E+00 -0.4722524942200E-03
 0.2999374662412E-02 -0.1206857357642E-01  0.0000000000000E+00 -0.3998004788531E-03
 0.2970969110911E-02 -0.1195772348241E-01  0.0000000000000E+00 -0.3279966640851E-03
 0.2946604803903E-02 -0.1186843878800E-01  0.0000000000000E+00 -0.2515806869861E-03
 0.2926369021436E-02 -0.1180200218638E-01  0.0000000000000E+00 -0.1650849130710E-03
 0.2910239993005E-02 -0.1176092297540E-01  0.0000000000000E+00 -0.6174977385803E-04
 0.2897449750783E-02 -0.1174872580487E-01  0.0000000000000E+00  0.6837977293978E-04
 0.2884352442892E-02 -0.1176831093235E-01  0.0000000000000E+00  0.2406057636665E-03
 0.2862454595546E-02 -0.1181779182411E-01  0.0000000000000E+00  0.4717428989545E-03
 0.2823912910060E-02 -0.1188800849379E-01  0.0000000000000E+00  0.7686556649561E-03
 0.2771223286078E-02 -0.1196604693182E-01  0.0000000000000E+00  0.1128167980767E-02
 0.2714440851645E-02 -0.1203883841147E-01  0.0000000000000E+00  0.1549619202278E-02
 0.2659083988059E-02 -0.1209402827413E-01  0.0000000000000E+00  0.2035478442493E-02
 0.2602287391133E-02 -0.1212248602588E-01  0.0000000000000E+00  0.2582029176907E-02
 0.2537333388242E-02 -0.1212046396690E-01  0.0000000000000E+00  0.3178037837908E-02
 0.2457895774443E-02 -0.1208863946005E-01  0.0000000000000E+00  0.3809864231668E-02
 0.2359386566055E-02 -0.1202943628152E-01  0.0000000000000E+00  0.4465484635324E-02
 0.2238993012146E-02 -0.1194474641958E-01  0.0000000000000E+00  0.5135151200888E-02
 0.2096065495152E-02 -0.1183531286035E-01  0.0000000000000E+00  0.5810738680425E-02
 0.1931780450697E-02 -0.1170125412325E-01  0.0000000000000E+00  0.6487605310516E-02
 0.1745435335218E-02 -0.1154090677243E-01  0.0000000000000E+00  0.7166546678616E-02
 0.1530518663870E-02 -0.1134784088433E-01  0.0000000000000E+00  0.7848337906394E-02
 0.1275928991176E-02 -0.1111006906908E-01  0.0000000000000E+00  0.8526637293756E-02
 0.9688580875675E-03 -0.1080817166844E-01  0.0000000000000E+00  0.9184676822710E-02
 0.5945260460405E-03 -0.1040838290008E-01  0.0000000000000E+00  0.9785364266494E-02
 0.1421550994321E-03 -0.9852890719991E-02  0.0000000000000E+00  0.1023543626913E-01
-0.3731502418763E-03 -0.9052545518683E-02  0.0000000000000E+00  0.1031999819923E-01
-0.8311425273413E-03 -0.7872509042106E-02  0.0000000000000E+00  0.9470324065828E-02
-0.2931323635497E-03 -0.6441144683914E-02  0.0000000000000E+00  0.6218512435117E-02
 0.4851985017387E-02 -0.6427453701919E-02  0.0000000000000E+00  0.3924470866864E-03
 0.1829590295899E-01 -0.9261758214176E-02  0.0000000000000E+00  0.2824340540803E-02
 0.7382089306301E-03 -0.1400168644646E-01  0.0000000000000E+00 -0.6384431087782E-02
 0.2081181560718E-02 -0.1447030197342E-01  0.0000000000000E+00 -0.5540585959522E-02
 0.2895814884096E-02 -0.1438289709686E-01  0.0000000000000E+00 -0.3910951708925E-02
 0.3154365647442E-02 -0.1396821517459E-01  0.0000000000000E+00 -0.2674140162495E-02
 0.3194996371492E-02 -0.1354178709654E-01  0.0000000000000E+00 -0.1942723929698E-02
 0.3177481553678E-02 -0.1318292801379E-01  0.0000000000000E+00 -0.1493676948247E-02
 0.3142439107676E-02 -0.1288441674599E-01  0.0000000000000E+00 -0.1196414796282E-02
 0.3102535484057E-02 -0.1263403851622E-01  0.0000000000000E+00 -0.9887443266033E-03
 0.3062827256160E-02 -0.1242167091204E-01  0.0000000000000E+00 -0.8348563770239E-03
 0.3025097936034E-02 -0.1223984786887E-01  0.0000000000000E+00 -0.7132739715899E-03
 0.2990012250651E-02 -0.1208361158107E-01  0.0000000000000E+00 -0.6101700119650E-03
 0.2957816570229E-02 -0.1194993879932E-01  0.0000000000000E+00 -0.5158364864863E-03
 0.2928601456750E-02 -0.1183734026503E-01  0.0000000000000E+00 -0.4227606981421E-03
 0.2902371049327E-02 -0.1174556907518E-01  0.0000000000000E+00 -0.3243423923603E-03
 0.2878970853299E-02 -0.1167541203060E-01  0.0000000000000E+00 -0.2138624040284E-03
 0.2857797855198E-02 -0.1162843735582E-01  0.0000000000000E+00 -0.8332052440874E-04
 0.2836907311914E-02 -0.1160628514845E-01  0.0000000000000E+00  0.7799964915917E-04
 0.2811246856101E-02 -0.1160861092717E-01  0.0000000000000E+00  0.2834738482952E-03
 0.2772461120814E-02 -0.1163027958644E-01  0.0000000000000E+00  0.5434057766101E-03
 0.2714710854245E-02 -0.1166169323120E-01  0.0000000000000E+00  0.8570560916711E-03
 0.2642038459433E-02 -0.1169363052513E-01  0.0000000000000E+00  0.1216761939200E-02
 0.2565168880638E-02 -0.1171928694838E-01  0.0000000000000E+00  0.1620546726801E-02
 0.2490861367719E-02 -0.1173175195507E-01  0.0000000000000E+00  0.2073100622409E-02
 0.2417656272716E-02 -0.1172384208301E-01  0.0000000000000E+00  0.2576198285626E-02
 0.2339227339178E-02 -0.1169023122178E-01  0.0000000000000E+00  0.3124049048305E-02
 0.2248652846890E-02 -0.1162826316865E-01  0.0000000000000E+00  0.3705626294068E-02
 0.2140537561409E-02 -0.1153698005327E-01  0.0000000000000E+00  0.4308243915505E-02
 0.2011671595637E-02 -0.1141580707633E-01  0.0000000000000E+00  0.4919382586073E-02
 0.1861245622044E-02 -0.1126396466901E-01  0.0000000000000E+00  0.5527766885347E-02
 0.1689872258397E-02 -0.1108008685331E-01  0.0000000000000E+00  0.6125448480774E-02
 0.1496364490693E-02 -0.1086019783602E-01  0.0000000000000E+00  0.6707807604273E-02
 0.1275049698867E-02 -0.1059447889115E-01  0.0000000000000E+00  0.7266676602647E-02
 0.1017609038738E-02 -0.1026663504393E-01  0.0000000000000E+00  0.7781686388562E-02
 0.7171081590171E-03 -0.9853367829931E-02  0.0000000000000E+00  0.8213348443745E-02
 0.3732193933690E-03 -0.9320697853424E-02  0.0000000000000E+00  0.8487178522662E-02
 0.7377252266794E-05 -0.8622435664262E-02  0.0000000000000E+00  0.8457953434750E-02
-0.2939038746889E-03 -0.7708148083904E-02  0.0000000000000E+00  0.7836401101131E-02
-0.2038211959514E-03 -0.6595450836160E-02  0.0000000000000E+00  0.6033510165062E-02
 0.1405087658703E-02 -0.5725225281950E-02  0.0000000000000E+00  0.2339368559496E-02
 0.6914222648632E-02 -0.6356924927693E-02  0.0000000000000E+00 -0.1728149864348E-02
 0.1711569874117E-01 -0.8467720970380E-02  0.0000000000000E+00  0.1771323342712E-02
 0.5985453646777E-03 -0.1337698282402E-01  0.0000000000000E+00 -0.6030952314614E-02
 0.1753668217597E-02 -0.1384914256615E-01  0.0000000000000E+00 -0.5541252954158E-02
 0.2577487715873E-02 -0.1392654106148E-01  0.0000000000000E+00 -0.4275043212056E-02
 0.2942237506706E-02 -0.1367896425739E-01  0.0000000000000E+00 -0.3113200631501E-02
 0.3058813485452E-02 -0.1334004011514E-01  0.0000000000000E+00 -0.2323187400101E-02
 0.3081147905382E-02 -0.1302074987469E-01  0.0000000000000E+00 -0.1808758174410E-02
 0.3068357812234E-02 -0.1274186450665E-01  0.0000000000000E+00 -0.1459239837443E-02
 0.3041477072262E-02 -0.1250129206899E-01  0.0000000000000E+00 -0.1210167307092E-02
 0.3009367626392E-02 -0.1229366382122E-01  0.0000000000000E+00 -0.1023330944447E-02
 0.2975946776169E-02 -0.1211386933929E-01  0.0000000000000E+00 -0.8746214845343E-03
 0.2942985995648E-02 -0.1195804894103E-01  0.0000000000000E+00 -0.7480835748813E-03
 0.2911307778955E-02 -0.1182366084039E-01  0.0000000000000E+00 -0.6323498410539E-03
 0.2881252518549E-02 -0.1170931452523E-01  0.0000000000000E+00 -0.5185604856821E-03
 0.2852829199112E-02 -0.1161457050156E-01  0.0000000000000E+00 -0.3989849053852E-03
 0.2825644875649E-02 -0.1153970509275E-01  0.0000000000000E+00 -0.2659366488940E-03
 0.2798532645113E-02 -0.1148529514997E-01  0.0000000000000E+00 -0.1107316173417E-03
 0.2768651448608E-02 -0.1145124300543E-01  0.0000000000000E+00  0.7699491610469E-04
 0.2730376024722E-02 -0.1143493817871E-01  0.0000000000000E+00  0.3077379209959E-03
 0.2676289027499E-02 -0.1142982701329E-01  0.0000000000000E+00  0.5865009113864E-03
 0.2602506907683E-02 -0.1142707213026E-01  0.0000000000000E+00  0.9082305845538E-03
 0.2513964107731E-02 -0.1142018858203E-01  0.0000000000000E+00  0.1263777542827E-02
 0.2421149148763E-02 -0.1140598648401E-01  0.0000000000000E+00  0.1650826520940E-02
 0.2331123350296E-02 -0.1138076502457E-01  0.0000000000000E+00  0.2074592871082E-02
 0.2243467712990E-02 -0.1133886290894E-01  0.0000000000000E+00  0.2539180550435E-02
 0.2152658473023E-02 -0.1127437093922E-01  0.0000000000000E+00  0.3041804770847E-02
 0.2051946374054E-02 -0.1118268062235E-01  0.0000000000000E+00  0.3573201546660E-02
 0.1935810993524E-02 -0.1106059786137E-01  0.0000000000000E+00  0.4120427655739E-02
 0.1800983401783E-02 -0.1090573834982E-01  0.0000000000000E+00  0.4669189598660E-02
 0.1646573284581E-02 -0.1071594421192E-01  0.0000000000000E+00  0.5205692387554E-02
 0.1472965448843E-02 -0.1048843832094E-01  0.0000000000000E+00  0.5718316541400E-02
 0.1279360156543E-02 -0.1021766547263E-01  0.0000000000000E+00  0.6196287717593E-02
 0.1062310377667E-02 -0.9892388983529E-02  0.0000000000000E+00  0.6622272911349E-02
 0.8183178232201E-03 -0.9495541389931E-02  0.0000000000000E+00  0.6963214161122E-02
 0.5495893872534E-03 -0.9005295902389E-02  0.0000000000000E+00  0.7161332469649E-02
 0.2739316662507E-03 -0.8395746338844E-02  0.0000000000000E+00  0.7117670940521E-02
 0.4778523803761E-04 -0.7643362921312E-02  0.0000000000000E+00  0.6661882784650E-02
 0.2887593424583E-04 -0.6754979870305E-02  0.0000000000000E+00  0.5503968993973E-02
 0.6494387342690E-03 -0.5871986541004E-02  0.0000000000000E+00  0.3237525000827E-02
 0.2906531443720E-02 -0.5491533093247E-02  0.0000000000000E+00 -0.1678084206204E-03
 0.8175627285305E-02 -0.6375148060384E-02  0.0000000000000E+00 -0.2689902002217E-02
 0.1609384297199E-01 -0.7942991890572E-02  0.0000000000000E+00  0.1069753799734E-02
 0.4993769501873E-03 -0.1286092865819E-01  0.0000000000000E+00 -0.5716791141268E-02
 0.1500446063712E-02 -0.1331005807876E-01  0.0000000000000E+00 -0.5452332479390E-02
 0.2295791484488E-02 -0.1347917205721E-01  0.0000000000000E+00 -0.4484250526831E-02
 0.2725613176422E-02 -0.1335911196607E-01  0.0000000000000E+00 -0.3448451368719E-02
 0.2907998976416E-02 -0.1310746530482E-01  0.0000000000000E+00 -0.2653993533825E-02
 0.2972009001762E-02 -0.1283517342462E-01  0.0000000000000E+00 -0.2099196715102E-02
 0.2983999024265E-02 -0.1258150429261E-01  0.0000000000000E+00 -0.1708942475654E-02
 0.2972185172430E-02 -0.1235480280564E-01  0.0000000000000E+00 -0.1424611176229E-02
 0.2949200289544E-02 -0.1215470586722E-01  0.0000000000000E+00 -0.1208087168377E-02
 0.2921102949725E-02 -0.1197875419355E-01  0.0000000000000E+00 -0.1034117912555E-02
 0.2890876686556E-02 -0.1182444041453E-01  0.0000000000000E+00 -0.8853508376682E-03
 0.2859995638280E-02 -0.1168985904417E-01  0.0000000000000E+00 -0.7491671230883E-03
 0.2829101902644E-02 -0.1157381353027E-01  0.0000000000000E+00 -0.6156424587428E-03
 0.2798244222610E-02 -0.1147571967455E-01  0.0000000000000E+00 -0.4761697386172E-03
 0.2766825547602E-02 -0.1139536517859E-01  0.0000000000000E+00 -0.3224230335483E-03
 0.2733223326974E-02 -0.1133239850046E-01  0.0000000000000E+00 -0.1455745947462E-03
 0.2694059684537E-02 -0.1128532499655E-01  0.0000000000000E+00  0.6367939643448E-04
 0.2643747163523E-02 -0.1125014716342E-01  0.0000000000000E+00  0.3128581105812E-03
 0.2576120853745E-02 -0.1121995663826E-01  0.0000000000000E+00  0.6030567948125E-03
 0.2488952767313E-02 -0.1118704486433E-01  0.0000000000000E+00  0.9269683051607E-03
 0.2387619139825E-02 -0.1114689322470E-01  0.0000000000000E+00  0.1275321056365E-02
 0.2281994002936E-02 -0.1109842087121E-01  0.0000000000000E+00  0.1645809574670E-02
 0.2178997712450E-02 -0.1103982463142E-01  0.0000000000000E+00  0.2043335945769E-02
 0.2078978967676E-02 -0.1096658519328E-01  0.0000000000000E+00  0.2472564068902E-02
 0.1977373837711E-02 -0.1087274433193E-01  0.0000000000000E+00  0.2932083371615E-02
 0.1868063374854E-02 -0.1075266909808E-01  0.0000000000000E+00  0.3413649627676E-02
 0.1745868172417E-02 -0.1060178501200E-01  0.0000000000000E+00  0.3904204524527E-02
 0.1607753815329E-02 -0.1041645181314E-01  0.0000000000000E+00  0.4388233723696E-02
 0.1452980954850E-02 -0.1019344197945E-01  0.0000000000000E+00  0.4849765999956E-02
 0.1282184966601E-02 -0.9928984867690E-02  0.0000000000000E+00  0.5273508297137E-02
 0.1095749367317E-02 -0.9616847787570E-02  0.0000000000000E+00  0.5642749373235E-02
 0.8934586768763E-03 -0.9246045355964E-02  0.0000000000000E+00  0.5932021940042E-02
 0.6779830892848E-03 -0.8801443583203E-02  0.0000000000000E+00  0.6098213285355E-02
 0.4622672422888E-03 -0.8266621602037E-02  0.0000000000000E+00  0.6071725048548E-02
 0.2827671219525E-03 -0.7628492657608E-02  0.0000000000000E+00  0.5743145489966E-02
 0.2277173435503E-03 -0.6890673184444E-02  0.0000000000000E+00  0.4945260014708E-02
 0.5015141234623E-03 -0.6111779637485E-02  0.0000000000000E+00  0.3448973052208E-02
 0.1546021940903E-02 -0.5492719081210E-02  0.0000000000000E+00  0.1080308045177E-02
 0.4123943936205E-02 -0.5457813445214E-02  0.0000000000000E+00 -0.1766498242714E-02
 0.8934777025534E-02 -0.6388160374643E-02  0.0000000000000E+00 -0.3144833859095E-02
 0.1524598099024E-01 -0.7572313168504E-02  0.0000000000000E+00  0.4981233831776E-03
 0.4261300606739E-03 -0.1241917980866E-01  0.0000000000000E+00 -0.5437607379388E-02
 0.1301588455881E-02 -0.1283671334952E-01  0.0000000000000E+00 -0.5320976700503E-02
 0.2051665086565E-02 -0.1305432140015E-01  0.0000000000000E+00 -0.4588654066894E-02
 0.2515964371856E-02 -0.1302680496610E-01  0.0000000000000E+00 -0.3693267852578E-02
 0.2750111759021E-02 -0.1285329701331E-01  0.0000000000000E+00 -0.2931279247034E-02
 0.2853545662386E-02 -0.1263027598926E-01  0.0000000000000E+00 -0.2360356634936E-02
 0.2891188323511E-02 -0.1240547158462E-01  0.0000000000000E+00 -0.1942053722303E-02
 0.2895675975805E-02 -0.1219568950545E-01  0.0000000000000E+00 -0.1629515332406E-02
 0.2882903279932E-02 -0.1200540915789E-01  0.0000000000000E+00 -0.1387397013660E-02
 0.2860929685277E-02 -0.1183486976557E-01  0.0000000000000E+00 -0.1190671034135E-02
 0.2833946519788E-02 -0.1168304348238E-01  0.0000000000000E+00 -0.1021379449121E-02
 0.2804114240432E-02 -0.1154876776344E-01  0.0000000000000E+00 -0.8661111692321E-03
 0.2772412697526E-02 -0.1143111555654E-01  0.0000000000000E+00 -0.7141971075736E-03
 0.2738969115923E-02 -0.1132941209550E-01  0.0000000000000E+00 -0.5564364471614E-03
 0.2703045833506E-02 -0.1124301517528E-01  0.0000000000000E+00 -0.3841970830757E-03
 0.2662723477764E-02 -0.1117079120546E-01  0.0000000000000E+00 -0.1889434273146E-03
 0.2614425332789E-02 -0.1111024176347E-01  0.0000000000000E+00  0.3722192442679E-04
 0.2552992243310E-02 -0.1105665308439E-01  0.0000000000000E+00  0.2991582879410E-03
 0.2473561426608E-02 -0.1100333601662E-01  0.0000000000000E+00  0.5952509738865E-03
 0.2375222082839E-02 -0.1094373267008E-01  0.0000000000000E+00  0.9171736057824E-03
 0.2263507142292E-02 -0.1087471953690E-01  0.0000000000000E+00  0.1256101097343E-02
 0.2147559561481E-02 -0.1079644779181E-01  0.0000000000000E+00  0.1609808828559E-02
 0.2033980463217E-02 -0.1070823957667E-01  0.0000000000000E+00  0.1982471228484E-02
 0.1923705561820E-02 -0.1060643298597E-01  0.0000000000000E+00  0.2378344284137E-02
 0.1813167404393E-02 -0.1048530866531E-01  0.0000000000000E+00  0.2796349051526E-02
 0.1697134071442E-02 -0.1033882487840E-01  0.0000000000000E+00  0.3228683426076E-02
 0.1571080398178E-02 -0.1016166068209E-01  0.0000000000000E+00  0.3662173381985E-02
 0.1432467989187E-02 -0.9949404977184E-02  0.0000000000000E+00  0.4080386023514E-02
 0.1281000677907E-02 -0.9698161574543E-02  0.0000000000000E+00  0.4465452888332E-02
 0.1118041731009E-02 -0.9403711580100E-02  0.0000000000000E+00  0.4798731992896E-02
 0.9457834716114E-03 -0.9060018457811E-02  0.0000000000000E+00  0.5058404753488E-02
 0.7678798171898E-03 -0.8657670638245E-02  0.0000000000000E+00  0.5212647493293E-02
 0.5937583991742E-03 -0.8185360510223E-02  0.0000000000000E+00  0.5211797785045E-02
 0.4471608437206E-03 -0.7634347289847E-02  0.0000000000000E+00  0.4981458460848E-02
 0.3811456086899E-03 -0.7006022255488E-02  0.0000000000000E+00  0.4414871001061E-02
 0.5068281157413E-03 -0.6329032190739E-02  0.0000000000000E+00  0.3371148890054E-02
 0.1045437748288E-02 -0.5695659536213E-02  0.0000000000000E+00  0.1710475306429E-02
 0.2390937229231E-02 -0.5314188462860E-02  0.0000000000000E+00 -0.5430891594502E-03
 0.5074937898594E-02 -0.5497830902500E-02  0.0000000000000E+00 -0.2792847515063E-02
 0.9384971822515E-02 -0.6382804193446E-02  0.0000000000000E+00 -0.3382996973029E-02
 0.1454405281781E-01 -0.7298479433118E-02  0.0000000000000E+00 -0.3860783909571E-05
 0.3701861923463E-03 -0.1203068610640E-01  0.0000000000000E+00 -0.5188278624215E-02
 0.1142831825699E-02 -0.1241537689847E-01  0.0000000000000E+00 -0.5171480227494E-02
 0.1841774901735E-02 -0.1265598664905E-01  0.0000000000000E+00 -0.4623315919907E-02
 0.2319316232202E-02 -0.1269357302978E-01  0.0000000000000E+00 -0.3864470949601E-02
 0.2591209639149E-02 -0.1258584506380E-01  0.0000000000000E+00 -0.3156864320646E-02
 0.2729290979758E-02 -0.1241042341388E-01  0.0000000000000E+00 -0.2589988741340E-02
 0.2791884050403E-02 -0.1221612693401E-01  0.0000000000000E+00 -0.2156202683043E-02
 0.2813103041602E-02 -0.1202529566323E-01  0.0000000000000E+00 -0.1822941339657E-02
 0.2811181162002E-02 -0.1184656459077E-01  0.0000000000000E+00 -0.1559844287449E-02
 0.2795891114142E-02 -0.1168272265060E-01  0.0000000000000E+00 -0.1343347367719E-02
 0.2772542506136E-02 -0.1153423074690E-01  0.0000000000000E+00 -0.1155643296933E-02
 0.2743972517909E-02 -0.1140072228234E-01  0.0000000000000E+00 -0.9830052168570E-03
 0.2711518382835E-02 -0.1128159494940E-01  0.0000000000000E+00 -0.8143555777601E-03
 0.2675426232889E-02 -0.1117614101338E-01  0.0000000000000E+00 -0.6401905029125E-03
 0.2634899797228E-02 -0.1108337587982E-01  0.0000000000000E+00 -0.4518771442647E-03
 0.2587894244956E-02 -0.1100157158786E-01  0.0000000000000E+00 -0.2414770069686E-03
 0.2530907611690E-02 -0.1092759133100E-01  0.0000000000000E+00 -0.2589336051739E-05
 0.2459428903915E-02 -0.1085647448026E-01  0.0000000000000E+00  0.2674451184820E-03
 0.2369818575972E-02 -0.1078203357736E-01  0.0000000000000E+00  0.5652226295176E-03
 0.2262183952509E-02 -0.1069875367607E-01  0.0000000000000E+00  0.8821067068189E-03
 0.2142048758939E-02 -0.1060450015964E-01  0.0000000000000E+00  0.1209901240201E-02
 0.2017837322588E-02 -0.1050014053016E-01  0.0000000000000E+00  0.1546421790930E-02
 0.1895792336358E-02 -0.1038567024642E-01  0.0000000000000E+00  0.1894923353125E-02
 0.1777326873441E-02 -0.1025808985410E-01  0.0000000000000E+00  0.2258751656782E-02
 0.1659852902723E-02 -0.1011207659844E-01  0.0000000000000E+00  0.2636525628797E-02
 0.1539157858277E-02 -0.9941588293364E-02  0.0000000000000E+00  0.3020471796432E-02
 0.1411578486225E-02 -0.9741029175499E-02  0.0000000000000E+00  0.3397246916546E-02
 0.1275297309945E-02 -0.9505643096477E-02  0.0000000000000E+00  0.3749688784213E-02
 0.1130748134270E-02 -0.9231289544156E-02  0.0000000000000E+00  0.4058339091723E-02
 0.9804217027211E-03 -0.8913849606689E-02  0.0000000000000E+00  0.4301778629594E-02
 0.8287392329909E-03 -0.8548223978946E-02  0.0000000000000E+00  0.4454271861973E-02
 0.6834903382603E-03 -0.8127520255472E-02  0.0000000000000E+00  0.4479809441965E-02
 0.5607468687133E-03 -0.7645346954678E-02  0.0000000000000E+00  0.4325958888824E-02
 0.4938985338488E-03 -0.7101430826590E-02  0.0000000000000E+00  0.3920052601539E-02
 0.5486370159353E-03 -0.6510744430152E-02  0.0000000000000E+00  0.3168516930871E-02
 0.8478379969712E-03 -0.5920613764998E-02  0.0000000000000E+00  0.1970351749243E-02
 0.1605671497604E-02 -0.5437770336668E-02  0.0000000000000E+00  0.2758090187189E-03
 0.3144145309219E-02 -0.5247798668037E-02  0.0000000000000E+00 -0.1753383098366E-02
 0.5805958626122E-02 -0.5558452551872E-02  0.0000000000000E+00 -0.3464334574643E-02
 0.9644177669317E-02 -0.6364108317123E-02  0.0000000000000E+00 -0.3530902147374E-02
 0.1395625717298E-01 -0.7089909319586E-02  0.0000000000000E+00 -0.4543441281886E-03
 0.3262311528160E-03 -0.1168181210877E-01  0.0000000000000E+00 -0.4964205420522E-02
 0.1014040550236E-02 -0.1203530993231E-01  0.0000000000000E+00 -0.5016569959888E-02
 0.1661544038863E-02 -0.1228391535317E-01  0.0000000000000E+00 -0.4612080477296E-02
 0.2138234032522E-02 -0.1236615009483E-01  0.0000000000000E+00 -0.3977920715228E-02
 0.2435601938857E-02 -0.1231169046235E-01  0.0000000000000E+00 -0.3335696118423E-02
 0.2602416037872E-02 -0.1217979573251E-01  0.0000000000000E+00 -0.2788006327812E-02
 0.2688044156188E-02 -0.1201591423557E-01  0.0000000000000E+00 -0.2350100628488E-02
 0.2725683978765E-02 -0.1184509177775E-01  0.0000000000000E+00 -0.2003557047786E-02
 0.2734820021227E-02 -0.1167909141336E-01  0.0000000000000E+00 -0.1724347336773E-02
 0.2726528043859E-02 -0.1152292995986E-01  0.0000000000000E+00 -0.1491386743291E-02
 0.2707079785534E-02 -0.1137847028405E-01  0.0000000000000E+00 -0.1287691871780E-02
 0.2679940806630E-02 -0.1124614317425E-01  0.0000000000000E+00 -0.1099676883084E-02
 0.2646808602138E-02 -0.1112570544412E-01  0.0000000000000E+00 -0.9161887781758E-03
 0.2608087107532E-02 -0.1101647413485E-01  0.0000000000000E+00 -0.7276998905836E-03
 0.2563009130196E-02 -0.1091722544932E-01  0.0000000000000E+00 -0.5258341377718E-03
 0.2509562619264E-02 -0.1082583152842E-01  0.0000000000000E+00 -0.3034356913132E-03
 0.2444520654380E-02 -0.1073882126700E-01  0.0000000000000E+00 -0.5553822547905E-04
 0.2364122475959E-02 -0.1065129649114E-01  0.0000000000000E+00  0.2187831549457E-03
 0.2265821405941E-02 -0.1055768894191E-01  0.0000000000000E+00  0.5150005864820E-03
 0.2150504007293E-02 -0.1045338517358E-01  0.0000000000000E+00  0.8245524293930E-03
 0.2023599981821E-02 -0.1033695866529E-01  0.0000000000000E+00  0.1139873135846E-02
 0.1892888262445E-02 -0.1020969174267E-01  0.0000000000000E+00  0.1458743494407E-02
 0.1764284042826E-02 -0.1007199359847E-01  0.0000000000000E+00  0.1783430200212E-02
 0.1639617019466E-02 -0.9921402010458E-02  0.0000000000000E+00  0.2116139166143E-02
 0.1517240531492E-02 -0.9753080017240E-02  0.0000000000000E+00  0.2454829545483E-02
 0.1394019078959E-02 -0.9561258118439E-02  0.0000000000000E+00  0.2791485840407E-02
 0.1267285034328E-02 -0.9340419188681E-02  0.0000000000000E+00  0.3112546154601E-02
 0.1136122904328E-02 -0.9085827829489E-02  0.0000000000000E+00  0.3400277495029E-02
 0.1001937088132E-02 -0.8793497007721E-02  0.0000000000000E+00  0.3633994703528E-02
 0.8686321107728E-03 -0.8459888345823E-02  0.0000000000000E+00  0.3790231331293E-02
 0.7430663248911E-03 -0.8081398352752E-02  0.0000000000000E+00  0.3840697712131E-02
 0.6370874089335E-03 -0.7654217977587E-02  0.0000000000000E+00  0.3747464169165E-02
 0.5727336240592E-03 -0.7177248121902E-02  0.0000000000000E+00  0.3458887330737E-02
 0.5910575432819E-03 -0.6658289907240E-02  0.0000000000000E+00  0.2909371090632E-02
 0.7655098093892E-03 -0.6123288357893E-02  0.0000000000000E+00  0.2025401895642E-02
 0.1220485917922E-02 -0.5630593106920E-02  0.0000000000000E+00  0.7499496961430E-03
 0.2148126411580E-02 -0.5286587291566E-02  0.0000000000000E+00 -0.8910617036023E-03
 0.3795380798556E-02 -0.5241658167029E-02  0.0000000000000E+00 -0.2655346495835E-02
 0.6364362604015E-02 -0.5619060726745E-02  0.0000000000000E+00 -0.3915541997015E-02
 0.9783571904228E-02 -0.6338765249471E-02  0.0000000000000E+00 -0.3642658409895E-02
 0.1345644171177E-01 -0.6927777853359E-02  0.0000000000000E+00 -0.8609536177078E-03
 0.2908599276407E-03 -0.1136332346389E-01  0.0000000000000E+00 -0.4761548702552E-02
 0.9079744313865E-03 -0.1168828486256E-01  0.0000000000000E+00 -0.4862927931456E-02
 0.1506412543988E-02 -0.1193611689678E-01  0.0000000000000E+00 -0.4571010719164E-02
 0.1973258325405E-02 -0.1204813287475E-01  0.0000000000000E+00 -0.4047045711316E-02
 0.2286078961941E-02 -0.1203565888442E-01  0.0000000000000E+00 -0.3473982176877E-02
 0.2475526571198E-02 -0.1194206771167E-01  0.0000000000000E+00 -0.2955900070851E-02
 0.2581498222123E-02 -0.1180721216034E-01  0.0000000000000E+00 -0.2523436710008E-02
 0.2634636695123E-02 -0.1165659542721E-01  0.0000000000000E+00 -0.2170598141502E-02
 0.2654646973589E-02 -0.1150398776904E-01  0.0000000000000E+00 -0.1880154211260E-02
 0.2653433156798E-02 -0.1135619010128E-01  0.0000000000000E+00 -0.1634207483049E-02
 0.2638024742230E-02 -0.1121630552142E-01  0.0000000000000E+00 -0.1417154746494E-02
 0.2612436866558E-02 -0.1108551978536E-01  0.0000000000000E+00 -0.1215961119285E-02
 0.2578714553024E-02 -0.1096396288196E-01  0.0000000000000E+00 -0.1019709201691E-02
 0.2537453182129E-02 -0.1085103049360E-01  0.0000000000000E+00 -0.8191006299750E-03
 0.2487997182529E-02 -0.1074536546008E-01  0.0000000000000E+00 -0.6062187620803E-03
 0.2428498985037E-02 -0.1064461916616E-01  0.0000000000000E+00 -0.3747830603564E-03
 0.2356140801420E-02 -0.1054522218707E-01  0.0000000000000E+00 -0.1211228962145E-03
 0.2267939028411E-02 -0.1044253189151E-01  0.0000000000000E+00  0.1543629741025E-03
 0.2162298677335E-02 -0.1033162794048E-01  0.0000000000000E+00  0.4464826243144E-03
 0.2040705260353E-02 -0.1020866320332E-01  0.0000000000000E+00  0.7469395997526E-03
 0.1908462399145E-02 -0.1007272985824E-01  0.0000000000000E+00  0.1048723750343E-02
 0.1772801736076E-02 -0.9925353040203E-02  0.0000000000000E+00  0.1349506765823E-02
 0.1639374033676E-02 -0.9767212470818E-02  0.0000000000000E+00  0.1650568797237E-02
 0.1510396191847E-02 -0.9596307873246E-02  0.0000000000000E+00  0.1952907056106E-02
 0.1385118942382E-02 -0.9408341089999E-02  0.0000000000000E+00  0.2253647122133E-02
 0.1261497245208E-02 -0.9198000211908E-02  0.0000000000000E+00  0.2544377770365E-02
 0.1137938813169E-02 -0.8960112124606E-02  0.0000000000000E+00  0.2811302816643E-02
 0.1014562374216E-02 -0.8690265702367E-02  0.0000000000000E+00  0.3036287269923E-02
 0.8939162176652E-03 -0.8384967487346E-02  0.0000000000000E+00  0.3197831894986E-02
 0.7814809330611E-03 -0.8041636522998E-02  0.0000000000000E+00  0.3271229472931E-02
 0.6865631218621E-03 -0.7658525576921E-02  0.0000000000000E+00  0.3227022909971E-02
 0.6247057695590E-03 -0.7235123416901E-02  0.0000000000000E+00  0.3027488288612E-02
 0.6228401116578E-03 -0.6775427024374E-02  0.0000000000000E+00  0.2624772027450E-02
 0.7272671612441E-03 -0.6294108859756E-02  0.0000000000000E+00  0.1964117845210E-02
 0.1014390820180E-02 -0.5824710224163E-02  0.0000000000000E+00  0.9952204529480E-03
 0.1602320896181E-02 -0.5429665150995E-02  0.0000000000000E+00 -0.2976934238091E-03
 0.2654000900090E-02 -0.5205734989442E-02  0.0000000000000E+00 -0.1832680680372E-02
 0.4348774619066E-02 -0.5266337526798E-02  0.0000000000000E+00 -0.3330715165447E-02
 0.6790052481468E-02 -0.5672907346610E-02  0.0000000000000E+00 -0.4228441384303E-02
 0.9846472318493E-02 -0.6311685607672E-02  0.0000000000000E+00 -0.3740640231937E-02
 0.1302493115207E-01 -0.6800142967487E-02  0.0000000000000E+00 -0.1228777047261E-02
 0.2618138052463E-03 -0.1106873230436E-01  0.0000000000000E+00 -0.4577174186447E-02
 0.8194064553705E-03 -0.1136801037609E-01  0.0000000000000E+00 -0.4713996348176E-02
 0.1372305232593E-02 -0.1161003764401E-01  0.0000000000000E+00 -0.4510913560463E-02
 0.1823829015276E-02 -0.1174117250032E-01  0.0000000000000E+00 -0.4082644309003E-02
 0.2144267320184E-02 -0.1176109676667E-01  0.0000000000000E+00 -0.3578071462347E-02
 0.2350623488103E-02 -0.1170027838675E-01  0.0000000000000E+00 -0.3096129034815E-02
 0.2473860428923E-02 -0.1159221542983E-01  0.0000000000000E+00 -0.2676690252846E-02
 0.2541125107075E-02 -0.1146130295572E-01  0.0000000000000E+00 -0.2323806095646E-02
 0.2571495348125E-02 -0.1132228698367E-01  0.0000000000000E+00 -0.2026820656436E-02
 0.2577227692090E-02 -0.1118325448079E-01  0.0000000000000E+00 -0.1771401747199E-02
 0.2565878443636E-02 -0.1104833531543E-01  0.0000000000000E+00 -0.1543742008895E-02
 0.2541912034387E-02 -0.1091939360081E-01  0.0000000000000E+00 -0.1331702321501E-02
 0.2507694821981E-02 -0.1079692809555E-01  0.0000000000000E+00 -0.1124875347053E-02
 0.2464038965096E-02 -0.1068045932020E-01  0.0000000000000E+00 -0.9144092737920E-03
 0.2410470635889E-02 -0.1056859513689E-01  0.0000000000000E+00 -0.6929966513750E-03
 0.2345407358079E-02 -0.1045891867946E-01  0.0000000000000E+00 -0.4552597256141E-03
 0.2266521054236E-02 -0.1034793592066E-01  0.0000000000000E+00 -0.1986573292341E-03
 0.2171587614898E-02 -0.1023137283807E-01  0.0000000000000E+00  0.7542438374325E-04
 0.2059831311526E-02 -0.1010494117905E-01  0.0000000000000E+00  0.3614368370367E-03
 0.1933205660078E-02 -0.9965445439499E-02  0.0000000000000E+00  0.6514259298938E-03
 0.1796888906996E-02 -0.9812372020650E-02  0.0000000000000E+00  0.9388374567170E-03
 0.1657669372083E-02 -0.9647395868027E-02  0.0000000000000E+00  0.1221174573437E-02
 0.1521007729859E-02 -0.9471394363068E-02  0.0000000000000E+00  0.1498774296559E-02
 0.1389497269473E-02 -0.9282787777282E-02  0.0000000000000E+00  0.1771450769913E-02
 0.1263242300834E-02 -0.9077850156555E-02  0.0000000000000E+00  0.2035443528144E-02
 0.1141274805045E-02 -0.8851853261144E-02  0.0000000000000E+00  0.2281884030165E-02
 0.1023116010028E-02 -0.8600165221772E-02  0.0000000000000E+00  0.2496770450287E-02
 0.9100007908621E-03 -0.8318939644865E-02  0.0000000000000E+00  0.2661758812648E-02
 0.8057200618733E-03 -0.8005442975391E-02  0.0000000000000E+00  0.2754977590445E-02
 0.7173737998769E-03 -0.7658311754594E-02  0.0000000000000E+00  0.2751291803613E-02
 0.6565609167389E-03 -0.7277825946553E-02  0.0000000000000E+00  0.2621373860058E-02
 0.6419479251257E-03 -0.6866694845954E-02  0.0000000000000E+00  0.2329530999537E-02
 0.7040658454058E-03 -0.6433406665375E-02  0.0000000000000E+00  0.1833954558541E-02
 0.8919942172667E-03 -0.5997868829299E-02  0.0000000000000E+00  0.1092856749441E-02
 0.1280997936690E-02 -0.5597836051657E-02  0.0000000000000E+00  0.7923610321631E-04
 0.1977846182097E-02 -0.5294517086491E-02  0.0000000000000E+00 -0.1187904228998E-02
 0.3114602850235E-02 -0.5170406658878E-02  0.0000000000000E+00 -0.2589710644171E-02
 0.4814421343271E-02 -0.5305556172139E-02  0.0000000000000E+00 -0.3840156079108E-02
 0.7114333115291E-02 -0.5718848508023E-02  0.0000000000000E+00 -0.4452863339012E-02
 0.9859731940603E-02 -0.6285906473592E-02  0.0000000000000E+00 -0.3833458714304E-02
 0.1264727859455E-01 -0.6699031130589E-02  0.0000000000000E+00 -0.1562096215516E-02
 0.2375473116224E-03 -0.1079333749314E-01  0.0000000000000E+00 -0.4408532448102E-02
 0.7445142760745E-03 -0.1106964771799E-01  0.0000000000000E+00 -0.4571448834298E-02
 0.1255753823877E-02 -0.1130309355110E-01  0.0000000000000E+00 -0.4439073984350E-02
 0.1688846208178E-02 -0.1144576012199E-01  0.0000000000000E+00 -0.4093166007060E-02
 0.2010965303474E-02 -0.1149021031416E-01  0.0000000000000E+00 -0.3653872990384E-02
 0.2229154938294E-02 -0.1145683005189E-01  0.0000000000000E+00 -0.3211630124649E-02
 0.2366488700659E-02 -0.1137286323672E-01  0.0000000000000E+00 -0.2810913189210E-02
 0.2446218769052E-02 -0.1126063512057E-01  0.0000000000000E+00 -0.2463345188213E-02
 0.2486175912914E-02 -0.1113502058543E-01  0.0000000000000E+00 -0.2164176427801E-02
 0.2498540800245E-02 -0.1100490177862E-01  0.0000000000000E+00 -0.1902723108214E-02
 0.2491161142630E-02 -0.1087519502033E-01  0.0000000000000E+00 -0.1667241040051E-02
 0.2468838104606E-02 -0.1074834226505E-01  0.0000000000000E+00 -0.1446755717721E-02
 0.2434222436992E-02 -0.1062519090313E-01  0.0000000000000E+00 -0.1231598105389E-02
 0.2388358326354E-02 -0.1050542211636E-01  0.0000000000000E+00 -0.1013539490725E-02
 0.2331007643163E-02 -0.1038769328421E-01  0.0000000000000E+00 -0.7859847907305E-03
 0.2260923339826E-02 -0.1026964137232E-01  0.0000000000000E+00 -0.5444447205778E-03
 0.2176307248644E-02 -0.1014796963813E-01  0.0000000000000E+00 -0.2873421268021E-03
 0.2075652919973E-02 -0.1001883264068E-01  0.0000000000000E+00 -0.1678785341863E-04
 0.1958888098843E-02 -0.9878538618145E-02  0.0000000000000E+00  0.2615114576768E-03
 0.1828341982392E-02 -0.9724452203887E-02  0.0000000000000E+00  0.5399584801296E-03
 0.1689087188082E-02 -0.9556374744691E-02  0.0000000000000E+00  0.8123567878491E-03
 0.1547568650044E-02 -0.9376086125771E-02  0.0000000000000E+00  0.1076000793865E-02
 0.1409131298370E-02 -0.9184630527313E-02  0.0000000000000E+00  0.1330352575934E-02
 0.1276743849368E-02 -0.8980829232931E-02  0.0000000000000E+00  0.1574123759852E-02
 0.1151322208942E-02 -0.8761550367864E-02  0.0000000000000E+00  0.1802694601717E-02
 0.1032944764696E-02 -0.8522734545250E-02  0.0000000000000E+00  0.2006747637475E-02
 0.9222510026041E-03 -0.8260433577374E-02  0.0000000000000E+00  0.2172146685501E-02
 0.8216253661975E-03 -0.7971544778177E-02  0.0000000000000E+00  0.2280554103848E-02
 0.7361277343934E-03 -0.7654282134118E-02  0.0000000000000E+00  0.2310171238642E-02
 0.6744169173015E-03 -0.7308645119122E-02  0.0000000000000E+00  0.2236199013123E-02
 0.6501000089797E-03 -0.6936947105644E-02  0.0000000000000E+00  0.2030567071278E-02
 0.6842671576255E-03 -0.6544820759384E-02  0.0000000000000E+00  0.1661046290833E-02
 0.8096967544505E-03 -0.6144395903894E-02  0.0000000000000E+00  0.1093330185405E-02
 0.1075999263594E-02 -0.5759064103212E-02  0.0000000000000E+00  0.2992766077792E-03
 0.1554207916998E-02 -0.5427869558231E-02  0.0000000000000E+00 -0.7268072345535E-03
 0.2337093257345E-02 -0.5207261165949E-02  0.0000000000000E+00 -0.1939011563639E-02
 0.3527462539995E-02 -0.5164043775257E-02  0.0000000000000E+00 -0.3197539594178E-02
 0.5204090684794E-02 -0.5350541641598E-02  0.0000000000000E+00 -0.4227619517117E-02
 0.7361056198804E-02 -0.5757786581034E-02  0.0000000000000E+00 -0.4619260775559E-02
 0.9840380487875E-02 -0.6263134096982E-02  0.0000000000000E+00 -0.3923865342506E-02
 0.1231286459848E-01 -0.6618886212791E-02  0.0000000000000E+00 -0.1864654806327E-02
 0.2169735172602E-03 -0.1053364195422E-01  0.0000000000000E+00 -0.4253541459074E-02
 0.6804646245626E-03 -0.1078944098350E-01  0.0000000000000E+00 -0.4435983244863E-02
 0.1153876650287E-02 -0.1101289419265E-01  0.0000000000000E+00 -0.4360415922056E-02
 0.1566996404720E-02 -0.1116172374019E-01  0.0000000000000E+00 -0.4085123727014E-02
 0.1886412648884E-02 -0.1122437121484E-01  0.0000000000000E+00 -0.3706605861239E-02
 0.2112106460329E-02 -0.1121355474678E-01  0.0000000000000E+00 -0.3305473073012E-02
 0.2260479930076E-02 -0.1115081095330E-01  0.0000000000000E+00 -0.2927525754964E-02
 0.2350868047980E-02 -0.1105589916113E-01  0.0000000000000E+00 -0.2589709127568E-02
 0.2399454632620E-02 -0.1094318842888E-01  0.0000000000000E+00 -0.2292283814072E-02
 0.2417992048489E-02 -0.1082191551285E-01  0.0000000000000E+00 -0.2028068753587E-02
 0.2414398336538E-02 -0.1069753905886E-01  0.0000000000000E+00 -0.1787510432999E-02
 0.2393695327231E-02 -0.1057296464056E-01  0.0000000000000E+00 -0.1560988161053E-02
 0.2358773514735E-02 -0.1044935564539E-01  0.0000000000000E+00 -0.1339748353588E-02
 0.2310913857643E-02 -0.1032657805991E-01  0.0000000000000E+00 -0.1116320220732E-02
 0.2250150766981E-02 -0.1020340626019E-01  0.0000000000000E+00 -0.8848854247093E-03
 0.2175616253221E-02 -0.1007762344372E-01  0.0000000000000E+00 -0.6418043042954E-03
 0.2086053289994E-02 -0.9946211190092E-02  0.0000000000000E+00 -0.3863133023028E-03
 0.1980619994070E-02 -0.9805778419116E-02  0.0000000000000E+00 -0.1210492310241E-03
 0.1859850223818E-02 -0.9653187797564E-02  0.0000000000000E+00  0.1482467989445E-03
 0.1726385379076E-02 -0.9486293708927E-02  0.0000000000000E+00  0.4143166130180E-03
 0.1585222026287E-02 -0.9305164003054E-02  0.0000000000000E+00  0.6712361769325E-03
 0.1442552726098E-02 -0.9111667478199E-02  0.0000000000000E+00  0.9160699009886E-03
 0.1303675141145E-02 -0.8907008602983E-02  0.0000000000000E+00  0.1147487613874E-02
 0.1171936450245E-02 -0.8690403295114E-02  0.0000000000000E+00  0.1363209806588E-02
 0.1049023686309E-02 -0.8459327726099E-02  0.0000000000000E+00  0.1557834917627E-02
 0.9360190520327E-03 -0.8210446488333E-02  0.0000000000000E+00  0.1721655804823E-02
 0.8346574165204E-03 -0.7940592085543E-02  0.0000000000000E+00  0.1840507526311E-02
 0.7484621082892E-03 -0.7647526887847E-02  0.0000000000000E+00  0.1896286449080E-02
 0.6837240719804E-03 -0.7330524229785E-02  0.0000000000000E+00  0.1867690573846E-02
 0.6505172372104E-03 -0.6990989354843E-02  0.0000000000000E+00  0.1730930199674E-02
 0.6640862999225E-03 -0.6633144282891E-02  0.0000000000000E+00  0.1460103451516E-02
 0.7471927598692E-03 -0.6265102654639E-02  0.0000000000000E+00  0.1027452404346E-02
 0.9335780609337E-03 -0.5901685215728E-02  0.0000000000000E+00  0.4068851312257E-03
 0.1271520722596E-02 -0.5568128498337E-02  0.0000000000000E+00 -0.4165423857720E-03
 0.1825751436151E-02 -0.5302501996731E-02  0.0000000000000E+00 -0.1430382113660E-02
 0.2674189835614E-02 -0.5154491361984E-02  0.0000000000000E+00 -0.2569557292896E-02
 0.3893689678258E-02 -0.5175745917580E-02  0.0000000000000E+00 -0.3685472310499E-02
 0.5529217877925E-02 -0.5396738465051E-02  0.0000000000000E+00 -0.4524596634891E-02
 0.7548215479779E-02 -0.5791196182089E-02  0.0000000000000E+00 -0.4746403511401E-02
 0.9799482067023E-02 -0.6244244678646E-02  0.0000000000000E+00 -0.4012216141376E-02
 0.1201378083945E-01 -0.6555695458545E-02  0.0000000000000E+00 -0.2139681535460E-02
 0.1993091903221E-03 -0.1028698495117E-01  0.0000000000000E+00 -0.4110488270560E-02
 0.6251288908189E-03 -0.1052444390923E-01  0.0000000000000E+00 -0.4307758516328E-02
 0.1064307310800E-02 -0.1073732006477E-01  0.0000000000000E+00 -0.4278273239833E-02
 0.1456934094563E-02 -0.1088853456777E-01  0.0000000000000E+00 -0.4063496046605E-02
 0.1770490981788E-02 -0.1096436144753E-01  0.0000000000000E+00 -0.3740735397917E-02
 0.2000098045640E-02 -0.1097180621632E-01  0.0000000000000E+00 -0.3380640985102E-02
 0.2156688073085E-02 -0.1092743303184E-01  0.0000000000000E+00 -0.3028147123538E-02
 0.2255893298462E-02 -0.1084826694893E-01  0.0000000000000E+00 -0.2703628685739E-02
 0.2312037121721E-02 -0.1074773621736E-01  0.0000000000000E+00 -0.2411392307474E-02
 0.2336177328382E-02 -0.1063506529551E-01  0.0000000000000E+00 -0.2147458347194E-02
 0.2336108739512E-02 -0.1051602547169E-01  0.0000000000000E+00 -0.1904471888285E-02
 0.2316961857361E-02 -0.1039386733067E-01  0.0000000000000E+00 -0.1674278353867E-02
 0.2281817713165E-02 -0.1027002861519E-01  0.0000000000000E+00 -0.1449164932392E-02
 0.2232188983526E-02 -0.1014457258860E-01  0.0000000000000E+00 -0.1222513537886E-02
 0.2168403313202E-02 -0.1001644047706E-01  0.0000000000000E+00 -0.9893157034274E-03
 0.2089993330410E-02 -0.9883627521838E-02  0.0000000000000E+00 -0.7467297155137E-03
 0.1996234502679E-02 -0.9743443600820E-02  0.0000000000000E+00 -0.4946757315232E-03
 0.1886892906927E-02 -0.9592956354731E-02  0.0000000000000E+00 -0.2361696469223E-03
 0.1763028408897E-02 -0.9429541007833E-02  0.0000000000000E+00  0.2308649402971E-04
 0.1627551888757E-02 -0.9251488674126E-02  0.0000000000000E+00  0.2761423179283E-03
 0.1485417220285E-02 -0.9059105776445E-02  0.0000000000000E+00  0.5172777213993E-03
 0.1342644559126E-02 -0.8854350634050E-02  0.0000000000000E+00  0.7433225574276E-03
 0.1204544105619E-02 -0.8638594735513E-02  0.0000000000000E+00  0.9522450243134E-03
 0.1074844729226E-02 -0.8411449247175E-02  0.0000000000000E+00  0.1140901768683E-02
 0.9559646157544E-03 -0.8171005819689E-02  0.0000000000000E+00  0.1303217894973E-02
 0.8499380844068E-03 -0.7914684761297E-02  0.0000000000000E+00  0.1429190429591E-02
 0.7595496310923E-03 -0.7640157989929E-02  0.0000000000000E+00  0.1504754342324E-02
 0.6894128778644E-03 -0.7346122334099E-02  0.0000000000000E+00  0.1512267208300E-02
 0.6469592619474E-03 -0.7032954374332E-02  0.0000000000000E+00  0.1431305390591E-02
 0.6434738730458E-03 -0.6703423053598E-02  0.0000000000000E+00  0.1239645761650E-02
 0.6954218975796E-03 -0.6363440140559E-02  0.0000000000000E+00  0.9142304674251E-03
 0.8264948561044E-03 -0.6023081220798E-02  0.0000000000000E+00  0.4323708178839E-03
 0.1070267098472E-02 -0.5698917419498E-02  0.0000000000000E+00 -0.2237234001274E-03
 0.1472268815788E-02 -0.5416633790303E-02  0.0000000000000E+00 -0.1057009954043E-02
 0.2089751607139E-02 -0.5211740194166E-02  0.0000000000000E+00 -0.2040521421303E-02
 0.2986148479995E-02 -0.5126312552130E-02  0.0000000000000E+00 -0.3096820013939E-02
 0.4216280017969E-02 -0.5198404993585E-02  0.0000000000000E+00 -0.4077100473026E-02
 0.5800077581479E-02 -0.5441922571714E-02  0.0000000000000E+00 -0.4753565074408E-02
 0.7689386772419E-02 -0.5820551772904E-02  0.0000000000000E+00 -0.4845957263953E-02
 0.9744402118077E-02 -0.6229635492787E-02  0.0000000000000E+00 -0.4097977695934E-02
 0.1174402491153E-01 -0.6506474566697E-02  0.0000000000000E+00 -0.2389933013550E-02
 0.1839777357536E-03 -0.1005130210684E-01  0.0000000000000E+00 -0.3977950992085E-02
 0.5768869883355E-03 -0.1027232005002E-01  0.0000000000000E+00 -0.4186639590552E-02
 0.9851121680161E-03 -0.1047453217799E-01  0.0000000000000E+00 -0.4194901923068E-02
 0.1357376933147E-02 -0.1062549217237E-01  0.0000000000000E+00 -0.4032071226497E-02
 0.1662865726230E-02 -0.1071055780764E-01  0.0000000000000E+00 -0.3760004641452E-02
 0.1893472874755E-02 -0.1073255384830E-01  0.0000000000000E+00 -0.3439904516622E-02
 0.2055754052658E-02 -0.1070384481707E-01  0.0000000000000E+00 -0.3114466598691E-02
 0.2161984872356E-02 -0.1063876668965E-01  0.0000000000000E+00 -0.2805988446281E-02
 0.2224559366200E-02 -0.1054954029212E-01  0.0000000000000E+00 -0.2521893133689E-02
 0.2253658240922E-02 -0.1044509203888E-01  0.0000000000000E+00 -0.2261011233503E-02
 0.2256794396921E-02 -0.1033130285865E-01  0.0000000000000E+00 -0.2018100759329E-02
 0.2239104897862E-02 -0.1021165308734E-01  0.0000000000000E+00 -0.1786516409994E-02
 0.2203810569228E-02 -0.1008780766013E-01  0.0000000000000E+00 -0.1559662209421E-02
 0.2152642444299E-02 -0.9960028946933E-02  0.0000000000000E+00 -0.1331830922257E-02
 0.2086228025633E-02 -0.9827458317337E-02  0.0000000000000E+00 -0.1098832411236E-02
 0.2004504778193E-02 -0.9688346337176E-02  0.0000000000000E+00 -0.8585657227920E-03
 0.1907258996580E-02 -0.9540358145292E-02  0.0000000000000E+00 -0.6115258918316E-03
 0.1794808956283E-02 -0.9381011435666E-02  0.0000000000000E+00 -0.3610010188666E-03
 0.1668675283736E-02 -0.9208155241280E-02  0.0000000000000E+00 -0.1126128096520E-03
 0.1532010029398E-02 -0.9020477818097E-02  0.0000000000000E+00  0.1269616719882E-03
 0.1389757642870E-02 -0.8818509397173E-02  0.0000000000000E+00  0.3521551376724E-03
 0.1247834219793E-02 -0.8604307268507E-02  0.0000000000000E+00  0.5595721246357E-03
 0.1111612560616E-02 -0.8379422895990E-02  0.0000000000000E+00  0.7465733781186E-03
 0.9852042791202E-03 -0.8143866016978E-02  0.0000000000000E+00  0.9092854312012E-03
 0.8717181769043E-03 -0.7896345037809E-02  0.0000000000000E+00  0.1041085729376E-02
 0.7740816793756E-03 -0.7635048676633E-02  0.0000000000000E+00  0.1131790344659E-02
 0.6960645645274E-03 -0.7358514653240E-02  0.0000000000000E+00  0.1167574226914E-02
 0.6432914880365E-03 -0.7066398644013E-02  0.0000000000000E+00  0.1131470342893E-02
 0.6242041488583E-03 -0.6760167304455E-02  0.0000000000000E+00  0.1004257956431E-02
 0.6510571132378E-03 -0.6443846357297E-02  0.0000000000000E+00  0.7657087462136E-03
 0.7411071989726E-03 -0.6124759741986E-02  0.0000000000000E+00  0.3960521029301E-03
 0.9182927494604E-03 -0.5814406200981E-02  0.0000000000000E+00 -0.1220950550358E-03
 0.1215091393237E-02 -0.5530252005495E-02  0.0000000000000E+00 -0.7986103891061E-03
 0.1673305393558E-02 -0.5297330837371E-02  0.0000000000000E+00 -0.1626116578265E-02
 0.2342237005992E-02 -0.5147607152936E-02  0.0000000000000E+00 -0.2566713101792E-02
 0.3271927639364E-02 -0.5115491441623E-02  0.0000000000000E+00 -0.3536160539663E-02
 0.4499076639981E-02 -0.5227417623745E-02  0.0000000000000E+00 -0.4391110379696E-02
 0.6025539158201E-02 -0.5485128678093E-02  0.0000000000000E+00 -0.4930568429350E-02
 0.7794868274744E-02 -0.5847130416656E-02  0.0000000000000E+00 -0.4925197310564E-02
 0.9680170611327E-02 -0.6219452101265E-02  0.0000000000000E+00 -0.4180358441192E-02
 0.1149893750469E-01 -0.6468956731047E-02  0.0000000000000E+00 -0.2617786862856E-02
 0.1705466111911E-03 -0.9824964120728E-02  0.0000000000000E+00 -0.3854738094193E-02
 0.5344906514317E-03 -0.1003119653826E-01  0.0000000000000E+00 -0.4072336416442E-02
 0.9147128555051E-03 -0.1022295240870E-01  0.0000000000000E+00 -0.4111821864070E-02
 0.1267150500500E-02 -0.1037183381525E-01  0.0000000000000E+00 -0.3993724205202E-02
 0.1563083059594E-02 -0.1046306596784E-01  0.0000000000000E+00 -0.3767508520305E-02
 0.1792371808449E-02 -0.1049646724463E-01  0.0000000000000E+00 -0.3485760239317E-02
 0.1958139691391E-02 -0.1048093351985E-01  0.0000000000000E+00 -0.3188152419859E-02
 0.2069710402627E-02 -0.1042828451415E-01  0.0000000000000E+00 -0.2897757010189E-02
 0.2137583689019E-02 -0.1034939873989E-01  0.0000000000000E+00 -0.2624276787003E-02
 0.2170954711060E-02 -0.1025269686681E-01  0.0000000000000E+00 -0.2368923626114E-02
 0.2176932909042E-02 -0.1014399966777E-01  0.0000000000000E+00 -0.2128416027495E-02
 0.2160573521642E-02 -0.1002691107114E-01  0.0000000000000E+00 -0.1897602896154E-02
 0.2125187545129E-02 -0.9903273746167E-02  0.0000000000000E+00 -0.1671036857043E-02
 0.2072704616064E-02 -0.9773542046490E-02  0.0000000000000E+00 -0.1443947424721E-02
 0.2004047241255E-02 -0.9637076251442E-02  0.0000000000000E+00 -0.1212952027313E-02
 0.1919548921355E-02 -0.9492407204025E-02  0.0000000000000E+00 -0.9766319674245E-03
 0.1819477079911E-02 -0.9337565568369E-02  0.0000000000000E+00 -0.7359673177680E-03
 0.1704649498036E-02 -0.9170502776362E-02  0.0000000000000E+00 -0.4944412215747E-03
 0.1576994470622E-02 -0.8989506963225E-02  0.0000000000000E+00 -0.2575736301465E-03
 0.1439886515125E-02 -0.8793633828417E-02  0.0000000000000E+00 -0.3180012400944E-04
 0.1298291458131E-02 -0.8583630630568E-02  0.0000000000000E+00  0.1774296795952E-03
 0.1158078320108E-02 -0.8361666943899E-02  0.0000000000000E+00  0.3665150855507E-03
 0.1024722729496E-02 -0.8129488971604E-02  0.0000000000000E+00  0.5323040902175E-03
 0.9027165692913E-03 -0.7887508156031E-02  0.0000000000000E+00  0.6703271213087E-03
 0.7958173668356E-03 -0.7635044835128E-02  0.0000000000000E+00  0.7735469275079E-03
 0.7077807395064E-03 -0.7371052928145E-02  0.0000000000000E+00  0.8317234352299E-03
 0.6432829324788E-03 -0.7094935338794E-02  0.0000000000000E+00  0.8314123943498E-03
 0.6088573343236E-03 -0.6807293585738E-02  0.0000000000000E+00  0.7565128582684E-03
 0.6137990519688E-03 -0.6510626251498E-02  0.0000000000000E+00  0.5892652285538E-03
 0.6710730496263E-03 -0.6210064061036E-02  0.0000000000000E+00  0.3117338113642E-03
 0.7983149053006E-03 -0.5914037958574E-02  0.0000000000000E+00 -0.9233406516418E-04
 0.1019115191821E-02 -0.5634953886384E-02  0.0000000000000E+00 -0.6350754200079E-03
 0.1364139737914E-02 -0.5390445783224E-02  0.0000000000000E+00 -0.1319171418014E-02
 0.1870868462328E-02 -0.5204093210629E-02  0.0000000000000E+00 -0.2128742078006E-02
 0.2580697223367E-02 -0.5103808681037E-02  0.0000000000000E+00 -0.3018216474198E-02
 0.3531742813924E-02 -0.5116770849225E-02  0.0000000000000E+00 -0.3900845106198E-02
 0.4746160035469E-02 -0.5259819045583E-02  0.0000000000000E+00 -0.4642173947439E-02
 0.6213088414058E-02 -0.5526041154417E-02  0.0000000000000E+00 -0.5067085934368E-02
 0.7872530705724E-02 -0.5871954639766E-02  0.0000000000000E+00 -0.4988620364018E-02
 0.9610329962864E-02 -0.6213726447463E-02  0.0000000000000E+00 -0.4258525074889E-02
 0.1127480995579E-01 -0.6441408871781E-02  0.0000000000000E+00 -0.2825384910824E-02
 0.1586859189964E-03 -0.9606665542925E-02  0.0000000000000E+00 -0.3739841452032E-02
 0.4969670052509E-03 -0.9799556430246E-02  0.0000000000000E+00 -0.3964483347890E-02
 0.8518193063196E-03 -0.9981233231139E-02  0.0000000000000E+00 -0.4030046450854E-02
 0.1185204477002E-02 -0.1012679702362E-01  0.0000000000000E+00 -0.3950632697696E-02
 0.1470634149805E-02 -0.1022181553455E-01  0.0000000000000E+00 -0.3765781789588E-02
 0.1696792744617E-02 -0.1026398738239E-01  0.0000000000000E+00 -0.3520410209793E-02
 0.1864160974196E-02 -0.1025939191589E-01  0.0000000000000E+00 -0.3250791600747E-02
 0.1979526330579E-02 -0.1021757256586E-01  0.0000000000000E+00 -0.2979931791721E-02
 0.2051598780358E-02 -0.1014802767829E-01  0.0000000000000E+00 -0.2719095550753E-02
 0.2088540476869E-02 -0.1005853344299E-01  0.0000000000000E+00 -0.2471446994842E-02
 0.2096971680305E-02 -0.9954715815054E-02  0.0000000000000E+00 -0.2235470259249E-02
 0.2081793130468E-02 -0.9840208986668E-02  0.0000000000000E+00 -0.2007447408679E-02
 0.2046359619753E-02 -0.9716984365523E-02  0.0000000000000E+00 -0.1783073572060E-02
 0.1992775273632E-02 -0.9585674222115E-02  0.0000000000000E+00 -0.1558513500901E-02
 0.1922243958144E-02 -0.9445864454885E-02  0.0000000000000E+00 -0.1331166589831E-02
 0.1835477089671E-02 -0.9296376724422E-02  0.0000000000000E+00 -0.1100238719435E-02
 0.1733189014856E-02 -0.9135605598914E-02  0.0000000000000E+00 -0.8671210525316E-03
 0.1616648332192E-02 -0.8961915655389E-02  0.0000000000000E+00 -0.6354359294877E-03
 0.1488147501686E-02 -0.8774003369647E-02  0.0000000000000E+00 -0.4105915317002E-03
 0.1351270867683E-02 -0.8571269130034E-02  0.0000000000000E+00 -0.1988082349763E-03
 0.1211032604516E-02 -0.8354674812931E-02  0.0000000000000E+00 -0.5439282122544E-05
 0.1073300993083E-02 -0.8126516302660E-02  0.0000000000000E+00  0.1657376018169E-03
 0.9436853391656E-03 -0.7888748385820E-02  0.0000000000000E+00  0.3111507151236E-03
 0.8270511551451E-03 -0.7642185287500E-02  0.0000000000000E+00  0.4258645530552E-03
 0.7277610370411E-03 -0.7386748430562E-02  0.0000000000000E+00  0.5025602477187E-03
 0.6503293254515E-03 -0.7122140382135E-02  0.0000000000000E+00  0.5310674960461E-03
 0.6002494449823E-03 -0.6848606569635E-02  0.0000000000000E+00  0.4984556018081E-03
 0.5848456561115E-03 -0.6567651740354E-02  0.0000000000000E+00  0.3896493164110E-03
 0.6140950535789E-03 -0.6282715382737E-02  0.0000000000000E+00  0.1885385493854E-03
 0.7014135675500E-03 -0.5999854850503E-02  0.0000000000000E+00 -0.1203451423580E-03
 0.8644387215826E-03 -0.5728300433482E-02  0.0000000000000E+00 -0.5496882685890E-03
 0.1125922865732E-02 -0.5480900541465E-02  0.0000000000000E+00 -0.1106665858056E-02
 0.1514210776096E-02 -0.5274873599989E-02  0.0000000000000E+00 -0.1787673182358E-02
 0.2062180364438E-02 -0.5131809195691E-02  0.0000000000000E+00 -0.2570157368479E-02
 0.2803707836283E-02 -0.5075415917466E-02  0.0000000000000E+00 -0.3403675347801E-02
 0.3766579744173E-02 -0.5126342329570E-02  0.0000000000000E+00 -0.4202123629679E-02
 0.4961509137986E-02 -0.5293707389316E-02  0.0000000000000E+00 -0.4841764834923E-02
 0.6368959378498E-02 -0.5564658894271E-02  0.0000000000000E+00 -0.5171378648840E-02
 0.7928423085117E-02 -0.5895766125239E-02  0.0000000000000E+00 -0.5038928772435E-02
 0.9537481353782E-02 -0.6212440726112E-02  0.0000000000000E+00 -0.4331583445544E-02
 0.1106862410903E-01 -0.6422520268272E-02  0.0000000000000E+00 -0.3014814188235E-02
 0.1481403588025E-03 -0.9395346336800E-02  0.0000000000000E+00 -0.3632400044945E-02
 0.4635496638948E-03 -0.9576158704868E-02  0.0000000000000E+00 -0.3862684498795E-02
 0.7953741604204E-03 -0.9748225577774E-02  0.0000000000000E+00 -0.3950237904222E-02
 0.1110613238894E-02 -0.9889653618899E-02  0.0000000000000E+00 -0.3904442941983E-02
 0.1384996357064E-02 -0.9986626190271E-02  0.0000000000000E+00 -0.3756885941305E-02
 0.1606636229610E-02 -0.1003538402541E-01  0.0000000000000E+00 -0.3545766361170E-02
 0.1774018143602E-02 -0.1003975091436E-01  0.0000000000000E+00 -0.3303853604709E-02
 0.1891791363816E-02 -0.1000726078034E-01  0.0000000000000E+00 -0.3053497594839E-02
 0.1967022613618E-02 -0.9946061458385E-02  0.0000000000000E+00 -0.2806931989398E-02
 0.2006840983623E-02 -0.9863203258763E-02  0.0000000000000E+00 -0.2568868524960E-02
 0.2017324008467E-02 -0.9764016475884E-02  0.0000000000000E+00 -0.2339340004108E-02
 0.2003161422157E-02 -0.9652086990135E-02  0.0000000000000E+00 -0.2115966793547E-02
 0.1967710218523E-02 -0.9529468583554E-02  0.0000000000000E+00 -0.1895549657954E-02
 0.1913222454528E-02 -0.9396952482048E-02  0.0000000000000E+00 -0.1675164569876E-02
 0.1841163437944E-02 -0.9254347399616E-02  0.0000000000000E+00 -0.1452955974832E-02
 0.1752598096350E-02 -0.9100765375343E-02  0.0000000000000E+00 -0.1228698372950E-02
 0.1648651412204E-02 -0.8934954971556E-02  0.0000000000000E+00 -0.1004132661605E-02
 0.1530998315942E-02 -0.8755671100674E-02  0.0000000000000E+00 -0.7829792846233E-03
 0.1402259285623E-02 -0.8561991211291E-02  0.0000000000000E+00 -0.5705304175896E-03
 0.1266219366660E-02 -0.8353642234506E-02  0.0000000000000E+00 -0.3728108390906E-03
 0.1127963541907E-02 -0.8131800143101E-02  0.0000000000000E+00 -0.1950871946004E-03
 0.9933959724298E-03 -0.7898899924518E-02  0.0000000000000E+00 -0.4128030142825E-04
 0.8682818678331E-03 -0.7657116257063E-02  0.0000000000000E+00  0.8470822783424E-04
 0.7578494383766E-03 -0.7407664066038E-02  0.0000000000000E+00  0.1776005055279E-03
 0.6670208850435E-03 -0.7151049241106E-02  0.0000000000000E+00  0.2299240696831E-03
 0.6009966582460E-03 -0.6887695397434E-02  0.0000000000000E+00  0.2316986577400E-03
 0.5659914225796E-03 -0.6618650454417E-02  0.0000000000000E+00  0.1706251480117E-03
 0.5699938175712E-03 -0.6346257695664E-02  0.0000000000000E+00  0.3277796937684E-04
 0.6234873878740E-03 -0.6074784867917E-02  0.0000000000000E+00 -0.1961838187985E-03
 0.7400925187484E-03 -0.5811026521634E-02  0.0000000000000E+00 -0.5291967633737E-03
 0.9371206753309E-03 -0.5564720766679E-02  0.0000000000000E+00 -0.9754805430870E-03
 0.1236103390800E-02 -0.5348760937411E-02  0.0000000000000E+00 -0.1537688406310E-02
 0.1662738232227E-02 -0.5179509557837E-02  0.0000000000000E+00 -0.2206928338650E-02
 0.2245263244519E-02 -0.5076252485638E-02  0.0000000000000E+00 -0.2955682498619E-02
 0.3010628376080E-02 -0.5058587704004E-02  0.0000000000000E+00 -0.3730932186751E-02
 0.3977862003575E-02 -0.5141447275251E-02  0.0000000000000E+00 -0.4449419363909E-02
 0.5148826292799E-02 -0.5327878259919E-02  0.0000000000000E+00 -0.4998863435946E-02
 0.6498308709235E-02 -0.5601089272524E-02  0.0000000000000E+00 -0.5249419798005E-02
 0.7967188772260E-02 -0.5919089145347E-02  0.0000000000000E+00 -0.5077750890716E-02
 0.9463644910270E-02 -0.6215379460721E-02  0.0000000000000E+00 -0.4398387599275E-02
 0.1087783719995E-01 -0.6411378644839E-02  0.0000000000000E+00 -0.3188334545479E-02
 0.1387098000060E-03 -0.9190135661900E-02  0.0000000000000E+00 -0.3531672168819E-02
 0.4336287790635E-03 -0.9359977788745E-02  0.0000000000000E+00 -0.3766539458594E-02
 0.7445075806930E-03 -0.9522948913156E-02  0.0000000000000E+00 -0.3872812924922E-02
 0.1042568518542E-02 -0.9659726448999E-02  0.0000000000000E+00 -0.3856395866006E-02
 0.1305658581886E-02 -0.9757252970727E-02  0.0000000000000E+00 -0.3742488202743E-02
 0.1521739549932E-02 -0.9810800738053E-02  0.0000000000000E+00 -0.3563468709567E-02
 0.1687821573471E-02 -0.9822408989244E-02  0.0000000000000E+00 -0.3348671375009E-02
 0.1806780274354E-02 -0.9797870287981E-02  0.0000000000000E+00 -0.3119397163587E-02
 0.1884207217331E-02 -0.9744055613232E-02  0.0000000000000E+00 -0.2888373600505E-02
 0.1926233180695E-02 -0.9667253357761E-02  0.0000000000000E+00 -0.2661494162575E-02
 0.1938366771984E-02 -0.9572427815341E-02  0.0000000000000E+00 -0.2440116970204E-02
 0.1925045694925E-02 -0.9463053207058E-02  0.0000000000000E+00 -0.2223083134016E-02
 0.1889593272551E-02 -0.9341223501944E-02  0.0000000000000E+00 -0.2008238510188E-02
 0.1834382152273E-02 -0.9207866919772E-02  0.0000000000000E+00 -0.1793528498757E-02
 0.1761115100207E-02 -0.9063005062860E-02  0.0000000000000E+00 -0.1577797203899E-02
 0.1671182270509E-02 -0.8906031819914E-02  0.0000000000000E+00 -0.1361333716590E-02
 0.1566082540593E-02 -0.8736034200437E-02  0.0000000000000E+00 -0.1146176868107E-02
 0.1447856695894E-02 -0.8552133649663E-02  0.0000000000000E+00 -0.9361139029332E-03
 0.1319422601059E-02 -0.8353763921689E-02  0.0000000000000E+00 -0.7363189141351E-03
 0.1184758605526E-02 -0.8140963169466E-02  0.0000000000000E+00 -0.5526339331748E-03
 0.1049038225538E-02 -0.7915121152750E-02  0.0000000000000E+00 -0.3902395101850E-03
 0.9182294356132E-03 -0.7678822395441E-02  0.0000000000000E+00 -0.2531618975080E-03
 0.7982678632699E-03 -0.7434469363567E-02  0.0000000000000E+00 -0.1455473059710E-03
 0.6947294204599E-03 -0.7183671901927E-02  0.0000000000000E+00 -0.7290095935508E-04
 0.6130489210281E-03 -0.6927498442162E-02  0.0000000000000E+00 -0.4272960670293E-04
 0.5590386411266E-03 -0.6667057175081E-02  0.0000000000000E+00 -0.6471374470235E-04
 0.5395354425109E-03 -0.6404145464698E-02  0.0000000000000E+00 -0.1504221362177E-03
 0.5630633194085E-03 -0.6141865308512E-02  0.0000000000000E+00 -0.3125440562590E-03
 0.6404411267892E-03 -0.5885188281174E-02  0.0000000000000E+00 -0.5635956395870E-03
 0.7852696081339E-03 -0.5641457990679E-02  0.0000000000000E+00 -0.9140100849164E-03
 0.1014261465843E-02 -0.5420657536182E-02  0.0000000000000E+00 -0.1369751601816E-02
 0.1347447838735E-02 -0.5235400923312E-02  0.0000000000000E+00 -0.1929488104809E-02
 0.1807706886762E-02 -0.5100884523875E-02  0.0000000000000E+00 -0.2580047121203E-02
 0.2418772793658E-02 -0.5033951026776E-02  0.0000000000000E+00 -0.3290466407505E-02
 0.3201370063225E-02 -0.5050337060788E-02  0.0000000000000E+00 -0.4006963081660E-02
 0.4167222193305E-02 -0.5160088384356E-02  0.0000000000000E+00 -0.4650578874947E-02
 0.5311477772239E-02 -0.5361563175004E-02  0.0000000000000E+00 -0.5120465544707E-02
 0.6605366614517E-02 -0.5635536873599E-02  0.0000000000000E+00 -0.5305702969252E-02
 0.7992407783637E-02 -0.5942029078911E-02  0.0000000000000E+00 -0.5105826173643E-02
 0.9390401579240E-02 -0.6222723190265E-02  0.0000000000000E+00 -0.4458061824539E-02
 0.1070085193706E-01 -0.6405987831413E-02  0.0000000000000E+00 -0.3347914643497E-02
 0.1302238380885E-03 -0.8990324812939E-02  0.0000000000000E+00 -0.3437054539448E-02
 0.4067095800298E-03 -0.9150231749059E-02  0.0000000000000E+00 -0.3675702707925E-02
 0.6985081484505E-03 -0.9304688413644E-02  0.0000000000000E+00 -0.3798084222988E-02
 0.9803956646199E-03 -0.9436574340079E-02  0.0000000000000E+00 -0.3807493381036E-02
 0.1232189464738E-02 -0.9533649064320E-02  0.0000000000000E+00 -0.3723987967062E-02
 0.1441982728731E-02 -0.9590572834319E-02  0.0000000000000E+00 -0.3574939182714E-02
 0.1605720895974E-02 -0.9607988091938E-02  0.0000000000000E+00 -0.3386423798667E-02
 0.1724828909449E-02 -0.9590200728644E-02  0.0000000000000E+00 -0.3178455504236E-02
 0.1803598360738E-02 -0.9542905810036E-02  0.0000000000000E+00 -0.2963889782901E-02
 0.1847221227042E-02 -0.9471629571640E-02  0.0000000000000E+00 -0.2749483559640E-02
 0.1860634134554E-02 -0.9380927670522E-02  0.0000000000000E+00 -0.2537702531968E-02
 0.1847996658584E-02 -0.9274115319696E-02  0.0000000000000E+00 -0.2328477215266E-02
 0.1812569295312E-02 -0.9153290684296E-02  0.0000000000000E+00 -0.2120619534609E-02
 0.1756818625926E-02 -0.9019496349236E-02  0.0000000000000E+00 -0.1912887123479E-02
 0.1682658292401E-02 -0.8872952161914E-02  0.0000000000000E+00 -0.1704769909433E-02
 0.1591772460084E-02 -0.8713319445614E-02  0.0000000000000E+00 -0.1497017112639E-02
 0.1485996385865E-02 -0.8540003803074E-02  0.0000000000000E+00 -0.1291918765745E-02
 0.1367698169877E-02 -0.8352468109555E-02  0.0000000000000E+00 -0.1093302555566E-02
 0.1240064704336E-02 -0.8150478453343E-02  0.0000000000000E+00 -0.9062218156249E-03
 0.1107259041377E-02 -0.7934368969777E-02  0.0000000000000E+00 -0.7363424924705E-03
 0.9745547987974E-03 -0.7705740659857E-02  0.0000000000000E+00 -0.5887525777067E-03
 0.8480027398491E-03 -0.7467333512630E-02  0.0000000000000E+00 -0.4675437343475E-03
 0.7337147954898E-03 -0.7221779782283E-02  0.0000000000000E+00 -0.3770257169102E-03
 0.6375931894209E-03 -0.6971071518664E-02  0.0000000000000E+00 -0.3228248708915E-03
 0.5655336055184E-03 -0.6716808877970E-02  0.0000000000000E+00 -0.3123744420402E-03
 0.5238812654564E-03 -0.6460736146052E-02  0.0000000000000E+00 -0.3549618168369E-03
 0.5199917037160E-03 -0.6205332192520E-02  0.0000000000000E+00 -0.4613540942260E-03
 0.5627939080390E-03 -0.5954362911175E-02  0.0000000000000E+00 -0.6429640509853E-03
 0.6632796065387E-03 -0.5713370265815E-02  0.0000000000000E+00 -0.9104986347964E-03
 0.8348350840687E-03 -0.5490065282162E-02  0.0000000000000E+00 -0.1272010901097E-02
 0.1093364154035E-02 -0.5294448024083E-02  0.0000000000000E+00 -0.1730523278219E-02
 0.1457224322316E-02 -0.5138605989677E-02  0.0000000000000E+00 -0.2281329698324E-02
 0.1946448212237E-02 -0.5036381816472E-02  0.0000000000000E+00 -0.2907966541911E-02
 0.2580554284935E-02 -0.5002184706037E-02  0.0000000000000E+00 -0.3577350419247E-02
 0.3374818728370E-02 -0.5048255706606E-02  0.0000000000000E+00 -0.4236314362261E-02
 0.4335014943118E-02 -0.5180572440279E-02  0.0000000000000E+00 -0.4811033528908E-02
 0.5451298163696E-02 -0.5393967233109E-02  0.0000000000000E+00 -0.5211575713637E-02
 0.6693011828293E-02 -0.5667864387733E-02  0.0000000000000E+00 -0.5343265267480E-02
 0.8006458693265E-02 -0.5964629666715E-02  0.0000000000000E+00 -0.5124574176368E-02
 0.9319565868598E-02 -0.6232780609473E-02  0.0000000000000E+00 -0.4506884545920E-02
 0.1054113150310E-01 -0.6411065793276E-02  0.0000000000000E+00 -0.3499672947160E-02
 0.1225744851069E-03 -0.8795302311819E-02  0.0000000000000E+00 -0.3347901886548E-02
 0.3824110373663E-03 -0.8946198716473E-02  0.0000000000000E+00 -0.3589750226132E-02
 0.6567982535512E-03 -0.9092718684022E-02  0.0000000000000E+00 -0.3726119331196E-02
 0.9235013119652E-03 -0.9219629024200E-02  0.0000000000000E+00 -0.3758371954120E-02
 0.1164147349018E-02 -0.9315513763623E-02  0.0000000000000E+00 -0.3702407320874E-02
 0.1367147711873E-02 -0.9374679911280E-02  0.0000000000000E+00 -0.3581306479820E-02
 0.1527706293744E-02 -0.9396689017250E-02  0.0000000000000E+00 -0.3418121674558E-02
 0.1646078438828E-02 -0.9384592849827E-02  0.0000000000000E+00 -0.3231449599313E-02
 0.1725427838989E-02 -0.9343024185800E-02  0.0000000000000E+00 -0.3033996743460E-02
 0.1770081822511E-02 -0.9276771165396E-02  0.0000000000000E+00 -0.2833111976193E-02
 0.1784418635519E-02 -0.9189959410180E-02  0.0000000000000E+00 -0.2632163864821E-02
 0.1772305423714E-02 -0.9085710958445E-02  0.0000000000000E+00 -0.2432036085457E-02
 0.1736916551645E-02 -0.8966097619587E-02  0.0000000000000E+00 -0.2232417114484E-02
 0.1680787226404E-02 -0.8832253512654E-02  0.0000000000000E+00 -0.2032810908171E-02
 0.1606014541216E-02 -0.8684578745981E-02  0.0000000000000E+00 -0.1833296098191E-02
 0.1514544913085E-02 -0.8522983758025E-02  0.0000000000000E+00 -0.1635030215578E-02
 0.1408514028598E-02 -0.8347170611111E-02  0.0000000000000E+00 -0.1440513763965E-02
 0.1290582370017E-02 -0.8156918682724E-02  0.0000000000000E+00 -0.1253593030707E-02
 0.1164180833588E-02 -0.7952303916484E-02  0.0000000000000E+00 -0.1079197264082E-02
 0.1033648793704E-02 -0.7733941826433E-02  0.0000000000000E+00 -0.9228177191931E-03
 0.9043674370904E-03 -0.7503640700501E-02  0.0000000000000E+00 -0.7894379900475E-03
 0.7824823871045E-03 -0.7264298743087E-02  0.0000000000000E+00 -0.6831752793664E-03
 0.6742819331082E-03 -0.7018776334167E-02  0.0000000000000E+00 -0.6084295415739E-03
 0.5859706272297E-03 -0.6769431736798E-02  0.0000000000000E+00 -0.5708547883941E-03
 0.5238538022752E-03 -0.6518362794250E-02  0.0000000000000E+00 -0.5777180882755E-03
 0.4947333827843E-03 -0.6267897540720E-02  0.0000000000000E+00 -0.6378382606665E-03
 0.5063847536570E-03 -0.6021124237535E-02  0.0000000000000E+00 -0.7611336189647E-03
 0.5680205555318E-03 -0.5782375807889E-02  0.0000000000000E+00 -0.9577350400896E-03
 0.6906612604938E-03 -0.5557636213641E-02  0.0000000000000E+00 -0.1236602745705E-02
 0.8873183786465E-03 -0.5354821616212E-02  0.0000000000000E+00 -0.1603586459996E-02
 0.1172933980254E-02 -0.5183762622023E-02  0.0000000000000E+00 -0.2059124126511E-02
 0.1564099750637E-02 -0.5055841945357E-02  0.0000000000000E+00 -0.2595743874665E-02
 0.2078068071257E-02 -0.4983452253952E-02  0.0000000000000E+00 -0.3194579600129E-02
 0.2730492741269E-02 -0.4978666571531E-02  0.0000000000000E+00 -0.3821506731020E-02
 0.3531952630954E-02 -0.5050628823659E-02  0.0000000000000E+00 -0.4424963085482E-02
 0.4483421836291E-02 -0.5201980205347E-02  0.0000000000000E+00 -0.4936660399411E-02
 0.5571450375893E-02 -0.5424958627791E-02  0.0000000000000E+00 -0.5276792538313E-02
 0.6764474390517E-02 -0.5698384685257E-02  0.0000000000000E+00 -0.5364643472247E-02
 0.8012376122982E-02 -0.5987164480275E-02  0.0000000000000E+00 -0.5133747221683E-02
 0.9249275682672E-02 -0.6245165153301E-02  0.0000000000000E+00 -0.4547813394797E-02
 0.1040697586015E-01 -0.6423575107732E-02  0.0000000000000E+00 -0.3620969744926E-02
 0.1156514846745E-03 -0.8604537257364E-02  0.0000000000000E+00 -0.3263741713074E-02
 0.3603990771752E-03 -0.8747197456667E-02  0.0000000000000E+00 -0.3508312974992E-02
 0.6188514229708E-03 -0.8886290302776E-02  0.0000000000000E+00 -0.3656937140241E-02
 0.8713075917757E-03 -0.9008197804883E-02  0.0000000000000E+00 -0.3709521460210E-02
 0.1101039814287E-02 -0.9102308620186E-02  0.0000000000000E+00 -0.3678597327448E-02
 0.1296899849416E-02 -0.9162765493312E-02  0.0000000000000E+00 -0.3583576995170E-02
 0.1453603158374E-02 -0.9188305377179E-02  0.0000000000000E+00 -0.3444742462660E-02
 0.1570476616025E-02 -0.9180932921032E-02  0.0000000000000E+00 -0.3279218818186E-02
 0.1649718386450E-02 -0.9144334798566E-02  0.0000000000000E+00 -0.3099357711493E-02
 0.1694872348093E-02 -0.9082599978229E-02  0.0000000000000E+00 -0.2912871744404E-02
 0.1709783313146E-02 -0.8999417739931E-02  0.0000000000000E+00 -0.2723844677258E-02
 0.1698020830904E-02 -0.8897692821049E-02  0.0000000000000E+00 -0.2533978408123E-02
 0.1662655013810E-02 -0.8779444433288E-02  0.0000000000000E+00 -0.2343743914497E-02
 0.1606266406632E-02 -0.8645875367099E-02  0.0000000000000E+00 -0.2153321657200E-02
 0.1531108802574E-02 -0.8497545731325E-02  0.0000000000000E+00 -0.1963321726754E-02
 0.1439360375317E-02 -0.8334594428080E-02  0.0000000000000E+00 -0.1775262021479E-02
 0.1333424341015E-02 -0.8156997137855E-02  0.0000000000000E+00 -0.1591818208117E-02
 0.1216223084983E-02 -0.7964826157712E-02  0.0000000000000E+00 -0.1416836562463E-02
 0.1091410296827E-02 -0.7758447093518E-02  0.0000000000000E+00 -0.1255117628855E-02
 0.9634940853258E-03 -0.7538743675717E-02  0.0000000000000E+00 -0.1111975173837E-02
 0.8379679728980E-03 -0.7307727114566E-02  0.0000000000000E+00 -0.9922735212193E-03
 0.7210803978376E-03 -0.7068454708882E-02  0.0000000000000E+00 -0.9001170690215E-03
 0.6192933328648E-03 -0.6824011623053E-02  0.0000000000000E+00 -0.8399303903310E-03
 0.5390904323949E-03 -0.6577106211905E-02  0.0000000000000E+00 -0.8173137297072E-03
 0.4871399711439E-03 -0.6330301487941E-02  0.0000000000000E+00 -0.8392888411701E-03
 0.4706318827403E-03 -0.6086459629137E-02  0.0000000000000E+00 -0.9141448603484E-03
 0.4976729671281E-03 -0.5849210417345E-02  0.0000000000000E+00 -0.1050920796174E-02
 0.5776527523815E-03 -0.5623364532191E-02  0.0000000000000E+00 -0.1258480810562E-02
 0.7214981242351E-03 -0.5415234076077E-02  0.0000000000000E+00 -0.1544124412343E-02
 0.9417181338645E-03 -0.5232804203097E-02  0.0000000000000E+00 -0.1911693605689E-02
 0.1252185215413E-02 -0.5085591238973E-02  0.0000000000000E+00 -0.2359395755224E-02
 0.1667686050410E-02 -0.4984151687256E-02  0.0000000000000E+00 -0.2877550423088E-02
 0.2202801638773E-02 -0.4939394005521E-02  0.0000000000000E+00 -0.3445647571482E-02
 0.2869672336754E-02 -0.4961192143658E-02  0.0000000000000E+00 -0.4029373416752E-02
 0.3674835999217E-02 -0.5055968414827E-02  0.0000000000000E+00 -0.4579463261881E-02
 0.4615408143218E-02 -0.5223638097271E-02  0.0000000000000E+00 -0.5033309932993E-02
 0.5675330146693E-02 -0.5454548393836E-02  0.0000000000000E+00 -0.5320418096184E-02
 0.6822985384256E-02 -0.5727455233318E-02  0.0000000000000E+00 -0.5372099399787E-02
 0.8011372262175E-02 -0.6009702047078E-02  0.0000000000000E+00 -0.5134073932631E-02
 0.9182436329418E-02 -0.6260397747948E-02  0.0000000000000E+00 -0.4580318949158E-02
 0.1027680909270E-01 -0.6438735136179E-02  0.0000000000000E+00 -0.3721368429953E-02
 0.1093702926700E-03 -0.8417586118217E-02  0.0000000000000E+00 -0.3184126154114E-02
 0.3404078373451E-03 -0.8552710041023E-02  0.0000000000000E+00 -0.3431055465726E-02
 0.5842526728678E-03 -0.8684866759912E-02  0.0000000000000E+00 -0.3590514758627E-02
 0.8233611491817E-03 -0.8801827913684E-02  0.0000000000000E+00 -0.3661310293412E-02
 0.1042492179096E-02 -0.8893747555381E-02  0.0000000000000E+00 -0.3653231900893E-02
 0.1231010589237E-02 -0.8954739260231E-02  0.0000000000000E+00 -0.3582559504077E-02
 0.1383339196058E-02 -0.8982921339512E-02  0.0000000000000E+00 -0.3467065076577E-02
 0.1498080509550E-02 -0.8979433012690E-02  0.0000000000000E+00 -0.3322403973597E-02
 0.1576617140935E-02 -0.8947129385600E-02  0.0000000000000E+00 -0.3160427706450E-02
 0.1621793905420E-02 -0.8889449934329E-02  0.0000000000000E+00 -0.2989025821279E-02
 0.1636955882381E-02 -0.8809654298953E-02  0.0000000000000E+00 -0.2812829279699E-02
 0.1625378016142E-02 -0.8710415685624E-02  0.0000000000000E+00 -0.2634228032565E-02
 0.1590013347432E-02 -0.8593679840266E-02  0.0000000000000E+00 -0.2454379340939E-02
 0.1533467052339E-02 -0.8460696927395E-02  0.0000000000000E+00 -0.2274067076627E-02
 0.1458123972489E-02 -0.8312166118315E-02  0.0000000000000E+00 -0.2094374260738E-02
 0.1366364590321E-02 -0.8148432904671E-02  0.0000000000000E+00 -0.1917132447276E-02
 0.1260828603490E-02 -0.7969723220574E-02  0.0000000000000E+00 -0.1745159324227E-02
 0.1144672169673E-02 -0.7776379135018E-02  0.0000000000000E+00 -0.1582283182659E-02
 0.1021752002616E-02 -0.7569036309484E-02  0.0000000000000E+00 -0.1433169050902E-02
 0.8967364496008E-03 -0.7348833138944E-02  0.0000000000000E+00 -0.1302946639331E-02
 0.7752326912326E-03 -0.7117977504204E-02  0.0000000000000E+00 -0.1196343528499E-02
 0.6635953406375E-03 -0.6879683762633E-02  0.0000000000000E+00 -0.1117414188756E-02
 0.5684536625425E-03 -0.6637255403370E-02  0.0000000000000E+00 -0.1070548467598E-02
 0.4965457505319E-03 -0.6393732156535E-02  0.0000000000000E+00 -0.1061221652582E-02
 0.4548572652829E-03 -0.6152107764662E-02  0.0000000000000E+00 -0.1096143888617E-02
 0.4509010579506E-03 -0.5915727696596E-02  0.0000000000000E+00 -0.1183028991491E-02
 0.4930334334946E-03 -0.5688695523169E-02  0.0000000000000E+00 -0.1330025691759E-02
 0.5907252769721E-03 -0.5476213968825E-02  0.0000000000000E+00 -0.1544771393121E-02
 0.7547065428082E-03 -0.5284819803895E-02  0.0000000000000E+00 -0.1833019200811E-02
 0.9968860448906E-03 -0.5122452165457E-02  0.0000000000000E+00 -0.2196823540959E-02
 0.1330000865549E-02 -0.4998203138887E-02  0.0000000000000E+00 -0.2632521253282E-02
 0.1767043867308E-02 -0.4921729694654E-02  0.0000000000000E+00 -0.3128745681536E-02
 0.2320077834982E-02 -0.4902473457204E-02  0.0000000000000E+00 -0.3664000995470E-02
 0.2998091313579E-02 -0.4948280587048E-02  0.0000000000000E+00 -0.4204458795006E-02
 0.3804183396468E-02 -0.5063214835627E-02  0.0000000000000E+00 -0.4703615888385E-02
 0.4732393006180E-02 -0.5244990861305E-02  0.0000000000000E+00 -0.5104488013222E-02
 0.5764863051493E-02 -0.5482623658206E-02  0.0000000000000E+00 -0.5345046304122E-02
 0.6870361083014E-02 -0.5755156508402E-02  0.0000000000000E+00 -0.5366859989386E-02
 0.8005193456659E-02 -0.6032317429341E-02  0.0000000000000E+00 -0.5125833105459E-02
 0.9117449361740E-02 -0.6277918557095E-02  0.0000000000000E+00 -0.4602469193733E-02
 0.1015451851488E-01 -0.6455988522865E-02  0.0000000000000E+00 -0.3806968027933E-02
 0.1036613531837E-03 -0.8234066196375E-02  0.0000000000000E+00 -0.3108651188617E-02
 0.3222168591142E-03 -0.8362289189699E-02  0.0000000000000E+00 -0.3357660972029E-02
 0.5526524217862E-03 -0.8487980759096E-02  0.0000000000000E+00 -0.3526786765645E-02
 0.7792692574633E-03 -0.8600112281829E-02  0.0000000000000E+00 -0.3613997039184E-02
 0.9881651980379E-03 -0.8689555373687E-02  0.0000000000000E+00 -0.3626839227692E-02
 0.1169256557239E-02 -0.8750489475451E-02  0.0000000000000E+00 -0.3578919429268E-02
 0.1316823591551E-02 -0.8780578940523E-02  0.0000000000000E+00 -0.3485753326155E-02
 0.1428915576423E-02 -0.8780254925947E-02  0.0000000000000E+00 -0.3361566679689E-02
 0.1506235340414E-02 -0.8751649987383E-02  0.0000000000000E+00 -0.3217613741220E-02
 0.1551012475431E-02 -0.8697609778941E-02  0.0000000000000E+00 -0.3061811145265E-02
 0.1566131579913E-02 -0.8620980522213E-02  0.0000000000000E+00 -0.2899189594915E-02
 0.1554582281946E-02 -0.8524197781075E-02  0.0000000000000E+00 -0.2732704718412E-02
 0.1519192382611E-02 -0.8409117907443E-02  0.0000000000000E+00 -0.2564104832836E-02
 0.1462573708459E-02 -0.8277019108854E-02  0.0000000000000E+00 -0.2394703171098E-02
 0.1387218089445E-02 -0.8128718798559E-02  0.0000000000000E+00 -0.2225997000993E-02
 0.1295680345305E-02 -0.7964746761194E-02  0.0000000000000E+00 -0.2060086032454E-02
 0.1190807526706E-02 -0.7785555781097E-02  0.0000000000000E+00 -0.1899898282558E-02
 0.1075963453521E-02 -0.7591735022925E-02  0.0000000000000E+00 -0.1749226076204E-02
 0.9551891122696E-03 -0.7384170925586E-02  0.0000000000000E+00 -0.1612589980847E-02
 0.8333036074455E-03 -0.7164242365108E-02  0.0000000000000E+00 -0.1494926137985E-02
 0.7160261233791E-03 -0.6934345794560E-02  0.0000000000000E+00 -0.1400806308556E-02
 0.6098170141054E-03 -0.6697847927568E-02  0.0000000000000E+00 -0.1334199676335E-02
 0.5214635282260E-03 -0.6458261391618E-02  0.0000000000000E+00 -0.1299408246501E-02
 0.4579327576077E-03 -0.6218936511750E-02  0.0000000000000E+00 -0.1301721102774E-02
 0.4264839956277E-03 -0.5983262233422E-02  0.0000000000000E+00 -0.1347482931643E-02
 0.4348924069257E-03 -0.5755016572062E-02  0.0000000000000E+00 -0.1443801259265E-02
 0.4916896118156E-03 -0.5538711244986E-02  0.0000000000000E+00 -0.1597941002302E-02
 0.6063447389215E-03 -0.5339861156518E-02  0.0000000000000E+00 -0.1816372945659E-02
 0.7893067425201E-03 -0.5165136526182E-02  0.0000000000000E+00 -0.2103438311686E-02
 0.1051814327965E-02 -0.5022336776290E-02  0.0000000000000E+00 -0.2459636953780E-02
 0.1405439552201E-02 -0.4920051391554E-02  0.0000000000000E+00 -0.2879787745895E-02
 0.1861431427196E-02 -0.4867003894095E-02  0.0000000000000E+00 -0.3351314840001E-02
 0.2429515238462E-02 -0.4871223784580E-02  0.0000000000000E+00 -0.3852295645729E-02
 0.3115884095219E-02 -0.4938717894223E-02  0.0000000000000E+00 -0.4349908156579E-02
 0.3920735545606E-02 -0.5071529630434E-02  0.0000000000000E+00 -0.4800695309548E-02
 0.4835687323857E-02 -0.5265618755297E-02  0.0000000000000E+00 -0.5153109039618E-02
 0.5841683520637E-02 -0.5509101022750E-02  0.0000000000000E+00 -0.5352730304514E-02
 0.6908233075236E-02 -0.5781541537996E-02  0.0000000000000E+00 -0.5349929385756E-02
 0.7994736122583E-02 -0.6054967087855E-02  0.0000000000000E+00 -0.5108753397941E-02
 0.9054398518255E-02 -0.6297009647436E-02  0.0000000000000E+00 -0.4614705567537E-02
 0.1004011258771E-01 -0.6475698114461E-02  0.0000000000000E+00 -0.3878178628588E-02
 0.9846698740029E-04 -0.8053643931916E-02  0.0000000000000E+00 -0.3036950196476E-02
 0.3056421264687E-03 -0.8175545995385E-02  0.0000000000000E+00 -0.3287830894152E-02
 0.5237546149791E-03 -0.8295222494895E-02  0.0000000000000E+00 -0.3465657216595E-02
 0.7386908994076E-03 -0.8402684457905E-02  0.0000000000000E+00 -0.3567754861807E-02
 0.9377526909387E-03 -0.8489470031069E-02  0.0000000000000E+00 -0.3599828069715E-02
 0.1111422814333E-02 -0.8549890376545E-02  0.0000000000000E+00 -0.3573199057257E-02
 0.1253953065880E-02 -0.8581286975786E-02  0.0000000000000E+00 -0.3501366790665E-02
 0.1362981823520E-02 -0.8583517890549E-02  0.0000000000000E+00 -0.3397192399948E-02
 0.1438653177817E-02 -0.8558094357149E-02  0.0000000000000E+00 -0.3271273363976E-02
 0.1482662204588E-02 -0.8507326318854E-02  0.0000000000000E+00 -0.3131435685509E-02
 0.1497475258227E-02 -0.8433669395174E-02  0.0000000000000E+00 -0.2982982589486E-02
 0.1485810566873E-02 -0.8339321839085E-02  0.0000000000000E+00 -0.2829322728014E-02
 0.1450366465701E-02 -0.8226039061359E-02  0.0000000000000E+00 -0.2672703617305E-02
 0.1393746144564E-02 -0.8095110137292E-02  0.0000000000000E+00 -0.2514894705758E-02
 0.1318526233376E-02 -0.7947450572895E-02  0.0000000000000E+00 -0.2357749617044E-02
 0.1227409642022E-02 -0.7783752299979E-02  0.0000000000000E+00 -0.2203591993304E-02
 0.1123423551654E-02 -0.7604671843724E-02  0.0000000000000E+00 -0.2055429506567E-02
 0.1010115077610E-02 -0.7411023269312E-02  0.0000000000000E+00 -0.1917000196817E-02
 0.8916914569259E-03 -0.7203924668220E-02  0.0000000000000E+00 -0.1792669320564E-02
 0.7731121112307E-03 -0.6984980477141E-02  0.0000000000000E+00 -0.1687167731168E-02
 0.6602040585416E-03 -0.6756765894140E-02  0.0000000000000E+00 -0.1604891480203E-02
 0.5595298929557E-03 -0.6522792931733E-02  0.0000000000000E+00 -0.1549691246701E-02
 0.4780233522805E-03 -0.6286771873817E-02  0.0000000000000E+00 -0.1525734146251E-02
 0.4228549207713E-03 -0.6052341342175E-02  0.0000000000000E+00 -0.1538071243936E-02
 0.4015161491688E-03 -0.5823249642802E-02  0.0000000000000E+00 -0.1592639607324E-02
 0.4219890806625E-03 -0.5603657840465E-02  0.0000000000000E+00 -0.1695922884966E-02
 0.4929149602295E-03 -0.5398423745797E-02  0.0000000000000E+00 -0.1854323574731E-02
 0.6236909891731E-03 -0.5213301983347E-02  0.0000000000000E+00 -0.2073221572568E-02
 0.8244198233771E-03 -0.5055018169258E-02  0.0000000000000E+00 -0.2355693716290E-02
 0.1105625398329E-02 -0.4931158795745E-02  0.0000000000000E+00 -0.2700921646897E-02
 0.1477715000197E-02 -0.4849760060910E-02  0.0000000000000E+00 -0.3102541671249E-02
 0.1950272329557E-02 -0.4818609448621E-02  0.0000000000000E+00 -0.3547195177897E-02
 0.2530880734549E-02 -0.4844404601055E-02  0.0000000000000E+00 -0.4012998879433E-02
 0.3223277296751E-02 -0.4931506329416E-02  0.0000000000000E+00 -0.4468528188211E-02
 0.4025231543795E-02 -0.5080244823155E-02  0.0000000000000E+00 -0.4873522152165E-02
 0.4926475587666E-02 -0.5285197716378E-02  0.0000000000000E+00 -0.5181595520331E-02
 0.5907216699045E-02 -0.5533911997183E-02  0.0000000000000E+00 -0.5345136624446E-02
 0.6937906991557E-02 -0.5806629051494E-02  0.0000000000000E+00 -0.5322007118222E-02
 0.7980782801289E-02 -0.6077479963066E-02  0.0000000000000E+00 -0.5082855950991E-02
 0.8993379586320E-02 -0.6317309388636E-02  0.0000000000000E+00 -0.4617100503990E-02
 0.9933301133609E-02 -0.6497549554341E-02  0.0000000000000E+00 -0.3935463809070E-02
 0.9373897416086E-04 -0.7876025851897E-02  0.0000000000000E+00 -0.2968688238347E-02
 0.2905289587245E-03 -0.7992139530082E-02  0.0000000000000E+00 -0.3221283662893E-02
 0.4973071346737E-03 -0.8106230167834E-02  0.0000000000000E+00 -0.3407008558405E-02
 0.7013290360994E-03 -0.8209213533049E-02  0.0000000000000E+00 -0.3522690042723E-02
 0.8909786383838E-03 -0.8293243404782E-02  0.0000000000000E+00 -0.3572509267232E-02
 0.1057304631823E-02 -0.8352807328852E-02  0.0000000000000E+00 -0.3565835227090E-02
 0.1194616333069E-02 -0.8385027918852E-02  0.0000000000000E+00 -0.3514371581857E-02
 0.1300258827821E-02 -0.8389305016765E-02  0.0000000000000E+00 -0.3429694752055E-02
 0.1373924082880E-02 -0.8366620845068E-02  0.0000000000000E+00 -0.3321714796812E-02
 0.1416848552304E-02 -0.8318807628117E-02  0.0000000000000E+00 -0.3198076794384E-02
 0.1431123576858E-02 -0.8247957416086E-02  0.0000000000000E+00 -0.3064248484714E-02
 0.1419213083192E-02 -0.8156036409753E-02  0.0000000000000E+00 -0.2923989678926E-02
 0.1383684937963E-02 -0.8044691293523E-02  0.0000000000000E+00 -0.2779960315976E-02
 0.1327120942919E-02 -0.7915207017980E-02  0.0000000000000E+00 -0.2634315266439E-02
 0.1252162327090E-02 -0.7768578060864E-02  0.0000000000000E+00 -0.2489208199801E-02
 0.1161635678704E-02 -0.7605636898982E-02  0.0000000000000E+00 -0.2347143871412E-02
 0.1058722925635E-02 -0.7427221204296E-02  0.0000000000000E+00 -0.2211179735901E-02
 0.9471316257927E-03 -0.7234348226092E-02  0.0000000000000E+00 -0.2084980788888E-02
 0.8312177851595E-03 -0.7028348631552E-02  0.0000000000000E+00 -0.1972744536187E-02
 0.7160698359739E-03 -0.6811036745245E-02  0.0000000000000E+00 -0.1878983263009E-02
 0.6076163862544E-03 -0.6585155127466E-02  0.0000000000000E+00 -0.1807897219990E-02
 0.5125163530349E-03 -0.6354352014838E-02  0.0000000000000E+00 -0.1763187730981E-02
 0.4378369346750E-03 -0.6122522011008E-02  0.0000000000000E+00 -0.1748845765742E-02
 0.3909267838814E-03 -0.5893568747787E-02  0.0000000000000E+00 -0.1769641312683E-02
 0.3794711885519E-03 -0.5671564419904E-02  0.0000000000000E+00 -0.1831072331029E-02
 0.4116092822954E-03 -0.5461005807908E-02  0.0000000000000E+00 -0.1938992789239E-02
 0.4960351540915E-03 -0.5267039440329E-02  0.0000000000000E+00 -0.2098976393586E-02
 0.6420168501779E-03 -0.5095595551815E-02  0.0000000000000E+00 -0.2315399098321E-02
 0.8592631223877E-03 -0.4953390437356E-02  0.0000000000000E+00 -0.2590227580762E-02
 0.1157560646367E-02 -0.4847743423441E-02  0.0000000000000E+00 -0.2921557569368E-02
 0.1546176332531E-02 -0.4786110297272E-02  0.0000000000000E+00 -0.3302154645451E-02
 0.2033127138826E-02 -0.4775364042170E-02  0.0000000000000E+00 -0.3718251871654E-02
 0.2624055084172E-02 -0.4820966885767E-02  0.0000000000000E+00 -0.4148386997277E-02
 0.3320557308537E-02 -0.4925823288680E-02  0.0000000000000E+00 -0.4562817084907E-02
 0.4118386103370E-02 -0.5088823796263E-02  0.0000000000000E+00 -0.4924526448216E-02
 0.5005824174066E-02 -0.5303471335301E-02  0.0000000000000E+00 -0.5191974886413E-02
 0.5962685368676E-02 -0.5556995049386E-02  0.0000000000000E+00 -0.5323607771165E-02
 0.6960467794435E-02 -0.5830390558977E-02  0.0000000000000E+00 -0.5283662531364E-02
 0.7963980725254E-02 -0.6099692658117E-02  0.0000000000000E+00 -0.5048182032844E-02
 0.8934480967569E-02 -0.6338490781464E-02  0.0000000000000E+00 -0.4609687107946E-02
 0.9833649393902E-02 -0.6521160015211E-02  0.0000000000000E+00 -0.3979130893285E-02
 0.8943666453155E-04 -0.7700951340602E-02  0.0000000000000E+00 -0.2903557332755E-02
 0.2767463753660E-03 -0.7811768319344E-02  0.0000000000000E+00 -0.3157753447821E-02
 0.4730939925984E-03 -0.7920682043156E-02  0.0000000000000E+00 -0.3350708179278E-02
 0.6669239279696E-03 -0.8019399393867E-02  0.0000000000000E+00 -0.3478856314769E-02
 0.8475940844276E-03 -0.8100641061428E-02  0.0000000000000E+00 -0.3545113260955E-02
 0.1006708217556E-02 -0.8159100328785E-02  0.0000000000000E+00 -0.3557174706168E-02
 0.1138697308061E-02 -0.8191763249476E-02  0.0000000000000E+00 -0.3525150628088E-02
 0.1240709775159E-02 -0.8197668648782E-02  0.0000000000000E+00 -0.3459420552491E-02
 0.1312078445305E-02 -0.8177352741017E-02  0.0000000000000E+00 -0.3369198239239E-02
 0.1353651237415E-02 -0.8132226130774E-02  0.0000000000000E+00 -0.3261880602223E-02
 0.1367187208074E-02 -0.8064046664917E-02  0.0000000000000E+00 -0.3143009638350E-02
 0.1354915048706E-02 -0.7974557354670E-02  0.0000000000000E+00 -0.3016605657991E-02
 0.1319273689990E-02 -0.7865291503612E-02  0.0000000000000E+00 -0.2885660477589E-02
 0.1262813088354E-02 -0.7737517037272E-02  0.0000000000000E+00 -0.2752647036272E-02
 0.1188220851830E-02 -0.7592289513838E-02  0.0000000000000E+00 -0.2619964961359E-02
 0.1098424680879E-02 -0.7430561149136E-02  0.0000000000000E+00 -0.2490258877739E-02
 0.9967376039160E-03 -0.7253328822508E-02  0.0000000000000E+00 -0.2366606892248E-02
 0.8870060933716E-03 -0.7061791723217E-02  0.0000000000000E+00 -0.2252581804387E-02
 0.7737178674608E-03 -0.6857474012992E-02  0.0000000000000E+00 -0.2152199693727E-02
 0.6620783264225E-03 -0.6642383524120E-02  0.0000000000000E+00 -0.2069739988192E-02
 0.5581097627231E-03 -0.6419417446575E-02  0.0000000000000E+00 -0.2009187303127E-02
 0.4685596573051E-03 -0.6192349490653E-02  0.0000000000000E+00 -0.1974065223908E-02
 0.4006146769580E-03 -0.5965243815415E-02  0.0000000000000E+00 -0.1968152733535E-02
 0.3617772692627E-03 -0.5742245276604E-02  0.0000000000000E+00 -0.1995903646773E-02
 0.3598911620684E-03 -0.5527715439368E-02  0.0000000000000E+00 -0.2062354802831E-02
 0.4032087220287E-03 -0.5326442330926E-02  0.0000000000000E+00 -0.2172734698036E-02
 0.5004291110420E-03 -0.5143809224126E-02  0.0000000000000E+00 -0.2331831381657E-02
 0.6606465330541E-03 -0.4985866645134E-02  0.0000000000000E+00 -0.2543111023670E-02
 0.8931444740005E-03 -0.4859269803091E-02  0.0000000000000E+00 -0.2807585867901E-02
 0.1206968899268E-02 -0.4771033708536E-02  0.0000000000000E+00 -0.3122488433884E-02
 0.1610289659517E-02 -0.4728026173068E-02  0.0000000000000E+00 -0.3479998102042E-02
 0.2109668557039E-02 -0.4736245165519E-02  0.0000000000000E+00 -0.3866263307563E-02
 0.2709004961773E-02 -0.4800022888138E-02  0.0000000000000E+00 -0.4260550298551E-02
 0.3408045133594E-02 -0.4920987981004E-02  0.0000000000000E+00 -0.4634995684838E-02
 0.4200876867486E-02 -0.5096831186429E-02  0.0000000000000E+00 -0.4955806535498E-02
 0.5074684845929E-02 -0.5320231946564E-02  0.0000000000000E+00 -0.5185949708368E-02
 0.6009139636154E-02 -0.5578286523118E-02  0.0000000000000E+00 -0.5289244087840E-02
 0.6976822169078E-02 -0.5852773229756E-02  0.0000000000000E+00 -0.5235361412815E-02
 0.7944864402760E-02 -0.6121439994312E-02  0.0000000000000E+00 -0.5004778111374E-02
 0.8877750380369E-02 -0.6360247467263E-02  0.0000000000000E+00 -0.4592471682744E-02
 0.9740698097912E-02 -0.6546121861220E-02  0.0000000000000E+00 -0.4009451375373E-02
 0.8552550143659E-04 -0.7528186778461E-02  0.0000000000000E+00 -0.2841272579034E-02
 0.2641826067891E-03 -0.7634163362559E-02  0.0000000000000E+00 -0.3096988838986E-02
 0.4509289525807E-03 -0.7738289783910E-02  0.0000000000000E+00 -0.3296613210816E-02
 0.6352473931805E-03 -0.7832968401111E-02  0.0000000000000E+00 -0.3436266026212E-02
 0.8073740614900E-03 -0.7911441449587E-02  0.0000000000000E+00 -0.3517804379965E-02
 0.9594507439551E-03 -0.7968626343662E-02  0.0000000000000E+00 -0.3547487446370E-02
 0.1086077372268E-02 -0.8001437579305E-02  0.0000000000000E+00 -0.3534013245092E-02
 0.1184284698336E-02 -0.8008634841870E-02  0.0000000000000E+00 -0.3486655178832E-02
 0.1253126843017E-02 -0.7990382171811E-02  0.0000000000000E+00 -0.3413937937072E-02
 0.1293126979529E-02 -0.7947721593539E-02  0.0000000000000E+00 -0.3322962162303E-02
 0.1305753029026E-02 -0.7882106998866E-02  0.0000000000000E+00 -0.3219269917865E-02
 0.1293018489148E-02 -0.7795069552314E-02  0.0000000000000E+00 -0.3107062502786E-02
 0.1257236787769E-02 -0.7688027044212E-02  0.0000000000000E+00 -0.2989589996147E-02
 0.1200917582692E-02 -0.7562219397105E-02  0.0000000000000E+00 -0.2869580271519E-02
 0.1126778527610E-02 -0.7418746671864E-02  0.0000000000000E+00 -0.2749627556941E-02
 0.1037827653476E-02 -0.7258660959048E-02  0.0000000000000E+00 -0.2632476869947E-02
 0.9374870588506E-03 -0.7083097139990E-02  0.0000000000000E+00 -0.2521198628553E-02
 0.8297217714664E-03 -0.6893415565019E-02  0.0000000000000E+00 -0.2419254036801E-02
 0.7191345244058E-03 -0.6691314790920E-02  0.0000000000000E+00 -0.2330463196663E-02
 0.6110350552158E-03 -0.6478979153389E-02  0.0000000000000E+00 -0.2258857841438E-02
 0.5115301474815E-03 -0.6259446608715E-02  0.0000000000000E+00 -0.2208187704328E-02
 0.4274467441274E-03 -0.6036604244577E-02  0.0000000000000E+00 -0.2181772710603E-02
 0.3660765115946E-03 -0.5814669980093E-02  0.0000000000000E+00 -0.2183148980809E-02
 0.3350525518316E-03 -0.5598006042025E-02  0.0000000000000E+00 -0.2216426144655E-02
 0.3423452134456E-03 -0.5391230272443E-02  0.0000000000000E+00 -0.2286166092808E-02
 0.3962822770387E-03 -0.5199380838404E-02  0.0000000000000E+00 -0.2396984223208E-02
 0.5055290607883E-03 -0.5028031596394E-02  0.0000000000000E+00 -0.2552932941929E-02
 0.6789730845994E-03 -0.4883306882282E-02  0.0000000000000E+00 -0.2756666449441E-02
 0.9254557933669E-03 -0.4771761243755E-02  0.0000000000000E+00 -0.3008395564299E-02
 0.1253294993419E-02 -0.4700083238987E-02  0.0000000000000E+00 -0.3304698792271E-02
 0.1669621152737E-02 -0.4674560995539E-02  0.0000000000000E+00 -0.3637424782108E-02
 0.2179659987355E-02 -0.4700369758716E-02  0.0000000000000E+00 -0.3992913335652E-02
 0.2785760116025E-02 -0.4780820657097E-02  0.0000000000000E+00 -0.4351402647756E-02
 0.3486077687958E-02 -0.4916434561945E-02  0.0000000000000E+00 -0.4687038642948E-02
 0.4273336090791E-02 -0.5103910170958E-02  0.0000000000000E+00 -0.4969179296515E-02
 0.5133902183338E-02 -0.5335306362628E-02  0.0000000000000E+00 -0.5164958983273E-02
 0.6047481218572E-02 -0.5597719677241E-02  0.0000000000000E+00 -0.5242957964825E-02
 0.6987730140650E-02 -0.5873707292562E-02  0.0000000000000E+00 -0.5177490089176E-02
 0.7923869968511E-02 -0.6142554347401E-02  0.0000000000000E+00 -0.4952689286889E-02
 0.8823196408548E-02 -0.6382282452781E-02  0.0000000000000E+00 -0.4565461126038E-02
 0.9653993848138E-02 -0.6572029106948E-02  0.0000000000000E+00 -0.4026686425702E-02
 0.8197584276412E-04 -0.7357520737919E-02  0.0000000000000E+00 -0.2781568991594E-02
 0.2527414902228E-03 -0.7459082379176E-02  0.0000000000000E+00 -0.3038751599960E-02
 0.4306502941384E-03 -0.7558792821411E-02  0.0000000000000E+00 -0.3244574069234E-02
 0.6060978752486E-03 -0.7649669478605E-02  0.0000000000000E+00 -0.3394898893797E-02
 0.7701146391534E-03 -0.7725434728411E-02  0.0000000000000E+00 -0.3490692524317E-02
 0.9153599017255E-03 -0.7781240765716E-02  0.0000000000000E+00 -0.3536977967212E-02
 0.1036636902674E-02 -0.7813981778300E-02  0.0000000000000E+00 -0.3541203903683E-02
 0.1130923028785E-02 -0.7822207034449E-02  0.0000000000000E+00 -0.3511627997196E-02
 0.1197062792655E-02 -0.7805773505876E-02  0.0000000000000E+00 -0.3456104763717E-02
 0.1235311986219E-02 -0.7765403907869E-02  0.0000000000000E+00 -0.3381406178771E-02
 0.1246886219939E-02 -0.7702278220852E-02  0.0000000000000E+00 -0.3293014502821E-02
 0.1233604024199E-02 -0.7617728654975E-02  0.0000000000000E+00 -0.3195243279225E-02
 0.1197658091418E-02 -0.7513057313170E-02  0.0000000000000E+00 -0.3091534511178E-02
 0.1141511019596E-02 -0.7389466842183E-02  0.0000000000000E+00 -0.2984812615886E-02
 0.1067895909637E-02 -0.7248086539285E-02  0.0000000000000E+00 -0.2877818186064E-02
 0.9798820156552E-03 -0.7090049513003E-02  0.0000000000000E+00 -0.2773359116561E-02
 0.8809799588143E-03 -0.6916608211292E-02  0.0000000000000E+00 -0.2674470700552E-02
 0.7752540016438E-03 -0.6729263825259E-02  0.0000000000000E+00 -0.2584483099877E-02
 0.6674055219039E-03 -0.6529870200946E-02  0.0000000000000E+00 -0.2507005357375E-02
 0.5628355266694E-03 -0.6320770653732E-02  0.0000000000000E+00 -0.2445806503106E-02
 0.4677251414085E-03 -0.6105129130098E-02  0.0000000000000E+00 -0.2404382952200E-02
 0.3889707520529E-03 -0.5886932959732E-02  0.0000000000000E+00 -0.2385827421023E-02
 0.3339544834187E-03 -0.5670537350744E-02  0.0000000000000E+00 -0.2393406754855E-02
 0.3104184796391E-03 -0.5460498347525E-02  0.0000000000000E+00 -0.2430864553481E-02
 0.3264315143870E-03 -0.5261658758891E-02  0.0000000000000E+00 -0.2502280779421E-02
 0.3903649547880E-03 -0.5079269461241E-02  0.0000000000000E+00 -0.2611676441758E-02
 0.5108198586784E-03 -0.4919054697650E-02  0.0000000000000E+00 -0.2762422748613E-02
 0.6964551737489E-03 -0.4787174713397E-02  0.0000000000000E+00 -0.2956460342075E-02
 0.9556663781700E-03 -0.4690055001066E-02  0.0000000000000E+00 -0.3193345605620E-02
 0.1296068845622E-02 -0.4634048451050E-02  0.0000000000000E+00 -0.3469196147597E-02
 0.1723821839784E-02 -0.4624884353463E-02  0.0000000000000E+00 -0.3775756063411E-02
 0.2242937291431E-02 -0.4666976169468E-02  0.0000000000000E+00 -0.4099788877961E-02
 0.2854395065857E-02 -0.4762722593463E-02  0.0000000000000E+00 -0.4422694108751E-02
 0.3554993958584E-02 -0.4911690622339E-02  0.0000000000000E+00 -0.4720704133702E-02
 0.4336346204260E-02 -0.5109765050561E-02  0.0000000000000E+00 -0.4966224135335E-02
 0.5184222030866E-02 -0.5348546348966E-02  0.0000000000000E+00 -0.5130227678289E-02
 0.6078483901325E-02 -0.5615224425229E-02  0.0000000000000E+00 -0.5185514611648E-02
 0.6993828732211E-02 -0.5893110372833E-02  0.0000000000000E+00 -0.5110373946656E-02
 0.7901349296006E-02 -0.6162864851309E-02  0.0000000000000E+00 -0.4891962550401E-02
 0.8770794459952E-02 -0.6404305648893E-02  0.0000000000000E+00 -0.4528677486480E-02
 0.9573102634498E-02 -0.6598484912805E-02  0.0000000000000E+00 -0.4031103108729E-02
 0.7876201769979E-04 -0.7188760010150E-02  0.0000000000000E+00 -0.2724198912276E-02
 0.2423395557428E-03 -0.7286305036349E-02  0.0000000000000E+00 -0.2982815535863E-02
 0.4121164946260E-03 -0.7381953589932E-02  0.0000000000000E+00 -0.3194437085551E-02
 0.5792962122709E-03 -0.7469270609023E-02  0.0000000000000E+00 -0.3354708907228E-02
 0.7356301623356E-03 -0.7542421407146E-02  0.0000000000000E+00 -0.3463842741717E-02
 0.8742731547208E-03 -0.7596798234472E-02  0.0000000000000E+00 -0.3525795099331E-02
 0.9902562476168E-03 -0.7629315325227E-02  0.0000000000000E+00 -0.3546910157050E-02
 0.1080555587218E-02 -0.7638369052271E-02  0.0000000000000E+00 -0.3534517662058E-02
 0.1143865076496E-02 -0.7623566316559E-02  0.0000000000000E+00 -0.3495829089760E-02
 0.1180224187011E-02 -0.7585355655418E-02  0.0000000000000E+00 -0.3437268138993E-02
 0.1190632242117E-02 -0.7524672189377E-02  0.0000000000000E+00 -0.3364210009021E-02
 0.1176732605009E-02 -0.7442662863182E-02  0.0000000000000E+00 -0.3281021913982E-02
 0.1140602842048E-02 -0.7340515370946E-02  0.0000000000000E+00 -0.3191278796601E-02
 0.1084653109491E-02 -0.7219387275782E-02  0.0000000000000E+00 -0.3098048285641E-02
 0.1011618905272E-02 -0.7080423095282E-02  0.0000000000000E+00 -0.3004172509063E-02
 0.9246131331304E-03 -0.6924819115155E-02  0.0000000000000E+00 -0.2912486869911E-02
 0.8272157346425E-03 -0.6753925689780E-02  0.0000000000000E+00 -0.2825965159430E-02
 0.7235718149856E-03 -0.6569364983243E-02  0.0000000000000E+00 -0.2747787229472E-02
 0.6184653417010E-03 -0.6373127047071E-02  0.0000000000000E+00 -0.2681335771023E-02
 0.5173752301744E-03 -0.6167696246753E-02  0.0000000000000E+00 -0.2630102232689E-02
 0.4265461299468E-03 -0.5956347037093E-02  0.0000000000000E+00 -0.2597312223073E-02
 0.3529332897020E-03 -0.5743153091470E-02  0.0000000000000E+00 -0.2585809921648E-02
 0.3039950032681E-03 -0.5532590067587E-02  0.0000000000000E+00 -0.2598570414742E-02
 0.2875625828808E-03 -0.5329384869032E-02  0.0000000000000E+00 -0.2638954663211E-02
 0.3117786986949E-03 -0.5138575994033E-02  0.0000000000000E+00 -0.2710559246927E-02
 0.3850322920777E-03 -0.4965593426512E-02  0.0000000000000E+00 -0.2816834078748E-02
 0.5158377406842E-03 -0.4816277503358E-02  0.0000000000000E+00 -0.2960525830524E-02
 0.7126134758770E-03 -0.4696794588150E-02  0.0000000000000E+00 -0.3142958024963E-02
 0.9833162095506E-03 -0.4613422766211E-02  0.0000000000000E+00 -0.3363171097807E-02
 0.1334895241718E-02 -0.4572180957966E-02  0.0000000000000E+00 -0.3616997300349E-02
 0.1772614132160E-02 -0.4578270164511E-02  0.0000000000000E+00 -0.3896273881072E-02
 0.2299393415864E-02 -0.4635408381659E-02  0.0000000000000E+00 -0.4188381387586E-02
 0.2915014517357E-02 -0.4745187546714E-02  0.0000000000000E+00 -0.4476025172088E-02
 0.3615124933111E-02 -0.4906359989779E-02  0.0000000000000E+00 -0.4737561573921E-02
 0.4390438000673E-02 -0.5114148067167E-02  0.0000000000000E+00 -0.4948320875531E-02
 0.5226300020293E-02 -0.5359822047950E-02  0.0000000000000E+00 -0.5082806885008E-02
 0.6102810622387E-02 -0.5630727446445E-02  0.0000000000000E+00 -0.5117563570227E-02
 0.6995650903513E-02 -0.5910890322038E-02  0.0000000000000E+00 -0.5034293012536E-02
 0.7877582898715E-02 -0.6182197814831E-02  0.0000000000000E+00 -0.4822651901865E-02
 0.8720494037715E-02 -0.6426033511767E-02  0.0000000000000E+00 -0.4482167121509E-02
 0.9497615031903E-02 -0.6625104906737E-02  0.0000000000000E+00 -0.4022982903100E-02
 0.7586156304277E-04 -0.7021726291281E-02  0.0000000000000E+00 -0.2668929900770E-02
 0.2329036527456E-03 -0.7115628959120E-02  0.0000000000000E+00 -0.2928965495829E-02
 0.3952026505807E-03 -0.7207553470013E-02  0.0000000000000E+00 -0.3146046478894E-02
 0.5546820060697E-03 -0.7291555699595E-02  0.0000000000000E+00 -0.3315629811355E-02
 0.7037507045204E-03 -0.7362210889058E-02  0.0000000000000E+00 -0.3437283102383E-02
 0.8360368122276E-03 -0.7415152987701E-02  0.0000000000000E+00 -0.3514040311452E-02
 0.9468162822560E-03 -0.7447348027106E-02  0.0000000000000E+00 -0.3551269744648E-02
 0.1033106108411E-02 -0.7457087525259E-02  0.0000000000000E+00 -0.3555457173172E-02
 0.1093499685694E-02 -0.7443777912990E-02  0.0000000000000E+00 -0.3533203788231E-02
 0.1127865208102E-02 -0.7407634412088E-02  0.0000000000000E+00 -0.3490575727000E-02
 0.1137018662776E-02 -0.7349374795468E-02  0.0000000000000E+00 -0.3432804869060E-02
 0.1122447160816E-02 -0.7269974633538E-02  0.0000000000000E+00 -0.3364262975698E-02
 0.1086119176918E-02 -0.7170509501937E-02  0.0000000000000E+00 -0.3288606179318E-02
 0.1030388123309E-02 -0.7052085292823E-02  0.0000000000000E+00 -0.3208997196440E-02
 0.9579801896634E-03 -0.6915848879178E-02  0.0000000000000E+00 -0.3128338462114E-02
 0.8720357321264E-03 -0.6763042867968E-02  0.0000000000000E+00 -0.3049459829838E-02
 0.7761860184290E-03 -0.6595096618823E-02  0.0000000000000E+00 -0.2975248440736E-02
 0.6746394369856E-03 -0.6413733847404E-02  0.0000000000000E+00 -0.2908714979943E-02
 0.5722468043010E-03 -0.6221061786094E-02  0.0000000000000E+00 -0.2853000568577E-02
 0.4745514187837E-03 -0.6019687628336E-02  0.0000000000000E+00 -0.2811304561989E-02
 0.3878502099622E-03 -0.5812980338564E-02  0.0000000000000E+00 -0.2786565288982E-02
 0.3191464373717E-03 -0.5605085513666E-02  0.0000000000000E+00 -0.2781359087884E-02
 0.2759607755486E-03 -0.5400582309372E-02  0.0000000000000E+00 -0.2798350185342E-02
 0.2661956980107E-03 -0.5204346349135E-02  0.0000000000000E+00 -0.2840504614560E-02
 0.2980468621603E-03 -0.5021584724207E-02  0.0000000000000E+00 -0.2910938368632E-02
 0.3799003042850E-03 -0.4857876766972E-02  0.0000000000000E+00 -0.3012556507964E-02
 0.5201686909552E-03 -0.4719150296127E-02  0.0000000000000E+00 -0.3147538090541E-02
 0.7270268726254E-03 -0.4611555491923E-02  0.0000000000000E+00 -0.3316681884496E-02
 0.1008009477726E-02 -0.4541213530630E-02  0.0000000000000E+00 -0.3518640570811E-02
 0.1369444499001E-02 -0.4513820118370E-02  0.0000000000000E+00 -0.3749118336007E-02
 0.1815780067521E-02 -0.4534085815572E-02  0.0000000000000E+00 -0.4000216329515E-02
 0.2348965582312E-02 -0.4605102356135E-02  0.0000000000000E+00 -0.4260091076696E-02
 0.2967741873601E-02 -0.4727755944029E-02  0.0000000000000E+00 -0.4512861687839E-02
 0.3666786447648E-02 -0.4900109029801E-02  0.0000000000000E+00 -0.4739017072163E-02
 0.4436090578455E-02 -0.5116849432714E-02  0.0000000000000E+00 -0.4916682233616E-02
 0.5260709720104E-02 -0.5369017404368E-02  0.0000000000000E+00 -0.5023606521461E-02
 0.6121027888592E-02 -0.5644152531904E-02  0.0000000000000E+00 -0.5039663676435E-02
 0.6993641156155E-02 -0.5926947509865E-02  0.0000000000000E+00 -0.4949494912505E-02
 0.7852791505928E-02 -0.6200377857242E-02  0.0000000000000E+00 -0.4744823377349E-02
 0.8672225501102E-02 -0.6447189712187E-02  0.0000000000000E+00 -0.4426005995331E-02
 0.9427148132441E-02 -0.6651518706967E-02  0.0000000000000E+00 -0.4002627279420E-02
 0.7325459929349E-04 -0.6856253398951E-02  0.0000000000000E+00 -0.2615543024031E-02
 0.2243690027477E-03 -0.6946866377713E-02  0.0000000000000E+00 -0.2876996517901E-02
 0.3797974973570E-03 -0.7035389329688E-02  0.0000000000000E+00 -0.3099245860509E-02
 0.5321105048434E-03 -0.7116321800925E-02  0.0000000000000E+00 -0.3277579494709E-02
 0.6743197474957E-03 -0.7184620010812E-02  0.0000000000000E+00 -0.3411011201398E-02
 0.8005050080782E-03 -0.7236158898546E-02  0.0000000000000E+00 -0.3501774824497E-02
 0.9061986585336E-03 -0.7267981270944E-02  0.0000000000000E+00 -0.3554376915206E-02
 0.9884923958991E-03 -0.7278313843975E-02  0.0000000000000E+00 -0.3574538614277E-02
 0.1045921438223E-02 -0.7266405517491E-02  0.0000000000000E+00 -0.3568287251475E-02
 0.1078222112121E-02 -0.7232274831578E-02  0.0000000000000E+00 -0.3541330399878E-02
 0.1086056830139E-02 -0.7176447827126E-02  0.0000000000000E+00 -0.3498729884114E-02
 0.1070774151065E-02 -0.7099742336053E-02  0.0000000000000E+00 -0.3444821557197E-02
 0.1034239572286E-02 -0.7003124742635E-02  0.0000000000000E+00 -0.3383297968202E-02
 0.9787462626885E-03 -0.6887643665886E-02  0.0000000000000E+00 -0.3317374026515E-02
 0.9070005365421E-03 -0.6754436500272E-02  0.0000000000000E+00 -0.3249974964469E-02
 0.8221552174791E-03 -0.6604776246311E-02  0.0000000000000E+00 -0.3183894479467E-02
 0.7278759789066E-03 -0.6440153096557E-02  0.0000000000000E+00 -0.3121909313646E-02
 0.6284176809037E-03 -0.6262373336699E-02  0.0000000000000E+00 -0.3066842764045E-02
 0.5286825646181E-03 -0.6073642454643E-02  0.0000000000000E+00 -0.3021579489112E-02
 0.4342647327332E-03 -0.5876672063414E-02  0.0000000000000E+00 -0.2989012786102E-02
 0.3515019224600E-03 -0.5674909287910E-02  0.0000000000000E+00 -0.2971778261186E-02
 0.2874345085982E-03 -0.5472556910092E-02  0.0000000000000E+00 -0.2972166905394E-02
 0.2496324384904E-03 -0.5274280724353E-02  0.0000000000000E+00 -0.2992515826378E-02
 0.2460532625127E-03 -0.5085083908890E-02  0.0000000000000E+00 -0.3035387283236E-02
 0.2849282081058E-03 -0.4910317288952E-02  0.0000000000000E+00 -0.3103422532144E-02
 0.3746250950471E-03 -0.4755683527744E-02  0.0000000000000E+00 -0.3199009493100E-02
 0.5234465614754E-03 -0.4627174647089E-02  0.0000000000000E+00 -0.3323815104657E-02
 0.7393286198256E-03 -0.4530909120479E-02  0.0000000000000E+00 -0.3478199993428E-02
 0.1029408458207E-02 -0.4472849381336E-02  0.0000000000000E+00 -0.3660545763859E-02
 0.1399444035811E-02 -0.4458386069039E-02  0.0000000000000E+00 -0.3866567518247E-02
 0.1853151124778E-02 -0.4491782478791E-02  0.0000000000000E+00 -0.4088776019277E-02
 0.2391624656598E-02 -0.4575574332279E-02  0.0000000000000E+00 -0.4316232961629E-02
 0.3012710207188E-02 -0.4710037518179E-02  0.0000000000000E+00 -0.4534549812736E-02
 0.3710274179107E-02 -0.4892655770589E-02  0.0000000000000E+00 -0.4726336493288E-02
 0.4473732347816E-02 -0.5117689782505E-02  0.0000000000000E+00 -0.4872381596404E-02
 0.5287950162053E-02 -0.5376026984985E-02  0.0000000000000E+00 -0.4953422184262E-02
 0.6133617999972E-02 -0.5655421130473E-02  0.0000000000000E+00 -0.4952303141595E-02
 0.6988168606670E-02 -0.5941176892114E-02  0.0000000000000E+00 -0.4856205563119E-02
 0.7827146237675E-02 -0.6217229456375E-02  0.0000000000000E+00 -0.4658559224362E-02
 0.8625905974425E-02 -0.6467506193945E-02  0.0000000000000E+00 -0.4360302661050E-02
 0.9361346319425E-02 -0.6677370882141E-02  0.0000000000000E+00 -0.3970361881401E-02
 0.7092331793290E-04 -0.6692184918195E-02  0.0000000000000E+00 -0.2563831472594E-02
 0.2166775916039E-03 -0.6779841293605E-02  0.0000000000000E+00 -0.2826713110046E-02
 0.3658009154163E-03 -0.6865270565570E-02  0.0000000000000E+00 -0.3053879397023E-02
 0.5114499235708E-03 -0.6943376646732E-02  0.0000000000000E+00 -0.3240463527274E-02
 0.6471920840323E-03 -0.7009471625559E-02  0.0000000000000E+00 -0.3384999545567E-02
 0.7675386453745E-03 -0.7059669300916E-02  0.0000000000000E+00 -0.3489025685904E-02
 0.8682858333322E-03 -0.7091108919027E-02  0.0000000000000E+00 -0.3556288021575E-02
 0.9466271797917E-03 -0.7101985741473E-02  0.0000000000000E+00 -0.3591817530717E-02
 0.1001075316597E-02 -0.7091428136900E-02  0.0000000000000E+00 -0.3601106331904E-02
 0.1031268919484E-02 -0.7059290522146E-02  0.0000000000000E+00 -0.3589509039298E-02
 0.1037743395743E-02 -0.7005930713933E-02  0.0000000000000E+00 -0.3561898884452E-02
 0.1021725011086E-02 -0.6932021845485E-02  0.0000000000000E+00 -0.3522543228305E-02
 0.9849822015908E-03 -0.6838424362595E-02  0.0000000000000E+00 -0.3475132890104E-02
 0.9297449484759E-03 -0.6726124776821E-02  0.0000000000000E+00 -0.3422897229081E-02
 0.8586900611078E-03 -0.6596240072875E-02  0.0000000000000E+00 -0.3368750535542E-02
 0.7749688950614E-03 -0.6450058574075E-02  0.0000000000000E+00 -0.3315422307133E-02
 0.6822655540340E-03 -0.6289113823789E-02  0.0000000000000E+00 -0.3265556698006E-02
 0.5848652288231E-03 -0.6115276128666E-02  0.0000000000000E+00 -0.3221772239273E-02
 0.4877064785655E-03 -0.5930830445221E-02  0.0000000000000E+00 -0.3186682774994E-02
 0.3964206674348E-03 -0.5738574306604E-02  0.0000000000000E+00 -0.3162862261657E-02
 0.3173747954718E-03 -0.5542016439771E-02  0.0000000000000E+00 -0.3152629147872E-02
 0.2576355847227E-03 -0.5345401920770E-02  0.0000000000000E+00 -0.3157973129841E-02
 0.2248099435893E-03 -0.5153466569370E-02  0.0000000000000E+00 -0.3180890256348E-02
 0.2268963261119E-03 -0.4971321018176E-02  0.0000000000000E+00 -0.3223532785764E-02
 0.2721474099026E-03 -0.4804437180382E-02  0.0000000000000E+00 -0.3288075044213E-02
 0.3689022271990E-03 -0.4658618578545E-02  0.0000000000000E+00 -0.3376415673716E-02
 0.5253510708423E-03 -0.4539903054853E-02  0.0000000000000E+00 -0.3489762132119E-02
 0.7492026199620E-03 -0.4454367871011E-02  0.0000000000000E+00 -0.3628116461617E-02
 0.1047227848950E-02 -0.4407821418114E-02  0.0000000000000E+00 -0.3789693587916E-02
 0.1424670878423E-02 -0.4405373346536E-02  0.0000000000000E+00 -0.3970340558329E-02
 0.1884599500366E-02 -0.4450886607051E-02  0.0000000000000E+00 -0.4163100539179E-02
 0.2427366401092E-02 -0.4546410910740E-02  0.0000000000000E+00 -0.4358044101153E-02
 0.3050055228951E-02 -0.4691701249003E-02  0.0000000000000E+00 -0.4542330595590E-02
 0.3745860241112E-02 -0.4883761306644E-02  0.0000000000000E+00 -0.4700666244260E-02
 0.4503742674984E-02 -0.5116514481689E-02  0.0000000000000E+00 -0.4816376838925E-02
 0.5308452680053E-02 -0.5380753816377E-02  0.0000000000000E+00 -0.4872957382968E-02
 0.6140989474040E-02 -0.5664453075759E-02  0.0000000000000E+00 -0.4855915871087E-02
 0.6979538038643E-02 -0.5953469979783E-02  0.0000000000000E+00 -0.4754637882782E-02
 0.7800777429156E-02 -0.6232578693066E-02  0.0000000000000E+00 -0.4563961091002E-02
 0.8581444453883E-02 -0.6486724410822E-02  0.0000000000000E+00 -0.4285199851080E-02
 0.9299881638507E-02 -0.6702321805765E-02  0.0000000000000E+00 -0.3926539749920E-02
 0.6885155658376E-04 -0.6529372196617E-02  0.0000000000000E+00 -0.2513599452819E-02
 0.2097768326681E-03 -0.6614387065970E-02  0.0000000000000E+00 -0.2777928659800E-02
 0.3531218320089E-03 -0.6697016554976E-02  0.0000000000000E+00 -0.3009792728283E-02
 0.4925791340192E-03 -0.6772536470286E-02  0.0000000000000E+00 -0.3204178035178E-02
 0.6222319285199E-03 -0.6836593243999E-02  0.0000000000000E+00 -0.3359200033733E-02
 0.7370043414632E-03 -0.6885536659260E-02  0.0000000000000E+00 -0.3475790958412E-02
 0.8329609326967E-03 -0.6916617913037E-02  0.0000000000000E+00 -0.3557026452914E-02
 0.9074187308705E-03 -0.6928028546918E-02  0.0000000000000E+00 -0.3607316935463E-02
 0.9588975577842E-03 -0.6918808142498E-02  0.0000000000000E+00 -0.3631659156928E-02
 0.9869679203562E-03 -0.6888675700919E-02  0.0000000000000E+00 -0.3635065625578E-02
 0.9920616751790E-03 -0.6837842114752E-02  0.0000000000000E+00 -0.3622209466223E-02
 0.9752974729847E-03 -0.6766848018447E-02  0.0000000000000E+00 -0.3597264055406E-02
 0.9383521879223E-03 -0.6676451246891E-02  0.0000000000000E+00 -0.3563886555426E-02
 0.8833900078366E-03 -0.6567571944348E-02  0.0000000000000E+00 -0.3525288035495E-02
 0.8130493577695E-03 -0.6441296530078E-02  0.0000000000000E+00 -0.3484341873941E-02
 0.7304670826885E-03 -0.6298914358853E-02  0.0000000000000E+00 -0.3443687971019E-02
 0.6393305646434E-03 -0.6141985490207E-02  0.0000000000000E+00 -0.3405817408132E-02
 0.5439397831669E-03 -0.5972426126894E-02  0.0000000000000E+00 -0.3373127603937E-02
 0.4492548232252E-03 -0.5792582080973E-02  0.0000000000000E+00 -0.3347947961252E-02
 0.3609308710447E-03 -0.5605318296513E-02  0.0000000000000E+00 -0.3332520594769E-02
 0.2853526881136E-03 -0.5414188450180E-02  0.0000000000000E+00 -0.3328833321129E-02
 0.2296028232017E-03 -0.5223464997394E-02  0.0000000000000E+00 -0.3338559912080E-02
 0.2013136890840E-03 -0.5037937522439E-02  0.0000000000000E+00 -0.3363343247085E-02
 0.2085123123475E-03 -0.4862805108738E-02  0.0000000000000E+00 -0.3404921223891E-02
 0.2594617481131E-03 -0.4703640230624E-02  0.0000000000000E+00 -0.3465010018472E-02
 0.3624659381871E-03 -0.4566328074999E-02  0.0000000000000E+00 -0.3545045860902E-02
 0.5256057859049E-03 -0.4456938318151E-02  0.0000000000000E+00 -0.3645825328736E-02
 0.7563799067278E-03 -0.4381502746834E-02  0.0000000000000E+00 -0.3767063395110E-02
 0.1061229648373E-02 -0.4345685883822E-02  0.0000000000000E+00 -0.3906900006947E-02
 0.1444945113608E-02 -0.4354345139665E-02  0.0000000000000E+00 -0.4061417866291E-02
 0.1910030737515E-02 -0.4410992549976E-02  0.0000000000000E+00 -0.4224294551928E-02
 0.2456204361058E-02 -0.4517260716244E-02  0.0000000000000E+00 -0.4386691603520E-02
 0.3079909884752E-02 -0.4672467169308E-02  0.0000000000000E+00 -0.4537353997307E-02
 0.3773790984959E-02 -0.4873223034777E-02  0.0000000000000E+00 -0.4663051963646E-02
 0.4526453886287E-02 -0.5113189356400E-02  0.0000000000000E+00 -0.4749530813049E-02
 0.5322587057110E-02 -0.5383107979598E-02  0.0000000000000E+00 -0.4782842063208E-02
 0.6143485956231E-02 -0.5671167460591E-02  0.0000000000000E+00 -0.4750894769559E-02
 0.6967999267586E-02 -0.5963716741592E-02  0.0000000000000E+00 -0.4644998758323E-02
 0.7773782209949E-02 -0.6246255065370E-02  0.0000000000000E+00 -0.4461152270043E-02
 0.8538746183427E-02 -0.6504596667333E-02  0.0000000000000E+00 -0.4200875172569E-02
 0.9242454132111E-02 -0.6726048555136E-02  0.0000000000000E+00 -0.3871543877519E-02
 0.6702444391441E-04 -0.6367672626897E-02  0.0000000000000E+00 -0.2464661313442E-02
 0.2036184475648E-03 -0.6450344347726E-02  0.0000000000000E+00 -0.2730464964958E-02
 0.3416764460999E-03 -0.6530454458822E-02  0.0000000000000E+00 -0.2966833711496E-02
 0.4753856682800E-03 -0.6603624075301E-02  0.0000000000000E+00 -0.3168612059307E-02
 0.5993112209617E-03 -0.6665815762087E-02  0.0000000000000E+00 -0.3333547700894E-02
 0.7087734006382E-03 -0.6713612152189E-02  0.0000000000000E+00 -0.3462044157045E-02
 0.8001075035061E-03 -0.6744388673282E-02  0.0000000000000E+00 -0.3556586969227E-02
 0.8707712845769E-03 -0.6756356191394E-02  0.0000000000000E+00 -0.3621030943506E-02
 0.9193165370374E-03 -0.6748492620917E-02  0.0000000000000E+00 -0.3659917777892E-02
 0.9452708030701E-03 -0.6720406668972E-02  0.0000000000000E+00 -0.3677932881630E-02
 0.9489828603743E-03 -0.6672181378143E-02  0.0000000000000E+00 -0.3679543758426E-02
 0.9314767678903E-03 -0.6604236079943E-02  0.0000000000000E+00 -0.3668810656000E-02
 0.8943427553447E-03 -0.6517229204204E-02  0.0000000000000E+00 -0.3649330934840E-02
 0.8396767662278E-03 -0.6412010676169E-02  0.0000000000000E+00 -0.3624269438113E-02
 0.7700705415771E-03 -0.6289626850357E-02  0.0000000000000E+00 -0.3596432387758E-02
 0.6886341201431E-03 -0.6151354523511E-02  0.0000000000000E+00 -0.3568347390907E-02
 0.5990437202821E-03 -0.5998764040650E-02  0.0000000000000E+00 -0.3542333800891E-02
 0.5055990996908E-03 -0.5833799790937E-02  0.0000000000000E+00 -0.3520552774454E-02
 0.4132673821769E-03 -0.5658850032924E-02  0.0000000000000E+00 -0.3505036526803E-02
 0.3277142855753E-03 -0.5476828669052E-02  0.0000000000000E+00 -0.3497683684496E-02
 0.2553309545642E-03 -0.5291317669135E-02  0.0000000000000E+00 -0.3500138857464E-02
 0.2032055657459E-03 -0.5106602023580E-02  0.0000000000000E+00 -0.3513746350346E-02
 0.1789854435897E-03 -0.4927509235495E-02  0.0000000000000E+00 -0.3539785144563E-02
 0.1907155793968E-03 -0.4759308912339E-02  0.0000000000000E+00 -0.3579575610654E-02
 0.2466610857382E-03 -0.4607655530036E-02  0.0000000000000E+00 -0.3634384664925E-02
 0.3550882767557E-03 -0.4478499694085E-02  0.0000000000000E+00 -0.3705211018989E-02
 0.5239761687919E-03 -0.4377932785523E-02  0.0000000000000E+00 -0.3792483973985E-02
 0.7606354128383E-03 -0.4311941323516E-02  0.0000000000000E+00 -0.3895694186450E-02
 0.1071218606293E-02 -0.4286060633976E-02  0.0000000000000E+00 -0.4012985464276E-02
 0.1460124244998E-02 -0.4304928240380E-02  0.0000000000000E+00 -0.4140763334419E-02
 0.1929377561519E-02 -0.4371756259970E-02  0.0000000000000E+00 -0.4273423062970E-02
 0.2478164123007E-02 -0.4487827485122E-02  0.0000000000000E+00 -0.4403281043505E-02
 0.3102400234081E-02 -0.4652099759926E-02  0.0000000000000E+00 -0.4520692225346E-02
 0.3794285656787E-02 -0.4860869378075E-02  0.0000000000000E+00 -0.4614455344121E-02
 0.4542153400381E-02 -0.5107597530635E-02  0.0000000000000E+00 -0.4672629092065E-02
 0.5330666967579E-02 -0.5383005766977E-02  0.0000000000000E+00 -0.4683648190257E-02
 0.6141393814323E-02 -0.5675483608881E-02  0.0000000000000E+00 -0.4637602682481E-02
 0.6953755071918E-02 -0.5971807425914E-02  0.0000000000000E+00 -0.4527494595237E-02
 0.7746230987308E-02 -0.6258093287327E-02  0.0000000000000E+00 -0.4350279192936E-02
 0.8497716476504E-02 -0.6520887508334E-02  0.0000000000000E+00 -0.4107541231709E-02
 0.9188792291672E-02 -0.6748245937666E-02  0.0000000000000E+00 -0.3805789320418E-02
 0.6542810209508E-04 -0.6206948165430E-02  0.0000000000000E+00 -0.2416840864417E-02
 0.1981575233149E-03 -0.6287559305924E-02  0.0000000000000E+00 -0.2684151870699E-02
 0.3313867184718E-03 -0.6365417311432E-02  0.0000000000000E+00 -0.2924853036088E-02
 0.4597639869317E-03 -0.6436467119729E-02  0.0000000000000E+00 -0.3133649502262E-02
 0.5783081049795E-03 -0.6496972267511E-02  0.0000000000000E+00 -0.3307963854379E-02
 0.6827208271625E-03 -0.6543745189981E-02  0.0000000000000E+00 -0.3447738041039E-02
 0.7696091844572E-03 -0.6574295323734E-02  0.0000000000000E+00 -0.3554939496762E-02
 0.8365853091684E-03 -0.6586871989383E-02  0.0000000000000E+00 -0.3632928044923E-02
 0.8822534701906E-03 -0.6580414501601E-02  0.0000000000000E+00 -0.3685830633224E-02
 0.9061196093183E-03 -0.6554443092643E-02  0.0000000000000E+00 -0.3718023859189E-02
 0.9084670809704E-03 -0.6508929844636E-02  0.0000000000000E+00 -0.3733769201664E-02
 0.8902366986507E-03 -0.6444182878089E-02  0.0000000000000E+00 -0.3737000287479E-02
 0.8529362640171E-03 -0.6360764154356E-02  0.0000000000000E+00 -0.3731233865081E-02
 0.7985910279867E-03 -0.6259449798070E-02  0.0000000000000E+00 -0.3719565186231E-02
 0.7297381771216E-03 -0.6141237149674E-02  0.0000000000000E+00 -0.3704710720506E-02
 0.6494492620848E-03 -0.6007377487386E-02  0.0000000000000E+00 -0.3689065819097E-02
 0.5613755006801E-03 -0.5859435773385E-02  0.0000000000000E+00 -0.3674761386587E-02
 0.4698018853523E-03 -0.5699367279298E-02  0.0000000000000E+00 -0.3663708509728E-02
 0.3796883807597E-03 -0.5529584529440E-02  0.0000000000000E+00 -0.3657630482203E-02
 0.2966981200372E-03 -0.5353032040161E-02  0.0000000000000E+00 -0.3658071705630E-02
 0.2272174229675E-03 -0.5173303479283E-02  0.0000000000000E+00 -0.3666321843590E-02
 0.1783302507748E-03 -0.4994681660376E-02  0.0000000000000E+00 -0.3683383065787E-02
 0.1576890768714E-03 -0.4822016598768E-02  0.0000000000000E+00 -0.3710160711295E-02
 0.1733478124278E-03 -0.4660631511276E-02  0.0000000000000E+00 -0.3747555063501E-02
 0.2335677307780E-03 -0.4516246083464E-02  0.0000000000000E+00 -0.3796392042919E-02
 0.3465782256571E-03 -0.4394862672550E-02  0.0000000000000E+00 -0.3857254952845E-02
 0.5202677626285E-03 -0.4302587528783E-02  0.0000000000000E+00 -0.3930243667865E-02
 0.7617850881201E-03 -0.4245365829323E-02  0.0000000000000E+00 -0.4014678010390E-02
 0.1077038285608E-02 -0.4228621983287E-02  0.0000000000000E+00 -0.4108771641808E-02
 0.1470098434777E-02 -0.4256808687174E-02  0.0000000000000E+00 -0.4209324375554E-02
 0.1942594824164E-02 -0.4332890010384E-02  0.0000000000000E+00 -0.4311515576121E-02
 0.2493278766450E-02 -0.4457864411957E-02  0.0000000000000E+00 -0.4408865082629E-02
 0.3117642378667E-02 -0.4630402691188E-02  0.0000000000000E+00 -0.4493352354924E-02
 0.3807535690941E-02 -0.4846555722857E-02  0.0000000000000E+00 -0.4555769306387E-02
 0.4551085865095E-02 -0.5099637132556E-02  0.0000000000000E+00 -0.4586395414392E-02
 0.5332954747176E-02 -0.5380369265609E-02  0.0000000000000E+00 -0.4575902919304E-02
 0.6134948584403E-02 -0.5677322112199E-02  0.0000000000000E+00 -0.4516381376942E-02
 0.6936967881770E-02 -0.5977634301104E-02  0.0000000000000E+00 -0.4402335625677E-02
 0.7718172964980E-02 -0.6267935046509E-02  0.0000000000000E+00 -0.4231512236819E-02
 0.8458264046220E-02 -0.6535375154635E-02  0.0000000000000E+00 -0.4005445304366E-02
 0.9138653769662E-02 -0.6768627688140E-02  0.0000000000000E+00 -0.3729724758484E-02
 0.6404939369416E-04 -0.6047064046829E-02  0.0000000000000E+00 -0.2369970868755E-02
 0.1933517112171E-03 -0.6125882078417E-02  0.0000000000000E+00 -0.2638827008240E-02
 0.3221790780004E-03 -0.6201742352288E-02  0.0000000000000E+00 -0.2883704751914E-02
 0.4456139690540E-03 -0.6270896587070E-02  0.0000000000000E+00 -0.3099170755145E-02
 0.5591055602949E-03 -0.6329896929029E-02  0.0000000000000E+00 -0.3282358716182E-02
 0.6587243862046E-03 -0.6375782896706E-02  0.0000000000000E+00 -0.3432807861783E-02
 0.7413493227784E-03 -0.6406205787688E-02  0.0000000000000E+00 -0.3552032448559E-02
 0.8047576504588E-03 -0.6419469240669E-02  0.0000000000000E+00 -0.3642954040543E-02
 0.8476229625987E-03 -0.6414493495910E-02  0.0000000000000E+00 -0.3709324820747E-02
 0.8694475353846E-03 -0.6390729113519E-02  0.0000000000000E+00 -0.3755233449739E-02
 0.8704643253118E-03 -0.6348052002482E-02  0.0000000000000E+00 -0.3784739322008E-02
 0.8515405874567E-03 -0.6286668011941E-02  0.0000000000000E+00 -0.3801640961565E-02
 0.8141051307021E-03 -0.6207045197657E-02  0.0000000000000E+00 -0.3809358584647E-02
 0.7601099464460E-03 -0.6109882462654E-02  0.0000000000000E+00 -0.3810898802940E-02
 0.6920300960605E-03 -0.5996119643209E-02  0.0000000000000E+00 -0.3808869283820E-02
 0.6128874552099E-03 -0.5866970102660E-02  0.0000000000000E+00 -0.3805515902019E-02
 0.5262949141348E-03 -0.5723978276749E-02  0.0000000000000E+00 -0.3802766413395E-02
 0.4365085624440E-03 -0.5569093412232E-02  0.0000000000000E+00 -0.3802269492642E-02
 0.3484672736909E-03 -0.5404734365304E-02  0.0000000000000E+00 -0.3805428903615E-02
 0.2678186606339E-03 -0.5233858067175E-02  0.0000000000000E+00 -0.3813425039918E-02
 0.2009331986980E-03 -0.5060053393579E-02  0.0000000000000E+00 -0.3827181654230E-02
 0.1548811458127E-03 -0.4887586435995E-02  0.0000000000000E+00 -0.3847346802352E-02
 0.1373111211886E-03 -0.4721314744689E-02  0.0000000000000E+00 -0.3874443080346E-02
 0.1562782798831E-03 -0.4566599141029E-02  0.0000000000000E+00 -0.3908948235804E-02
 0.2200362273684E-03 -0.4429209258147E-02  0.0000000000000E+00 -0.3951254219702E-02
 0.3367808575727E-03 -0.4315187715303E-02  0.0000000000000E+00 -0.4001547600468E-02
 0.5143245614647E-03 -0.4230651515459E-02  0.0000000000000E+00 -0.4059630341858E-02
 0.7596833981528E-03 -0.4181511411530E-02  0.0000000000000E+00 -0.4124695306848E-02
 0.1078567730800E-02 -0.4173101978427E-02  0.0000000000000E+00 -0.4195079278202E-02
 0.1474786572227E-02 -0.4209728104861E-02  0.0000000000000E+00 -0.4268032915879E-02
 0.1949655430482E-02 -0.4294158063685E-02  0.0000000000000E+00 -0.4339570865019E-02
 0.2501585317030E-02 -0.4427169618651E-02  0.0000000000000E+00 -0.4404452127216E-02
 0.3125740213131E-02 -0.4607214712820E-02  0.0000000000000E+00 -0.4456288252638E-02
 0.3813704430786E-02 -0.4830161347913E-02  0.0000000000000E+00 -0.4487831759530E-02
 0.4553455174186E-02 -0.5089219680461E-02  0.0000000000000E+00 -0.4491505244479E-02
 0.5329665490635E-02 -0.5375126249711E-02  0.0000000000000E+00 -0.4460099832925E-02
 0.6124340374512E-02 -0.5676605882287E-02  0.0000000000000E+00 -0.4387558953039E-02
 0.6917765368365E-02 -0.5981093289077E-02  0.0000000000000E+00 -0.4269739202831E-02
 0.7689640807963E-02 -0.6275630683936E-02  0.0000000000000E+00 -0.4105045969114E-02
 0.8420303952924E-02 -0.6547852959402E-02  0.0000000000000E+00 -0.3894868644230E-02
 0.9091826254448E-02 -0.6786927790792E-02  0.0000000000000E+00 -0.3643833575003E-02
 0.6287570593514E-04 -0.5887887662040E-02  0.0000000000000E+00 -0.2323892676552E-02
 0.1891605415718E-03 -0.5965165430810E-02  0.0000000000000E+00 -0.2594335623162E-02
 0.3139833067505E-03 -0.6039269567796E-02  0.0000000000000E+00 -0.2843246734552E-02
 0.4328395905396E-03 -0.6106745430300E-02  0.0000000000000E+00 -0.3065054067341E-02
 0.5415901741007E-03 -0.6164423979464E-02  0.0000000000000E+00 -0.3256633654933E-02
 0.6366637194102E-03 -0.6209569592356E-02  0.0000000000000E+00 -0.3417174142983E-02
 0.7152105603383E-03 -0.6239981805085E-02  0.0000000000000E+00 -0.3547795618902E-02
 0.7751815839999E-03 -0.6254031708120E-02  0.0000000000000E+00 -0.3651034656181E-02
 0.8153334342266E-03 -0.6250636899437E-02  0.0000000000000E+00 -0.3730308169300E-02
 0.8351796029964E-03 -0.6229194331206E-02  0.0000000000000E+00 -0.3789439796390E-02
 0.8349152380436E-03 -0.6189496534178E-02  0.0000000000000E+00 -0.3832294472897E-02
 0.8153421104620E-03 -0.6131654865634E-02  0.0000000000000E+00 -0.3862531560087E-02
 0.7778126440657E-03 -0.6056045598176E-02  0.0000000000000E+00 -0.3883463279279E-02
 0.7242027920806E-03 -0.5963287070907E-02  0.0000000000000E+00 -0.3897992605227E-02
 0.6569181117376E-03 -0.5854253511995E-02  0.0000000000000E+00 -0.3908602778985E-02
 0.5789200082614E-03 -0.5730108483266E-02  0.0000000000000E+00 -0.3917375711903E-02
 0.4937701415517E-03 -0.5592361243174E-02  0.0000000000000E+00 -0.3926023400768E-02
 0.4056819082429E-03 -0.5442938494750E-02  0.0000000000000E+00 -0.3935921339946E-02
 0.3195593957548E-03 -0.5284247752443E-02  0.0000000000000E+00 -0.3948144380087E-02
 0.2410219315910E-03 -0.5119240333358E-02  0.0000000000000E+00 -0.3963500117811E-02
 0.1764133100002E-03 -0.4951483960435E-02  0.0000000000000E+00 -0.3982536157051E-02
 0.1327809237541E-03 -0.4785213634046E-02  0.0000000000000E+00 -0.4005534995984E-02
 0.1177611942718E-03 -0.4625279853413E-02  0.0000000000000E+00 -0.4032627751186E-02
 0.1394039925336E-03 -0.4477065816743E-02  0.0000000000000E+00 -0.4063866896103E-02
 0.2059531214375E-03 -0.4346377105491E-02  0.0000000000000E+00 -0.4099215715169E-02
 0.3255765741376E-03 -0.4239286864942E-02  0.0000000000000E+00 -0.4138478774308E-02
 0.5060276112544E-03 -0.4161920874825E-02  0.0000000000000E+00 -0.4181184883845E-02
 0.7542212357098E-03 -0.4120164676020E-02  0.0000000000000E+00 -0.4226434007940E-02
 0.1075718745837E-02 -0.4119286161498E-02  0.0000000000000E+00 -0.4272726773733E-02
 0.1474133127034E-02 -0.4163480764430E-02  0.0000000000000E+00 -0.4317807073438E-02
 0.1950547152523E-02 -0.4255373257781E-02  0.0000000000000E+00 -0.4358562147163E-02
 0.2503122058433E-02 -0.4395582654576E-02  0.0000000000000E+00 -0.4391014929606E-02
 0.3126783833495E-02 -0.4582406554758E-02  0.0000000000000E+00 -0.4410411880359E-02
 0.3812927134942E-02 -0.4811587193722E-02  0.0000000000000E+00 -0.4411438215146E-02
 0.4549426291407E-02 -0.5076269020676E-02  0.0000000000000E+00 -0.4388597863658E-02
 0.5320970500046E-02 -0.5367210305830E-02  0.0000000000000E+00 -0.4336708701383E-02
 0.6109718330144E-02 -0.5673261191678E-02  0.0000000000000E+00 -0.4251456069651E-02
 0.6896245068871E-02 -0.5982085482748E-02  0.0000000000000E+00 -0.4129932336408E-02
 0.7660654579478E-02 -0.6281040782965E-02  0.0000000000000E+00 -0.3971098986216E-02
 0.8383760245795E-02 -0.6558130867398E-02  0.0000000000000E+00 -0.3776125518235E-02
 0.9048128603528E-02 -0.6802901907458E-02  0.0000000000000E+00 -0.3548634530375E-02
 0.6189476463309E-04 -0.5729287572080E-02  0.0000000000000E+00 -0.2278455985002E-02
 0.1855448319499E-03 -0.5805263576500E-02  0.0000000000000E+00 -0.2550530485458E-02
 0.3067315706895E-03 -0.5877840403570E-02  0.0000000000000E+00 -0.2803341107523E-02
 0.4213477587310E-03 -0.5943847356589E-02  0.0000000000000E+00 -0.3031176710267E-02
 0.5256510317484E-03 -0.6000386775425E-02  0.0000000000000E+00 -0.3230683077081E-02
 0.6164195121708E-03 -0.6044946273092E-02  0.0000000000000E+00 -0.3400745060893E-02
 0.6910743993521E-03 -0.6075478878278E-02  0.0000000000000E+00 -0.3542142702108E-02
 0.7477467905792E-03 -0.6090433978193E-02  0.0000000000000E+00 -0.3657077863646E-02
 0.7852874353278E-03 -0.6088740257526E-02  0.0000000000000E+00 -0.3748671120633E-02
 0.8032332085666E-03 -0.6069754648803E-02  0.0000000000000E+00 -0.3820505610059E-02
 0.8017517962873E-03 -0.6033197233635E-02  0.0000000000000E+00 -0.3876262550086E-02
 0.7815860155326E-03 -0.5979091520723E-02  0.0000000000000E+00 -0.3919461964798E-02
 0.7440136667910E-03 -0.5907723647363E-02  0.0000000000000E+00 -0.3953300660029E-02
 0.6908316081263E-03 -0.5819628069630E-02  0.0000000000000E+00 -0.3980566760069E-02
 0.6243686187052E-03 -0.5715605635273E-02  0.0000000000000E+00 -0.4003606748519E-02
 0.5475151415750E-03 -0.5596758685415E-02  0.0000000000000E+00 -0.4024326796985E-02
 0.4637690521469E-03 -0.5464547118107E-02  0.0000000000000E+00 -0.4044212676860E-02
 0.3772875562411E-03 -0.5320858956145E-02  0.0000000000000E+00 -0.4064357601853E-02
 0.2929264629003E-03 -0.5168072968236E-02  0.0000000000000E+00 -0.4085499441093E-02
 0.2162641967833E-03 -0.5009117012498E-02  0.0000000000000E+00 -0.4108065241605E-02
 0.1536071906360E-03 -0.4847521435902E-02  0.0000000000000E+00 -0.4132216916376E-02
 0.1119710836419E-03 -0.4687475944567E-02  0.0000000000000E+00 -0.4157860380729E-02
 0.9897229189976E-04 -0.4533809731208E-02  0.0000000000000E+00 -0.4184726684543E-02
 0.1226497813870E-03 -0.4391913763852E-02  0.0000000000000E+00 -0.4212439693648E-02
 0.1912367247529E-03 -0.4267616547231E-02  0.0000000000000E+00 -0.4240537243215E-02
 0.3128804573157E-03 -0.4167013332494E-02  0.0000000000000E+00 -0.4268452323824E-02
 0.4952938710653E-03 -0.4096238263327E-02  0.0000000000000E+00 -0.4295458304538E-02
 0.7453242652236E-03 -0.4061162503971E-02  0.0000000000000E+00 -0.4320586391722E-02
 0.1068433781363E-02 -0.4067011814859E-02  0.0000000000000E+00 -0.4342529431682E-02
 0.1468105755977E-02 -0.4117911327878E-02  0.0000000000000E+00 -0.4359553367176E-02
 0.1945270262064E-02 -0.4216394440274E-02  0.0000000000000E+00 -0.4369442542454E-02
 0.2497926603556E-02 -0.4362981921437E-02  0.0000000000000E+00 -0.4369499099286E-02
 0.3120848492102E-02 -0.4555878707937E-02  0.0000000000000E+00 -0.4356604067360E-02
 0.3805311176270E-02 -0.4790754339579E-02  0.0000000000000E+00 -0.4327353467895E-02
 0.4539126838807E-02 -0.5060720711313E-02  0.0000000000000E+00 -0.4278287285355E-02
 0.5307000104463E-02 -0.5356561127574E-02  0.0000000000000E+00 -0.4206184061409E-02
 0.6091194231066E-02 -0.5667218677496E-02  0.0000000000000E+00 -0.4108391200827E-02
 0.6872478129158E-02 -0.5980518540406E-02  0.0000000000000E+00 -0.3983153573570E-02
 0.7631225007432E-02 -0.6284037661348E-02  0.0000000000000E+00 -0.3829913361983E-02
 0.8348568316644E-02 -0.6566036866778E-02  0.0000000000000E+00 -0.3649561955797E-02
 0.9007412164259E-02 -0.6816328896894E-02  0.0000000000000E+00 -0.3444681996522E-02
 0.6109447210388E-04 -0.5571132634884E-02  0.0000000000000E+00 -0.2233518708523E-02
 0.1824661711154E-03 -0.5646031133345E-02  0.0000000000000E+00 -0.2507271874075E-02
 0.3003575693777E-03 -0.5717296621408E-02  0.0000000000000E+00 -0.2763854635710E-02
 0.4110472774516E-03 -0.5782035735826E-02  0.0000000000000E+00 -0.2997415974625E-02
 0.5111787110750E-03 -0.5837616931881E-02  0.0000000000000E+00 -0.3204396032761E-02
 0.5978727114330E-03 -0.5881750103617E-02  0.0000000000000E+00 -0.3383418480223E-02
 0.6688207591201E-03 -0.5912546171663E-02  0.0000000000000E+00 -0.3534973477992E-02
 0.7223392734516E-03 -0.5928541734134E-02  0.0000000000000E+00 -0.3660975932174E-02
 0.7573818722504E-03 -0.5928687922541E-02  0.0000000000000E+00 -0.3764288428836E-02
 0.7735185675408E-03 -0.5912313004810E-02  0.0000000000000E+00 -0.3848279387356E-02
 0.7708978767926E-03 -0.5879073812286E-02  0.0000000000000E+00 -0.3916459673956E-02
 0.7502087314861E-03 -0.5828911560610E-02  0.0000000000000E+00 -0.3972213197160E-02
 0.7126552298999E-03 -0.5762023419238E-02  0.0000000000000E+00 -0.4018617573340E-02
 0.6599517571805E-03 -0.5678856634700E-02  0.0000000000000E+00 -0.4058338379179E-02
 0.5943430795174E-03 -0.5580131198205E-02  0.0000000000000E+00 -0.4093576162561E-02
 0.5186384178040E-03 -0.5466877249382E-02  0.0000000000000E+00 -0.4126052255751E-02
 0.4362595920942E-03 -0.5340491593633E-02  0.0000000000000E+00 -0.4157017925360E-02
 0.3512943604513E-03 -0.5202807816183E-02  0.0000000000000E+00 -0.4187276755906E-02
 0.2685369263004E-03 -0.5056158812382E-02  0.0000000000000E+00 -0.4217222967010E-02
 0.1935123068121E-03 -0.4903431326217E-02  0.0000000000000E+00 -0.4246896388869E-02
 0.1324790073272E-03 -0.4748102238351E-02  0.0000000000000E+00 -0.4276064387674E-02
 0.9241222776038E-04 -0.4594301897310E-02  0.0000000000000E+00 -0.4304245612700E-02
 0.8090096646513E-04 -0.4446824186392E-02  0.0000000000000E+00 -0.4330762460732E-02
 0.1059683154696E-03 -0.4311053683658E-02  0.0000000000000E+00 -0.4354806051923E-02
 0.1758369020742E-03 -0.4192829463067E-02  0.0000000000000E+00 -0.4375489661942E-02
 0.2986417589791E-03 -0.4098261331221E-02  0.0000000000000E+00 -0.4391880596706E-02
 0.4820753567009E-03 -0.4033492372139E-02  0.0000000000000E+00 -0.4403007286607E-02
 0.7329517116393E-03 -0.4004391182510E-02  0.0000000000000E+00 -0.4407846373929E-02
 0.1056684423235E-02 -0.4016166709198E-02  0.0000000000000E+00 -0.4405299135511E-02
 0.1456693628431E-02 -0.4072913275610E-02  0.0000000000000E+00 -0.4394169274702E-02
 0.1933835918307E-02 -0.4177124717389E-02  0.0000000000000E+00 -0.4373150694376E-02
 0.2486034637504E-02 -0.4329282959040E-02  0.0000000000000E+00 -0.4340831503697E-02
 0.3107994004160E-02 -0.4527560000141E-02  0.0000000000000E+00 -0.4295724858647E-02
 0.3790936355144E-02 -0.4767603100028E-02  0.0000000000000E+00 -0.4236322573825E-02
 0.4522648409906E-02 -0.5042521778755E-02  0.0000000000000E+00 -0.4161172305131E-02
 0.5287845861225E-02 -0.5343124933718E-02  0.0000000000000E+00 -0.4068972930715E-02
 0.6068845271155E-02 -0.5658414286911E-02  0.0000000000000E+00 -0.3958685177811E-02
 0.6846512233216E-02 -0.5976307947172E-02  0.0000000000000E+00 -0.3829654385383E-02
 0.7601356140823E-02 -0.6284506755042E-02  0.0000000000000E+00 -0.3681753785082E-02
 0.8314676997237E-02 -0.6571418415081E-02  0.0000000000000E+00 -0.3515554239075E-02
 0.8969562263153E-02 -0.6827012388922E-02  0.0000000000000E+00 -0.3332565784843E-02
 0.6046276433303E-04 -0.5413291226000E-02  0.0000000000000E+00 -0.2188946946178E-02
 0.1798864636528E-03 -0.5487322193138E-02  0.0000000000000E+00 -0.2464427629300E-02
 0.2947957819919E-03 -0.5557479276519E-02  0.0000000000000E+00 -0.2724659099753E-02
 0.4018479196320E-03 -0.5621142614377E-02  0.0000000000000E+00 -0.2963650030849E-02
 0.4980643652900E-03 -0.5675943524271E-02  0.0000000000000E+00 -0.3177657579765E-02
 0.5809037906677E-03 -0.5719813926840E-02  0.0000000000000E+00 -0.3365083691156E-02
 0.6483275311074E-03 -0.5751026379665E-02  0.0000000000000E+00 -0.3526175701025E-02
 0.6988412310504E-03 -0.5768211960334E-02  0.0000000000000E+00 -0.3662607233995E-02
 0.7315081586820E-03 -0.5770353520256E-02  0.0000000000000E+00 -0.3777020688859E-02
 0.7459390671650E-03 -0.5756760004628E-02  0.0000000000000E+00 -0.3872596534305E-02
 0.7422697237130E-03 -0.5727032602082E-02  0.0000000000000E+00 -0.3952690841279E-02
 0.7211388746795E-03 -0.5681034770440E-02  0.0000000000000E+00 -0.4020557572109E-02
 0.6836770220339E-03 -0.5618875417130E-02  0.0000000000000E+00 -0.4079154651025E-02
 0.6315123592723E-03 -0.5540911238019E-02  0.0000000000000E+00 -0.4131020664443E-02
 0.5667983976913E-03 -0.5447774171456E-02  0.0000000000000E+00 -0.4178204055486E-02
 0.4922530516319E-03 -0.5340411598214E-02  0.0000000000000E+00 -0.4222234853212E-02
 0.4112100433104E-03 -0.5220143941851E-02  0.0000000000000E+00 -0.4264123761470E-02
 0.3276746199840E-03 -0.5088734972782E-02  0.0000000000000E+00 -0.4304379215798E-02
 0.2463661773776E-03 -0.4948454867490E-02  0.0000000000000E+00 -0.4343046602842E-02
 0.1727438912406E-03 -0.4802131790262E-02  0.0000000000000E+00 -0.4379773013833E-02
 0.1130078342538E-03 -0.4653173183924E-02  0.0000000000000E+00 -0.4413923114501E-02
 0.7408420052285E-04 -0.4505636078576E-02  0.0000000000000E+00 -0.4444617912887E-02
 0.6352740063859E-04 -0.4364265208095E-02  0.0000000000000E+00 -0.4470762486176E-02
 0.8934007221439E-04 -0.4234424863802E-02  0.0000000000000E+00 -0.4491110152219E-02
 0.1597348970254E-03 -0.4121952694459E-02  0.0000000000000E+00 -0.4504348065889E-02
 0.2828435452725E-03 -0.4032965931818E-02  0.0000000000000E+00 -0.4509179098468E-02
 0.4663585808563E-03 -0.3973617596033E-02  0.0000000000000E+00 -0.4504389982603E-02
 0.7170956003850E-03 -0.3949785864708E-02  0.0000000000000E+00 -0.4488907077808E-02
 0.1040470476081E-02 -0.3966688360429E-02  0.0000000000000E+00 -0.4461844294107E-02
 0.1439906446581E-02 -0.4028428006100E-02  0.0000000000000E+00 -0.4422545992554E-02
 0.1916265267469E-02 -0.4137510487628E-02  0.0000000000000E+00 -0.4370616465736E-02
 0.2467479274752E-02 -0.4294437543098E-02  0.0000000000000E+00 -0.4305928563272E-02
 0.3088264544530E-02 -0.4497406905754E-02  0.0000000000000E+00 -0.4228623555489E-02
 0.3769855277073E-02 -0.4742092678458E-02  0.0000000000000E+00 -0.4139081343670E-02
 0.4500047583352E-02 -0.5021630795586E-02  0.0000000000000E+00 -0.4037845960832E-02
 0.5263562146239E-02 -0.5326854976265E-02  0.0000000000000E+00 -0.3925521927947E-02
 0.6042716054338E-02 -0.5646790147330E-02  0.0000000000000E+00 -0.3802665223711E-02
 0.6818373762415E-02 -0.5969378135094E-02  0.0000000000000E+00 -0.3669700178732E-02
 0.7571047430289E-02 -0.6282347884717E-02  0.0000000000000E+00 -0.3526906431167E-02
 0.8282050406873E-02 -0.6574143821616E-02  0.0000000000000E+00 -0.3374507141773E-02
 0.8934499833805E-02 -0.6834782383340E-02  0.0000000000000E+00 -0.3212910582499E-02
 0.5998748322558E-04 -0.5255630536585E-02  0.0000000000000E+00 -0.2144615036866E-02
 0.1777675225228E-03 -0.5328989483539E-02  0.0000000000000E+00 -0.2421873267738E-02
 0.2899807902060E-03 -0.5398227793899E-02  0.0000000000000E+00 -0.2685631658646E-02
 0.3936595875327E-03 -0.5460997817686E-02  0.0000000000000E+00 -0.2929758675542E-02
 0.4861988805507E-03 -0.5515192351120E-02  0.0000000000000E+00 -0.3150349939968E-02
 0.5653920579692E-03 -0.5558965794532E-02  0.0000000000000E+00 -0.3345622884841E-02
 0.6294701378126E-03 -0.5590755575347E-02  0.0000000000000E+00 -0.3515626725327E-02
 0.6771308968524E-03 -0.5609293094382E-02  0.0000000000000E+00 -0.3661837826656E-02
 0.7075523061835E-03 -0.5613600341913E-02  0.0000000000000E+00 -0.3786715707420E-02
 0.7203915404681E-03 -0.5602974465293E-02  0.0000000000000E+00 -0.3893280403091E-02
 0.7157763270005E-03 -0.5576967164913E-02  0.0000000000000E+00 -0.3984750551583E-02
 0.6942976597050E-03 -0.5535367737988E-02  0.0000000000000E+00 -0.4064258872126E-02
 0.6570117775579E-03 -0.5478197114378E-02  0.0000000000000E+00 -0.4134646009369E-02
 0.6054566229732E-03 -0.5405718098291E-02  0.0000000000000E+00 -0.4198322116474E-02
 0.5416871766908E-03 -0.5318467661260E-02  0.0000000000000E+00 -0.4257180228043E-02
 0.4683200970929E-03 -0.5217300290869E-02  0.0000000000000E+00 -0.4312555196600E-02
 0.3885891502405E-03 -0.5103447184783E-02  0.0000000000000E+00 -0.4365213355816E-02
 0.3064041615437E-03 -0.4978587307574E-02  0.0000000000000E+00 -0.4415364374358E-02
 0.2263966018767E-03 -0.4844911559853E-02  0.0000000000000E+00 -0.4462701193348E-02
 0.1539473951650E-03 -0.4705172246913E-02  0.0000000000000E+00 -0.4506473861379E-02
 0.9518767542879E-04 -0.4562691501224E-02  0.0000000000000E+00 -0.4545636935423E-02
 0.5698609199969E-04 -0.4421439132033E-02  0.0000000000000E+00 -0.4578903724746E-02
 0.4685538116150E-04 -0.4286096950762E-02  0.0000000000000E+00 -0.4604753226904E-02
 0.7277326752297E-04 -0.4161995139445E-02  0.0000000000000E+00 -0.4621494962929E-02
 0.1429432051838E-03 -0.4054957973194E-02  0.0000000000000E+00 -0.4627385947193E-02
 0.2655025044052E-03 -0.3971102949665E-02  0.0000000000000E+00 -0.4620761245130E-02
 0.4481642964336E-03 -0.3916593874500E-02  0.0000000000000E+00 -0.4600161925506E-02
 0.6977804501571E-03 -0.3897330367340E-02  0.0000000000000E+00 -0.4564458524000E-02
 0.1019819635527E-02 -0.3918563797843E-02  0.0000000000000E+00 -0.4512969894190E-02
 0.1417774143581E-02 -0.3984444600988E-02  0.0000000000000E+00 -0.4445571264063E-02
 0.1892589226808E-02 -0.4097541242203E-02  0.0000000000000E+00 -0.4362766634433E-02
 0.2442290995172E-02 -0.4258433566747E-02  0.0000000000000E+00 -0.4265704457320E-02
 0.3061688797780E-02 -0.4465403554330E-02  0.0000000000000E+00 -0.4156148570330E-02
 0.3742093764063E-02 -0.4714201341706E-02  0.0000000000000E+00 -0.4036366565919E-02
 0.4471346619964E-02 -0.4998018248515E-02  0.0000000000000E+00 -0.3908904667660E-02
 0.5234167133225E-02 -0.5307712115223E-02  0.0000000000000E+00 -0.3776284053198E-02
 0.6012819821493E-02 -0.5632295346405E-02  0.0000000000000E+00 -0.3640668674350E-02
 0.6788069206259E-02 -0.5959663451852E-02  0.0000000000000E+00 -0.3503571044983E-02
 0.7540295248767E-02 -0.6277476393796E-02  0.0000000000000E+00 -0.3365677613151E-02
 0.8250669546489E-02 -0.6574103567174E-02  0.0000000000000E+00 -0.3226851927891E-02
 0.8902183149039E-02 -0.6839496841401E-02  0.0000000000000E+00 -0.3086375021837E-02
 0.5965626036827E-04 -0.5098015934392E-02  0.0000000000000E+00 -0.2100405694690E-02
 0.1760706985008E-03 -0.5170883605299E-02  0.0000000000000E+00 -0.2379492155512E-02
 0.2858466610424E-03 -0.5239379126458E-02  0.0000000000000E+00 -0.2646655205400E-02
 0.3863915429999E-03 -0.5301428128620E-02  0.0000000000000E+00 -0.2895623980743E-02
 0.4754720957468E-03 -0.5355185252439E-02  0.0000000000000E+00 -0.3122353474543E-02
 0.5512150033189E-03 -0.5399028524144E-02  0.0000000000000E+00 -0.3324912397162E-02
 0.6121211000279E-03 -0.5431563053112E-02  0.0000000000000E+00 -0.3503194892531E-02
 0.6570823570451E-03 -0.5451625145151E-02  0.0000000000000E+00 -0.3658522832633E-02
 0.6853949672766E-03 -0.5458281681411E-02  0.0000000000000E+00 -0.3793209729916E-02
 0.6967664744149E-03 -0.5450823891228E-02  0.0000000000000E+00 -0.3910143250534E-02
 0.6913197222934E-03 -0.5428758823237E-02  0.0000000000000E+00 -0.4012423414706E-02
 0.6695992223303E-03 -0.5391804367167E-02  0.0000000000000E+00 -0.4103072548540E-02
 0.6325855689640E-03 -0.5339893397836E-02  0.0000000000000E+00 -0.4184819005973E-02
 0.5817220727637E-03 -0.5273191522360E-02  0.0000000000000E+00 -0.4259945817025E-02
 0.5189578663472E-03 -0.5192134135128E-02  0.0000000000000E+00 -0.4330190027470E-02
 0.4467985125527E-03 -0.5097473133784E-02  0.0000000000000E+00 -0.4396689984100E-02
 0.3683661137769E-03 -0.4990338103908E-02  0.0000000000000E+00 -0.4459966120266E-02
 0.2874622785496E-03 -0.4872308611827E-02  0.0000000000000E+00 -0.4519927694042E-02
 0.2086174817517E-03 -0.4745480022642E-02  0.0000000000000E+00 -0.4575913250611E-02
 0.1371219593818E-03 -0.4612511685837E-02  0.0000000000000E+00 -0.4626772799932E-02
 0.7902733502743E-04 -0.4476624628014E-02  0.0000000000000E+00 -0.4671044199075E-02
 0.4113610712711E-04 -0.4341687547034E-02  0.0000000000000E+00 -0.4707023372031E-02
 0.3091217474765E-04 -0.4212305528926E-02  0.0000000000000E+00 -0.4732754436605E-02
 0.5630374824545E-04 -0.4093760710716E-02  0.0000000000000E+00 -0.4746096258647E-02
 0.1255054975398E-03 -0.3991851781249E-02  0.0000000000000E+00 -0.4744869341438E-02
 0.2466689208576E-03 -0.3912688871214E-02  0.0000000000000E+00 -0.4727033093896E-02
 0.4275475450862E-03 -0.3862446712096E-02  0.0000000000000E+00 -0.4690871908303E-02
 0.6750634187994E-03 -0.3847057312353E-02  0.0000000000000E+00 -0.4635185278419E-02
 0.9947877468001E-03 -0.3871829847394E-02  0.0000000000000E+00 -0.4559477499083E-02
 0.1390347254507E-02 -0.3941000256727E-02  0.0000000000000E+00 -0.4464132144123E-02
 0.1862848945449E-02 -0.4057250130417E-02  0.0000000000000E+00 -0.4350530522301E-02
 0.2410498149887E-02 -0.4221295701341E-02  0.0000000000000E+00 -0.4221079266919E-02
 0.3028280452436E-02 -0.4431562431566E-02  0.0000000000000E+00 -0.4079157228579E-02
 0.3707651291689E-02 -0.4683927107559E-02  0.0000000000000E+00 -0.3928926184799E-02
 0.4436533837039E-02 -0.4971667186369E-02  0.0000000000000E+00 -0.3774957303185E-02
 0.5199643158644E-02 -0.5285665448728E-02  0.0000000000000E+00 -0.3621725394273E-02
 0.5979138909372E-02 -0.5614886610416E-02  0.0000000000000E+00 -0.3473046589092E-02
 0.6755585829713E-02 -0.5947108967804E-02  0.0000000000000E+00 -0.3331562368342E-02
 0.7509093855152E-02 -0.6269824146554E-02  0.0000000000000E+00 -0.3198392268974E-02
 0.8220533629745E-02 -0.6571211542292E-02  0.0000000000000E+00 -0.3073044141684E-02
 0.8872609624987E-02 -0.6841043240314E-02  0.0000000000000E+00 -0.2953650430218E-02
 0.5945640925995E-04 -0.4940310374754E-02  0.0000000000000E+00 -0.2056210218394E-02
 0.1747565367042E-03 -0.5012852328759E-02  0.0000000000000E+00 -0.2337175735804E-02
 0.2823263746405E-03 -0.5080766978077E-02  0.0000000000000E+00 -0.2607618718149E-02
 0.3799516919112E-03 -0.5142256527963E-02  0.0000000000000E+00 -0.2861130857078E-02
 0.4657720728992E-03 -0.5195739477208E-02  0.0000000000000E+00 -0.3093547496677E-02
 0.5382476808042E-03 -0.5239819283423E-02  0.0000000000000E+00 -0.3302823743317E-02
 0.5961496158990E-03 -0.5273271174350E-02  0.0000000000000E+00 -0.3488740704502E-02
 0.6385653549823E-03 -0.5295039790078E-02  0.0000000000000E+00 -0.3652507634682E-02
 0.6649114426877E-03 -0.5304241131850E-02  0.0000000000000E+00 -0.3796328537579E-02
 0.6749481637968E-03 -0.5300164893859E-02  0.0000000000000E+00 -0.3922987129470E-02
 0.6687952220911E-03 -0.5282277121977E-02  0.0000000000000E+00 -0.4035484749740E-02
 0.6469508619324E-03 -0.5250226311016E-02  0.0000000000000E+00 -0.4136745961135E-02
 0.6103180081856E-03 -0.5203856918147E-02  0.0000000000000E+00 -0.4229394067533E-02
 0.5602406748969E-03 -0.5143234138662E-02  0.0000000000000E+00 -0.4315588800926E-02
 0.4985547969853E-03 -0.5068685522775E-02  0.0000000000000E+00 -0.4396913223625E-02
 0.4276451020785E-03 -0.4980851148851E-02  0.0000000000000E+00 -0.4474310346505E-02
 0.3505104499313E-03 -0.4880747086062E-02  0.0000000000000E+00 -0.4548055476720E-02
 0.2708315238040E-03 -0.4769839328516E-02  0.0000000000000E+00 -0.4617757866079E-02
 0.1930247414632E-03 -0.4650111756600E-02  0.0000000000000E+00 -0.4682401473683E-02
 0.1222771406890E-03 -0.4524113848049E-02  0.0000000000000E+00 -0.4740434688760E-02
 0.6455013224094E-04 -0.4394949784323E-02  0.0000000000000E+00 -0.4789972995120E-02
 0.2657129713887E-04 -0.4266373228583E-02  0.0000000000000E+00 -0.4828885712433E-02
 0.1574830244355E-04 -0.4142898616078E-02  0.0000000000000E+00 -0.4854773357237E-02
 0.3999484305733E-04 -0.4029745809914E-02  0.0000000000000E+00 -0.4865036583803E-02
 0.1074965898606E-03 -0.3932675135022E-02  0.0000000000000E+00 -0.4857050884480E-02
 0.2264268112758E-03 -0.3857780812338E-02  0.0000000000000E+00 -0.4828387946828E-02
 0.4045980065656E-03 -0.3811247371030E-02  0.0000000000000E+00 -0.4777057698277E-02
 0.6490348992302E-03 -0.3799048606165E-02  0.0000000000000E+00 -0.4701763903928E-02
 0.9654596495837E-03 -0.3826573926909E-02  0.0000000000000E+00 -0.4602165038742E-02
 0.1357697964533E-02 -0.3898181383994E-02  0.0000000000000E+00 -0.4479117573063E-02
 0.1827096951963E-02 -0.4016715297057E-02  0.0000000000000E+00 -0.4334845489731E-02
 0.2372128051696E-02 -0.4183086849617E-02  0.0000000000000E+00 -0.4172987077810E-02
 0.2988039055529E-02 -0.4395925789464E-02  0.0000000000000E+00 -0.3998525644876E-02
 0.3666501463523E-02 -0.4651288960562E-02  0.0000000000000E+00 -0.3817529653157E-02
 0.4395563661054E-02 -0.4942574156011E-02  0.0000000000000E+00 -0.3636634512171E-02
 0.5159936461179E-02 -0.5260692995429E-02  0.0000000000000E+00 -0.3462332016569E-02
 0.5941624423230E-02 -0.5594528869933E-02  0.0000000000000E+00 -0.3300167442778E-02
 0.6720891579810E-02 -0.5931671108847E-02  0.0000000000000E+00 -0.3153985399535E-02
 0.7477435785883E-02 -0.6259340374752E-02  0.0000000000000E+00 -0.3025392331747E-02
 0.8191661127787E-02 -0.6565406186693E-02  0.0000000000000E+00 -0.2913561214059E-02
 0.8845817663275E-02 -0.6839340064489E-02  0.0000000000000E+00 -0.2815459298866E-02
 0.5937482299470E-04 -0.4782373849615E-02  0.0000000000000E+00 -0.2011928771351E-02
 0.1737844510937E-03 -0.4854739934656E-02  0.0000000000000E+00 -0.2294823807921E-02
 0.2793512830209E-03 -0.4922221075839E-02  0.0000000000000E+00 -0.2568417607677E-02
 0.3742459081929E-03 -0.4983301484157E-02  0.0000000000000E+00 -0.2826167537606E-02
 0.4569844074234E-03 -0.5036667093211E-02  0.0000000000000E+00 -0.3063810934452E-02
 0.5263621217845E-03 -0.5081149203685E-02  0.0000000000000E+00 -0.3279224459804E-02
 0.5814211548330E-03 -0.5115695223534E-02  0.0000000000000E+00 -0.3472117798576E-02
 0.6214450907780E-03 -0.5139360463296E-02  0.0000000000000E+00 -0.3643628903465E-02
 0.6459716637727E-03 -0.5151312854397E-02  0.0000000000000E+00 -0.3795888429338E-02
 0.6548148221181E-03 -0.5150843566997E-02  0.0000000000000E+00 -0.3931604725931E-02
 0.6480915880370E-03 -0.5137380231158E-02  0.0000000000000E+00 -0.4053701187906E-02
 0.6262532109585E-03 -0.5110503330786E-02  0.0000000000000E+00 -0.4165018669633E-02
 0.5901223618523E-03 -0.5069968350600E-02  0.0000000000000E+00 -0.4268084604056E-02
 0.5409388644272E-03 -0.5015737024075E-02  0.0000000000000E+00 -0.4364941535391E-02
 0.4804181018761E-03 -0.4948023191466E-02  0.0000000000000E+00 -0.4457023001196E-02
 0.4108143321444E-03 -0.4867346395249E-02  0.0000000000000E+00 -0.4545080303659E-02
 0.3349917109162E-03 -0.4774597801676E-02  0.0000000000000E+00 -0.4629146731830E-02
 0.2564973524019E-03 -0.4671116105331E-02  0.0000000000000E+00 -0.4708534061318E-02
 0.1796205346296E-03 -0.4558758082022E-02  0.0000000000000E+00 -0.4781873341725E-02
 0.1094324675442E-03 -0.4439946605775E-02  0.0000000000000E+00 -0.4847211297020E-02
 0.5179345500547E-04 -0.4317653313666E-02  0.0000000000000E+00 -0.4902236410897E-02
 0.1334714638151E-04 -0.4195502839389E-02  0.0000000000000E+00 -0.4944382784745E-02
 0.1437204045052E-05 -0.4077904836441E-02  0.0000000000000E+00 -0.4970798872483E-02
 0.2393716151022E-04 -0.3970002205277E-02  0.0000000000000E+00 -0.4978419117912E-02
 0.8902244603809E-04 -0.3877503278733E-02  0.0000000000000E+00 -0.4964163708724E-02
 0.2048942092623E-03 -0.3806476491912E-02  0.0000000000000E+00 -0.4925200724092E-02
 0.3794406370801E-03 -0.3763113219283E-02  0.0000000000000E+00 -0.4859241451781E-02
 0.6198195576420E-03 -0.3753436242891E-02  0.0000000000000E+00 -0.4764860059366E-02
 0.9319506092401E-03 -0.3782935345944E-02  0.0000000000000E+00 -0.4641826230558E-02
 0.1319921846008E-02 -0.3856125378536E-02  0.0000000000000E+00 -0.4491420623120E-02
 0.1785399013781E-02 -0.3976062009752E-02  0.0000000000000E+00 -0.4316662217897E-02
 0.2327208686371E-02 -0.4143910423581E-02  0.0000000000000E+00 -0.4122384055795E-02
 0.2940951267217E-02 -0.4358567807541E-02  0.0000000000000E+00 -0.3915158795455E-02
 0.3618592553220E-02 -0.4616328637033E-02  0.0000000000000E+00 -0.3702978682607E-02
 0.4348356366223E-02 -0.4910750453227E-02  0.0000000000000E+00 -0.3494598512137E-02
 0.5114956274800E-02 -0.5232782434202E-02  0.0000000000000E+00 -0.3298617308124E-02
 0.5900195083209E-02 -0.5571195699648E-02  0.0000000000000E+00 -0.3122421096272E-02
 0.6683934191092E-02 -0.5913318097520E-02  0.0000000000000E+00 -0.2971167897210E-02
 0.7445311644153E-02 -0.6245992358350E-02  0.0000000000000E+00 -0.2847035020700E-02
 0.8164090496121E-02 -0.6556651514733E-02  0.0000000000000E+00 -0.2748899917533E-02
 0.8821888490673E-02 -0.6834338202892E-02  0.0000000000000E+00 -0.2672553513863E-02
 0.5939787435556E-04 -0.4624062863508E-02  0.0000000000000E+00 -0.1967470730557E-02
 0.1731124081871E-03 -0.4696386586582E-02  0.0000000000000E+00 -0.2252344856371E-02
 0.2768505866862E-03 -0.4763566479012E-02  0.0000000000000E+00 -0.2528954061470E-02
 0.3691773838273E-03 -0.4824376283672E-02  0.0000000000000E+00 -0.2790625985745E-02
 0.4489915685951E-03 -0.4877774437531E-02  0.0000000000000E+00 -0.3033022851630E-02
 0.5154267759344E-03 -0.4922823028223E-02  0.0000000000000E+00 -0.3253978765523E-02
 0.5677970700487E-03 -0.4958643288517E-02  0.0000000000000E+00 -0.3453173739562E-02
 0.6055820250867E-03 -0.4984402453296E-02  0.0000000000000E+00 -0.3631715472351E-02
 0.6284401620017E-03 -0.4999321840327E-02  0.0000000000000E+00 -0.3791697102782E-02
 0.6362386619162E-03 -0.5002695838807E-02  0.0000000000000E+00 -0.3935780155696E-02
 0.6290911556702E-03 -0.4993915308704E-02  0.0000000000000E+00 -0.4066831292586E-02
 0.6074003407966E-03 -0.4972493598408E-02  0.0000000000000E+00 -0.4187622790645E-02
 0.5719055875366E-03 -0.4938096581554E-02  0.0000000000000E+00 -0.4300597024041E-02
 0.5237374781318E-03 -0.4890579736988E-02  0.0000000000000E+00 -0.4407687522284E-02
 0.4644835306219E-03 -0.4830037806511E-02  0.0000000000000E+00 -0.4510185084370E-02
 0.3962580244580E-03 -0.4756861653985E-02  0.0000000000000E+00 -0.4608655352325E-02
 0.3217790679090E-03 -0.4671806722491E-02  0.0000000000000E+00 -0.4702895073797E-02
 0.2444476128843E-03 -0.4576071164081E-02  0.0000000000000E+00 -0.4791923287352E-02
 0.1684126678458E-03 -0.4471369385810E-02  0.0000000000000E+00 -0.4874021792095E-02
 0.9861682658427E-04 -0.4359981120174E-02  0.0000000000000E+00 -0.4946837280478E-02
 0.4080814647495E-04 -0.4244729792167E-02  0.0000000000000E+00 -0.5007627810928E-02
 0.1537006278696E-05 -0.4129096910996E-02  0.0000000000000E+00 -0.5053384433830E-02
-0.1192521824217E-04 -0.4017372943230E-02  0.0000000000000E+00 -0.5080795580522E-02
 0.8248327646343E-05 -0.3914608530951E-02  0.0000000000000E+00 -0.5086321385553E-02
 0.7022019943503E-04 -0.3826445272546E-02  0.0000000000000E+00 -0.5066415093400E-02
 0.1822235822793E-03 -0.3758914203067E-02  0.0000000000000E+00 -0.5017821989228E-02
 0.3522365822856E-03 -0.3718208216059E-02  0.0000000000000E+00 -0.4937924680612E-02
 0.5875778070695E-03 -0.3710403417216E-02  0.0000000000000E+00 -0.4825125073565E-02
 0.8944083413346E-03 -0.3741107106428E-02  0.0000000000000E+00 -0.4679249453117E-02
 0.1277140311335E-02 -0.3815023077168E-02  0.0000000000000E+00 -0.4501940263231E-02
 0.1737836758402E-02 -0.3935465613066E-02  0.0000000000000E+00 -0.4296949685053E-02
 0.2275771114619E-02 -0.4103913507688E-02  0.0000000000000E+00 -0.4070256499710E-02
 0.2886992592894E-02 -0.4319597582343E-02  0.0000000000000E+00 -0.3830000916051E-02
 0.3563848178691E-02 -0.4579113057253E-02  0.0000000000000E+00 -0.3586118643184E-02
 0.4294797527448E-02 -0.4876223746093E-02  0.0000000000000E+00 -0.3349553733685E-02
 0.5064573256412E-02 -0.5201931922771E-02  0.0000000000000E+00 -0.3131130117577E-02
 0.5854735190037E-02 -0.5544869621498E-02  0.0000000000000E+00 -0.2940223303612E-02
 0.6644639433983E-02 -0.5892030181651E-02  0.0000000000000E+00 -0.2783454980193E-02
 0.7412709247219E-02 -0.6229765928243E-02  0.0000000000000E+00 -0.2663691132650E-02
 0.8137880558586E-02 -0.6544938009960E-02  0.0000000000000E+00 -0.2579573732651E-02
 0.8800947942549E-02 -0.6826022241397E-02  0.0000000000000E+00 -0.2525712467230E-02
 0.5951131666718E-04 -0.4465229924633E-02  0.0000000000000E+00 -0.1922755100793E-02
 0.1726966117712E-03 -0.4537627717541E-02  0.0000000000000E+00 -0.2209656425808E-02
 0.2747508165237E-03 -0.4604622904392E-02  0.0000000000000E+00 -0.2489137378254E-02
 0.3646459918696E-03 -0.4665288382246E-02  0.0000000000000E+00 -0.2754402221403E-02
 0.4416722608826E-03 -0.4718861591612E-02  0.0000000000000E+00 -0.3001062822953E-02
 0.5053059768078E-03 -0.4764638784583E-02  0.0000000000000E+00 -0.3226948042729E-02
 0.5551342324196E-03 -0.4801916157711E-02  0.0000000000000E+00 -0.3431750633466E-02
 0.5908316940582E-03 -0.4829973004610E-02  0.0000000000000E+00 -0.3616589067811E-02
 0.6121760345309E-03 -0.4848084160261E-02  0.0000000000000E+00 -0.3783554445141E-02
 0.6190859535111E-03 -0.4855547792150E-02  0.0000000000000E+00 -0.3935289733290E-02
 0.6116699191875E-03 -0.4851718811925E-02  0.0000000000000E+00 -0.4074626212092E-02
 0.5902798093722E-03 -0.4836043927391E-02  0.0000000000000E+00 -0.4204283438989E-02
 0.5555682938331E-03 -0.4808098802138E-02  0.0000000000000E+00 -0.4326630873668E-02
 0.5085515937544E-03 -0.4767630235296E-02  0.0000000000000E+00 -0.4443503051128E-02
 0.4506821517535E-03 -0.4714609053168E-02  0.0000000000000E+00 -0.4556057026705E-02
 0.3839249213835E-03 -0.4649289949405E-02  0.0000000000000E+00 -0.4664681223055E-02
 0.3108407504918E-03 -0.4572282451503E-02  0.0000000000000E+00 -0.4768943733249E-02
 0.2346718803153E-03 -0.4484631458169E-02  0.0000000000000E+00 -0.4867577897542E-02
 0.1594138539263E-03 -0.4387894134331E-02  0.0000000000000E+00 -0.4958522031169E-02
 0.8986767040553E-04 -0.4284190746612E-02  0.0000000000000E+00 -0.5039026263571E-02
 0.3165771202038E-04 -0.4176180873754E-02  0.0000000000000E+00 -0.5105916183385E-02
-0.8768639387202E-05 -0.4067188689915E-02  0.0000000000000E+00 -0.5155732949263E-02
-0.2422119739065E-04 -0.3961370746036E-02  0.0000000000000E+00 -0.5184697807691E-02
-0.6927377754540E-05 -0.3863669401522E-02  0.0000000000000E+00 -0.5188788811236E-02
 0.5125816086970E-04 -0.3779643429039E-02  0.0000000000000E+00 -0.5163979839692E-02
 0.1586023454074E-03 -0.3715272731788E-02  0.0000000000000E+00 -0.5106571560829E-02
 0.3231843296144E-03 -0.3676743483342E-02  0.0000000000000E+00 -0.5013582663735E-02
 0.5525076875195E-03 -0.3670185900681E-02  0.0000000000000E+00 -0.4883191849951E-02
 0.8530156158247E-03 -0.3701338171520E-02  0.0000000000000E+00 -0.4715215903087E-02
 0.1229503791925E-02 -0.3775121890038E-02  0.0000000000000E+00 -0.4511582472343E-02
 0.1684511095731E-02 -0.3895155332421E-02  0.0000000000000E+00 -0.4276699704178E-02
 0.2217852630080E-02 -0.4063290964674E-02  0.0000000000000E+00 -0.4017628818358E-02
 0.2826129669207E-02 -0.4279163028857E-02  0.0000000000000E+00 -0.3744046285289E-02
 0.3502168168335E-02 -0.4539737494044E-02  0.0000000000000E+00 -0.3467850795326E-02
 0.4234737198413E-02 -0.4839040135835E-02  0.0000000000000E+00 -0.3202258566720E-02
 0.5008617189289E-02 -0.5168151010608E-02  0.0000000000000E+00 -0.2960463958829E-02
 0.5805091597934E-02 -0.5515542237787E-02  0.0000000000000E+00 -0.2754020925007E-02
 0.6602908391390E-02 -0.5867799603467E-02  0.0000000000000E+00 -0.2591210207342E-02
 0.7379612065436E-02 -0.6210665765151E-02  0.0000000000000E+00 -0.2475743262875E-02
 0.8113110475280E-02 -0.6530283372398E-02  0.0000000000000E+00 -0.2406110114956E-02
 0.8783168184517E-02 -0.6814411598161E-02  0.0000000000000E+00 -0.2375740939593E-02
 0.5970017969195E-04 -0.4305723040444E-02  0.0000000000000E+00 -0.1877711003193E-02
 0.1724911784237E-03 -0.4378293420677E-02  0.0000000000000E+00 -0.2166685545870E-02
 0.2729753067014E-03 -0.4445204060559E-02  0.0000000000000E+00 -0.2448884294703E-02
 0.3605476488400E-03 -0.4505838775857E-02  0.0000000000000E+00 -0.2717396565388E-02
 0.4349007974816E-03 -0.4559721889020E-02  0.0000000000000E+00 -0.2967811165684E-02
 0.4958594305342E-03 -0.4606387498888E-02  0.0000000000000E+00 -0.3197991143845E-02
 0.5432846913413E-03 -0.4645307261002E-02  0.0000000000000E+00 -0.3407685574045E-02
 0.5770445465343E-03 -0.4675871456563E-02  0.0000000000000E+00 -0.3598064910452E-02
 0.5970329199503E-03 -0.4697407237186E-02  0.0000000000000E+00 -0.3771253251296E-02
 0.6032170772456E-03 -0.4709215991337E-02  0.0000000000000E+00 -0.3929902730687E-02
 0.5956975907710E-03 -0.4710616795818E-02  0.0000000000000E+00 -0.4076830381760E-02
 0.5747726635971E-03 -0.4700989969465E-02  0.0000000000000E+00 -0.4214719268931E-02
 0.5410046354370E-03 -0.4679820545223E-02  0.0000000000000E+00 -0.4345879114404E-02
 0.4952902845435E-03 -0.4646744713604E-02  0.0000000000000E+00 -0.4472057115770E-02
 0.4389399512786E-03 -0.4601605252173E-02  0.0000000000000E+00 -0.4594287677035E-02
 0.3737601285763E-03 -0.4544513937671E-02  0.0000000000000E+00 -0.4712792814000E-02
 0.3021433454165E-03 -0.4475924892733E-02  0.0000000000000E+00 -0.4826922312318E-02
 0.2271606320090E-03 -0.4396717643106E-02  0.0000000000000E+00 -0.4935133251240E-02
 0.1526407931978E-03 -0.4308277674105E-02  0.0000000000000E+00 -0.5035028471156E-02
 0.8323004264937E-04 -0.4212549705953E-02  0.0000000000000E+00 -0.5123467012210E-02
 0.2441733947733E-04 -0.4112013885462E-02  0.0000000000000E+00 -0.5196841528596E-02
-0.1746308937994E-04 -0.4009822727198E-02  0.0000000000000E+00 -0.5251237679165E-02
-0.3531185699446E-04 -0.3909983788810E-02  0.0000000000000E+00 -0.5282403507000E-02
-0.2141948848572E-04 -0.3817314304396E-02  0.0000000000000E+00 -0.5285828040571E-02
 0.3233578602890E-04 -0.3737272582645E-02  0.0000000000000E+00 -0.5256993264113E-02
 0.1342534422458E-03 -0.3675771199959E-02  0.0000000000000E+00 -0.5191731570966E-02
 0.2925210731721E-03 -0.3638977937160E-02  0.0000000000000E+00 -0.5086658129352E-02
 0.5148471378770E-03 -0.3633073659389E-02  0.0000000000000E+00 -0.4939669895472E-02
 0.8079934501128E-03 -0.3663936196892E-02  0.0000000000000E+00 -0.4750496812749E-02
 0.1177195688790E-02 -0.3736729633537E-02  0.0000000000000E+00 -0.4521260492363E-02
 0.1625546531479E-02 -0.3855418994526E-02  0.0000000000000E+00 -0.4256930871441E-02
 0.2153500805102E-02 -0.4022290597639E-02  0.0000000000000E+00 -0.3965571392976E-02
 0.2758323258828E-02 -0.4237455845749E-02  0.0000000000000E+00 -0.3658350516629E-02
 0.3433429760566E-02 -0.4498329642220E-02  0.0000000000000E+00 -0.3349145663343E-02
 0.4167988894094E-02 -0.4799266790566E-02  0.0000000000000E+00 -0.3053538681300E-02
 0.4946873942294E-02 -0.5131461709626E-02  0.0000000000000E+00 -0.2787267809981E-02
 0.5751069586094E-02 -0.5483214175855E-02  0.0000000000000E+00 -0.2564298275795E-02
 0.6558613646148E-02 -0.5840630257426E-02  0.0000000000000E+00 -0.2394817113825E-02
 0.7345996891635E-02 -0.6188715471009E-02  0.0000000000000E+00 -0.2283584067275E-02
 0.8089879307859E-02 -0.6512733116555E-02  0.0000000000000E+00 -0.2229047808258E-02
 0.8768769161110E-02 -0.6799561457018E-02  0.0000000000000E+00 -0.2223467081365E-02
 0.5994866033751E-04 -0.4145385206096E-02  0.0000000000000E+00 -0.1832278232335E-02
 0.1724477952491E-03 -0.4218207830312E-02  0.0000000000000E+00 -0.2123369201522E-02
 0.2714436461348E-03 -0.4285116977924E-02  0.0000000000000E+00 -0.2408119292903E-02
 0.3567736646768E-03 -0.4345821383254E-02  0.0000000000000E+00 -0.2679513786225E-02
 0.4285464794029E-03 -0.4400141455610E-02  0.0000000000000E+00 -0.2933149011794E-02
 0.4869417280501E-03 -0.4447852960291E-02  0.0000000000000E+00 -0.3166964513753E-02
 0.5320953694317E-03 -0.4488602669191E-02  0.0000000000000E+00 -0.3380810919278E-02
 0.5640658145692E-03 -0.4521889437872E-02  0.0000000000000E+00 -0.3575952190776E-02
 0.5828589971886E-03 -0.4547090163608E-02  0.0000000000000E+00 -0.3754579878028E-02
 0.5884865822012E-03 -0.4563507835464E-02  0.0000000000000E+00 -0.3919382138234E-02
 0.5810376462219E-03 -0.4570425217178E-02  0.0000000000000E+00 -0.4073182290122E-02
 0.5607534064331E-03 -0.4567156394281E-02  0.0000000000000E+00 -0.4218643132172E-02
 0.5281021506133E-03 -0.4553095680915E-02  0.0000000000000E+00 -0.4358028558031E-02
 0.4838562939254E-03 -0.4527767372623E-02  0.0000000000000E+00 -0.4493011515934E-02
 0.4291773295091E-03 -0.4490882879484E-02  0.0000000000000E+00 -0.4624516844491E-02
 0.3657044348499E-03 -0.4442405170311E-02  0.0000000000000E+00 -0.4752613325893E-02
 0.2956509526700E-03 -0.4382624266493E-02  0.0000000000000E+00 -0.4876445306474E-02
 0.2219042620033E-03 -0.4312242863291E-02  0.0000000000000E+00 -0.4994205549158E-02
 0.1481130769278E-03 -0.4232460820880E-02  0.0000000000000E+00 -0.5103171814966E-02
 0.7875541197622E-04 -0.4145031519242E-02  0.0000000000000E+00 -0.5199819715777E-02
 0.1917272090340E-04 -0.4052240166170E-02  0.0000000000000E+00 -0.5280110301895E-02
-0.2442453621535E-04 -0.3957053199364E-02  0.0000000000000E+00 -0.5339669621849E-02
-0.4503814613765E-04 -0.3863313759362E-02  0.0000000000000E+00 -0.5373768029568E-02
-0.3503196553140E-04 -0.3775696242298E-02  0.0000000000000E+00 -0.5377399994962E-02
 0.1368356871168E-04 -0.3699539154613E-02  0.0000000000000E+00 -0.5345543748644E-02
 0.1094359560398E-03 -0.3640668786590E-02  0.0000000000000E+00 -0.5273538871377E-02
 0.2605242570937E-03 -0.3605218927697E-02  0.0000000000000E+00 -0.5157554063248E-02
 0.4748766389787E-03 -0.3599412666820E-02  0.0000000000000E+00 -0.4995139282424E-02
 0.7596048987761E-03 -0.3629270697187E-02  0.0000000000000E+00 -0.4785849498468E-02
 0.1120437147340E-02 -0.3700219073666E-02  0.0000000000000E+00 -0.4531893979063E-02
 0.1561096480778E-02 -0.3816608728128E-02  0.0000000000000E+00 -0.4238691718429E-02
 0.2082778589480E-02 -0.3981219494881E-02  0.0000000000000E+00 -0.3915208215550E-02
 0.2683532154771E-02 -0.4194717726658E-02  0.0000000000000E+00 -0.3574042411976E-02
 0.3357489328722E-02 -0.4455054798575E-02  0.0000000000000E+00 -0.3231057812777E-02
 0.4094328496393E-02 -0.4756995336847E-02  0.0000000000000E+00 -0.2904302390307E-02
 0.4879081668218E-02 -0.5091899817827E-02  0.0000000000000E+00 -0.2612259078489E-02
 0.5692427474780E-02 -0.5447894817175E-02  0.0000000000000E+00 -0.2371585079926E-02
 0.6511594193848E-02 -0.5810536947860E-02  0.0000000000000E+00 -0.2194681383598E-02
 0.7311830674299E-02 -0.6163957377138E-02  0.0000000000000E+00 -0.2087614552219E-02
 0.8068305133987E-02 -0.6492361022566E-02  0.0000000000000E+00 -0.2048934308908E-02
 0.8758019846469E-02 -0.6781563502322E-02  0.0000000000000E+00 -0.2069740596707E-02
 0.6024000232162E-04 -0.3984053871550E-02  0.0000000000000E+00 -0.1786407893200E-02
 0.1725153476845E-03 -0.4057188472386E-02  0.0000000000000E+00 -0.2079654850502E-02
 0.2700710917816E-03 -0.4124161311246E-02  0.0000000000000E+00 -0.2366774880486E-02
 0.3532100652296E-03 -0.4185022419017E-02  0.0000000000000E+00 -0.2640663132965E-02
 0.4224729713233E-03 -0.4239898766493E-02  0.0000000000000E+00 -0.2896958203314E-02
 0.4784018798086E-03 -0.4288811525368E-02  0.0000000000000E+00 -0.3133722115983E-02
 0.5214077963535E-03 -0.4331581144960E-02  0.0000000000000E+00 -0.3350954395741E-02
 0.5517354262741E-03 -0.4367811110510E-02  0.0000000000000E+00 -0.3550054427037E-02
 0.5694970178020E-03 -0.4396924054382E-02  0.0000000000000E+00 -0.3733314849042E-02
 0.5747432611307E-03 -0.4418221926871E-02  0.0000000000000E+00 -0.3903485447327E-02
 0.5675473651912E-03 -0.4430950229664E-02  0.0000000000000E+00 -0.4063415332759E-02
 0.5480899349060E-03 -0.4434357033942E-02  0.0000000000000E+00 -0.4215762880364E-02
 0.5167415451431E-03 -0.4427746349123E-02  0.0000000000000E+00 -0.4362760491699E-02
 0.4741456320042E-03 -0.4410530096154E-02  0.0000000000000E+00 -0.4506021181597E-02
 0.4213084954500E-03 -0.4382285962615E-02  0.0000000000000E+00 -0.4646375206013E-02
 0.3596935062922E-03 -0.4342823202486E-02  0.0000000000000E+00 -0.4783753646805E-02
 0.2913241937746E-03 -0.4292259937434E-02  0.0000000000000E+00 -0.4917110872498E-02
 0.2188919270980E-03 -0.4231111320324E-02  0.0000000000000E+00 -0.5044389901488E-02
 0.1458519031294E-03 -0.4160378200422E-02  0.0000000000000E+00 -0.5162556350213E-02
 0.7650030159151E-04 -0.4081607166792E-02  0.0000000000000E+00 -0.5267712441403E-02
 0.1601865740095E-04 -0.3996873106450E-02  0.0000000000000E+00 -0.5355390973463E-02
-0.2951739915633E-04 -0.3908941913508E-02  0.0000000000000E+00 -0.5420756053684E-02
-0.5322198838392E-04 -0.3821476576162E-02  0.0000000000000E+00 -0.5458597817685E-02
-0.4754399688278E-04 -0.3738990062120E-02  0.0000000000000E+00 -0.5463412691059E-02
-0.4437198157403E-05 -0.3666679938228E-02  0.0000000000000E+00 -0.5429664850659E-02
 0.8444568224286E-04 -0.3610264240184E-02  0.0000000000000E+00 -0.5352176748818E-02
 0.2275132235382E-03 -0.3575822793147E-02  0.0000000000000E+00 -0.5226625548657E-02
 0.4329221606778E-03 -0.3569606818260E-02  0.0000000000000E+00 -0.5050143381059E-02
 0.7081593973396E-03 -0.3597776572550E-02  0.0000000000000E+00 -0.4822012010099E-02
 0.1059492659616E-02 -0.3666033145757E-02  0.0000000000000E+00 -0.4544406772359E-02
 0.1491349649112E-02 -0.3779147674949E-02  0.0000000000000E+00 -0.4223062786623E-02
 0.2005770597690E-02 -0.3940451666035E-02  0.0000000000000E+00 -0.3867724089083E-02
 0.2601718179585E-02 -0.4151248001614E-02  0.0000000000000E+00 -0.3492336312905E-02
 0.3274184818548E-02 -0.4410122384228E-02  0.0000000000000E+00 -0.3114742188909E-02
 0.4013493193417E-02 -0.4712346229637E-02  0.0000000000000E+00 -0.2755558461644E-02
 0.4804926181980E-02 -0.5049516613005E-02  0.0000000000000E+00 -0.2436239312882E-02
 0.5628869721541E-02 -0.5409601747306E-02  0.0000000000000E+00 -0.2176466518385E-02
 0.6461648754138E-02 -0.5777544060277E-02  0.0000000000000E+00 -0.1991233728409E-02
 0.7277066370108E-02 -0.6136451979123E-02  0.0000000000000E+00 -0.1888242099780E-02
 0.8048523742888E-02 -0.6469269437366E-02  0.0000000000000E+00 -0.1866323416878E-02
 0.8751238961430E-02 -0.6760546333196E-02  0.0000000000000E+00 -0.1915431152674E-02
 0.6055636051585E-04 -0.3821560373286E-02  0.0000000000000E+00 -0.1740063124828E-02
 0.1726395043504E-03 -0.3895045570164E-02  0.0000000000000E+00 -0.2035500989062E-02
 0.2687679266694E-03 -0.3962128604311E-02  0.0000000000000E+00 -0.2324791831197E-02
 0.3497368732190E-03 -0.4023219756558E-02  0.0000000000000E+00 -0.2600758231552E-02
 0.4165376685243E-03 -0.4078764231910E-02  0.0000000000000E+00 -0.2859120987221E-02
 0.4700828768124E-03 -0.4129031986528E-02  0.0000000000000E+00 -0.3098115146994E-02
 0.5110578930135E-03 -0.4174014278044E-02  0.0000000000000E+00 -0.3317939026952E-02
 0.5398879764209E-03 -0.4213413500340E-02  0.0000000000000E+00 -0.3520169712036E-02
 0.5567843885659E-03 -0.4246692474943E-02  0.0000000000000E+00 -0.3707233424669E-02
 0.5618302583662E-03 -0.4273148495189E-02  0.0000000000000E+00 -0.3881965472212E-02
 0.5550778817426E-03 -0.4291988510419E-02  0.0000000000000E+00 -0.4047258772473E-02
 0.5366434632463E-03 -0.4302395032602E-02  0.0000000000000E+00 -0.4205782331344E-02
 0.5067964348913E-03 -0.4303582868482E-02  0.0000000000000E+00 -0.4359751512699E-02
 0.4660471035420E-03 -0.4294852073233E-02  0.0000000000000E+00 -0.4510734740144E-02
 0.4152407656368E-03 -0.4275645388650E-02  0.0000000000000E+00 -0.4659484475802E-02
 0.3556569587206E-03 -0.4245614578003E-02  0.0000000000000E+00 -0.4805812004344E-02
 0.2891190737686E-03 -0.4204699083995E-02  0.0000000000000E+00 -0.4948499857221E-02
 0.2181102233748E-03 -0.4153216647818E-02  0.0000000000000E+00 -0.5085258639396E-02
 0.1458786009128E-03 -0.4091956361945E-02  0.0000000000000E+00 -0.5212757458150E-02
 0.7652470705299E-04 -0.4022242987819E-02  0.0000000000000E+00 -0.5326737760595E-02
 0.1505743515873E-04 -0.3945925899684E-02  0.0000000000000E+00 -0.5422309698099E-02
-0.3259389691382E-04 -0.3865555998855E-02  0.0000000000000E+00 -0.5494175176920E-02
-0.5966767056792E-04 -0.3784600144333E-02  0.0000000000000E+00 -0.5536643990766E-02
-0.5871101956390E-04 -0.3707390448843E-02  0.0000000000000E+00 -0.5543713778441E-02
-0.2173483872497E-04 -0.3638960567177E-02  0.0000000000000E+00 -0.5509326900160E-02
 0.5961560941131E-04 -0.3584895128668E-02  0.0000000000000E+00 -0.5427765839215E-02
 0.1938509107417E-03 -0.3551195260805E-02  0.0000000000000E+00 -0.5294170474939E-02
 0.3893583706364E-03 -0.3544119878182E-02  0.0000000000000E+00 -0.5105180135203E-02
 0.6540176520339E-03 -0.3569957944436E-02  0.0000000000000E+00 -0.4859696086087E-02
 0.9946765475395E-03 -0.3634690845959E-02  0.0000000000000E+00 -0.4559722942957E-02
 0.1416537620896E-02 -0.3743537783459E-02  0.0000000000000E+00 -0.4211157285900E-02
 0.1922590821660E-02 -0.3900437141934E-02  0.0000000000000E+00 -0.3824371143764E-02
 0.2512852594638E-02 -0.4107412982434E-02  0.0000000000000E+00 -0.3414544902840E-02
 0.3183339237713E-02 -0.4363794158075E-02  0.0000000000000E+00 -0.3001472269710E-02
 0.3925180721866E-02 -0.4665474462939E-02  0.0000000000000E+00 -0.2608437003439E-02
 0.4724035580081E-02 -0.5004381172897E-02  0.0000000000000E+00 -0.2260113628573E-02
 0.5560038241093E-02 -0.5368359918912E-02  0.0000000000000E+00 -0.1979596379759E-02
 0.6408527046875E-02 -0.5741683379539E-02  0.0000000000000E+00 -0.1784933923765E-02
 0.7241637661388E-02 -0.6106276798347E-02  0.0000000000000E+00 -0.1685877983914E-02
 0.8030687041364E-02 -0.6443589445704E-02  0.0000000000000E+00 -0.1681772877106E-02
 0.8748794905210E-02 -0.6736675401709E-02  0.0000000000000E+00 -0.1761427536304E-02
 0.6087864559987E-04 -0.3657729312378E-02  0.0000000000000E+00 -0.1693219918328E-02
 0.1727622434471E-03 -0.3731581279841E-02  0.0000000000000E+00 -0.1990877763762E-02
 0.2674387426024E-03 -0.3798801490916E-02  0.0000000000000E+00 -0.2282119364018E-02
 0.3462273318928E-03 -0.3860182261519E-02  0.0000000000000E+00 -0.2559716807838E-02
 0.4105910490947E-03 -0.3916499801961E-02  0.0000000000000E+00 -0.2819519470708E-02
 0.4618212823700E-03 -0.3968275502169E-02  0.0000000000000E+00 -0.3059991509165E-02
 0.5008758173510E-03 -0.4015666705834E-02  0.0000000000000E+00 -0.3281582871504E-02
 0.5283527687492E-03 -0.4058466915164E-02  0.0000000000000E+00 -0.3486090848435E-02
 0.5445533182426E-03 -0.4096171942720E-02  0.0000000000000E+00 -0.3676106145059E-02
 0.5495852232568E-03 -0.4128069871490E-02  0.0000000000000E+00 -0.3854571225020E-02
 0.5434742561705E-03 -0.4153327609884E-02  0.0000000000000E+00 -0.4024438823496E-02
 0.5262684403713E-03 -0.4171062990464E-02  0.0000000000000E+00 -0.4188402420588E-02
 0.4981330542840E-03 -0.4180403608763E-02  0.0000000000000E+00 -0.4348674599196E-02
 0.4594417724544E-03 -0.4180539350172E-02  0.0000000000000E+00 -0.4506795358035E-02
 0.4108737699383E-03 -0.4170778106048E-02  0.0000000000000E+00 -0.4663457873873E-02
 0.3535173084847E-03 -0.4150611670521E-02  0.0000000000000E+00 -0.4818373927243E-02
 0.2889856945822E-03 -0.4119795186330E-02  0.0000000000000E+00 -0.4970175132963E-02
 0.2195416886957E-03 -0.4078440067832E-02  0.0000000000000E+00 -0.5116359919269E-02
 0.1482129562486E-03 -0.4027111637536E-02  0.0000000000000E+00 -0.5253319390109E-02
 0.7889029147606E-04 -0.3966898291861E-02  0.0000000000000E+00 -0.5376449603539E-02
 0.1639695626143E-04 -0.3899408972467E-02  0.0000000000000E+00 -0.5480446151926E-02
-0.3349588450893E-04 -0.3826965247582E-02  0.0000000000000E+00 -0.5559550843937E-02
-0.6416350682764E-04 -0.3752821735413E-02  0.0000000000000E+00 -0.5607595876159E-02
-0.6826601356014E-04 -0.3681109526751E-02  0.0000000000000E+00 -0.5618082836271E-02
-0.3788795433274E-04 -0.3616673592686E-02  0.0000000000000E+00 -0.5584428102406E-02
 0.3531622421210E-04 -0.3564936732842E-02  0.0000000000000E+00 -0.5500354218506E-02
 0.1599455041035E-03 -0.3531791582989E-02  0.0000000000000E+00 -0.5360419029061E-02
 0.3446120083824E-03 -0.3523477339290E-02  0.0000000000000E+00 -0.5160691705021E-02
 0.5975970040574E-03 -0.3546392191747E-02  0.0000000000000E+00 -0.4899578130339E-02
 0.9263603146162E-03 -0.3606793731292E-02  0.0000000000000E+00 -0.4578760728705E-02
 0.1336943737171E-02 -0.3710368708057E-02  0.0000000000000E+00 -0.4204119893684E-02
 0.1833391965117E-02 -0.3861712680264E-02  0.0000000000000E+00 -0.3786474263918E-02
 0.2416924217659E-02 -0.4063657283646E-02  0.0000000000000E+00 -0.3342092223600E-02
 0.3084765544242E-02 -0.4316394499882E-02  0.0000000000000E+00 -0.2892660093775E-02
 0.3829049213631E-02 -0.4616577055880E-02  0.0000000000000E+00 -0.2464213893225E-02
 0.4635974188398E-02 -0.4956583692110E-02  0.0000000000000E+00 -0.2084914817335E-02
 0.5485501587909E-02 -0.5324200564822E-02  0.0000000000000E+00 -0.1781714559825E-02
 0.6351918287330E-02 -0.5702990587555E-02  0.0000000000000E+00 -0.1576276581603E-02
 0.7205452160712E-02 -0.6073524178694E-02  0.0000000000000E+00 -0.1480933612324E-02
 0.8014961498077E-02 -0.6415480845069E-02  0.0000000000000E+00 -0.1495841527393E-02
 0.8751104393663E-02 -0.6710152228324E-02  0.0000000000000E+00 -0.1608638028137E-02
 0.6118633968327E-04 -0.3492377858054E-02  0.0000000000000E+00 -0.1645868049342E-02
 0.1728213000931E-03 -0.3566588831265E-02  0.0000000000000E+00 -0.1945767632350E-02
 0.2659816223123E-03 -0.3633952811359E-02  0.0000000000000E+00 -0.2238715239178E-02
 0.3425470532031E-03 -0.3695669087077E-02  0.0000000000000E+00 -0.2517460197222E-02
 0.4044760065346E-03 -0.3752858596940E-02  0.0000000000000E+00 -0.2778034795296E-02
 0.4534468623449E-03 -0.3806295607460E-02  0.0000000000000E+00 -0.3019195014594E-02
 0.4906858871144E-03 -0.3856296444182E-02  0.0000000000000E+00 -0.3241698562268E-02
 0.5169539478854E-03 -0.3902735475722E-02  0.0000000000000E+00 -0.3447605379786E-02
 0.5326310459585E-03 -0.3945132525692E-02  0.0000000000000E+00 -0.3639699363291E-02
 0.5378405251729E-03 -0.3982761034711E-02  0.0000000000000E+00 -0.3821048864259E-02
 0.5325755827709E-03 -0.4014746345884E-02  0.0000000000000E+00 -0.3994679881303E-02
 0.5168124751374E-03 -0.4040143122517E-02  0.0000000000000E+00 -0.4163322560853E-02
 0.4906099425280E-03 -0.4057994846129E-02  0.0000000000000E+00 -0.4329200442295E-02
 0.4542023724016E-03 -0.4067384330043E-02  0.0000000000000E+00 -0.4493841885290E-02
 0.4080985710682E-03 -0.4067486234948E-02  0.0000000000000E+00 -0.4657900924457E-02
 0.3531888053028E-03 -0.4057631392128E-02  0.0000000000000E+00 -0.4821012548087E-02
 0.2908668205891E-03 -0.4037386340166E-02  0.0000000000000E+00 -0.4981681270916E-02
 0.2231631292722E-03 -0.4006648332799E-02  0.0000000000000E+00 -0.5137216649540E-02
 0.1528713343217E-03 -0.3965747747983E-02  0.0000000000000E+00 -0.5283753339687E-02
 0.8365834946908E-04 -0.3915522678573E-02  0.0000000000000E+00 -0.5416360367876E-02
 0.2014861008290E-04 -0.3857327085940E-02  0.0000000000000E+00 -0.5529329561299E-02
-0.3205697633274E-04 -0.3793239089461E-02  0.0000000000000E+00 -0.5616447380976E-02
-0.6648381075847E-04 -0.3726284965041E-02  0.0000000000000E+00 -0.5671074503829E-02
-0.7592111495730E-04 -0.3660374027115E-02  0.0000000000000E+00 -0.5686223439369E-02
-0.5254639281893E-04 -0.3600136108049E-02  0.0000000000000E+00 -0.5654785138330E-02
 0.1195555573130E-04 -0.3550800496800E-02  0.0000000000000E+00 -0.5569906627304E-02
 0.1262519396381E-03 -0.3518116295574E-02  0.0000000000000E+00 -0.5425521865297E-02
 0.2991653217664E-03 -0.3508268063948E-02  0.0000000000000E+00 -0.5217052277974E-02
 0.5393771909557E-03 -0.3527734063898E-02  0.0000000000000E+00 -0.4942287889014E-02
 0.8549808558805E-03 -0.3583032950601E-02  0.0000000000000E+00 -0.4602423911214E-02
 0.1252913366709E-02 -0.3680327833614E-02  0.0000000000000E+00 -0.4203123161381E-02
 0.1738376652113E-02 -0.3824914243005E-02  0.0000000000000E+00 -0.3755434917095E-02
 0.2313949643462E-02 -0.4020517452898E-02  0.0000000000000E+00 -0.3276526586683E-02
 0.2978273411557E-02 -0.4268323242685E-02  0.0000000000000E+00 -0.2789878196505E-02
 0.3724718116035E-02 -0.4565902898396E-02  0.0000000000000E+00 -0.2324339262994E-02
 0.4540236136135E-02 -0.4906240416935E-02  0.0000000000000E+00 -0.1911833349518E-02
 0.5404741724625E-02 -0.5277160159350E-02  0.0000000000000E+00 -0.1583670924864E-02
 0.6291435779286E-02 -0.5661499810286E-02  0.0000000000000E+00 -0.1365800229695E-02
 0.7168382314485E-02 -0.6038296942721E-02  0.0000000000000E+00 -0.1273814529031E-02
 0.8001527253450E-02 -0.6385131653210E-02  0.0000000000000E+00 -0.1309084569059E-02
 0.8758629122134E-02 -0.6681212197119E-02  0.0000000000000E+00 -0.1457992543404E-02
 0.6145727464624E-04 -0.3325314952025E-02  0.0000000000000E+00 -0.1598012141250E-02
 0.1727495102870E-03 -0.3399851548634E-02  0.0000000000000E+00 -0.1900166073179E-02
 0.2642871926989E-03 -0.3467344628453E-02  0.0000000000000E+00 -0.2194545738243E-02
 0.3385530721410E-03 -0.3529428934194E-02  0.0000000000000E+00 -0.2473912586499E-02
 0.3980271615271E-03 -0.3587584588110E-02  0.0000000000000E+00 -0.2734545976028E-02
 0.4447822675787E-03 -0.3642838347072E-02  0.0000000000000E+00 -0.2975564285928E-02
 0.4803066009934E-03 -0.3695655377571E-02  0.0000000000000E+00 -0.3198092638780E-02
 0.5055107435008E-03 -0.3745977810189E-02  0.0000000000000E+00 -0.3404495529370E-02
 0.5208401720072E-03 -0.3793338587617E-02  0.0000000000000E+00 -0.3597775791154E-02
 0.5264235486722E-03 -0.3836990279211E-02  0.0000000000000E+00 -0.3781142743421E-02
 0.5222151505006E-03 -0.3876015291163E-02  0.0000000000000E+00 -0.3957705926000E-02
 0.5081162849131E-03 -0.3909407481892E-02  0.0000000000000E+00 -0.4130242239692E-02
 0.4840776212469E-03 -0.3936130651041E-02  0.0000000000000E+00 -0.4300999072243E-02
 0.4501926742478E-03 -0.3955165267617E-02  0.0000000000000E+00 -0.4471510339315E-02
 0.4067967046672E-03 -0.3965556130251E-02  0.0000000000000E+00 -0.4642412623366E-02
 0.3545761496254E-03 -0.3966473808284E-02  0.0000000000000E+00 -0.4813289286509E-02
 0.2946962947031E-03 -0.3957293429502E-02  0.0000000000000E+00 -0.4982544589294E-02
 0.2289437650830E-03 -0.3937691479622E-02  0.0000000000000E+00 -0.5147325772545E-02
 0.1598645899319E-03 -0.3907753175460E-02  0.0000000000000E+00 -0.5303535838044E-02
 0.9088752753991E-04 -0.3868053079819E-02  0.0000000000000E+00 -0.5445938304293E-02
 0.2642486822721E-04 -0.3819676114477E-02  0.0000000000000E+00 -0.5568434941556E-02
-0.2810497890302E-04 -0.3764443197303E-02  0.0000000000000E+00 -0.5664364524482E-02
-0.6639120808044E-04 -0.3705136352710E-02  0.0000000000000E+00 -0.5726626072967E-02
-0.8136959288768E-04 -0.3645421988568E-02  0.0000000000000E+00 -0.5747754993926E-02
-0.6533258762265E-04 -0.3589686862395E-02  0.0000000000000E+00 -0.5720123247126E-02
-0.1002112014292E-04 -0.3542931946300E-02  0.0000000000000E+00 -0.5636292780436E-02
 0.9327316449920E-04 -0.3510722476439E-02  0.0000000000000E+00 -0.5489536840980E-02
 0.2535594679803E-03 -0.3499145558610E-02  0.0000000000000E+00 -0.5274553831137E-02
 0.4799064354918E-03 -0.3514719718982E-02  0.0000000000000E+00 -0.4988394463414E-02
 0.7810495352029E-03 -0.3564196698817E-02  0.0000000000000E+00 -0.4631590101857E-02
 0.1164865721078E-02 -0.3654211428553E-02  0.0000000000000E+00 -0.4209360866622E-02
 0.1637810853337E-02 -0.3790791428153E-02  0.0000000000000E+00 -0.3732732715986E-02
 0.2203986111094E-02 -0.3978638312431E-02  0.0000000000000E+00 -0.3219532907048E-02
 0.2863678539995E-02 -0.4220071655820E-02  0.0000000000000E+00 -0.2694883408790E-02
 0.3611770877567E-02 -0.4513765695569E-02  0.0000000000000E+00 -0.2190470522781E-02
 0.4436239199048E-02 -0.4853501129289E-02  0.0000000000000E+00 -0.1742254504309E-02
 0.5317138472910E-02 -0.5227280323541E-02  0.0000000000000E+00 -0.1386458382768E-02
 0.6226596082692E-02 -0.5617235676988E-02  0.0000000000000E+00 -0.1154103325461E-02
 0.7130252100044E-02 -0.6000699625000E-02  0.0000000000000E+00 -0.1064911617583E-02
 0.7990579182623E-02 -0.6352756080072E-02  0.0000000000000E+00 -0.1122043277912E-02
 0.8771868614695E-02 -0.6650119244511E-02  0.0000000000000E+00 -0.1310447755741E-02
 0.6166736259005E-04 -0.3156340379627E-02  0.0000000000000E+00 -0.1549672879431E-02
 0.1724740205438E-03 -0.3231141708469E-02  0.0000000000000E+00 -0.1854082335882E-02
 0.2622375142989E-03 -0.3298727105608E-02  0.0000000000000E+00 -0.2149585477864E-02
 0.3340927861369E-03 -0.3361199255843E-02  0.0000000000000E+00 -0.2428999909244E-02
 0.3910701531303E-03 -0.3420412327429E-02  0.0000000000000E+00 -0.2688928328421E-02
 0.4356427855043E-03 -0.3477642539903E-02  0.0000000000000E+00 -0.2928931303576E-02
 0.4695507814082E-03 -0.3533489918537E-02  0.0000000000000E+00 -0.3150564654113E-02
 0.4938378484424E-03 -0.3587947915036E-02  0.0000000000000E+00 -0.3356538050579E-02
 0.5089991085562E-03 -0.3640549674819E-02  0.0000000000000E+00 -0.3550095071760E-02
 0.5151570827851E-03 -0.3690519992656E-02  0.0000000000000E+00 -0.3734596576818E-02
 0.5122206686783E-03 -0.3736897340817E-02  0.0000000000000E+00 -0.3913242117721E-02
 0.5000136788706E-03 -0.3778618233358E-02  0.0000000000000E+00 -0.4088862876916E-02
 0.4783782740339E-03 -0.3814572793646E-02  0.0000000000000E+00 -0.4263741807870E-02
 0.4472668189628E-03 -0.3843645742986E-02  0.0000000000000E+00 -0.4439435766519E-02
 0.4068391454334E-03 -0.3864757377687E-02  0.0000000000000E+00 -0.4616587022305E-02
 0.3575730963228E-03 -0.3876920635353E-02  0.0000000000000E+00 -0.4794754968489E-02
 0.3003973033327E-03 -0.3879318130390E-02  0.0000000000000E+00 -0.4972273637159E-02
 0.2368431895355E-03 -0.3871400365062E-02  0.0000000000000E+00 -0.5146157966096E-02
 0.1691957585214E-03 -0.3852998270146E-02  0.0000000000000E+00 -0.5312107540791E-02
 0.1006312898551E-03 -0.3824410489679E-02  0.0000000000000E+00 -0.5464605252289E-02
 0.3533658621468E-04 -0.3786439465362E-02  0.0000000000000E+00 -0.5597179625075E-02
-0.2146465881281E-04 -0.3740635682860E-02  0.0000000000000E+00 -0.5702732556567E-02
-0.6363932825704E-04 -0.3689521415342E-02  0.0000000000000E+00 -0.5773715484141E-02
-0.8428824762302E-04 -0.3636498927407E-02  0.0000000000000E+00 -0.5802204440946E-02
-0.7584335055244E-04 -0.3585682776882E-02  0.0000000000000E+00 -0.5780065884302E-02
-0.3013203426933E-04 -0.3541807953115E-02  0.0000000000000E+00 -0.5699274828488E-02
 0.6156099909221E-04 -0.3510210337811E-02  0.0000000000000E+00 -0.5552414319648E-02
 0.2083976946184E-03 -0.3496828671600E-02  0.0000000000000E+00 -0.5333389721176E-02
 0.4198076782752E-03 -0.3508170453856E-02  0.0000000000000E+00 -0.5038389339838E-02
 0.7051620046603E-03 -0.3551177887691E-02  0.0000000000000E+00 -0.4667095368570E-02
 0.1073307228651E-02 -0.3632936826284E-02  0.0000000000000E+00 -0.4224037499324E-02
 0.1532039764970E-02 -0.3760223957622E-02  0.0000000000000E+00 -0.3719923778062E-02
 0.2087147502289E-02 -0.3938792379230E-02  0.0000000000000E+00 -0.3172943640748E-02
 0.2740815188109E-02 -0.4172242209461E-02  0.0000000000000E+00 -0.2609642116813E-02
 0.3489760075363E-02 -0.4460560799727E-02  0.0000000000000E+00 -0.2064510116301E-02
 0.4323319694716E-02 -0.4798560181066E-02  0.0000000000000E+00 -0.1577803154955E-02
 0.5221952450388E-02 -0.5174610506474E-02  0.0000000000000E+00 -0.1191257789967E-02
 0.6156791098412E-02 -0.5570203373205E-02  0.0000000000000E+00 -0.9418740996798E-03
 0.7090814999904E-02 -0.5960820886726E-02  0.0000000000000E+00 -0.8545916941171E-03
 0.7982331294709E-02 -0.6318586809052E-02  0.0000000000000E+00 -0.9352201100314E-03
 0.8791347056723E-02 -0.6617152997379E-02  0.0000000000000E+00 -0.1166994159799E-02
 0.6179025908023E-04 -0.2985243664255E-02  0.0000000000000E+00 -0.1500888412430E-02
 0.1719153220004E-03 -0.3060219192265E-02  0.0000000000000E+00 -0.1807540227010E-02
 0.2597047632992E-03 -0.3127837217925E-02  0.0000000000000E+00 -0.2103817000838E-02
 0.3290027554347E-03 -0.3190705402533E-02  0.0000000000000E+00 -0.2382648305152E-02
 0.3834209140479E-03 -0.3251066754681E-02  0.0000000000000E+00 -0.2641051399413E-02
 0.4258361863354E-03 -0.3310440222071E-02  0.0000000000000E+00 -0.2879119555143E-02
 0.4582258700270E-03 -0.3369541883918E-02  0.0000000000000E+00 -0.3098906053634E-02
 0.4817459582534E-03 -0.3428396223298E-02  0.0000000000000E+00 -0.3303504011622E-02
 0.4969226719092E-03 -0.3486521578696E-02  0.0000000000000E+00 -0.3496414410787E-02
 0.5038598221977E-03 -0.3543107574971E-02  0.0000000000000E+00 -0.3681154754191E-02
 0.5024145742309E-03 -0.3597148390455E-02  0.0000000000000E+00 -0.3861016613807E-02
 0.4923315925403E-03 -0.3647528009600E-02  0.0000000000000E+00 -0.4038889973130E-02
 0.4733454440513E-03 -0.3693070700581E-02  0.0000000000000E+00 -0.4217103566066E-02
 0.4452686299516E-03 -0.3732574146766E-02  0.0000000000000E+00 -0.4397254526768E-02
 0.4080852091685E-03 -0.3764841751824E-02  0.0000000000000E+00 -0.4580015282863E-02
 0.3620609492682E-03 -0.3788733643312E-02  0.0000000000000E+00 -0.4764951438937E-02
 0.3078804895692E-03 -0.3803240761004E-02  0.0000000000000E+00 -0.4950360171362E-02
 0.2468091384490E-03 -0.3807583990559E-02  0.0000000000000E+00 -0.5133157819443E-02
 0.1808575193509E-03 -0.3801332092880E-02  0.0000000000000E+00 -0.5308872457681E-02
 0.1129351171140E-03 -0.3784496379223E-02  0.0000000000000E+00 -0.5471734774985E-02
 0.4698999465336E-04 -0.3757584130901E-02  0.0000000000000E+00 -0.5614920127372E-02
-0.1196087038702E-04 -0.3721862867619E-02  0.0000000000000E+00 -0.5730907690858E-02
-0.5797591036555E-04 -0.3679580268289E-02  0.0000000000000E+00 -0.5811719993756E-02
-0.8434028157606E-04 -0.3633853433641E-02  0.0000000000000E+00 -0.5848997891148E-02
-0.8365219476181E-04 -0.3588494790569E-02  0.0000000000000E+00 -0.5834124021448E-02
-0.4786024686571E-04 -0.3547933230163E-02  0.0000000000000E+00 -0.5758494022266E-02
 0.3171644808619E-04 -0.3517224981320E-02  0.0000000000000E+00 -0.5613981037597E-02
 0.1643481112427E-03 -0.3502101482018E-02  0.0000000000000E+00 -0.5393635975545E-02
 0.3597847564845E-03 -0.3508995849413E-02  0.0000000000000E+00 -0.5092666097811E-02
 0.6280086264307E-03 -0.3544981764837E-02  0.0000000000000E+00 -0.4709714566596E-02
 0.9788464871302E-03 -0.3617555474638E-02  0.0000000000000E+00 -0.4248352927455E-02
 0.1421506438323E-02 -0.3734240294051E-02  0.0000000000000E+00 -0.3718634715791E-02
 0.1963624100409E-02 -0.3901902785786E-02  0.0000000000000E+00 -0.3138747271453E-02
 0.2609552836541E-02 -0.4125572869307E-02  0.0000000000000E+00 -0.2536356376866E-02
 0.3358215942242E-02 -0.4406786954655E-02  0.0000000000000E+00 -0.1948648267238E-02
 0.4200729146155E-02 -0.4741672025253E-02  0.0000000000000E+00 -0.1420396726089E-02
 0.5118308815146E-02 -0.5119215864232E-02  0.0000000000000E+00 -0.9994947685081E-03
 0.6081253398337E-02 -0.5520381798546E-02  0.0000000000000E+00 -0.7299463637301E-03
 0.7049713999357E-02 -0.5918700313905E-02  0.0000000000000E+00 -0.6432014734251E-03
 0.7977023268000E-02 -0.6282849348603E-02  0.0000000000000E+00 -0.7490245630871E-03
 0.8817589209159E-02 -0.6582570854589E-02  0.0000000000000E+00 -0.1028650612607E-02
 0.6179694340556E-04 -0.2811802720785E-02  0.0000000000000E+00 -0.1451715954822E-02
 0.1709860609494E-03 -0.2886829873574E-02  0.0000000000000E+00 -0.1760578895925E-02
 0.2565496571040E-03 -0.2954397240568E-02  0.0000000000000E+00 -0.2057230053162E-02
 0.3231073388314E-03 -0.3017659675815E-02  0.0000000000000E+00 -0.2334782002696E-02
 0.3748849417547E-03 -0.3079263083296E-02  0.0000000000000E+00 -0.2590776270179E-02
 0.4151626980921E-03 -0.3140957278964E-02  0.0000000000000E+00 -0.2825941710908E-02
 0.4461344113287E-03 -0.3203549587515E-02  0.0000000000000E+00 -0.3042898797628E-02
 0.4690424985705E-03 -0.3267070861839E-02  0.0000000000000E+00 -0.3245158510731E-02
 0.4844228333976E-03 -0.3331007539959E-02  0.0000000000000E+00 -0.3436489265795E-02
 0.4923469922046E-03 -0.3394506455776E-02  0.0000000000000E+00 -0.3620563796591E-02
 0.4926144317019E-03 -0.3456518080299E-02  0.0000000000000E+00 -0.3800762593687E-02
 0.4848901866814E-03 -0.3515880307011E-02  0.0000000000000E+00 -0.3980035534662E-02
 0.4688037646440E-03 -0.3571361422408E-02  0.0000000000000E+00 -0.4160765523033E-02
 0.4440309200033E-03 -0.3621683137417E-02  0.0000000000000E+00 -0.4344607003843E-02
 0.4103814039390E-03 -0.3665542095665E-02  0.0000000000000E+00 -0.4532288215934E-02
 0.3679069566781E-03 -0.3701652920904E-02  0.0000000000000E+00 -0.4723413693259E-02
 0.3170419213231E-03 -0.3728817933076E-02  0.0000000000000E+00 -0.4916280658174E-02
 0.2587750731465E-03 -0.3746026571399E-02  0.0000000000000E+00 -0.5107744518491E-02
 0.1948294346336E-03 -0.3752578951668E-02  0.0000000000000E+00 -0.5293197663631E-02
 0.1278334409541E-03 -0.3748188759524E-02  0.0000000000000E+00 -0.5466650738618E-02
 0.6148337879902E-04 -0.3733056343235E-02  0.0000000000000E+00 -0.5620949408874E-02
 0.5779487579627E-06 -0.3708154604660E-02  0.0000000000000E+00 -0.5748167783914E-02
-0.4914634402314E-04 -0.3675442712098E-02  0.0000000000000E+00 -0.5839923089816E-02
-0.8117868542995E-04 -0.3637732164968E-02  0.0000000000000E+00 -0.5887452319465E-02
-0.8831226489775E-04 -0.3598502987813E-02  0.0000000000000E+00 -0.5881685244167E-02
-0.6265566829500E-04 -0.3561835968659E-02  0.0000000000000E+00 -0.5813456748965E-02
 0.4389261780813E-05 -0.3532453162996E-02  0.0000000000000E+00 -0.5673922671330E-02
 0.1221457758278E-03 -0.3515812144660E-02  0.0000000000000E+00 -0.5455230308720E-02
 0.3006281957939E-03 -0.3518196016058E-02  0.0000000000000E+00 -0.5151496582548E-02
 0.5503851710214E-03 -0.3546733133065E-02  0.0000000000000E+00 -0.4760136784256E-02
 0.8822106051468E-03 -0.3609266579947E-02  0.0000000000000E+00 -0.4283481183050E-02
 0.1306773247830E-02 -0.3714038358053E-02  0.0000000000000E+00 -0.3730550829796E-02
 0.1833706652593E-02 -0.3869070060558E-02  0.0000000000000E+00 -0.3119092783943E-02
 0.2469817789775E-02 -0.4080966784329E-02  0.0000000000000E+00 -0.2477490016920E-02
 0.3216659435627E-02 -0.4353073899174E-02  0.0000000000000E+00 -0.1845410178437E-02
 0.4067633015487E-02 -0.4683172677980E-02  0.0000000000000E+00 -0.1272307867394E-02
 0.5005182876642E-02 -0.5061190352956E-02  0.0000000000000E+00 -0.8129042592124E-03
 0.5999025693410E-02 -0.5467732127930E-02  0.0000000000000E+00 -0.5193828969098E-03
 0.7006405626708E-02 -0.5874287453782E-02  0.0000000000000E+00 -0.4311469533340E-03
 0.7974919952995E-02 -0.6245669009231E-02  0.0000000000000E+00 -0.5636651991878E-03
 0.8851055735575E-02 -0.6546500155404E-02  0.0000000000000E+00 -0.8964072503051E-03
 0.6165517256898E-04 -0.2635782166764E-02  0.0000000000000E+00 -0.1402233625806E-02
 0.1695895634744E-03 -0.2710703725289E-02  0.0000000000000E+00 -0.1713253586910E-02
 0.2526195573911E-03 -0.2778112982910E-02  0.0000000000000E+00 -0.2009820494043E-02
 0.3162171291896E-03 -0.2841760313910E-02  0.0000000000000E+00 -0.2285320476629E-02
 0.3652565892429E-03 -0.2904706862068E-02  0.0000000000000E+00 -0.2537952119312E-02
 0.4034151602841E-03 -0.2968914380355E-02  0.0000000000000E+00 -0.2769196804647E-02
 0.4330747723318E-03 -0.3035249261504E-02  0.0000000000000E+00 -0.2982313768162E-02
 0.4555325769908E-03 -0.3103719197752E-02  0.0000000000000E+00 -0.3181260393782E-02
 0.4713096542054E-03 -0.3173759686797E-02  0.0000000000000E+00 -0.3370074167351E-02
 0.4804311178215E-03 -0.3244467302369E-02  0.0000000000000E+00 -0.3552574017998E-02
 0.4826334466657E-03 -0.3314750702793E-02  0.0000000000000E+00 -0.3732220547806E-02
 0.4775030334729E-03 -0.3383410025825E-02  0.0000000000000E+00 -0.3912020830077E-02
 0.4645687471737E-03 -0.3449169721624E-02  0.0000000000000E+00 -0.4094418189067E-02
 0.4433748148000E-03 -0.3510689180678E-02  0.0000000000000E+00 -0.4281140814779E-02
 0.4135602458482E-03 -0.3566571225417E-02  0.0000000000000E+00 -0.4472999389700E-02
 0.3749626133459E-03 -0.3615395094338E-02  0.0000000000000E+00 -0.4669672614768E-02
 0.3277609108682E-03 -0.3655780079933E-02  0.0000000000000E+00 -0.4869498381083E-02
 0.2726575662131E-03 -0.3686484408964E-02  0.0000000000000E+00 -0.5069313108793E-02
 0.2110749478436E-03 -0.3706534675659E-02  0.0000000000000E+00 -0.5264413542563E-02
 0.1453462936860E-03 -0.3715337924218E-02  0.0000000000000E+00 -0.5448626372131E-02
 0.7890342342548E-04 -0.3712776851814E-02  0.0000000000000E+00 -0.5614494555787E-02
 0.1631588810536E-04 -0.3699519160169E-02  0.0000000000000E+00 -0.5753708389148E-02
-0.3689767592827E-04 -0.3677222799924E-02  0.0000000000000E+00 -0.5857508608521E-02
-0.7445017896840E-04 -0.3648374212940E-02  0.0000000000000E+00 -0.5916767352208E-02
-0.8935993275139E-04 -0.3616090947849E-02  0.0000000000000E+00 -0.5922002702236E-02
-0.7393787069421E-04 -0.3584062504146E-02  0.0000000000000E+00 -0.5863520009634E-02
-0.1972339763279E-04 -0.3556618875251E-02  0.0000000000000E+00 -0.5731765156822E-02
 0.8259388680509E-04 -0.3538870394576E-02  0.0000000000000E+00 -0.5517948815417E-02
 0.2432203559238E-03 -0.3536862534922E-02  0.0000000000000E+00 -0.5215003258369E-02
 0.4732035565670E-03 -0.3557682702451E-02  0.0000000000000E+00 -0.4818935201598E-02
 0.7842628543787E-03 -0.3609430945356E-02  0.0000000000000E+00 -0.4330542121913E-02
 0.1188546543977E-02 -0.3701008223543E-02  0.0000000000000E+00 -0.3757396689408E-02
 0.1697815526989E-02 -0.3841603198355E-02  0.0000000000000E+00 -0.3116288333434E-02
 0.2321621499653E-02 -0.4039528358752E-02  0.0000000000000E+00 -0.2435792978434E-02
 0.3064620608230E-02 -0.4300217607674E-02  0.0000000000000E+00 -0.1757709179315E-02
 0.3923114938806E-02 -0.4623507353727E-02  0.0000000000000E+00 -0.1136233924454E-02
 0.4881381573187E-02 -0.5000678796310E-02  0.0000000000000E+00 -0.6336141457801E-03
 0.5908952237307E-02 -0.5412214750705E-02  0.0000000000000E+00 -0.3115368325179E-03
 0.6960081610573E-02 -0.5827477451605E-02  0.0000000000000E+00 -0.2191346210399E-03
 0.7976178494258E-02 -0.6206850575840E-02  0.0000000000000E+00 -0.3792454474038E-03
 0.8892048012136E-02 -0.6508363742919E-02  0.0000000000000E+00 -0.7706184941552E-03
 0.6132879710441E-04 -0.2456931053119E-02  0.0000000000000E+00 -0.1352542310566E-02
 0.1676180416720E-03 -0.2531552812402E-02  0.0000000000000E+00 -0.1665636261123E-02
 0.2477461705239E-03 -0.2598671574205E-02  0.0000000000000E+00 -0.1961588828209E-02
 0.3081271471732E-03 -0.2662690464861E-02  0.0000000000000E+00 -0.2234174541099E-02
 0.3543184345289E-03 -0.2727094290482E-02  0.0000000000000E+00 -0.2482411902122E-02
 0.3903794212346E-03 -0.2794028311079E-02  0.0000000000000E+00 -0.2708666849880E-02
 0.4188421586664E-03 -0.2864376879445E-02  0.0000000000000E+00 -0.2916908976689E-02
 0.4410201963535E-03 -0.2938089719270E-02  0.0000000000000E+00 -0.3111562018801E-02
 0.4573924245490E-03 -0.3014530735531E-02  0.0000000000000E+00 -0.3296923711515E-02
 0.4679229505646E-03 -0.3092739442356E-02  0.0000000000000E+00 -0.3476941417619E-02
 0.4722811067215E-03 -0.3171586302161E-02  0.0000000000000E+00 -0.3655140846251E-02
 0.4699774080461E-03 -0.3249844190820E-02  0.0000000000000E+00 -0.3834579496268E-02
 0.4604466470604E-03 -0.3326208324498E-02  0.0000000000000E+00 -0.4017764929035E-02
 0.4431091130066E-03 -0.3399292216785E-02  0.0000000000000E+00 -0.4206514572668E-02
 0.4174390533880E-03 -0.3467620901868E-02  0.0000000000000E+00 -0.4401748884476E-02
 0.3830618736887E-03 -0.3529651530598E-02  0.0000000000000E+00 -0.4603258414027E-02
 0.3398976792688E-03 -0.3583828878139E-02  0.0000000000000E+00 -0.4809466256807E-02
 0.2883534750585E-03 -0.3628682570893E-02  0.0000000000000E+00 -0.5017236436424E-02
 0.2295381213234E-03 -0.3662962620108E-02  0.0000000000000E+00 -0.5221814654792E-02
 0.1654756517289E-03 -0.3685761862564E-02  0.0000000000000E+00 -0.5416883889783E-02
 0.9932119993564E-04 -0.3696635811804E-02  0.0000000000000E+00 -0.5594714961787E-02
 0.3540525575066E-04 -0.3695937642804E-02  0.0000000000000E+00 -0.5746639238500E-02
-0.2098311001458E-04 -0.3685012871926E-02  0.0000000000000E+00 -0.5863555192622E-02
-0.6379974376097E-04 -0.3666004818220E-02  0.0000000000000E+00 -0.5936017277136E-02
-0.8631911736307E-04 -0.3641639268787E-02  0.0000000000000E+00 -0.5954184082734E-02
-0.8109979276555E-04 -0.3615170913502E-02  0.0000000000000E+00 -0.5907876547698E-02
-0.3987935988536E-04 -0.3590477561156E-02  0.0000000000000E+00 -0.5786854976233E-02
 0.4656380630108E-04 -0.3572243398887E-02  0.0000000000000E+00 -0.5581380470505E-02
 0.1885395533496E-03 -0.3566177628993E-02  0.0000000000000E+00 -0.5283127619942E-02
 0.3975022023486E-03 -0.3579211972986E-02  0.0000000000000E+00 -0.4886530731200E-02
 0.6860213526502E-03 -0.3619584404782E-02  0.0000000000000E+00 -0.4390564543673E-02
 0.1067704527477E-02 -0.3696756452561E-02  0.0000000000000E+00 -0.3800906918632E-02
 0.1556536034904E-02 -0.3821055294265E-02  0.0000000000000E+00 -0.3132791154280E-02
 0.2165096430908E-02 -0.4002606931394E-02  0.0000000000000E+00 -0.2414322533528E-02
 0.2901667099405E-02 -0.4249224682958E-02  0.0000000000000E+00 -0.1688902206429E-02
 0.3766179158014E-02 -0.4563267428748E-02  0.0000000000000E+00 -0.1015386198980E-02
 0.4745544218760E-02 -0.4937900411687E-02  0.0000000000000E+00 -0.4642118418185E-03
 0.5809621941065E-02 -0.5353837410601E-02  0.0000000000000E+00 -0.1081923981799E-03
 0.6909779204325E-02 -0.5778139126269E-02  0.0000000000000E+00 -0.8078899585512E-05
 0.7980721758381E-02 -0.6166366759679E-02  0.0000000000000E+00 -0.1975028815940E-03
 0.8938571638451E-02 -0.6463300978974E-02  0.0000000000000E+00 -0.6491906216708E-03
 0.6079580418532E-04 -0.2274967308783E-02  0.0000000000000E+00 -0.1302727677225E-02
 0.1649544950784E-03 -0.2348999096457E-02  0.0000000000000E+00 -0.1617774777671E-02
 0.2417428362171E-03 -0.2415624407860E-02  0.0000000000000E+00 -0.1912476827892E-02
 0.2986085641666E-03 -0.2479956524325E-02  0.0000000000000E+00 -0.2181162971565E-02
 0.3418274498826E-03 -0.2545907651857E-02  0.0000000000000E+00 -0.2423867465378E-02
 0.3758148206162E-03 -0.2615766703196E-02  0.0000000000000E+00 -0.2643988935691E-02
 0.4032037080547E-03 -0.2690385164125E-02  0.0000000000000E+00 -0.2846276709347E-02
 0.4252789490076E-03 -0.2769615344230E-02  0.0000000000000E+00 -0.3035629508661E-02
 0.4424477060495E-03 -0.2852728630484E-02  0.0000000000000E+00 -0.3216584574350E-02
 0.4545992362951E-03 -0.2938702756286E-02  0.0000000000000E+00 -0.3393190965439E-02
 0.4613335394777E-03 -0.3026376537393E-02  0.0000000000000E+00 -0.3569018731003E-02
 0.4620904610622E-03 -0.3114509263707E-02  0.0000000000000E+00 -0.3747165606750E-02
 0.4562199157170E-03 -0.3201784918820E-02  0.0000000000000E+00 -0.3930205472574E-02
 0.4430285656515E-03 -0.3286791320883E-02  0.0000000000000E+00 -0.4120060368710E-02
 0.4218344727150E-03 -0.3367995798269E-02  0.0000000000000E+00 -0.4317789697974E-02
 0.3920548904496E-03 -0.3443750751659E-02  0.0000000000000E+00 -0.4523337631872E-02
 0.3533483930465E-03 -0.3512338428966E-02  0.0000000000000E+00 -0.4735263077355E-02
 0.3058169923095E-03 -0.3572064892011E-02  0.0000000000000E+00 -0.4950511281664E-02
 0.2502415565097E-03 -0.3621401728036E-02  0.0000000000000E+00 -0.5164328202878E-02
 0.1883208853648E-03 -0.3659120197127E-02  0.0000000000000E+00 -0.5370298834793E-02
 0.1229194847898E-03 -0.3684438583993E-02  0.0000000000000E+00 -0.5560456442112E-02
 0.5811771444955E-04 -0.3697385507378E-02  0.0000000000000E+00 -0.5725801905443E-02
-0.1037643299812E-05 -0.3698982197892E-02  0.0000000000000E+00 -0.5856930784451E-02
-0.4876646122859E-04 -0.3691009655641E-02  0.0000000000000E+00 -0.5944134883408E-02
-0.7863398880664E-04 -0.3675770302512E-02  0.0000000000000E+00 -0.5977275946838E-02
-0.8349748080416E-04 -0.3656036515586E-02  0.0000000000000E+00 -0.5945748224776E-02
-0.5536186736027E-04 -0.3635167563471E-02  0.0000000000000E+00 -0.5838665588755E-02
 0.1481737505643E-04 -0.3617332870025E-02  0.0000000000000E+00 -0.5645343583161E-02
 0.1373467656979E-03 -0.3607791324968E-02  0.0000000000000E+00 -0.5356143674225E-02
 0.3239689887178E-03 -0.3613180188943E-02  0.0000000000000E+00 -0.4963776363833E-02
 0.5879934920369E-03 -0.3641721051649E-02  0.0000000000000E+00 -0.4465098362878E-02
 0.9444262750272E-03 -0.3703291370034E-02  0.0000000000000E+00 -0.3863403794763E-02
 0.1409538762042E-02 -0.3809279284924E-02  0.0000000000000E+00 -0.3171667930165E-02
 0.1999228209380E-02 -0.3971700019350E-02  0.0000000000000E+00 -0.2416684312411E-02
 0.2725996536025E-02 -0.4201056425539E-02  0.0000000000000E+00 -0.1642701887211E-02
 0.3594317087147E-02 -0.4502796116789E-02  0.0000000000000E+00 -0.9129594370691E-03
 0.4594774806772E-02 -0.4872670663540E-02  0.0000000000000E+00 -0.3067704533429E-03
 0.5698468979818E-02 -0.5292175548054E-02  0.0000000000000E+00  0.9006041871402E-04
 0.6853689423082E-02 -0.5725956030602E-02  0.0000000000000E+00  0.2016711214497E-03
 0.7988412823260E-02 -0.6123596781005E-02  0.0000000000000E+00 -0.1582125392068E-04
 0.9000833167821E-02 -0.6413528271420E-02  0.0000000000000E+00 -0.5730895252935E-03
 0.5997333702967E-04 -0.2089598847297E-02  0.0000000000000E+00 -0.1253021184482E-02
 0.1614474456857E-03 -0.2162703948994E-02  0.0000000000000E+00 -0.1569814949171E-02
 0.2343847565326E-03 -0.2228607170706E-02  0.0000000000000E+00 -0.1862523551553E-02
 0.2874058768987E-03 -0.2293201136182E-02  0.0000000000000E+00 -0.2126198197589E-02
 0.3275288812303E-03 -0.2360818383755E-02  0.0000000000000E+00 -0.2362132766092E-02
 0.3594843572651E-03 -0.2433835406826E-02  0.0000000000000E+00 -0.2574922626081E-02
 0.3859423802563E-03 -0.2513007271062E-02  0.0000000000000E+00 -0.2770159038369E-02
 0.4081062095952E-03 -0.2598044015565E-02  0.0000000000000E+00 -0.2953207894386E-02
 0.4262796650607E-03 -0.2688103462904E-02  0.0000000000000E+00 -0.3128809932410E-02
 0.4402643232723E-03 -0.2782099044703E-02  0.0000000000000E+00 -0.3301078525930E-02
 0.4495907888167E-03 -0.2878847163849E-02  0.0000000000000E+00 -0.3473600590312E-02
 0.4536358842033E-03 -0.2977109834257E-02  0.0000000000000E+00 -0.3649499540603E-02
 0.4516765093322E-03 -0.3075580571683E-02  0.0000000000000E+00 -0.3831414628038E-02
 0.4429190180502E-03 -0.3172844928173E-02  0.0000000000000E+00 -0.4021386098890E-02
 0.4265371166818E-03 -0.3267336509568E-02  0.0000000000000E+00 -0.4220641508962E-02
 0.4017470283667E-03 -0.3357324648666E-02  0.0000000000000E+00 -0.4429322968085E-02
 0.3679454739581E-03 -0.3440945288178E-02  0.0000000000000E+00 -0.4646180879544E-02
 0.3249209658754E-03 -0.3516289483931E-02  0.0000000000000E+00 -0.4868302032641E-02
 0.2731119402349E-03 -0.3581551171814E-02  0.0000000000000E+00 -0.5090990785185E-02
 0.2138757603247E-03 -0.3635174660434E-02  0.0000000000000E+00 -0.5307786104624E-02
 0.1497728223203E-03 -0.3676032746371E-02  0.0000000000000E+00 -0.5510523194605E-02
 0.8462365789186E-04 -0.3703821071817E-02  0.0000000000000E+00 -0.5689905064785E-02
 0.2322174805644E-04 -0.3719226545301E-02  0.0000000000000E+00 -0.5836270381838E-02
-0.2893679811472E-04 -0.3723650535621E-02  0.0000000000000E+00 -0.5939713905178E-02
-0.6574292159278E-04 -0.3718942069488E-02  0.0000000000000E+00 -0.5989877421552E-02
-0.8040584243285E-04 -0.3707344684439E-02  0.0000000000000E+00 -0.5975804153584E-02
-0.6527181854055E-04 -0.3691632585663E-02  0.0000000000000E+00 -0.5886023364926E-02
-0.1157089586701E-04 -0.3675369001100E-02  0.0000000000000E+00 -0.5708938119918E-02
 0.9087662088086E-04 -0.3663239893879E-02  0.0000000000000E+00 -0.5433577052718E-02
 0.2539544904229E-03 -0.3661430132200E-02  0.0000000000000E+00 -0.5050813695883E-02
 0.4915559523746E-03 -0.3677955149744E-02  0.0000000000000E+00 -0.4555119709915E-02
 0.8199616235210E-03 -0.3722908024323E-02  0.0000000000000E+00 -0.3946908173626E-02
 0.1257724364833E-02 -0.3808588664962E-02  0.0000000000000E+00 -0.3236110762986E-02
 0.1824299261364E-02 -0.3948910273861E-02  0.0000000000000E+00 -0.2447174150619E-02
 0.2537033962240E-02 -0.4157353876402E-02  0.0000000000000E+00 -0.1624135503996E-02
 0.3406005749110E-02 -0.4443094629443E-02  0.0000000000000E+00 -0.8340078764255E-03
 0.4426860579564E-02 -0.4805373784387E-02  0.0000000000000E+00 -0.1654846626071E-03
 0.5573064477683E-02 -0.5227261975275E-02  0.0000000000000E+00  0.2804091568859E-03
 0.6790745525929E-02 -0.5671313672364E-02  0.0000000000000E+00  0.4091764564388E-03
 0.7997524788032E-02 -0.6078760494971E-02  0.0000000000000E+00  0.1579084070177E-03
 0.9101465694602E-02 -0.6377652314157E-02  0.0000000000000E+00 -0.5110266067376E-03
 0.5882334014509E-04 -0.1900528166366E-02  0.0000000000000E+00 -0.1203584409638E-02
 0.1569449490500E-03 -0.1972368954253E-02  0.0000000000000E+00 -0.1521895583278E-02
 0.2254478694859E-03 -0.2037343522361E-02  0.0000000000000E+00 -0.1811739676373E-02
 0.2742673381897E-03 -0.2102208794229E-02  0.0000000000000E+00 -0.2069162419627E-02
 0.3111844066710E-03 -0.2171694871852E-02  0.0000000000000E+00 -0.2297007328426E-02
 0.3411797073008E-03 -0.2248186811012E-02  0.0000000000000E+00 -0.2501247229314E-02
 0.3668782733661E-03 -0.2332264225398E-02  0.0000000000000E+00 -0.2688362485165E-02
 0.3893400333716E-03 -0.2423444480776E-02  0.0000000000000E+00 -0.2864155217393E-02
 0.4087321804081E-03 -0.2520751399241E-02  0.0000000000000E+00 -0.3033514824894E-02
 0.4247572196259E-03 -0.2623034148837E-02  0.0000000000000E+00 -0.3200569688411E-02
 0.4368784938761E-03 -0.2729098364793E-02  0.0000000000000E+00 -0.3368888924313E-02
 0.4444196881795E-03 -0.2837727010323E-02  0.0000000000000E+00 -0.3541602019012E-02
 0.4465990054857E-03 -0.2947645786929E-02  0.0000000000000E+00 -0.3721408283858E-02
 0.4425388491178E-03 -0.3057463905530E-02  0.0000000000000E+00 -0.3910475896476E-02
 0.4312841962050E-03 -0.3165608754017E-02  0.0000000000000E+00 -0.4110227149743E-02
 0.4118616011222E-03 -0.3270292777838E-02  0.0000000000000E+00 -0.4321046069254E-02
 0.3834095923430E-03 -0.3369526762869E-02  0.0000000000000E+00 -0.4541932736248E-02
 0.3453977946005E-03 -0.3461199950570E-02  0.0000000000000E+00 -0.4770180390917E-02
 0.2979101043669E-03 -0.3543233424112E-02  0.0000000000000E+00 -0.5001215031420E-02
 0.2419486489179E-03 -0.3613742837911E-02  0.0000000000000E+00 -0.5228585968248E-02
 0.1797594259226E-03 -0.3671250657305E-02  0.0000000000000E+00 -0.5443973841250E-02
 0.1148978156499E-03 -0.3715115073884E-02  0.0000000000000E+00 -0.5637821341585E-02
 0.5189826574858E-04 -0.3745683535402E-02  0.0000000000000E+00 -0.5800263525835E-02
-0.4041956709888E-05 -0.3763966188974E-02  0.0000000000000E+00 -0.5921274405049E-02
-0.4717010768079E-04 -0.3771335090387E-02  0.0000000000000E+00 -0.5990367303654E-02
-0.7109759275703E-04 -0.3769465651029E-02  0.0000000000000E+00 -0.5996329644478E-02
-0.6858482878802E-04 -0.3760488224401E-02  0.0000000000000E+00 -0.5927195083951E-02
-0.3123666013755E-04 -0.3747275117296E-02  0.0000000000000E+00 -0.5770526153037E-02
 0.5086516257902E-04 -0.3733818659121E-02  0.0000000000000E+00 -0.5514053236334E-02
 0.1895714582908E-03 -0.3725683887713E-02  0.0000000000000E+00 -0.5146768738171E-02
 0.3991516788187E-03 -0.3730459944378E-02  0.0000000000000E+00 -0.4660564906532E-02
 0.6969531539926E-03 -0.3758193453083E-02  0.0000000000000E+00 -0.4052525792532E-02
 0.1103691009773E-02 -0.3821851063731E-02  0.0000000000000E+00 -0.3328729871759E-02
 0.1642504618612E-02 -0.3937138675911E-02  0.0000000000000E+00 -0.2510078636522E-02
 0.2336155367325E-02 -0.4120718675801E-02  0.0000000000000E+00 -0.1638991815508E-02
 0.3201489760392E-02 -0.4386153346456E-02  0.0000000000000E+00 -0.7851690299075E-03
 0.4240876520603E-02 -0.4737265827333E-02  0.0000000000000E+00 -0.4677553471838E-04
 0.5431976170477E-02 -0.5159907414557E-02  0.0000000000000E+00  0.4577344785181E-03
 0.6719183293965E-02 -0.5614986829234E-02  0.0000000000000E+00  0.6106848165370E-03
 0.8013276017073E-02 -0.6036895832310E-02  0.0000000000000E+00  0.3222544393878E-03
 0.9212613980858E-02 -0.6350558916573E-02  0.0000000000000E+00 -0.4449632700338E-03
 0.5728234704589E-04 -0.1707413803105E-02  0.0000000000000E+00 -0.1154645677321E-02
 0.1512617062981E-03 -0.1777590830459E-02  0.0000000000000E+00 -0.1474162676029E-02
 0.2146633824332E-03 -0.1841414034829E-02  0.0000000000000E+00 -0.1760103513412E-02
 0.2589025109778E-03 -0.1906591046147E-02  0.0000000000000E+00 -0.2009861185274E-02
 0.2925257834168E-03 -0.1978205859446E-02  0.0000000000000E+00 -0.2228189750303E-02
 0.3206694839086E-03 -0.2058544583198E-02  0.0000000000000E+00 -0.2422629168022E-02
 0.3458105074854E-03 -0.2147916292133E-02  0.0000000000000E+00 -0.2600572337492E-02
 0.3687963277306E-03 -0.2245592298567E-02  0.0000000000000E+00 -0.2768197431034E-02
 0.3896248408345E-03 -0.2350445522392E-02  0.0000000000000E+00 -0.2930467450998E-02
 0.4078913349597E-03 -0.2461265526957E-02  0.0000000000000E+00 -0.3091465642246E-02
 0.4229972364569E-03 -0.2576862412915E-02  0.0000000000000E+00 -0.3254703123536E-02
 0.4342256834880E-03 -0.2696060891107E-02  0.0000000000000E+00 -0.3423292125880E-02
 0.4407531284345E-03 -0.2817643842752E-02  0.0000000000000E+00 -0.3599983174099E-02
 0.4416374900948E-03 -0.2940273009424E-02  0.0000000000000E+00 -0.3787078695307E-02
 0.4358144704049E-03 -0.3062401169595E-02  0.0000000000000E+00 -0.3986220084027E-02
 0.4221365007236E-03 -0.3182215283701E-02  0.0000000000000E+00 -0.4198077753925E-02
 0.3994911643262E-03 -0.3297627722398E-02  0.0000000000000E+00 -0.4421963742721E-02
 0.3670258404014E-03 -0.3406343989692E-02  0.0000000000000E+00 -0.4655449541090E-02
 0.3244582233838E-03 -0.3506020662960E-02  0.0000000000000E+00 -0.4894153402592E-02
 0.2724214197917E-03 -0.3594445466773E-02  0.0000000000000E+00 -0.5131697327043E-02
 0.2128376043511E-03 -0.3669787471407E-02  0.0000000000000E+00 -0.5359654969016E-02
 0.1489939378649E-03 -0.3731064671602E-02  0.0000000000000E+00 -0.5568249814980E-02
 0.8516321829680E-04 -0.3778282219766E-02  0.0000000000000E+00 -0.5747472397413E-02
 0.2623185419848E-04 -0.3812050233387E-02  0.0000000000000E+00 -0.5887261424923E-02
-0.2243253722428E-04 -0.3833243418412E-02  0.0000000000000E+00 -0.5977105445018E-02
-0.5489287780852E-04 -0.3842933755839E-02  0.0000000000000E+00 -0.6005646898977E-02
-0.6439652444995E-04 -0.3842554030535E-02  0.0000000000000E+00 -0.5960534323570E-02
-0.4302531261541E-04 -0.3834206313255E-02  0.0000000000000E+00 -0.5828593900540E-02
 0.1873510954337E-04 -0.3821071278699E-02  0.0000000000000E+00 -0.5596341017157E-02
 0.1325074009806E-03 -0.3807920112358E-02  0.0000000000000E+00 -0.5250910441423E-02
 0.3126841728117E-03 -0.3801669044356E-02  0.0000000000000E+00 -0.4781500450946E-02
 0.5773904044289E-03 -0.3811996378614E-02  0.0000000000000E+00 -0.4181484217553E-02
 0.9492655667627E-03 -0.3852188237354E-02  0.0000000000000E+00 -0.3452274361688E-02
 0.1455127023771E-02 -0.3939503842057E-02  0.0000000000000E+00 -0.2609872554795E-02
 0.2123643789477E-02 -0.4093873809722E-02  0.0000000000000E+00 -0.1693291169407E-02
 0.2979688086705E-02 -0.4333905802384E-02  0.0000000000000E+00 -0.7732297436757E-03
 0.4034437795506E-02 -0.4669325027278E-02  0.0000000000000E+00  0.4313844706264E-04
 0.5272080427976E-02 -0.5090413559274E-02  0.0000000000000E+00  0.6179214428419E-03
 0.6637319732310E-02 -0.5557703957646E-02  0.0000000000000E+00  0.8044287659087E-03
 0.8032976112525E-02 -0.5999792655749E-02  0.0000000000000E+00  0.4841568862554E-03
 0.9337632119899E-02 -0.6328803025181E-02  0.0000000000000E+00 -0.3847995859142E-03
 0.5527444234470E-04 -0.1509876953544E-02  0.0000000000000E+00 -0.1106479360809E-02
 0.1441796606663E-03 -0.1577923576654E-02  0.0000000000000E+00 -0.1426780875947E-02
 0.2017239384151E-03 -0.1640361884598E-02  0.0000000000000E+00 -0.1707565595592E-02
 0.2409934546679E-03 -0.1705941321894E-02  0.0000000000000E+00 -0.1948043547364E-02
 0.2712746204078E-03 -0.1780021307934E-02  0.0000000000000E+00 -0.2155319657390E-02
 0.2977251461918E-03 -0.1864645551689E-02  0.0000000000000E+00 -0.2338692415086E-02
 0.3225471963884E-03 -0.1959740731480E-02  0.0000000000000E+00 -0.2506452502795E-02
 0.3463009702983E-03 -0.2064278801434E-02  0.0000000000000E+00 -0.2665057041129E-02
 0.3687854934983E-03 -0.2176971289963E-02  0.0000000000000E+00 -0.2819445778219E-02
 0.3894854237150E-03 -0.2296558874802E-02  0.0000000000000E+00 -0.2973587056895E-02
 0.4077493396389E-03 -0.2421875245755E-02  0.0000000000000E+00 -0.3130889686246E-02
 0.4228350990357E-03 -0.2551809973779E-02  0.0000000000000E+00 -0.3294422297868E-02
 0.4338967907903E-03 -0.2685230027794E-02  0.0000000000000E+00 -0.3466974081525E-02
 0.4399503532491E-03 -0.2820881178492E-02  0.0000000000000E+00 -0.3650983683333E-02
 0.4398457575035E-03 -0.2957277342986E-02  0.0000000000000E+00 -0.3848332326891E-02
 0.4322817117692E-03 -0.3092617184486E-02  0.0000000000000E+00 -0.4060020489830E-02
 0.4159065641143E-03 -0.3224748012236E-02  0.0000000000000E+00 -0.4285738098812E-02
 0.3895447734908E-03 -0.3351215657451E-02  0.0000000000000E+00 -0.4523414262890E-02
 0.3525367621699E-03 -0.3469424869237E-02  0.0000000000000E+00 -0.4768938736210E-02
 0.3051326800842E-03 -0.3576838952611E-02  0.0000000000000E+00 -0.5016075467576E-02
 0.2489222555891E-03 -0.3671272306676E-02  0.0000000000000E+00 -0.5256343105820E-02
 0.1869238804053E-03 -0.3751401586023E-02  0.0000000000000E+00 -0.5479790609181E-02
 0.1231496714230E-03 -0.3816888970111E-02  0.0000000000000E+00 -0.5676328837022E-02
 0.6216643721263E-04 -0.3867938456013E-02  0.0000000000000E+00 -0.5835955618188E-02
 0.8930195525836E-05 -0.3904910447129E-02  0.0000000000000E+00 -0.5948249897380E-02
-0.3112097008573E-04 -0.3928243070098E-02  0.0000000000000E+00 -0.6001834136343E-02
-0.5179209721023E-04 -0.3938625001663E-02  0.0000000000000E+00 -0.5984102010724E-02
-0.4574252951972E-04 -0.3937318153286E-02  0.0000000000000E+00 -0.5881279131955E-02
-0.4006585148542E-05 -0.3926582602834E-02  0.0000000000000E+00 -0.5678801153215E-02
 0.8460028833568E-04 -0.3910223706352E-02  0.0000000000000E+00 -0.5362048323621E-02
 0.2342997024748E-03 -0.3894220705421E-02  0.0000000000000E+00 -0.4917516400618E-02
 0.4636198828478E-03 -0.3887506082699E-02  0.0000000000000E+00 -0.4334596928809E-02
 0.7967445988556E-03 -0.3903225527092E-02  0.0000000000000E+00 -0.3609280501182E-02
 0.1263978348942E-02 -0.3959780445932E-02  0.0000000000000E+00 -0.2751206910344E-02
 0.1900235319550E-02 -0.4080271031345E-02  0.0000000000000E+00 -0.1793784068670E-02
 0.2739706240696E-02 -0.4288930778602E-02  0.0000000000000E+00 -0.8062749630999E-03
 0.3804849969103E-02 -0.4602911203359E-02  0.0000000000000E+00  0.9652310281988E-04
 0.5089662710370E-02 -0.5019132734874E-02  0.0000000000000E+00  0.7555424971626E-03
 0.6541738326877E-02 -0.5499853539982E-02  0.0000000000000E+00  0.9897898106093E-03
 0.8054253068293E-02 -0.5966564798753E-02  0.0000000000000E+00  0.6452105402779E-03
 0.9479403029117E-02 -0.6312390888191E-02  0.0000000000000E+00 -0.3362530260086E-03
 0.5270735571060E-04 -0.1307493073931E-02  0.0000000000000E+00 -0.1059413077290E-02
 0.1354384413302E-03 -0.1372867334520E-02  0.0000000000000E+00 -0.1379930435156E-02
 0.1862753442725E-03 -0.1433687700508E-02  0.0000000000000E+00 -0.1654032898032E-02
 0.2201927103032E-03 -0.1499836481512E-02  0.0000000000000E+00 -0.1883381490721E-02
 0.2471454642184E-03 -0.1576818738014E-02  0.0000000000000E+00 -0.2077963818218E-02
 0.2721259833111E-03 -0.1666246718275E-02  0.0000000000000E+00 -0.2249013020342E-02
 0.2969098696920E-03 -0.1767537349083E-02  0.0000000000000E+00 -0.2405645783540E-02
 0.3216930509824E-03 -0.1879314964584E-02  0.0000000000000E+00 -0.2554455801278E-02
 0.3460525643653E-03 -0.2000129312376E-02  0.0000000000000E+00 -0.2700240878828E-02
 0.3693654037339E-03 -0.2128690400474E-02  0.0000000000000E+00 -0.2846777589045E-02
 0.3909404516080E-03 -0.2263878582997E-02  0.0000000000000E+00 -0.2997326098647E-02
 0.4100280007549E-03 -0.2404673218338E-02  0.0000000000000E+00 -0.3154883036850E-02
 0.4257812242929E-03 -0.2550053535284E-02  0.0000000000000E+00 -0.3322259885283E-02
 0.4371993772626E-03 -0.2698882913183E-02  0.0000000000000E+00 -0.3502028031320E-02
 0.4430744945181E-03 -0.2849776150501E-02  0.0000000000000E+00 -0.3696323793023E-02
 0.4419775416894E-03 -0.3000987123709E-02  0.0000000000000E+00 -0.3906518719294E-02
 0.4323349145888E-03 -0.3150339268101E-02  0.0000000000000E+00 -0.4132749306043E-02
 0.4126510893889E-03 -0.3295250256079E-02  0.0000000000000E+00 -0.4373389862638E-02
 0.3818790102552E-03 -0.3432891119033E-02  0.0000000000000E+00 -0.4624691144853E-02
 0.3398715621892E-03 -0.3560407531084E-02  0.0000000000000E+00 -0.4880636612911E-02
 0.2878780438977E-03 -0.3675259710922E-02  0.0000000000000E+00 -0.5132746897169E-02
 0.2286502496160E-03 -0.3775783122807E-02  0.0000000000000E+00 -0.5370944816710E-02
 0.1659445728975E-03 -0.3861298041914E-02  0.0000000000000E+00 -0.5585132215706E-02
 0.1040030954414E-03 -0.3931598604344E-02  0.0000000000000E+00 -0.5765469158605E-02
 0.4734644336674E-04 -0.3986517328214E-02  0.0000000000000E+00 -0.5901750537494E-02
 0.8688619237973E-06 -0.4025833603535E-02  0.0000000000000E+00 -0.5982715801756E-02
-0.2985912490933E-04 -0.4049454598023E-02  0.0000000000000E+00 -0.5995650671569E-02
-0.3816920163691E-04 -0.4057745654657E-02  0.0000000000000E+00 -0.5926344671336E-02
-0.1578465080682E-04 -0.4051953680453E-02  0.0000000000000E+00 -0.5759341303602E-02
 0.4782558053168E-04 -0.4034759274868E-02  0.0000000000000E+00 -0.5478458002661E-02
 0.1663860312696E-03 -0.4010936845616E-02  0.0000000000000E+00 -0.5067611043008E-02
 0.3583706467203E-03 -0.3988251611842E-02  0.0000000000000E+00 -0.4512102076103E-02
 0.6489672438374E-03 -0.3979134275008E-02  0.0000000000000E+00 -0.3801880801211E-02
 0.1071533895801E-02 -0.4002510045832E-02  0.0000000000000E+00 -0.2938743811213E-02
 0.1667307125564E-02 -0.4084277925783E-02  0.0000000000000E+00 -0.1947918841542E-02
 0.2480995641450E-02 -0.4254680122400E-02  0.0000000000000E+00 -0.8938795701529E-03
 0.3549202686394E-02 -0.4539939559132E-02  0.0000000000000E+00  0.1035993772604E-03
 0.4880025145047E-02 -0.4946505954952E-02  0.0000000000000E+00  0.8636039148872E-03
 0.6427608810687E-02 -0.5440943796899E-02  0.0000000000000E+00  0.1164670927226E-02
 0.8074730245970E-02 -0.5936606828343E-02  0.0000000000000E+00  0.8053299690773E-03
 0.9641085082189E-02 -0.6302076581260E-02  0.0000000000000E+00 -0.3032059803220E-03
 0.4946696821559E-04 -0.1099779837774E-02  0.0000000000000E+00 -0.1013837866486E-02
 0.1247226491846E-03 -0.1161854869979E-02  0.0000000000000E+00 -0.1333801488156E-02
 0.1679065034442E-03 -0.1220843433235E-02  0.0000000000000E+00 -0.1599345111055E-02
 0.1961221963202E-03 -0.1287840770259E-02  0.0000000000000E+00 -0.1815443622844E-02
 0.2198510813387E-03 -0.1368292377996E-02  0.0000000000000E+00 -0.1995600416059E-02
 0.2436657360982E-03 -0.1463134093472E-02  0.0000000000000E+00 -0.2153114905463E-02
 0.2687386595586E-03 -0.1571134714729E-02  0.0000000000000E+00 -0.2297775963573E-02
 0.2948283093271E-03 -0.1690535351561E-02  0.0000000000000E+00 -0.2436118665603E-02
 0.3212773954548E-03 -0.1819738067854E-02  0.0000000000000E+00 -0.2572660855675E-02
 0.3473662110102E-03 -0.1957449099599E-02  0.0000000000000E+00 -0.2710907557218E-02
 0.3723812639904E-03 -0.2102622177857E-02  0.0000000000000E+00 -0.2853924686454E-02
 0.3955849735436E-03 -0.2254352413593E-02  0.0000000000000E+00 -0.3004607581018E-02
 0.4161525046383E-03 -0.2411759838776E-02  0.0000000000000E+00 -0.3165769752041E-02
 0.4330940499784E-03 -0.2573860282084E-02  0.0000000000000E+00 -0.3340105177255E-02
 0.4451757415776E-03 -0.2739412748785E-02  0.0000000000000E+00 -0.3530012795397E-02
 0.4508731061397E-03 -0.2906776594525E-02  0.0000000000000E+00 -0.3737270927722E-02
 0.4484148319858E-03 -0.3073801835136E-02  0.0000000000000E+00 -0.3962532438461E-02
 0.4359932841218E-03 -0.3237818889608E-02  0.0000000000000E+00 -0.4204713099941E-02
 0.4121650811522E-03 -0.3395790197031E-02  0.0000000000000E+00 -0.4460526508676E-02
 0.3763709047121E-03 -0.3544554606049E-02  0.0000000000000E+00 -0.4724263546155E-02
 0.3295119931220E-03 -0.3681220364547E-02  0.0000000000000E+00 -0.4987509910558E-02
 0.2740785434868E-03 -0.3803782630855E-02  0.0000000000000E+00 -0.5240114842910E-02
 0.2135804602882E-03 -0.3911221790784E-02  0.0000000000000E+00 -0.5472047840719E-02
 0.1519337249624E-03 -0.4002919937541E-02  0.0000000000000E+00 -0.5673742612790E-02
 0.9320254267342E-04 -0.4078171069921E-02  0.0000000000000E+00 -0.5835344340915E-02
 0.4169561991180E-04 -0.4136076857830E-02  0.0000000000000E+00 -0.5945855330612E-02
 0.2297988350053E-05 -0.4175736362585E-02  0.0000000000000E+00 -0.5992612323795E-02
-0.1907941692469E-04 -0.4196579422357E-02  0.0000000000000E+00 -0.5961156499686E-02
-0.1497683938451E-04 -0.4198771338254E-02  0.0000000000000E+00 -0.5835375427202E-02
 0.2427453028464E-04 -0.4183735134238E-02  0.0000000000000E+00 -0.5597808011679E-02
 0.1115589653152E-03 -0.4154787462776E-02  0.0000000000000E+00 -0.5230067291865E-02
 0.2647668765599E-03 -0.4118082128633E-02  0.0000000000000E+00 -0.4713473095767E-02
 0.5093818956703E-03 -0.4084657471650E-02  0.0000000000000E+00 -0.4031553167718E-02
 0.8810841366604E-03 -0.4073111896736E-02  0.0000000000000E+00 -0.3176900699550E-02
 0.1427114972842E-02 -0.4111402784377E-02  0.0000000000000E+00 -0.2163710087567E-02
 0.2203619732883E-02 -0.4235787575752E-02  0.0000000000000E+00 -0.1047301437241E-02
 0.3264475329904E-02 -0.4483179186677E-02  0.0000000000000E+00  0.5201182844056E-04
 0.4637368737342E-02 -0.4873086681322E-02  0.0000000000000E+00  0.9324301112358E-03
 0.6288607422016E-02 -0.5380118808634E-02  0.0000000000000E+00  0.1324947682134E-02
 0.8091510845118E-02 -0.5909522308535E-02  0.0000000000000E+00  0.9639556603363E-03
 0.9826187306349E-02 -0.6299180418819E-02  0.0000000000000E+00 -0.2887842122681E-03
 0.4540937831144E-04 -0.8861802997555E-03  0.0000000000000E+00 -0.9702215649444E-03
 0.1116444931171E-03 -0.9442339071482E-03  0.0000000000000E+00 -0.1288583588823E-02
 0.1461374195199E-03 -0.1001226191995E-02  0.0000000000000E+00 -0.1543239839112E-02
 0.1683740926207E-03 -0.1069513490697E-02  0.0000000000000E+00 -0.1743661322161E-02
 0.1891108562092E-03 -0.1154166226595E-02  0.0000000000000E+00 -0.1907602434024E-02
 0.2121611889293E-03 -0.1255133544477E-02  0.0000000000000E+00 -0.2050468229981E-02
 0.2378981410138E-03 -0.1370396833690E-02  0.0000000000000E+00 -0.2182452515208E-02
 0.2655825908948E-03 -0.1497801899012E-02  0.0000000000000E+00 -0.2309779220957E-02
 0.2943264774430E-03 -0.1635636412893E-02  0.0000000000000E+00 -0.2436535328826E-02
 0.3233336286771E-03 -0.1782638959442E-02  0.0000000000000E+00 -0.2565877679293E-02
 0.3518893410509E-03 -0.1937866171722E-02  0.0000000000000E+00 -0.2700636301463E-02
 0.3792890793150E-03 -0.2100554850873E-02  0.0000000000000E+00 -0.2843576365583E-02
 0.4047535325510E-03 -0.2269993611506E-02  0.0000000000000E+00 -0.2997489283169E-02
 0.4273330317114E-03 -0.2445385694178E-02  0.0000000000000E+00 -0.3165173522421E-02
 0.4458037993243E-03 -0.2625680426315E-02  0.0000000000000E+00 -0.3349287700674E-02
 0.4585852264190E-03 -0.2809399859881E-02  0.0000000000000E+00 -0.3552043695445E-02
 0.4637411991027E-03 -0.2994481929873E-02  0.0000000000000E+00 -0.3774678927254E-02
 0.4591666493972E-03 -0.3178222670347E-02  0.0000000000000E+00 -0.4016755590732E-02
 0.4430152547791E-03 -0.3357410371164E-02  0.0000000000000E+00 -0.4275566900001E-02
 0.4142996812121E-03 -0.3528593042030E-02  0.0000000000000E+00 -0.4545812403795E-02
 0.3735653878324E-03 -0.3688530849266E-02  0.0000000000000E+00 -0.4819213939689E-02
 0.3230487632823E-03 -0.3834879354748E-02  0.0000000000000E+00 -0.5085604926210E-02
 0.2660268182107E-03 -0.3966280637422E-02  0.0000000000000E+00 -0.5335105688067E-02
 0.2060916498458E-03 -0.4081702732292E-02  0.0000000000000E+00 -0.5558542717961E-02
 0.1468325276109E-03 -0.4179892568680E-02  0.0000000000000E+00 -0.5746552435471E-02
 0.9193422960002E-04 -0.4259261044119E-02  0.0000000000000E+00 -0.5888550838404E-02
 0.4554226747994E-04 -0.4318084566375E-02  0.0000000000000E+00 -0.5972090816427E-02
 0.1273878706382E-04 -0.4354839425036E-02  0.0000000000000E+00 -0.5982668114504E-02
 0.5924228407839E-07 -0.4368572634743E-02  0.0000000000000E+00 -0.5903790720455E-02
 0.1612265735618E-04 -0.4359357328247E-02  0.0000000000000E+00 -0.5717092774162E-02
 0.7263347566133E-04 -0.4328837770590E-02  0.0000000000000E+00 -0.5402327054173E-02
 0.1863204741206E-03 -0.4281121700974E-02  0.0000000000000E+00 -0.4937205485416E-02
 0.3820967266428E-03 -0.4225106512751E-02  0.0000000000000E+00 -0.4298804994980E-02
 0.6968931770219E-03 -0.4177979815196E-02  0.0000000000000E+00 -0.3469473070380E-02
 0.1183092855719E-02 -0.4168551368417E-02  0.0000000000000E+00 -0.2449461364036E-02
 0.1908634472858E-02 -0.4238489767161E-02  0.0000000000000E+00 -0.1279568560231E-02
 0.2947800801350E-02 -0.4436687746943E-02  0.0000000000000E+00 -0.7389425896205E-04
 0.4354744342862E-02 -0.4799878930358E-02  0.0000000000000E+00  0.9484806315439E-03
 0.6116500909542E-02 -0.5316318582735E-02  0.0000000000000E+00  0.1463858795735E-02
 0.8100574824674E-02 -0.5884974423719E-02  0.0000000000000E+00  0.1120376441956E-02
 0.1003878867225E-01 -0.6305491580243E-02  0.0000000000000E+00 -0.2959181036304E-03
 0.4034922189203E-04 -0.6660390105889E-03  0.0000000000000E+00 -0.9291263635737E-03
 0.9571974433483E-04 -0.7192436422514E-03  0.0000000000000E+00 -0.1244446837215E-02
 0.1204053639384E-03 -0.7741732315282E-03  0.0000000000000E+00 -0.1485301567249E-02
 0.1365154803948E-03 -0.8444227859290E-03  0.0000000000000E+00 -0.1667285853593E-02
 0.1546635742773E-03 -0.9342123191108E-03  0.0000000000000E+00 -0.1813221979315E-02
 0.1774629410420E-03 -0.1042123655625E-02  0.0000000000000E+00 -0.1940492351399E-02
 0.2042835492494E-03 -0.1165229828646E-02  0.0000000000000E+00 -0.2059278808011E-02
 0.2338550562228E-03 -0.1301007216114E-02  0.0000000000000E+00 -0.2175186717754E-02
 0.2650834342955E-03 -0.1447685729893E-02  0.0000000000000E+00 -0.2291720369482E-02
 0.2971260216678E-03 -0.1604081016522E-02  0.0000000000000E+00 -0.2411622730715E-02
 0.3292910284129E-03 -0.1769383512560E-02  0.0000000000000E+00 -0.2537453682683E-02
 0.3609280935673E-03 -0.1942996298278E-02  0.0000000000000E+00 -0.2671821069613E-02
 0.3913265282079E-03 -0.2124402240332E-02  0.0000000000000E+00 -0.2817466367496E-02
 0.4196065179562E-03 -0.2313025587046E-02  0.0000000000000E+00 -0.2977265304055E-02
 0.4445936557807E-03 -0.2508053578976E-02  0.0000000000000E+00 -0.3154119669872E-02
 0.4646979635895E-03 -0.2708234878947E-02  0.0000000000000E+00 -0.3350687978714E-02
 0.4778620919824E-03 -0.2911669261163E-02  0.0000000000000E+00 -0.3568854421624E-02
 0.4817076503184E-03 -0.3115686576073E-02  0.0000000000000E+00 -0.3808940352677E-02
 0.4739824919016E-03 -0.3316948107488E-02  0.0000000000000E+00 -0.4068953426054E-02
 0.4532544592550E-03 -0.3511734087354E-02  0.0000000000000E+00 -0.4344120770663E-02
 0.4197048164448E-03 -0.3696462226084E-02  0.0000000000000E+00 -0.4626382591282E-02
 0.3753264528783E-03 -0.3868447612082E-02  0.0000000000000E+00 -0.4905621437747E-02
 0.3231811766206E-03 -0.4025992910770E-02  0.0000000000000E+00 -0.5172199123726E-02
 0.2665423818111E-03 -0.4167647994296E-02  0.0000000000000E+00 -0.5417460938755E-02
 0.2085077550686E-03 -0.4291604873031E-02  0.0000000000000E+00 -0.5632679026150E-02
 0.1521028887160E-03 -0.4395576328421E-02  0.0000000000000E+00 -0.5807834019577E-02
 0.1006875574797E-03 -0.4477014409892E-02  0.0000000000000E+00 -0.5930859264651E-02
 0.5846045004942E-04 -0.4533447173014E-02  0.0000000000000E+00 -0.5987412695554E-02
 0.3095418286891E-04 -0.4562805006925E-02  0.0000000000000E+00 -0.5960925402181E-02
 0.2558787062584E-04 -0.4563773864904E-02  0.0000000000000E+00 -0.5832577759406E-02
 0.5257644418061E-04 -0.4536176120507E-02  0.0000000000000E+00 -0.5580872647835E-02
 0.1268959797432E-03 -0.4481691560649E-02  0.0000000000000E+00 -0.5180589786662E-02
 0.2718991200779E-03 -0.4406313673395E-02  0.0000000000000E+00 -0.4602792932286E-02
 0.5243472956480E-03 -0.4324541323956E-02  0.0000000000000E+00 -0.3819109414789E-02
 0.9402085344427E-03 -0.4264300730359E-02  0.0000000000000E+00 -0.2813257146852E-02
 0.1598630892833E-02 -0.4271169372831E-02  0.0000000000000E+00 -0.1605382460996E-02
 0.2596955134903E-02 -0.4406504618163E-02  0.0000000000000E+00 -0.2938356134838E-03
 0.4024071268292E-02 -0.4728870823854E-02  0.0000000000000E+00  0.8928549090358E-03
 0.5900475570372E-02 -0.5248364219441E-02  0.0000000000000E+00  0.1570845122391E-02
 0.8096003580349E-02 -0.5862481502022E-02  0.0000000000000E+00  0.1273589129325E-02
 0.1028381362207E-01 -0.6323332564781E-02  0.0000000000000E+00 -0.3276163843398E-03
 0.3404208336873E-04 -0.4385673214294E-03  0.0000000000000E+00 -0.8912320058257E-03
 0.7633404965954E-04 -0.4859833053263E-03  0.0000000000000E+00 -0.1201508097635E-02
 0.9004995964359E-04 -0.5389605448059E-03  0.0000000000000E+00 -0.1424886534584E-02
 0.1000996462571E-03 -0.6121692977549E-03  0.0000000000000E+00 -0.1585335639112E-02
 0.1162861802081E-03 -0.7082756659937E-03  0.0000000000000E+00 -0.1711579158705E-02
 0.1394682843228E-03 -0.8240501584528E-03  0.0000000000000E+00 -0.1822566206915E-02
 0.1678268369169E-03 -0.9555879125324E-03  0.0000000000000E+00 -0.1927864647364E-02
 0.1995707956566E-03 -0.1100077032789E-02  0.0000000000000E+00 -0.2032114621764E-02
 0.2334506147419E-03 -0.1255771590894E-02  0.0000000000000E+00 -0.2138103693586E-02
 0.2686159143861E-03 -0.1421615230092E-02  0.0000000000000E+00 -0.2248114980705E-02
 0.3044234078359E-03 -0.1596962426663E-02  0.0000000000000E+00 -0.2364414352795E-02
 0.3402970129671E-03 -0.1781404287969E-02  0.0000000000000E+00 -0.2489428061044E-02
 0.3756160861238E-03 -0.1974640001508E-02  0.0000000000000E+00 -0.2625816470742E-02
 0.4095994921223E-03 -0.2176345218705E-02  0.0000000000000E+00 -0.2776495343252E-02
 0.4411635369082E-03 -0.2385992167659E-02  0.0000000000000E+00 -0.2944576344342E-02
 0.4687631105220E-03 -0.2602625706925E-02  0.0000000000000E+00 -0.3133157905015E-02
 0.4902760662274E-03 -0.2824595484194E-02  0.0000000000000E+00 -0.3344820514515E-02
 0.5030878557893E-03 -0.3049353026711E-02  0.0000000000000E+00 -0.3580762512930E-02
 0.5045438732405E-03 -0.3273497444295E-02  0.0000000000000E+00 -0.3839862297856E-02
 0.4927495512679E-03 -0.3493074463331E-02  0.0000000000000E+00 -0.4118017364574E-02
 0.4675120839414E-03 -0.3704167037642E-02  0.0000000000000E+00 -0.4407484903648E-02
 0.4305930759166E-03 -0.3903745179483E-02  0.0000000000000E+00 -0.4698272434839E-02
 0.3848600539126E-03 -0.4089764727941E-02  0.0000000000000E+00 -0.4981083186459E-02
 0.3332745157766E-03 -0.4260347669163E-02  0.0000000000000E+00 -0.5247912695288E-02
 0.2784266779859E-03 -0.4413121971980E-02  0.0000000000000E+00 -0.5490812350456E-02
 0.2226504073315E-03 -0.4545100408865E-02  0.0000000000000E+00 -0.5700472512667E-02
 0.1684815541209E-03 -0.4652922285777E-02  0.0000000000000E+00 -0.5865363012805E-02
 0.1191992970314E-03 -0.4733197217176E-02  0.0000000000000E+00 -0.5971504311719E-02
 0.7929061308232E-04 -0.4782783414136E-02  0.0000000000000E+00 -0.6002560578435E-02
 0.5487854583963E-04 -0.4799010288132E-02  0.0000000000000E+00 -0.5939763624121E-02
 0.5443905387298E-04 -0.4779821990173E-02  0.0000000000000E+00 -0.5761127248714E-02
 0.9063996946851E-04 -0.4724193629414E-02  0.0000000000000E+00 -0.5439487492944E-02
 0.1842254487379E-03 -0.4634522052872E-02  0.0000000000000E+00 -0.4940891501964E-02
 0.3700633911273E-03 -0.4521244499535E-02  0.0000000000000E+00 -0.4226617666435E-02
 0.7053552773322E-03 -0.4409149819068E-02  0.0000000000000E+00 -0.3262131064627E-02
 0.1278476856470E-02 -0.4345032020118E-02  0.0000000000000E+00 -0.2040652937149E-02
 0.2211182384728E-02 -0.4401677942924E-02  0.0000000000000E+00 -0.6322675713395E-03
 0.3636347086036E-02 -0.4663907591377E-02  0.0000000000000E+00  0.7392704997288E-03
 0.5626228315058E-02 -0.5175116923547E-02  0.0000000000000E+00  0.1629452627509E-02
 0.8068832893811E-02 -0.5841174493584E-02  0.0000000000000E+00  0.1421738691597E-02
 0.1056740894066E-01 -0.6355749539895E-02  0.0000000000000E+00 -0.3871019633021E-03
 0.2615732542792E-04 -0.2027915145876E-03  0.0000000000000E+00 -0.8573665244094E-03
 0.5269525026375E-04 -0.2433699931313E-03  0.0000000000000E+00 -0.1159770413293E-02
 0.5429940687630E-04 -0.2948100462113E-03  0.0000000000000E+00 -0.1361011771851E-02
 0.5868876333630E-04 -0.3724254115603E-03  0.0000000000000E+00 -0.1496534855026E-02
 0.7382023180710E-04 -0.4763070049982E-03  0.0000000000000E+00 -0.1601662019462E-02
 0.9813548285158E-04 -0.6009404989109E-03  0.0000000000000E+00 -0.1696049620930E-02
 0.1285016578471E-03 -0.7414774363085E-03  0.0000000000000E+00 -0.1787843446592E-02
 0.1626824276189E-03 -0.8949712752217E-03  0.0000000000000E+00 -0.1880370151951E-02
 0.1993501382800E-03 -0.1059804689253E-02  0.0000000000000E+00 -0.1975609693585E-02
 0.2376913282202E-03 -0.1235101972573E-02  0.0000000000000E+00 -0.2075367085378E-02
 0.2771362307738E-03 -0.1420408748605E-02  0.0000000000000E+00 -0.2181602722957E-02
 0.3172007808686E-03 -0.1615521521456E-02  0.0000000000000E+00 -0.2296540830651E-02
 0.3573727869313E-03 -0.1820372739923E-02  0.0000000000000E+00 -0.2422726795058E-02
 0.3969959935722E-03 -0.2034914540050E-02  0.0000000000000E+00 -0.2563068949469E-02
 0.4351188831663E-03 -0.2258947886276E-02  0.0000000000000E+00 -0.2720835834033E-02
 0.4703020968988E-03 -0.2491886827399E-02  0.0000000000000E+00 -0.2899531942212E-02
 0.5004301589754E-03 -0.2732433909051E-02  0.0000000000000E+00 -0.3102460939822E-02
 0.5227074590868E-03 -0.2978275209683E-02  0.0000000000000E+00 -0.3331815216003E-02
 0.5340906704133E-03 -0.3226037543185E-02  0.0000000000000E+00 -0.3587524906368E-02
 0.5322054183640E-03 -0.3471580867822E-02  0.0000000000000E+00 -0.3866333299348E-02
 0.5164726669639E-03 -0.3710664144267E-02  0.0000000000000E+00 -0.4160938132732E-02
 0.4884357076790E-03 -0.3939900769326E-02  0.0000000000000E+00 -0.4461565184209E-02
 0.4507900345390E-03 -0.4156880270776E-02  0.0000000000000E+00 -0.4759371342414E-02
 0.4061912038401E-03 -0.4359275957475E-02  0.0000000000000E+00 -0.5047136718984E-02
 0.3567052007275E-03 -0.4544138721229E-02  0.0000000000000E+00 -0.5317827555722E-02
 0.3039439907205E-03 -0.4707785038583E-02  0.0000000000000E+00 -0.5562975686713E-02
 0.2495891893998E-03 -0.4846067018381E-02  0.0000000000000E+00 -0.5771728047886E-02
 0.1959831691735E-03 -0.4954729615932E-02  0.0000000000000E+00 -0.5930648760532E-02
 0.1465645748277E-03 -0.5029647057444E-02  0.0000000000000E+00 -0.6023929047912E-02
 0.1061331515635E-03 -0.5066899692434E-02  0.0000000000000E+00 -0.6033376816029E-02
 0.8126854099449E-04 -0.5062616122412E-02  0.0000000000000E+00 -0.5937389418808E-02
 0.8186854500014E-04 -0.5012952289397E-02  0.0000000000000E+00 -0.5708135257394E-02
 0.1250598599895E-03 -0.4916195597383E-02  0.0000000000000E+00 -0.5308241868334E-02
 0.2419121374062E-03 -0.4777426203321E-02  0.0000000000000E+00 -0.4690108601899E-02
 0.4877276222643E-03 -0.4615675635381E-02  0.0000000000000E+00 -0.3800808569156E-02
 0.9562729466427E-03 -0.4474882188941E-02  0.0000000000000E+00 -0.2601394422550E-02
 0.1792524850347E-02 -0.4435738063876E-02  0.0000000000000E+00 -0.1118709754755E-02
 0.3182302051798E-02 -0.4612181546033E-02  0.0000000000000E+00  0.4513699261964E-03
 0.5274833515892E-02 -0.5095925674638E-02  0.0000000000000E+00  0.1613735785097E-02
 0.8005216535389E-02 -0.5819479245705E-02  0.0000000000000E+00  0.1560828249193E-02
 0.1089746039569E-01 -0.6406863913377E-02  0.0000000000000E+00 -0.4778629235906E-03
 0.1623485445515E-04  0.4252737746062E-04  0.0000000000000E+00 -0.8285468178753E-03
 0.2376534437120E-04  0.9917382631036E-05  0.0000000000000E+00 -0.1119013343415E-02
 0.1226327926419E-04 -0.4091559187408E-04  0.0000000000000E+00 -0.1292191387965E-02
 0.1189543516564E-04 -0.1249987636874E-03  0.0000000000000E+00 -0.1399249762764E-02
 0.2720736724383E-04 -0.2384034272063E-03  0.0000000000000E+00 -0.1482348803745E-02
 0.5349762694349E-04 -0.3729158172055E-03  0.0000000000000E+00 -0.1560319366498E-02
 0.8632601439840E-04 -0.5229577217557E-03  0.0000000000000E+00 -0.1638893456566E-02
 0.1231703367568E-03 -0.6856836028497E-03  0.0000000000000E+00 -0.1719804046582E-02
 0.1627243319737E-03 -0.8597211086965E-03  0.0000000000000E+00 -0.1804204060720E-02
 0.2042568472981E-03 -0.1044423231157E-02  0.0000000000000E+00 -0.1893434371129E-02
 0.2472937996008E-03 -0.1239548206996E-02  0.0000000000000E+00 -0.1989151384593E-02
 0.2914571918631E-03 -0.1445109476566E-02  0.0000000000000E+00 -0.2093361351656E-02
 0.3363573497193E-03 -0.1661283145520E-02  0.0000000000000E+00 -0.2208459077522E-02
 0.3814845140232E-03 -0.1888315369052E-02  0.0000000000000E+00 -0.2337288505708E-02
 0.4260581355662E-03 -0.2126372591503E-02  0.0000000000000E+00 -0.2483200508406E-02
 0.4688099414769E-03 -0.2375310364167E-02  0.0000000000000E+00 -0.2650036568689E-02
 0.5077191670385E-03 -0.2634301454589E-02  0.0000000000000E+00 -0.2841813560573E-02
 0.5398884764853E-03 -0.2901410574152E-02  0.0000000000000E+00 -0.3061822934055E-02
 0.5619165665674E-03 -0.3173417958216E-02  0.0000000000000E+00 -0.3311253903055E-02
 0.5709345373583E-03 -0.3446070876454E-02  0.0000000000000E+00 -0.3587915747853E-02
 0.5659620409873E-03 -0.3714820507371E-02  0.0000000000000E+00 -0.3885109175115E-02
 0.5483358126553E-03 -0.3975900332342E-02  0.0000000000000E+00 -0.4193400461115E-02
 0.5205991958565E-03 -0.4226492785472E-02  0.0000000000000E+00 -0.4504529822802E-02
 0.4851025907327E-03 -0.4463782248605E-02  0.0000000000000E+00 -0.4812194459634E-02
 0.4433678805655E-03 -0.4684222200307E-02  0.0000000000000E+00 -0.5110391991064E-02
 0.3962576075193E-03 -0.4883443480852E-02  0.0000000000000E+00 -0.5391604166655E-02
 0.3445767954886E-03 -0.5056552183562E-02  0.0000000000000E+00 -0.5645774497675E-02
 0.2897305288139E-03 -0.5198504339062E-02  0.0000000000000E+00 -0.5860163602277E-02
 0.2341467248085E-03 -0.5304318063832E-02  0.0000000000000E+00 -0.6019742511897E-02
 0.1813544126232E-03 -0.5369010899390E-02  0.0000000000000E+00 -0.6107393096667E-02
 0.1360014828288E-03 -0.5387096598230E-02  0.0000000000000E+00 -0.6102817538153E-02
 0.1049100923997E-03 -0.5352014533443E-02  0.0000000000000E+00 -0.5979008530363E-02
 0.1007426929094E-03 -0.5257735019271E-02  0.0000000000000E+00 -0.5697331998391E-02
 0.1488973874111E-03 -0.5103007415284E-02  0.0000000000000E+00 -0.5204023823310E-02
 0.2990802070840E-03 -0.4898476036085E-02  0.0000000000000E+00 -0.4429949347979E-02
 0.6444812292243E-03 -0.4679881174500E-02  0.0000000000000E+00 -0.3301607342753E-02
 0.1347885129265E-02 -0.4528727462850E-02  0.0000000000000E+00 -0.1787158131390E-02
 0.2653969949563E-02 -0.4586802945600E-02  0.0000000000000E+00 -0.2060267522391E-04
 0.4821510218219E-02 -0.5011783949369E-02  0.0000000000000E+00  0.1482221439936E-02
 0.7883364414029E-02 -0.5794700351563E-02  0.0000000000000E+00  0.1681862290319E-02
 0.1128427864172E-01 -0.6482486248250E-02  0.0000000000000E+00 -0.6036755321174E-03
 0.3614143639371E-05  0.2990224850579E-03  0.0000000000000E+00 -0.8060307562230E-03
-0.1183690779610E-04  0.2755104734880E-03  0.0000000000000E+00 -0.1078591029780E-02
-0.3705584149052E-04  0.2234914948797E-03  0.0000000000000E+00 -0.1216197077785E-02
-0.4054553354532E-04  0.1300680379015E-03  0.0000000000000E+00 -0.1291441006663E-02
-0.2346680466028E-04  0.5146719010243E-05  0.0000000000000E+00 -0.1352470136598E-02
 0.5672332398027E-05 -0.1401953783235E-03  0.0000000000000E+00 -0.1414822080217E-02
 0.4136109949356E-04 -0.3001373987475E-03  0.0000000000000E+00 -0.1480760498939E-02
 0.8104140276980E-04 -0.4722394018508E-03  0.0000000000000E+00 -0.1550319393736E-02
 0.1235355408513E-03 -0.6554819219712E-03  0.0000000000000E+00 -0.1623897648967E-02
 0.1682343767380E-03 -0.8494835012300E-03  0.0000000000000E+00 -0.1702416300121E-02
 0.2147767495370E-03 -0.1054228628783E-02  0.0000000000000E+00 -0.1787241444670E-02
 0.2628998944862E-03 -0.1269952131305E-02  0.0000000000000E+00 -0.1880150181566E-02
 0.3123452282998E-03 -0.1497076502635E-02  0.0000000000000E+00 -0.1983350630030E-02
 0.3627645368886E-03 -0.1736149823299E-02  0.0000000000000E+00 -0.2099557908674E-02
 0.4135807125199E-03 -0.1987729362760E-02  0.0000000000000E+00 -0.2232109444345E-02
 0.4637621101363E-03 -0.2252177230875E-02  0.0000000000000E+00 -0.2385071895000E-02
 0.5114871277278E-03 -0.2529264221738E-02  0.0000000000000E+00 -0.2563109366856E-02
 0.5538679207337E-03 -0.2817615168612E-02  0.0000000000000E+00 -0.2770685051576E-02
 0.5872034043744E-03 -0.3114340923772E-02  0.0000000000000E+00 -0.3010478120917E-02
 0.6081235614009E-03 -0.3415188610339E-02  0.0000000000000E+00 -0.3281645052637E-02
 0.6152288900140E-03 -0.3715328525726E-02  0.0000000000000E+00 -0.3578313499964E-02
 0.6096568402309E-03 -0.4010571844734E-02  0.0000000000000E+00 -0.3891561501941E-02
 0.5938093127495E-03 -0.4297616920971E-02  0.0000000000000E+00 -0.4213868021908E-02
 0.5697198680719E-03 -0.4573086589797E-02  0.0000000000000E+00 -0.4539969388250E-02
 0.5383403693076E-03 -0.4832805076216E-02  0.0000000000000E+00 -0.4864973764995E-02
 0.4997609685875E-03 -0.5071738901412E-02  0.0000000000000E+00 -0.5182383764144E-02
 0.4538972590635E-03 -0.5284309470285E-02  0.0000000000000E+00 -0.5483034544149E-02
 0.4012293810834E-03 -0.5464778735626E-02  0.0000000000000E+00 -0.5755005759554E-02
 0.3432464382088E-03 -0.5607465507889E-02  0.0000000000000E+00 -0.5984237103528E-02
 0.2823427105081E-03 -0.5706580691998E-02  0.0000000000000E+00 -0.6155099418775E-02
 0.2213438063542E-03 -0.5755368418132E-02  0.0000000000000E+00 -0.6249480888404E-02
 0.1639055155061E-03 -0.5744914777709E-02  0.0000000000000E+00 -0.6242781399917E-02
 0.1176766396731E-03 -0.5665095744458E-02  0.0000000000000E+00 -0.6097680408175E-02
 0.1008286435346E-03 -0.5507967639881E-02  0.0000000000000E+00 -0.5758162755771E-02
 0.1537031645454E-03 -0.5273732344939E-02  0.0000000000000E+00 -0.5143918238015E-02
 0.3610522472927E-03 -0.4984018194091E-02  0.0000000000000E+00 -0.4149695981746E-02
 0.8920457855929E-03 -0.4709790711957E-02  0.0000000000000E+00 -0.2673506271173E-02
 0.2048021115284E-02 -0.4611179281507E-02  0.0000000000000E+00 -0.7431921533165E-03
 0.4234770336645E-02 -0.4928114082783E-02  0.0000000000000E+00  0.1167958144019E-02
 0.7668345326504E-02 -0.5762595061409E-02  0.0000000000000E+00  0.1764492784401E-02
 0.1174138991324E-01 -0.6591218090101E-02  0.0000000000000E+00 -0.7688319725318E-03
-0.1268646032006E-04  0.5689382894431E-03  0.0000000000000E+00 -0.7913787908199E-03
-0.5597448038123E-04  0.5554375254456E-03  0.0000000000000E+00 -0.1037051636714E-02
-0.9470509454373E-04  0.4989953491163E-03  0.0000000000000E+00 -0.1129716874515E-02
-0.9865938308076E-04  0.3923479094644E-03  0.0000000000000E+00 -0.1170676254139E-02
-0.7792634194621E-04  0.2538268524150E-03  0.0000000000000E+00 -0.1210935485722E-02
-0.4513904550665E-04  0.9691377051823E-04  0.0000000000000E+00 -0.1259140129948E-02
-0.6294689134517E-05 -0.7316595033856E-04  0.0000000000000E+00 -0.1313277223840E-02
 0.3632641249780E-04 -0.2546924052623E-03  0.0000000000000E+00 -0.1371878540045E-02
 0.8176528425350E-04 -0.4470719607961E-03  0.0000000000000E+00 -0.1434749177978E-02
 0.1295635489388E-03 -0.6502102356036E-03  0.0000000000000E+00 -0.1502456775274E-02
 0.1794836639537E-03 -0.8643218643984E-03  0.0000000000000E+00 -0.1576101658778E-02
 0.2313813644980E-03 -0.1089859530001E-02  0.0000000000000E+00 -0.1657224995291E-02
 0.2851314597802E-03 -0.1327486540199E-02  0.0000000000000E+00 -0.1747813066891E-02
 0.3405540717070E-03 -0.1578049608101E-02  0.0000000000000E+00 -0.1850383665001E-02
 0.3972974726893E-03 -0.1842506217198E-02  0.0000000000000E+00 -0.1968147460691E-02
 0.4546254120332E-03 -0.2121773356560E-02  0.0000000000000E+00 -0.2105237399639E-02
 0.5110325507375E-03 -0.2416348716158E-02  0.0000000000000E+00 -0.2266819113710E-02
 0.5637917209310E-03 -0.2725640094043E-02  0.0000000000000E+00 -0.2458533361090E-02
 0.6090037388511E-03 -0.3047339727550E-02  0.0000000000000E+00 -0.2684790376875E-02
 0.6428100695309E-03 -0.3377372603510E-02  0.0000000000000E+00 -0.2946456485060E-02
 0.6633737890361E-03 -0.3710676778519E-02  0.0000000000000E+00 -0.3238809144720E-02
 0.6716304466338E-03 -0.4042568231465E-02  0.0000000000000E+00 -0.3553693638384E-02
 0.6698297494239E-03 -0.4369123573942E-02  0.0000000000000E+00 -0.3884522091864E-02
 0.6596521825051E-03 -0.4686279307821E-02  0.0000000000000E+00 -0.4227165501542E-02
 0.6414438837682E-03 -0.4989182118367E-02  0.0000000000000E+00 -0.4577854531558E-02
 0.6145091413473E-03 -0.5272173887732E-02  0.0000000000000E+00 -0.4931124751685E-02
 0.5778760895863E-03 -0.5529082828436E-02  0.0000000000000E+00 -0.5278773476665E-02
 0.5311199904521E-03 -0.5753589226065E-02  0.0000000000000E+00 -0.5609802871155E-02
 0.4748828004780E-03 -0.5939479330679E-02  0.0000000000000E+00 -0.5911234203444E-02
 0.4106354913232E-03 -0.6080458673397E-02  0.0000000000000E+00 -0.6169197061427E-02
 0.3396465055548E-03 -0.6168978782090E-02  0.0000000000000E+00 -0.6368493114283E-02
 0.2625743865724E-03 -0.6194418224149E-02  0.0000000000000E+00 -0.6488422460817E-02
 0.1819321510093E-03 -0.6143318554114E-02  0.0000000000000E+00 -0.6495708380802E-02
 0.1077418255792E-03 -0.6001579160347E-02  0.0000000000000E+00 -0.6336895594803E-02
 0.6788923147338E-04 -0.5758208642622E-02  0.0000000000000E+00 -0.5928333692463E-02
 0.1301176668864E-03 -0.5415785495569E-02  0.0000000000000E+00 -0.5143085806545E-02
 0.4516805841603E-03 -0.5019962879545E-02  0.0000000000000E+00 -0.3809129729266E-02
 0.1372286040551E-02 -0.4726212380691E-02  0.0000000000000E+00 -0.1801271128432E-02
 0.3477378491622E-02 -0.4861198799206E-02  0.0000000000000E+00  0.5626710397433E-03
 0.7303275378744E-02 -0.5717478021210E-02  0.0000000000000E+00  0.1762821316421E-02
 0.1228601381270E-01 -0.6746536293952E-02  0.0000000000000E+00 -0.9795567846179E-03
-0.3418279435284E-04  0.8555179101974E-03  0.0000000000000E+00 -0.7865071514229E-03
-0.1111832074871E-03  0.8521999164077E-03  0.0000000000000E+00 -0.9913985744893E-03
-0.1616204914318E-03  0.7856805548747E-03  0.0000000000000E+00 -0.1027901545539E-02
-0.1620504669316E-03  0.6608247492598E-03  0.0000000000000E+00 -0.1034302149072E-02
-0.1356745148889E-03  0.5068926494832E-03  0.0000000000000E+00 -0.1056947169822E-02
-0.9867090339744E-04  0.3380481083295E-03  0.0000000000000E+00 -0.1093052427585E-02
-0.5651560361117E-04  0.1577770883655E-03  0.0000000000000E+00 -0.1136373243473E-02
-0.1092335910356E-04 -0.3312015019757E-04  0.0000000000000E+00 -0.1184508257123E-02
 0.3741271045504E-04 -0.2344978335318E-03  0.0000000000000E+00 -0.1236866289347E-02
 0.8820183157668E-04 -0.4465540050469E-03  0.0000000000000E+00 -0.1293743169155E-02
 0.1413324884659E-03 -0.6697254505459E-03  0.0000000000000E+00 -0.1356006398536E-02
 0.1967757334614E-03 -0.9046711406216E-03  0.0000000000000E+00 -0.1424957551610E-02
 0.2545355239557E-03 -0.1152281183628E-02  0.0000000000000E+00 -0.1502328610912E-02
 0.3145978176271E-03 -0.1413685734558E-02  0.0000000000000E+00 -0.1590371857510E-02
 0.3768436784645E-03 -0.1690232285008E-02  0.0000000000000E+00 -0.1692048377434E-02
 0.4408742502707E-03 -0.1983412378581E-02  0.0000000000000E+00 -0.1811354730809E-02
 0.5056198318630E-03 -0.2294562104090E-02  0.0000000000000E+00 -0.1953707841058E-02
 0.5687109422344E-03 -0.2624132854523E-02  0.0000000000000E+00 -0.2125809331206E-02
 0.6262191951862E-03 -0.2970752214694E-02  0.0000000000000E+00 -0.2334015730367E-02
 0.6738510035416E-03 -0.3330811794099E-02  0.0000000000000E+00 -0.2581369698241E-02
 0.7093208881435E-03 -0.3699110723291E-02  0.0000000000000E+00 -0.2864782574947E-02
 0.7333409008721E-03 -0.4070347931167E-02  0.0000000000000E+00 -0.3177269140456E-02
 0.7479542422249E-03 -0.4439738892358E-02  0.0000000000000E+00 -0.3513428355936E-02
 0.7544079713427E-03 -0.4802326799787E-02  0.0000000000000E+00 -0.3870304898374E-02
 0.7523925846102E-03 -0.5152511087065E-02  0.0000000000000E+00 -0.4245148788878E-02
 0.7404323222762E-03 -0.5484080678236E-02  0.0000000000000E+00 -0.4633449137852E-02
 0.7166971578848E-03 -0.5790411478500E-02  0.0000000000000E+00 -0.5028013124958E-02
 0.6798818811399E-03 -0.6064736480617E-02  0.0000000000000E+00 -0.5418882004278E-02
 0.6298670737077E-03 -0.6300458398186E-02  0.0000000000000E+00 -0.5794208793771E-02
 0.5674614650271E-03 -0.6491074963640E-02  0.0000000000000E+00 -0.6141944810188E-02
 0.4927903024191E-03 -0.6628813350695E-02  0.0000000000000E+00 -0.6450239296502E-02
 0.4039633882355E-03 -0.6702264155210E-02  0.0000000000000E+00 -0.6703464728558E-02
 0.2987683117519E-03 -0.6695997341112E-02  0.0000000000000E+00 -0.6874886584743E-02
 0.1790760500299E-03 -0.6591428768026E-02  0.0000000000000E+00 -0.6918777920718E-02
 0.5868993447805E-04 -0.6367586119454E-02  0.0000000000000E+00 -0.6757966067027E-02
-0.1857548172907E-04 -0.6006286893154E-02  0.0000000000000E+00 -0.6261314556134E-02
 0.6968926530976E-04 -0.5513881274468E-02  0.0000000000000E+00 -0.5207977980210E-02
 0.6576004688310E-03 -0.5001260600797E-02  0.0000000000000E+00 -0.3292601082423E-02
 0.2512923671514E-02 -0.4852600172892E-02  0.0000000000000E+00 -0.5065096461769E-03
 0.6694847131491E-02 -0.5654989273208E-02  0.0000000000000E+00  0.1573674232175E-02
 0.1293760172365E-01 -0.6971018542055E-02  0.0000000000000E+00 -0.1250365432586E-02
-0.6331601545926E-04  0.1163744937417E-02  0.0000000000000E+00 -0.7936546280709E-03
-0.1809117453229E-03  0.1168741790418E-02  0.0000000000000E+00 -0.9356035517389E-03
-0.2382378541244E-03  0.1082473007679E-02  0.0000000000000E+00 -0.9038778175373E-03
-0.2296564929533E-03  0.9336767282662E-03  0.0000000000000E+00 -0.8799795909428E-03
-0.1960225197042E-03  0.7634671517457E-03  0.0000000000000E+00 -0.8902881231383E-03
-0.1546358723593E-03  0.5828336823023E-03  0.0000000000000E+00 -0.9165493188506E-03
-0.1091576780533E-03  0.3924909685102E-03  0.0000000000000E+00 -0.9500773182028E-03
-0.6064065892299E-04  0.1923828477478E-03  0.0000000000000E+00 -0.9883035547770E-03
-0.9507635351465E-05 -0.1778557183047E-04  0.0000000000000E+00 -0.1030403723694E-02
 0.4412445669373E-04 -0.2384882902064E-03  0.0000000000000E+00 -0.1076504139870E-02
 0.1002616401107E-03 -0.4703638167424E-03  0.0000000000000E+00 -0.1127272275696E-02
 0.1589813289609E-03 -0.7142587376901E-03  0.0000000000000E+00 -0.1183768934812E-02
 0.2204059061749E-03 -0.9712677680390E-03  0.0000000000000E+00 -0.1247443788154E-02
 0.2846752988366E-03 -0.1242777795417E-02  0.0000000000000E+00 -0.1320220291906E-02
 0.3518938524503E-03 -0.1530495222251E-02  0.0000000000000E+00 -0.1404689377004E-02
 0.4220134531736E-03 -0.1836465472802E-02  0.0000000000000E+00 -0.1504481449604E-02
 0.4945006759622E-03 -0.2162926340366E-02  0.0000000000000E+00 -0.1624894550081E-02
 0.5675836035444E-03 -0.2511648959287E-02  0.0000000000000E+00 -0.1773368684929E-02
 0.6375735864025E-03 -0.2882688467545E-02  0.0000000000000E+00 -0.1958312606038E-02
 0.6998780796687E-03 -0.3273382696380E-02  0.0000000000000E+00 -0.2185530664460E-02
 0.7517786926590E-03 -0.3678577710126E-02  0.0000000000000E+00 -0.2454319996198E-02
 0.7937073893375E-03 -0.4092152816465E-02  0.0000000000000E+00 -0.2759527647305E-02
 0.8273627789007E-03 -0.4508050352209E-02  0.0000000000000E+00 -0.3097281114069E-02
 0.8534032577441E-03 -0.4920086591145E-02  0.0000000000000E+00 -0.3465723797060E-02
 0.8707955336829E-03 -0.5321820194378E-02  0.0000000000000E+00 -0.3862832267580E-02
 0.8773254081810E-03 -0.5706612315579E-02  0.0000000000000E+00 -0.4284830276649E-02
 0.8703856265141E-03 -0.6067608796331E-02  0.0000000000000E+00 -0.4725558033634E-02
 0.8478241693838E-03 -0.6397771386395E-02  0.0000000000000E+00 -0.5176285722107E-02
 0.8088021901780E-03 -0.6690217533664E-02  0.0000000000000E+00 -0.5626349582476E-02
 0.7537215917141E-03 -0.6938445739597E-02  0.0000000000000E+00 -0.6065335984343E-02
 0.6820954142979E-03 -0.7135032932906E-02  0.0000000000000E+00 -0.6484704615221E-02
 0.5902045412768E-03 -0.7268938901473E-02  0.0000000000000E+00 -0.6874476164623E-02
 0.4720962687090E-03 -0.7324729379645E-02  0.0000000000000E+00 -0.7216250502225E-02
 0.3226674335132E-03 -0.7282287192043E-02  0.0000000000000E+00 -0.7476738180344E-02
 0.1419855989431E-03 -0.7114262147869E-02  0.0000000000000E+00 -0.7595761951964E-02
-0.5264608312178E-04 -0.6785065868991E-02  0.0000000000000E+00 -0.7459452755792E-02
-0.1926710114764E-03 -0.6257326566550E-02  0.0000000000000E+00 -0.6844867812092E-02
-0.2287814552226E-04 -0.5548068850136E-02  0.0000000000000E+00 -0.5303537948819E-02
 0.1327434397383E-02 -0.5000362557068E-02  0.0000000000000E+00 -0.2304291650837E-02
 0.5691804715872E-02 -0.5585051355886E-02  0.0000000000000E+00  0.9661978380159E-03
 0.1370919389605E-01 -0.7305653691812E-02  0.0000000000000E+00 -0.1628830700545E-02
-0.1041976849842E-03  0.1501905347775E-02  0.0000000000000E+00 -0.8149485843253E-03
-0.2697282461385E-03  0.1507934757461E-02  0.0000000000000E+00 -0.8574852843304E-03
-0.3236106686260E-03  0.1385799920483E-02  0.0000000000000E+00 -0.7486769645040E-03
-0.2995175809103E-03  0.1208272783775E-02  0.0000000000000E+00 -0.7069418813025E-03
-0.2582563638601E-03  0.1022793343791E-02  0.0000000000000E+00 -0.7115167153580E-03
-0.2127706597237E-03  0.8309037942645E-03  0.0000000000000E+00 -0.7297584211904E-03
-0.1640618395842E-03  0.6307654180912E-03  0.0000000000000E+00 -0.7545331089989E-03
-0.1127502360163E-03  0.4217141321105E-03  0.0000000000000E+00 -0.7834237964129E-03
-0.5896757388316E-04  0.2030206627463E-03  0.0000000000000E+00 -0.8155591751692E-03
-0.2675856129085E-05 -0.2600876985455E-04  0.0000000000000E+00 -0.8510068339116E-03
 0.5623080743059E-04 -0.2661894040423E-03  0.0000000000000E+00 -0.8902535253901E-03
 0.1179228695305E-03 -0.5185288756815E-03  0.0000000000000E+00 -0.9341235827825E-03
 0.1826241487675E-03 -0.7842977136163E-03  0.0000000000000E+00 -0.9837609433302E-03
 0.2506082411443E-03 -0.1065102341897E-02  0.0000000000000E+00 -0.1040706553980E-02
 0.3221769509650E-03 -0.1362957958740E-02  0.0000000000000E+00 -0.1107074770471E-02
 0.3976080314065E-03 -0.1680397472408E-02  0.0000000000000E+00 -0.1185906716972E-02
 0.4769512871440E-03 -0.2020533254716E-02  0.0000000000000E+00 -0.1281908941698E-02
 0.5592889602623E-03 -0.2386685184150E-02  0.0000000000000E+00 -0.1402624029227E-02
 0.6415800200953E-03 -0.2780993015481E-02  0.0000000000000E+00 -0.1558330713238E-02
 0.7192318954138E-03 -0.3202555705621E-02  0.0000000000000E+00 -0.1758276733514E-02
 0.7891832602026E-03 -0.3646647131192E-02  0.0000000000000E+00 -0.2005353848900E-02
 0.8514641267151E-03 -0.4105984035013E-02  0.0000000000000E+00 -0.2297378202228E-02
 0.9071319558913E-03 -0.4572524591666E-02  0.0000000000000E+00 -0.2632469554392E-02
 0.9559799777715E-03 -0.5038335335162E-02  0.0000000000000E+00 -0.3009568548258E-02
 0.9961652291093E-03 -0.5496024404357E-02  0.0000000000000E+00 -0.3426784044356E-02
 0.1024836975223E-02 -0.5938735149816E-02  0.0000000000000E+00 -0.3880653419115E-02
 0.1038782658225E-02 -0.6359731265594E-02  0.0000000000000E+00 -0.4366031069072E-02
 0.1035074058744E-02 -0.6751971961536E-02  0.0000000000000E+00 -0.4875762597433E-02
 0.1012103649896E-02 -0.7108315490304E-02  0.0000000000000E+00 -0.5400583412629E-02
 0.9700145423585E-03 -0.7422235163732E-02  0.0000000000000E+00 -0.5931291740853E-02
 0.9082720334548E-03 -0.7687075259698E-02  0.0000000000000E+00 -0.6461921354898E-02
 0.8223139621064E-03 -0.7893496458428E-02  0.0000000000000E+00 -0.6987725890175E-02
 0.7039523122740E-03 -0.8028632168824E-02  0.0000000000000E+00 -0.7499358366252E-02
 0.5435766430230E-03 -0.8074890654438E-02  0.0000000000000E+00 -0.7979046418784E-02
 0.3303216961246E-03 -0.8004902565399E-02  0.0000000000000E+00 -0.8393266281087E-02
 0.5703015065744E-04 -0.7774114126178E-02  0.0000000000000E+00 -0.8665933710059E-02
-0.2621872843159E-03 -0.7315327432358E-02  0.0000000000000E+00 -0.8628302716418E-02
-0.5286923074555E-03 -0.6529260900479E-02  0.0000000000000E+00 -0.7842483832463E-02
-0.1226563696527E-04 -0.5522416426538E-02  0.0000000000000E+00 -0.5193367628378E-02
 0.4063056407249E-02 -0.5580347940384E-02  0.0000000000000E+00 -0.5702156092644E-03
 0.1457427346038E-01 -0.7833488649841E-02  0.0000000000000E+00 -0.2287637891549E-02
-0.1640557621472E-03  0.1885343715522E-02  0.0000000000000E+00 -0.8502168356822E-03
-0.3830720464358E-03  0.1870010683505E-02  0.0000000000000E+00 -0.7318739705792E-03
-0.4135076262942E-03  0.1687157152685E-02  0.0000000000000E+00 -0.5534602513841E-03
-0.3689474270010E-03  0.1482173225015E-02  0.0000000000000E+00 -0.5182662880912E-03
-0.3220049358612E-03  0.1284488706368E-02  0.0000000000000E+00 -0.5214918120908E-03
-0.2728048789947E-03  0.1081836365116E-02  0.0000000000000E+00 -0.5329036813814E-03
-0.2210692594369E-03  0.8724292458358E-03  0.0000000000000E+00 -0.5500348129607E-03
-0.1671785946486E-03  0.6547594431401E-03  0.0000000000000E+00 -0.5700632811531E-03
-0.1109246167439E-03  0.4278630911402E-03  0.0000000000000E+00 -0.5925760535710E-03
-0.5219039309380E-04  0.1908665379884E-03  0.0000000000000E+00 -0.6175501020957E-03
 0.9221906379642E-05 -0.5718335988417E-04  0.0000000000000E+00 -0.6453374153055E-03
 0.7355302432044E-04 -0.3174249283042E-03  0.0000000000000E+00 -0.6765220356807E-03
 0.1411082266040E-03 -0.5912703128729E-03  0.0000000000000E+00 -0.7119278175442E-03
 0.2122666599844E-03 -0.8805000095167E-03  0.0000000000000E+00 -0.7526728407611E-03
 0.2874890719640E-03 -0.1187372113335E-02  0.0000000000000E+00 -0.8003103801054E-03
 0.3673171682162E-03 -0.1514803306542E-02  0.0000000000000E+00 -0.8571166551508E-03
 0.4523329061653E-03 -0.1866627499139E-02  0.0000000000000E+00 -0.9267218987627E-03
 0.5426687556327E-03 -0.2247758024422E-02  0.0000000000000E+00 -0.1015735180078E-02
 0.6365029095960E-03 -0.2663205582818E-02  0.0000000000000E+00 -0.1135470721209E-02
 0.7298595317092E-03 -0.3115246964991E-02  0.0000000000000E+00 -0.1299244160406E-02
 0.8196126670036E-03 -0.3600390428167E-02  0.0000000000000E+00 -0.1515562051943E-02
 0.9051398156316E-03 -0.4109579334124E-02  0.0000000000000E+00 -0.1787239044321E-02
 0.9862598783995E-03 -0.4631544977937E-02  0.0000000000000E+00 -0.2114987529667E-02
 0.1061438451870E-02 -0.5155814719705E-02  0.0000000000000E+00 -0.2497794878285E-02
 0.1127935525483E-02 -0.5673953192069E-02  0.0000000000000E+00 -0.2932846533618E-02
 0.1182459465470E-02 -0.6179226079035E-02  0.0000000000000E+00 -0.3416307257658E-02
 0.1221504784175E-02 -0.6665532796188E-02  0.0000000000000E+00 -0.3943937110528E-02
 0.1241549009411E-02 -0.7126290200932E-02  0.0000000000000E+00 -0.4510720842321E-02
 0.1240048220119E-02 -0.7554100295344E-02  0.0000000000000E+00 -0.5109506253900E-02
 0.1216726658793E-02 -0.7941909254154E-02  0.0000000000000E+00 -0.5731850058132E-02
 0.1171452646130E-02 -0.8283750112368E-02  0.0000000000000E+00 -0.6372534843991E-02
 0.1100000795327E-02 -0.8573452817990E-02  0.0000000000000E+00 -0.7030126306854E-02
 0.9941666677390E-03 -0.8803945212918E-02  0.0000000000000E+00 -0.7703442174429E-02
 0.8427509200880E-03 -0.8965015894339E-02  0.0000000000000E+00 -0.8391756940252E-02
 0.6306321921378E-03 -0.9037427420890E-02  0.0000000000000E+00 -0.9091888451146E-02
 0.3306910569662E-03 -0.8982813982254E-02  0.0000000000000E+00 -0.9786975961698E-02
-0.7820703109906E-04 -0.8728774384078E-02  0.0000000000000E+00 -0.1039039352551E-01
-0.6440372565482E-03 -0.8130562835673E-02  0.0000000000000E+00 -0.1070415612124E-01
-0.1218042304535E-02 -0.6863752331671E-02  0.0000000000000E+00 -0.9512846604668E-02
 0.1519969375893E-02 -0.5948494976882E-02  0.0000000000000E+00 -0.4135228206537E-02
 0.1536334356134E-01 -0.8749368017675E-02  0.0000000000000E+00 -0.3863668580010E-02
-0.2558144388431E-03  0.2347484338802E-02  0.0000000000000E+00 -0.8861994792712E-03
-0.5246131996263E-03  0.2240271445453E-02  0.0000000000000E+00 -0.5054921892137E-03
-0.4967698907771E-03  0.1971489785961E-02  0.0000000000000E+00 -0.3215547220344E-03
-0.4364829348301E-03  0.1756707486575E-02  0.0000000000000E+00 -0.3218927107198E-03
-0.3874109985385E-03  0.1547597595983E-02  0.0000000000000E+00 -0.3195220196889E-03
-0.3342951806212E-03  0.1335446215491E-02  0.0000000000000E+00 -0.3269810209054E-03
-0.2801255027529E-03  0.1117304206492E-02  0.0000000000000E+00 -0.3367748610386E-03
-0.2238249256033E-03  0.8914093489596E-03  0.0000000000000E+00 -0.3485045641416E-03
-0.1653340965752E-03  0.6566701228064E-03  0.0000000000000E+00 -0.3617197991377E-03
-0.1043920444785E-03  0.4120985496612E-03  0.0000000000000E+00 -0.3764628760948E-03
-0.4076150733959E-04  0.1566442688810E-03  0.0000000000000E+00 -0.3929367799555E-03
 0.2585364128875E-04 -0.1109279798157E-03  0.0000000000000E+00 -0.4114927225427E-03
 0.9581457238103E-04 -0.3921348204873E-03  0.0000000000000E+00 -0.4326250222773E-03
 0.1695736772357E-03 -0.6888801597326E-03  0.0000000000000E+00 -0.4570063158441E-03
 0.2477011252141E-03 -0.1003587450002E-02  0.0000000000000E+00 -0.4855743389043E-03
 0.3309224482997E-03 -0.1339430350140E-02  0.0000000000000E+00 -0.5197233987514E-03
 0.4201814129260E-03 -0.1700712154666E-02  0.0000000000000E+00 -0.5616929159202E-03
 0.5166268273073E-03 -0.2093578348390E-02  0.0000000000000E+00 -0.6158393943567E-03
 0.6203217280757E-03 -0.2526537640034E-02  0.0000000000000E+00 -0.6923391681235E-03
 0.7291447198628E-03 -0.3007562517676E-02  0.0000000000000E+00 -0.8085543135608E-03
 0.8406540673035E-03 -0.3536197260363E-02  0.0000000000000E+00 -0.9821658314680E-03
 0.9530429823922E-03 -0.4100403691073E-02  0.0000000000000E+00 -0.1224775881580E-02
 0.1063715954535E-02 -0.4683480903110E-02  0.0000000000000E+00 -0.1540309311120E-02
 0.1169089746241E-02 -0.5271302321231E-02  0.0000000000000E+00 -0.1926174365715E-02
 0.1265491401378E-02 -0.5854391959912E-02  0.0000000000000E+00 -0.2376906060045E-02
 0.1349527908071E-02 -0.6426680704411E-02  0.0000000000000E+00 -0.2887306132890E-02
 0.1417884236962E-02 -0.6983412904960E-02  0.0000000000000E+00 -0.3453793228916E-02
 0.1466880548847E-02 -0.7519228400464E-02  0.0000000000000E+00 -0.4074155195295E-02
 0.1492845960480E-02 -0.8026743264876E-02  0.0000000000000E+00 -0.4745099322939E-02
 0.1494256792074E-02 -0.8497065329303E-02  0.0000000000000E+00 -0.5459279512967E-02
 0.1471280509307E-02 -0.8923474396542E-02  0.0000000000000E+00 -0.6208612557534E-02
 0.1421659680243E-02 -0.9304733337103E-02  0.0000000000000E+00 -0.6990291403902E-02
 0.1339750966968E-02 -0.9643800807620E-02  0.0000000000000E+00 -0.7809187791882E-02
 0.1217322848933E-02 -0.9942922006922E-02  0.0000000000000E+00 -0.8680592250591E-02
 0.1038521648787E-02 -0.1019898153448E-01  0.0000000000000E+00 -0.9631706236114E-02
 0.7816143411474E-03 -0.1040006571122E-01  0.0000000000000E+00 -0.1070100939472E-01
 0.3737544502331E-03 -0.1050449187300E-01  0.0000000000000E+00 -0.1193929486626E-01
-0.1759206077683E-03 -0.1043447098519E-01  0.0000000000000E+00 -0.1333065649483E-01
-0.1518113834227E-02 -0.9756819934691E-02  0.0000000000000E+00 -0.1497953140744E-01
-0.1957763311183E-02 -0.7816333427917E-02  0.0000000000000E+00 -0.1184562181916E-01
 0.1538735324780E-01 -0.1068447400048E-01  0.0000000000000E+00 -0.8863493915924E-02
-0.3989483939294E-03  0.2983744632388E-02  0.0000000000000E+00 -0.8325363504287E-03
-0.6816981542773E-03  0.2518313255734E-02  0.0000000000000E+00 -0.7127740781745E-04
-0.5521961321294E-03  0.2249593949751E-02  0.0000000000000E+00 -0.1193230592594E-03
-0.5089890028289E-03  0.2030243452216E-02  0.0000000000000E+00 -0.1078687991486E-03
-0.4521707062510E-03  0.1811963705562E-02  0.0000000000000E+00 -0.1097539976734E-03
-0.3976465713329E-03  0.1591582050923E-02  0.0000000000000E+00 -0.1119801468752E-03
-0.3409944552319E-03  0.1365246027901E-02  0.0000000000000E+00 -0.1152290631518E-03
-0.2826435401297E-03  0.1131557306225E-02  0.0000000000000E+00 -0.1190077509526E-03
-0.2221295280443E-03  0.8893583768742E-03  0.0000000000000E+00 -0.1232923803462E-03
-0.1592412244313E-03  0.6376277596918E-03  0.0000000000000E+00 -0.1280926295549E-03
-0.9369285501223E-04  0.3752546167499E-03  0.0000000000000E+00 -0.1334842527949E-03
-0.2516424884220E-04  0.1009426967025E-03  0.0000000000000E+00 -0.1395831691175E-03
 0.4673918492594E-04 -0.1868909854497E-03  0.0000000000000E+00 -0.1465526898002E-03
 0.1225075204386E-03 -0.4902234038373E-03  0.0000000000000E+00 -0.1546180933480E-03
 0.2027658237803E-03 -0.8115572511220E-03  0.0000000000000E+00 -0.1640811346618E-03
 0.2883303303045E-03 -0.1154187453054E-02  0.0000000000000E+00 -0.1754038479078E-03
 0.3803102869917E-03 -0.1522605964882E-02  0.0000000000000E+00 -0.1893280529196E-03
 0.4803587088093E-03 -0.1923438652933E-02  0.0000000000000E+00 -0.2072221798271E-03
 0.5907248918901E-03 -0.2367945004761E-02  0.0000000000000E+00 -0.2336388232071E-03
 0.7135974591513E-03 -0.2874280987818E-02  0.0000000000000E+00 -0.2871545465260E-03
 0.8491943622475E-03 -0.3449516211461E-02  0.0000000000000E+00 -0.4014918987153E-03
 0.9932727209792E-03 -0.4075678706072E-02  0.0000000000000E+00 -0.6045016480421E-03
 0.1138528746264E-02 -0.4726804295949E-02  0.0000000000000E+00 -0.9032333566627E-03
 0.1278334782913E-02 -0.5383715492946E-02  0.0000000000000E+00 -0.1290321093662E-02
 0.1408209102763E-02 -0.6036136966889E-02  0.0000000000000E+00 -0.1755009846570E-02
 0.1525231034980E-02 -0.6679528429912E-02  0.0000000000000E+00 -0.2289431056464E-02
 0.1626915590029E-02 -0.7311391004518E-02  0.0000000000000E+00 -0.2890357381344E-02
 0.1710205706447E-02 -0.7928608678976E-02  0.0000000000000E+00 -0.3558714525381E-02
 0.1770699316513E-02 -0.8525074641670E-02  0.0000000000000E+00 -0.4297933719665E-02
 0.1803499501196E-02 -0.9088176865637E-02  0.0000000000000E+00 -0.5105939182600E-02
 0.1807160044505E-02 -0.9604735906903E-02  0.0000000000000E+00 -0.5965013264574E-02
 0.1784109102799E-02 -0.1008143477539E-01  0.0000000000000E+00 -0.6859788489665E-02
 0.1735435913351E-02 -0.1053840284847E-01  0.0000000000000E+00 -0.7800089611922E-02
 0.1657975793191E-02 -0.1099303858227E-01  0.0000000000000E+00 -0.8815306752227E-02
 0.1545791204012E-02 -0.1146609579059E-01  0.0000000000000E+00 -0.9954254930311E-02
 0.1378224244726E-02 -0.1198635793411E-01  0.0000000000000E+00 -0.1129501875740E-01
 0.1151443922501E-02 -0.1260469843655E-01  0.0000000000000E+00 -0.1299290354834E-01
 0.6644585015362E-03 -0.1336173847146E-01  0.0000000000000E+00 -0.1528723909039E-01
 0.3860844306010E-03 -0.1451546591414E-01  0.0000000000000E+00 -0.1894244509858E-01
-0.4404799708284E-02 -0.1475559829161E-01  0.0000000000000E+00 -0.2568664674249E-01
 0.1306793354845E-01 -0.1713553004082E-01  0.0000000000000E+00 -0.2901967186027E-01
 0.1109731483614E+00 -0.1582866824823E+00  0.0000000000000E+00 -0.6593685265348E+00
 0.1272300950760E+00 -0.1733517326656E+00  0.0000000000000E+00 -0.5966596087392E+00
 0.1457160484020E+00 -0.1903608960388E+00  0.0000000000000E+00 -0.5424534546497E+00
 0.1637969464434E+00 -0.2068639962074E+00  0.0000000000000E+00 -0.4962317804324E+00
 0.1800921218751E+00 -0.2215576527569E+00  0.0000000000000E+00 -0.4577942209359E+00
 0.1938781080130E+00 -0.2337704962952E+00  0.0000000000000E+00 -0.4268813753992E+00
 0.2048115260970E+00 -0.2431864341481E+00  0.0000000000000E+00 -0.4030513352776E+00
 0.2127593605827E+00 -0.2496898532195E+00  0.0000000000000E+00 -0.3857338714398E+00
 0.2177062639121E+00 -0.2532773427581E+00  0.0000000000000E+00 -0.3742670109756E+00
 0.2197110757138E+00 -0.2540156887873E+00  0.0000000000000E+00 -0.3679695449590E+00
 0.2189002829535E+00 -0.2520302194676E+00  0.0000000000000E+00 -0.3661740776376E+00
 0.2153367395592E+00 -0.2474012117069E+00  0.0000000000000E+00 -0.3680805667314E+00
 0.2091881242542E+00 -0.2402921929905E+00  0.0000000000000E+00 -0.3733264531988E+00
 0.2008078019022E+00 -0.2310238487358E+00  0.0000000000000E+00 -0.3813976213293E+00
 0.1904136653539E+00 -0.2197949273946E+00  0.0000000000000E+00 -0.3910176228742E+00
 0.1780823171031E+00 -0.2066392896211E+00  0.0000000000000E+00 -0.4009730756935E+00
 0.1638205081404E+00 -0.1915325752561E+00  0.0000000000000E+00 -0.4100326494318E+00
 0.1476398184131E+00 -0.1745016944403E+00  0.0000000000000E+00 -0.4171222149884E+00
 0.1297678758262E+00 -0.1556177278557E+00  0.0000000000000E+00 -0.4203125206058E+00
 0.1083502714352E+00 -0.1346387541153E+00  0.0000000000000E+00 -0.4151212455005E+00
 0.1063412686921E+00 -0.1548838155572E+00  0.0000000000000E+00 -0.6518184940836E+00
 0.1246558941657E+00 -0.1717964288505E+00  0.0000000000000E+00 -0.5880359346061E+00
 0.1447124102005E+00 -0.1903231664342E+00  0.0000000000000E+00 -0.5347129952746E+00
 0.1642609760642E+00 -0.2082549543105E+00  0.0000000000000E+00 -0.4902073448895E+00
 0.1819353694143E+00 -0.2243043996952E+00  0.0000000000000E+00 -0.4538578464238E+00
 0.1970180030760E+00 -0.2377984377600E+00  0.0000000000000E+00 -0.4251595914463E+00
 0.2091632560141E+00 -0.2484200571860E+00  0.0000000000000E+00 -0.4035446752955E+00
 0.2182349277272E+00 -0.2560501058078E+00  0.0000000000000E+00 -0.3883772592683E+00
 0.2242127902765E+00 -0.2606793396476E+00  0.0000000000000E+00 -0.3789782352745E+00
 0.2271536953029E+00 -0.2623705535348E+00  0.0000000000000E+00 -0.3746736528110E+00
 0.2271684382830E+00 -0.2612398452372E+00  0.0000000000000E+00 -0.3747879212240E+00
 0.2243259125788E+00 -0.2573605590558E+00  0.0000000000000E+00 -0.3785966200440E+00
 0.2187919682289E+00 -0.2508928170956E+00  0.0000000000000E+00 -0.3857209609184E+00
 0.2108686584465E+00 -0.2421177245813E+00  0.0000000000000E+00 -0.3955892680080E+00
 0.2007499875122E+00 -0.2312005281563E+00  0.0000000000000E+00 -0.4070468140374E+00
 0.1885213909748E+00 -0.2181973492417E+00  0.0000000000000E+00 -0.4189006789292E+00
 0.1741676438633E+00 -0.2030772765191E+00  0.0000000000000E+00 -0.4298196757882E+00
 0.1576768632795E+00 -0.1857904831862E+00  0.0000000000000E+00 -0.4383007082752E+00
 0.1382574524760E+00 -0.1658214497331E+00  0.0000000000000E+00 -0.4419744685632E+00
 0.1158555129515E+00 -0.1424423693779E+00  0.0000000000000E+00 -0.4435764060436E+00
 0.1017351071369E+00 -0.1514699815272E+00  0.0000000000000E+00 -0.6433847379489E+00
 0.1223247621465E+00 -0.1705382650800E+00  0.0000000000000E+00 -0.5789226602648E+00
 0.1441104851067E+00 -0.1906999583484E+00  0.0000000000000E+00 -0.5263565582935E+00
 0.1651491485700E+00 -0.2100737823487E+00  0.0000000000000E+00 -0.4835196172373E+00
 0.1841936772589E+00 -0.2274611209139E+00  0.0000000000000E+00 -0.4492369438900E+00
 0.2005500004655E+00 -0.2422097287837E+00  0.0000000000000E+00 -0.4227393066106E+00
 0.2138809953774E+00 -0.2540085390980E+00  0.0000000000000E+00 -0.4033254153535E+00
 0.2240527230166E+00 -0.2627400821041E+00  0.0000000000000E+00 -0.3902998686375E+00
 0.2310461496688E+00 -0.2683952041997E+00  0.0000000000000E+00 -0.3829679920284E+00
 0.2349148711386E+00 -0.2710337528071E+00  0.0000000000000E+00 -0.3806571562954E+00
 0.2357590407874E+00 -0.2707591632969E+00  0.0000000000000E+00 -0.3827130434984E+00
 0.2336597713400E+00 -0.2676542868291E+00  0.0000000000000E+00 -0.3884738105518E+00
 0.2287754915726E+00 -0.2618709113277E+00  0.0000000000000E+00 -0.3975227709628E+00
 0.2213609514773E+00 -0.2536442364618E+00  0.0000000000000E+00 -0.4092664185745E+00
 0.2115838315668E+00 -0.2431173056011E+00  0.0000000000000E+00 -0.4226286988973E+00
 0.1994998850069E+00 -0.2303227336644E+00  0.0000000000000E+00 -0.4364242853946E+00
 0.1850562566003E+00 -0.2151835886325E+00  0.0000000000000E+00 -0.4492813641399E+00
 0.1679996812241E+00 -0.1974738685491E+00  0.0000000000000E+00 -0.4596829934034E+00
 0.1478974027282E+00 -0.1766387012116E+00  0.0000000000000E+00 -0.4669290065481E+00
 0.1255748382792E+00 -0.1533575386418E+00  0.0000000000000E+00 -0.4726003225680E+00
 0.9719022353228E-01 -0.1481345707121E+00  0.0000000000000E+00 -0.6338747976486E+00
 0.1202031302332E+00 -0.1694996126079E+00  0.0000000000000E+00 -0.5691103003528E+00
 0.1438420898313E+00 -0.1914239805741E+00  0.0000000000000E+00 -0.5174124801546E+00
 0.1664208310656E+00 -0.2122757215401E+00  0.0000000000000E+00 -0.4762176731293E+00
 0.1868337185363E+00 -0.2309929947609E+00  0.0000000000000E+00 -0.4439751257883E+00
 0.2044446739588E+00 -0.2469728468358E+00  0.0000000000000E+00 -0.4196525308686E+00
 0.2189377739373E+00 -0.2599230325253E+00  0.0000000000000E+00 -0.4024158737853E+00
 0.2301892673583E+00 -0.2697346515871E+00  0.0000000000000E+00 -0.3915115341288E+00
 0.2381850946407E+00 -0.2764027278985E+00  0.0000000000000E+00 -0.3862302809865E+00
 0.2429787604326E+00 -0.2799859543544E+00  0.0000000000000E+00 -0.3859078858397E+00
 0.2446657455517E+00 -0.2805819926266E+00  0.0000000000000E+00 -0.3899162376741E+00
 0.2433361601398E+00 -0.2782808110508E+00  0.0000000000000E+00 -0.3976415228163E+00
 0.2391389686499E+00 -0.2732240178467E+00  0.0000000000000E+00 -0.4086415643939E+00
 0.2322862041053E+00 -0.2656061331414E+00  0.0000000000000E+00 -0.4223092307396E+00
 0.2229092353447E+00 -0.2555371310704E+00  0.0000000000000E+00 -0.4376354993120E+00
 0.2110268455382E+00 -0.2430126073267E+00  0.0000000000000E+00 -0.4534743161734E+00
 0.1965187080314E+00 -0.2278967375183E+00  0.0000000000000E+00 -0.4685286940561E+00
 0.1791675761088E+00 -0.2099267167316E+00  0.0000000000000E+00 -0.4816889562548E+00
 0.1588587625931E+00 -0.1889193390013E+00  0.0000000000000E+00 -0.4923808473993E+00
 0.1365208333354E+00 -0.1656816710370E+00  0.0000000000000E+00 -0.5009622378682E+00
 0.9272675519720E-01 -0.1448933043993E+00  0.0000000000000E+00 -0.6232554131869E+00
 0.1182844262058E+00 -0.1686717536657E+00  0.0000000000000E+00 -0.5585336535307E+00
 0.1438685503091E+00 -0.1924450031737E+00  0.0000000000000E+00 -0.5078566149091E+00
 0.1680325084185E+00 -0.2148146072887E+00  0.0000000000000E+00 -0.4683316236830E+00
 0.1898188426021E+00 -0.2348605988801E+00  0.0000000000000E+00 -0.4381063952006E+00
 0.2086688840767E+00 -0.2520526151172E+00  0.0000000000000E+00 -0.4159270324849E+00
 0.2243034607277E+00 -0.2661314397362E+00  0.0000000000000E+00 -0.4008335319782E+00
 0.2366170980255E+00 -0.2770046626648E+00  0.0000000000000E+00 -0.3920172964823E+00
 0.2456056007613E+00 -0.2846758797920E+00  0.0000000000000E+00 -0.3887575327710E+00
 0.2513262502503E+00 -0.2892064949087E+00  0.0000000000000E+00 -0.3904023037581E+00
 0.2538736588880E+00 -0.2906922708538E+00  0.0000000000000E+00 -0.3963509093513E+00
 0.2533439403872E+00 -0.2892279051887E+00  0.0000000000000E+00 -0.4060299052763E+00
 0.2498747670867E+00 -0.2849434703956E+00  0.0000000000000E+00 -0.4189833389963E+00
 0.2436385045443E+00 -0.2779955907454E+00  0.0000000000000E+00 -0.4346045894712E+00
 0.2347293899657E+00 -0.2684584467973E+00  0.0000000000000E+00 -0.4519561617258E+00
 0.2231277879985E+00 -0.2562908728032E+00  0.0000000000000E+00 -0.4699698263458E+00
 0.2087048341129E+00 -0.2413339874778E+00  0.0000000000000E+00 -0.4875154332579E+00
 0.1913132213475E+00 -0.2233958468920E+00  0.0000000000000E+00 -0.5036197725287E+00
 0.1709853980139E+00 -0.2024438957368E+00  0.0000000000000E+00 -0.5175569143805E+00
 0.1485475941107E+00 -0.1792131227909E+00  0.0000000000000E+00 -0.5288367318856E+00
 0.8835942054605E-01 -0.1417558910132E+00  0.0000000000000E+00 -0.6114997811912E+00
 0.1165612924042E+00 -0.1680411808840E+00  0.0000000000000E+00 -0.5471625542089E+00
 0.1441611193739E+00 -0.1937289772468E+00  0.0000000000000E+00 -0.4976766898444E+00
 0.1699454532498E+00 -0.2176467668182E+00  0.0000000000000E+00 -0.4598738766167E+00
 0.1931102456520E+00 -0.2390223854648E+00  0.0000000000000E+00 -0.4316558331118E+00
 0.2131866876223E+00 -0.2574107213104E+00  0.0000000000000E+00 -0.4115847215685E+00
 0.2299446594613E+00 -0.2725983418317E+00  0.0000000000000E+00 -0.3985914816029E+00
 0.2433054613985E+00 -0.2845174007349E+00  0.0000000000000E+00 -0.3918185560188E+00
 0.2532799908942E+00 -0.2931851447890E+00  0.0000000000000E+00 -0.3905370840875E+00
 0.2599330682629E+00 -0.2986693881095E+00  0.0000000000000E+00 -0.3941101505494E+00
 0.2633612670106E+00 -0.3010669602662E+00  0.0000000000000E+00 -0.4019653159939E+00
 0.2636644296066E+00 -0.3004753925649E+00  0.0000000000000E+00 -0.4135656543873E+00
 0.2609679462112E+00 -0.2970124771380E+00  0.0000000000000E+00 -0.4284541685737E+00
 0.2554091407125E+00 -0.2908009684839E+00  0.0000000000000E+00 -0.4460408957314E+00
 0.2470485024792E+00 -0.2818824631465E+00  0.0000000000000E+00 -0.4654682353053E+00
 0.2358442818154E+00 -0.2701912578765E+00  0.0000000000000E+00 -0.4857709784113E+00
 0.2216761997827E+00 -0.2555751878473E+00  0.0000000000000E+00 -0.5059361006871E+00
 0.2044413542500E+00 -0.2378866986854E+00  0.0000000000000E+00 -0.5250209252518E+00
 0.1842195142516E+00 -0.2171479870403E+00  0.0000000000000E+00 -0.5421105447895E+00
 0.1616743458834E+00 -0.1939400744530E+00  0.0000000000000E+00 -0.5561581146109E+00
 0.8410177196616E-01 -0.1387293288427E+00  0.0000000000000E+00 -0.5985898643497E+00
 0.1150262382524E+00 -0.1675947432027E+00  0.0000000000000E+00 -0.5349808302778E+00
 0.1446941537393E+00 -0.1952450623952E+00  0.0000000000000E+00 -0.4868672941148E+00
 0.1721237201489E+00 -0.2207321083642E+00  0.0000000000000E+00 -0.4508531665152E+00
 0.1966689319720E+00 -0.2434360974913E+00  0.0000000000000E+00 -0.4246405302661E+00
 0.2179598911860E+00 -0.2630064969899E+00  0.0000000000000E+00 -0.4066420388415E+00
 0.2358251172435E+00 -0.2792852938405E+00  0.0000000000000E+00 -0.3956986549691E+00
 0.2502202622177E+00 -0.2922367501639E+00  0.0000000000000E+00 -0.3909129469328E+00
 0.2611764976253E+00 -0.3018968230863E+00  0.0000000000000E+00 -0.3915522071828E+00
 0.2687697338915E+00 -0.3083433005274E+00  0.0000000000000E+00 -0.3969971147719E+00
 0.2731008632644E+00 -0.3116765348479E+00  0.0000000000000E+00 -0.4067046651311E+00
 0.2742721958163E+00 -0.3119958922981E+00  0.0000000000000E+00 -0.4201736587580E+00
 0.2723973379458E+00 -0.3094074422546E+00  0.0000000000000E+00 -0.4369584909566E+00
 0.2675841542366E+00 -0.3040054591387E+00  0.0000000000000E+00 -0.4565001508496E+00
 0.2598670372151E+00 -0.2958058106273E+00  0.0000000000000E+00 -0.4780259703862E+00
 0.2491911809319E+00 -0.2847296435184E+00  0.0000000000000E+00 -0.5006659208545E+00
 0.2354433134281E+00 -0.2706318953084E+00  0.0000000000000E+00 -0.5234883097941E+00
 0.2185370515075E+00 -0.2533842732921E+00  0.0000000000000E+00 -0.5455440426911E+00
 0.1985434671754E+00 -0.2330036495071E+00  0.0000000000000E+00 -0.5657656062955E+00
 0.1759570281862E+00 -0.2099072294669E+00  0.0000000000000E+00 -0.5827508751310E+00
 0.7996717946584E-01 -0.1358201726683E+00  0.0000000000000E+00 -0.5845136693521E+00
 0.1136716086506E+00 -0.1673190178523E+00  0.0000000000000E+00 -0.5219803218285E+00
 0.1454433008419E+00 -0.1969640448514E+00  0.0000000000000E+00 -0.4754274532515E+00
 0.1745326705095E+00 -0.2240319520012E+00  0.0000000000000E+00 -0.4412769830044E+00
 0.2004558442669E+00 -0.2480594464449E+00  0.0000000000000E+00 -0.4170731209507E+00
 0.2229487359936E+00 -0.2687975326685E+00  0.0000000000000E+00 -0.4011107223530E+00
 0.2419060272797E+00 -0.2861512042543E+00  0.0000000000000E+00 -0.3921602899051E+00
 0.2573241399204E+00 -0.3001232351598E+00  0.0000000000000E+00 -0.3892949818761E+00
 0.2692592557171E+00 -0.3107730169885E+00  0.0000000000000E+00 -0.3917833993970E+00
 0.2778017041242E+00 -0.3181916686952E+00  0.0000000000000E+00 -0.3990266366123E+00
 0.2830589003630E+00 -0.3224853619465E+00  0.0000000000000E+00 -0.4105128552193E+00
 0.2851354679701E+00 -0.3237553172304E+00  0.0000000000000E+00 -0.4257776838047E+00
 0.2841349282104E+00 -0.3220976797878E+00  0.0000000000000E+00 -0.4443977138043E+00
 0.2801419294179E+00 -0.3175843236720E+00  0.0000000000000E+00 -0.4658554170227E+00
 0.2731711906052E+00 -0.3102123102388E+00  0.0000000000000E+00 -0.4894604652962E+00
 0.2631583729577E+00 -0.2998941735475E+00  0.0000000000000E+00 -0.5144272075914E+00
 0.2499907157594E+00 -0.2864870829329E+00  0.0000000000000E+00 -0.5398858146263E+00
 0.2335779142011E+00 -0.2698615738751E+00  0.0000000000000E+00 -0.5648796794564E+00
 0.2139532723668E+00 -0.2499996675458E+00  0.0000000000000E+00 -0.5882392517864E+00
 0.1914521383052E+00 -0.2271634632330E+00  0.0000000000000E+00 -0.6083476463788E+00
 0.7596920195015E-01 -0.1330350726947E+00  0.0000000000000E+00 -0.5692653208913E+00
 0.1124896819526E+00 -0.1672005607999E+00  0.0000000000000E+00 -0.5081585913049E+00
 0.1463847581649E+00 -0.1988573720003E+00  0.0000000000000E+00 -0.4633593625414E+00
 0.1771382539956E+00 -0.2275083291798E+00  0.0000000000000E+00 -0.4311525030522E+00
 0.2044317383927E+00 -0.2528499588080E+00  0.0000000000000E+00 -0.4089634890479E+00
 0.2281121972857E+00 -0.2747401000061E+00  0.0000000000000E+00 -0.3949991187922E+00
 0.2481463438808E+00 -0.2931526556980E+00  0.0000000000000E+00 -0.3879786586351E+00
 0.2645766514687E+00 -0.3081342165762E+00  0.0000000000000E+00 -0.3869569175956E+00
 0.2774884630909E+00 -0.3197717839140E+00  0.0000000000000E+00 -0.3912095857490E+00
 0.2869896061660E+00 -0.3281729419288E+00  0.0000000000000E+00 -0.4001613617218E+00
 0.2931962352781E+00 -0.3334519843326E+00  0.0000000000000E+00 -0.4133337177134E+00
 0.2962160469182E+00 -0.3357129040921E+00  0.0000000000000E+00 -0.4303010344414E+00
 0.2961449937467E+00 -0.3350445508592E+00  0.0000000000000E+00 -0.4506706174762E+00
 0.2930501879787E+00 -0.3315022346193E+00  0.0000000000000E+00 -0.4739726295060E+00
 0.2869313937036E+00 -0.3250693696394E+00  0.0000000000000E+00 -0.4995945799458E+00
 0.2777157294901E+00 -0.3156516925182E+00  0.0000000000000E+00 -0.5268269490097E+00
 0.2652849780791E+00 -0.3031033115308E+00  0.0000000000000E+00 -0.5548549872848E+00
 0.2495324960004E+00 -0.2872814875776E+00  0.0000000000000E+00 -0.5827270758276E+00
 0.2304406491258E+00 -0.2681204958615E+00  0.0000000000000E+00 -0.6092198522193E+00
 0.2082014014489E+00 -0.2457434861804E+00  0.0000000000000E+00 -0.6326031784830E+00
 0.7212166000767E-01 -0.1303809534038E+00  0.0000000000000E+00 -0.5528451836043E+00
 0.1114726932034E+00 -0.1672259428967E+00  0.0000000000000E+00 -0.4935180079374E+00
 0.1474949681218E+00 -0.2008968300136E+00  0.0000000000000E+00 -0.4506677954899E+00
 0.1799066616350E+00 -0.2311235870211E+00  0.0000000000000E+00 -0.4204870224374E+00
 0.2085571008295E+00 -0.2577649194412E+00  0.0000000000000E+00 -0.4003198696922E+00
 0.2334081639876E+00 -0.2807893576153E+00  0.0000000000000E+00 -0.3883133039280E+00
 0.2545030559380E+00 -0.3002442119839E+00  0.0000000000000E+00 -0.3831540479251E+00
 0.2719345317708E+00 -0.3162241592657E+00  0.0000000000000E+00 -0.3838897513685E+00
 0.2858206317487E+00 -0.3288473963398E+00  0.0000000000000E+00 -0.3898093095444E+00
 0.2962894964258E+00 -0.3382408581840E+00  0.0000000000000E+00 -0.4003644478348E+00
 0.3034682646721E+00 -0.3445293029064E+00  0.0000000000000E+00 -0.4151122355224E+00
 0.3074691140573E+00 -0.3478210598537E+00  0.0000000000000E+00 -0.4336678278511E+00
 0.3083832451686E+00 -0.3482006787913E+00  0.0000000000000E+00 -0.4556753830340E+00
 0.3062650929986E+00 -0.3457119796982E+00  0.0000000000000E+00 -0.4807162424786E+00
 0.3011030080500E+00 -0.3403286851109E+00  0.0000000000000E+00 -0.5082514587859E+00
 0.2928159630148E+00 -0.3319506621776E+00  0.0000000000000E+00 -0.5376428280305E+00
 0.2812764784811E+00 -0.3204256643924E+00  0.0000000000000E+00 -0.5681305616895E+00
 0.2663553976431E+00 -0.3055919473430E+00  0.0000000000000E+00 -0.5987839668893E+00
 0.2479805753941E+00 -0.2873332507699E+00  0.0000000000000E+00 -0.6283655387569E+00
 0.2262174838455E+00 -0.2656521231790E+00  0.0000000000000E+00 -0.6551029866379E+00
 0.6843858507674E-01 -0.1278650138291E+00  0.0000000000000E+00 -0.5352600691023E+00
 0.1106128302542E+00 -0.1673817726493E+00  0.0000000000000E+00 -0.4780653332250E+00
 0.1487504872045E+00 -0.2030544076137E+00  0.0000000000000E+00 -0.4373598380183E+00
 0.1828041832920E+00 -0.2348402435660E+00  0.0000000000000E+00 -0.4092882437780E+00
 0.2127921435774E+00 -0.2627613749844E+00  0.0000000000000E+00 -0.3911496066668E+00
 0.2387936028527E+00 -0.2868995412853E+00  0.0000000000000E+00 -0.3810580217793E+00
 0.2609314541187E+00 -0.3073787075502E+00  0.0000000000000E+00 -0.3776857195529E+00
 0.2793519963911E+00 -0.3243449534473E+00  0.0000000000000E+00 -0.3800842337302E+00
 0.2942088978164E+00 -0.3379506680529E+00  0.0000000000000E+00 -0.3875618575940E+00
 0.3056531421578E+00 -0.3483447514464E+00  0.0000000000000E+00 -0.3996007968464E+00
 0.3138250760966E+00 -0.3556647590101E+00  0.0000000000000E+00 -0.4157958927094E+00
 0.3188431318253E+00 -0.3600252976789E+00  0.0000000000000E+00 -0.4358047929753E+00
 0.3207965974222E+00 -0.3615096546385E+00  0.0000000000000E+00 -0.4593127424597E+00
 0.3197313698855E+00 -0.3601545295106E+00  0.0000000000000E+00 -0.4859541226870E+00
 0.3156273219283E+00 -0.3559272235691E+00  0.0000000000000E+00 -0.5152600905549E+00
 0.3083959577698E+00 -0.3487228248907E+00  0.0000000000000E+00 -0.5466612246398E+00
 0.2978989475195E+00 -0.3383815980269E+00  0.0000000000000E+00 -0.5794552081855E+00
 0.2839828319222E+00 -0.3247215868658E+00  0.0000000000000E+00 -0.6127468671026E+00
 0.2665227638151E+00 -0.3075788603553E+00  0.0000000000000E+00 -0.6453149186066E+00
 0.2454751812214E+00 -0.2868541011054E+00  0.0000000000000E+00 -0.6753958354155E+00
 0.6493411476559E-01 -0.1254946572307E+00  0.0000000000000E+00 -0.5165234065476E+00
 0.1099022259065E+00 -0.1676547078941E+00  0.0000000000000E+00 -0.4618115211277E+00
 0.1501279538189E+00 -0.2053022715124E+00  0.0000000000000E+00 -0.4234447874588E+00
 0.1857971907027E+00 -0.2386209745721E+00  0.0000000000000E+00 -0.3975645321717E+00
 0.2170968780237E+00 -0.2677962186774E+00  0.0000000000000E+00 -0.3814597611432E+00
 0.2442247505780E+00 -0.2930241729647E+00  0.0000000000000E+00 -0.3732375049654E+00
 0.2673854156146E+00 -0.3145075517699E+00  0.0000000000000E+00 -0.3715728345705E+00
 0.2867810772131E+00 -0.3324462686637E+00  0.0000000000000E+00 -0.3755318756635E+00
 0.3026033722014E+00 -0.3470293248469E+00  0.0000000000000E+00 -0.3844483776418E+00
 0.3150283453434E+00 -0.3584298987418E+00  0.0000000000000E+00 -0.3978383239233E+00
 0.3242116780383E+00 -0.3668005908786E+00  0.0000000000000E+00 -0.4153362119811E+00
 0.3302799884876E+00 -0.3722643876118E+00  0.0000000000000E+00 -0.4366434581233E+00
 0.3333233924667E+00 -0.3749062513840E+00  0.0000000000000E+00 -0.4614891803021E+00
 0.3333828523810E+00 -0.3747595793339E+00  0.0000000000000E+00 -0.4895616634713E+00
 0.3304324398533E+00 -0.3717882094197E+00  0.0000000000000E+00 -0.5204594289702E+00
 0.3243773838961E+00 -0.3658839933196E+00  0.0000000000000E+00 -0.5536803532596E+00
 0.3150686619564E+00 -0.3568803070049E+00  0.0000000000000E+00 -0.5885823099027E+00
 0.3023295238153E+00 -0.3445766431712E+00  0.0000000000000E+00 -0.6243169211969E+00
 0.2859874223398E+00 -0.3287674308725E+00  0.0000000000000E+00 -0.6597010753689E+00
 0.2659070328195E+00 -0.3092700597144E+00  0.0000000000000E+00 -0.6930147332689E+00
 0.6162236054450E-01 -0.1232773899201E+00  0.0000000000000E+00 -0.4966553670671E+00
 0.1093329566225E+00 -0.1680314753792E+00  0.0000000000000E+00 -0.4447716026920E+00
 0.1516041174483E+00 -0.2076128087670E+00  0.0000000000000E+00 -0.4089341230269E+00
 0.1888522030776E+00 -0.2424286898377E+00  0.0000000000000E+00 -0.3853251445363E+00
 0.2214312544109E+00 -0.2728263425309E+00  0.0000000000000E+00 -0.3712576180758E+00
 0.2496573464584E+00 -0.2991163098144E+00  0.0000000000000E+00 -0.3648561852015E+00
 0.2738177200941E+00 -0.3215810634068E+00  0.0000000000000E+00 -0.3648152966632E+00
 0.2941719957585E+00 -0.3404759469983E+00  0.0000000000000E+00 -0.3702259000275E+00
 0.3109515420938E+00 -0.3560284274687E+00  0.0000000000000E+00 -0.3804529602141E+00
 0.3243593414555E+00 -0.3684379424725E+00  0.0000000000000E+00 -0.3950492372509E+00
 0.3345683736655E+00 -0.3778742285838E+00  0.0000000000000E+00 -0.4136903817242E+00
 0.3417153942705E+00 -0.3844707691464E+00  0.0000000000000E+00 -0.4361223787985E+00
 0.3458939407588E+00 -0.3883169808698E+00  0.0000000000000E+00 -0.4621198994421E+00
 0.3471432518833E+00 -0.3894463629017E+00  0.0000000000000E+00 -0.4914252827936E+00
 0.3454341582995E+00 -0.3878220920709E+00  0.0000000000000E+00 -0.5237020254363E+00
 0.3406672469644E+00 -0.3833347285237E+00  0.0000000000000E+00 -0.5585139656374E+00
 0.3326840977982E+00 -0.3758124801173E+00  0.0000000000000E+00 -0.5952808466067E+00
 0.3212872987131E+00 -0.3650395413681E+00  0.0000000000000E+00 -0.6332084326927E+00
 0.3062632166193E+00 -0.3507762656988E+00  0.0000000000000E+00 -0.6711656891415E+00
 0.2874010177855E+00 -0.3327742795909E+00  0.0000000000000E+00 -0.7074968903127E+00
 0.5851726370939E-01 -0.1212207078104E+00  0.0000000000000E+00 -0.4756829408086E+00
 0.1088970539980E+00 -0.1684989039393E+00  0.0000000000000E+00 -0.4269646166695E+00
 0.1531559127889E+00 -0.2099587166798E+00  0.0000000000000E+00 -0.3938415220574E+00
 0.1919360113542E+00 -0.2462266706256E+00  0.0000000000000E+00 -0.3725804525819E+00
 0.2257553528149E+00 -0.2778088419140E+00  0.0000000000000E+00 -0.3605511358364E+00
 0.2550469022407E+00 -0.3051288295426E+00  0.0000000000000E+00 -0.3559193282704E+00
 0.2801803949849E+00 -0.3285488334152E+00  0.0000000000000E+00 -0.3574145263099E+00
 0.3014735688227E+00 -0.3483804280146E+00  0.0000000000000E+00 -0.3641621381138E+00
 0.3191987184730E+00 -0.3648908403028E+00  0.0000000000000E+00 -0.3755636832948E+00
 0.3335872748628E+00 -0.3783073881329E+00  0.0000000000000E+00 -0.3912113045913E+00
 0.3448312663982E+00 -0.3888188225072E+00  0.0000000000000E+00 -0.4108228686959E+00
 0.3530794676340E+00 -0.3965711618127E+00  0.0000000000000E+00 -0.4341892570358E+00
 0.3584312636547E+00 -0.4016608704491E+00  0.0000000000000E+00 -0.4611314906705E+00
 0.3609270692315E+00 -0.4041246207695E+00  0.0000000000000E+00 -0.4914455240778E+00
 0.3605369328496E+00 -0.4039275981739E+00  0.0000000000000E+00 -0.5248574877042E+00
 0.3571586718111E+00 -0.4009612227106E+00  0.0000000000000E+00 -0.5609954875975E+00
 0.3506263304459E+00 -0.3950507837697E+00  0.0000000000000E+00 -0.5993412988380E+00
 0.3407251013527E+00 -0.3859690017532E+00  0.0000000000000E+00 -0.6391582352065E+00
 0.3272071360175E+00 -0.3734498415408E+00  0.0000000000000E+00 -0.6793738284630E+00
 0.3098004762561E+00 -0.3571946888716E+00  0.0000000000000E+00 -0.7184054526728E+00
 0.5563244599645E-01 -0.1193319793972E+00  0.0000000000000E+00 -0.4536399494679E+00
 0.1085865308785E+00 -0.1690439736457E+00  0.0000000000000E+00 -0.4084135457556E+00
 0.1547605700618E+00 -0.2123131307306E+00  0.0000000000000E+00 -0.3781828885061E+00
 0.1950158490694E+00 -0.2499787553709E+00  0.0000000000000E+00 -0.3593421486638E+00
 0.2300296188281E+00 -0.2827012656296E+00  0.0000000000000E+00 -0.3493493444095E+00
 0.2603490098527E+00 -0.3110147535722E+00  0.0000000000000E+00 -0.3464335982472E+00
 0.2864250952374E+00 -0.3353601218436E+00  0.0000000000000E+00 -0.3493741610470E+00
 0.3086336535796E+00 -0.3561052129787E+00  0.0000000000000E+00 -0.3573398580067E+00
 0.3272885391291E+00 -0.3735577555431E+00  0.0000000000000E+00 -0.3697735965175E+00
 0.3426507591139E+00 -0.3879741878916E+00  0.0000000000000E+00 -0.3863090584590E+00
 0.3549328913863E+00 -0.3995639011366E+00  0.0000000000000E+00 -0.4067069383053E+00
 0.3642974807731E+00 -0.4084873430754E+00  0.0000000000000E+00 -0.4308028806491E+00
 0.3708520000061E+00 -0.4148504136593E+00  0.0000000000000E+00 -0.4584643198284E+00
 0.3746406613417E+00 -0.4186957288409E+00  0.0000000000000E+00 -0.4895398639824E+00
 0.3756350424121E+00 -0.4199929753422E+00  0.0000000000000E+00 -0.5238158040191E+00
 0.3737320831407E+00 -0.4186365680319E+00  0.0000000000000E+00 -0.5609822776882E+00
 0.3687602355416E+00 -0.4144511570494E+00  0.0000000000000E+00 -0.6005817421824E+00
 0.3604903928162E+00 -0.4072015504064E+00  0.0000000000000E+00 -0.6419350629330E+00
 0.3486464578874E+00 -0.3966019300591E+00  0.0000000000000E+00 -0.6840286470175E+00
 0.3329069763008E+00 -0.3823159246828E+00  0.0000000000000E+00 -0.7253519057747E+00
 0.5298106232507E-01 -0.1176183308259E+00  0.0000000000000E+00 -0.4305670015398E+00
 0.1083934231502E+00 -0.1696538812863E+00  0.0000000000000E+00 -0.3891452497245E+00
 0.1563957550367E+00 -0.2146497826163E+00  0.0000000000000E+00 -0.3619763859687E+00
 0.1980595996140E+00 -0.2536495621040E+00  0.0000000000000E+00 -0.3456234354031E+00
 0.2342151352775E+00 -0.2874619019781E+00  0.0000000000000E+00 -0.3376626996983E+00
 0.2655196820953E+00 -0.3167276027291E+00  0.0000000000000E+00 -0.3364075573000E+00
 0.2925035157660E+00 -0.3419642868401E+00  0.0000000000000E+00 -0.3407006807878E+00
 0.3155996320246E+00 -0.3635953679961E+00  0.0000000000000E+00 -0.3497625135183E+00
 0.3351635268456E+00 -0.3819692726726E+00  0.0000000000000E+00 -0.3630816198747E+00
 0.3514865173530E+00 -0.3973724056659E+00  0.0000000000000E+00 -0.3803348977524E+00
 0.3648029573755E+00 -0.4100361427510E+00  0.0000000000000E+00 -0.4013260293589E+00
 0.3752907393619E+00 -0.4201370660240E+00  0.0000000000000E+00 -0.4259348466042E+00
 0.3830674598330E+00 -0.4277926737378E+00  0.0000000000000E+00 -0.4540746359742E+00
 0.3881834778431E+00 -0.4330539995022E+00  0.0000000000000E+00 -0.4856452378485E+00
 0.3906140022173E+00 -0.4358974833833E+00  0.0000000000000E+00 -0.5204904417102E+00
 0.3902568209437E+00 -0.4362224611672E+00  0.0000000000000E+00 -0.5583596816910E+00
 0.3869364542243E+00 -0.4338548777204E+00  0.0000000000000E+00 -0.5988535689797E+00
 0.3804118399474E+00 -0.4285543326088E+00  0.0000000000000E+00 -0.6413480927495E+00
 0.3703828482276E+00 -0.4200198783206E+00  0.0000000000000E+00 -0.6848846403388E+00
 0.3564866766015E+00 -0.4078859819972E+00  0.0000000000000E+00 -0.7280169923113E+00
 0.5057565375490E-01 -0.1160865352602E+00  0.0000000000000E+00 -0.4065113775946E+00
 0.1083098447934E+00 -0.1703161211979E+00  0.0000000000000E+00 -0.3691903828279E+00
 0.1580397320080E+00 -0.2169431831081E+00  0.0000000000000E+00 -0.3452424624663E+00
 0.2010360316976E+00 -0.2572047404884E+00  0.0000000000000E+00 -0.3314391909293E+00
 0.2382739228166E+00 -0.2920500946683E+00  0.0000000000000E+00 -0.3255033897901E+00
 0.2705157213919E+00 -0.3222217815542E+00  0.0000000000000E+00 -0.3258520963708E+00
 0.2983678334503E+00 -0.3483112435541E+00  0.0000000000000E+00 -0.3314039481595E+00
 0.3223189318687E+00 -0.3707960639920E+00  0.0000000000000E+00 -0.3414383946227E+00
 0.3427656976608E+00 -0.3900650288630E+00  0.0000000000000E+00 -0.3554933263488E+00
 0.3600300923375E+00 -0.4064349535967E+00  0.0000000000000E+00 -0.3732900441372E+00
 0.3743691805752E+00 -0.4201602421167E+00  0.0000000000000E+00 -0.3946749377440E+00
 0.3859775737930E+00 -0.4314350924355E+00  0.0000000000000E+00 -0.4195710321427E+00
 0.3949848079411E+00 -0.4403905206524E+00  0.0000000000000E+00 -0.4479363727194E+00
 0.4014494631422E+00 -0.4470881503828E+00  0.0000000000000E+00 -0.4797202283577E+00
 0.4053522215933E+00 -0.4515131321433E+00  0.0000000000000E+00 -0.5148210756174E+00
 0.4065931509128E+00 -0.4535713066859E+00  0.0000000000000E+00 -0.5530445987528E+00
 0.4049940001616E+00 -0.4530912766721E+00  0.0000000000000E+00 -0.5940463807587E+00
 0.4003030479992E+00 -0.4498289744337E+00  0.0000000000000E+00 -0.6372538934819E+00
 0.3921982411760E+00 -0.4434706644338E+00  0.0000000000000E+00 -0.6817578324632E+00
 0.3802798440492E+00 -0.4336260881046E+00  0.0000000000000E+00 -0.7261661822411E+00
 0.4842800805309E-01 -0.1147429092298E+00  0.0000000000000E+00 -0.3815268409834E+00
 0.1083280562065E+00 -0.1710185792743E+00  0.0000000000000E+00 -0.3485832842826E+00
 0.1596715460703E+00 -0.2191688237258E+00  0.0000000000000E+00 -0.3280038596715E+00
 0.2039150568731E+00 -0.2606112453378E+00  0.0000000000000E+00 -0.3168061083460E+00
 0.2421692627780E+00 -0.2964265802620E+00  0.0000000000000E+00 -0.3128855959991E+00
 0.2752951104615E+00 -0.3274529837136E+00  0.0000000000000E+00 -0.3147808002473E+00
 0.3039711728290E+00 -0.3543519459224E+00  0.0000000000000E+00 -0.3214976643263E+00
 0.3287395770499E+00 -0.3776531457359E+00  0.0000000000000E+00 -0.3323811740391E+00
 0.3500372095290E+00 -0.3977848697272E+00  0.0000000000000E+00 -0.3470215963671E+00
 0.3682166116543E+00 -0.4150943844638E+00  0.0000000000000E+00 -0.3651853362976E+00
 0.3835581907826E+00 -0.4298598509966E+00  0.0000000000000E+00 -0.3867607923018E+00
 0.3962744195141E+00 -0.4422943169937E+00  0.0000000000000E+00 -0.4117128017579E+00
 0.4065083565730E+00 -0.4525439792552E+00  0.0000000000000E+00 -0.4400426283777E+00
 0.4143286028836E+00 -0.4606829195967E+00  0.0000000000000E+00 -0.4717468749814E+00
 0.4197228712290E+00 -0.4667066319954E+00  0.0000000000000E+00 -0.5067758442350E+00
 0.4225945895215E+00 -0.4705286411408E+00  0.0000000000000E+00 -0.5449883743079E+00
 0.4227633296421E+00 -0.4719809253802E+00  0.0000000000000E+00 -0.5860917630335E+00
 0.4199669502849E+00 -0.4708161149582E+00  0.0000000000000E+00 -0.6295612984912E+00
 0.4138616379938E+00 -0.4667078871234E+00  0.0000000000000E+00 -0.6745317230951E+00
 0.4040117245378E+00 -0.4592419619047E+00  0.0000000000000E+00 -0.7196561104540E+00
 0.4654902869318E-01 -0.1135932181329E+00  0.0000000000000E+00 -0.3556733906260E+00
 0.1084405428875E+00 -0.1717496375607E+00  0.0000000000000E+00 -0.3273618550784E+00
 0.1612712178119E+00 -0.2213033909193E+00  0.0000000000000E+00 -0.3102856150463E+00
 0.2066680003980E+00 -0.2638376233583E+00  0.0000000000000E+00 -0.3017428147169E+00
 0.2458660331741E+00 -0.3005538385146E+00  0.0000000000000E+00 -0.2998257117882E+00
 0.2798174162125E+00 -0.3323786102651E+00  0.0000000000000E+00 -0.3032102468771E+00
 0.3092680870560E+00 -0.3600388833375E+00  0.0000000000000E+00 -0.3109997351424E+00
 0.3348107588327E+00 -0.3841137212214E+00  0.0000000000000E+00 -0.3226103384547E+00
 0.3569210405296E+00 -0.4050695497355E+00  0.0000000000000E+00 -0.3376871261956E+00
 0.3759815944878E+00 -0.4232837262644E+00  0.0000000000000E+00 -0.3560418394262E+00
 0.3922964932283E+00 -0.4390585754715E+00  0.0000000000000E+00 -0.3776037978209E+00
 0.4060969683574E+00 -0.4526269639475E+00  0.0000000000000E+00 -0.4023779229534E+00
 0.4175409479647E+00 -0.4641516691144E+00  0.0000000000000E+00 -0.4304067882677E+00
 0.4267085898327E+00 -0.4737208029106E+00  0.0000000000000E+00 -0.4617320421039E+00
 0.4335959153813E+00 -0.4813415135587E+00  0.0000000000000E+00 -0.4963530298764E+00
 0.4381104526186E+00 -0.4869357889490E+00  0.0000000000000E+00 -0.5341788688946E+00
 0.4400696822031E+00 -0.4903391090888E+00  0.0000000000000E+00 -0.5749657580030E+00
 0.4392004347139E+00 -0.4913002008308E+00  0.0000000000000E+00 -0.6182340302675E+00
 0.4351358441776E+00 -0.4894787381879E+00  0.0000000000000E+00 -0.6631591043125E+00
 0.4274026454908E+00 -0.4844342739462E+00  0.0000000000000E+00 -0.7084333529767E+00
 0.4494861370161E-01 -0.1126425915377E+00  0.0000000000000E+00 -0.3290169419286E+00
 0.1086401023836E+00 -0.1724982869465E+00  0.0000000000000E+00 -0.3055674066954E+00
 0.1628199463766E+00 -0.2233249883262E+00  0.0000000000000E+00 -0.2921150452867E+00
 0.2092678804754E+00 -0.2668543078851E+00  0.0000000000000E+00 -0.2862699614588E+00
 0.2493310527098E+00 -0.3043964502422E+00  0.0000000000000E+00 -0.2863425138587E+00
 0.2840442016942E+00 -0.3369581954300E+00  0.0000000000000E+00 -0.2911602357973E+00
 0.3142150485267E+00 -0.3653265864383E+00  0.0000000000000E+00 -0.2999325411253E+00
 0.3404834206229E+00 -0.3901267643283E+00  0.0000000000000E+00 -0.3121514951416E+00
 0.3633616874688E+00 -0.4118614528273E+00  0.0000000000000E+00 -0.3275187780635E+00
 0.3832617877262E+00 -0.4309373462476E+00  0.0000000000000E+00 -0.3458912555237E+00
 0.4005114704604E+00 -0.4476810137329E+00  0.0000000000000E+00 -0.3672377291989E+00
 0.4153613715542E+00 -0.4623458362263E+00  0.0000000000000E+00 -0.3916011724806E+00
 0.4279854021785E+00 -0.4751123109418E+00  0.0000000000000E+00 -0.4190632633442E+00
 0.4384765730614E+00 -0.4860838765822E+00  0.0000000000000E+00 -0.4497083041818E+00
 0.4468402480353E+00 -0.4952803559754E+00  0.0000000000000E+00 -0.4835821008475E+00
 0.4529885191369E+00 -0.5026326416706E+00  0.0000000000000E+00 -0.5206416264534E+00
 0.4567364956822E+00 -0.5079793916438E+00  0.0000000000000E+00 -0.5606899986444E+00
 0.4577988398321E+00 -0.5110641798932E+00  0.0000000000000E+00 -0.6032912699794E+00
 0.4557835138153E+00 -0.5115303075634E+00  0.0000000000000E+00 -0.6476607742765E+00
 0.4501763377839E+00 -0.5089072816323E+00  0.0000000000000E+00 -0.6925290010560E+00
 0.4363554645179E-01 -0.1118954496294E+00  0.0000000000000E+00 -0.3016289410820E+00
 0.1089199371076E+00 -0.1732542450783E+00  0.0000000000000E+00 -0.2832444843792E+00
 0.1643003156822E+00 -0.2252133615559E+00  0.0000000000000E+00 -0.2735217125237E+00
 0.2116896890523E+00 -0.2696339145197E+00  0.0000000000000E+00 -0.2704102873578E+00
 0.2525334251261E+00 -0.3079214548166E+00  0.0000000000000E+00 -0.2724572864376E+00
 0.2879394377783E+00 -0.3411538313472E+00  0.0000000000000E+00 -0.2786539456866E+00
 0.3187709399368E+00 -0.3701721325725E+00  0.0000000000000E+00 -0.2883231092094E+00
 0.3457108457674E+00 -0.3956437197577E+00  0.0000000000000E+00 -0.3010365492032E+00
 0.3693058719855E+00 -0.4181053199313E+00  0.0000000000000E+00 -0.3165537645312E+00
 0.3899960157621E+00 -0.4379918282135E+00  0.0000000000000E+00 -0.3347761247545E+00
 0.4081324052899E+00 -0.4556538147030E+00  0.0000000000000E+00 -0.3557101649756E+00
 0.4239854712583E+00 -0.4713655931352E+00  0.0000000000000E+00 -0.3794346187181E+00
 0.4377460004073E+00 -0.4853262691585E+00  0.0000000000000E+00 -0.4060678259148E+00
 0.4495209478928E+00 -0.4976556628338E+00  0.0000000000000E+00 -0.4357343220175E+00
 0.4593258667726E+00 -0.5083870567154E+00  0.0000000000000E+00 -0.4685240876257E+00
 0.4670777015582E+00 -0.5174604517155E+00  0.0000000000000E+00 -0.5044401342248E+00
 0.4725887321016E+00 -0.5247171012596E+00  0.0000000000000E+00 -0.5433315712130E+00
 0.4755601026124E+00 -0.5298938716898E+00  0.0000000000000E+00 -0.5848065570076E+00
 0.4755722557877E+00 -0.5326149622390E+00  0.0000000000000E+00 -0.6281222443765E+00
 0.4720663135263E+00 -0.5323754692958E+00  0.0000000000000E+00 -0.6720508420086E+00
 0.4261739996754E-01 -0.1113554418457E+00  0.0000000000000E+00 -0.2735859137040E+00
 0.1092737505887E+00 -0.1740080766851E+00  0.0000000000000E+00 -0.2604406640480E+00
 0.1656964989855E+00 -0.2269501204499E+00  0.0000000000000E+00 -0.2545373719812E+00
 0.2139106680445E+00 -0.2721515313723E+00  0.0000000000000E+00 -0.2541886533340E+00
 0.2554448769163E+00 -0.3110987001974E+00  0.0000000000000E+00 -0.2581938983241E+00
 0.2914699068363E+00 -0.3449305839393E+00  0.0000000000000E+00 -0.2657180203963E+00
 0.3228975369791E+00 -0.3745356419644E+00  0.0000000000000E+00 -0.2762031846007E+00
 0.3504492380118E+00 -0.4006190996662E+00  0.0000000000000E+00 -0.2893037481778E+00
 0.3747032417467E+00 -0.4237489706250E+00  0.0000000000000E+00 -0.3048376621459E+00
 0.3961260289290E+00 -0.4443868475328E+00  0.0000000000000E+00 -0.3227498114472E+00
 0.4150915063497E+00 -0.4629067384363E+00  0.0000000000000E+00 -0.3430824526154E+00
 0.4318900375261E+00 -0.4796040328986E+00  0.0000000000000E+00 -0.3659475716422E+00
 0.4467299735650E+00 -0.4946970996738E+00  0.0000000000000E+00 -0.3914975332040E+00
 0.4597331444712E+00 -0.5083229948561E+00  0.0000000000000E+00 -0.4198947032920E+00
 0.4709260218642E+00 -0.5205290793644E+00  0.0000000000000E+00 -0.4512713017795E+00
 0.4802306320351E+00 -0.5312645457374E+00  0.0000000000000E+00 -0.4856752295388E+00
 0.4874559855840E+00 -0.5403726057902E+00  0.0000000000000E+00 -0.5230017752754E+00
 0.4922884779048E+00 -0.5475818966359E+00  0.0000000000000E+00 -0.5629053385750E+00
 0.4942788839950E+00 -0.5524949170918E+00  0.0000000000000E+00 -0.6046894507481E+00
 0.4928205491407E+00 -0.5545684576715E+00  0.0000000000000E+00 -0.6471755514832E+00
 0.4190045638502E-01 -0.1110253987062E+00  0.0000000000000E+00 -0.2449689499745E+00
 0.1096958448336E+00 -0.1747513135713E+00  0.0000000000000E+00 -0.2372063223403E+00
 0.1669944571747E+00 -0.2285189539202E+00  0.0000000000000E+00 -0.2351959001354E+00
 0.2159105750188E+00 -0.2743849977357E+00  0.0000000000000E+00 -0.2376320485692E+00
 0.2580400814736E+00 -0.3139011783812E+00  0.0000000000000E+00 -0.2435788330210E+00
 0.2946055904706E+00 -0.3482568917664E+00  0.0000000000000E+00 -0.2523825840199E+00
 0.3265599734649E+00 -0.3783807551517E+00  0.0000000000000E+00 -0.2636092028579E+00
 0.3546582837307E+00 -0.4050110608152E+00  0.0000000000000E+00 -0.2769975931819E+00
 0.3795070537483E+00 -0.4287440055425E+00  0.0000000000000E+00 -0.2924242525231E+00
 0.4015973349638E+00 -0.4500660277586E+00  0.0000000000000E+00 -0.3098762720925E+00
 0.4213249172806E+00 -0.4693736986718E+00  0.0000000000000E+00 -0.3294294026783E+00
 0.4389999871513E+00 -0.4869833556624E+00  0.0000000000000E+00 -0.3512261985887E+00
 0.4548489659182E+00 -0.5031330716142E+00  0.0000000000000E+00 -0.3754502402325E+00
 0.4690093748362E+00 -0.5179778399106E+00  0.0000000000000E+00 -0.4022993584302E+00
 0.4815192874976E+00 -0.5315796238774E+00  0.0000000000000E+00 -0.4319464352192E+00
 0.4923060939408E+00 -0.5438968852984E+00  0.0000000000000E+00 -0.4644837541996E+00
 0.5011752990879E+00 -0.5547742933122E+00  0.0000000000000E+00 -0.4998539965945E+00
 0.5077977328384E+00 -0.5639310819141E+00  0.0000000000000E+00 -0.5377615079019E+00
 0.5116930881534E+00 -0.5709461124397E+00  0.0000000000000E+00 -0.5775633017554E+00
 0.5122050228840E+00 -0.5752351355934E+00  0.0000000000000E+00 -0.6181414335595E+00
 0.4148964314226E-01 -0.1109072977603E+00  0.0000000000000E+00 -0.2158631327735E+00
 0.1101812165422E+00 -0.1754765716197E+00  0.0000000000000E+00 -0.2135943827875E+00
 0.1681821263061E+00 -0.2299058326052E+00  0.0000000000000E+00 -0.2155332053190E+00
 0.2176719324394E+00 -0.2763151650948E+00  0.0000000000000E+00 -0.2207695702300E+00
 0.2602969626507E+00 -0.3163053390798E+00  0.0000000000000E+00 -0.2286411749515E+00
 0.2973200330659E+00 -0.3511049394469E+00  0.0000000000000E+00 -0.2386811885464E+00
 0.3297271791477E+00 -0.3816750817302E+00  0.0000000000000E+00 -0.2505821657524E+00
 0.3583016844073E+00 -0.4087819503925E+00  0.0000000000000E+00 -0.2641686197253E+00
 0.3836748260455E+00 -0.4330464754346E+00  0.0000000000000E+00 -0.2793751935061E+00
 0.4063599972564E+00 -0.4549777620406E+00  0.0000000000000E+00 -0.2962296079436E+00
 0.4267736900871E+00 -0.4749937673825E+00  0.0000000000000E+00 -0.3148387155262E+00
 0.4452455606531E+00 -0.4934313823513E+00  0.0000000000000E+00 -0.3353728126746E+00
 0.4620204444364E+00 -0.5105486324661E+00  0.0000000000000E+00 -0.3580437155677E+00
 0.4772523025180E+00 -0.5265190426777E+00  0.0000000000000E+00 -0.3830823794473E+00
 0.4909915124284E+00 -0.5414196742020E+00  0.0000000000000E+00 -0.4107010976833E+00
 0.5031712562530E+00 -0.5552184270892E+00  0.0000000000000E+00 -0.4410365743061E+00
 0.5135936449889E+00 -0.5677612151034E+00  0.0000000000000E+00 -0.4740809096723E+00
 0.5219137888269E+00 -0.5787572975570E+00  0.0000000000000E+00 -0.5095932676568E+00
 0.5276200378114E+00 -0.5877610757391E+00  0.0000000000000E+00 -0.5469929373394E+00
 0.5300062058606E+00 -0.5941463348420E+00  0.0000000000000E+00 -0.5852364742722E+00
 0.4138848712281E-01 -0.1110022444479E+00  0.0000000000000E+00 -0.1863569133994E+00
 0.1107256501560E+00 -0.1761776624814E+00  0.0000000000000E+00 -0.1896600394728E+00
 0.1692495904138E+00 -0.2310991951929E+00  0.0000000000000E+00 -0.1955871214418E+00
 0.2191802552782E+00 -0.2779261351601E+00  0.0000000000000E+00 -0.2036323782748E+00
 0.2621969714353E+00 -0.3182913752277E+00  0.0000000000000E+00 -0.2134125546912E+00
 0.2995906735758E+00 -0.3534509979356E+00  0.0000000000000E+00 -0.2246506982867E+00
 0.3323722810823E+00 -0.3843906110531E+00  0.0000000000000E+00 -0.2371674257934E+00
 0.3613476483429E+00 -0.4118988092056E+00  0.0000000000000E+00 -0.2508730532302E+00
 0.3871689448314E+00 -0.4366175034056E+00  0.0000000000000E+00 -0.2657595254784E+00
 0.4103693844967E+00 -0.4590759834350E+00  0.0000000000000E+00 -0.2818934079269E+00
 0.4313847045655E+00 -0.4797121225470E+00  0.0000000000000E+00 -0.2994101484451E+00
 0.4505634358897E+00 -0.4988827069478E+00  0.0000000000000E+00 -0.3185048468574E+00
 0.4681690282773E+00 -0.5168657897353E+00  0.0000000000000E+00 -0.3394143820096E+00
 0.4843726053434E+00 -0.5338539576721E+00  0.0000000000000E+00 -0.3624004795064E+00
 0.4992376207339E+00 -0.5499398908381E+00  0.0000000000000E+00 -0.3877138582563E+00
 0.5127036877911E+00 -0.5651012571020E+00  0.0000000000000E+00 -0.4155360773080E+00
 0.5245700736201E+00 -0.5791853868808E+00  0.0000000000000E+00 -0.4459112066510E+00
 0.5344768115368E+00 -0.5918917426321E+00  0.0000000000000E+00 -0.4786587043640E+00
 0.5418819958907E+00 -0.6027507727950E+00  0.0000000000000E+00 -0.5132695909281E+00
 0.5460316411081E+00 -0.6110955999299E+00  0.0000000000000E+00 -0.5487897350340E+00
 0.4159908799909E-01 -0.1113104686452E+00  0.0000000000000E+00 -0.1565414393230E+00
 0.1113258060422E+00 -0.1768496979210E+00  0.0000000000000E+00 -0.1654604589673E+00
 0.1701892361850E+00 -0.2320901148196E+00  0.0000000000000E+00 -0.1753972850290E+00
 0.2204242524353E+00 -0.2792054702376E+00  0.0000000000000E+00 -0.1862536268653E+00
 0.2637253300517E+00 -0.3198434745243E+00  0.0000000000000E+00 -0.1979270568165E+00
 0.3013991384221E+00 -0.3552757244010E+00  0.0000000000000E+00 -0.2103311166476E+00
 0.3344729596222E+00 -0.3865040757855E+00  0.0000000000000E+00 -0.2234143862597E+00
 0.3637693307168E+00 -0.4143338210710E+00  0.0000000000000E+00 -0.2371723466434E+00
 0.3899572139472E+00 -0.4394238469917E+00  0.0000000000000E+00 -0.2516530205280E+00
 0.4135868567865E+00 -0.4623208686242E+00  0.0000000000000E+00 -0.2669598905251E+00
 0.4351115168057E+00 -0.4834809214340E+00  0.0000000000000E+00 -0.2832544347558E+00
 0.4548977588755E+00 -0.5032797618289E+00  0.0000000000000E+00 -0.3007535316982E+00
 0.4732277163817E+00 -0.5220153857910E+00  0.0000000000000E+00 -0.3197157107690E+00
 0.4902904082348E+00 -0.5398999455016E+00  0.0000000000000E+00 -0.3404310370905E+00
 0.5061632425308E+00 -0.5570423255909E+00  0.0000000000000E+00 -0.3631878568320E+00
 0.5207931455483E+00 -0.5734304885383E+00  0.0000000000000E+00 -0.3882132459319E+00
 0.5339775527365E+00 -0.5889137693208E+00  0.0000000000000E+00 -0.4156059972569E+00
 0.5453428710826E+00 -0.6031827812696E+00  0.0000000000000E+00 -0.4452513480540E+00
 0.5543193973480E+00 -0.6157458833750E+00  0.0000000000000E+00 -0.4767211751200E+00
 0.5601098024240E+00 -0.6258992695860E+00  0.0000000000000E+00 -0.5091648459592E+00
 0.4212211191861E-01 -0.1118313373047E+00  0.0000000000000E+00 -0.1265098453968E+00
 0.1119793023828E+00 -0.1774891851105E+00  0.0000000000000E+00 -0.1410544665563E+00
 0.1709958865959E+00 -0.2328724423618E+00  0.0000000000000E+00 -0.1550050002779E+00
 0.2213959979739E+00 -0.2801443717966E+00  0.0000000000000E+00 -0.1686683778596E+00
 0.2648712383172E+00 -0.3209500317120E+00  0.0000000000000E+00 -0.1822210981244E+00
 0.3027314887053E+00 -0.3565644147534E+00  0.0000000000000E+00 -0.1957653653729E+00
 0.3360117502086E+00 -0.3879972592489E+00  0.0000000000000E+00 -0.2093761285276E+00
 0.3655452109379E+00 -0.4160646970079E+00  0.0000000000000E+00 -0.2231326126678E+00
 0.3920133336752E+00 -0.4414383864699E+00  0.0000000000000E+00 -0.2371373872859E+00
 0.4159803733417E+00 -0.4646794595691E+00  0.0000000000000E+00 -0.2515288583691E+00
 0.4379151205913E+00 -0.4862600824707E+00  0.0000000000000E+00 -0.2664919718176E+00
 0.4582010743402E+00 -0.5065737777649E+00  0.0000000000000E+00 -0.2822623011588E+00
 0.4771389944853E+00 -0.5259382459492E+00  0.0000000000000E+00 -0.2991163050109E+00
 0.4949365674359E+00 -0.5445857126365E+00  0.0000000000000E+00 -0.3173697950052E+00
 0.5116861611709E+00 -0.5626419422255E+00  0.0000000000000E+00 -0.3373480521471E+00
 0.5273431393928E+00 -0.5801059224138E+00  0.0000000000000E+00 -0.3593243931982E+00
 0.5417045404551E+00 -0.5968299639573E+00  0.0000000000000E+00 -0.3834549980949E+00
 0.5543853041626E+00 -0.6124974546730E+00  0.0000000000000E+00 -0.4096958419791E+00
 0.5647916193837E+00 -0.6265977455704E+00  0.0000000000000E+00 -0.4377075051932E+00
 0.5720897083605E+00 -0.6383962785004E+00  0.0000000000000E+00 -0.4667547890960E+00
 0.4295680555364E-01 -0.1125633842818E+00  0.0000000000000E+00 -0.9635649968177E-01
 0.1126847896042E+00 -0.1780941118020E+00  0.0000000000000E+00 -0.1165022083875E+00
 0.1716669111397E+00 -0.2334429246995E+00  0.0000000000000E+00 -0.1344530848230E+00
 0.2220910692710E+00 -0.2807378247017E+00  0.0000000000000E+00 -0.1509134929871E+00
 0.2656280383440E+00 -0.3216038180273E+00  0.0000000000000E+00 -0.1663332776360E+00
 0.3035784161518E+00 -0.3573072035094E+00  0.0000000000000E+00 -0.1809990221787E+00
 0.3369762831465E+00 -0.3888572388891E+00  0.0000000000000E+00 -0.1951089758426E+00
 0.3666593970692E+00 -0.4170749839971E+00  0.0000000000000E+00 -0.2088239614103E+00
 0.3933172964872E+00 -0.4426405268641E+00  0.0000000000000E+00 -0.2222993427843E+00
 0.4175250081288E+00 -0.4661261890529E+00  0.0000000000000E+00 -0.2357064775683E+00
 0.4397646077663E+00 -0.4880179612327E+00  0.0000000000000E+00 -0.2492512928918E+00
 0.4604351422971E+00 -0.5087256242048E+00  0.0000000000000E+00 -0.2631849493769E+00
 0.4798558080631E+00 -0.5285861855327E+00  0.0000000000000E+00 -0.2777977084508E+00
 0.4982537936808E+00 -0.5478524810142E+00  0.0000000000000E+00 -0.2934282647817E+00
 0.5157375687973E+00 -0.5666679329447E+00  0.0000000000000E+00 -0.3104381688063E+00
 0.5322722805887E+00 -0.5850434747192E+00  0.0000000000000E+00 -0.3291476240930E+00
 0.5476563391861E+00 -0.6028356677044E+00  0.0000000000000E+00 -0.3497725646894E+00
 0.5614958861525E+00 -0.6197227789290E+00  0.0000000000000E+00 -0.3723437330129E+00
 0.5731776185701E+00 -0.6351791415676E+00  0.0000000000000E+00 -0.3966161509621E+00
 0.5818405013695E+00 -0.6484479033714E+00  0.0000000000000E+00 -0.4219781050366E+00
 0.4410103465693E-01 -0.1135043572821E+00  0.0000000000000E+00 -0.6617622689038E-01
 0.1134420175193E+00 -0.1786640198964E+00  0.0000000000000E+00 -0.9186480100516E-01
 0.1722023124736E+00 -0.2338012960703E+00  0.0000000000000E+00 -0.1137857045314E+00
 0.2225086511029E+00 -0.2809847048525E+00  0.0000000000000E+00 -0.1330275135585E+00
 0.2659933353904E+00 -0.3218021045309E+00  0.0000000000000E+00 -0.1503042105297E+00
 0.3039353834667E+00 -0.3574992056720E+00  0.0000000000000E+00 -0.1660800326805E+00
 0.3373594542002E+00 -0.3890765577359E+00  0.0000000000000E+00 -0.1806720121058E+00
 0.3671018471204E+00 -0.4173542870817E+00  0.0000000000000E+00 -0.1943197628571E+00
 0.3938556869717E+00 -0.4430164997242E+00  0.0000000000000E+00 -0.2072295698318E+00
 0.4182033593728E+00 -0.4666432947620E+00  0.0000000000000E+00 -0.2196038985945E+00
 0.4406377141768E+00 -0.4887319057810E+00  0.0000000000000E+00 -0.2316673397291E+00
 0.4615716291347E+00 -0.5097065170066E+00  0.0000000000000E+00 -0.2436835610699E+00
 0.4813423919012E+00 -0.5299228653250E+00  0.0000000000000E+00 -0.2559519732998E+00
 0.5001976069518E+00 -0.5496549788833E+00  0.0000000000000E+00 -0.2688308853404E+00
 0.5182631253371E+00 -0.5690648239138E+00  0.0000000000000E+00 -0.2827174015003E+00
 0.5355154184859E+00 -0.5881763711661E+00  0.0000000000000E+00 -0.2979790675211E+00
 0.5517562637442E+00 -0.6068519146736E+00  0.0000000000000E+00 -0.3148935515235E+00
 0.5665859052660E+00 -0.6247669169022E+00  0.0000000000000E+00 -0.3335692876274E+00
 0.5793765987998E+00 -0.6413850918282E+00  0.0000000000000E+00 -0.3538587527157E+00
 0.5892512271876E+00 -0.6559376849956E+00  0.0000000000000E+00 -0.3752761595919E+00
 0.4555134135847E-01 -0.1146512810751E+00  0.0000000000000E+00 -0.3606352240431E-01
 0.1142518923983E+00 -0.1792000665945E+00  0.0000000000000E+00 -0.6720397619514E-01
 0.1726047866193E+00 -0.2339503419766E+00  0.0000000000000E+00 -0.9304820315986E-01
 0.2226516035193E+00 -0.2808878501108E+00  0.0000000000000E+00 -0.1150505362625E+00
 0.2659690721294E+00 -0.3215467383925E+00  0.0000000000000E+00 -0.1341763601777E+00
 0.3038027044244E+00 -0.3571405974977E+00  0.0000000000000E+00 -0.1510584165788E+00
 0.3371595183864E+00 -0.3886533175116E+00  0.0000000000000E+00 -0.1661265799761E+00
 0.3668684961923E+00 -0.4168983947849E+00  0.0000000000000E+00 -0.1796958605840E+00
 0.3936218718622E+00 -0.4425595512338E+00  0.0000000000000E+00 -0.1920215857882E+00
 0.4180058374009E+00 -0.4662211066084E+00  0.0000000000000E+00 -0.2033357417903E+00
 0.4405212371872E+00 -0.4883886773190E+00  0.0000000000000E+00 -0.2138795566478E+00
 0.4615926630525E+00 -0.5094985834469E+00  0.0000000000000E+00 -0.2239262407046E+00
 0.4815749504666E+00 -0.5299244898951E+00  0.0000000000000E+00 -0.2337790253225E+00
 0.5007371202493E+00 -0.5499622508092E+00  0.0000000000000E+00 -0.2438119918611E+00
 0.5192238176525E+00 -0.5697933674580E+00  0.0000000000000E+00 -0.2544569495621E+00
 0.5370245577590E+00 -0.5894561013685E+00  0.0000000000000E+00 -0.2661289398319E+00
 0.5539466220697E+00 -0.6088200993545E+00  0.0000000000000E+00 -0.2791689792387E+00
 0.5695871871308E+00 -0.6275602632021E+00  0.0000000000000E+00 -0.2937651573769E+00
 0.5833088550071E+00 -0.6451338033376E+00  0.0000000000000E+00 -0.3098675459518E+00
 0.5942310224137E+00 -0.6607717528105E+00  0.0000000000000E+00 -0.3271113918864E+00
 0.4730302467829E-01 -0.1160005366145E+00  0.0000000000000E+00 -0.6111743628211E-02
 0.1151165254437E+00 -0.1797050725386E+00  0.0000000000000E+00 -0.4258170583647E-01
 0.1728797600961E+00 -0.2338959371941E+00  0.0000000000000E+00 -0.7228691336956E-01
 0.2225264977765E+00 -0.2804540975060E+00  0.0000000000000E+00 -0.9702407981358E-01
 0.2655615598117E+00 -0.3208441744846E+00  0.0000000000000E+00 -0.1179938736668E+00
 0.3031855645811E+00 -0.3562366359999E+00  0.0000000000000E+00 -0.1359859829053E+00
 0.3363801041908E+00 -0.3875911896796E+00  0.0000000000000E+00 -0.1515357801453E+00
 0.3659612824393E+00 -0.4157092999074E+00  0.0000000000000E+00 -0.1650297630496E+00
 0.3926160688232E+00 -0.4412700042371E+00  0.0000000000000E+00 -0.1767705500343E+00
 0.4169308168192E+00 -0.4648581918502E+00  0.0000000000000E+00 -0.1870184707871E+00
 0.4394113125546E+00 -0.4869847222344E+00  0.0000000000000E+00 -0.1960298228005E+00
 0.4604912477741E+00 -0.5080952769585E+00  0.0000000000000E+00 -0.2040846577522E+00
 0.4805421909551E+00 -0.5285803500178E+00  0.0000000000000E+00 -0.2114838567899E+00
 0.4998556600788E+00 -0.5487582947750E+00  0.0000000000000E+00 -0.2186126504827E+00
 0.5185966264777E+00 -0.5688312289733E+00  0.0000000000000E+00 -0.2259364662032E+00
 0.5367695484477E+00 -0.5888531281147E+00  0.0000000000000E+00 -0.2339175470034E+00
 0.5541894700839E+00 -0.6087027393806E+00  0.0000000000000E+00 -0.2429615549879E+00
 0.5704530342736E+00 -0.6280563919579E+00  0.0000000000000E+00 -0.2533376938767E+00
 0.5849168752722E+00 -0.6463678299751E+00  0.0000000000000E+00 -0.2650915172427E+00
 0.5967098150815E+00 -0.6628797206886E+00  0.0000000000000E+00 -0.2779655801053E+00
 0.4935024075083E-01 -0.1175479527886E+00  0.0000000000000E+00  0.2358769858186E-01
 0.1160392705369E+00 -0.1801835546689E+00  0.0000000000000E+00 -0.1805981214288E-01
 0.1730354055389E+00 -0.2336470602331E+00  0.0000000000000E+00 -0.5154895027442E-01
 0.2221436245370E+00 -0.2796942918084E+00  0.0000000000000E+00 -0.7899094968764E-01
 0.2647814697512E+00 -0.3197054663941E+00  0.0000000000000E+00 -0.1018024377382E+00
 0.3020939830631E+00 -0.3547976180769E+00  0.0000000000000E+00 -0.1209160786485E+00
 0.3350301449601E+00 -0.3858993415622E+00  0.0000000000000E+00 -0.1369640009544E+00
 0.3643880642733E+00 -0.4137951085778E+00  0.0000000000000E+00 -0.1503998454511E+00
 0.3908452809799E+00 -0.4391551813373E+00  0.0000000000000E+00 -0.1615720437339E+00
 0.4149846352349E+00 -0.4625613396957E+00  0.0000000000000E+00 -0.1707686792430E+00
 0.4373135339396E+00 -0.4845262773330E+00  0.0000000000000E+00 -0.1782602295278E+00
 0.4582715270909E+00 -0.5055016327709E+00  0.0000000000000E+00 -0.1843313999444E+00
 0.4782457161651E+00 -0.5258932163566E+00  0.0000000000000E+00 -0.1892735424659E+00
 0.4975512428379E+00 -0.5460425473321E+00  0.0000000000000E+00 -0.1934773795286E+00
 0.5163750209314E+00 -0.5661734906961E+00  0.0000000000000E+00 -0.1974404753805E+00
 0.5347385611204E+00 -0.5863573646097E+00  0.0000000000000E+00 -0.2016713019930E+00
 0.5524670933758E+00 -0.6064839497378E+00  0.0000000000000E+00 -0.2066411791340E+00
 0.5691589179882E+00 -0.6262326852774E+00  0.0000000000000E+00 -0.2127018116131E+00
 0.5841665199223E+00 -0.6450552194317E+00  0.0000000000000E+00 -0.2199912767891E+00
 0.5966392987645E+00 -0.6622159125811E+00  0.0000000000000E+00 -0.2283362443546E+00
 0.5168611863916E-01 -0.1192889043236E+00  0.0000000000000E+00  0.5294616414542E-01
 0.1170247491589E+00 -0.1806417411566E+00  0.0000000000000E+00  0.6300469401100E-02
 0.1730826412430E+00 -0.2332157901905E+00  0.0000000000000E+00 -0.3088195788174E-01
 0.2215169834553E+00 -0.2786232754819E+00  0.0000000000000E+00 -0.6099508959154E-01
 0.2636437918194E+00 -0.3181462238727E+00  0.0000000000000E+00 -0.8564916213101E-01
 0.3005427171309E+00 -0.3528387806937E+00  0.0000000000000E+00 -0.1059033868990E+00
 0.3331237250884E+00 -0.3835922751037E+00  0.0000000000000E+00 -0.1224764992574E+00
 0.3621624223109E+00 -0.4111698313093E+00  0.0000000000000E+00 -0.1358845900561E+00
 0.3883230833798E+00 -0.4362291756920E+00  0.0000000000000E+00 -0.1465208572725E+00
 0.4121814147758E+00 -0.4593453608881E+00  0.0000000000000E+00 -0.1547013211729E+00
 0.4342428868319E+00 -0.4810292777703E+00  0.0000000000000E+00 -0.1607107051962E+00
 0.4549488813972E+00 -0.5017343419336E+00  0.0000000000000E+00 -0.1648370993608E+00
 0.4747002824422E+00 -0.5218795886754E+00  0.0000000000000E+00 -0.1673540301133E+00
 0.4938369351404E+00 -0.5418302478801E+00  0.0000000000000E+00 -0.1686507476841E+00
 0.5125693077679E+00 -0.5618330037200E+00  0.0000000000000E+00 -0.1692548135034E+00
 0.5309383529377E+00 -0.5819784259489E+00  0.0000000000000E+00 -0.1697188303327E+00
 0.5487822307678E+00 -0.6021696346541E+00  0.0000000000000E+00 -0.1705805415419E+00
 0.5657026979690E+00 -0.6220905236776E+00  0.0000000000000E+00 -0.1722759321536E+00
 0.5810475409485E+00 -0.6411897681455E+00  0.0000000000000E+00 -0.1750322621215E+00
 0.5939929881831E+00 -0.6587596064240E+00  0.0000000000000E+00 -0.1787281441796E+00
 0.5430287940097E-01 -0.1212184021971E+00  0.0000000000000E+00  0.8187861727414E-01
 0.1180788564223E+00 -0.1810875620486E+00  0.0000000000000E+00  0.3043899794157E-01
 0.1730351252304E+00 -0.2326172996355E+00  0.0000000000000E+00 -0.1033378996847E-01
 0.2206642718128E+00 -0.2772598812604E+00  0.0000000000000E+00 -0.4308143852785E-01
 0.2621677713578E+00 -0.3161865493533E+00  0.0000000000000E+00 -0.6958253632056E-01
 0.2985511133534E+00 -0.3503801465635E+00  0.0000000000000E+00 -0.9100382458386E-01
 0.3306798429617E+00 -0.3806895809024E+00  0.0000000000000E+00 -0.1081390821714E+00
 0.3593033479312E+00 -0.4078530601749E+00  0.0000000000000E+00 -0.1215619270328E+00
 0.3850692573419E+00 -0.4325124676227E+00  0.0000000000000E+00 -0.1317098695751E+00
 0.4085426869777E+00 -0.4552326852881E+00  0.0000000000000E+00 -0.1389279826391E+00
 0.4302234629268E+00 -0.4765190317498E+00  0.0000000000000E+00 -0.1435165575030E+00
 0.4505498263737E+00 -0.4968216102936E+00  0.0000000000000E+00 -0.1457673366002E+00
 0.4699339327533E+00 -0.5165698057897E+00  0.0000000000000E+00 -0.1459266522394E+00
 0.4887411652099E+00 -0.5361527575519E+00  0.0000000000000E+00 -0.1443738500406E+00
 0.5072069101112E+00 -0.5558406774885E+00  0.0000000000000E+00 -0.1416632720105E+00
 0.5253943388783E+00 -0.5757456739452E+00  0.0000000000000E+00 -0.1383874340389E+00
 0.5431580315679E+00 -0.5957873725990E+00  0.0000000000000E+00 -0.1351508851338E+00
 0.5601046442105E+00 -0.6156552594428E+00  0.0000000000000E+00 -0.1324773915461E+00
 0.5755726307609E+00 -0.6347901667822E+00  0.0000000000000E+00 -0.1306799160978E+00
 0.5887633340062E+00 -0.6525110342674E+00  0.0000000000000E+00 -0.1296421866380E+00
 0.5719194565957E-01 -0.1233311433918E+00  0.0000000000000E+00  0.1103044708954E+00
 0.1192087417115E+00 -0.1815306010374E+00  0.0000000000000E+00  0.5429740349477E-01
 0.1729092754700E+00 -0.2318698768332E+00  0.0000000000000E+00  0.1004794638209E-01
 0.2196069098738E+00 -0.2756269640575E+00  0.0000000000000E+00 -0.2529580027940E-01
 0.2603768410804E+00 -0.3138509676866E+00  0.0000000000000E+00 -0.5365250342705E-01
 0.2961429049738E+00 -0.3474463075716E+00  0.0000000000000E+00 -0.7627456092905E-01
 0.3277220919406E+00 -0.3772156064589E+00  0.0000000000000E+00 -0.9401788584170E-01
 0.3558348259258E+00 -0.4038695377625E+00  0.0000000000000E+00 -0.1075086850518E+00
 0.3811092736758E+00 -0.4280313887228E+00  0.0000000000000E+00 -0.1172290614790E+00
 0.4040968009367E+00 -0.4502527352986E+00  0.0000000000000E+00 -0.1235552588029E+00
 0.4252878978809E+00 -0.4710296064554E+00  0.0000000000000E+00 -0.1268059878623E+00
 0.4451116321939E+00 -0.4908027032197E+00  0.0000000000000E+00 -0.1272792497388E+00
 0.4639879659494E+00 -0.5100079669265E+00  0.0000000000000E+00 -0.1251840996078E+00
 0.4823080704671E+00 -0.5290579056300E+00  0.0000000000000E+00 -0.1208803404177E+00
 0.5003327394309E+00 -0.5482459081622E+00  0.0000000000000E+00 -0.1149444475698E+00
 0.5181504908288E+00 -0.5677080995598E+00  0.0000000000000E+00 -0.1080003267224E+00
 0.5356375571618E+00 -0.5873857658516E+00  0.0000000000000E+00 -0.1007180686767E+00
 0.5524074604191E+00 -0.6069760323019E+00  0.0000000000000E+00 -0.9371725375386E-01
 0.5677781086777E+00 -0.6259007208649E+00  0.0000000000000E+00 -0.8740001357472E-01
 0.5809618883622E+00 -0.6434912177727E+00  0.0000000000000E+00 -0.8159904365038E-01
 0.6034397400142E-01 -0.1256214384977E+00  0.0000000000000E+00  0.1381485376924E+00
 0.1204227409221E+00 -0.1819819962225E+00  0.0000000000000E+00  0.7782016898133E-01
 0.1727243763460E+00 -0.2309950514629E+00  0.0000000000000E+00  0.3021662191268E-01
 0.2183701673785E+00 -0.2737515642767E+00  0.0000000000000E+00 -0.7684810094919E-02
 0.2582985516763E+00 -0.3111683468640E+00  0.0000000000000E+00 -0.3791079920544E-01
 0.2933459305315E+00 -0.3440661261061E+00  0.0000000000000E+00 -0.6177420994052E-01
 0.3242782576144E+00 -0.3731990361091E+00  0.0000000000000E+00 -0.8017925132837E-01
 0.3517853358313E+00 -0.3992486570213E+00  0.0000000000000E+00 -0.9380019578486E-01
 0.3764736464969E+00 -0.4228174594899E+00  0.0000000000000E+00 -0.1031647885684E+00
 0.3988781102258E+00 -0.4444410806674E+00  0.0000000000000E+00 -0.1086834073292E+00
 0.4194764991889E+00 -0.4646028932883E+00  0.0000000000000E+00 -0.1106977735692E+00
 0.4386815337652E+00 -0.4837270746078E+00  0.0000000000000E+00 -0.1095180705883E+00
 0.4569166015984E+00 -0.5022514491088E+00  0.0000000000000E+00 -0.1053056000579E+00
 0.4745979807740E+00 -0.5206104890189E+00  0.0000000000000E+00 -0.9839142413142E-01
 0.4920100724675E+00 -0.5391175550093E+00  0.0000000000000E+00 -0.8936859343453E-01
 0.5092693919469E+00 -0.5579345345568E+00  0.0000000000000E+00 -0.7887573248531E-01
 0.5262824383482E+00 -0.5770328562971E+00  0.0000000000000E+00 -0.6764048472650E-01
 0.5426755340264E+00 -0.5961244718184E+00  0.0000000000000E+00 -0.5639327392966E-01
 0.5577277995092E+00 -0.6145946798726E+00  0.0000000000000E+00 -0.4565171183020E-01
 0.5706286289889E+00 -0.6317521961143E+00  0.0000000000000E+00 -0.3514513846721E-01
 0.6374870462260E-01 -0.1280828422273E+00  0.0000000000000E+00  0.1653421993080E+00
 0.1217302377934E+00 -0.1824541917128E+00  0.0000000000000E+00  0.1009568267220E+00
 0.1725029865820E+00 -0.2300181305022E+00  0.0000000000000E+00  0.5012790405047E-01
 0.2169835450416E+00 -0.2716653159625E+00  0.0000000000000E+00  0.9703735725080E-02
 0.2559644767281E+00 -0.3081717980953E+00  0.0000000000000E+00 -0.2241180530410E-01
 0.2901916996201E+00 -0.3402722178268E+00  0.0000000000000E+00 -0.4756315249377E-01
 0.3203798341958E+00 -0.3686724066033E+00  0.0000000000000E+00 -0.6668949654153E-01
 0.3471873349821E+00 -0.3940239392106E+00  0.0000000000000E+00 -0.8050999922013E-01
 0.3711971940442E+00 -0.4169066534397E+00  0.0000000000000E+00 -0.8959939937653E-01
 0.3929259269473E+00 -0.4378383369159E+00  0.0000000000000E+00 -0.9440537929254E-01
 0.4128360229183E+00 -0.4572873235863E+00  0.0000000000000E+00 -0.9529919691142E-01
 0.4313154577963E+00 -0.4756529842289E+00  0.0000000000000E+00 -0.9261379344490E-01
 0.4487858573983E+00 -0.4933696644916E+00  0.0000000000000E+00 -0.8645170615560E-01
 0.4656877603413E+00 -0.5108921755929E+00  0.0000000000000E+00 -0.7710785185931E-01
 0.4823227193169E+00 -0.5285466378766E+00  0.0000000000000E+00 -0.6519272360180E-01
 0.4988334928314E+00 -0.5465151807401E+00  0.0000000000000E+00 -0.5132905014079E-01
 0.5151704603881E+00 -0.5648137889991E+00  0.0000000000000E+00 -0.3627263962228E-01
 0.5309908938766E+00 -0.5831894931159E+00  0.0000000000000E+00 -0.2088303579673E-01
 0.5455152321269E+00 -0.6009752378593E+00  0.0000000000000E+00 -0.5865352544820E-02
 0.5578425901990E+00 -0.6173888005539E+00  0.0000000000000E+00  0.9173554345177E-02
 0.6739431377432E-01 -0.1307066268441E+00  0.0000000000000E+00  0.1918263750110E+00
 0.1231415407255E+00 -0.1829609927744E+00  0.0000000000000E+00  0.1236672796966E+00
 0.1722722077982E+00 -0.2289695421859E+00  0.0000000000000E+00  0.6974212051954E-01
 0.2154817117376E+00 -0.2694057318307E+00  0.0000000000000E+00  0.2681925508911E-01
 0.2534098691551E+00 -0.3048980547061E+00  0.0000000000000E+00 -0.7214760690577E-02
 0.2867145632744E+00 -0.3361000876672E+00  0.0000000000000E+00 -0.3370361128030E-01
 0.3160615228254E+00 -0.3636715533986E+00  0.0000000000000E+00 -0.5361424379446E-01
 0.3420768629982E+00 -0.3882327558720E+00  0.0000000000000E+00 -0.6770974385048E-01
 0.3653182767902E+00 -0.4103385815587E+00  0.0000000000000E+00 -0.7661152361922E-01
 0.3862832250017E+00 -0.4304888792216E+00  0.0000000000000E+00 -0.8080655955738E-01
 0.4054180779811E+00 -0.4491361289872E+00  0.0000000000000E+00 -0.8070441848838E-01
 0.4230762889857E+00 -0.4666457235478E+00  0.0000000000000E+00 -0.7667823270896E-01
 0.4396716680579E+00 -0.4834420227701E+00  0.0000000000000E+00 -0.6875983327246E-01
 0.4556690391110E+00 -0.4999995875601E+00  0.0000000000000E+00 -0.5720114523561E-01
 0.4713787646235E+00 -0.5166482365551E+00  0.0000000000000E+00 -0.4264377813687E-01
 0.4869522460502E+00 -0.5335727775460E+00  0.0000000000000E+00 -0.2567785605210E-01
 0.5023926578129E+00 -0.5508271108357E+00  0.0000000000000E+00 -0.6987934301919E-02
 0.5174416531044E+00 -0.5682638930369E+00  0.0000000000000E+00  0.1245762164508E-01
 0.5312586676257E+00 -0.5851686393504E+00  0.0000000000000E+00  0.3159047991363E-01
 0.5427433522058E+00 -0.6005569351871E+00  0.0000000000000E+00  0.5083219390337E-01
 0.7126471474258E-01 -0.1334782759000E+00  0.0000000000000E+00  0.2175548033598E+00
 0.1246676451546E+00 -0.1835154053334E+00  0.0000000000000E+00  0.1459387806588E+00
 0.1720686416054E+00 -0.2278929861617E+00  0.0000000000000E+00  0.8902856883531E-01
 0.2139061043428E+00 -0.2670166459742E+00  0.0000000000000E+00  0.4359879120436E-01
 0.2506718549807E+00 -0.3013854043106E+00  0.0000000000000E+00  0.7614413020056E-02
 0.2829507151520E+00 -0.3315871455393E+00  0.0000000000000E+00 -0.2025858596693E-01
 0.3113606305757E+00 -0.3582351095850E+00  0.0000000000000E+00 -0.4101779327399E-01
 0.3364935041384E+00 -0.3819159326493E+00  0.0000000000000E+00 -0.5546783312668E-01
 0.3588785209943E+00 -0.4031569953362E+00  0.0000000000000E+00 -0.6427798913631E-01
 0.3789947332400E+00 -0.4224382877701E+00  0.0000000000000E+00 -0.6796648070206E-01
 0.3972770119947E+00 -0.4402052378950E+00  0.0000000000000E+00 -0.6699200062383E-01
 0.4140320911381E+00 -0.4567758403041E+00  0.0000000000000E+00 -0.6180257117353E-01
 0.4296573376003E+00 -0.4725553301253E+00  0.0000000000000E+00 -0.5234137386017E-01
 0.4446448824464E+00 -0.4880406498950E+00  0.0000000000000E+00 -0.3880766012989E-01
 0.4593060333319E+00 -0.5035571146005E+00  0.0000000000000E+00 -0.2189941813423E-01
 0.4737824612775E+00 -0.5192734108742E+00  0.0000000000000E+00 -0.2191105676450E-02
 0.4880722441997E+00 -0.5352302749128E+00  0.0000000000000E+00  0.1974285814557E-01
 0.5020812408935E+00 -0.5513854007298E+00  0.0000000000000E+00  0.4321722004110E-01
 0.5150739507860E+00 -0.5672834512721E+00  0.0000000000000E+00  0.6653404499775E-01
 0.5255627878128E+00 -0.5815249563749E+00  0.0000000000000E+00  0.8943556581250E-01
 0.7533239100291E-01 -0.1363384932670E+00  0.0000000000000E+00  0.2425854793851E+00
 0.1263363443066E+00 -0.1841675023193E+00  0.0000000000000E+00  0.1678671118905E+00
 0.1719551170624E+00 -0.2268574883559E+00  0.0000000000000E+00  0.1079311853600E+00
 0.2123007140667E+00 -0.2645427943850E+00  0.0000000000000E+00  0.5995370722263E-01
 0.2477860177525E+00 -0.2976701156176E+00  0.0000000000000E+00  0.2200555370088E-01
 0.2789374528130E+00 -0.3267720282900E+00  0.0000000000000E+00 -0.7288309149358E-02
 0.3063171911167E+00 -0.3524049305216E+00  0.0000000000000E+00 -0.2896314754706E-01
 0.3304788770554E+00 -0.3751164190680E+00  0.0000000000000E+00 -0.4385029549311E-01
 0.3519246913211E+00 -0.3954093813327E+00  0.0000000000000E+00 -0.5266654824555E-01
 0.3711066508838E+00 -0.4137387291677E+00  0.0000000000000E+00 -0.5597351752712E-01
 0.3884617470417E+00 -0.4305389964210E+00  0.0000000000000E+00 -0.5422692001149E-01
 0.4042562627990E+00 -0.4461199790920E+00  0.0000000000000E+00 -0.4803430480118E-01
 0.4188350376524E+00 -0.4608102702739E+00  0.0000000000000E+00 -0.3729457727567E-01
 0.4327198229073E+00 -0.4751193859089E+00  0.0000000000000E+00 -0.2203227874205E-01
 0.4462453144676E+00 -0.4894209393023E+00  0.0000000000000E+00 -0.3065617713189E-02
 0.4595117229460E+00 -0.5038168736808E+00  0.0000000000000E+00  0.1895849431976E-01
 0.4724682533757E+00 -0.5182853760795E+00  0.0000000000000E+00  0.4354998504177E-01
 0.4849561948472E+00 -0.5327345736548E+00  0.0000000000000E+00  0.7038540978019E-01
 0.4968290331592E+00 -0.5469839817199E+00  0.0000000000000E+00  0.9881522942599E-01
 0.5071178264045E+00 -0.5610610861182E+00  0.0000000000000E+00  0.1248197377930E+00
 0.2723881824002E+00 -0.4277907688652E+00  0.0000000000000E+00 -0.2774861271778E+00
 0.1321146780129E+00 -0.1436986506987E+00  0.0000000000000E+00  0.2404577597054E+00
 0.2840797761357E-01 -0.2958821829589E-01  0.0000000000000E+00  0.8670180729749E-01
 0.1796601044222E-02  0.2020684408319E-02  0.0000000000000E+00 -0.3979730299036E-02
-0.1474635191198E-01  0.2006013763862E-01  0.0000000000000E+00 -0.4377740338197E-01
-0.2568438350587E-01  0.3157984884085E-01  0.0000000000000E+00 -0.5776069775878E-01
-0.3361631285562E-01  0.3975293294218E-01  0.0000000000000E+00 -0.5774015011989E-01
-0.3925350448466E-01  0.4547811190919E-01  0.0000000000000E+00 -0.4996215295089E-01
-0.4280212353829E-01  0.4895523738509E-01  0.0000000000000E+00 -0.3802607123322E-01
-0.4429068961620E-01  0.5024544896453E-01  0.0000000000000E+00 -0.2327542389885E-01
-0.4348652169389E-01  0.4923318096208E-01  0.0000000000000E+00 -0.7076823789434E-02
-0.4016124670790E-01  0.4535413426703E-01  0.0000000000000E+00  0.9549890293598E-02
-0.3410258008716E-01  0.3865312965449E-01  0.0000000000000E+00  0.2994281559685E-01
-0.2594202742098E-01  0.3026133367459E-01  0.0000000000000E+00  0.5150801791197E-01
-0.1624288894412E-01  0.2082029881554E-01  0.0000000000000E+00  0.6999345320890E-01
-0.5791215121787E-02  0.1086764735347E-01  0.0000000000000E+00  0.8437701660290E-01
 0.4524001508758E-02  0.1128154133811E-02  0.0000000000000E+00  0.9457804137065E-01
 0.1452132591489E-01 -0.8379515038035E-02  0.0000000000000E+00  0.1005620811221E+00
 0.2455752164315E-01 -0.1804116908310E-01  0.0000000000000E+00  0.1023208643326E+00
 0.3601450771183E-01 -0.2953944084463E-01  0.0000000000000E+00  0.1027580492510E+00
 0.3179161266699E+00 -0.4063078708608E+00  0.0000000000000E+00 -0.4832362954189E+00
 0.2363800927233E+00 -0.2817782219866E+00  0.0000000000000E+00  0.2563411660504E-01
 0.9816087863950E-01 -0.1069759560275E+00  0.0000000000000E+00  0.8733181949849E-01
 0.3842422810801E-01 -0.3952326977201E-01  0.0000000000000E+00  0.2716801188236E-01
 0.1031328989117E-01 -0.8203200719831E-02  0.0000000000000E+00 -0.1556058791693E-01
-0.7076831431442E-02  0.1041468897328E-01  0.0000000000000E+00 -0.3638151140181E-01
-0.1868663074482E-01  0.2264024184847E-01  0.0000000000000E+00 -0.4239050795444E-01
-0.2674964186462E-01  0.3101097945424E-01  0.0000000000000E+00 -0.3910577938743E-01
-0.3216603101104E-01  0.3654473809335E-01  0.0000000000000E+00 -0.3031774082178E-01
-0.3524407194829E-01  0.3961881341408E-01  0.0000000000000E+00 -0.1792651007779E-01
-0.3606177455906E-01  0.4027890404582E-01  0.0000000000000E+00 -0.2884525078083E-02
-0.3487236693296E-01  0.3882970076953E-01  0.0000000000000E+00  0.1346570427407E-01
-0.3131692230008E-01  0.3501504441844E-01  0.0000000000000E+00  0.3180307593348E-01
-0.2519353157034E-01  0.2876313351350E-01  0.0000000000000E+00  0.5001005007901E-01
-0.1699673216682E-01  0.2070847681089E-01  0.0000000000000E+00  0.6508723904948E-01
-0.7625782013976E-02  0.1170456863231E-01  0.0000000000000E+00  0.7648266282918E-01
 0.1921958952189E-02  0.2590288987399E-02  0.0000000000000E+00  0.8422982882132E-01
 0.1136105173150E-01 -0.6438117343027E-02  0.0000000000000E+00  0.8864380055670E-01
 0.2079947404038E-01 -0.1557321365170E-01  0.0000000000000E+00  0.9011124519128E-01
 0.3027820236291E-01 -0.2474278399388E-01  0.0000000000000E+00  0.9128672814560E-01
 0.2997223625191E+00 -0.3672138173017E+00  0.0000000000000E+00 -0.5635141959156E+00
 0.2717522433769E+00 -0.3159010279411E+00  0.0000000000000E+00 -0.1594053101934E+00
 0.1617794030332E+00 -0.1828450839460E+00  0.0000000000000E+00  0.6712438265290E-02
 0.8343112335299E-01 -0.9016722023134E-01  0.0000000000000E+00  0.2342640488067E-01
 0.4082923862190E-01 -0.4255325395088E-01  0.0000000000000E+00 -0.2010730589354E-02
 0.1560549288714E-01 -0.1509017417386E-01  0.0000000000000E+00 -0.2195222131073E-01
-0.8578722845218E-03  0.2451865730678E-02  0.0000000000000E+00 -0.3096363399728E-01
-0.1211216496243E-01  0.1430011036682E-01  0.0000000000000E+00 -0.3106196674329E-01
-0.1987955654751E-01  0.2239590840825E-01  0.0000000000000E+00 -0.2510714068909E-01
-0.2495596746981E-01  0.2762992165222E-01  0.0000000000000E+00 -0.1492377936276E-01
-0.2771698670524E-01  0.3040856455599E-01  0.0000000000000E+00 -0.1626280633316E-02
-0.2854764096720E-01  0.3119377819111E-01  0.0000000000000E+00  0.1328043751134E-01
-0.2707271078672E-01  0.2968896105487E-01  0.0000000000000E+00  0.2959879684971E-01
-0.2281023124636E-01  0.2542369337515E-01  0.0000000000000E+00  0.4528866133689E-01
-0.1623869564105E-01  0.1896546699621E-01  0.0000000000000E+00  0.5769576195473E-01
-0.8228849355354E-02  0.1121771148305E-01  0.0000000000000E+00  0.6655648455706E-01
 0.2392687918125E-03  0.3083527188660E-02  0.0000000000000E+00  0.7221934400418E-01
 0.8725381082261E-02 -0.5067003800439E-02  0.0000000000000E+00  0.7528870769799E-01
 0.1697001691900E-01 -0.1297404739265E-01  0.0000000000000E+00  0.7628595023364E-01
 0.2452295934233E-01 -0.2019326285501E-01  0.0000000000000E+00  0.7659847320945E-01
 0.2764477959079E+00 -0.3329789814602E+00  0.0000000000000E+00 -0.6060998702844E+00
 0.2766370078122E+00 -0.3187058279510E+00  0.0000000000000E+00 -0.2909729644359E+00
 0.2003775003672E+00 -0.2262616212344E+00  0.0000000000000E+00 -0.9408529813403E-01
 0.1258661000374E+00 -0.1389827292598E+00  0.0000000000000E+00 -0.1872024124401E-01
 0.7430108119252E-01 -0.8024307340619E-01  0.0000000000000E+00 -0.9962885451630E-02
 0.4133877983586E-01 -0.4398184889306E-01  0.0000000000000E+00 -0.1886890944502E-01
 0.1956315843013E-01 -0.2051663106254E-01  0.0000000000000E+00 -0.2595104162341E-01
 0.4594143024822E-02 -0.4609616635823E-02  0.0000000000000E+00 -0.2722330288517E-01
-0.5938807488013E-02  0.6488243983796E-02  0.0000000000000E+00 -0.2316017855562E-01
-0.1331280400714E-01  0.1420860594804E-01  0.0000000000000E+00 -0.1491874847214E-01
-0.1816739549593E-01  0.1925907420673E-01  0.0000000000000E+00 -0.3513344673796E-02
-0.2100821547237E-01  0.2224497169171E-01  0.0000000000000E+00  0.9676632118058E-02
-0.2151279070139E-01  0.2289315309776E-01  0.0000000000000E+00  0.2399598291689E-01
-0.1907396243852E-01  0.2056053397758E-01  0.0000000000000E+00  0.3745353596516E-01
-0.1417553912971E-01  0.1578373001417E-01  0.0000000000000E+00  0.4762064422452E-01
-0.7696759382411E-02  0.9507555698197E-02  0.0000000000000E+00  0.5435521641916E-01
-0.5793378856058E-03  0.2650096462403E-02  0.0000000000000E+00  0.5822636841093E-01
 0.6610454144019E-02 -0.4244265128992E-02  0.0000000000000E+00  0.6001582281989E-01
 0.1342011661769E-01 -0.1072921892070E-01  0.0000000000000E+00  0.6015190451386E-01
 0.1924883547504E-01 -0.1622935495343E-01  0.0000000000000E+00  0.5923581627584E-01
 0.2543977312688E+00 -0.3045342046892E+00  0.0000000000000E+00 -0.6306864581807E+00
 0.2690940666777E+00 -0.3093163565451E+00  0.0000000000000E+00 -0.3851981325979E+00
 0.2200386071273E+00 -0.2483741953968E+00  0.0000000000000E+00 -0.1880716189174E+00
 0.1577914475756E+00 -0.1754109913181E+00  0.0000000000000E+00 -0.7961048526591E-01
 0.1057791828506E+00 -0.1160468354503E+00  0.0000000000000E+00 -0.3901983044376E-01
 0.6808819484807E-01 -0.7409716985366E-01  0.0000000000000E+00 -0.2979787808581E-01
 0.4166762445942E-01 -0.4536176126928E-01  0.0000000000000E+00 -0.2964321015370E-01
 0.2299028384723E-01 -0.2534584921298E-01  0.0000000000000E+00 -0.2907227579280E-01
 0.9522807121609E-02 -0.1104554859933E-01  0.0000000000000E+00 -0.2539868922390E-01
-0.3037250898670E-03 -0.6673864477831E-03  0.0000000000000E+00 -0.1843290860238E-01
-0.7339985879358E-02  0.6745215563752E-02  0.0000000000000E+00 -0.8694689734729E-02
-0.1220438472092E-01  0.1192639180427E-01  0.0000000000000E+00  0.2820447196120E-02
-0.1467176492773E-01  0.1468384294255E-01  0.0000000000000E+00  0.1524394426550E-01
-0.1408502070969E-01  0.1430031239760E-01  0.0000000000000E+00  0.2663196771023E-01
-0.1092225834630E-01  0.1128631433275E-01  0.0000000000000E+00  0.3480338109328E-01
-0.6096976380688E-02  0.6636014889939E-02  0.0000000000000E+00  0.3968541617554E-01
-0.5276910184615E-03  0.1282201276732E-02  0.0000000000000E+00  0.4195944211289E-01
 0.5157023797971E-02 -0.4141622308963E-02  0.0000000000000E+00  0.4247307434684E-01
 0.1043337667502E-01 -0.9116408414874E-02  0.0000000000000E+00  0.4158521186659E-01
 0.1467422684157E-01 -0.1304922883766E-01  0.0000000000000E+00  0.3939148264761E-01
 0.2350939287360E+00 -0.2812186698095E+00  0.0000000000000E+00 -0.6459105540082E+00
 0.2564377823958E+00 -0.2953475803119E+00  0.0000000000000E+00 -0.4530633545965E+00
 0.2275122211457E+00 -0.2572614811949E+00  0.0000000000000E+00 -0.2688248848714E+00
 0.1791467057262E+00 -0.2000227116058E+00  0.0000000000000E+00 -0.1451491874944E+00
 0.1318346581743E+00 -0.1458390885477E+00  0.0000000000000E+00 -0.8139098747977E-01
 0.9332383383988E-01 -0.1027203430926E+00  0.0000000000000E+00 -0.5379502718750E-01
 0.6408597042882E-01 -0.7064139159607E-01  0.0000000000000E+00 -0.4300387088884E-01
 0.4237050451748E-01 -0.4719051465279E-01  0.0000000000000E+00 -0.3771927691023E-01
 0.2617003105485E-01 -0.2986983771308E-01  0.0000000000000E+00 -0.3263381766742E-01
 0.1393269285918E-01 -0.1686376048351E-01  0.0000000000000E+00 -0.2595020449574E-01
 0.4722328865082E-02 -0.7096535434724E-02  0.0000000000000E+00 -0.1736959844654E-01
-0.2153510566304E-02  0.2563439421659E-03  0.0000000000000E+00 -0.7278199738200E-02
-0.6578071648181E-02  0.5100578065920E-02  0.0000000000000E+00  0.3423726731971E-02
-0.7882163963139E-02  0.6697678957820E-02  0.0000000000000E+00  0.1288221763196E-01
-0.6518619754631E-02  0.5521620674143E-02  0.0000000000000E+00  0.1921864151260E-01
-0.3437895255781E-02  0.2611432965017E-02  0.0000000000000E+00  0.2242558057163E-01
 0.4601550856189E-03 -0.1095891438035E-02  0.0000000000000E+00  0.2323502033686E-01
 0.4523550894545E-02 -0.4924744344106E-02  0.0000000000000E+00  0.2251187739181E-01
 0.8221287234520E-02 -0.8346066264449E-02  0.0000000000000E+00  0.2057339759425E-01
 0.1096850485306E-01 -0.1080764721328E-01  0.0000000000000E+00  0.1722004219876E-01
 0.2185445467603E+00 -0.2620911560768E+00  0.0000000000000E+00 -0.6558976325963E+00
 0.2421042911313E+00 -0.2801558169321E+00  0.0000000000000E+00 -0.5022133292911E+00
 0.2274710135240E+00 -0.2582117605331E+00  0.0000000000000E+00 -0.3356615290495E+00
 0.1919368509486E+00 -0.2152705198841E+00  0.0000000000000E+00 -0.2081557642345E+00
 0.1516788552455E+00 -0.1688304067949E+00  0.0000000000000E+00 -0.1298563933438E+00
 0.1153089195481E+00 -0.1278745334509E+00  0.0000000000000E+00 -0.8713234420511E-01
 0.8540641360076E-01 -0.9483957326527E-01  0.0000000000000E+00 -0.6518679228126E-01
 0.6184407923550E-01 -0.6920884568155E-01  0.0000000000000E+00 -0.5340659925270E-01
 0.4349067628543E-01 -0.4945976842601E-01  0.0000000000000E+00 -0.4531870346618E-01
 0.2912162080098E-01 -0.3410360345623E-01  0.0000000000000E+00 -0.3782091392947E-01
 0.1787840511138E-01 -0.2212520221657E-01  0.0000000000000E+00 -0.2971934010856E-01
 0.9070753280695E-02 -0.1268885128271E-01  0.0000000000000E+00 -0.2066185329507E-01
 0.2727376970544E-02 -0.5807339601447E-02  0.0000000000000E+00 -0.1144129525645E-01
-0.4827373853153E-03 -0.2219247734236E-02  0.0000000000000E+00 -0.3761027225163E-02
-0.9611922015620E-03 -0.1506364487624E-02  0.0000000000000E+00  0.8699591940939E-03
 0.3192407706853E-03 -0.2604569911140E-02  0.0000000000000E+00  0.2533727721761E-02
 0.2479050871621E-02 -0.4582888338351E-02  0.0000000000000E+00  0.1991497488681E-02
 0.4862450399420E-02 -0.6749104761086E-02  0.0000000000000E+00  0.1047064204425E-03
 0.6963107822680E-02 -0.8594081127300E-02  0.0000000000000E+00 -0.2820425222045E-02
 0.8275920082034E-02 -0.9640228135321E-02  0.0000000000000E+00 -0.7126417531803E-02
 0.2044055954479E+00 -0.2463058337250E+00  0.0000000000000E+00 -0.6628102242052E+00
 0.2277478125973E+00 -0.2653061684786E+00  0.0000000000000E+00 -0.5378930817964E+00
 0.2229885858050E+00 -0.2545539752178E+00  0.0000000000000E+00 -0.3898402584283E+00
 0.1983606941465E+00 -0.2236685508122E+00  0.0000000000000E+00 -0.2652951181034E+00
 0.1658058945835E+00 -0.1856242125622E+00  0.0000000000000E+00 -0.1794197474735E+00
 0.1333843050525E+00 -0.1488362406103E+00  0.0000000000000E+00 -0.1258150454447E+00
 0.1046369281878E+00 -0.1168593545848E+00  0.0000000000000E+00 -0.9408636298759E-01
 0.8056872345672E-01 -0.9050035439721E-01  0.0000000000000E+00 -0.7541893416436E-01
 0.6090194939689E-01 -0.6920503260018E-01  0.0000000000000E+00 -0.6336208114049E-01
 0.4489603571791E-01 -0.5200900223325E-01  0.0000000000000E+00 -0.5413181177048E-01
 0.3191020971200E-01 -0.3811763870223E-01  0.0000000000000E+00 -0.4581779697495E-01
 0.2134442630716E-01 -0.2678026097788E-01  0.0000000000000E+00 -0.3734573163436E-01
 0.1318259137745E-01 -0.1797047372971E-01  0.0000000000000E+00 -0.2932149837510E-01
 0.8099126719431E-02 -0.1242766731247E-01  0.0000000000000E+00 -0.2324398960592E-01
 0.5774266329836E-02 -0.9815621286214E-02  0.0000000000000E+00 -0.2018982973520E-01
 0.5237807988317E-02 -0.9073175260947E-02  0.0000000000000E+00 -0.1994926593857E-01
 0.5636362847500E-02 -0.9286653893744E-02  0.0000000000000E+00 -0.2173058178759E-01
 0.6319230526977E-02 -0.9759774500364E-02  0.0000000000000E+00 -0.2467973430323E-01
 0.6817965107095E-02 -0.1001591241749E-01  0.0000000000000E+00 -0.2847194275623E-01
 0.6725916652337E-02 -0.9669345277264E-02  0.0000000000000E+00 -0.3347387683928E-01
 0.1922671123841E+00 -0.2331644908572E+00  0.0000000000000E+00 -0.6678164229981E+00
 0.2141587846504E+00 -0.2515144780166E+00  0.0000000000000E+00 -0.5637613899215E+00
 0.2160546594707E+00 -0.2483950155782E+00  0.0000000000000E+00 -0.4331186832446E+00
 0.2002977348090E+00 -0.2272874826021E+00  0.0000000000000E+00 -0.3153077098074E+00
 0.1751839883954E+00 -0.1973129499461E+00  0.0000000000000E+00 -0.2269784006963E+00
 0.1476043656785E+00 -0.1656697953994E+00  0.0000000000000E+00 -0.1665576025542E+00
 0.1213079925419E+00 -0.1361803594573E+00  0.0000000000000E+00 -0.1272826106353E+00
 0.9793848370657E-01 -0.1104045062585E+00  0.0000000000000E+00 -0.1023889487418E+00
 0.7787617108875E-01 -0.8854350467518E-01  0.0000000000000E+00 -0.8613811401503E-01
 0.6086711739808E-01 -0.7017226381570E-01  0.0000000000000E+00 -0.7463273209031E-01
 0.4655717864889E-01 -0.5480276239789E-01  0.0000000000000E+00 -0.6555517919150E-01
 0.3450628854948E-01 -0.4184902061069E-01  0.0000000000000E+00 -0.5725233592193E-01
 0.2470305317257E-01 -0.3129639003856E-01  0.0000000000000E+00 -0.5013128501994E-01
 0.1784201651791E-01 -0.2389815601286E-01  0.0000000000000E+00 -0.4545994231093E-01
 0.1371662517417E-01 -0.1942875070695E-01  0.0000000000000E+00 -0.4384094920788E-01
 0.1138930330135E-01 -0.1686219293031E-01  0.0000000000000E+00 -0.4489840892652E-01
 0.1004142111488E-01 -0.1531434487369E-01  0.0000000000000E+00 -0.4779797422028E-01
 0.9031141129870E-02 -0.1409135603231E-01  0.0000000000000E+00 -0.5168841501187E-01
 0.7930173231246E-02 -0.1275139535121E-01  0.0000000000000E+00 -0.5619722314528E-01
 0.6435303594638E-02 -0.1100531585222E-01  0.0000000000000E+00 -0.6161604656254E-01
 0.1817473604493E+00 -0.2221076812151E+00  0.0000000000000E+00 -0.6715525124744E+00
 0.2016823871038E+00 -0.2390706309532E+00  0.0000000000000E+00 -0.5824011050674E+00
 0.2079519769240E+00 -0.2410725267975E+00  0.0000000000000E+00 -0.4672468518097E+00
 0.1992239779629E+00 -0.2277198706220E+00  0.0000000000000E+00 -0.3580041421788E+00
 0.1808616520122E+00 -0.2050461376245E+00  0.0000000000000E+00 -0.2707671615070E+00
 0.1584007265281E+00 -0.1788469479479E+00  0.0000000000000E+00 -0.2069554986110E+00
 0.1353574569569E+00 -0.1527269624811E+00  0.0000000000000E+00 -0.1625660353814E+00
 0.1136313681324E+00 -0.1285647420110E+00  0.0000000000000E+00 -0.1327126088375E+00
 0.9402741290734E-01 -0.1070567630022E+00  0.0000000000000E+00 -0.1126526106352E+00
 0.7669224000233E-01 -0.8822811411628E-01  0.0000000000000E+00 -0.9875956133324E-01
 0.6155802179075E-01 -0.7190443711132E-01  0.0000000000000E+00 -0.8860614809440E-01
 0.4837831774099E-01 -0.5770655686060E-01  0.0000000000000E+00 -0.8016771393708E-01
 0.3718685332753E-01 -0.4567399617281E-01  0.0000000000000E+00 -0.7369246195588E-01
 0.2871244750086E-01 -0.3658879153558E-01  0.0000000000000E+00 -0.7022430598174E-01
 0.2288857275079E-01 -0.3036154245542E-01  0.0000000000000E+00 -0.6988388194692E-01
 0.1884115932279E-01 -0.2603388273350E-01  0.0000000000000E+00 -0.7210212808098E-01
 0.1579673288606E-01 -0.2276424413938E-01  0.0000000000000E+00 -0.7598857771489E-01
 0.1312405438247E-01 -0.1986523359841E-01  0.0000000000000E+00 -0.8068767647793E-01
 0.1042987310856E-01 -0.1692519466768E-01  0.0000000000000E+00 -0.8575195342860E-01
 0.7507536053232E-02 -0.1374497126286E-01  0.0000000000000E+00 -0.9130959042454E-01
 0.1725174906466E+00 -0.2126912718091E+00  0.0000000000000E+00 -0.6743567486692E+00
 0.1904282930053E+00 -0.2280438054305E+00  0.0000000000000E+00 -0.5956526878043E+00
 0.1995006384279E+00 -0.2334333366764E+00  0.0000000000000E+00 -0.4937906140938E+00
 0.1962545748172E+00 -0.2261524851803E+00  0.0000000000000E+00 -0.3937265056474E+00
 0.1838019752434E+00 -0.2098623547981E+00  0.0000000000000E+00 -0.3098954421149E+00
 0.1663596328502E+00 -0.1889993611404E+00  0.0000000000000E+00 -0.2453755723439E+00
 0.1469833481088E+00 -0.1667051887285E+00  0.0000000000000E+00 -0.1981355606927E+00
 0.1275678102477E+00 -0.1448851761075E+00  0.0000000000000E+00 -0.1648326525166E+00
 0.1091363739621E+00 -0.1245014096204E+00  0.0000000000000E+00 -0.1417476754723E+00
 0.9211819796400E-01 -0.1059014282903E+00  0.0000000000000E+00 -0.1257255809886E+00
 0.7668683602130E-01 -0.8917982695217E-01  0.0000000000000E+00 -0.1144487885251E+00
 0.6278820442661E-01 -0.7416762980394E-01  0.0000000000000E+00 -0.1057277315874E+00
 0.5052415004725E-01 -0.6098268232633E-01  0.0000000000000E+00 -0.9971431545994E-01
 0.4066441251994E-01 -0.5044411187982E-01  0.0000000000000E+00 -0.9725996094879E-01
 0.3329954415745E-01 -0.4261547629385E-01  0.0000000000000E+00 -0.9803214799043E-01
 0.2764693380301E-01 -0.3663515808002E-01  0.0000000000000E+00 -0.1012610845664E+00
 0.2298933264561E-01 -0.3171737538980E-01  0.0000000000000E+00 -0.1059928638322E+00
 0.1870724244873E-01 -0.2718451710905E-01  0.0000000000000E+00 -0.1113637718851E+00
 0.1443111106816E-01 -0.2264466106124E-01  0.0000000000000E+00 -0.1168299399039E+00
 0.1003097114236E-01 -0.1796952961752E-01  0.0000000000000E+00 -0.1222736575608E+00
 0.1643037372665E+00 -0.2045634044988E+00  0.0000000000000E+00 -0.6763953323601E+00
 0.1803808528708E+00 -0.2183883880373E+00  0.0000000000000E+00 -0.6048342169656E+00
 0.1912150555143E+00 -0.2260051193930E+00  0.0000000000000E+00 -0.5140856947250E+00
 0.1922125312589E+00 -0.2234534105849E+00  0.0000000000000E+00 -0.4230580280419E+00
 0.1848256000598E+00 -0.2126367106823E+00  0.0000000000000E+00 -0.3440231675726E+00
 0.1720946854915E+00 -0.1967819076833E+00  0.0000000000000E+00 -0.2807810954651E+00
 0.1565234853096E+00 -0.1784702394541E+00  0.0000000000000E+00 -0.2326228116491E+00
 0.1398417445800E+00 -0.1594563433781E+00  0.0000000000000E+00 -0.1973839020214E+00
 0.1231333838326E+00 -0.1407928122330E+00  0.0000000000000E+00 -0.1722599172408E+00
 0.1069944119380E+00 -0.1230235311718E+00  0.0000000000000E+00 -0.1546306644910E+00
 0.9177492052699E-01 -0.1064435186764E+00  0.0000000000000E+00 -0.1424171123962E+00
 0.7758757293668E-01 -0.9106966508807E-01  0.0000000000000E+00 -0.1334328842965E+00
 0.6460741292544E-01 -0.7710278165667E-01  0.0000000000000E+00 -0.1277924764776E+00
 0.5364133067901E-01 -0.6539688151038E-01  0.0000000000000E+00 -0.1261945148968E+00
 0.4494099263295E-01 -0.5617280982771E-01  0.0000000000000E+00 -0.1279127957214E+00
 0.3783761657369E-01 -0.4868889888431E-01  0.0000000000000E+00 -0.1319912911146E+00
 0.3168136727129E-01 -0.4222821918503E-01  0.0000000000000E+00 -0.1374167743095E+00
 0.2586606434366E-01 -0.3612674346152E-01  0.0000000000000E+00 -0.1433229896227E+00
 0.2002832547942E-01 -0.2999609571787E-01  0.0000000000000E+00 -0.1490613335468E+00
 0.1407757978170E-01 -0.2374301760976E-01  0.0000000000000E+00 -0.1541918122122E+00
 0.1568821701183E+00 -0.1974452078837E+00  0.0000000000000E+00 -0.6777329553300E+00
 0.1714594084146E+00 -0.2100009370085E+00  0.0000000000000E+00 -0.6108899509392E+00
 0.1834053499677E+00 -0.2191045063049E+00  0.0000000000000E+00 -0.5292416027644E+00
 0.1876930565224E+00 -0.2202469627878E+00  0.0000000000000E+00 -0.4466667904503E+00
 0.1846019434429E+00 -0.2140775450928E+00  0.0000000000000E+00 -0.3731456714420E+00
 0.1761807464416E+00 -0.2028036911859E+00  0.0000000000000E+00 -0.3125694737146E+00
 0.1643720573362E+00 -0.1884362033326E+00  0.0000000000000E+00 -0.2650427840068E+00
 0.1506545569973E+00 -0.1724837555053E+00  0.0000000000000E+00 -0.2292442369634E+00
 0.1360635173276E+00 -0.1559685671652E+00  0.0000000000000E+00 -0.2031173025375E+00
 0.1212646346403E+00 -0.1395248058424E+00  0.0000000000000E+00 -0.1845531224588E+00
 0.1067171837694E+00 -0.1235755456810E+00  0.0000000000000E+00 -0.1717636547483E+00
 0.9266239390587E-01 -0.1082843720685E+00  0.0000000000000E+00 -0.1626816431548E+00
 0.7933944295936E-01 -0.9392416625476E-01  0.0000000000000E+00 -0.1574242495378E+00
 0.6757865732306E-01 -0.8137089049934E-01  0.0000000000000E+00 -0.1565700217746E+00
 0.5778309366456E-01 -0.7099334771966E-01  0.0000000000000E+00 -0.1590766700787E+00
 0.4941348468432E-01 -0.6218592287151E-01  0.0000000000000E+00 -0.1638350923372E+00
 0.4189942135897E-01 -0.5431414745210E-01  0.0000000000000E+00 -0.1697900798325E+00
 0.3465213146314E-01 -0.4673400567936E-01  0.0000000000000E+00 -0.1760938923152E+00
 0.2729136849110E-01 -0.3903947307328E-01  0.0000000000000E+00 -0.1820099071532E+00
 0.1970318007722E-01 -0.3111214331193E-01  0.0000000000000E+00 -0.1867137675558E+00
 0.1500716169894E+00 -0.1911154749326E+00  0.0000000000000E+00 -0.6783736908773E+00
 0.1635522203359E+00 -0.2027517498284E+00  0.0000000000000E+00 -0.6144927487666E+00
 0.1762439136718E+00 -0.2129067081802E+00  0.0000000000000E+00 -0.5401633271817E+00
 0.1831162302694E+00 -0.2169724267778E+00  0.0000000000000E+00 -0.4652219269905E+00
 0.1836599138240E+00 -0.2147415643717E+00  0.0000000000000E+00 -0.3974539581461E+00
 0.1791234114690E+00 -0.2075974609522E+00  0.0000000000000E+00 -0.3404424953763E+00
 0.1709267602343E+00 -0.1970196990541E+00  0.0000000000000E+00 -0.2947226716525E+00
 0.1602624833149E+00 -0.1842313493424E+00  0.0000000000000E+00 -0.2595331969880E+00
 0.1480489213502E+00 -0.1701484812936E+00  0.0000000000000E+00 -0.2333862003797E+00
 0.1349476735316E+00 -0.1554149918508E+00  0.0000000000000E+00 -0.2146133226690E+00
 0.1214671188660E+00 -0.1405170268276E+00  0.0000000000000E+00 -0.2017156005234E+00
 0.1079355451060E+00 -0.1257212113110E+00  0.0000000000000E+00 -0.1928104305233E+00
 0.9463798594300E-01 -0.1113515436678E+00  0.0000000000000E+00 -0.1880345324524E+00
 0.8240652103443E-01 -0.9828402639077E-01  0.0000000000000E+00 -0.1878631986766E+00
 0.7177307323919E-01 -0.8701314240838E-01  0.0000000000000E+00 -0.1910194723659E+00
 0.6233706233434E-01 -0.7707827312109E-01  0.0000000000000E+00 -0.1962836643588E+00
 0.5362264412709E-01 -0.6794383330870E-01  0.0000000000000E+00 -0.2025854189218E+00
 0.4506998879811E-01 -0.5899960959744E-01  0.0000000000000E+00 -0.2091354372738E+00
 0.3625785824596E-01 -0.4980037116902E-01  0.0000000000000E+00 -0.2151686298019E+00
 0.2694968296850E-01 -0.4010783528170E-01  0.0000000000000E+00 -0.2194530737469E+00
 0.1437267458072E+00 -0.1853986947703E+00  0.0000000000000E+00 -0.6782854125582E+00
 0.1565358996473E+00 -0.1965026805000E+00  0.0000000000000E+00 -0.6161162383719E+00
 0.1698099111411E+00 -0.2074914249495E+00  0.0000000000000E+00 -0.5475777178391E+00
 0.1787680814241E+00 -0.2139286012002E+00  0.0000000000000E+00 -0.4793494799668E+00
 0.1824050355384E+00 -0.2150541489146E+00  0.0000000000000E+00 -0.4172442184263E+00
 0.1813479119875E+00 -0.2116093989832E+00  0.0000000000000E+00 -0.3643085876687E+00
 0.1765574777295E+00 -0.2046070363530E+00  0.0000000000000E+00 -0.3212315460930E+00
 0.1689384576438E+00 -0.1949807840296E+00  0.0000000000000E+00 -0.2875859637323E+00
 0.1592554853319E+00 -0.1834991189839E+00  0.0000000000000E+00 -0.2622853101797E+00
 0.1481147717821E+00 -0.1707595471407E+00  0.0000000000000E+00 -0.2440108930845E+00
 0.1360252567394E+00 -0.1572585635224E+00  0.0000000000000E+00 -0.2315173578142E+00
 0.1233634207689E+00 -0.1433244593972E+00  0.0000000000000E+00 -0.2231310667015E+00
 0.1104372879935E+00 -0.1293065063812E+00  0.0000000000000E+00 -0.2190048781529E+00
 0.9805297763209E-01 -0.1160521064492E+00  0.0000000000000E+00 -0.2195112794990E+00
 0.8683702542003E-01 -0.1041468647198E+00  0.0000000000000E+00 -0.2232117756261E+00
 0.7652971324672E-01 -0.9327666046060E-01  0.0000000000000E+00 -0.2288141727935E+00
 0.6677122575808E-01 -0.8302628671582E-01  0.0000000000000E+00 -0.2352553821897E+00
 0.5705900832560E-01 -0.7285025174626E-01  0.0000000000000E+00 -0.2418589009883E+00
 0.4691946409765E-01 -0.6225553747243E-01  0.0000000000000E+00 -0.2479548246838E+00
 0.3584874971229E-01 -0.5074744914959E-01  0.0000000000000E+00 -0.2519754829726E+00
 0.1377319462139E+00 -0.1801557441939E+00  0.0000000000000E+00 -0.6774147830900E+00
 0.1502865812961E+00 -0.1911172097145E+00  0.0000000000000E+00 -0.6160866917082E+00
 0.1641196009984E+00 -0.2028738146306E+00  0.0000000000000E+00 -0.5520594457549E+00
 0.1748321598922E+00 -0.2113073399072E+00  0.0000000000000E+00 -0.4896102803995E+00
 0.1811374477093E+00 -0.2153295221164E+00  0.0000000000000E+00 -0.4328590311186E+00
 0.1831981783499E+00 -0.2151992306379E+00  0.0000000000000E+00 -0.3842110103676E+00
 0.1815890525691E+00 -0.2115364931262E+00  0.0000000000000E+00 -0.3443192028019E+00
 0.1769460369119E+00 -0.2050038558059E+00  0.0000000000000E+00 -0.3129185790961E+00
 0.1698661291926E+00 -0.1962054533648E+00  0.0000000000000E+00 -0.2891802901409E+00
 0.1608679936729E+00 -0.1856569074023E+00  0.0000000000000E+00 -0.2720418656797E+00
 0.1504249414524E+00 -0.1738255628927E+00  0.0000000000000E+00 -0.2604588406429E+00
 0.1389286965355E+00 -0.1610659926659E+00  0.0000000000000E+00 -0.2529607352654E+00
 0.1266869232096E+00 -0.1477266182020E+00  0.0000000000000E+00 -0.2496989175159E+00
 0.1144487708293E+00 -0.1345937507148E+00  0.0000000000000E+00 -0.2509342928960E+00
 0.1028884163906E+00 -0.1222973666091E+00  0.0000000000000E+00 -0.2551304596701E+00
 0.9187819486515E-01 -0.1106579261469E+00  0.0000000000000E+00 -0.2609393712624E+00
 0.8120082336874E-01 -0.9940739483915E-01  0.0000000000000E+00 -0.2672980674315E+00
 0.7047059382296E-01 -0.8812354001056E-01  0.0000000000000E+00 -0.2736795828896E+00
 0.5919581722778E-01 -0.7630622075684E-01  0.0000000000000E+00 -0.2797132552709E+00
 0.4642387005032E-01 -0.6303351514196E-01  0.0000000000000E+00 -0.2837719547873E+00
 0.1319961171138E+00 -0.1752765786812E+00  0.0000000000000E+00 -0.6756966426301E+00
 0.1446862373721E+00 -0.1864660619489E+00  0.0000000000000E+00 -0.6146211789300E+00
 0.1591472457204E+00 -0.1990256296161E+00  0.0000000000000E+00 -0.5540548671240E+00
 0.1714137245459E+00 -0.2092189110449E+00  0.0000000000000E+00 -0.4964901564884E+00
 0.1800686711299E+00 -0.2157889287448E+00  0.0000000000000E+00 -0.4446488899278E+00
 0.1849410100701E+00 -0.2186453598204E+00  0.0000000000000E+00 -0.4002755354646E+00
 0.1862929274583E+00 -0.2180899304419E+00  0.0000000000000E+00 -0.3638660433261E+00
 0.1845223777576E+00 -0.2145446479003E+00  0.0000000000000E+00 -0.3351924890100E+00
 0.1800606307137E+00 -0.2084495276580E+00  0.0000000000000E+00 -0.3135684597733E+00
 0.1733216465563E+00 -0.2002189202812E+00  0.0000000000000E+00 -0.2981022792756E+00
 0.1647180404032E+00 -0.1902633714874E+00  0.0000000000000E+00 -0.2878920079834E+00
 0.1546307149642E+00 -0.1789354927545E+00  0.0000000000000E+00 -0.2816439650633E+00
 0.1433474181578E+00 -0.1665608722944E+00  0.0000000000000E+00 -0.2794805732109E+00
 0.1315303807955E+00 -0.1538335292523E+00  0.0000000000000E+00 -0.2815444177044E+00
 0.1198458553399E+00 -0.1413720908266E+00  0.0000000000000E+00 -0.2862669892370E+00
 0.1082613306221E+00 -0.1290958541418E+00  0.0000000000000E+00 -0.2922554687885E+00
 0.9671900146362E-01 -0.1168874610412E+00  0.0000000000000E+00 -0.2983534442594E+00
 0.8504787539915E-01 -0.1045531400202E+00  0.0000000000000E+00 -0.3041339640088E+00
 0.7288517566947E-01 -0.9172560926119E-01  0.0000000000000E+00 -0.3097539239863E+00
 0.5868392987764E-01 -0.7694138562315E-01  0.0000000000000E+00 -0.3142067074752E+00
 0.1264484189643E+00 -0.1706749531830E+00  0.0000000000000E+00 -0.6730608015879E+00
 0.1396259758688E+00 -0.1824297399708E+00  0.0000000000000E+00 -0.6118568323034E+00
 0.1548394428076E+00 -0.1958898497433E+00  0.0000000000000E+00 -0.5539033369210E+00
 0.1685582100294E+00 -0.2077108897365E+00  0.0000000000000E+00 -0.5003969329508E+00
 0.1793366398624E+00 -0.2165767817275E+00  0.0000000000000E+00 -0.4529462745475E+00
 0.1867729294332E+00 -0.2221524644821E+00  0.0000000000000E+00 -0.4126725961204E+00
 0.1908842686820E+00 -0.2244901336085E+00  0.0000000000000E+00 -0.3798435907706E+00
 0.1918675022229E+00 -0.2238083044529E+00  0.0000000000000E+00 -0.3541822050522E+00
 0.1900008631138E+00 -0.2203949039728E+00  0.0000000000000E+00 -0.3350590247136E+00
 0.1855873887567E+00 -0.2145551428411E+00  0.0000000000000E+00 -0.3216829479332E+00
 0.1789624477569E+00 -0.2066242674465E+00  0.0000000000000E+00 -0.3132387271912E+00
 0.1704752208853E+00 -0.1969300308617E+00  0.0000000000000E+00 -0.3085698666978E+00
 0.1603809541292E+00 -0.1857603831278E+00  0.0000000000000E+00 -0.3077293606843E+00
 0.1492353511836E+00 -0.1736962468512E+00  0.0000000000000E+00 -0.3107420678428E+00
 0.1376404835151E+00 -0.1612907787433E+00  0.0000000000000E+00 -0.3160926997579E+00
 0.1256089892076E+00 -0.1485097521071E+00  0.0000000000000E+00 -0.3223911850692E+00
 0.1131602850988E+00 -0.1353197196753E+00  0.0000000000000E+00 -0.3283218277557E+00
 0.1004391509359E+00 -0.1217778908490E+00  0.0000000000000E+00 -0.3331072004092E+00
 0.8758257659323E-01 -0.1080877028300E+00  0.0000000000000E+00 -0.3375109680420E+00
 0.7258169829477E-01 -0.9235473985232E-01  0.0000000000000E+00 -0.3424576204280E+00
 0.1210353018298E+00 -0.1662838419550E+00  0.0000000000000E+00 -0.6694339639154E+00
 0.1350080253531E+00 -0.1789019107447E+00  0.0000000000000E+00 -0.6078768230098E+00
 0.1511232506126E+00 -0.1933867253615E+00  0.0000000000000E+00 -0.5518579588566E+00
 0.1662649589569E+00 -0.2067832357014E+00  0.0000000000000E+00 -0.5016564574833E+00
 0.1790201619682E+00 -0.2177757181245E+00  0.0000000000000E+00 -0.4580483189453E+00
 0.1888285800298E+00 -0.2258605877144E+00  0.0000000000000E+00 -0.4215906620278E+00
 0.1955226401875E+00 -0.2309016680978E+00  0.0000000000000E+00 -0.3922848005061E+00
 0.1991375948491E+00 -0.2329542789964E+00  0.0000000000000E+00 -0.3697486833059E+00
 0.1998194289212E+00 -0.2321743633817E+00  0.0000000000000E+00 -0.3533518409693E+00
 0.1977627609584E+00 -0.2287607716445E+00  0.0000000000000E+00 -0.3423565391730E+00
 0.1932133083002E+00 -0.2229584072558E+00  0.0000000000000E+00 -0.3359913539734E+00
 0.1864667816925E+00 -0.2150464086926E+00  0.0000000000000E+00 -0.3331882647941E+00
 0.1777403178137E+00 -0.2052678859151E+00  0.0000000000000E+00 -0.3338664580849E+00
 0.1674818554413E+00 -0.1940869802983E+00  0.0000000000000E+00 -0.3379267836095E+00
 0.1561941698929E+00 -0.1819590169595E+00  0.0000000000000E+00 -0.3440106561516E+00
 0.1438868037061E+00 -0.1688550610088E+00  0.0000000000000E+00 -0.3508309252712E+00
 0.1305907592729E+00 -0.1547462602023E+00  0.0000000000000E+00 -0.3570296708114E+00
 0.1164025673738E+00 -0.1396953948140E+00  0.0000000000000E+00 -0.3613511917625E+00
 0.1025429635368E+00 -0.1245641229898E+00  0.0000000000000E+00 -0.3631240378598E+00
 0.8788509255291E-01 -0.1089144295869E+00  0.0000000000000E+00 -0.3673525540784E+00
 0.1157219170161E+00 -0.1620762372076E+00  0.0000000000000E+00 -0.6647874491907E+00
 0.1307365024854E+00 -0.1757643966419E+00  0.0000000000000E+00 -0.6027701776205E+00
 0.1479031139360E+00 -0.1914158340444E+00  0.0000000000000E+00 -0.5480763870256E+00
 0.1645030176727E+00 -0.2064037910251E+00  0.0000000000000E+00 -0.5005070488922E+00
 0.1791539255702E+00 -0.2194228871275E+00  0.0000000000000E+00 -0.4602068449732E+00
 0.1911903286476E+00 -0.2298548963734E+00  0.0000000000000E+00 -0.4272209182857E+00
 0.2003145026632E+00 -0.2374335839880E+00  0.0000000000000E+00 -0.4012631474587E+00
 0.2064417025782E+00 -0.2420929318517E+00  0.0000000000000E+00 -0.3818188757411E+00
 0.2096092458636E+00 -0.2438801059804E+00  0.0000000000000E+00 -0.3682227817359E+00
 0.2099180036588E+00 -0.2429002926613E+00  0.0000000000000E+00 -0.3597549910670E+00
 0.2075207357019E+00 -0.2393115571116E+00  0.0000000000000E+00 -0.3556914635129E+00
 0.2026125079384E+00 -0.2332876739889E+00  0.0000000000000E+00 -0.3550284817340E+00
 0.1953645947035E+00 -0.2250121275783E+00  0.0000000000000E+00 -0.3574019214242E+00
 0.1861508100553E+00 -0.2148751465223E+00  0.0000000000000E+00 -0.3625624255137E+00
 0.1753589418904E+00 -0.2032129172960E+00  0.0000000000000E+00 -0.3694141493868E+00
 0.1629975687697E+00 -0.1900058473585E+00  0.0000000000000E+00 -0.3768580015491E+00
 0.1490582525411E+00 -0.1752085258276E+00  0.0000000000000E+00 -0.3836485491634E+00
 0.1335938054182E+00 -0.1588009268217E+00  0.0000000000000E+00 -0.3886258630127E+00
 0.1171858502825E+00 -0.1414038706647E+00  0.0000000000000E+00 -0.3902026537873E+00
 0.1034508749057E+00 -0.1245919524585E+00  0.0000000000000E+00 -0.3890142537826E+00
 0.8030711008135E-01 -0.1398785358181E+00  0.0000000000000E+00  0.2655975339550E+00
 0.1294827109394E+00 -0.1858946691963E+00  0.0000000000000E+00  0.1884131448440E+00
 0.1734976974995E+00 -0.2269898565707E+00  0.0000000000000E+00  0.1265241967148E+00
 0.2121957867417E+00 -0.2630662566484E+00  0.0000000000000E+00  0.7691544348319E-01
 0.2460703237412E+00 -0.2946113671466E+00  0.0000000000000E+00  0.3767636919917E-01
 0.2756640571129E+00 -0.3221725034333E+00  0.0000000000000E+00  0.7576335120790E-02
 0.3015195895941E+00 -0.3462935925747E+00  0.0000000000000E+00 -0.1436316659292E-01
 0.3241822831850E+00 -0.3675193836719E+00  0.0000000000000E+00 -0.2899496155784E-01
 0.3441678693990E+00 -0.3863639488719E+00  0.0000000000000E+00 -0.3710249895255E-01
 0.3619263132674E+00 -0.4032797251829E+00  0.0000000000000E+00 -0.3931864901695E-01
 0.3778782335209E+00 -0.4187000143410E+00  0.0000000000000E+00 -0.3617458387317E-01
 0.3924248479690E+00 -0.4330111414924E+00  0.0000000000000E+00 -0.2846958679848E-01
 0.4057872097960E+00 -0.4464869832485E+00  0.0000000000000E+00 -0.1610787026993E-01
 0.4185249506015E+00 -0.4597210869831E+00  0.0000000000000E+00  0.8441052887616E-03
 0.4311858780299E+00 -0.4732214120907E+00  0.0000000000000E+00  0.2145053010845E-01
 0.4437288243226E+00 -0.4869693453206E+00  0.0000000000000E+00  0.4500526543002E-01
 0.4560301814420E+00 -0.5008690966400E+00  0.0000000000000E+00  0.7080591971267E-01
 0.4679347993769E+00 -0.5147737454942E+00  0.0000000000000E+00  0.9805700792749E-01
 0.4796948039770E+00 -0.5290102195609E+00  0.0000000000000E+00  0.1247791683224E+00
 0.4950707257356E+00 -0.5453613237072E+00  0.0000000000000E+00  0.1505615490605E+00
 0.8565768096249E-01 -0.1439865698732E+00  0.0000000000000E+00  0.2888367362289E+00
 0.1335032448076E+00 -0.1885527877430E+00  0.0000000000000E+00  0.2095465737001E+00
 0.1760737629464E+00 -0.2281074163436E+00  0.0000000000000E+00  0.1454588198262E+00
 0.2130921473902E+00 -0.2623935210946E+00  0.0000000000000E+00  0.9379662749493E-01
 0.2450662163096E+00 -0.2919501025318E+00  0.0000000000000E+00  0.5284748103176E-01
 0.2726361210992E+00 -0.3174195180514E+00  0.0000000000000E+00  0.2166524965801E-01
 0.2964116681731E+00 -0.3394091524231E+00  0.0000000000000E+00 -0.5657500177862E-03
 0.3169901666246E+00 -0.3585149305569E+00  0.0000000000000E+00 -0.1466723021665E-01
 0.3349324585311E+00 -0.3752966437130E+00  0.0000000000000E+00 -0.2147401480747E-01
 0.3507172623964E+00 -0.3902358649591E+00  0.0000000000000E+00 -0.2168299689702E-01
 0.3648025400021E+00 -0.4037958416560E+00  0.0000000000000E+00 -0.1593413750534E-01
 0.3776392664620E+00 -0.4164270235787E+00  0.0000000000000E+00 -0.5154805251820E-02
 0.3894145098373E+00 -0.4283727956541E+00  0.0000000000000E+00  0.1090479476033E-01
 0.4008381835270E+00 -0.4403775488441E+00  0.0000000000000E+00  0.3168408858889E-01
 0.4126938656208E+00 -0.4531939113868E+00  0.0000000000000E+00  0.5549344118346E-01
 0.4249293208058E+00 -0.4667753705150E+00  0.0000000000000E+00  0.8136181273496E-01
 0.4374704647250E+00 -0.4810528118731E+00  0.0000000000000E+00  0.1083210908961E+00
 0.4503374117336E+00 -0.4960768723710E+00  0.0000000000000E+00  0.1351638341331E+00
 0.4647241245717E+00 -0.5127629060699E+00  0.0000000000000E+00  0.1606954476333E+00
 0.4797339201867E+00 -0.5310205724678E+00  0.0000000000000E+00  0.1886074460737E+00
 0.9111458714726E-01 -0.1481254974740E+00  0.0000000000000E+00  0.3107483886435E+00
 0.1375560258225E+00 -0.1912024806679E+00  0.0000000000000E+00  0.2291967131666E+00
 0.1785737067274E+00 -0.2290811249865E+00  0.0000000000000E+00  0.1626289672637E+00
 0.2136930020645E+00 -0.2613512528749E+00  0.0000000000000E+00  0.1085649690062E+00
 0.2434698967596E+00 -0.2886081459185E+00  0.0000000000000E+00  0.6569091934102E-01
 0.2686643050907E+00 -0.3116201182181E+00  0.0000000000000E+00  0.3333393341787E-01
 0.2899946729994E+00 -0.3311015611716E+00  0.0000000000000E+00  0.1079855322018E-01
 0.3081371725779E+00 -0.3477268720280E+00  0.0000000000000E+00 -0.2730311798539E-02
 0.3237067354106E+00 -0.3621083470754E+00  0.0000000000000E+00 -0.8166616286800E-02
 0.3372182185619E+00 -0.3747614432265E+00  0.0000000000000E+00 -0.6304354519339E-02
 0.3491595255739E+00 -0.3861824687355E+00  0.0000000000000E+00  0.2120340952525E-02
 0.3599944232543E+00 -0.3968263808819E+00  0.0000000000000E+00  0.1600392764989E-01
 0.3699136170929E+00 -0.4069548682006E+00  0.0000000000000E+00  0.3566522887272E-01
 0.3798543959935E+00 -0.4175520759098E+00  0.0000000000000E+00  0.6014991147703E-01
 0.3908633262630E+00 -0.4296280942779E+00  0.0000000000000E+00  0.8710373310166E-01
 0.4029220141499E+00 -0.4431642853122E+00  0.0000000000000E+00  0.1153547060627E+00
 0.4160090323861E+00 -0.4581490455686E+00  0.0000000000000E+00  0.1438741772856E+00
 0.4302981986753E+00 -0.4747485929147E+00  0.0000000000000E+00  0.1718458545103E+00
 0.4460484249137E+00 -0.4933892438031E+00  0.0000000000000E+00  0.1994176909713E+00
 0.4615275513831E+00 -0.5125986899558E+00  0.0000000000000E+00  0.2262991955320E+00
 0.9671219163081E-01 -0.1523702921222E+00  0.0000000000000E+00  0.3313604094802E+00
 0.1417015039830E+00 -0.1939008189058E+00  0.0000000000000E+00  0.2473810380400E+00
 0.1810357422145E+00 -0.2299640941280E+00  0.0000000000000E+00  0.1779108090471E+00
 0.2140073039423E+00 -0.2599514600088E+00  0.0000000000000E+00  0.1210342999631E+00
 0.2412568754597E+00 -0.2845644546806E+00  0.0000000000000E+00  0.7597063616915E-01
 0.2637149391294E+00 -0.3047448442762E+00  0.0000000000000E+00  0.4233746020628E-01
 0.2822431757290E+00 -0.3213503807457E+00  0.0000000000000E+00  0.1950323608230E-01
 0.2976193820680E+00 -0.3351565554030E+00  0.0000000000000E+00  0.6604811970790E-02
 0.3105212052525E+00 -0.3468355405388E+00  0.0000000000000E+00  0.2602220850231E-02
 0.3214955137316E+00 -0.3569329399225E+00  0.0000000000000E+00  0.6569320874236E-02
 0.3310515144951E+00 -0.3659649128556E+00  0.0000000000000E+00  0.1763945217409E-01
 0.3396509987517E+00 -0.3743768000764E+00  0.0000000000000E+00  0.3451322769179E-01
 0.3475042682321E+00 -0.3824632994856E+00  0.0000000000000E+00  0.5756779412086E-01
 0.3558177641433E+00 -0.3914910260759E+00  0.0000000000000E+00  0.8554295788791E-01
 0.3659196316775E+00 -0.4027537393552E+00  0.0000000000000E+00  0.1155855190688E+00
 0.3778180448989E+00 -0.4162613579614E+00  0.0000000000000E+00  0.1464621109234E+00
 0.3914908575411E+00 -0.4320015491723E+00  0.0000000000000E+00  0.1772585354785E+00
 0.4068642581056E+00 -0.4499717939937E+00  0.0000000000000E+00  0.2074593800388E+00
 0.4237831039670E+00 -0.4701359542556E+00  0.0000000000000E+00  0.2364193820471E+00
 0.4409706942792E+00 -0.4914666224566E+00  0.0000000000000E+00  0.2614421996451E+00
 0.1024803046066E+00 -0.1567665395277E+00  0.0000000000000E+00  0.3506566563652E+00
 0.1460098787690E+00 -0.1967333501861E+00  0.0000000000000E+00  0.2640188108469E+00
 0.1835072753913E+00 -0.2308098829140E+00  0.0000000000000E+00  0.1911254883347E+00
 0.2140383592098E+00 -0.2582032629418E+00  0.0000000000000E+00  0.1309571462644E+00
 0.2383947695755E+00 -0.2797895938678E+00  0.0000000000000E+00  0.8343564027548E-01
 0.2577413145486E+00 -0.2967499208064E+00  0.0000000000000E+00  0.4845518598448E-01
 0.2731219731596E+00 -0.3101239565076E+00  0.0000000000000E+00  0.2537157740926E-01
 0.2854342319023E+00 -0.3208061918268E+00  0.0000000000000E+00  0.1319572447102E-01
 0.2954202487148E+00 -0.3295294611752E+00  0.0000000000000E+00  0.1069552906907E-01
 0.3036495802097E+00 -0.3368581156157E+00  0.0000000000000E+00  0.1676027319332E-01
 0.3106405329231E+00 -0.3433144990790E+00  0.0000000000000E+00  0.3035956747941E-01
 0.3168334207010E+00 -0.3493127927504E+00  0.0000000000000E+00  0.4999280049232E-01
 0.3224661424717E+00 -0.3551873094052E+00  0.0000000000000E+00  0.7609160548895E-01
 0.3290275636513E+00 -0.3625024492857E+00  0.0000000000000E+00  0.1072143478058E+00
 0.3381085599349E+00 -0.3728237664341E+00  0.0000000000000E+00  0.1402028503858E+00
 0.3497276101990E+00 -0.3861748223871E+00  0.0000000000000E+00  0.1738595391742E+00
 0.3637928703899E+00 -0.4024912603767E+00  0.0000000000000E+00  0.2073356006888E+00
 0.3800746556673E+00 -0.4216165783033E+00  0.0000000000000E+00  0.2399373782386E+00
 0.3983851876682E+00 -0.4434982589652E+00  0.0000000000000E+00  0.2701684843276E+00
 0.4181324684419E+00 -0.4677651613534E+00  0.0000000000000E+00  0.2939238288299E+00
 0.1084546558149E+00 -0.1613671871094E+00  0.0000000000000E+00  0.3686323024752E+00
 0.1505530075549E+00 -0.1997846008511E+00  0.0000000000000E+00  0.2789761801743E+00
 0.1860289577984E+00 -0.2316674828680E+00  0.0000000000000E+00  0.2020174458739E+00
 0.2137713422886E+00 -0.2560957119284E+00  0.0000000000000E+00  0.1380350972408E+00
 0.2348263415261E+00 -0.2742284434637E+00  0.0000000000000E+00  0.8782180952472E-01
 0.2506743010160E+00 -0.2875675524043E+00  0.0000000000000E+00  0.5149751900880E-01
 0.2625818669961E+00 -0.2973752768276E+00  0.0000000000000E+00  0.2829287007474E-01
 0.2715787167079E+00 -0.3046769321175E+00  0.0000000000000E+00  0.1698889273868E-01
 0.2784651369594E+00 -0.3102578601487E+00  0.0000000000000E+00  0.1607508631281E-01
 0.2838162198690E+00 -0.3146819211681E+00  0.0000000000000E+00  0.2419537020278E-01
 0.2881393099537E+00 -0.3184551945259E+00  0.0000000000000E+00  0.4012301891253E-01
 0.2918279516004E+00 -0.3219334381553E+00  0.0000000000000E+00  0.6216200135743E-01
 0.2951478607867E+00 -0.3254883062478E+00  0.0000000000000E+00  0.9079482915224E-01
 0.2998586979267E+00 -0.3309722224556E+00  0.0000000000000E+00  0.1245350331088E+00
 0.3077737959898E+00 -0.3401870972946E+00  0.0000000000000E+00  0.1601278176817E+00
 0.3189148701733E+00 -0.3531667276729E+00  0.0000000000000E+00  0.1964701632648E+00
 0.3331618328545E+00 -0.3698253795484E+00  0.0000000000000E+00  0.2326900456775E+00
 0.3502491514973E+00 -0.3899805199552E+00  0.0000000000000E+00  0.2678311091956E+00
 0.3701585053924E+00 -0.4137607337171E+00  0.0000000000000E+00  0.2996882460897E+00
 0.3929777736673E+00 -0.4414833479056E+00  0.0000000000000E+00  0.3232790239804E+00
 0.1146826998758E+00 -0.1662379415465E+00  0.0000000000000E+00  0.3852866223758E+00
 0.1554062824366E+00 -0.2031431340245E+00  0.0000000000000E+00  0.2920627808502E+00
 0.1886240544197E+00 -0.2325674625395E+00  0.0000000000000E+00  0.2102553775656E+00
 0.2131578614104E+00 -0.2535831778703E+00  0.0000000000000E+00  0.1419198791863E+00
 0.2304561635107E+00 -0.2677855448639E+00  0.0000000000000E+00  0.8886516012258E-01
 0.2424127486714E+00 -0.2770958896653E+00  0.0000000000000E+00  0.5132430253291E-01
 0.2505555098752E+00 -0.2830375732126E+00  0.0000000000000E+00  0.2824480739660E-01
 0.2560496425403E+00 -0.2867689538631E+00  0.0000000000000E+00  0.1804247802719E-01
 0.2597359645936E+00 -0.2891077802403E+00  0.0000000000000E+00  0.1882454026535E-01
 0.2621674369056E+00 -0.2905868488227E+00  0.0000000000000E+00  0.2892427322640E-01
 0.2638117019483E+00 -0.2916643295772E+00  0.0000000000000E+00  0.4688974590397E-01
 0.2649848683728E+00 -0.2926045504939E+00  0.0000000000000E+00  0.7084894544068E-01
 0.2659759866710E+00 -0.2938086047130E+00  0.0000000000000E+00  0.1013266203992E+00
 0.2687869147870E+00 -0.2973894753394E+00  0.0000000000000E+00  0.1369331851006E+00
 0.2753981521919E+00 -0.3053346192844E+00  0.0000000000000E+00  0.1745458304965E+00
 0.2858489676062E+00 -0.3177014746968E+00  0.0000000000000E+00  0.2132263539264E+00
 0.3000495305715E+00 -0.3344442078442E+00  0.0000000000000E+00  0.2520883453157E+00
 0.3178005947379E+00 -0.3554573731588E+00  0.0000000000000E+00  0.2899427523800E+00
 0.3393648516374E+00 -0.3811730665785E+00  0.0000000000000E+00  0.3240597617577E+00
 0.3654819418035E+00 -0.4125872672309E+00  0.0000000000000E+00  0.3488239534829E+00
 0.1212281406771E+00 -0.1714635409118E+00  0.0000000000000E+00  0.4006189214141E+00
 0.1606473649901E+00 -0.2069003228562E+00  0.0000000000000E+00  0.3030163661953E+00
 0.1912872595065E+00 -0.2335109028038E+00  0.0000000000000E+00  0.2154239503855E+00
 0.2121002624560E+00 -0.2505685412265E+00  0.0000000000000E+00  0.1422203610291E+00
 0.2251369698003E+00 -0.2603107797586E+00  0.0000000000000E+00  0.8632135827164E-01
 0.2328155399477E+00 -0.2651903362218E+00  0.0000000000000E+00  0.4787261905918E-01
 0.2369555280374E+00 -0.2670221994080E+00  0.0000000000000E+00  0.2532271797319E-01
 0.2388461705787E+00 -0.2670842716790E+00  0.0000000000000E+00  0.1655231002881E-01
 0.2393356778647E+00 -0.2661898521787E+00  0.0000000000000E+00  0.1916874744952E-01
 0.2389146889277E+00 -0.2647965711419E+00  0.0000000000000E+00  0.3113217351394E-01
 0.2379741338140E+00 -0.2632741131681E+00  0.0000000000000E+00  0.5074716192860E-01
 0.2367191526339E+00 -0.2617594324195E+00  0.0000000000000E+00  0.7600382779494E-01
 0.2354568957919E+00 -0.2606735325422E+00  0.0000000000000E+00  0.1074579367720E+00
 0.2363906711835E+00 -0.2623500362474E+00  0.0000000000000E+00  0.1439617334070E+00
 0.2416006285347E+00 -0.2688974314143E+00  0.0000000000000E+00  0.1827752574332E+00
 0.2511558049911E+00 -0.2804099319741E+00  0.0000000000000E+00  0.2232272590828E+00
 0.2650477207052E+00 -0.2969353658463E+00  0.0000000000000E+00  0.2644797122902E+00
 0.2832230090814E+00 -0.3185305780993E+00  0.0000000000000E+00  0.3051987432375E+00
 0.3063001435153E+00 -0.3460149991973E+00  0.0000000000000E+00  0.3423016877270E+00
 0.3356814087780E+00 -0.3810928078055E+00  0.0000000000000E+00  0.3696703184528E+00
 0.1281751719099E+00 -0.1771535907974E+00  0.0000000000000E+00  0.4146209262565E+00
 0.1663522001515E+00 -0.2111469971216E+00  0.0000000000000E+00  0.3114778349856E+00
 0.1939694981425E+00 -0.2344538076958E+00  0.0000000000000E+00  0.2170111938250E+00
 0.2104332667808E+00 -0.2468839112068E+00  0.0000000000000E+00  0.1385131580378E+00
 0.2186558450416E+00 -0.2515843466807E+00  0.0000000000000E+00  0.7999509810354E-01
 0.2216959368242E+00 -0.2516571577806E+00  0.0000000000000E+00  0.4119466276369E-01
 0.2216766952274E+00 -0.2492207343848E+00  0.0000000000000E+00  0.1977577115271E-01
 0.2199766670208E+00 -0.2456340437954E+00  0.0000000000000E+00  0.1287848673882E-01
 0.2173975211016E+00 -0.2416463915891E+00  0.0000000000000E+00  0.1748831466082E-01
 0.2143136047153E+00 -0.2375810955902E+00  0.0000000000000E+00  0.3114519341151E-01
 0.2109958652257E+00 -0.2336720738051E+00  0.0000000000000E+00  0.5191376649720E-01
 0.2075061090054E+00 -0.2298944723104E+00  0.0000000000000E+00  0.7771010475452E-01
 0.2041670923609E+00 -0.2266820371824E+00  0.0000000000000E+00  0.1091123494625E+00
 0.2033345606279E+00 -0.2265403872264E+00  0.0000000000000E+00  0.1453575812828E+00
 0.2071073845787E+00 -0.2316203103791E+00  0.0000000000000E+00  0.1843481160025E+00
 0.2155834866487E+00 -0.2420524230076E+00  0.0000000000000E+00  0.2257952678008E+00
 0.2288672000552E+00 -0.2580133348091E+00  0.0000000000000E+00  0.2690043190526E+00
 0.2471112254919E+00 -0.2797884612647E+00  0.0000000000000E+00  0.3126142888105E+00
 0.2713498817295E+00 -0.3086552994953E+00  0.0000000000000E+00  0.3533669882824E+00
 0.3037028811705E+00 -0.3470992837033E+00  0.0000000000000E+00  0.3847631517068E+00
 0.1356329048952E+00 -0.1834493368574E+00  0.0000000000000E+00  0.4272652964839E+00
 0.1725870386282E+00 -0.2159662254162E+00  0.0000000000000E+00  0.3169554104994E+00
 0.1965562331058E+00 -0.2352848912660E+00  0.0000000000000E+00  0.2143930793345E+00
 0.2079010730448E+00 -0.2422661929942E+00  0.0000000000000E+00  0.1303612581921E+00
 0.2107203269121E+00 -0.2413012459718E+00  0.0000000000000E+00  0.6978340017573E-01
 0.2088201558851E+00 -0.2362512591902E+00  0.0000000000000E+00  0.3150890497931E-01
 0.2046046947002E+00 -0.2295140564332E+00  0.0000000000000E+00  0.1204973603268E-01
 0.1994719437489E+00 -0.2224527929938E+00  0.0000000000000E+00  0.7569657200140E-02
 0.1940965729657E+00 -0.2156639194430E+00  0.0000000000000E+00  0.1432483745211E-01
 0.1886694837602E+00 -0.2092628092917E+00  0.0000000000000E+00  0.2942372844785E-01
 0.1832965005153E+00 -0.2032985902721E+00  0.0000000000000E+00  0.5073167618842E-01
 0.1778705772113E+00 -0.1975580839239E+00  0.0000000000000E+00  0.7618652464262E-01
 0.1727339162144E+00 -0.1924871220636E+00  0.0000000000000E+00  0.1063862361593E+00
 0.1703412633355E+00 -0.1907098465998E+00  0.0000000000000E+00  0.1410823735218E+00
 0.1727191085517E+00 -0.1943288534097E+00  0.0000000000000E+00  0.1790602297530E+00
 0.1799747319024E+00 -0.2034914747841E+00  0.0000000000000E+00  0.2205214468577E+00
 0.1923299975605E+00 -0.2185109525573E+00  0.0000000000000E+00  0.2650236094794E+00
 0.2101818860367E+00 -0.2399460874450E+00  0.0000000000000E+00  0.3113204635978E+00
 0.2350286092294E+00 -0.2695922444510E+00  0.0000000000000E+00  0.3561835645257E+00
 0.2697903650684E+00 -0.3108193882504E+00  0.0000000000000E+00  0.3929098974275E+00
 0.1437400525268E+00 -0.1905319533535E+00  0.0000000000000E+00  0.4384873162562E+00
 0.1793942227425E+00 -0.2214202127642E+00  0.0000000000000E+00  0.3187741154438E+00
 0.1988357363218E+00 -0.2357927624951E+00  0.0000000000000E+00  0.2068174599757E+00
 0.2041281918388E+00 -0.2363253682805E+00  0.0000000000000E+00  0.1173478671533E+00
 0.2009458227725E+00 -0.2290563904507E+00  0.0000000000000E+00  0.5574086012031E-01
 0.1939137918942E+00 -0.2186819975499E+00  0.0000000000000E+00  0.1926865073614E-01
 0.1856352617132E+00 -0.2077925765269E+00  0.0000000000000E+00  0.2834567661824E-02
 0.1774070451112E+00 -0.1976219445032E+00  0.0000000000000E+00  0.1378723148714E-02
 0.1696654241663E+00 -0.1884901761084E+00  0.0000000000000E+00  0.1036950611609E-01
 0.1623422045231E+00 -0.1802218279350E+00  0.0000000000000E+00  0.2653786547079E-01
 0.1553391967958E+00 -0.1726397730959E+00  0.0000000000000E+00  0.4764400653279E-01
 0.1483694658285E+00 -0.1653324911382E+00  0.0000000000000E+00  0.7177677240928E-01
 0.1418085336265E+00 -0.1587681093163E+00  0.0000000000000E+00  0.9955600562020E-01
 0.1381571706683E+00 -0.1556355902515E+00  0.0000000000000E+00  0.1313471066577E+00
 0.1392746735885E+00 -0.1578929877772E+00  0.0000000000000E+00  0.1670095676578E+00
 0.1452383056750E+00 -0.1656633822163E+00  0.0000000000000E+00  0.2073130613146E+00
 0.1563592380285E+00 -0.1793701679745E+00  0.0000000000000E+00  0.2521753387014E+00
 0.1732868715761E+00 -0.1998598685765E+00  0.0000000000000E+00  0.3006270678975E+00
 0.1980096679914E+00 -0.2294849587166E+00  0.0000000000000E+00  0.3497194443734E+00
 0.2343353642508E+00 -0.2726109051348E+00  0.0000000000000E+00  0.3928111703933E+00
 0.1526694340626E+00 -0.1986329179058E+00  0.0000000000000E+00  0.4481546161346E+00
 0.1867673118156E+00 -0.2275270346204E+00  0.0000000000000E+00  0.3160037249099E+00
 0.2004517053038E+00 -0.2356162488046E+00  0.0000000000000E+00  0.1933915342634E+00
 0.1985825541840E+00 -0.2285031923561E+00  0.0000000000000E+00  0.9913840599352E-01
 0.1888483752203E+00 -0.2143342464567E+00  0.0000000000000E+00  0.3817929898442E-01
 0.1766827985533E+00 -0.1986343079057E+00  0.0000000000000E+00  0.5251890971177E-02
 0.1647090575470E+00 -0.1839936759104E+00  0.0000000000000E+00 -0.6889726722749E-02
 0.1539332797000E+00 -0.1713046224181E+00  0.0000000000000E+00 -0.4741894814413E-02
 0.1444124745064E+00 -0.1604538948671E+00  0.0000000000000E+00  0.6424702483563E-02
 0.1357478159217E+00 -0.1508975709056E+00  0.0000000000000E+00  0.2311954634393E-01
 0.1276176269448E+00 -0.1422135268340E+00  0.0000000000000E+00  0.4315609679470E-01
 0.1195674097491E+00 -0.1338081757357E+00  0.0000000000000E+00  0.6492773275397E-01
 0.1120328193654E+00 -0.1261963433855E+00  0.0000000000000E+00  0.8907384461050E-01
 0.1075127503636E+00 -0.1220820771769E+00  0.0000000000000E+00  0.1166240983402E+00
 0.1076092731850E+00 -0.1231846164239E+00  0.0000000000000E+00  0.1486258596174E+00
 0.1123131119539E+00 -0.1295426486033E+00  0.0000000000000E+00  0.1864439588040E+00
 0.1219592437932E+00 -0.1416234368790E+00  0.0000000000000E+00  0.2304453473028E+00
 0.1374157559461E+00 -0.1605320416316E+00  0.0000000000000E+00  0.2801103921941E+00
 0.1611481672748E+00 -0.1891782324634E+00  0.0000000000000E+00  0.3330685218065E+00
 0.1979133373159E+00 -0.2330143528380E+00  0.0000000000000E+00  0.3831002653479E+00
 0.1626308045626E+00 -0.2080468684060E+00  0.0000000000000E+00  0.4560153433561E+00
 0.1946069908971E+00 -0.2342188213182E+00  0.0000000000000E+00  0.3073540986664E+00
 0.2008311433089E+00 -0.2341673081882E+00  0.0000000000000E+00  0.1730828325257E+00
 0.1905310531540E+00 -0.2180211081044E+00  0.0000000000000E+00  0.7559463369787E-01
 0.1738524001897E+00 -0.1965127853365E+00  0.0000000000000E+00  0.1782045937750E-01
 0.1568606819212E+00 -0.1758181875242E+00  0.0000000000000E+00 -0.9327750715056E-02
 0.1418686324429E+00 -0.1581636981061E+00  0.0000000000000E+00 -0.1582586481101E-01
 0.1293196392235E+00 -0.1437908451385E+00  0.0000000000000E+00 -0.9685620980149E-02
 0.1187378270132E+00 -0.1319816246572E+00  0.0000000000000E+00  0.3326694094598E-02
 0.1093518816757E+00 -0.1217811074578E+00  0.0000000000000E+00  0.1979021326461E-01
 0.1006343017891E+00 -0.1125462680657E+00  0.0000000000000E+00  0.3778506304399E-01
 0.9200588263898E-01 -0.1035514878325E+00  0.0000000000000E+00  0.5616126183782E-01
 0.8400191396814E-01 -0.9539639724502E-01  0.0000000000000E+00  0.7555434559602E-01
 0.7907899916705E-01 -0.9075623720624E-01  0.0000000000000E+00  0.9764539515989E-01
 0.7850603161098E-01 -0.9102833482074E-01  0.0000000000000E+00  0.1246875229136E+00
 0.8212113066042E-01 -0.9609496471024E-01  0.0000000000000E+00  0.1586004915383E+00
 0.9018073579576E-01 -0.1063604891141E+00  0.0000000000000E+00  0.2002479843615E+00
 0.1036841037964E+00 -0.1231017893851E+00  0.0000000000000E+00  0.2497210096980E+00
 0.1254974478327E+00 -0.1497216590112E+00  0.0000000000000E+00  0.3055606082970E+00
 0.1613281012454E+00 -0.1927986450249E+00  0.0000000000000E+00  0.3624017274873E+00
 0.1738677674169E+00 -0.2191466178381E+00  0.0000000000000E+00  0.4616060372274E+00
 0.2026407027536E+00 -0.2412642361130E+00  0.0000000000000E+00  0.2910199983933E+00
 0.1990727271730E+00 -0.2305085639077E+00  0.0000000000000E+00  0.1447575413311E+00
 0.1789932314984E+00 -0.2038206946299E+00  0.0000000000000E+00  0.4698563181628E-01
 0.1553344580645E+00 -0.1749043635736E+00  0.0000000000000E+00 -0.3974576480866E-02
 0.1343002725417E+00 -0.1500676205507E+00  0.0000000000000E+00 -0.2270446258750E-01
 0.1173416582831E+00 -0.1305499779120E+00  0.0000000000000E+00 -0.2238879280294E-01
 0.1039956052596E+00 -0.1155439467422E+00  0.0000000000000E+00 -0.1230775628645E-01
 0.9313597744037E-01 -0.1035995452583E+00  0.0000000000000E+00  0.1822066275588E-02
 0.8364772535724E-01 -0.9339081290146E-01  0.0000000000000E+00  0.1707274590573E-01
 0.7486881173914E-01 -0.8413910125165E-01  0.0000000000000E+00  0.3200998483422E-01
 0.6616791855900E-01 -0.7506795104723E-01  0.0000000000000E+00  0.4604725199582E-01
 0.5822598372943E-01 -0.6690658785292E-01  0.0000000000000E+00  0.5975358570515E-01
 0.5342314009413E-01 -0.6226169605776E-01  0.0000000000000E+00  0.7538346676291E-01
 0.5264231773571E-01 -0.6214614259130E-01  0.0000000000000E+00  0.9631638398954E-01
 0.5550705630729E-01 -0.6621606222951E-01  0.0000000000000E+00  0.1249103405220E+00
 0.6206581520898E-01 -0.7467464190146E-01  0.0000000000000E+00  0.1625044813560E+00
 0.7330182772694E-01 -0.8881743104541E-01  0.0000000000000E+00  0.2099092164804E+00
 0.9231603408558E-01 -0.1123807868511E+00  0.0000000000000E+00  0.2669043837925E+00
 0.1256653124241E+00 -0.1530164306718E+00  0.0000000000000E+00  0.3294239236764E+00
 0.1866374974299E+00 -0.2323975754612E+00  0.0000000000000E+00  0.4640810331508E+00
 0.2102697850134E+00 -0.2481184770957E+00  0.0000000000000E+00  0.2644454560486E+00
 0.1937730516850E+00 -0.2231544762907E+00  0.0000000000000E+00  0.1073158998870E+00
 0.1627160344935E+00 -0.1845171573418E+00  0.0000000000000E+00  0.1437847312842E-01
 0.1327472764475E+00 -0.1488820659238E+00  0.0000000000000E+00 -0.2487919882008E-01
 0.1091343379765E+00 -0.1215197196295E+00  0.0000000000000E+00 -0.3249653892776E-01
 0.9164211245802E-01 -0.1017133809639E+00  0.0000000000000E+00 -0.2486491355643E-01
 0.7857290337989E-01 -0.8722317398421E-01  0.0000000000000E+00 -0.1164251049473E-01
 0.6816821808911E-01 -0.7590077129962E-01  0.0000000000000E+00  0.2410783002863E-02
 0.5911445538997E-01 -0.6622685339638E-01  0.0000000000000E+00  0.1531492839561E-01
 0.5073848410131E-01 -0.5742655053943E-01  0.0000000000000E+00  0.2624075987257E-01
 0.4244351933992E-01 -0.4876674819960E-01  0.0000000000000E+00  0.3518570075672E-01
 0.3509705486563E-01 -0.4114500620720E-01  0.0000000000000E+00  0.4254109731593E-01
 0.3096954264128E-01 -0.3705818568180E-01  0.0000000000000E+00  0.5100839800342E-01
 0.3053573162755E-01 -0.3710103766658E-01  0.0000000000000E+00  0.6493671295908E-01
 0.3316546478004E-01 -0.4065637712948E-01  0.0000000000000E+00  0.8693416575228E-01
 0.3856678826022E-01 -0.4758186125276E-01  0.0000000000000E+00  0.1187011763005E+00
 0.4751124992324E-01 -0.5897922626725E-01  0.0000000000000E+00  0.1617627918474E+00
 0.6305695530180E-01 -0.7863356189814E-01  0.0000000000000E+00  0.2173762584806E+00
 0.9235537746190E-01 -0.1150703324561E+00  0.0000000000000E+00  0.2831099730033E+00
 0.2011380438099E+00 -0.2483599274947E+00  0.0000000000000E+00  0.4618748995577E+00
 0.2162643052415E+00 -0.2536137709443E+00  0.0000000000000E+00  0.2239628770861E+00
 0.1827587898668E+00 -0.2097478208552E+00  0.0000000000000E+00  0.6007135490277E-01
 0.1402446421827E+00 -0.1584347061469E+00  0.0000000000000E+00 -0.1963280654848E-01
 0.1059110127160E+00 -0.1182002769618E+00  0.0000000000000E+00 -0.4121544144857E-01
 0.8201650153883E-01 -0.9088794111325E-01  0.0000000000000E+00 -0.3585576222660E-01
 0.6564484471096E-01 -0.7261446744550E-01  0.0000000000000E+00 -0.2181133905418E-01
 0.5380086316373E-01 -0.5962623044954E-01  0.0000000000000E+00 -0.7212690673180E-02
 0.4439124786550E-01 -0.4946726734294E-01  0.0000000000000E+00  0.5220916079072E-02
 0.3615990445684E-01 -0.4071093421854E-01  0.0000000000000E+00  0.1466249000305E-01
 0.2855920692269E-01 -0.3273634603319E-01  0.0000000000000E+00  0.2081972863683E-01
 0.2110275998550E-01 -0.2493361308828E-01  0.0000000000000E+00  0.2420125246091E-01
 0.1486771069125E-01 -0.1838784586938E-01  0.0000000000000E+00  0.2486607398886E-01
 0.1197457804676E-01 -0.1543558300724E-01  0.0000000000000E+00  0.2581947698766E-01
 0.1250033151158E-01 -0.1625007043026E-01  0.0000000000000E+00  0.3218511109016E-01
 0.1556302263652E-01 -0.1993861599348E-01  0.0000000000000E+00  0.4659210286205E-01
 0.2043459508985E-01 -0.2590581106492E-01  0.0000000000000E+00  0.7089246047733E-01
 0.2747701739058E-01 -0.3483452990014E-01  0.0000000000000E+00  0.1071400351445E+00
 0.3932150391397E-01 -0.5013583768074E-01  0.0000000000000E+00  0.1580705342851E+00
 0.6324350566457E-01 -0.8079046153682E-01  0.0000000000000E+00  0.2228919925709E+00
 0.2172921262011E+00 -0.2676433455125E+00  0.0000000000000E+00  0.4519952029225E+00
 0.2180914742389E+00 -0.2552692425928E+00  0.0000000000000E+00  0.1642155595005E+00
 0.1627237056200E+00 -0.1865325554289E+00  0.0000000000000E+00  0.3822919611893E-02
 0.1103134331278E+00 -0.1239948214298E+00  0.0000000000000E+00 -0.4964733653500E-01
 0.7560649386994E-01 -0.8365881415258E-01  0.0000000000000E+00 -0.4775031835816E-01
 0.5437544884542E-01 -0.5979075539405E-01  0.0000000000000E+00 -0.3021536742475E-01
 0.4049512096837E-01 -0.4448015612659E-01  0.0000000000000E+00 -0.1275649448155E-01
 0.3041999055907E-01 -0.3352975083550E-01  0.0000000000000E+00  0.7529569675264E-03
 0.2226073338089E-01 -0.2476774878102E-01  0.0000000000000E+00  0.1000154021152E-01
 0.1506571954687E-01 -0.1713064826803E-01  0.0000000000000E+00  0.1510194286566E-01
 0.8516745734779E-02 -0.1026071508274E-01  0.0000000000000E+00  0.1605317133647E-01
 0.2282006608116E-02 -0.3716879473922E-02  0.0000000000000E+00  0.1374926036201E-01
-0.2353124313691E-02  0.1234104049226E-02  0.0000000000000E+00  0.7723120634456E-02
-0.3476072930705E-02  0.2489452059215E-02  0.0000000000000E+00  0.1161026660204E-02
-0.1368786822318E-02  0.2719337767702E-03  0.0000000000000E+00 -0.2272650122932E-03
 0.2878009826702E-02 -0.4288679984049E-02  0.0000000000000E+00  0.5992169835840E-02
 0.8083448597389E-02 -0.1013427920788E-01  0.0000000000000E+00  0.2158943338741E-01
 0.1410319502823E-01 -0.1739391291123E-01  0.0000000000000E+00  0.4874082584434E-01
 0.2273537858315E-01 -0.2861971983589E-01  0.0000000000000E+00  0.9122539298524E-01
 0.4065668706561E-01 -0.5251661258633E-01  0.0000000000000E+00  0.1491306279014E+00
 0.2338740091035E+00 -0.2906161451374E+00  0.0000000000000E+00  0.4281479831580E+00
 0.2103789910194E+00 -0.2474730203987E+00  0.0000000000000E+00  0.7750642860534E-01
 0.1289054599479E+00 -0.1477746720193E+00  0.0000000000000E+00 -0.5633729379363E-01
 0.7324662772567E-01 -0.8108048520868E-01  0.0000000000000E+00 -0.6523965408316E-01
 0.4456070005746E-01 -0.4852845061956E-01  0.0000000000000E+00 -0.3899342569264E-01
 0.2817184075710E-01 -0.3032840985136E-01  0.0000000000000E+00 -0.1516798551708E-01
 0.1725517467630E-01 -0.1842853752348E-01  0.0000000000000E+00  0.1424851231426E-02
 0.8989024872578E-02 -0.9504074880882E-02  0.0000000000000E+00  0.1140124140309E-01
 0.2053771891405E-02 -0.2082019508111E-02  0.0000000000000E+00  0.1625899145247E-01
-0.4044503775917E-02  0.4390145267715E-02  0.0000000000000E+00  0.1654151181830E-01
-0.9348342583486E-02  0.9960510768208E-02  0.0000000000000E+00  0.1225211842700E-01
-0.1401690012955E-01  0.1487256220730E-01  0.0000000000000E+00  0.4536074040029E-02
-0.1658526701879E-01  0.1771992757143E-01  0.0000000000000E+00 -0.7868384719626E-02
-0.1544200384603E-01  0.1674528088234E-01  0.0000000000000E+00 -0.2165930174547E-01
-0.1117177048840E-01  0.1253329581021E-01  0.0000000000000E+00 -0.3066829424237E-01
-0.4997115520616E-02  0.6357148639317E-02  0.0000000000000E+00 -0.3281657503877E-01
 0.1483276560194E-02 -0.2813323427407E-03  0.0000000000000E+00 -0.2657600222411E-01
 0.7750483820847E-02 -0.7141378521966E-02  0.0000000000000E+00 -0.1001072964528E-01
 0.1466302809783E-01 -0.1562776377551E-01  0.0000000000000E+00  0.2056930877369E-01
 0.2741705613532E-01 -0.3316629758166E-01  0.0000000000000E+00  0.6394869987662E-01
 0.2460724332297E+00 -0.3164148389076E+00  0.0000000000000E+00  0.3759173315169E+00
 0.1798219658096E+00 -0.2161142444898E+00  0.0000000000000E+00 -0.4750044584660E-01
 0.7721208658014E-01 -0.8561523085546E-01  0.0000000000000E+00 -0.9996402466048E-01
 0.3528041715438E-01 -0.3797187871488E-01  0.0000000000000E+00 -0.5217641767653E-01
 0.1651652246704E-01 -0.1674455271584E-01  0.0000000000000E+00 -0.1519701176662E-01
 0.4920620570570E-02 -0.4110642129801E-02  0.0000000000000E+00  0.7023854453528E-02
-0.3398403749535E-02  0.4866614107513E-02  0.0000000000000E+00  0.1891225612731E-01
-0.1021303327987E-01  0.1217560977748E-01  0.0000000000000E+00  0.2363225642951E-01
-0.1614470898099E-01  0.1850187733939E-01  0.0000000000000E+00  0.2342798669187E-01
-0.2121316558544E-01  0.2390281058897E-01  0.0000000000000E+00  0.1886435217452E-01
-0.2515067175288E-01  0.2804691706822E-01  0.0000000000000E+00  0.9759768369336E-02
-0.2792714349352E-01  0.3097073631119E-01  0.0000000000000E+00 -0.2630296091805E-02
-0.2794104763648E-01  0.3115264109476E-01  0.0000000000000E+00 -0.2082528667672E-01
-0.2406151419096E-01  0.2743649833365E-01  0.0000000000000E+00 -0.4143435069680E-01
-0.1713943324434E-01  0.2073900108899E-01  0.0000000000000E+00 -0.5775229602849E-01
-0.8412661730679E-02  0.1233177153426E-01  0.0000000000000E+00 -0.6806123276938E-01
 0.2394081601878E-03  0.3973681152003E-02  0.0000000000000E+00 -0.7124014066691E-01
 0.7993556770908E-02 -0.3631638685689E-02  0.0000000000000E+00 -0.6580884020109E-01
 0.1546839354377E-01 -0.1185782735945E-01  0.0000000000000E+00 -0.4848418950661E-01
 0.2666728553428E-01 -0.2614307567089E-01  0.0000000000000E+00 -0.2721874891943E-01
 0.2094928568480E+00 -0.3278190349850E+00  0.0000000000000E+00  0.2298044295623E+00
 0.9825724800675E-01 -0.1070544641030E+00  0.0000000000000E+00 -0.1914951458627E+00
 0.2258591647840E-01 -0.2442535884179E-01  0.0000000000000E+00 -0.8174504763390E-01
 0.4564432832584E-02 -0.2716570781615E-02  0.0000000000000E+00 -0.1428057522853E-01
-0.6759439390538E-02  0.9754245432281E-02  0.0000000000000E+00  0.1813998388160E-01
-0.1464267342182E-01  0.1817561526078E-01  0.0000000000000E+00  0.3292117458189E-01
-0.2127005791196E-01  0.2521629777440E-01  0.0000000000000E+00  0.3776712998531E-01
-0.2717541813729E-01  0.3151658663590E-01  0.0000000000000E+00  0.3644596049960E-01
-0.3237339853114E-01  0.3703254711837E-01  0.0000000000000E+00  0.3108198049756E-01
-0.3661094335743E-01  0.4153169460639E-01  0.0000000000000E+00  0.2177769452047E-01
-0.3925060329796E-01  0.4444581125387E-01  0.0000000000000E+00  0.8856891314162E-02
-0.3973936532963E-01  0.4486169497208E-01  0.0000000000000E+00 -0.6527940800984E-02
-0.3650927284262E-01  0.4156180023098E-01  0.0000000000000E+00 -0.2988342599532E-01
-0.2942396160309E-01  0.3461385050006E-01  0.0000000000000E+00 -0.5717077435271E-01
-0.1954333809927E-01  0.2515677005202E-01  0.0000000000000E+00 -0.8051170967625E-01
-0.7900179215747E-02  0.1414809955244E-01  0.0000000000000E+00 -0.9847763389327E-01
 0.3619829147654E-02  0.3376276613118E-02  0.0000000000000E+00 -0.1104472051419E+00
 0.1417701362112E-01 -0.6456802197226E-02  0.0000000000000E+00 -0.1158913926070E+00
 0.2363034219033E-01 -0.1524953226195E-01  0.0000000000000E+00 -0.1121660236365E+00
 0.3969148287878E-01 -0.3427038897272E-01  0.0000000000000E+00 -0.1111897431912E+00
 0.9174371896696E-01 -0.1153660013993E+00  0.0000000000000E+00 -0.4095078449942E+00
 0.7733184908459E-01 -0.9844361265081E-01  0.0000000000000E+00 -0.3837155412553E+00
 0.6467873205156E-01 -0.8402683958284E-01  0.0000000000000E+00 -0.3562794045900E+00
 0.5330801075988E-01 -0.7101821230497E-01  0.0000000000000E+00 -0.3274304154951E+00
 0.4306115415436E-01 -0.5918000853430E-01  0.0000000000000E+00 -0.2973028491470E+00
 0.3401191175102E-01 -0.4853947477692E-01  0.0000000000000E+00 -0.2661769138448E+00
 0.2625867127501E-01 -0.3918095549373E-01  0.0000000000000E+00 -0.2343559434864E+00
 0.1988526623281E-01 -0.3118580520627E-01  0.0000000000000E+00 -0.2021608128946E+00
 0.1494527812488E-01 -0.2461128413731E-01  0.0000000000000E+00 -0.1699236171237E+00
 0.1145920541393E-01 -0.1948417557429E-01  0.0000000000000E+00 -0.1379826074295E+00
 0.9415033975831E-02 -0.1579972053561E-01  0.0000000000000E+00 -0.1066743342750E+00
 0.8770474733875E-02 -0.1352301803622E-01  0.0000000000000E+00 -0.7632452169535E-01
 0.9456236376996E-02 -0.1259193646363E-01  0.0000000000000E+00 -0.4723937696711E-01
 0.1138015990974E-01 -0.1292114775404E-01  0.0000000000000E+00 -0.1969933280201E-01
 0.1443192021303E-01 -0.1440694023430E-01  0.0000000000000E+00  0.6042653137166E-02
 0.1848809369536E-01 -0.1693246361748E-01  0.0000000000000E+00  0.2975621697297E-01
 0.2341700907168E-01 -0.2037352373061E-01  0.0000000000000E+00  0.5121826021067E-01
 0.2909008800705E-01 -0.2460794094275E-01  0.0000000000000E+00  0.7018492598507E-01
 0.3538930300692E-01 -0.2954043946474E-01  0.0000000000000E+00  0.8629615617644E-01
 0.4252101411410E-01 -0.3529905064870E-01  0.0000000000000E+00  0.9893294476795E-01
 0.1000714389083E+00 -0.1252850284625E+00  0.0000000000000E+00 -0.4403824034554E+00
 0.8624307761020E-01 -0.1093872042789E+00  0.0000000000000E+00 -0.4120501520575E+00
 0.7207075557166E-01 -0.9327123457262E-01  0.0000000000000E+00 -0.3836136230738E+00
 0.5886423712217E-01 -0.7829603562155E-01  0.0000000000000E+00 -0.3548450744790E+00
 0.4698361443630E-01 -0.6470137072845E-01  0.0000000000000E+00 -0.3250560144565E+00
 0.3653698565877E-01 -0.5255724878163E-01  0.0000000000000E+00 -0.2941139341304E+00
 0.2759595903428E-01 -0.4191238602061E-01  0.0000000000000E+00 -0.2621311935148E+00
 0.2021825479818E-01 -0.3281613644155E-01  0.0000000000000E+00 -0.2293640136799E+00
 0.1444887111284E-01 -0.2531260685840E-01  0.0000000000000E+00 -0.1961469856135E+00
 0.1031346709633E-01 -0.1943104902956E-01  0.0000000000000E+00 -0.1628570664455E+00
 0.7812655234805E-02 -0.1517805144427E-01  0.0000000000000E+00 -0.1298896590007E+00
 0.6918567854600E-02 -0.1253285312527E-01  0.0000000000000E+00 -0.9764080648096E-01
 0.7574388920899E-02 -0.1144606696183E-01  0.0000000000000E+00 -0.6649283014973E-01
 0.9697020671259E-02 -0.1184183886776E-01  0.0000000000000E+00 -0.3680326651735E-01
 0.1318283251081E-01 -0.1362327691902E-01  0.0000000000000E+00 -0.8898309377693E-02
 0.1791612032034E-01 -0.1668084162338E-01  0.0000000000000E+00  0.1692733797270E-01
 0.2378097421512E-01 -0.2090356794866E-01  0.0000000000000E+00  0.4040370079468E-01
 0.3067576830869E-01 -0.2619470188838E-01  0.0000000000000E+00  0.6127147374710E-01
 0.3856479589778E-01 -0.3250627076324E-01  0.0000000000000E+00  0.7928487854686E-01
 0.4749953614152E-01 -0.3986970352731E-01  0.0000000000000E+00  0.9443647283757E-01
 0.1085797196626E+00 -0.1351705920768E+00  0.0000000000000E+00 -0.4687015541480E+00
 0.9451562653430E-01 -0.1193506903851E+00  0.0000000000000E+00 -0.4432824310333E+00
 0.7988972366514E-01 -0.1029006557224E+00  0.0000000000000E+00 -0.4154353267490E+00
 0.6563589268463E-01 -0.8684691256215E-01  0.0000000000000E+00 -0.3865514575970E+00
 0.5241671958644E-01 -0.7185644025918E-01  0.0000000000000E+00 -0.3565976168442E+00
 0.4056664960841E-01 -0.5823599827628E-01  0.0000000000000E+00 -0.3254029417372E+00
 0.3026875751546E-01 -0.4615406704496E-01  0.0000000000000E+00 -0.2929651430578E+00
 0.2164144746458E-01 -0.3572088474561E-01  0.0000000000000E+00 -0.2594409128962E+00
 0.1476802035726E-01 -0.2701795697297E-01  0.0000000000000E+00 -0.2251099164188E+00
 0.9704744065443E-02 -0.2010406866059E-01  0.0000000000000E+00 -0.1903364137266E+00
 0.6479615260600E-02 -0.1501265724069E-01  0.0000000000000E+00 -0.1555378744216E+00
 0.5088899824257E-02 -0.1174717754493E-01  0.0000000000000E+00 -0.1211587051546E+00
 0.5494845081905E-02 -0.1027787815045E-01  0.0000000000000E+00 -0.8764723376670E-01
 0.7626559715373E-02 -0.1054189606500E-01  0.0000000000000E+00 -0.5543519578948E-01
 0.1138513506267E-01 -0.1244775222452E-01  0.0000000000000E+00 -0.2492057871659E-01
 0.1665344757486E-01 -0.1588458972126E-01  0.0000000000000E+00  0.3544407523072E-02
 0.2330955788272E-01 -0.2073547539978E-01  0.0000000000000E+00  0.2965894598834E-01
 0.3124455347146E-01 -0.2689325615535E-01  0.0000000000000E+00  0.5317714989479E-01
 0.4036711178719E-01 -0.3426809978352E-01  0.0000000000000E+00  0.7394054686107E-01
 0.5056300544866E-01 -0.4275695310517E-01  0.0000000000000E+00  0.9191258728112E-01
 0.1181896724897E+00 -0.1462805569387E+00  0.0000000000000E+00 -0.4971707439069E+00
 0.1032745996253E+00 -0.1297633993868E+00  0.0000000000000E+00 -0.4749576572776E+00
 0.8809246714000E-01 -0.1128785909325E+00  0.0000000000000E+00 -0.4491420982606E+00
 0.7307983949820E-01 -0.9611439338153E-01  0.0000000000000E+00 -0.4211302235431E+00
 0.5879701265476E-01 -0.8005326656777E-01  0.0000000000000E+00 -0.3914224401864E+00
 0.4567693227021E-01 -0.6512832686361E-01  0.0000000000000E+00 -0.3601044922033E+00
 0.3401667922228E-01 -0.5162962929497E-01  0.0000000000000E+00 -0.3272177722066E+00
 0.2402651006372E-01 -0.3976340014428E-01  0.0000000000000E+00 -0.2928919735397E+00
 0.1586253615189E-01 -0.2968507294039E-01  0.0000000000000E+00 -0.2573681266398E+00
 0.9640972357824E-02 -0.2151370111284E-01  0.0000000000000E+00 -0.2209891167329E+00
 0.5441317947579E-02 -0.1533448866553E-01  0.0000000000000E+00 -0.1841787809376E+00
 0.3303950904522E-02 -0.1119564634709E-01  0.0000000000000E+00 -0.1474174730144E+00
 0.3226424306026E-02 -0.9103855831249E-02  0.0000000000000E+00 -0.1112154906596E+00
 0.5161638767536E-02 -0.9021556527471E-02  0.0000000000000E+00 -0.7608464621829E-01
 0.9020383800946E-02 -0.1086856809085E-01  0.0000000000000E+00 -0.4250908156504E-01
 0.1467975298989E-01 -0.1452973578957E-01  0.0000000000000E+00 -0.1091809817918E-01
 0.2199769199721E-01 -0.1986879461968E-01  0.0000000000000E+00  0.1833501896117E-01
 0.3082883410592E-01 -0.2674511485014E-01  0.0000000000000E+00  0.4498524613590E-01
 0.4103110024474E-01 -0.3502319327183E-01  0.0000000000000E+00  0.6884654548065E-01
 0.5245971703819E-01 -0.4456664828090E-01  0.0000000000000E+00  0.8977097866435E-01
 0.1291220922318E+00 -0.1588136969841E+00  0.0000000000000E+00 -0.5261484511524E+00
 0.1131701720171E+00 -0.1413759298932E+00  0.0000000000000E+00 -0.5069166223567E+00
 0.9718919637004E-01 -0.1237948943542E+00  0.0000000000000E+00 -0.4836783551066E+00
 0.8136025657699E-01 -0.1062823883359E+00  0.0000000000000E+00 -0.4574067573503E+00
 0.6607859206861E-01 -0.8925171684355E-01  0.0000000000000E+00 -0.4286783656300E+00
 0.5175390914237E-01 -0.7311912340870E-01  0.0000000000000E+00 -0.3977489947064E+00
 0.3873624020599E-01 -0.5823495874639E-01  0.0000000000000E+00 -0.3647506410066E+00
 0.2731088404610E-01 -0.4488356238878E-01  0.0000000000000E+00 -0.3298310627643E+00
 0.1771141004225E-01 -0.3329935547100E-01  0.0000000000000E+00 -0.2932178067869E+00
 0.1012889200669E-01 -0.2367683343795E-01  0.0000000000000E+00 -0.2552381041915E+00
 0.4713841063420E-02 -0.1617269574509E-01  0.0000000000000E+00 -0.2163174043920E+00
 0.1572407374020E-02 -0.1090178482314E-01  0.0000000000000E+00 -0.1769658598216E+00
 0.7595180260758E-03 -0.7929680863303E-02  0.0000000000000E+00 -0.1377560297454E+00
 0.2272055154082E-02 -0.7265049213079E-02  0.0000000000000E+00 -0.9929224587329E-01
 0.6045424060956E-02 -0.8855124347000E-02  0.0000000000000E+00 -0.6217214991804E-01
 0.1195690731693E-01 -0.1258781593954E-01  0.0000000000000E+00 -0.2694316790648E-01
 0.1983802525453E-01 -0.1830311908507E-01  0.0000000000000E+00  0.5939555927172E-02
 0.2949614125107E-01 -0.2581437863074E-01  0.0000000000000E+00  0.3614119099588E-01
 0.4074377694112E-01 -0.3493861600491E-01  0.0000000000000E+00  0.6344112698515E-01
 0.5342306635301E-01 -0.4552614913297E-01  0.0000000000000E+00  0.8767032509678E-01
 0.1414229495989E+00 -0.1728188265103E+00  0.0000000000000E+00 -0.5554423526452E+00
 0.1244687340282E+00 -0.1544804146784E+00  0.0000000000000E+00 -0.5391059281619E+00
 0.1075699087689E+00 -0.1360800819390E+00  0.0000000000000E+00 -0.5186935825408E+00
 0.9081617565287E-01 -0.1177211020194E+00  0.0000000000000E+00 -0.4947385012347E+00
 0.7448792845791E-01 -0.9969510585907E-01  0.0000000000000E+00 -0.4676798049808E+00
 0.5893973438257E-01 -0.8236232651762E-01  0.0000000000000E+00 -0.4377837840985E+00
 0.4452802285544E-01 -0.6608094421005E-01  0.0000000000000E+00 -0.4052150512501E+00
 0.3158313257275E-01 -0.5118172742521E-01  0.0000000000000E+00 -0.3701281845006E+00
 0.2040369627641E-01 -0.3796450569925E-01  0.0000000000000E+00 -0.3327340920123E+00
 0.1125649579484E-01 -0.2669938205952E-01  0.0000000000000E+00 -0.2933373325967E+00
 0.4373809002820E-02 -0.1762471867337E-01  0.0000000000000E+00 -0.2523526525461E+00
-0.5396734585261E-04 -0.1094001868764E-01  0.0000000000000E+00 -0.2103070118481E+00
-0.1890052943132E-02 -0.6794082461077E-02  0.0000000000000E+00 -0.1678289642762E+00
-0.1065556960299E-02 -0.5270205218223E-02  0.0000000000000E+00 -0.1256242658805E+00
 0.2406979041689E-02 -0.6371565239016E-02  0.0000000000000E+00 -0.8443544568428E-01
 0.8425626138308E-02 -0.1001165678412E-01  0.0000000000000E+00 -0.4498481344461E-01
 0.1680283597892E-01 -0.1601606002508E-01  0.0000000000000E+00 -0.7905947512051E-02
 0.2728699539686E-01 -0.2414200675730E-01  0.0000000000000E+00  0.2632332151922E-01
 0.3960708275297E-01 -0.3412092088734E-01  0.0000000000000E+00  0.5742751948359E-01
 0.5354560321151E-01 -0.4573338374474E-01  0.0000000000000E+00  0.8531591241367E-01
 0.1551278268691E+00 -0.1883255971999E+00  0.0000000000000E+00 -0.5846913279891E+00
 0.1373052265836E+00 -0.1692240878396E+00  0.0000000000000E+00 -0.5713266392035E+00
 0.1194905493392E+00 -0.1500106949916E+00  0.0000000000000E+00 -0.5539379399338E+00
 0.1017601140523E+00 -0.1307652740894E+00  0.0000000000000E+00 -0.5327239664786E+00
 0.8433214019477E-01 -0.1117099881057E+00  0.0000000000000E+00 -0.5079228921384E+00
 0.6751259301154E-01 -0.9315280241603E-01  0.0000000000000E+00 -0.4797109198956E+00
 0.5164504934114E-01 -0.7543730670398E-01  0.0000000000000E+00 -0.4482094061570E+00
 0.3708135909654E-01 -0.5891458488698E-01  0.0000000000000E+00 -0.4135346628678E+00
 0.2416823129247E-01 -0.4393123202774E-01  0.0000000000000E+00 -0.3758509041801E+00
 0.1324063349438E-01 -0.3082398212968E-01  0.0000000000000E+00 -0.3354124892315E+00
 0.4615145247195E-02 -0.1991403695077E-01  0.0000000000000E+00 -0.2925937903088E+00
-0.1420633350820E-02 -0.1149720340750E-01  0.0000000000000E+00 -0.2479079414051E+00
-0.4624408011846E-02 -0.5828058416016E-02  0.0000000000000E+00 -0.2020141032920E+00
-0.4821526228060E-02 -0.3097724297717E-02  0.0000000000000E+00 -0.1557097693181E+00
-0.1931761772042E-02 -0.3406523316711E-02  0.0000000000000E+00 -0.1099015512413E+00
 0.4004080306562E-02 -0.6735755793629E-02  0.0000000000000E+00 -0.6554651923857E-01
 0.1280670221628E-01 -0.1292740431212E-01  0.0000000000000E+00 -0.2355980424225E-01
 0.2416250921468E-01 -0.2168456738228E-01  0.0000000000000E+00  0.1530498548346E-01
 0.3766072995842E-01 -0.3260453778864E-01  0.0000000000000E+00  0.5058381751952E-01
 0.5288250937546E-01 -0.4525651522537E-01  0.0000000000000E+00  0.8223215046589E-01
 0.1702772747161E+00 -0.2053715907886E+00  0.0000000000000E+00 -0.6134645238489E+00
 0.1517752332059E+00 -0.1857080955967E+00  0.0000000000000E+00 -0.6032533636388E+00
 0.1331435744172E+00 -0.1657928846442E+00  0.0000000000000E+00 -0.5891144849573E+00
 0.1144696531459E+00 -0.1457102292777E+00  0.0000000000000E+00 -0.5710150763868E+00
 0.9594114292984E-01 -0.1256457008996E+00  0.0000000000000E+00 -0.5489990319916E+00
 0.7782801049199E-01 -0.1058666319817E+00  0.0000000000000E+00 -0.5231071608357E+00
 0.6045479214552E-01 -0.8669405217796E-01  0.0000000000000E+00 -0.4933625926875E+00
 0.4417918378187E-01 -0.6848180456445E-01  0.0000000000000E+00 -0.4597950531278E+00
 0.2937927546836E-01 -0.5160472271906E-01  0.0000000000000E+00 -0.4224800249298E+00
 0.1644583332214E-01 -0.3645198703551E-01  0.0000000000000E+00 -0.3815798664605E+00
 0.5774999843542E-02 -0.2342092950332E-01  0.0000000000000E+00 -0.3373822629750E+00
-0.2242594163061E-02 -0.1290728523617E-01  0.0000000000000E+00 -0.2903348234358E+00
-0.7239600911781E-02 -0.5288591228910E-02  0.0000000000000E+00 -0.2410743871390E+00
-0.8899383180097E-02 -0.8978575954579E-03  0.0000000000000E+00 -0.1904467279511E+00
-0.6995008627070E-02  0.1472974073291E-04  0.0000000000000E+00 -0.1395072516113E+00
-0.1439114975679E-02 -0.2667833932902E-02  0.0000000000000E+00 -0.8948622020816E-01
 0.7662706292010E-02 -0.8873250931979E-02  0.0000000000000E+00 -0.4169659027219E-01
 0.1997299590958E-01 -0.1829581536451E-01  0.0000000000000E+00  0.2629868670322E-02
 0.3492224074579E-01 -0.3039006487234E-01  0.0000000000000E+00  0.4256387663894E-01
 0.5175087909750E-01 -0.4440845851722E-01  0.0000000000000E+00  0.7773232883928E-01
 0.1869174662703E+00 -0.2239999999047E+00  0.0000000000000E+00 -0.6412728195401E+00
 0.1679733771051E+00 -0.2040302920534E+00  0.0000000000000E+00 -0.6344549872198E+00
 0.1487102205774E+00 -0.1836179627982E+00  0.0000000000000E+00 -0.6238372228721E+00
 0.1292248596701E+00 -0.1628520567237E+00  0.0000000000000E+00 -0.6092338107748E+00
 0.1096854201076E+00 -0.1418936818568E+00  0.0000000000000E+00 -0.5905255490666E+00
 0.9033199872336E-01 -0.1209756220567E+00  0.0000000000000E+00 -0.5676090352130E+00
 0.7146530264713E-01 -0.1003906913336E+00  0.0000000000000E+00 -0.5403802086384E+00
 0.5343519132001E-01 -0.8048051936840E-01  0.0000000000000E+00 -0.5087461199058E+00
 0.3663307946293E-01 -0.6162857793198E-01  0.0000000000000E+00 -0.4726536096986E+00
 0.2148754362192E-01 -0.4425666288838E-01  0.0000000000000E+00 -0.4321268093814E+00
 0.8460470120093E-02 -0.2882213633911E-01  0.0000000000000E+00 -0.3873098576527E+00
-0.1959641624593E-02 -0.1581259175949E-01  0.0000000000000E+00 -0.3385140952972E+00
-0.9271149873426E-02 -0.5734111017163E-02  0.0000000000000E+00 -0.2862696368923E+00
-0.1298436836148E-01  0.9116541402001E-03  0.0000000000000E+00 -0.2313794143927E+00
-0.1266444575496E-01  0.3667815928067E-02  0.0000000000000E+00 -0.1749685317614E+00
-0.7999051418615E-02  0.2187536746230E-02  0.0000000000000E+00 -0.1185108763054E+00
 0.1105350422071E-02 -0.3669799881211E-02  0.0000000000000E+00 -0.6379441941233E-01
 0.1441143323360E-01 -0.1372117122980E-01  0.0000000000000E+00 -0.1276567399650E-01
 0.3126660878633E-01 -0.2736547454216E-01  0.0000000000000E+00  0.3278005681287E-01
 0.5059303278897E-01 -0.4357114508000E-01  0.0000000000000E+00  0.7157274029065E-01
 0.2050795663019E+00 -0.2442333008034E+00  0.0000000000000E+00 -0.6675542820213E+00
 0.1859701819537E+00 -0.2242572282347E+00  0.0000000000000E+00 -0.6643616242295E+00
 0.1663368239315E+00 -0.2036337965489E+00  0.0000000000000E+00 -0.6575467069226E+00
 0.1462719865569E+00 -0.1824446949011E+00  0.0000000000000E+00 -0.6468262394900E+00
 0.1259224769634E+00 -0.1608256850133E+00  0.0000000000000E+00 -0.6319549369822E+00
 0.1054968530876E+00 -0.1389736428085E+00  0.0000000000000E+00 -0.6126981899729E+00
 0.8526415400032E-01 -0.1171450530792E+00  0.0000000000000E+00 -0.5888194927803E+00
 0.6555090118616E-01 -0.9565310306711E-01  0.0000000000000E+00 -0.5600860767474E+00
 0.4673995304235E-01 -0.7486689972888E-01  0.0000000000000E+00 -0.5262892285581E+00
 0.2927185002834E-01 -0.5521342560027E-01  0.0000000000000E+00 -0.4872758371103E+00
 0.1364751700513E-01 -0.3718112622325E-01  0.0000000000000E+00 -0.4429900141660E+00
 0.4300695934560E-03 -0.2132298469164E-01  0.0000000000000E+00 -0.3935260830350E+00
-0.9757692474219E-02 -0.8255878046731E-02  0.0000000000000E+00 -0.3391960036961E+00
-0.1624543758344E-01  0.1348784065351E-02  0.0000000000000E+00 -0.2806149050316E+00
-0.1834590309160E-01  0.6791463014248E-02  0.0000000000000E+00 -0.2188066425368E+00
-0.1541843490639E-01  0.7402078097120E-02  0.0000000000000E+00 -0.1553234086012E+00
-0.6988238708297E-02  0.2651582824967E-02  0.0000000000000E+00 -0.9235058510450E-01
 0.7055999858622E-02 -0.7652776181196E-02  0.0000000000000E+00 -0.3270155475034E-01
 0.2621516458084E-01 -0.2310556575203E-01  0.0000000000000E+00  0.2047942675385E-01
 0.4923421903307E-01 -0.4252930831690E-01  0.0000000000000E+00  0.6436998025088E-01
 0.2247596683203E+00 -0.2660579011083E+00  0.0000000000000E+00 -0.6917106221521E+00
 0.2057921858376E+00 -0.2464067108568E+00  0.0000000000000E+00 -0.6922929958140E+00
 0.1861061613539E+00 -0.2259174381035E+00  0.0000000000000E+00 -0.6895018069737E+00
 0.1657764970502E+00 -0.2046519033852E+00  0.0000000000000E+00 -0.6829928156425E+00
 0.1449223861594E+00 -0.1827151230715E+00  0.0000000000000E+00 -0.6724319258834E+00
 0.1237155469682E+00 -0.1602633238713E+00  0.0000000000000E+00 -0.6574802212423E+00
 0.1023839478490E+00 -0.1375074837039E+00  0.0000000000000E+00 -0.6377844639932E+00
 0.8121451551411E-01 -0.1147159726599E+00  0.0000000000000E+00 -0.6129781777249E+00
 0.6055745497723E-01 -0.9221895872847E-01  0.0000000000000E+00 -0.5826936350905E+00
 0.4083339883906E-01 -0.7041580361389E-01  0.0000000000000E+00 -0.5465842544397E+00
 0.2254350589747E-01 -0.4978561316986E-01  0.0000000000000E+00 -0.5043582804642E+00
 0.6281816706421E-02 -0.3090036455453E-01  0.0000000000000E+00 -0.4558269763932E+00
-0.7251760467180E-02 -0.1443922153163E-01  0.0000000000000E+00 -0.4009735307810E+00
-0.1724119170962E-01 -0.1201143264934E-02  0.0000000000000E+00 -0.3400525831047E+00
-0.2275383729425E-01  0.7890407459462E-02  0.0000000000000E+00 -0.2737347747187E+00
-0.2276506122309E-01  0.1180425129110E-01  0.0000000000000E+00 -0.2033150273738E+00
-0.1624038951772E-01  0.9469826349568E-02  0.0000000000000E+00 -0.1310001261253E+00
-0.2348404121209E-02 -0.3591342619824E-04  0.0000000000000E+00 -0.6025493485417E-01
 0.1909043763061E-01 -0.1705006609710E-01  0.0000000000000E+00  0.4059137536441E-02
 0.4700971917035E-01 -0.4066600592297E-01  0.0000000000000E+00  0.5645022808541E-01
 0.2459048802591E+00 -0.2894089205948E+00  0.0000000000000E+00 -0.7131277931751E+00
 0.2274073328758E+00 -0.2704342293169E+00  0.0000000000000E+00 -0.7175067867116E+00
 0.2080246859076E+00 -0.2504635950984E+00  0.0000000000000E+00 -0.7188354252449E+00
 0.1878073991870E+00 -0.2295328385334E+00  0.0000000000000E+00 -0.7167364085960E+00
 0.1668427880733E+00 -0.2077128531091E+00  0.0000000000000E+00 -0.7108225365283E+00
 0.1452618960419E+00 -0.1851162657582E+00  0.0000000000000E+00 -0.7006860722222E+00
 0.1232448236392E+00 -0.1619025061574E+00  0.0000000000000E+00 -0.6858896575736E+00
 0.1010261882951E+00 -0.1382830134168E+00  0.0000000000000E+00 -0.6659626777463E+00
 0.7890257636158E-01 -0.1145284576711E+00  0.0000000000000E+00 -0.6404043171687E+00
 0.5724345931878E-01 -0.9097945321311E-01  0.0000000000000E+00 -0.6086939107085E+00
 0.3650670032490E-01 -0.6806189988048E-01  0.0000000000000E+00 -0.5703101095606E+00
 0.1725963794835E-01 -0.4630798584643E-01  0.0000000000000E+00 -0.5247624975616E+00
 0.2066996218799E-03 -0.2638393055468E-01  0.0000000000000E+00 -0.4716427485418E+00
-0.1377574376399E-01 -0.9125476972222E-02  0.0000000000000E+00 -0.4107080553707E+00
-0.2359781401705E-01  0.4418677779191E-02  0.0000000000000E+00 -0.3420192841284E+00
-0.2791258589501E-01  0.1293858840174E-01  0.0000000000000E+00 -0.2661738424839E+00
-0.2508970365838E-01  0.1482424196338E-01  0.0000000000000E+00 -0.1847051958156E+00
-0.1326613014192E-01  0.8186216565947E-02  0.0000000000000E+00 -0.1007745098855E+00
 0.9277201055052E-02 -0.8868994871304E-02  0.0000000000000E+00 -0.2032416176908E-01
 0.4289315395899E-01 -0.3707074464967E-01  0.0000000000000E+00  0.4715140302349E-01
 0.2684051252052E+00 -0.3141615725731E+00  0.0000000000000E+00 -0.7311978095388E+00
 0.2507119534678E+00 -0.2962197750750E+00  0.0000000000000E+00 -0.7392411962648E+00
 0.2320072368048E+00 -0.2771697966052E+00  0.0000000000000E+00 -0.7446146341378E+00
 0.2123172694792E+00 -0.2570226094601E+00  0.0000000000000E+00 -0.7469308635109E+00
 0.1916986882153E+00 -0.2358172886786E+00  0.0000000000000E+00 -0.7457819188581E+00
 0.1702435529911E+00 -0.2136258039341E+00  0.0000000000000E+00 -0.7407290742067E+00
 0.1480844012816E+00 -0.1905576937601E+00  0.0000000000000E+00 -0.7312929000657E+00
 0.1254000915900E+00 -0.1667654511220E+00  0.0000000000000E+00 -0.7169454469173E+00
 0.1024237692328E+00 -0.1424519427760E+00  0.0000000000000E+00 -0.6971052643278E+00
 0.7945443192476E-01 -0.1178813071106E+00  0.0000000000000E+00 -0.6711355113947E+00
 0.5687377353863E-01 -0.9339495758870E-01  0.0000000000000E+00 -0.6383458540418E+00
 0.3517048544841E-01 -0.6943480122277E-01  0.0000000000000E+00 -0.5980001752303E+00
 0.1497517344264E-01 -0.4657674060233E-01  0.0000000000000E+00 -0.5493346629693E+00
-0.2889281934861E-02 -0.2557918789344E-01  0.0000000000000E+00 -0.4915955816670E+00
-0.1733437674605E-01 -0.7454062281750E-02  0.0000000000000E+00 -0.4241154327594E+00
-0.2689799189281E-01  0.6427862636357E-02  0.0000000000000E+00 -0.3464661717660E+00
-0.2958431095288E-01  0.1417863297879E-01  0.0000000000000E+00 -0.2587751114633E+00
-0.2263523873439E-01  0.1315790731700E-01  0.0000000000000E+00 -0.1624057470662E+00
-0.2246983787983E-02 -0.3535723701296E-03  0.0000000000000E+00 -0.6159181696072E-01
 0.3586787800790E-01 -0.3105068080501E-01  0.0000000000000E+00  0.3231511556901E-01
 0.2920899657483E+00 -0.3401278953985E+00  0.0000000000000E+00 -0.7453471201007E+00
 0.2755226189541E+00 -0.3235597163595E+00  0.0000000000000E+00 -0.7567590762500E+00
 0.2578636877229E+00 -0.3058231842263E+00  0.0000000000000E+00 -0.7659048005814E+00
 0.2391210954500E+00 -0.2869112649862E+00  0.0000000000000E+00 -0.7724038244672E+00
 0.2193276759097E+00 -0.2668394270144E+00  0.0000000000000E+00 -0.7758516674085E+00
 0.1985450326664E+00 -0.2456491331689E+00  0.0000000000000E+00 -0.7758097638384E+00
 0.1768678510551E+00 -0.2234116734944E+00  0.0000000000000E+00 -0.7717953479741E+00
 0.1544291138578E+00 -0.2002327743374E+00  0.0000000000000E+00 -0.7632717355521E+00
 0.1314071605838E+00 -0.1762588845086E+00  0.0000000000000E+00 -0.7496388371413E+00
 0.1080358450281E+00 -0.1516863255057E+00  0.0000000000000E+00 -0.7302232921969E+00
 0.8461947177270E-01 -0.1267748777079E+00  0.0000000000000E+00 -0.7042674603919E+00
 0.6155498386345E-01 -0.1018681012729E+00  0.0000000000000E+00 -0.6709166450313E+00
 0.3936535684484E-01 -0.7742406166802E-01  0.0000000000000E+00 -0.6292044237173E+00
 0.1875091611022E-01 -0.5406268188350E-01  0.0000000000000E+00 -0.5780371583412E+00
 0.6705655160388E-03 -0.3264080156126E-01  0.0000000000000E+00 -0.5161816104597E+00
-0.1352443872121E-01 -0.1437577860352E-01  0.0000000000000E+00 -0.4422669605301E+00
-0.2185815050932E-01 -0.1059669996306E-02  0.0000000000000E+00 -0.3548321295850E+00
-0.2129645155556E-01  0.4542119555701E-02  0.0000000000000E+00 -0.2525172249746E+00
-0.6837064195274E-02 -0.2133253409982E-02  0.0000000000000E+00 -0.1346991436066E+00
 0.3078436424994E-01 -0.2957841813393E-01  0.0000000000000E+00 -0.4849840072214E-02
 0.3167305843435E+00 -0.3670589144049E+00  0.0000000000000E+00 -0.7550690517592E+00
 0.3015753814177E+00 -0.3521663014597E+00  0.0000000000000E+00 -0.7693963550672E+00
 0.2852940627583E+00 -0.3360959552711E+00  0.0000000000000E+00 -0.7818419936022E+00
 0.2678840257110E+00 -0.3188318061165E+00  0.0000000000000E+00 -0.7920390629661E+00
 0.2493637396237E+00 -0.3003766015306E+00  0.0000000000000E+00 -0.7995963568904E+00
 0.2297764533162E+00 -0.2807552200328E+00  0.0000000000000E+00 -0.8040887307312E+00
 0.2091943819715E+00 -0.2600183678442E+00  0.0000000000000E+00 -0.8050478282233E+00
 0.1877237624764E+00 -0.2382470145249E+00  0.0000000000000E+00 -0.8019527196986E+00
 0.1655114863293E+00 -0.2155582281084E+00  0.0000000000000E+00 -0.7942197297300E+00
 0.1427543064080E+00 -0.1921133301053E+00  0.0000000000000E+00 -0.7811902659114E+00
 0.1197120220778E+00 -0.1681296550393E+00  0.0000000000000E+00 -0.7621148645138E+00
 0.9672676445918E-01 -0.1438978425284E+00  0.0000000000000E+00 -0.7361307975131E+00
 0.7425181383758E-01 -0.1198077668643E+00  0.0000000000000E+00 -0.7022291149423E+00
 0.5289581754824E-01 -0.9638838988927E-01  0.0000000000000E+00 -0.6592042960867E+00
 0.3349298303899E-01 -0.7437099811447E-01  0.0000000000000E+00 -0.6055744286859E+00
 0.1721956631877E-01 -0.5479379138910E-01  0.0000000000000E+00 -0.5394488307571E+00
 0.5798563440591E-02 -0.3918446970002E-01  0.0000000000000E+00 -0.4582953017203E+00
 0.1894108166409E-02 -0.2990546336560E-01  0.0000000000000E+00 -0.3584912197409E+00
 0.9950617085829E-02 -0.3087998070241E-01  0.0000000000000E+00 -0.2343550905951E+00
 0.3893684989774E-01 -0.4966320580587E-01  0.0000000000000E+00 -0.7500875521310E-01
 0.3420481369552E+00 -0.3946534753897E+00  0.0000000000000E+00 -0.7599560582384E+00
 0.3285359715582E+00 -0.3816784636116E+00  0.0000000000000E+00 -0.7766123922435E+00
 0.3139002045872E+00 -0.3675577984480E+00  0.0000000000000E+00 -0.7917130847633E+00
 0.2981332403894E+00 -0.3522729637823E+00  0.0000000000000E+00 -0.8049004015202E+00
 0.2812457420622E+00 -0.3358218721697E+00  0.0000000000000E+00 -0.8157893226645E+00
 0.2632708310980E+00 -0.3182227211991E+00  0.0000000000000E+00 -0.8239577629888E+00
 0.2442686009581E+00 -0.2995181075496E+00  0.0000000000000E+00 -0.8289370803772E+00
 0.2243313624718E+00 -0.2797797874881E+00  0.0000000000000E+00 -0.8302019414338E+00
 0.2035901651095E+00 -0.2591145927541E+00  0.0000000000000E+00 -0.8271583900939E+00
 0.1822232864809E+00 -0.2376721445090E+00  0.0000000000000E+00 -0.8191284188038E+00
 0.1604675953543E+00 -0.2156551964748E+00  0.0000000000000E+00 -0.8053284289484E+00
 0.1386340366941E+00 -0.1933337412743E+00  0.0000000000000E+00 -0.7848374305540E+00
 0.1171290444007E+00 -0.1710645037169E+00  0.0000000000000E+00 -0.7565481105873E+00
 0.9648457717869E-01 -0.1493182155931E+00  0.0000000000000E+00 -0.7190888356179E+00
 0.7740086590895E-01 -0.1287182441083E+00  0.0000000000000E+00 -0.6706947261489E+00
 0.6080797173677E-01 -0.1100957748563E+00  0.0000000000000E+00 -0.6089851168310E+00
 0.4795504200051E-01 -0.9456859715454E-01  0.0000000000000E+00 -0.5305573544774E+00
 0.4053219782458E-01 -0.8364721008594E-01  0.0000000000000E+00 -0.4301831810330E+00
 0.4082328222258E-01 -0.7935182947028E-01  0.0000000000000E+00 -0.2990276752819E+00
 0.5117593890247E-01 -0.8384962027083E-01  0.0000000000000E+00 -0.1194330988875E+00
 0.3677282724241E+00 -0.4225733965077E+00  0.0000000000000E+00 -0.7597229962285E+00
 0.3560217002256E+00 -0.4116845178713E+00  0.0000000000000E+00 -0.7780297841257E+00
 0.3432180549259E+00 -0.3997092949206E+00  0.0000000000000E+00 -0.7950249685740E+00
 0.3293055133019E+00 -0.3866283735193E+00  0.0000000000000E+00 -0.8103499754750E+00
 0.3142874059970E+00 -0.3724363204017E+00  0.0000000000000E+00 -0.8236108582437E+00
 0.2981867089784E+00 -0.3571458759276E+00  0.0000000000000E+00 -0.8343673405051E+00
 0.2810504697950E+00 -0.3407921329723E+00  0.0000000000000E+00 -0.8421213474222E+00
 0.2629545251984E+00 -0.3234369863404E+00  0.0000000000000E+00 -0.8463038072363E+00
 0.2440088016147E+00 -0.3051741344718E+00  0.0000000000000E+00 -0.8462581962416E+00
 0.2243634250603E+00 -0.2861348526439E+00  0.0000000000000E+00 -0.8412186669340E+00
 0.2042157645967E+00 -0.2664946582644E+00  0.0000000000000E+00 -0.8302795494144E+00
 0.1838183319300E+00 -0.2464807985674E+00  0.0000000000000E+00 -0.8123513113438E+00
 0.1634870188968E+00 -0.2263800797084E+00  0.0000000000000E+00 -0.7860952309329E+00
 0.1436081374415E+00 -0.2065456212067E+00  0.0000000000000E+00 -0.7498241901940E+00
 0.1246403037388E+00 -0.1873989152986E+00  0.0000000000000E+00 -0.7013483891089E+00
 0.1071011669559E+00 -0.1694181797561E+00  0.0000000000000E+00 -0.6377290879915E+00
 0.9151270827262E-01 -0.1530897507665E+00  0.0000000000000E+00 -0.5548732219295E+00
 0.7823183932120E-01 -0.1387592123663E+00  0.0000000000000E+00 -0.4468502860989E+00
 0.6691871671954E-01 -0.1261786043515E+00  0.0000000000000E+00 -0.3046987906656E+00
 0.5463880954588E-01 -0.1129977330691E+00  0.0000000000000E+00 -0.1153631336956E+00
 0.3934378996537E+00 -0.4504608448415E+00  0.0000000000000E+00 -0.7542121653889E+00
 0.3836272904874E+00 -0.4417487618820E+00  0.0000000000000E+00 -0.7734433308368E+00
 0.3727567630409E+00 -0.4320221157884E+00  0.0000000000000E+00 -0.7915206808297E+00
 0.3608065922401E+00 -0.4212575933663E+00  0.0000000000000E+00 -0.8080764239170E+00
 0.3477678912692E+00 -0.4094421561908E+00  0.0000000000000E+00 -0.8226959554615E+00
 0.3336467369131E+00 -0.3965770468761E+00  0.0000000000000E+00 -0.8349057280277E+00
 0.3184676872767E+00 -0.3826812223255E+00  0.0000000000000E+00 -0.8441597592433E+00
 0.3022769021410E+00 -0.3677944289427E+00  0.0000000000000E+00 -0.8498236168875E+00
 0.2851448454122E+00 -0.3519799133351E+00  0.0000000000000E+00 -0.8511544280479E+00
 0.2671682795352E+00 -0.3353265065948E+00  0.0000000000000E+00 -0.8472749365021E+00
 0.2484708747952E+00 -0.3179494604214E+00  0.0000000000000E+00 -0.8371388465644E+00
 0.2292011178180E+00 -0.2999888217575E+00  0.0000000000000E+00 -0.8194835648480E+00
 0.2095250617529E+00 -0.2816030835646E+00  0.0000000000000E+00 -0.7927648607054E+00
 0.1896093197996E+00 -0.2629538950081E+00  0.0000000000000E+00 -0.7550658148761E+00
 0.1695854965919E+00 -0.2441738213202E+00  0.0000000000000E+00 -0.7039699179597E+00
 0.1494787350805E+00 -0.2253014911779E+00  0.0000000000000E+00 -0.6363866348398E+00
 0.1290646726221E+00 -0.2061524411188E+00  0.0000000000000E+00 -0.5483245285384E+00
 0.1075818804611E+00 -0.1860602933148E+00  0.0000000000000E+00 -0.4346456600970E+00
 0.8313629808627E-01 -0.1633527453275E+00  0.0000000000000E+00 -0.2890797721217E+00
 0.5201042703142E-01 -0.1345820319073E+00  0.0000000000000E+00 -0.1056424412111E+00
 0.4188401097730E+00 -0.4779538126600E+00  0.0000000000000E+00 -0.7433841376522E+00
 0.4109468240255E+00 -0.4714341346446E+00  0.0000000000000E+00 -0.7628041017993E+00
 0.4020302958449E+00 -0.4639716045528E+00  0.0000000000000E+00 -0.7811511343053E+00
 0.3920564033076E+00 -0.4555327055251E+00  0.0000000000000E+00 -0.7980447430024E+00
 0.3809961717670E+00 -0.4460891642924E+00  0.0000000000000E+00 -0.8130456258269E+00
 0.3688288426182E+00 -0.4356210027270E+00  0.0000000000000E+00 -0.8256432594913E+00
 0.3555437915680E+00 -0.4241185086846E+00  0.0000000000000E+00 -0.8352415600675E+00
 0.3411413690174E+00 -0.4115832142465E+00  0.0000000000000E+00 -0.8411419023549E+00
 0.3256323742369E+00 -0.3980276136005E+00  0.0000000000000E+00 -0.8425225846339E+00
 0.3090354942204E+00 -0.3834730011211E+00  0.0000000000000E+00 -0.8384135363547E+00
 0.2913715323936E+00 -0.3679443355856E+00  0.0000000000000E+00 -0.8276647973145E+00
 0.2726524812807E+00 -0.3514603188758E+00  0.0000000000000E+00 -0.8089071102122E+00
 0.2528622651981E+00 -0.3340157384680E+00  0.0000000000000E+00 -0.7805030889845E+00
 0.2319239705894E+00 -0.3155512711017E+00  0.0000000000000E+00 -0.7404884448113E+00
 0.2096451265107E+00 -0.2959029302253E+00  0.0000000000000E+00 -0.6865061626006E+00
 0.1856273959705E+00 -0.2747185835027E+00  0.0000000000000E+00 -0.6157462794483E+00
 0.1591209575132E+00 -0.2513227177321E+00  0.0000000000000E+00 -0.5249296866277E+00
 0.1287997555965E+00 -0.2245071635508E+00  0.0000000000000E+00 -0.4104439767345E+00
 0.9251703507662E-01 -0.1922736798037E+00  0.0000000000000E+00 -0.2688937488460E+00
 0.4724134565352E-01 -0.1517416947846E+00  0.0000000000000E+00 -0.9812282269891E-01
 0.4436059444370E+00 -0.5046984118196E+00  0.0000000000000E+00 -0.7273033982060E+00
 0.4375900868649E+00 -0.5003192505864E+00  0.0000000000000E+00 -0.7461971529972E+00
 0.4305794457947E+00 -0.4950596993667E+00  0.0000000000000E+00 -0.7640398761305E+00
 0.4225180570435E+00 -0.4888685819828E+00  0.0000000000000E+00 -0.7804405057910E+00
 0.4133484944060E+00 -0.4816939329060E+00  0.0000000000000E+00 -0.7949394192452E+00
 0.4030132977533E+00 -0.4734844720534E+00  0.0000000000000E+00 -0.8069969075080E+00
 0.3914549819490E+00 -0.4641897783661E+00  0.0000000000000E+00 -0.8159794964776E+00
 0.3786145449578E+00 -0.4537590486262E+00  0.0000000000000E+00 -0.8211442301330E+00
 0.3644280112580E+00 -0.4421380162231E+00  0.0000000000000E+00 -0.8216207170957E+00
 0.3488202163194E+00 -0.4292632824744E+00  0.0000000000000E+00 -0.8163907558355E+00
 0.3316945918675E+00 -0.4150528928255E+00  0.0000000000000E+00 -0.8042655907943E+00
 0.3129171124064E+00 -0.3993914228644E+00  0.0000000000000E+00 -0.7838614684743E+00
 0.2922917583531E+00 -0.3821070758368E+00  0.0000000000000E+00 -0.7535755185796E+00
 0.2695238504595E+00 -0.3629373278049E+00  0.0000000000000E+00 -0.7115668134432E+00
 0.2441666087401E+00 -0.3414786596116E+00  0.0000000000000E+00 -0.6557531950693E+00
 0.2155464315882E+00 -0.3171157308092E+00  0.0000000000000E+00 -0.5838457019977E+00
 0.1826663475174E+00 -0.2889287067823E+00  0.0000000000000E+00 -0.4934627805407E+00
 0.1441100109208E+00 -0.2555943590267E+00  0.0000000000000E+00 -0.3823956251437E+00
 0.9800605553568E-01 -0.2153410455144E+00  0.0000000000000E+00 -0.2490535654305E+00
 0.4211255309658E-01 -0.1660216607562E+00  0.0000000000000E+00 -0.9299485406279E-01
 0.4674232261169E+00 -0.5303581556663E+00  0.0000000000000E+00 -0.7061216510701E+00
 0.4631939125112E+00 -0.5280103028396E+00  0.0000000000000E+00 -0.7238173391828E+00
 0.4579855142627E+00 -0.5248293689343E+00  0.0000000000000E+00 -0.7404464173191E+00
 0.4517137755517E+00 -0.5207398813969E+00  0.0000000000000E+00 -0.7556141087116E+00
 0.4442859837490E+00 -0.5156589379671E+00  0.0000000000000E+00 -0.7688520533527E+00
 0.4356004547693E+00 -0.5094958958207E+00  0.0000000000000E+00 -0.7796080835517E+00
 0.4255448029996E+00 -0.5021508495005E+00  0.0000000000000E+00 -0.7872344935492E+00
 0.4139925815184E+00 -0.4935115659406E+00  0.0000000000000E+00 -0.7909753118803E+00
 0.4007978409664E+00 -0.4834484434733E+00  0.0000000000000E+00 -0.7899530239488E+00
 0.3857869241842E+00 -0.4718068468986E+00  0.0000000000000E+00 -0.7831554503474E+00
 0.3687465527718E+00 -0.4583959155405E+00  0.0000000000000E+00 -0.7694240368969E+00
 0.3494069841002E+00 -0.4429726678105E+00  0.0000000000000E+00 -0.7474457977786E+00
 0.3274188094055E+00 -0.4252200048488E+00  0.0000000000000E+00 -0.7157528387427E+00
 0.3023220383153E+00 -0.4047172381264E+00  0.0000000000000E+00 -0.6727361807490E+00
 0.2735070397181E+00 -0.3809025103536E+00  0.0000000000000E+00 -0.6166849899033E+00
 0.2401697704528E+00 -0.3530290157858E+00  0.0000000000000E+00 -0.5458682356921E+00
 0.2012714560688E+00 -0.3201234952459E+00  0.0000000000000E+00 -0.4586808437957E+00
 0.1555246257822E+00 -0.2809682393878E+00  0.0000000000000E+00 -0.3538637780958E+00
 0.1014329331802E+00 -0.2341341276723E+00  0.0000000000000E+00 -0.2307700255896E+00
 0.3740633255863E-01 -0.1780861938426E+00  0.0000000000000E+00 -0.8960971822699E-01
 0.4900023914002E+00 -0.5546203005569E+00  0.0000000000000E+00 -0.6800634256916E+00
 0.4874282104708E+00 -0.5541477782218E+00  0.0000000000000E+00 -0.6959497839075E+00
 0.4838757743918E+00 -0.5528712975498E+00  0.0000000000000E+00 -0.7107358944757E+00
 0.4792287480537E+00 -0.5506866705339E+00  0.0000000000000E+00 -0.7240342239218E+00
 0.4733549322194E+00 -0.5474752574804E+00  0.0000000000000E+00 -0.7353838647733E+00
 0.4661044136324E+00 -0.5431022835715E+00  0.0000000000000E+00 -0.7442419128842E+00
 0.4573065333833E+00 -0.5374140291697E+00  0.0000000000000E+00 -0.7499744444094E+00
 0.4467654074502E+00 -0.5302336225422E+00  0.0000000000000E+00 -0.7518476090090E+00
 0.4342536689439E+00 -0.5213551245818E+00  0.0000000000000E+00 -0.7490197012604E+00
 0.4195040298540E+00 -0.5105355135096E+00  0.0000000000000E+00 -0.7405354605236E+00
 0.4021981945815E+00 -0.4974841079262E+00  0.0000000000000E+00 -0.7253244719545E+00
 0.3819526832902E+00 -0.4818489753099E+00  0.0000000000000E+00 -0.7022064595933E+00
 0.3583013638621E+00 -0.4632000755866E+00  0.0000000000000E+00 -0.6699075419663E+00
 0.3306751893616E+00 -0.4410095038160E+00  0.0000000000000E+00 -0.6270931377572E+00
 0.2983811743208E+00 -0.4146305990314E+00  0.0000000000000E+00 -0.5724247696347E+00
 0.2605856218677E+00 -0.3832804050450E+00  0.0000000000000E+00 -0.5046482006494E+00
 0.2163107173694E+00 -0.3460342242602E+00  0.0000000000000E+00 -0.4227149654040E+00
 0.1644562869362E+00 -0.3018439568434E+00  0.0000000000000E+00 -0.3259255406483E+00
 0.1038566475272E+00 -0.2495906064513E+00  0.0000000000000E+00 -0.2140634811186E+00
 0.3337412893374E-01 -0.1881738783409E+00  0.0000000000000E+00 -0.8747182734029E-01
 0.5110779986002E+00 -0.5771980350697E+00  0.0000000000000E+00 -0.6494160872946E+00
 0.5099952806220E+00 -0.5784075629312E+00  0.0000000000000E+00 -0.6629561314091E+00
 0.5079212199918E+00 -0.5788239596906E+00  0.0000000000000E+00 -0.6753596576967E+00
 0.5047059064482E+00 -0.5783122065285E+00  0.0000000000000E+00 -0.6862603276894E+00
 0.5001765333865E+00 -0.5767160477041E+00  0.0000000000000E+00 -0.6952228584631E+00
 0.4941346905803E+00 -0.5738554307913E+00  0.0000000000000E+00 -0.7017366758348E+00
 0.4863526211693E+00 -0.5695229458889E+00  0.0000000000000E+00 -0.7052098278329E+00
 0.4765683750741E+00 -0.5634791908905E+00  0.0000000000000E+00 -0.7049638701193E+00
 0.4644797653443E+00 -0.5554469640495E+00  0.0000000000000E+00 -0.7002307236492E+00
 0.4497370572166E+00 -0.5451042060019E+00  0.0000000000000E+00 -0.6901529090507E+00
 0.4319344045075E+00 -0.5320756853340E+00  0.0000000000000E+00 -0.6737890689878E+00
 0.4106002501174E+00 -0.5159236029193E+00  0.0000000000000E+00 -0.6501272908786E+00
 0.3851873238623E+00 -0.4961376704613E+00  0.0000000000000E+00 -0.6181093364558E+00
 0.3550636227300E+00 -0.4721259210027E+00  0.0000000000000E+00 -0.5766691913240E+00
 0.3195069604106E+00 -0.4432086483961E+00  0.0000000000000E+00 -0.5247887485046E+00
 0.2777071563501E+00 -0.4086193912615E+00  0.0000000000000E+00 -0.4615706833975E+00
 0.2287809020987E+00 -0.3675179674526E+00  0.0000000000000E+00 -0.3863226520872E+00
 0.1718035091298E+00 -0.3190200221899E+00  0.0000000000000E+00 -0.2986384901832E+00
 0.1058579336862E+00 -0.2622441103927E+00  0.0000000000000E+00 -0.1984540546680E+00
 0.3009407508093E-01 -0.1963704170364E+00  0.0000000000000E+00 -0.8605274015979E-01
 0.5304125367935E+00 -0.5978344990746E+00  0.0000000000000E+00 -0.6145106390303E+00
 0.5306335614063E+00 -0.6005043722842E+00  0.0000000000000E+00 -0.6252450260849E+00
 0.5298391428809E+00 -0.6023757681291E+00  0.0000000000000E+00 -0.6348162502932E+00
 0.5278464843178E+00 -0.6032828409747E+00  0.0000000000000E+00 -0.6428936117251E+00
 0.5244439185663E+00 -0.6030326635658E+00  0.0000000000000E+00 -0.6490854824571E+00
 0.5193876714813E+00 -0.6014021157498E+00  0.0000000000000E+00 -0.6529354031767E+00
 0.5123978868794E+00 -0.5981340432474E+00  0.0000000000000E+00 -0.6539187796126E+00
 0.5031539897066E+00 -0.5929327548734E+00  0.0000000000000E+00 -0.6514409174285E+00
 0.4912895230795E+00 -0.5854589792983E+00  0.0000000000000E+00 -0.6448373336883E+00
 0.4763866922900E+00 -0.5753244928371E+00  0.0000000000000E+00 -0.6333775746568E+00
 0.4579710050604E+00 -0.5620867753717E+00  0.0000000000000E+00 -0.6162740890920E+00
 0.4355066408639E+00 -0.5452442796380E+00  0.0000000000000E+00 -0.5926979630857E+00
 0.4083935425811E+00 -0.5242332429129E+00  0.0000000000000E+00 -0.5618033567284E+00
 0.3759677037939E+00 -0.4984274382195E+00  0.0000000000000E+00 -0.5227620096208E+00
 0.3375066211844E+00 -0.4671427794112E+00  0.0000000000000E+00 -0.4748077603493E+00
 0.2922420899893E+00 -0.4296489683253E+00  0.0000000000000E+00 -0.4172882898837E+00
 0.2393819488163E+00 -0.3851899316921E+00  0.0000000000000E+00 -0.3497174257995E+00
 0.1781405573055E+00 -0.3330131256482E+00  0.0000000000000E+00 -0.2718175324986E+00
 0.1077746290871E+00 -0.2724047525611E+00  0.0000000000000E+00 -0.1835400470793E+00
 0.2761737701017E-01 -0.2027241508351E+00  0.0000000000000E+00 -0.8505617636083E-01
 0.5477966504219E+00 -0.6163032345617E+00  0.0000000000000E+00 -0.5757109002123E+00
 0.5491167181802E+00 -0.6201910195950E+00  0.0000000000000E+00 -0.5832569930980E+00
 0.5493898932593E+00 -0.6232619110814E+00  0.0000000000000E+00 -0.5896313857902E+00
 0.5484033309414E+00 -0.6253213368198E+00  0.0000000000000E+00 -0.5945522127473E+00
 0.5459107423072E+00 -0.6261431141314E+00  0.0000000000000E+00 -0.5976875440870E+00
 0.5416289109999E+00 -0.6254660626598E+00  0.0000000000000E+00 -0.5986537073502E+00
 0.5352337982239E+00 -0.6229901973781E+00  0.0000000000000E+00 -0.5970142981135E+00
 0.5263564151105E+00 -0.6183726656942E+00  0.0000000000000E+00 -0.5922804473296E+00
 0.5145787671302E+00 -0.6112237140034E+00  0.0000000000000E+00 -0.5839130111787E+00
 0.4994303242679E+00 -0.6011031115631E+00  0.0000000000000E+00 -0.5713275246885E+00
 0.4803856419175E+00 -0.5875176235857E+00  0.0000000000000E+00 -0.5539029165065E+00
 0.4568639547495E+00 -0.5699203169609E+00  0.0000000000000E+00 -0.5309950170954E+00
 0.4282317713725E+00 -0.5477126875188E+00  0.0000000000000E+00 -0.5019556774604E+00
 0.3938096440817E+00 -0.5202507599944E+00  0.0000000000000E+00 -0.4661576883630E+00
 0.3528842304961E+00 -0.4868562934405E+00  0.0000000000000E+00 -0.4230245227769E+00
 0.3047262874593E+00 -0.4468338166714E+00  0.0000000000000E+00 -0.3720622706849E+00
 0.2486141490922E+00 -0.3994932082263E+00  0.0000000000000E+00 -0.3128894095505E+00
 0.1838605569523E+00 -0.3441759052198E+00  0.0000000000000E+00 -0.2452590868517E+00
 0.1098388772185E+00 -0.2802809499334E+00  0.0000000000000E+00 -0.1690694605150E+00
 0.2600377762035E-01 -0.2072859286862E+00  0.0000000000000E+00 -0.8436096765483E-01
 0.5630477925299E+00 -0.6324070747892E+00  0.0000000000000E+00 -0.5334066572034E+00
 0.5652504476451E+00 -0.6372555460636E+00  0.0000000000000E+00 -0.5374564116374E+00
 0.5663711162483E+00 -0.6412589452894E+00  0.0000000000000E+00 -0.5403485263243E+00
 0.5661716063680E+00 -0.6441979238233E+00  0.0000000000000E+00 -0.5418607883157E+00
 0.5643772695863E+00 -0.6458184844648E+00  0.0000000000000E+00 -0.5417337563151E+00
 0.5606734844143E+00 -0.6458285398568E+00  0.0000000000000E+00 -0.5396709098587E+00
 0.5547020053994E+00 -0.6438943161714E+00  0.0000000000000E+00 -0.5353394296747E+00
 0.5460573741664E+00 -0.6396367825830E+00  0.0000000000000E+00 -0.5283718338675E+00
 0.5342837940894E+00 -0.6326284885480E+00  0.0000000000000E+00 -0.5183686907675E+00
 0.5188730556269E+00 -0.6223913717530E+00  0.0000000000000E+00 -0.5049027394467E+00
 0.4992642578836E+00 -0.6083962545846E+00  0.0000000000000E+00 -0.4875248311308E+00
 0.4748461994991E+00 -0.5900648742715E+00  0.0000000000000E+00 -0.4657720767626E+00
 0.4449633767954E+00 -0.5667753647087E+00  0.0000000000000E+00 -0.4391783952864E+00
 0.4089264561744E+00 -0.5378720572950E+00  0.0000000000000E+00 -0.4072872866513E+00
 0.3660277688903E+00 -0.5026801856674E+00  0.0000000000000E+00 -0.3696661620289E+00
 0.3155616919401E+00 -0.4605254425436E+00  0.0000000000000E+00 -0.3259211275122E+00
 0.2568486860692E+00 -0.4107572909302E+00  0.0000000000000E+00 -0.2757110021127E+00
 0.1892604214226E+00 -0.3527736053409E+00  0.0000000000000E+00 -0.2187597521378E+00
 0.1122423246543E+00 -0.2860430674586E+00  0.0000000000000E+00 -0.1548673391700E+00
 0.2532972076280E-01 -0.2101214807092E+00  0.0000000000000E+00 -0.8391966818913E-01
 0.5760086992607E+00 -0.6459768443425E+00  0.0000000000000E+00 -0.4880089683175E+00
 0.5788691947013E+00 -0.6515181966782E+00  0.0000000000000E+00 -0.4883267823851E+00
 0.5806121342321E+00 -0.6561794759167E+00  0.0000000000000E+00 -0.4875244803659E+00
 0.5809801453058E+00 -0.6597219733411E+00  0.0000000000000E+00 -0.4854471979902E+00
 0.5796779508216E+00 -0.6618708027192E+00  0.0000000000000E+00 -0.4819167403644E+00
 0.5763690192777E+00 -0.6623116170034E+00  0.0000000000000E+00 -0.4767330944686E+00
 0.5706722273621E+00 -0.6606873113473E+00  0.0000000000000E+00 -0.4696766047929E+00
 0.5621586380891E+00 -0.6565948029062E+00  0.0000000000000E+00 -0.4605104703452E+00
 0.5503488286793E+00 -0.6495823061540E+00  0.0000000000000E+00 -0.4489831804029E+00
 0.5347114300851E+00 -0.6391477480191E+00  0.0000000000000E+00 -0.4348306535087E+00
 0.5146636775944E+00 -0.6247391012647E+00  0.0000000000000E+00 -0.4177779588408E+00
 0.4895748427598E+00 -0.6057574855304E+00  0.0000000000000E+00 -0.3975405196578E+00
 0.4587734120005E+00 -0.5815638860194E+00  0.0000000000000E+00 -0.3738246588252E+00
 0.4215587497190E+00 -0.5514902257151E+00  0.0000000000000E+00 -0.3463273390280E+00
 0.3772176693137E+00 -0.5148552310120E+00  0.0000000000000E+00 -0.3147351199643E+00
 0.3250457713487E+00 -0.4709849930724E+00  0.0000000000000E+00 -0.2787228999562E+00
 0.2643725531545E+00 -0.4192373033396E+00  0.0000000000000E+00 -0.2379540607602E+00
 0.1945881655285E+00 -0.3590277531015E+00  0.0000000000000E+00 -0.1920849860335E+00
 0.1151684738253E+00 -0.2898543968333E+00  0.0000000000000E+00 -0.1407776708902E+00
 0.2569432731867E-01 -0.2113169769852E+00  0.0000000000000E+00 -0.8372290301233E-01
 0.5865458619486E+00 -0.6568699976667E+00  0.0000000000000E+00 -0.4399479657605E+00
 0.5898330233047E+00 -0.6628285087876E+00  0.0000000000000E+00 -0.4363694698673E+00
 0.5919688344729E+00 -0.6678673054311E+00  0.0000000000000E+00 -0.4317296687577E+00
 0.5926838853581E+00 -0.6717347229081E+00  0.0000000000000E+00 -0.4259453308411E+00
 0.5916708433938E+00 -0.6741427736747E+00  0.0000000000000E+00 -0.4189238046545E+00
 0.5885815820699E+00 -0.6747643500829E+00  0.0000000000000E+00 -0.4105654840497E+00
 0.5830242324049E+00 -0.6732303226288E+00  0.0000000000000E+00 -0.4007674217003E+00
 0.5745600424748E+00 -0.6691264096717E+00  0.0000000000000E+00 -0.3894267830261E+00
 0.5627005002102E+00 -0.6619902722906E+00  0.0000000000000E+00 -0.3764429520274E+00
 0.5469054539201E+00 -0.6513095608283E+00  0.0000000000000E+00 -0.3617174878394E+00
 0.5265830602192E+00 -0.6365217295539E+00  0.0000000000000E+00 -0.3451513814407E+00
 0.5010924106590E+00 -0.6170164515556E+00  0.0000000000000E+00 -0.3266391517925E+00
 0.4697496801531E+00 -0.5921414562498E+00  0.0000000000000E+00 -0.3060593854210E+00
 0.4318385914057E+00 -0.5612125622822E+00  0.0000000000000E+00 -0.2832615508046E+00
 0.3866258619914E+00 -0.5235285525445E+00  0.0000000000000E+00 -0.2580494992795E+00
 0.3333820790974E+00 -0.4783913056985E+00  0.0000000000000E+00 -0.2301631651426E+00
 0.2714080692421E+00 -0.4251312347151E+00  0.0000000000000E+00 -0.1992618443778E+00
 0.2000660483931E+00 -0.3631373600229E+00  0.0000000000000E+00 -0.1649150657955E+00
 0.1188132024853E+00 -0.2918898730648E+00  0.0000000000000E+00 -0.1266095625374E+00
 0.2723272540006E-01 -0.2109906109163E+00  0.0000000000000E+00 -0.8378051429823E-01
 0.5945483349230E+00 -0.6649695693136E+00  0.0000000000000E+00 -0.3896723670866E+00
 0.5980251655509E+00 -0.6710630676937E+00  0.0000000000000E+00 -0.3821043241318E+00
 0.6003197766102E+00 -0.6761938213987E+00  0.0000000000000E+00 -0.3735506598998E+00
 0.6011582231549E+00 -0.6801039896507E+00  0.0000000000000E+00 -0.3640009011575E+00
 0.6002297693783E+00 -0.6825003648512E+00  0.0000000000000E+00 -0.3534475710927E+00
 0.5971851769395E+00 -0.6830527750589E+00  0.0000000000000E+00 -0.3418894742160E+00
 0.5916343329603E+00 -0.6813917702510E+00  0.0000000000000E+00 -0.3293375722733E+00
 0.5831428386945E+00 -0.6771052407922E+00  0.0000000000000E+00 -0.3158202866258E+00
 0.5712281765915E+00 -0.6697346037083E+00  0.0000000000000E+00 -0.3013859884827E+00
 0.5553563484052E+00 -0.6587714606060E+00  0.0000000000000E+00 -0.2861014418052E+00
 0.5349398381139E+00 -0.6436555724298E+00  0.0000000000000E+00 -0.2700454365427E+00
 0.5093376846346E+00 -0.6237749179571E+00  0.0000000000000E+00 -0.2532969071367E+00
 0.4778584655435E+00 -0.5984686069669E+00  0.0000000000000E+00 -0.2359167976033E+00
 0.4397671013796E+00 -0.5670335169872E+00  0.0000000000000E+00 -0.2179231140468E+00
 0.3942965625148E+00 -0.5287356744573E+00  0.0000000000000E+00 -0.1992592279475E+00
 0.3406657510688E+00 -0.4828275762434E+00  0.0000000000000E+00 -0.1797567035225E+00
 0.2781051642202E+00 -0.4285728806309E+00  0.0000000000000E+00 -0.1590957951836E+00
 0.2058922600159E+00 -0.3652802200556E+00  0.0000000000000E+00 -0.1367703844290E+00
 0.1233975246521E+00 -0.2923471560578E+00  0.0000000000000E+00 -0.1120704391859E+00
 0.3013793032167E-01 -0.2093115838992E+00  0.0000000000000E+00 -0.8410191121210E-01
 0.5999269576467E+00 -0.6701835447106E+00  0.0000000000000E+00 -0.3376509498665E+00
 0.6033503482751E+00 -0.6761240720433E+00  0.0000000000000E+00 -0.3260721472419E+00
 0.6055637536057E+00 -0.6810559360086E+00  0.0000000000000E+00 -0.3135947676317E+00
 0.6062955763530E+00 -0.6847212485251E+00  0.0000000000000E+00 -0.3002800834765E+00
 0.6052393760034E+00 -0.6868285287992E+00  0.0000000000000E+00 -0.2862004487940E+00
 0.6020547824944E+00 -0.6870537715866E+00  0.0000000000000E+00 -0.2714444736469E+00
 0.5963659739668E+00 -0.6850389759845E+00  0.0000000000000E+00 -0.2561273858591E+00
 0.5877574882609E+00 -0.6803879764790E+00  0.0000000000000E+00 -0.2403999374906E+00
 0.5757686206629E+00 -0.6726609103118E+00  0.0000000000000E+00 -0.2244525103731E+00
 0.5598876458774E+00 -0.6613685733090E+00  0.0000000000000E+00 -0.2085132706354E+00
 0.5395466964027E+00 -0.6459674973036E+00  0.0000000000000E+00 -0.1928398587221E+00
 0.5141178643889E+00 -0.6258562950064E+00  0.0000000000000E+00 -0.1777038627696E+00
 0.4829111128118E+00 -0.6003738285819E+00  0.0000000000000E+00 -0.1633668525300E+00
 0.4451748800899E+00 -0.5688000320411E+00  0.0000000000000E+00 -0.1500465009835E+00
 0.4001007690135E+00 -0.5303607046167E+00  0.0000000000000E+00 -0.1378715865112E+00
 0.3468343746044E+00 -0.4842382035521E+00  0.0000000000000E+00 -0.1268255728638E+00
 0.2844949910500E+00 -0.4295906722426E+00  0.0000000000000E+00 -0.1166798670282E+00
 0.2122088261994E+00 -0.3655837817390E+00  0.0000000000000E+00 -0.1069192058158E+00
 0.1291635244748E+00 -0.2914420378776E+00  0.0000000000000E+00 -0.9666912540517E-01
 0.3469090147214E-01 -0.2065264927680E+00  0.0000000000000E+00 -0.8465597673947E-01
 0.6026138898207E+00 -0.6724444990954E+00  0.0000000000000E+00 -0.2843740804322E+00
 0.6057340928036E+00 -0.6779389933104E+00  0.0000000000000E+00 -0.2688353129623E+00
 0.6076194285725E+00 -0.6823763228416E+00  0.0000000000000E+00 -0.2524923180117E+00
 0.6080048919371E+00 -0.6855019725587E+00  0.0000000000000E+00 -0.2354762533067E+00
 0.6065937311730E+00 -0.6870308596910E+00  0.0000000000000E+00 -0.2179277619978E+00
 0.6030633959360E+00 -0.6866534584024E+00  0.0000000000000E+00 -0.2000088394527E+00
 0.5970647405352E+00 -0.6840348956309E+00  0.0000000000000E+00 -0.1819220901245E+00
 0.5882160814885E+00 -0.6788089713462E+00  0.0000000000000E+00 -0.1639254578902E+00
 0.5760949456275E+00 -0.6705699949522E+00  0.0000000000000E+00 -0.1463390105989E+00
 0.5602292772130E+00 -0.6588642469881E+00  0.0000000000000E+00 -0.1295439811235E+00
 0.5400887275474E+00 -0.6431816629646E+00  0.0000000000000E+00 -0.1139746404093E+00
 0.5150760519028E+00 -0.6229477593355E+00  0.0000000000000E+00 -0.1001025433392E+00
 0.4845186185844E+00 -0.5975157811317E+00  0.0000000000000E+00 -0.8841136704251E-01
 0.4476604930537E+00 -0.5661595029226E+00  0.0000000000000E+00 -0.7935947091440E-01
 0.4036564297319E+00 -0.5280679313671E+00  0.0000000000000E+00 -0.7332675961271E-01
 0.3515701918787E+00 -0.4823442457545E+00  0.0000000000000E+00 -0.7054271295117E-01
 0.2903808101857E+00 -0.4280123960350E+00  0.0000000000000E+00 -0.7099346414675E-01
 0.2190006245968E+00 -0.3640356181879E+00  0.0000000000000E+00 -0.7430560862805E-01
 0.1363163151205E+00 -0.2893554807389E+00  0.0000000000000E+00 -0.7959586576290E-01
 0.4128233752816E-01 -0.2029772722934E+00  0.0000000000000E+00 -0.8529229595523E-01
 0.6025625697091E+00 -0.6717097503779E+00  0.0000000000000E+00 -0.2303514970286E+00
 0.6051243709909E+00 -0.6764629092133E+00  0.0000000000000E+00 -0.2109705871809E+00
 0.6064289867364E+00 -0.6801081645581E+00  0.0000000000000E+00 -0.1908906903627E+00
 0.6062158539454E+00 -0.6823911813928E+00  0.0000000000000E+00 -0.1703087353057E+00
 0.6041998839197E+00 -0.6830348055753E+00  0.0000000000000E+00 -0.1494124500072E+00
 0.6000843915657E+00 -0.6817515932123E+00  0.0000000000000E+00 -0.1284117322429E+00
 0.5935592103324E+00 -0.6782415386855E+00  0.0000000000000E+00 -0.1075731075847E+00
 0.5842910996707E+00 -0.6721822548420E+00  0.0000000000000E+00 -0.8724161330993E-01
 0.5719119719608E+00 -0.6632173151499E+00  0.0000000000000E+00 -0.6784987492520E-01
 0.5560071502410E+00 -0.6509448500379E+00  0.0000000000000E+00 -0.4991828056612E-01
 0.5361035818206E+00 -0.6349063402171E+00  0.0000000000000E+00 -0.3404908711266E-01
 0.5116569556149E+00 -0.6145745071796E+00  0.0000000000000E+00 -0.2091471362092E-01
 0.4820366284709E+00 -0.5893392431253E+00  0.0000000000000E+00 -0.1123792847843E-01
 0.4465078096268E+00 -0.5584910375430E+00  0.0000000000000E+00 -0.5759504650841E-02
 0.4042114884902E+00 -0.5212023807736E+00  0.0000000000000E+00 -0.5187101812880E-02
 0.3541443118823E+00 -0.4765091836855E+00  0.0000000000000E+00 -0.1011800564297E-01
 0.2951423060039E+00 -0.4232961176343E+00  0.0000000000000E+00 -0.2092911870079E-01
 0.2258731729079E+00 -0.3602903071566E+00  0.0000000000000E+00 -0.3763056467647E-01
 0.1448316034870E+00 -0.2860632104243E+00  0.0000000000000E+00 -0.5967134739474E-01
 0.5036071631925E-01 -0.1990523551161E+00  0.0000000000000E+00 -0.8560525951897E-01
 0.5997488667727E+00 -0.6679629332492E+00  0.0000000000000E+00 -0.1760988819333E+00
 0.6014983763413E+00 -0.6716868186308E+00  0.0000000000000E+00 -0.1530488043158E+00
 0.6019678339063E+00 -0.6742464962301E+00  0.0000000000000E+00 -0.1294372184153E+00
 0.6008885137933E+00 -0.6753749465648E+00  0.0000000000000E+00 -0.1055101134190E+00
 0.5979863490562E+00 -0.6748022685093E+00  0.0000000000000E+00 -0.8146613419962E-01
 0.5929990506944E+00 -0.6722716370019E+00  0.0000000000000E+00 -0.5752897750222E-01
 0.5856679759893E+00 -0.6675300353580E+00  0.0000000000000E+00 -0.3400272191045E-01
 0.5757217401285E+00 -0.6603115742037E+00  0.0000000000000E+00 -0.1129853748934E-01
 0.5628604467319E+00 -0.6503217464170E+00  0.0000000000000E+00  0.1005767578476E-01
 0.5467422882663E+00 -0.6372245317371E+00  0.0000000000000E+00  0.2942555091129E-01
 0.5269706732433E+00 -0.6206301803561E+00  0.0000000000000E+00  0.4605234234023E-01
 0.5030791188562E+00 -0.6000810214843E+00  0.0000000000000E+00  0.5907591255123E-01
 0.4745112744164E+00 -0.5750326912031E+00  0.0000000000000E+00  0.6753115975213E-01
 0.4405938808386E+00 -0.5448287422991E+00  0.0000000000000E+00  0.7036532629486E-01
 0.4005012661039E+00 -0.5086673272497E+00  0.0000000000000E+00  0.6647069572569E-01
 0.3532115079722E+00 -0.4655601657356E+00  0.0000000000000E+00  0.5474691437589E-01
 0.2974582351944E+00 -0.4142870848705E+00  0.0000000000000E+00  0.3420786912528E-01
 0.2316852881783E+00 -0.3533535124731E+00  0.0000000000000E+00  0.4142240718129E-02
 0.1540089226176E+00 -0.2809532878125E+00  0.0000000000000E+00 -0.3569149372342E-01
 0.6209505856701E-01 -0.1948865893470E+00  0.0000000000000E+00 -0.8483585487264E-01
 0.5941754836533E+00 -0.6612205734319E+00  0.0000000000000E+00 -0.1221140745778E+00
 0.5948755359711E+00 -0.6636515931116E+00  0.0000000000000E+00 -0.9561750417672E-01
 0.5942576865818E+00 -0.6648418547686E+00  0.0000000000000E+00 -0.6877102553617E-01
 0.5920234865029E+00 -0.6644905043041E+00  0.0000000000000E+00 -0.4182321014747E-01
 0.5879109570948E+00 -0.6623370810524E+00  0.0000000000000E+00 -0.1492773225452E-01
 0.5817045915032E+00 -0.6581680017483E+00  0.0000000000000E+00  0.1171570799720E-01
 0.5732104462841E+00 -0.6517904301535E+00  0.0000000000000E+00  0.3778545644700E-01
 0.5622289341857E+00 -0.6430040561706E+00  0.0000000000000E+00  0.6281776688553E-01
 0.5485362844435E+00 -0.6315831425262E+00  0.0000000000000E+00  0.8620944546499E-01
 0.5318727199029E+00 -0.6172651329031E+00  0.0000000000000E+00  0.1072217576087E+00
 0.5119322238279E+00 -0.5997411741326E+00  0.0000000000000E+00  0.1249777060070E+00
 0.4883490308873E+00 -0.5786433771113E+00  0.0000000000000E+00  0.1384518469435E+00
 0.4606767809720E+00 -0.5535250658451E+00  0.0000000000000E+00  0.1464554758571E+00
 0.4283564410570E+00 -0.5238303444403E+00  0.0000000000000E+00  0.1476217498454E+00
 0.3906686098599E+00 -0.4888490039657E+00  0.0000000000000E+00  0.1403986156748E+00
 0.3466659644041E+00 -0.4476527757282E+00  0.0000000000000E+00  0.1230638040849E+00
 0.2950835950477E+00 -0.3990112244975E+00  0.0000000000000E+00  0.9378683198901E-01
 0.2342384790089E+00 -0.3412948188192E+00  0.0000000000000E+00  0.5077357341121E-01
 0.1619496106868E+00 -0.2723942954765E+00  0.0000000000000E+00 -0.7501464421840E-02
 0.7552164794654E-01 -0.1896682815175E+00  0.0000000000000E+00 -0.8221336669730E-01
 0.5858739344501E+00 -0.6515291120191E+00  0.0000000000000E+00 -0.6893021694466E-01
 0.5853131864715E+00 -0.6524347849127E+00  0.0000000000000E+00 -0.3930115412722E-01
 0.5833516150323E+00 -0.6519716193128E+00  0.0000000000000E+00 -0.9663905337275E-02
 0.5796367874573E+00 -0.6497834734740E+00  0.0000000000000E+00  0.1982842320817E-01
 0.5739326980953E+00 -0.6456342664919E+00  0.0000000000000E+00  0.4914748400478E-01
 0.5660932955956E+00 -0.6393784574074E+00  0.0000000000000E+00  0.7814417618063E-01
 0.5560028231743E+00 -0.6308959667222E+00  0.0000000000000E+00  0.1064779397977E+00
 0.5435368280782E+00 -0.6200549308866E+00  0.0000000000000E+00  0.1336296991622E+00
 0.5285460325267E+00 -0.6066954225668E+00  0.0000000000000E+00  0.1589275117200E+00
 0.5108520889115E+00 -0.5906265034953E+00  0.0000000000000E+00  0.1815572411863E+00
 0.4902448786244E+00 -0.5716238404439E+00  0.0000000000000E+00  0.2005528989679E+00
 0.4664753878362E+00 -0.5494229364679E+00  0.0000000000000E+00  0.2147707794561E+00
 0.4392401998522E+00 -0.5237040765001E+00  0.0000000000000E+00  0.2228492519654E+00
 0.4081529032927E+00 -0.4940646979854E+00  0.0000000000000E+00  0.2231554050883E+00
 0.3726956358899E+00 -0.4599728715499E+00  0.0000000000000E+00  0.2137205549981E+00
 0.3321399643516E+00 -0.4206923045434E+00  0.0000000000000E+00  0.1921720076453E+00
 0.2854232745970E+00 -0.3751657716769E+00  0.0000000000000E+00  0.1556846317913E+00
 0.2309653117189E+00 -0.3218461628905E+00  0.0000000000000E+00  0.1010157491300E+00
 0.1664671903990E+00 -0.2585003981082E+00  0.0000000000000E+00  0.2476834120304E-01
 0.8891847739222E-01 -0.1821784018982E+00  0.0000000000000E+00 -0.7601401201398E-01
 0.5749188800975E+00 -0.6389811520652E+00  0.0000000000000E+00 -0.1712923071966E-01
 0.5729226382043E+00 -0.6381675070751E+00  0.0000000000000E+00  0.1516685553709E-01
 0.5693447824475E+00 -0.6357528729746E+00  0.0000000000000E+00  0.4692685653668E-01
 0.5637709312657E+00 -0.6313175825602E+00  0.0000000000000E+00  0.7830743671450E-01
 0.5560410463304E+00 -0.6247102023383E+00  0.0000000000000E+00  0.1094899628140E+00
 0.5461154521960E+00 -0.6158871786428E+00  0.0000000000000E+00  0.1403595342142E+00
 0.5339652934076E+00 -0.6048116060736E+00  0.0000000000000E+00  0.1705139549213E+00
 0.5195310832899E+00 -0.5914072467600E+00  0.0000000000000E+00  0.1993548380679E+00
 0.5027235217142E+00 -0.5755648873960E+00  0.0000000000000E+00  0.2261467189534E+00
 0.4834340195726E+00 -0.5571527428730E+00  0.0000000000000E+00  0.2500256677542E+00
 0.4615426505674E+00 -0.5360244511134E+00  0.0000000000000E+00  0.2699803641460E+00
 0.4369211777093E+00 -0.5120214846286E+00  0.0000000000000E+00  0.2848111459216E+00
 0.4094290629836E+00 -0.4849684332347E+00  0.0000000000000E+00  0.2930676727776E+00
 0.3788992585611E+00 -0.4546580876299E+00  0.0000000000000E+00  0.2929602817269E+00
 0.3451069308492E+00 -0.4208199987075E+00  0.0000000000000E+00  0.2822363067468E+00
 0.3077080256869E+00 -0.3830600177568E+00  0.0000000000000E+00  0.2580101132424E+00
 0.2661187812577E+00 -0.3407461914835E+00  0.0000000000000E+00  0.2165396464775E+00
 0.2192872159066E+00 -0.2927943715484E+00  0.0000000000000E+00  0.1529777333520E+00
 0.1652444495135E+00 -0.2372794303044E+00  0.0000000000000E+00  0.6128442196030E-01
 0.1004969023942E+00 -0.1708944311129E+00  0.0000000000000E+00 -0.6484348151912E-01
 0.5614640734147E+00 -0.6237543935730E+00  0.0000000000000E+00  0.3269355271754E-01
 0.5578970798818E+00 -0.6210765174975E+00  0.0000000000000E+00  0.6693011995644E-01
 0.5523742920783E+00 -0.6163425856815E+00  0.0000000000000E+00  0.9986635921265E-01
 0.5444876489510E+00 -0.6091809627464E+00  0.0000000000000E+00  0.1323363207962E+00
 0.5342658837168E+00 -0.5996216253339E+00  0.0000000000000E+00  0.1647637657767E+00
 0.5218186774551E+00 -0.5877822863052E+00  0.0000000000000E+00  0.1969298476203E+00
 0.5071816803675E+00 -0.5736746177172E+00  0.0000000000000E+00  0.2282688927500E+00
 0.4903269582261E+00 -0.5572451957158E+00  0.0000000000000E+00  0.2580826404268E+00
 0.4711984360382E+00 -0.5384081334351E+00  0.0000000000000E+00  0.2855802214757E+00
 0.4497355991813E+00 -0.5170697190348E+00  0.0000000000000E+00  0.3098735829293E+00
 0.4258909522440E+00 -0.4931444613492E+00  0.0000000000000E+00  0.3299457785308E+00
 0.3996430094684E+00 -0.4665663570505E+00  0.0000000000000E+00  0.3446011023534E+00
 0.3710071045081E+00 -0.4372973255308E+00  0.0000000000000E+00  0.3523929692900E+00
 0.3400442037022E+00 -0.4053329754963E+00  0.0000000000000E+00  0.3515185821939E+00
 0.3068655538285E+00 -0.3707031740743E+00  0.0000000000000E+00  0.3396605213322E+00
 0.2716248464674E+00 -0.3334595828466E+00  0.0000000000000E+00  0.3137418318763E+00
 0.2344791546936E+00 -0.2936295760830E+00  0.0000000000000E+00  0.2695354901951E+00
 0.1954447673335E+00 -0.2510775599996E+00  0.0000000000000E+00  0.2010263656748E+00
 0.1539769607456E+00 -0.2050992181284E+00  0.0000000000000E+00  0.9940115450402E-01
 0.1074592861375E+00 -0.1532072867885E+00  0.0000000000000E+00 -0.4809686264840E-01
 0.5457608065199E+00 -0.6061602965444E+00  0.0000000000000E+00  0.7986063700278E-01
 0.5404992274856E+00 -0.6014419034498E+00  0.0000000000000E+00  0.1149212723311E+00
 0.5325360468554E+00 -0.5938782772529E+00  0.0000000000000E+00  0.1477490295212E+00
 0.5217806166558E+00 -0.5833688702717E+00  0.0000000000000E+00  0.1806181052262E+00
 0.5086647088729E+00 -0.5704584477397E+00  0.0000000000000E+00  0.2137702541414E+00
 0.4933801873243E+00 -0.5552875492673E+00  0.0000000000000E+00  0.2465307443836E+00
 0.4759422628320E+00 -0.5378398784896E+00  0.0000000000000E+00  0.2781463398480E+00
 0.4563113245903E+00 -0.5180386639172E+00  0.0000000000000E+00  0.3078275036730E+00
 0.4344365024363E+00 -0.4957955614177E+00  0.0000000000000E+00  0.3347440665685E+00
 0.4102827217037E+00 -0.4710346223665E+00  0.0000000000000E+00  0.3579902005816E+00
 0.3838485309330E+00 -0.4437079746102E+00  0.0000000000000E+00  0.3765445939112E+00
 0.3551841912639E+00 -0.4138108901458E+00  0.0000000000000E+00  0.3892221645477E+00
 0.3244146595966E+00 -0.3814009212728E+00  0.0000000000000E+00  0.3946096568825E+00
 0.2917719642243E+00 -0.3466249009730E+00  0.0000000000000E+00  0.3909714480468E+00
 0.2576420500114E+00 -0.3097580520135E+00  0.0000000000000E+00  0.3761028403606E+00
 0.2226341906936E+00 -0.2712605879725E+00  0.0000000000000E+00  0.3470882009487E+00
 0.1876789222549E+00 -0.2318573816378E+00  0.0000000000000E+00  0.2998801919983E+00
 0.1541815058175E+00 -0.1926422048509E+00  0.0000000000000E+00  0.2284945384286E+00
 0.1241198985399E+00 -0.1551369428230E+00  0.0000000000000E+00  0.1232569810467E+00
 0.9982799593326E-01 -0.1208351845843E+00  0.0000000000000E+00 -0.3358106289830E-01
 0.5284010634129E+00 -0.5868112906342E+00  0.0000000000000E+00  0.1236044576435E+00
 0.5209148128561E+00 -0.5796399090962E+00  0.0000000000000E+00  0.1571262222432E+00
 0.5095460051739E+00 -0.5679584794693E+00  0.0000000000000E+00  0.1891330705507E+00
 0.4955542545214E+00 -0.5538054455865E+00  0.0000000000000E+00  0.2224575495096E+00
 0.4794663942271E+00 -0.5374825254439E+00  0.0000000000000E+00  0.2557547975951E+00
 0.4612702868159E+00 -0.5189338757576E+00  0.0000000000000E+00  0.2881126846266E+00
 0.4409093167378E+00 -0.4980498922372E+00  0.0000000000000E+00  0.3186958872792E+00
 0.4183223020652E+00 -0.4747276165715E+00  0.0000000000000E+00  0.3466877914470E+00
 0.3934698159351E+00 -0.4488865403591E+00  0.0000000000000E+00  0.3712181899988E+00
 0.3663426908447E+00 -0.4204744991233E+00  0.0000000000000E+00  0.3913205299690E+00
 0.3369733115414E+00 -0.3894755334096E+00  0.0000000000000E+00  0.4058967284871E+00
 0.3054533195799E+00 -0.3559241497953E+00  0.0000000000000E+00  0.4136821752142E+00
 0.2719628426560E+00 -0.3199301359694E+00  0.0000000000000E+00  0.4132033528662E+00
 0.2368182244389E+00 -0.2817201750880E+00  0.0000000000000E+00  0.4027200791395E+00
 0.2005506707185E+00 -0.2417071015710E+00  0.0000000000000E+00  0.3801400865529E+00
 0.1640379315789E+00 -0.2006071626377E+00  0.0000000000000E+00  0.3428853675230E+00
 0.1287397792200E+00 -0.1596452834501E+00  0.0000000000000E+00  0.2876606837863E+00
 0.9712286974799E-01 -0.1209391527347E+00  0.0000000000000E+00  0.2100349796877E+00
 0.7370543351632E-01 -0.8832086858064E-01  0.0000000000000E+00  0.1034380563221E+00
 0.6728640114317E-01 -0.6926348370675E-01  0.0000000000000E+00 -0.4419269529031E-01
 0.5090331676942E+00 -0.5665644737033E+00  0.0000000000000E+00  0.1596071875410E+00
 0.4973309730736E+00 -0.5530351095305E+00  0.0000000000000E+00  0.1918939177846E+00
 0.4826615161278E+00 -0.5378620973759E+00  0.0000000000000E+00  0.2251714438950E+00
 0.4661580790272E+00 -0.5208465330074E+00  0.0000000000000E+00  0.2583728168043E+00
 0.4474666551160E+00 -0.5015558933526E+00  0.0000000000000E+00  0.2905139474947E+00
 0.4265299701017E+00 -0.4798472743424E+00  0.0000000000000E+00  0.3208959092660E+00
 0.4033299935841E+00 -0.4556572105340E+00  0.0000000000000E+00  0.3487725879398E+00
 0.3778853873601E+00 -0.4289655032663E+00  0.0000000000000E+00  0.3733048711211E+00
 0.3502395653156E+00 -0.3997799057998E+00  0.0000000000000E+00  0.3935253674431E+00
 0.3204660964089E+00 -0.3681374314169E+00  0.0000000000000E+00  0.4083181855722E+00
 0.2886806799416E+00 -0.3341138704432E+00  0.0000000000000E+00  0.4164011338577E+00
 0.2550621518541E+00 -0.2978421757068E+00  0.0000000000000E+00  0.4163111693139E+00
 0.2198868505788E+00 -0.2595436262213E+00  0.0000000000000E+00  0.4063958304401E+00
 0.1835850416165E+00 -0.2195798184310E+00  0.0000000000000E+00  0.3848169093887E+00
 0.1468344053811E+00 -0.1785398985228E+00  0.0000000000000E+00  0.3495789171769E+00
 0.1107192792935E+00 -0.1373895933515E+00  0.0000000000000E+00  0.2986063403128E+00
 0.7700605846559E-01 -0.9773493363254E-01  0.0000000000000E+00  0.2299325241783E+00
 0.4868232322368E-01 -0.6231958200486E-01  0.0000000000000E+00  0.1421127122566E+00
 0.3093508351801E-01 -0.3606904940099E-01  0.0000000000000E+00  0.3549708869849E-01
 0.3494020365283E-01 -0.2927297169563E-01  0.0000000000000E+00 -0.8416823486409E-01
</DataArray>
<DataArray type="Float64" Name="S_Centroid" NumberOfComponents="4" ComponentName0="S11" ComponentName1="S22" ComponentName2="S33" ComponentName3="S12" format="ascii">
-0.1370644484412E+01 -0.1098441112303E+02 -0.2471011158310E+01 -0.1416417449011E+01
 0.1866933174435E+00 -0.8644058257245E+01 -0.1691473013165E+01 -0.9200946227248E-01
-0.3851428683357E-01 -0.7916001242820E+01 -0.1590903129637E+01 -0.9961847353555E-01
 0.5376219445185E-02 -0.7512763453142E+01 -0.1501477469113E+01 -0.5601398903288E-01
-0.2596992919168E-02 -0.7246861612336E+01 -0.1449891742656E+01 -0.4080652644006E-01
-0.3487933234794E-03 -0.7053313568233E+01 -0.1410732493333E+01 -0.3108057270436E-01
-0.6109043504472E-03 -0.6902891165418E+01 -0.1380700434528E+01 -0.2510796446639E-01
-0.3981837273623E-03 -0.6780401305536E+01 -0.1356159918061E+01 -0.2100244323400E-01
-0.3547187971165E-03 -0.6677497728159E+01 -0.1335570509293E+01 -0.1800376676224E-01
-0.3043432547087E-03 -0.6589334182014E+01 -0.1317927724692E+01 -0.1563169323463E-01
-0.2776152228514E-03 -0.6513176671851E+01 -0.1302690876826E+01 -0.1359437173373E-01
-0.2614339428069E-03 -0.6447651887030E+01 -0.1289582683411E+01 -0.1168528908110E-01
-0.2565422252152E-03 -0.6392378164750E+01 -0.1278526960447E+01 -0.9742838976958E-02
-0.2624049529298E-03 -0.6347795525881E+01 -0.1269611605086E+01 -0.7619727063614E-02
-0.2820485941133E-03 -0.6315151413383E+01 -0.1263086711217E+01 -0.5155327006527E-02
-0.3213190402995E-03 -0.6296642205788E+01 -0.1259392723732E+01 -0.2139284683481E-02
-0.3966297787856E-03 -0.6295844257749E+01 -0.1259248196270E+01  0.1767938973555E-02
-0.5151565764787E-03 -0.6318869252487E+01 -0.1263876900646E+01  0.7227578116112E-02
-0.1886773504685E-02 -0.6378145600299E+01 -0.1276006493775E+01  0.1713389509203E-01
-0.8045709503086E-02 -0.6492756750713E+01 -0.1300160511417E+01  0.4374928522649E-01
-0.1887929102729E-01 -0.6651042162191E+01 -0.1333984310522E+01  0.1060788486837E+00
-0.3160469521421E-01 -0.6806463220937E+01 -0.1367613603609E+01  0.2109137325140E+00
-0.4715109426703E-01 -0.6926594168737E+01 -0.1394749073384E+01  0.3478565799083E+00
-0.6774767869774E-01 -0.7006244467030E+01 -0.1414798450228E+01  0.5019507382011E+00
-0.9478519032009E-01 -0.7055448528014E+01 -0.1430046764976E+01  0.6624996310638E+00
-0.1289286029722E+00 -0.7088039154029E+01 -0.1443393572908E+01  0.8246540788830E+00
-0.1707518848568E+00 -0.7115890941637E+01 -0.1457328587015E+01  0.9879471935341E+00
-0.2212531411238E+00 -0.7147175135868E+01 -0.1473685677358E+01  0.1154500541574E+01
-0.2820400834592E+00 -0.7185762639633E+01 -0.1493560566874E+01  0.1327635273846E+01
-0.3539830500559E+00 -0.7229549093505E+01 -0.1516706451313E+01  0.1509211876231E+01
-0.4356079125476E+00 -0.7275780250133E+01 -0.1542277655518E+01  0.1696977812478E+01
-0.5269275278323E+00 -0.7336228155133E+01 -0.1572631160027E+01  0.1890101448880E+01
-0.6317987578573E+00 -0.7430471319140E+01 -0.1612454039427E+01  0.2095252579657E+01
-0.7567606930561E+00 -0.7573986265473E+01 -0.1666149416533E+01  0.2324214272533E+01
-0.9110311791741E+00 -0.7783921339116E+01 -0.1738990529571E+01  0.2593508464140E+01
-0.1116199542234E+01 -0.8085251440523E+01 -0.1840290223974E+01  0.2927184363782E+01
-0.1385279838998E+01 -0.8515426012500E+01 -0.1980141199806E+01  0.3370186282706E+01
-0.1875925171988E+01 -0.9140298232721E+01 -0.2203244713773E+01  0.3990284724810E+01
-0.2288019947879E+01 -0.1006383301152E+02 -0.2470370628690E+01  0.5001793150508E+01
-0.5902484659392E+01 -0.1120109505375E+02 -0.3420715993602E+01  0.6896193932470E+01
 0.6458883520815E+01 -0.9892864929641E+01 -0.6867962919993E+00  0.7978413987668E+01
-0.1439189588519E+01 -0.9474449655354E+01 -0.2182727881300E+01 -0.1550580782282E+01
-0.2301966830185E+00 -0.8788426850850E+01 -0.1803724733651E+01 -0.7161624916329E+00
-0.1298173345649E-01 -0.7945517399878E+01 -0.1591699850385E+01 -0.2771886003576E+00
-0.2801808065624E-01 -0.7525044264488E+01 -0.1510612491539E+01 -0.1904783475826E+00
-0.9632082497310E-02 -0.7238792246576E+01 -0.1449684887417E+01 -0.1305651533472E+00
-0.7215192937845E-02 -0.7031926805735E+01 -0.1407828420713E+01 -0.9944951164421E-01
-0.4482814682288E-02 -0.6871794190263E+01 -0.1375255421482E+01 -0.7931517869268E-01
-0.3278381298801E-02 -0.6742476337278E+01 -0.1349150963819E+01 -0.6575439856018E-01
-0.2498370058371E-02 -0.6634722496439E+01 -0.1327444193080E+01 -0.5585214492767E-01
-0.2070980883731E-02 -0.6543197286712E+01 -0.1309053673026E+01 -0.4808717584296E-01
-0.1851803437902E-02 -0.6464795092649E+01 -0.1293329398489E+01 -0.4148336026344E-01
-0.1792218501805E-02 -0.6397883395553E+01 -0.1279935141883E+01 -0.3537379771093E-01
-0.1865197509127E-02 -0.6341882109723E+01 -0.1268749480352E+01 -0.2924012225227E-01
-0.2069985169429E-02 -0.6297072033503E+01 -0.1259828422507E+01 -0.2261692605642E-01
-0.2431668867580E-02 -0.6264556476337E+01 -0.1253397647718E+01 -0.1500587818765E-01
-0.3022938683185E-02 -0.6246376707524E+01 -0.1249879947866E+01 -0.5758685148823E-02
-0.4002611868855E-02 -0.6245872630822E+01 -0.1249975067164E+01  0.6141763155242E-02
-0.6023715367170E-02 -0.6268557233329E+01 -0.1254916208439E+01  0.2286094636429E-01
-0.1267470518233E-01 -0.6322498335796E+01 -0.1267034627076E+01  0.4972420195022E-01
-0.2890105898456E-01 -0.6411823533140E+01 -0.1288144937620E+01  0.9464660797879E-01
-0.5326965569768E-01 -0.6524583186589E+01 -0.1315570588061E+01  0.1644679138747E+00
-0.7935786916518E-01 -0.6635722245398E+01 -0.1343016042925E+01  0.2616929477103E+00
-0.1043322963853E+00 -0.6725082512618E+01 -0.1365882982154E+01  0.3827796126161E+00
-0.1299901450408E+00 -0.6786436135470E+01 -0.1383285276715E+01  0.5203274271978E+00
-0.1593129367411E+00 -0.6823844335283E+01 -0.1396631475216E+01  0.6673896444368E+00
-0.1947602613059E+00 -0.6845315248850E+01 -0.1408015123012E+01  0.8196634170551E+00
-0.2381614791487E+00 -0.6858561887473E+01 -0.1419344694474E+01  0.9755549642179E+00
-0.2911094911268E+00 -0.6868988924586E+01 -0.1432019704481E+01  0.1135330915101E+01
-0.3547078813325E+00 -0.6878879108749E+01 -0.1446717419574E+01  0.1299787052825E+01
-0.4283611882759E+00 -0.6888010766310E+01 -0.1463274412722E+01  0.1469143699198E+01
-0.5111828132270E+00 -0.6897048712853E+01 -0.1481646327294E+01  0.1643787123604E+01
-0.6055356454122E+00 -0.6910772851518E+01 -0.1503261721786E+01  0.1825544059057E+01
-0.7170062920574E+00 -0.6936522707741E+01 -0.1530705822769E+01  0.2018377028459E+01
-0.8528001223536E+00 -0.6979926352298E+01 -0.1566545318274E+01  0.2229228739179E+01
-0.1024779342081E+01 -0.7042819556569E+01 -0.1613519803773E+01  0.2468121844477E+01
-0.1247578833376E+01 -0.7120942105163E+01 -0.1673704212648E+01  0.2747862560024E+01
-0.1568474700550E+01 -0.7197231265853E+01 -0.1753141219404E+01  0.3084552032657E+01
-0.1968070010218E+01 -0.7213172817019E+01 -0.1836248592810E+01  0.3476375806627E+01
-0.2856770071429E+01 -0.6971297741671E+01 -0.1965613591910E+01  0.3959307562287E+01
-0.2899612388688E+01 -0.5674289628000E+01 -0.1714780428890E+01  0.3151563391260E+01
 0.9105660777471E+01 -0.4660406754226E+01  0.8890508178969E+00  0.2445412165731E+01
-0.1502743968562E+01 -0.8643436095306E+01 -0.2029236043012E+01 -0.1495140808404E+01
-0.5158024509127E+00 -0.8459758660748E+01 -0.1795112249081E+01 -0.9986796791254E+00
-0.1216498525316E+00 -0.7919216523578E+01 -0.1608173299185E+01 -0.5116270996593E+00
-0.5868856616569E-01 -0.7491571207363E+01 -0.1510051977207E+01 -0.3165004460167E+00
-0.3351261086464E-01 -0.7208611158173E+01 -0.1448424775391E+01 -0.2257199021665E+00
-0.1966746795727E-01 -0.6996278971137E+01 -0.1403189308728E+01 -0.1701960222416E+00
-0.1318040659296E-01 -0.6831392104177E+01 -0.1368914522552E+01 -0.1357064531724E+00
-0.9277815797926E-02 -0.6697917394640E+01 -0.1341439062077E+01 -0.1120321931880E+00
-0.7068736334291E-02 -0.6586943702124E+01 -0.1318802507343E+01 -0.9478480762238E-01
-0.5794670570997E-02 -0.6493006122679E+01 -0.1299760178018E+01 -0.8125561054013E-01
-0.5156362501036E-02 -0.6412874966775E+01 -0.1283606284982E+01 -0.6979347068407E-01
-0.4978234697887E-02 -0.6344771666420E+01 -0.1269949999147E+01 -0.5925091058748E-01
-0.5186020706916E-02 -0.6287973683333E+01 -0.1258631959563E+01 -0.4874436390211E-01
-0.5772723531421E-02 -0.6242609926150E+01 -0.1249676548558E+01 -0.3748632592177E-01
-0.6808246948570E-02 -0.6209599800520E+01 -0.1243281628020E+01 -0.2464442635091E-01
-0.8487285700525E-02 -0.6190711396900E+01 -0.1239839754995E+01 -0.9160538136328E-02
-0.1128592231098E-01 -0.6188771701117E+01 -0.1240011543163E+01  0.1060557964392E-01
-0.1689625523608E-01 -0.6207760731698E+01 -0.1244931415938E+01  0.3774447503815E-01
-0.2981618501929E-01 -0.6250995187736E+01 -0.1256162293269E+01  0.7710061531785E-01
-0.5432682357311E-01 -0.6316627927720E+01 -0.1274190969245E+01  0.1327093446608E+00
-0.8792582902910E-01 -0.6394891043151E+01 -0.1296563393756E+01  0.2061870087501E+00
-0.1231491572525E+00 -0.6471310546650E+01 -0.1318891960433E+01  0.2981609235597E+00
-0.1556513067120E+00 -0.6533539698107E+01 -0.1337838220899E+01  0.4079424042886E+00
-0.1864396821958E+00 -0.6575936509655E+01 -0.1352475258524E+01  0.5324501635119E+00
-0.2189064380536E+00 -0.6599176581640E+01 -0.1363616624258E+01  0.6674959568621E+00
-0.2563952681066E+00 -0.6607230789089E+01 -0.1372725231894E+01  0.8095338625170E+00
-0.3014851153932E+00 -0.6604538695795E+01 -0.1381204782819E+01  0.9563659359123E+00
-0.3559958332887E+00 -0.6594263557315E+01 -0.1390051898834E+01  0.1106878436174E+01
-0.4206022677725E+00 -0.6577741890465E+01 -0.1399668852504E+01  0.1260321317430E+01
-0.4945239785005E+00 -0.6555277668843E+01 -0.1409960350479E+01  0.1416301115950E+01
-0.5775556235293E+00 -0.6527233450783E+01 -0.1420957836036E+01  0.1575627885680E+01
-0.6727245823558E+00 -0.6493984901380E+01 -0.1433341918106E+01  0.1739882967050E+01
-0.7856324488874E+00 -0.6455253395203E+01 -0.1448177190398E+01  0.1910554718900E+01
-0.9232702876615E+00 -0.6407979466611E+01 -0.1466249972703E+01  0.2089422625427E+01
-0.1093834208651E+01 -0.6342213805404E+01 -0.1487209624972E+01  0.2277602764391E+01
-0.1311082995334E+01 -0.6235513258881E+01 -0.1509319273334E+01  0.2472349806172E+01
-0.1578717608489E+01 -0.6038993040301E+01 -0.1523542152461E+01  0.2651767486369E+01
-0.1909581324323E+01 -0.5655456898180E+01 -0.1513007667046E+01  0.2764366330626E+01
-0.2147952825024E+01 -0.4817423562345E+01 -0.1393075298232E+01  0.2479590377531E+01
-0.7518234688207E-01 -0.3657282468067E+01 -0.7464929741134E+00  0.1060894398804E+01
 0.9331875114398E+01 -0.3184354354514E+01  0.1229504170298E+01  0.1052959944258E+01
-0.1530386837892E+01 -0.8088446387969E+01 -0.1923766673838E+01 -0.1411588585652E+01
-0.7151715160970E+00 -0.8089312125765E+01 -0.1760896754612E+01 -0.1115884129332E+01
-0.2582929716360E+00 -0.7780369863190E+01 -0.1607732590922E+01 -0.6929397913905E+00
-0.1151919156228E+00 -0.7425599351631E+01 -0.1508158275924E+01 -0.4441032155966E+00
-0.6516751484036E-01 -0.7154156115057E+01 -0.1443864747495E+01 -0.3175280285638E+00
-0.3971382418828E-01 -0.6946502102951E+01 -0.1397243206248E+01 -0.2417589004056E+00
-0.2622919753331E-01 -0.6781252472919E+01 -0.1361496354378E+01 -0.1927325954880E+00
-0.1860262275133E-01 -0.6646454748153E+01 -0.1333011494044E+01 -0.1590558074812E+00
-0.1411998245187E-01 -0.6533912333674E+01 -0.1309606482740E+01 -0.1343028236532E+00
-0.1155879571094E-01 -0.6438562319404E+01 -0.1290024242246E+01 -0.1148551813293E+00
-0.1025388515453E-01 -0.6357252474278E+01 -0.1273501290863E+01 -0.9838593605148E-01
-0.9871548865211E-02 -0.6288183299453E+01 -0.1259610988433E+01 -0.8329176622088E-01
-0.1025656413500E-01 -0.6230545129237E+01 -0.1248160357273E+01 -0.6833263818135E-01
-0.1139163802166E-01 -0.6184326452649E+01 -0.1239143636599E+01 -0.5241264299194E-01
-0.1340643344766E-01 -0.6150227754795E+01 -0.1232726856018E+01 -0.3439269013771E-01
-0.1666155873502E-01 -0.6129646113723E+01 -0.1229261552809E+01 -0.1286453618847E-01
-0.2207319738402E-01 -0.6124646330415E+01 -0.1229343923879E+01  0.1424578599374E-01
-0.3206963622801E-01 -0.6137346027415E+01 -0.1233883151115E+01  0.5012620063936E-01
-0.5110745325309E-01 -0.6167876779587E+01 -0.1243796865102E+01  0.9827977037144E-01
-0.8227181627627E-01 -0.6212239052656E+01 -0.1258902192546E+01  0.1601365964682E+00
-0.1223825018992E+00 -0.6262911744105E+01 -0.1277058868231E+01  0.2350349954094E+00
-0.1640382268792E+00 -0.6311237904577E+01 -0.1295055245589E+01  0.3228373330061E+00
-0.2024572989716E+00 -0.6349587392951E+01 -0.1310408957911E+01  0.4240580077996E+00
-0.2379634296574E+00 -0.6373285671511E+01 -0.1322249839937E+01  0.5379227438529E+00
-0.2737681454221E+00 -0.6381183694898E+01 -0.1330990387897E+01  0.6620912145864E+00
-0.3134800827570E+00 -0.6374536415408E+01 -0.1337603319565E+01  0.7937217129596E+00
-0.3599847570869E+00 -0.6355327595354E+01 -0.1343062490501E+01  0.9303092967153E+00
-0.4151075839748E+00 -0.6324998999182E+01 -0.1348021336719E+01  0.1069823164195E+01
-0.4793126545895E+00 -0.6284053621631E+01 -0.1352673275400E+01  0.1210570555415E+01
-0.5519628546142E+00 -0.6232393912985E+01 -0.1356871373739E+01  0.1351584436334E+01
-0.6332174532645E+00 -0.6169193317702E+01 -0.1360482174466E+01  0.1493030554337E+01
-0.7258008971794E+00 -0.6091784028937E+01 -0.1363517005541E+01  0.1635070393105E+01
-0.8342157407899E+00 -0.5995048253078E+01 -0.1365852819126E+01  0.1776382765121E+01
-0.9628804924053E+00 -0.5869976211890E+01 -0.1366571361222E+01  0.1913474333312E+01
-0.1115316519404E+01 -0.5699861902237E+01 -0.1363035704639E+01  0.2038617550457E+01
-0.1289482019496E+01 -0.5454084433913E+01 -0.1348713310779E+01  0.2132382550774E+01
-0.1464603707512E+01 -0.5081018397200E+01 -0.1309124440450E+01  0.2149999619501E+01
-0.1555149908308E+01 -0.4489052615507E+01 -0.1208840522776E+01  0.1972984175481E+01
-0.1057454762007E+01 -0.3619126555797E+01 -0.9353162774981E+00  0.1295523420765E+01
 0.1802845318925E+01 -0.2896920802447E+01 -0.2188150999648E+00  0.8175980952328E-01
 0.8878035234362E+01 -0.2604323559275E+01  0.1254742353715E+01  0.5884042778726E+00
-0.1534562642486E+01 -0.7676185701022E+01 -0.1842149696152E+01 -0.1330089806651E+01
-0.8535522254124E+00 -0.7750003680842E+01 -0.1720711206891E+01 -0.1154288738700E+01
-0.3888385887235E+00 -0.7588301896244E+01 -0.1595428120767E+01 -0.8147816040025E+00
-0.1876045625045E+00 -0.7322013220634E+01 -0.1501923579008E+01 -0.5571125324695E+00
-0.1058058146734E+00 -0.7079465575702E+01 -0.1437054299489E+01 -0.4047341510152E+00
-0.6569472866546E-01 -0.6882532031515E+01 -0.1389645372743E+01 -0.3111826967786E+00
-0.4370285506274E-01 -0.6721559444174E+01 -0.1353052480009E+01 -0.2492530819397E+00
-0.3109678002184E-01 -0.6588002597187E+01 -0.1323819895168E+01 -0.2059884008641E+00
-0.2366140547338E-01 -0.6475535626200E+01 -0.1299839425704E+01 -0.1739284114480E+00
-0.1936893794919E-01 -0.6379763007528E+01 -0.1279826408166E+01 -0.1485987437122E+00
-0.1716150055621E-01 -0.6297838081509E+01 -0.1262999935233E+01 -0.1271187521770E+00
-0.1648232519917E-01 -0.6228047047085E+01 -0.1248905893067E+01 -0.1074659344177E+00
-0.1707425819117E-01 -0.6169549960321E+01 -0.1237324862140E+01 -0.8807514522754E-01
-0.1890070793893E-01 -0.6122209077993E+01 -0.1228221975488E+01 -0.6757133157392E-01
-0.2215678270437E-01 -0.6086482969270E+01 -0.1221727968600E+01 -0.4455466739527E-01
-0.2739529893956E-01 -0.6063326621875E+01 -0.1218144402315E+01 -0.1735844254204E-01
-0.3592446082502E-01 -0.6053921304365E+01 -0.1217969171187E+01  0.1624992686780E-01
-0.5050329449323E-01 -0.6058777355936E+01 -0.1221856148293E+01  0.5905705158151E-01
-0.7506046136505E-01 -0.6076202407818E+01 -0.1230252592169E+01  0.1132095365126E+00
-0.1115069492255E+00 -0.6101675303284E+01 -0.1242636469019E+01  0.1785533519880E+00
-0.1563162374174E+00 -0.6129511632818E+01 -0.1257165592780E+01  0.2534920700371E+00
-0.2025849513268E+00 -0.6154441531970E+01 -0.1271405315605E+01  0.3376139005784E+00
-0.2455981540700E+00 -0.6171687023848E+01 -0.1283457054709E+01  0.4318959619293E+00
-0.2851690580794E+00 -0.6177460024999E+01 -0.1292525835876E+01  0.5367079748391E+00
-0.3240725127087E+00 -0.6169680231922E+01 -0.1298750568279E+01  0.6508435501138E+00
-0.3657850010413E+00 -0.6147833326491E+01 -0.1302723684919E+01  0.7720054760135E+00
-0.4131708380015E+00 -0.6112136496632E+01 -0.1305061486374E+01  0.8975508135011E+00
-0.4679334609675E+00 -0.6062716227058E+01 -0.1306129957068E+01  0.1024871369553E+01
-0.5304142228987E+00 -0.5999251830590E+01 -0.1305933230158E+01  0.1151618098254E+01
-0.6000830614161E+00 -0.5920899344744E+01 -0.1304196500666E+01  0.1276135096992E+01
-0.6770472352358E+00 -0.5825614858580E+01 -0.1300532438143E+01  0.1397459914086E+01
-0.7630944879846E+00 -0.5708731388209E+01 -0.1294365194526E+01  0.1513890955125E+01
-0.8605832087897E+00 -0.5562351564889E+01 -0.1284586973878E+01  0.1621184660257E+01
-0.9701299171412E+00 -0.5374494901598E+01 -0.1268924982656E+01  0.1711114254864E+01
-0.1087197289267E+01 -0.5126329465399E+01 -0.1242705369451E+01  0.1768162187830E+01
-0.1193462062196E+01 -0.4789217435153E+01 -0.1196535917300E+01  0.1762073627864E+01
-0.1233856077685E+01 -0.4323124490519E+01 -0.1111396130202E+01  0.1632583558681E+01
-0.1029268857003E+01 -0.3692447867143E+01 -0.9443433589009E+00  0.1256981281266E+01
-0.1456593807898E-01 -0.2985529655973E+01 -0.6000191277513E+00  0.4873684486846E+00
 0.2958328559413E+01 -0.2571316250323E+01  0.7740246297153E-01 -0.3600312208451E+00
 0.8332649175013E+01 -0.2327109011661E+01  0.1201108050568E+01  0.3690256954819E+00
-0.1525389118804E+01 -0.7348525849635E+01 -0.1774783020134E+01 -0.1256448395758E+01
-0.9492319415534E+00 -0.7450403085303E+01 -0.1679927030404E+01 -0.1154427695916E+01
-0.5023042320643E+00 -0.7378982872217E+01 -0.1576257444344E+01 -0.8906340002997E+00
-0.2652797906217E+00 -0.7190780508463E+01 -0.1491212082038E+01 -0.6485834632854E+00
-0.1534425591558E+00 -0.6986298209098E+01 -0.1427948174929E+01 -0.4839973738189E+00
-0.9668868031760E-01 -0.6805812738686E+01 -0.1380500304372E+01 -0.3768246187329E+00
-0.6506020788857E-01 -0.6652652824399E+01 -0.1343542626478E+01 -0.3040082987122E+00
-0.4658111306155E-01 -0.6522734905831E+01 -0.1313863223357E+01 -0.2521181883514E+00
-0.3558243688810E-01 -0.6411845524225E+01 -0.1289485611437E+01 -0.2131939462303E+00
-0.2917811958862E-01 -0.6316601485416E+01 -0.1269155939913E+01 -0.1822128088255E+00
-0.2584794192516E-01 -0.6234612483453E+01 -0.1252092103733E+01 -0.1558507443799E+00
-0.2478193687027E-01 -0.6164352179681E+01 -0.1237826841755E+01 -0.1317395498924E+00
-0.2559787080872E-01 -0.6105000790619E+01 -0.1226119750556E+01 -0.1080334342488E+00
-0.2822971141863E-01 -0.6056312905063E+01 -0.1216908541430E+01 -0.8312185508215E-01
-0.3293413971879E-01 -0.6018496611685E+01 -0.1210286168315E+01 -0.5540346838199E-01
-0.4043955340707E-01 -0.5992034453243E+01 -0.1206494819308E+01 -0.2306908688888E-01
-0.5231075356920E-01 -0.5977266761370E+01 -0.1205915520957E+01  0.1604060748197E-01
-0.7131031871153E-01 -0.5973524555481E+01 -0.1208966992854E+01  0.6411206671493E-01
-0.1006487665120E+00 -0.5978197102242E+01 -0.1215769191867E+01  0.1221876895687E+00
-0.1412562105775E+00 -0.5986914128534E+01 -0.1225634086086E+01  0.1892147046455E+00
-0.1894906067928E+00 -0.5995387546442E+01 -0.1236975649079E+01  0.2632869874351E+00
-0.2390819594208E+00 -0.6000388458770E+01 -0.1247894102233E+01  0.3439221910083E+00
-0.2855933115317E+00 -0.5998880120202E+01 -0.1256894705076E+01  0.4322068470688E+00
-0.3284711495818E+00 -0.5987775561329E+01 -0.1263249361006E+01  0.5289959466935E+00
-0.3699635093132E+00 -0.5964559083853E+01 -0.1266904537512E+01  0.6337093256859E+00
-0.4131799090981E+00 -0.5927607810571E+01 -0.1268157562831E+01  0.7444169870388E+00
-0.4607436257852E+00 -0.5875913968543E+01 -0.1267331537750E+01  0.8584224261471E+00
-0.5141395777248E+00 -0.5808606961079E+01 -0.1264549326604E+01  0.9727478306382E+00
-0.5735626789695E+00 -0.5724611623053E+01 -0.1259634879175E+01  0.1084519244714E+01
-0.6384134358407E+00 -0.5622331660873E+01 -0.1252149038001E+01  0.1191315943166E+01
-0.7083645910797E+00 -0.5498791924670E+01 -0.1241431321649E+01  0.1290893271293E+01
-0.7837705108530E+00 -0.5348228566682E+01 -0.1226399833782E+01  0.1379640186438E+01
-0.8642042079303E+00 -0.5161645536070E+01 -0.1205169966759E+01  0.1450669613298E+01
-0.9454081314541E+00 -0.4926610325584E+01 -0.1174403708908E+01  0.1491944260805E+01
-0.1013891646864E+01 -0.4626257473349E+01 -0.1128029840851E+01  0.1482848108926E+01
-0.1035030852680E+01 -0.4239675911117E+01 -0.1054941368479E+01  0.1387892243355E+01
-0.9221494838718E+00 -0.3748756062081E+01 -0.9341811231110E+00  0.1146660204230E+01
-0.4547544063193E+00 -0.3172014930935E+01 -0.7253538782594E+00  0.6744843734973E+00
 0.8520267503052E+00 -0.2647166798074E+01 -0.3590280149036E+00 -0.3496008754242E-01
 0.3656577925023E+01 -0.2406245120624E+01  0.2500665646061E+00 -0.5603962490701E+00
 0.7837830563845E+01 -0.2177517270684E+01  0.1132062675501E+01  0.2228653743911E+00
-0.1508808491314E+01 -0.7075602480979E+01 -0.1716882220042E+01 -0.1190998151473E+01
-0.1015038069313E+01 -0.7186081446684E+01 -0.1640223927641E+01 -0.1135902597052E+01
-0.5966675536569E+00 -0.7169569013039E+01 -0.1553247336484E+01 -0.9342188574362E+00
-0.3412027108845E+00 -0.7043171503613E+01 -0.1476874864907E+01 -0.7184273666989E+00
-0.2049263401106E+00 -0.6878036440719E+01 -0.1416592577275E+01 -0.5529153181736E+00
-0.1315468972468E+00 -0.6717872891883E+01 -0.1369883978239E+01 -0.4373326478935E+00
-0.8965394893042E-01 -0.6575280314854E+01 -0.1332986872620E+01 -0.3560296815436E+00
-0.6473088163671E-01 -0.6450975856640E+01 -0.1303141367074E+01 -0.2967939943106E+00
-0.4970901899650E-01 -0.6343003235352E+01 -0.1278542469921E+01 -0.2516848261202E+00
-0.4088091928783E-01 -0.6249154713569E+01 -0.1258007145317E+01 -0.2154412312471E+00
-0.3624081799019E-01 -0.6167622928216E+01 -0.1240772767730E+01 -0.1844480907228E+00
-0.3470509857275E-01 -0.6097144534538E+01 -0.1226369944896E+01 -0.1560764835891E+00
-0.3575085225462E-01 -0.6036965601065E+01 -0.1214543308762E+01 -0.1282588452529E+00
-0.3926986096029E-01 -0.5986754803339E+01 -0.1205204950819E+01 -0.9920202863221E-01
-0.4556433356358E-01 -0.5946477121487E+01 -0.1198408308868E+01 -0.6717146515575E-01
-0.5548686182433E-01 -0.5916162608699E+01 -0.1194329911902E+01 -0.3032804049681E-01
-0.7070645423675E-01 -0.5895450056891E+01 -0.1193231320006E+01  0.1326654089090E-01
-0.9377204463803E-01 -0.5882894666487E+01 -0.1195333360037E+01  0.6517877287588E-01
-0.1271490882893E+00 -0.5875514695683E+01 -0.1200532774684E+01  0.1256368319406E+00
-0.1710047233396E+00 -0.5869337055707E+01 -0.1208068373811E+01  0.1931183964289E+00
-0.2217245665243E+00 -0.5861104704404E+01 -0.1216565872314E+01  0.2656918860828E+00
-0.2736729268789E+00 -0.5848845777260E+01 -0.1224503759074E+01  0.3428769938715E+00
-0.3227547216539E+00 -0.5830597351253E+01 -0.1230670432920E+01  0.4256949876447E+00
-0.3681485467670E+00 -0.5803800267001E+01 -0.1234389781147E+01  0.5151175130753E+00
-0.4115623881448E+00 -0.5765778278863E+01 -0.1235468151811E+01  0.6108507009027E+00
-0.4556133071061E+00 -0.5714251824434E+01 -0.1233973044696E+01  0.7111770039997E+00
-0.5025434074000E+00 -0.5647398888128E+01 -0.1229988477434E+01  0.8133759405897E+00
-0.5535328834293E+00 -0.5563618549515E+01 -0.1223430304819E+01  0.9142153568328E+00
-0.6085442175336E+00 -0.5461220428108E+01 -0.1213952947218E+01  0.1010367914148E+01
-0.6667007227932E+00 -0.5338021475480E+01 -0.1200944457550E+01  0.1098647559175E+01
-0.7269236829064E+00 -0.5190505819691E+01 -0.1183485918155E+01  0.1175572783171E+01
-0.7878070613625E+00 -0.5012600397887E+01 -0.1160081509136E+01  0.1235837901106E+01
-0.8457654739845E+00 -0.4795526577712E+01 -0.1128258427152E+01  0.1270461097960E+01
-0.8913267792731E+00 -0.4528363788709E+01 -0.1083938129748E+01  0.1264942715306E+01
-0.9024200466798E+00 -0.4198778279977E+01 -0.1020239680534E+01  0.1196488640771E+01
-0.8305283278984E+00 -0.3796524373863E+01 -0.9254105541421E+00  0.1030262500506E+01
-0.5702393434404E+00 -0.3325778403658E+01 -0.7792035610308E+00  0.7185360507589E+00
 0.9602341425941E-01 -0.2836785337671E+01 -0.5481523928504E+00  0.2250641755195E+00
 0.1533050310982E+01 -0.2459348588028E+01 -0.1852596581699E+00 -0.3680204663181E+00
 0.4076520516367E+01 -0.2308036717850E+01  0.3536967649739E+00 -0.6551737190176E+00
 0.7418279284774E+01 -0.2089343257756E+01  0.1065787221285E+01  0.1037757045709E+00
-0.1488147199612E+01 -0.6840359631878E+01 -0.1665701391119E+01 -0.1132834867892E+01
-0.1059772193545E+01 -0.6950731264500E+01 -0.1602100715482E+01 -0.1108536809852E+01
-0.6732862937641E+00 -0.6967447314262E+01 -0.1528146744376E+01 -0.9559695948955E+00
-0.4115205183833E+00 -0.6887674393116E+01 -0.1459839004053E+01 -0.7694308007095E+00
-0.2573403088255E+00 -0.6758760614485E+01 -0.1403220205572E+01 -0.6106831749487E+00
-0.1689018860424E+00 -0.6620494224872E+01 -0.1357879242417E+01 -0.4917409643905E+00
-0.1167664617742E+00 -0.6490374740998E+01 -0.1321428260245E+01 -0.4045945244750E+00
-0.8513692106561E-01 -0.6373205855971E+01 -0.1291668574655E+01 -0.3394823600748E+00
-0.6580503660366E-01 -0.6269268536958E+01 -0.1267014733592E+01 -0.2890410437947E+00
-0.5432656199503E-01 -0.6177576317975E+01 -0.1246380594566E+01 -0.2480564648288E+00
-0.4823022529699E-01 -0.6096976044512E+01 -0.1229041272276E+01 -0.2127873847052E+00
-0.4615430806372E-01 -0.6026521794823E+01 -0.1214535238675E+01 -0.1804398264752E+00
-0.4742569175383E-01 -0.5965562449583E+01 -0.1202597646187E+01 -0.1487910637083E+00
-0.5187997836446E-01 -0.5913705468565E+01 -0.1193117107165E+01 -0.1159242595374E+00
-0.5983778503848E-01 -0.5870696524268E+01 -0.1186106879536E+01 -0.8004105877531E-01
-0.7220798672343E-01 -0.5836172423750E+01 -0.1181676099703E+01 -0.3936321392611E-01
-0.9063064467944E-01 -0.5809241920587E+01 -0.1179974530636E+01  0.7754567569656E-02
-0.1173172667009E+00 -0.5788002805827E+01 -0.1181064032105E+01  0.6232464316626E-01
-0.1540403498983E+00 -0.5769414270629E+01 -0.1184690941759E+01  0.1240106192517E+00
-0.2003950761024E+00 -0.5749959542702E+01 -0.1190070941494E+01  0.1910778340635E+00
-0.2528737745936E+00 -0.5727134877329E+01 -0.1196001748206E+01  0.2616877279633E+00
-0.3064180215564E+00 -0.5699754405367E+01 -0.1201234503284E+01  0.3353768384501E+00
-0.3572663795612E+00 -0.5666524716329E+01 -0.1204758237130E+01  0.4130148382418E+00
-0.4043904093190E+00 -0.5625281457932E+01 -0.1205934391420E+01  0.4954883912980E+00
-0.4489776743171E+00 -0.5573342690632E+01 -0.1204464090938E+01  0.5825727176211E+00
-0.4930956664488E+00 -0.5508078549761E+01 -0.1200234861127E+01  0.6726423787619E+00
-0.5385193462636E+00 -0.5427161450901E+01 -0.1193136177212E+01  0.7629527860188E+00
-0.5860462807606E+00 -0.5328493338304E+01 -0.1182907941440E+01  0.8500804194542E+00
-0.6352998695275E+00 -0.5209950796687E+01 -0.1169050150663E+01  0.9303026827588E+00
-0.6849367846657E+00 -0.5069000653406E+01 -0.1150787504763E+01  0.9997358293705E+00
-0.7329006610805E+00 -0.4901984787986E+01 -0.1126977106607E+01  0.1053834321026E+01
-0.7758543821608E+00 -0.4703167062172E+01 -0.1095804305195E+01  0.1085968225072E+01
-0.8069898732827E+00 -0.4464956076447E+01 -0.1054389205657E+01  0.1085791202521E+01
-0.8119033442976E+00 -0.4179198391588E+01 -0.9982203620518E+00  0.1037803843433E+01
-0.7613111071730E+00 -0.3839297709603E+01 -0.9201217770660E+00  0.9197647896034E+00
-0.5974610919008E+00 -0.3445736212527E+01 -0.8086394729353E+00  0.7023226836836E+00
-0.2102650909429E+00 -0.3019055619176E+01 -0.6458641516479E+00  0.3563490212877E+00
 0.5902167181821E+00 -0.2620252312216E+01 -0.4060071248567E+00 -0.1131435746045E+00
 0.2055822311752E+01 -0.2349498011096E+01 -0.5873514074418E-01 -0.5818432308598E+00
 0.4327372651916E+01 -0.2242534005085E+01  0.4169677355796E+00 -0.7047910342973E+00
 0.7066351651629E+01 -0.2034703430324E+01  0.1006329659256E+01 -0.8043299791630E-03
-0.1465269666723E+01 -0.6632299778368E+01 -0.1619513913151E+01 -0.1080891377360E+01
-0.1089451368910E+01 -0.6738704989951E+01 -0.1565631295102E+01 -0.1077391711386E+01
-0.7345676802158E+00 -0.6775301644708E+01 -0.1501973887366E+01 -0.9631908142551E+00
-0.4744872708522E+00 -0.6729857781142E+01 -0.1440869031869E+01 -0.8050981125008E+00
-0.3084731597089E+00 -0.6632245936897E+01 -0.1388143840006E+01 -0.6576800651679E+00
-0.2073971849408E+00 -0.6515611499958E+01 -0.1344601757016E+01 -0.5395809864391E+00
-0.1456376338684E+00 -0.6398975528512E+01 -0.1308922651981E+01 -0.4492088911851E+00
-0.1073449616240E+00 -0.6290011073284E+01 -0.1279471226047E+01 -0.3797794448187E+00
-0.8358891189818E-01 -0.6190982960387E+01 -0.1254914393157E+01 -0.3249675590781E+00
-0.6932755743084E-01 -0.6102083277758E+01 -0.1234282185430E+01 -0.2798640342464E+00
-0.6167513039556E-01 -0.6022830637687E+01 -0.1216901171750E+01 -0.2407590195965E+00
-0.5900450342266E-01 -0.5952627322224E+01 -0.1202326383045E+01 -0.2047927530033E+00
-0.6048911525291E-01 -0.5890952989205E+01 -0.1190288438628E+01 -0.1696574116120E+00
-0.6589392941125E-01 -0.5837380267688E+01 -0.1180654857013E+01 -0.1333730211089E+00
-0.7552456935828E-01 -0.5791472753933E+01 -0.1173399482143E+01 -0.9414107148800E-01
-0.9027705769152E-01 -0.5752554473970E+01 -0.1168566323745E+01 -0.5030770966018E-01
-0.1116612626081E+00 -0.5719369141470E+01 -0.1166206098193E+01 -0.5394450094393E-03
-0.1414943153627E+00 -0.5689787378323E+01 -0.1166256356116E+01  0.5571773287870E-01
-0.1809388165503E+00 -0.5660877200164E+01 -0.1168363220753E+01  0.1177547141904E+00
-0.2291691765917E+00 -0.5629559841754E+01 -0.1171745821129E+01  0.1837722301309E+00
-0.2828201845825E+00 -0.5593882220800E+01 -0.1175340498590E+01  0.2520627577493E+00
-0.3373321450610E+00 -0.5553156237419E+01 -0.1178097694051E+01  0.3221712056435E+00
-0.3892362645657E+00 -0.5506512328014E+01 -0.1179149736087E+01  0.3947756975874E+00
-0.4373309115473E+00 -0.5452087868902E+01 -0.1177883773642E+01  0.4705732606609E+00
-0.4823146095602E+00 -0.5387285222862E+01 -0.1173919983977E+01  0.5492761713020E+00
-0.5256884804908E+00 -0.5309332698461E+01 -0.1167004253180E+01  0.6292649560272E+00
-0.5687104760129E+00 -0.5215630323524E+01 -0.1156868177146E+01  0.7077597725227E+00
-0.6117297291893E+00 -0.5103788220709E+01 -0.1143103607013E+01  0.7811851614375E+00
-0.6539301661891E+00 -0.4971445854811E+01 -0.1125075220965E+01  0.8454873086759E+00
-0.6933559695049E+00 -0.4815969004854E+01 -0.1101865011291E+01  0.8962038789398E+00
-0.7268426702363E+00 -0.4633910665507E+01 -0.1072150683125E+01  0.9279733022731E+00
-0.7491054269320E+00 -0.4420359831869E+01 -0.1033893067166E+01  0.9332936314248E+00
-0.7503277281050E+00 -0.4169533479360E+01 -0.9839722561553E+00  0.9012414329333E+00
-0.7119217836895E+00 -0.3876642342679E+01 -0.9177128389487E+00  0.8166776232925E+00
-0.5994717366336E+00 -0.3540880665198E+01 -0.8280704927056E+00  0.6601076922921E+00
-0.3512863745577E+00 -0.3171474601707E+01 -0.7045522057517E+00  0.4104899467395E+00
 0.1367938272405E+00 -0.2797973596418E+01 -0.5322359617664E+00  0.5746021209041E-01
 0.1017886458110E+01 -0.2478756857063E+01 -0.2921740841442E+00 -0.3652881445857E+00
 0.2453525265957E+01 -0.2281646046447E+01  0.3437584441424E-01 -0.7217363679248E+00
 0.4473972550223E+01 -0.2196146594228E+01  0.4555651979875E+00 -0.7356046122094E+00
 0.6768766586366E+01 -0.2000469430425E+01  0.9536594453989E+00 -0.9465502647087E-01
-0.1441234410243E+01 -0.6444585756810E+01 -0.1577164056912E+01 -0.1034209460040E+01
-0.1108214997953E+01 -0.6545444352176E+01 -0.1530731892835E+01 -0.1045118739048E+01
-0.7830193677126E+00 -0.6593627433298E+01 -0.1475329382186E+01 -0.9608500970503E+00
-0.5296130846222E+00 -0.6573106456008E+01 -0.1420543929294E+01 -0.8287334802810E+00
-0.3568448535861E+00 -0.6501550005497E+01 -0.1371678992256E+01 -0.6949366896122E+00
-0.2458516408995E+00 -0.6405106529927E+01 -0.1330191653987E+01 -0.5808346501851E+00
-0.1755191443518E+00 -0.6302168459033E+01 -0.1295537539982E+01 -0.4896042963857E+00
-0.1308827898384E+00 -0.6202039339977E+01 -0.1266584444837E+01 -0.4174077172520E+00
-0.1027516039926E+00 -0.6108548020155E+01 -0.1242259943341E+01 -0.3592390276023E+00
-0.8566916685513E-01 -0.6022943320327E+01 -0.1221722515642E+01 -0.3107055707473E+00
-0.7640991054282E-01 -0.5945389091629E+01 -0.1204359818381E+01 -0.2682691392880E+00
-0.7310835543972E-01 -0.5875643333062E+01 -0.1189750355429E+01 -0.2290993500735E+00
-0.7478767289031E-01 -0.5813335177915E+01 -0.1177624587709E+01 -0.1908726616459E+00
-0.8112859890210E-01 -0.5758029102463E+01 -0.1167831557675E+01 -0.1516041434951E+00
-0.9238737977263E-01 -0.5709151773955E+01 -0.1160307848035E+01 -0.1095487784304E+00
-0.1093862855473E+00 -0.5665800499948E+01 -0.1155037374311E+01 -0.6321576886660E-01
-0.1334359518178E+00 -0.5626495072085E+01 -0.1151986221947E+01 -0.1157046361273E-01
-0.1659453875215E+00 -0.5589036610345E+01 -0.1150996416725E+01  0.4557982383383E-01
-0.2075560444952E+00 -0.5550685342830E+01 -0.1151648294626E+01  0.1072917885840E+00
-0.2571346313912E+00 -0.5508755110380E+01 -0.1153177965538E+01  0.1717817556969E+00
-0.3114665192916E+00 -0.5461699276130E+01 -0.1154633176290E+01  0.2374735693781E+00
-0.3664081795677E+00 -0.5409149835842E+01 -0.1155111620295E+01  0.3039048939134E+00
-0.4187302258335E+00 -0.5350512564126E+01 -0.1153848575185E+01  0.3715479574547E+00
-0.4670741847114E+00 -0.5284165435216E+01 -0.1150247941126E+01  0.4408623251849E+00
-0.5116830675921E+00 -0.5207649951235E+01 -0.1143866620810E+01  0.5114228207056E+00
-0.5534974993804E+00 -0.5118196320293E+01 -0.1134338780838E+01  0.5815595486405E+00
-0.5932332279526E+00 -0.5013109976563E+01 -0.1121268657611E+01  0.6484471139314E+00
-0.6307411664349E+00 -0.4889887294948E+01 -0.1104125708729E+01  0.7083911430385E+00
-0.6646873384463E+00 -0.4746118201582E+01 -0.1082161124131E+01  0.7570822280214E+00
-0.6924111220669E+00 -0.4579294635995E+01 -0.1054341167323E+01  0.7896315253917E+00
-0.7096018364928E+00 -0.4386462109712E+01 -0.1019212804429E+01  0.8001453547068E+00
-0.7091484032562E+00 -0.4163858972393E+01 -0.9746014896526E+00  0.7807216999705E+00
-0.6786546913270E+00 -0.3907813744124E+01 -0.9172937007590E+00  0.7206015254472E+00
-0.5963972047402E+00 -0.3616958634956E+01 -0.8426711804961E+00  0.6061189757096E+00
-0.4251735063605E+00 -0.3295506068933E+01 -0.7441359261472E+00  0.4219587272108E+00
-0.1039791031802E+00 -0.2958595356441E+01 -0.6125149010515E+00  0.1562395196418E+00
 0.4591553150834E+00 -0.2638642053534E+01 -0.4358973541855E+00 -0.1856378544561E+00
 0.1380536800915E+01 -0.2384896092060E+01 -0.2008718612222E+00 -0.5531971852585E+00
 0.2755331897021E+01 -0.2237761145061E+01  0.1035141519345E+00 -0.8157379140190E+00
 0.4554933662714E+01 -0.2162706801310E+01  0.4784453794103E+00 -0.7588871668433E+00
 0.6513609588804E+01 -0.1979815208906E+01  0.9067588894914E+00 -0.1793653365770E+00
-0.1416650555970E+01 -0.6272560290383E+01 -0.1537842192186E+01 -0.9919893105681E+00
-0.1118942692324E+01 -0.6367384051767E+01 -0.1497265371129E+01 -0.1013109983204E+01
-0.8208981896080E+00 -0.6421952109353E+01 -0.1448570081378E+01 -0.9522938974607E+00
-0.5770971962530E+00 -0.6419343515141E+01 -0.1399288163130E+01 -0.8431345210968E+00
-0.4015754543896E+00 -0.6368966208885E+01 -0.1354108352833E+01 -0.7237462850519E+00
-0.2833280079056E+00 -0.6290658944183E+01 -0.1314797410010E+01 -0.6158125132313E+00
-0.2057249301786E+00 -0.6201020907980E+01 -0.1281349186725E+01 -0.5257159799459E+00
-0.1552845650006E+00 -0.6109964601184E+01 -0.1253049851909E+01 -0.4522079450232E+00
-0.1229722350361E+00 -0.6022403363147E+01 -0.1229075137951E+01 -0.3916987930398E+00
-0.1031191233856E+00 -0.5940462133087E+01 -0.1208716269306E+01 -0.3404598914562E+00
-0.9225093942897E-01 -0.5864888534945E+01 -0.1191427912629E+01 -0.2952405714531E+00
-0.8830173999700E-01 -0.5795783664120E+01 -0.1176817098359E+01 -0.2533252325553E+00
-0.9015345507022E-01 -0.5732935705634E+01 -0.1164617849495E+01 -0.2124394164914E+00
-0.9739138469694E-01 -0.5675926235731E+01 -0.1154663541292E+01 -0.1706459641543E+00
-0.1101912407042E+00 -0.5624092328097E+01 -0.1146856730850E+01 -0.1262955751197E+00
-0.1292532538549E+00 -0.5576385803327E+01 -0.1141127828441E+01 -0.7807980404701E-01
-0.1556471086095E+00 -0.5531215007132E+01 -0.1137372440096E+01 -0.2523393664868E-01
-0.1903855524271E+00 -0.5486415089240E+01 -0.1135360145252E+01  0.3215895285816E-01
-0.2336713097006E+00 -0.5439474054193E+01 -0.1134629089686E+01  0.9301721316782E-01
-0.2841447721777E+00 -0.5388048286031E+01 -0.1134438628546E+01  0.1556124162287E+00
-0.3387333969949E+00 -0.5330896825173E+01 -0.1133926061330E+01  0.2184841141121E+00
-0.3936314293518E+00 -0.5267862574029E+01 -0.1132298817549E+01  0.2811472421816E+00
-0.4457939624998E+00 -0.5198538327569E+01 -0.1128866474835E+01  0.3438684985703E+00
-0.4937115691452E+00 -0.5121504918107E+01 -0.1123043314185E+01  0.4068556356782E+00
-0.5372035430728E+00 -0.5034478545396E+01 -0.1114336434299E+01  0.4695098159450E+00
-0.5766682524820E+00 -0.4934792182124E+01 -0.1102292103347E+01  0.5300787008430E+00
-0.6122718132288E+00 -0.4819793026852E+01 -0.1086412984205E+01  0.5856880853461E+00
-0.6433356089761E+00 -0.4687013964176E+01 -0.1066069930516E+01  0.6325598463297E+00
-0.6679587209421E+00 -0.4534160255095E+01 -0.1040423810711E+01  0.6662149764675E+00
-0.6827379109519E+00 -0.4359036841846E+01 -0.1008354965585E+01  0.6815061385014E+00
-0.6822601736700E+00 -0.4159380456194E+01 -0.9683281404020E+00  0.6722964379077E+00
-0.6578195126492E+00 -0.3932748332207E+01 -0.9181135826523E+00  0.6307267252278E+00
-0.5950092666533E+00 -0.3677620565677E+01 -0.8545259791996E+00  0.5468275043607E+00
-0.4701444923093E+00 -0.3395717827127E+01 -0.7731724754084E+00  0.4091912167358E+00
-0.2454370914610E+00 -0.3095062519527E+01 -0.6680999321530E+00  0.2073375938492E+00
 0.1360581022556E+00 -0.2793936076791E+01 -0.5315756028281E+00 -0.6201946313954E-01
 0.7514261852929E+00 -0.2523463760546E+01 -0.3544075203316E+00 -0.3818084741293E+00
 0.1684550124521E+01 -0.2321746592972E+01 -0.1274392955891E+00 -0.6938989910781E+00
 0.2984347576895E+01 -0.2208552338575E+01  0.1551590499761E+00 -0.8809252862087E+00
 0.4593639398881E+01 -0.2138926386967E+01  0.4909426096986E+00 -0.7793000463847E+00
 0.6291608567067E+01 -0.1968838962233E+01  0.8645539338497E+00 -0.2559952175437E+00
-0.1391871850955E+01 -0.6112932718232E+01 -0.1500960936204E+01 -0.9535779531415E+00
-0.1123664555069E+01 -0.6201754888900E+01 -0.1465083910625E+01 -0.9820825700976E+00
-0.8501134656513E+00 -0.6259422984133E+01 -0.1421907311145E+01 -0.9397736560958E+00
-0.6174800936768E+00 -0.6269564044471E+01 -0.1377408848155E+01 -0.8505508955965E+00
-0.4422260717869E+00 -0.6236127760254E+01 -0.1335670786311E+01 -0.7454315528044E+00
-0.3191367584488E+00 -0.6173679191764E+01 -0.1298563209393E+01 -0.6450268806512E+00
-0.2356630467193E+00 -0.6096527973311E+01 -0.1266438222877E+01 -0.5576438012914E+00
-0.1801114924628E+00 -0.6014456504137E+01 -0.1238913617781E+01 -0.4841262687239E+00
-0.1439313619334E+00 -0.5933007319135E+01 -0.1215387754324E+01 -0.4222543023755E+00
-0.1214366561099E+00 -0.5854970880571E+01 -0.1195281525147E+01 -0.3690420297498E+00
-0.1090030207779E+00 -0.5781592072968E+01 -0.1178119036304E+01 -0.3216129177211E+00
-0.1044091207581E+00 -0.5713286454829E+01 -0.1163539132455E+01 -0.2774379829571E+00
-0.1064095849429E+00 -0.5650002453480E+01 -0.1151282424840E+01 -0.2343490300539E+00
-0.1144866196973E+00 -0.5591360891634E+01 -0.1141169519271E+01 -0.1905019315669E+00
-0.1287101102272E+00 -0.5536654168786E+01 -0.1133072872687E+01 -0.1443743020112E+00
-0.1496235341619E+00 -0.5484759369885E+01 -0.1126876597601E+01 -0.9484577593404E-01
-0.1780349862828E+00 -0.5434058712769E+01 -0.1122418756536E+01 -0.4138694348766E-01
-0.2145864687232E+00 -0.5382486644625E+01 -0.1119414639350E+01  0.1571341324082E-01
-0.2591133511268E+00 -0.5327768542945E+01 -0.1117376395465E+01  0.7529934086231E-01
-0.3100865268229E+00 -0.5267857806001E+01 -0.1115588883188E+01  0.1357137350575E+00
-0.3645578590577E+00 -0.5201749900230E+01 -0.1113261568446E+01  0.1955911363303E+00
-0.4189886903655E+00 -0.5129432528712E+01 -0.1109684260351E+01  0.2544113688343E+00
-0.4704671712042E+00 -0.5050634698549E+01 -0.1104220390405E+01  0.3122446443410E+00
-0.5173331786351E+00 -0.4964118603739E+01 -0.1096290372811E+01  0.3690522428154E+00
-0.5590112690695E+00 -0.4867799782281E+01 -0.1085362226443E+01  0.4240507339768E+00
-0.5953825308074E+00 -0.4759185881379E+01 -0.1070913698395E+01  0.4753925051037E+00
-0.6260696331451E+00 -0.4635770136437E+01 -0.1052367969598E+01  0.5201605091847E+00
-0.6498523130277E+00 -0.4495244151697E+01 -0.1029019308279E+01  0.5545330845911E+00
-0.6642448465037E+00 -0.4335562769579E+01 -0.9999615381172E+00  0.5739536632506E+00
-0.6651134327185E+00 -0.4154982405081E+01 -0.9640191819248E+00  0.5731857909958E+00
-0.6460531156231E+00 -0.3952047633784E+01 -0.9196201635849E+00  0.5461195528223E+00
-0.5970699013011E+00 -0.3725671048147E+01 -0.8645482027725E+00  0.4853189570316E+00
-0.5023810301470E+00 -0.3476327902253E+01 -0.7957417983375E+00  0.3820738654138E+00
-0.3374850112505E+00 -0.3208261273523E+01 -0.7091492675219E+00  0.2276784889014E+00
-0.6581172374007E-01 -0.2931992545100E+01 -0.5995608627022E+00  0.1650752146240E-01
 0.3634538268096E+00 -0.2666697527577E+01 -0.4606487470176E+00 -0.2474800470933E+00
 0.1012222871237E+01 -0.2439864415653E+01 -0.2855283131379E+00 -0.5395230495290E+00
 0.1937795715847E+01 -0.2278861571769E+01 -0.6821317220077E-01 -0.8000325144938E+00
 0.3158122768240E+01 -0.2189036228195E+01  0.1938173108971E+00 -0.9276798599901E+00
 0.4604586291006E+01 -0.2122763031535E+01  0.4963646592906E+00 -0.7986372301632E+00
 0.6095844900880E+01 -0.1965117464575E+01  0.8261454995716E+00 -0.3254367107577E+00
-0.1367103956161E+01 -0.5963305946732E+01 -0.1466082002425E+01 -0.9184442577403E+00
-0.1123832062503E+01 -0.6046399547803E+01 -0.1434046343430E+01 -0.9523851714468E+00
-0.8722331235457E+00 -0.6105086183458E+01 -0.1395463882195E+01 -0.9248070777762E+00
-0.6514410444365E+00 -0.6124193668414E+01 -0.1355126962763E+01 -0.8527429160196E+00
-0.4786596287671E+00 -0.6104149455477E+01 -0.1316561836467E+01 -0.7612235377729E+00
-0.3528070168857E+00 -0.6055300748633E+01 -0.1281621572201E+01 -0.6690896076401E+00
-0.2648484240312E+00 -0.5989578383721E+01 -0.1250885380190E+01 -0.5856069129644E+00
-0.2049667027234E+00 -0.5916155809216E+01 -0.1224224520630E+01 -0.5131969129365E+00
-0.1653218257800E+00 -0.5840820352662E+01 -0.1201228453588E+01 -0.4508700880054E+00
-0.1403803869974E+00 -0.5766814780883E+01 -0.1181439051181E+01 -0.3964006465600E+00
-0.1264653688568E+00 -0.5695780422926E+01 -0.1164449175708E+01 -0.3473418824813E+00
-0.1212486180671E+00 -0.5628407091747E+01 -0.1149931159098E+01 -0.3014074404433E+00
-0.1233751883853E+00 -0.5564797399920E+01 -0.1137634534613E+01 -0.2565829379854E+00
-0.1322206958573E+00 -0.5504629200314E+01 -0.1127369996033E+01 -0.2111540600433E+00
-0.1477309595840E+00 -0.5447189666161E+01 -0.1118984141823E+01 -0.1637468309955E+00
-0.1702705845652E+00 -0.5391339201659E+01 -0.1112321973820E+01 -0.1134259831720E+00
-0.2003806719375E+00 -0.5335496028674E+01 -0.1107175356621E+01 -0.5986294293511E-01
-0.2383640491383E+00 -0.5277733020228E+01 -0.1103219430313E+01 -0.3497469453529E-02
-0.2837481131092E+00 -0.5216009232938E+01 -0.1099951485600E+01  0.5448155354737E-01
-0.3348728422821E+00 -0.5148537074610E+01 -0.1096681999720E+01  0.1124913497476E+00
-0.3888925251104E+00 -0.5074501652129E+01 -0.1092678851730E+01  0.1692409970482E+00
-0.4424738489036E+00 -0.4993996660856E+01 -0.1087294118154E+01  0.2241668314985E+00
-0.4927924330733E+00 -0.4906859849479E+01 -0.1079930472603E+01  0.2771567859646E+00
-0.5380352801626E+00 -0.4812024053839E+01 -0.1070011882745E+01  0.3279424491548E+00
-0.5772585709413E+00 -0.4707622134352E+01 -0.1056976156809E+01  0.3755613744249E+00
-0.6098549529958E+00 -0.4591387988919E+01 -0.1040248603884E+01  0.4180724234356E+00
-0.6349207969237E+00 -0.4461039362412E+01 -0.1019192047054E+01  0.4525305583555E+00
-0.6507004832392E+00 -0.4314521367630E+01 -0.9930443849713E+00  0.4751154371216E+00
-0.6541349106474E+00 -0.4150139013845E+01 -0.9608547992163E+00  0.4812856735217E+00
-0.6404135560039E+00 -0.3966689396253E+01 -0.9214206041816E+00  0.4658747932435E+00
-0.6022982243181E+00 -0.3763567847560E+01 -0.8731732273870E+00  0.4230348054656E+00
-0.5288544812464E+00 -0.3540974439186E+01 -0.8139657962156E+00  0.3460513097307E+00
-0.4035568071340E+00 -0.3301095407581E+01 -0.7409304539838E+00  0.2277771213936E+00
-0.2020926613230E+00 -0.3050035723753E+01 -0.6504256867072E+00  0.6234929313249E-01
 0.1095780571663E+00 -0.2799620883621E+01 -0.5380085733078E+00 -0.1514181734893E+00
 0.5751544141480E+00 -0.2568326587751E+01 -0.3986344406607E+00 -0.4039607414216E+00
 0.1242473100258E+01 -0.2378987855436E+01 -0.2273029544227E+00 -0.6661540804659E+00
 0.2148030702157E+01 -0.2249732756251E+01 -0.2034041112190E-01 -0.8807540638787E+00
 0.3289783082663E+01 -0.2176401395361E+01  0.2226763407787E+00 -0.9623459925182E+00
 0.4596998314050E+01 -0.2112799412976E+01  0.4968397876182E+00 -0.8174719443252E+00
 0.5921190585648E+01 -0.1967038899458E+01  0.7908303490223E+00 -0.3884697503534E+00
-0.1342465016304E+01 -0.5821888118296E+01 -0.1432870648272E+01 -0.8861544684396E+00
-0.1120497599482E+01 -0.5899624924304E+01 -0.1404024525679E+01 -0.9241631737180E+00
-0.8885260861752E+00 -0.5958013924807E+01 -0.1369308022601E+01 -0.9084199815056E+00
-0.6796858815892E+00 -0.5983319262129E+01 -0.1332601048601E+01 -0.8510674410142E+00
-0.5109334502880E+00 -0.5973760046605E+01 -0.1296938718704E+01 -0.7722095525070E+00
-0.3840457117545E+00 -0.5936404534261E+01 -0.1264090068039E+01 -0.6886402218339E+00
-0.2929015900760E+00 -0.5880939444269E+01 -0.1234768225269E+01 -0.6099011974361E+00
-0.2295037751810E+00 -0.5815656765105E+01 -0.1209032126073E+01 -0.5395227335701E+00
-0.1868569593389E+00 -0.5746291554488E+01 -0.1186629720448E+01 -0.4775591267456E+00
-0.1597149339924E+00 -0.5676343070848E+01 -0.1167211618361E+01 -0.4225143226146E+00
-0.1444369327552E+00 -0.5607744167268E+01 -0.1150436237148E+01 -0.3723980059499E+00
-0.1386366017069E+00 -0.5541411574869E+01 -0.1136009652243E+01 -0.3252058660784E+00
-0.1408696923421E+00 -0.5477590162473E+01 -0.1123691987707E+01 -0.2791142396377E+00
-0.1504059480161E+00 -0.5416027567251E+01 -0.1113286719643E+01 -0.2325667120750E+00
-0.1670560259443E+00 -0.5356038107711E+01 -0.1104618843191E+01 -0.1843511296899E+00
-0.1909942532877E+00 -0.5296510781001E+01 -0.1097501023212E+01 -0.1337092297295E+00
-0.2224997529651E+00 -0.5235943273883E+01 -0.1091688621637E+01 -0.8048193777988E-01
-0.2615692545138E+00 -0.5172568581145E+01 -0.1086827583327E+01 -0.2521858973405E-01
-0.3074704292146E+00 -0.5104569592877E+01 -0.1082408020547E+01  0.3088474970340E-01
-0.3584378304076E+00 -0.5030387438806E+01 -0.1077765069903E+01  0.8631596083105E-01
-0.4117050114267E+00 -0.4949365845716E+01 -0.1072214187406E+01  0.1398408698470E+00
-0.4640912161074E+00 -0.4861682956976E+01 -0.1065154850489E+01  0.1908478955653E+00
-0.5128205858422E+00 -0.4767272135329E+01 -0.1056018559970E+01  0.2390599189633E+00
-0.5559246765163E+00 -0.4665232893544E+01 -0.1044231529572E+01  0.2840020423338E+00
-0.5921157158768E+00 -0.4553928794541E+01 -0.1029208917420E+01  0.3245489403663E+00
-0.6203292291350E+00 -0.4431356528156E+01 -0.1010337166513E+01  0.3586782917808E+00
-0.6391614700709E+00 -0.4295515420183E+01 -0.9869353927574E+00  0.3834390670293E+00
-0.6463442520101E+00 -0.4144672991712E+01 -0.9582034630227E+00  0.3950596759106E+00
-0.6382816799340E+00 -0.3977551797377E+01 -0.9231667092184E+00  0.3891022019182E+00
-0.6095722989679E+00 -0.3793533371083E+01 -0.8806211471324E+00  0.3606104573699E+00
-0.5523332252177E+00 -0.3592845960505E+01 -0.8290358494982E+00  0.3041882183104E+00
-0.4550460755644E+00 -0.3376835824353E+01 -0.7663763914034E+00  0.2140525837072E+00
-0.3010240402771E+00 -0.3149050398480E+01 -0.6900148980334E+00  0.8476773546150E-01
-0.6695079353648E-01 -0.2916804628514E+01 -0.5967510933025E+00 -0.8677966348698E-01
 0.2778477300777E+00 -0.2692257859580E+01 -0.4828820330960E+00 -0.2979962729390E+00
 0.7697594312651E+00 -0.2492191059633E+01 -0.3444863308068E+00 -0.5353244346906E+00
 0.1444307324692E+01 -0.2334624164188E+01 -0.1780633705526E+00 -0.7678067294472E+00
 0.2322240695613E+01 -0.2230241102654E+01  0.1839991886590E-01 -0.9426242965947E+00
 0.3389120238897E+01 -0.2168967939744E+01  0.2440304634670E+00 -0.9888340624195E+00
 0.4576900499430E+01 -0.2107985627996E+01  0.4937829816448E+00 -0.8358783607107E+00
 0.5763809434966E+01 -0.1973472336651E+01  0.7580674309590E+00 -0.4457669854470E+00
-0.1318020613450E+01 -0.5687309828221E+01 -0.1401066109212E+01 -0.8563517209065E+00
-0.1114434523873E+01 -0.5760089845690E+01 -0.1374904894400E+01 -0.8974496886729E+00
-0.9000126452375E+00 -0.5817357372846E+01 -0.1343474023636E+01 -0.8913069227517E+00
-0.7028886682199E+00 -0.5846833931416E+01 -0.1309944539447E+01 -0.8465616742736E+00
-0.5392219082043E+00 -0.5845410407244E+01 -0.1276926482117E+01 -0.7793198726306E+00
-0.4126964234995E+00 -0.5817656519227E+01 -0.1246070607113E+01 -0.7043002034805E+00
-0.3195390210576E+00 -0.5771256134572E+01 -0.1218159049278E+01 -0.6308639825036E+00
-0.2534297172140E+00 -0.5713496473398E+01 -0.1193385255905E+01 -0.5632559747967E+00
-0.2082761022572E+00 -0.5649848313359E+01 -0.1171624900582E+01 -0.5023733961428E+00
-0.1792161367897E+00 -0.5583900549991E+01 -0.1152623354531E+01 -0.4473871545543E+00
-0.1627209324845E+00 -0.5517776840521E+01 -0.1136099571530E+01 -0.3967649757407E+00
-0.1563916804198E+00 -0.5452570495612E+01 -0.1121792451922E+01 -0.3488079895228E+00
-0.1587163830663E+00 -0.5388652340224E+01 -0.1109473761191E+01 -0.3019093601653E+00
-0.1688634511084E+00 -0.5325847426685E+01 -0.1098942191934E+01 -0.2546903197604E+00
-0.1865038077535E+00 -0.5263522041088E+01 -0.1090005186011E+01 -0.2061074377022E+00
-0.2116186652736E+00 -0.5200627341320E+01 -0.1082449217449E+01 -0.1555686903457E+00
-0.2442369136306E+00 -0.5135769444607E+01 -0.1076001287681E+01 -0.1030574438114E+00
-0.2840812379621E+00 -0.5067351751773E+01 -0.1070286613896E+01 -0.4920200965329E-01
-0.3301982717693E+00 -0.4993768850491E+01 -0.1064793440319E+01  0.4809686244245E-02
-0.3807335141154E+00 -0.4913667070726E+01 -0.1058880132747E+01  0.5752964942553E-01
-0.4329773716193E+00 -0.4826528609345E+01 -0.1051901211867E+01  0.1077661916905E+00
-0.4838573021455E+00 -0.4732605288750E+01 -0.1043292533725E+01  0.1548588657462E+00
-0.5306136789131E+00 -0.4631921519199E+01 -0.1032507055008E+01  0.1983843795726E+00
-0.5711209030924E+00 -0.4523743383443E+01 -0.1018972872491E+01  0.2376878678853E+00
-0.6037704895921E+00 -0.4406674828249E+01 -0.1002089078500E+01  0.2715037274452E+00
-0.6270739705433E+00 -0.4279000147183E+01 -0.9812148381666E+00  0.2977480054253E+00
-0.6391610590296E+00 -0.4139039225763E+01 -0.9556400711987E+00  0.3134904872057E+00
-0.6372876356342E+00 -0.3985427298970E+01 -0.9245430006977E+00  0.3150556676133E+00
-0.6173774269584E+00 -0.3817341434127E+01 -0.8869437854337E+00  0.2981886222993E+00
-0.5735455141193E+00 -0.3634752559285E+01 -0.8416596272225E+00  0.2582595330356E+00
-0.4974656502934E+00 -0.3438658158880E+01 -0.7872247735653E+00  0.1904646802405E+00
-0.3773752664848E+00 -0.3231365291439E+01 -0.7217481223397E+00  0.9007725350210E-01
-0.1969234912560E+00 -0.3017417033405E+01 -0.6428681145117E+00 -0.4660904157745E-01
 0.6561685746040E-01 -0.2804759221282E+01 -0.5478284809276E+00 -0.2202104065453E+00
 0.4371202984774E+00 -0.2605167944511E+01 -0.4336095356680E+00 -0.4251086283823E+00
 0.9469835135787E+00 -0.2433208574745E+01 -0.2972450166626E+00 -0.6451708346350E+00
 0.1620377086795E+01 -0.2302408324943E+01 -0.1364062496622E+00 -0.8493959297709E+00
 0.2466442738749E+01 -0.2217723980115E+01  0.4974375246810E-01 -0.9903260547088E+00
 0.3463471569619E+01 -0.2165669476953E+01  0.2595604224010E+00 -0.1009574427483E+01
 0.4548329581317E+01 -0.2107519406680E+01  0.4881620422016E+00 -0.8537453511993E+00
 0.5620781265139E+01 -0.1983593498571E+01  0.7274375641534E+00 -0.4979027099196E+00
-0.1293804359132E+01 -0.5558504282955E+01 -0.1370461748839E+01 -0.8287397879596E+00
-0.1106218377457E+01 -0.5626721298880E+01 -0.1346587955333E+01 -0.8722165791989E+00
-0.9075116285239E+00 -0.5682363427502E+01 -0.1317975030845E+01 -0.8739378984686E+00
-0.7216645357015E+00 -0.5714526650598E+01 -0.1287238256441E+01 -0.8400148367674E+00
-0.5637632107420E+00 -0.5719356337051E+01 -0.1256623928284E+01 -0.7833342983571E+00
-0.4387031334661E+00 -0.5699547588340E+01 -0.1227650162655E+01 -0.7166467725164E+00
-0.3445595576465E+00 -0.5661059073497E+01 -0.1201123744127E+01 -0.6488472064492E+00
-0.2765038063619E+00 -0.5610150277284E+01 -0.1177330834273E+01 -0.5845809248568E+00
-0.2293476430520E+00 -0.5551889154134E+01 -0.1156247376667E+01 -0.5253944015471E+00
-0.1986748993162E+00 -0.5489820836093E+01 -0.1137699164035E+01 -0.4710440058098E+00
-0.1811285372581E+00 -0.5426169047386E+01 -0.1121459533640E+01 -0.4204376571493E+00
-0.1743380126070E+00 -0.5362153826888E+01 -0.1107298384399E+01 -0.3721909178243E+00
-0.1767452188700E+00 -0.5298252801718E+01 -0.1094999620434E+01 -0.3249296261558E+00
-0.1874249111506E+00 -0.5234371311630E+01 -0.1084359260714E+01 -0.2774647747810E+00
-0.2059092226914E+00 -0.5169945186600E+01 -0.1075170897880E+01 -0.2289234184390E+00
-0.2319899182062E+00 -0.5104011204177E+01 -0.1067200240379E+01 -0.1788678584708E+00
-0.2654614366380E+00 -0.5035301900572E+01 -0.1060152683240E+01 -0.1274012271485E+00
-0.3058021935374E+00 -0.4962394011952E+01 -0.1053639256798E+01 -0.7520854541043E-01
-0.3518686510123E+00 -0.4883881358513E+01 -0.1047150017509E+01 -0.2346100195257E-01
-0.4017274832360E+00 -0.4798597408773E+01 -0.1040064993900E+01  0.2645034826519E-01
-0.4527054169577E+00 -0.4706150006412E+01 -0.1031771100049E+01  0.7336565349955E-01
-0.5018014670921E+00 -0.4606860410355E+01 -0.1021732390715E+01  0.1165775256762E+00
-0.5462462255910E+00 -0.4500844322689E+01 -0.1009418124697E+01  0.1555361200551E+00
-0.5837568149787E+00 -0.4387536095573E+01 -0.9942585969259E+00  0.1894344643631E+00
-0.6124267352360E+00 -0.4265786398960E+01 -0.9756426413775E+00  0.2168928597480E+00
-0.6303780719796E+00 -0.4134182378282E+01 -0.9529121042517E+00  0.2357896545516E+00
-0.6353134096157E+00 -0.3991388075350E+01 -0.9253403107819E+00  0.2432446300029E+00
-0.6240601166983E+00 -0.3836430997074E+01 -0.8920982360478E+00  0.2357229875173E+00
-0.5921320626141E+00 -0.3668953493853E+01 -0.8522171239925E+00  0.2092204070702E+00
-0.5332802831494E+00 -0.3489490055197E+01 -0.8045540796581E+00  0.1595226550650E+00
-0.4389348711043E+00 -0.3299712756066E+01 -0.7477295365760E+00  0.8251085457220E-01
-0.2973937943636E+00 -0.3102685016747E+01 -0.6800157723552E+00 -0.2543646973595E-01
-0.9303979695138E-01 -0.2903599539443E+01 -0.5993278762096E+00 -0.1663771639839E+00
 0.1938737004710E+00 -0.2710558055203E+01 -0.5033368784467E+00 -0.3387742862972E+00
 0.5862973320660E+00 -0.2534471059737E+01 -0.3896347513402E+00 -0.5347318948786E+00
 0.1107252645868E+01 -0.2387505295864E+01 -0.2560505338147E+00 -0.7367001106003E+00
 0.1773456789775E+01 -0.2279249143379E+01 -0.1011584722283E+00 -0.9148146601646E+00
 0.2585698322486E+01 -0.2210413264059E+01  0.7505701280376E-01 -0.1027201753564E+01
 0.3518380926081E+01 -0.2165785181219E+01  0.2705191530033E+00 -0.1026082770486E+01
 0.4514059770732E+01 -0.2110783009728E+01  0.4806553593632E+00 -0.8709080064187E+00
 0.5489832404787E+01 -0.1996790174843E+01  0.6986084563988E+00 -0.5453722617405E+00
-0.1269830262920E+01 -0.5434626390877E+01 -0.1340891350740E+01 -0.8030704342958E+00
-0.1096282520665E+01 -0.5498652172104E+01 -0.1318986958208E+01 -0.8484034179851E+00
-0.9116807224382E+00 -0.5552374571000E+01 -0.1292811077952E+01 -0.8566295528871E+00
-0.7365600036380E+00 -0.5586136789823E+01 -0.1264539377535E+01 -0.8320258740174E+00
-0.5848241583389E+00 -0.5595719573991E+01 -0.1236108764885E+01 -0.7848976064475E+00
-0.4620805859366E+00 -0.5582430178670E+01 -0.1208902170935E+01 -0.7262000480542E+00
-0.3678298554691E+00 -0.5550777013949E+01 -0.1183721391522E+01 -0.6641984191543E+00
-0.2985337647075E+00 -0.5506031633766E+01 -0.1160913096994E+01 -0.6036993756235E+00
-0.2498700254567E+00 -0.5452779357914E+01 -0.1140529893669E+01 -0.5467243292679E+00
-0.2178997526929E+00 -0.5394421230618E+01 -0.1122464213388E+01 -0.4935257542147E+00
-0.1994816980424E+00 -0.5333203592299E+01 -0.1106537074557E+01 -0.4434200046268E+00
-0.1923079411805E+00 -0.5270426508896E+01 -0.1092546906296E+01 -0.3953339357169E+00
-0.1947949660195E+00 -0.5206653824945E+01 -0.1080289774291E+01 -0.3481326776861E+00
-0.2059338569174E+00 -0.5141869954056E+01 -0.1069560778132E+01 -0.3008223794032E+00
-0.2251232599951E+00 -0.5075591369906E+01 -0.1060142941778E+01 -0.2526983383960E+00
-0.2519738475242E+00 -0.5006955554623E+01 -0.1051785896102E+01 -0.2034649927081E+00
-0.2860635319896E+00 -0.4934831290561E+01 -0.1044178980070E+01 -0.1533265241542E+00
-0.3266534671938E+00 -0.4857966903606E+01 -0.1036924089611E+01 -0.1030085875722E+00
-0.3724346191901E+00 -0.4775143539025E+01 -0.1029515646984E+01 -0.5366117281392E-01
-0.4214011031966E+00 -0.4685367902416E+01 -0.1021353816342E+01 -0.6625025818847E-02
-0.4708979125775E+00 -0.4588365439309E+01 -0.1011852685455E+01  0.3696451649052E-01
-0.5179658101539E+00 -0.4484526326972E+01 -0.1000498442334E+01  0.7635730930009E-01
-0.5598053083414E+00 -0.4374060174327E+01 -0.9867731112378E+00  0.1108966851866E+00
-0.5939780613492E+00 -0.4256571687804E+01 -0.9701099642864E+00  0.1396514832591E+00
-0.6183021564700E+00 -0.4131161398564E+01 -0.9498927251613E+00  0.1611556094972E+00
-0.6305458506011E+00 -0.3996726537096E+01 -0.9254544913297E+00  0.1732757152426E+00
-0.6280282997051E+00 -0.3852285904728E+01 -0.8960628542389E+00  0.1732109150594E+00
-0.6072033877119E+00 -0.3697266263397E+01 -0.8608939430501E+00  0.1576068450812E+00
-0.5632541916667E+00 -0.3531764727405E+01 -0.8190037960185E+00  0.1227635889772E+00
-0.4896905543523E+00 -0.3356831010008E+01 -0.7693043243355E+00  0.6494454387291E-01
-0.3778858968979E+00 -0.3174699583233E+01 -0.7105171066137E+00 -0.1923626352810E-01
-0.2164573930368E+00 -0.2988986168737E+01 -0.6410887219076E+00 -0.1323073788397E+00
 0.9182370593454E-02 -0.2805228256224E+01 -0.5592091854590E+00 -0.2748273780704E+00
 0.3165806319779E+00 -0.2631320057767E+01 -0.4629478920562E+00 -0.4434879318166E+00
 0.7248583523346E+00 -0.2477019099882E+01 -0.3504321547313E+00 -0.6287950972297E+00
 0.1251416714546E+01 -0.2352130636150E+01 -0.2201427876013E+00 -0.8126760617729E+00
 0.1906225145757E+01 -0.2262932794327E+01 -0.7134153077716E-01 -0.9671195699813E+00
 0.2684210065400E+01 -0.2207093909317E+01  0.9542323263863E-01 -0.1055642900372E+01
 0.3558078912388E+01 -0.2168789967344E+01  0.2778577931492E+00 -0.1039295906589E+01
 0.4476054640043E+01 -0.2117302181218E+01  0.4717504987946E+00 -0.8871927217319E+00
 0.5369143191028E+01 -0.2012614635459E+01  0.6713057211170E+00 -0.5886218549598E+00
-0.1246100288792E+01 -0.5314996721154E+01 -0.1312219421543E+01 -0.7791336339050E+00
-0.1084956752899E+01 -0.5375174840368E+01 -0.1292026337906E+01 -0.8259340287592E+00
-0.9130494744814E+00 -0.5426821353879E+01 -0.1267974184566E+01 -0.8395930085094E+00
-0.7480526839316E+00 -0.5461386630820E+01 -0.1241887881456E+01 -0.8230484766427E+00
-0.6026776585967E+00 -0.5474531681647E+01 -0.1215441886160E+01 -0.7845378708824E+00
-0.4828911955628E+00 -0.5466549569437E+01 -0.1189888170731E+01 -0.7334187918854E+00
-0.3892705862008E+00 -0.5440750944526E+01 -0.1166004323520E+01 -0.6772482484736E+00
-0.3193704781148E+00 -0.5401495005677E+01 -0.1144173113808E+01 -0.6208191217334E+00
-0.2696712157094E+00 -0.5352848894187E+01 -0.1124504038736E+01 -0.5664782383334E+00
-0.2367182957251E+00 -0.5297999083097E+01 -0.1106943492259E+01 -0.5148847893133E+00
-0.2176151784848E+00 -0.5239151622413E+01 -0.1091353376442E+01 -0.4657229695202E+00
-0.2101439796833E+00 -0.5177644849486E+01 -0.1077557781891E+01 -0.4182182091027E+00
-0.2127147323901E+00 -0.5114108047416E+01 -0.1065364571836E+01 -0.3714736599232E+00
-0.2242462933538E+00 -0.5048600237934E+01 -0.1054569321972E+01 -0.3246903118813E+00
-0.2440123339997E+00 -0.4980724160998E+01 -0.1044947314570E+01 -0.2773263721926E+00
-0.2714539647469E+00 -0.4909726375766E+01 -0.1036236083544E+01 -0.2292163993131E+00
-0.3059513497029E+00 -0.4834615760860E+01 -0.1028113437433E+01 -0.1806502188288E+00
-0.3465725698394E+00 -0.4754307553718E+01 -0.1020176039913E+01 -0.1323824849812E+00
-0.3918629912283E+00 -0.4667759176998E+01 -0.1011924448724E+01 -0.8553990222510E-01
-0.4397480320484E+00 -0.4574139687496E+01 -0.1002777558851E+01 -0.4141838218387E-01
-0.4875756338279E+00 -0.4473287047866E+01 -0.9921725511233E+00 -0.1133183772716E-02
-0.5324045133298E+00 -0.4365661710370E+01 -0.9796132593373E+00  0.3452866695943E-01
-0.5713898876976E+00 -0.4251570597302E+01 -0.9645921113734E+00  0.6482306548975E-01
-0.6019417813072E+00 -0.4130790290312E+01 -0.9465464284285E+00  0.8872178166616E-01
-0.6216256162027E+00 -0.4002671219307E+01 -0.9248593808834E+00  0.1047000513480E+00
-0.6278921152543E+00 -0.3866421152039E+01 -0.8988626668528E+00  0.1106390614015E+00
-0.6177234630333E+00 -0.3721413461416E+01 -0.8678273978215E+00  0.1038449167854E+00
-0.5872596186099E+00 -0.3567466859736E+01 -0.8309453080512E+00  0.8117694071735E-01
-0.5314354582917E+00 -0.3405106466286E+01 -0.7873083966474E+00  0.3927886435775E-01
-0.4436389866609E+00 -0.3235834153915E+01 -0.7358946390809E+00 -0.2507190459565E-01
-0.3153535642094E+00 -0.3062328205331E+01 -0.6755363639743E+00 -0.1145183890050E+00
-0.1357234978152E+00 -0.2888566577311E+01 -0.6048580240382E+00 -0.2305553865224E+00
 0.1086068623690E+00 -0.2720178287308E+01 -0.5223142927708E+00 -0.3724319120663E+00
 0.4329044691783E+00 -0.2564591173431E+01 -0.4263373472034E+00 -0.5354494504366E+00
 0.8526965772223E+00 -0.2430271645353E+01 -0.3155150183277E+00 -0.7090990290309E+00
 0.1380552303981E+01 -0.2324831884209E+01 -0.1888559188598E+00 -0.8754424206756E+00
 0.2021156821977E+01 -0.2251850053786E+01 -0.4613864704932E-01 -0.1008701004771E+01
 0.2765441470868E+01 -0.2206899463771E+01  0.1117084030840E+00 -0.1077370549166E+01
 0.3585823083554E+01 -0.2174255739789E+01  0.2823134729600E+00 -0.1049776824983E+01
 0.4435761762816E+01 -0.2126705754175E+01  0.4618112086099E+00 -0.9024132155806E+00
 0.5257218915169E+01 -0.2030757890606E+01  0.6452922145282E+00 -0.6280862876557E+00
-0.1222609042970E+01 -0.5199061822929E+01 -0.1284334192318E+01 -0.7567500074842E+00
-0.1072494480059E+01 -0.5255706289988E+01 -0.1265640172869E+01 -0.8047259352503E+00
-0.9120457141847E+00 -0.5305212260855E+01 -0.1243451613537E+01 -0.8229662280023E+00
-0.7565556760868E+00 -0.5340000188784E+01 -0.1219311191143E+01 -0.8134256108930E+00
-0.6175890228604E+00 -0.5355765072482E+01 -0.1194670836871E+01 -0.7826845691613E+00
-0.5012276815751E+00 -0.5352069442454E+01 -0.1170659442250E+01 -0.7387013234093E+00
-0.4088442413783E+00 -0.5331248003305E+01 -0.1148018466044E+01 -0.6883028326049E+00
-0.3389021556345E+00 -0.5296840536721E+01 -0.1127148555267E+01 -0.6361453306782E+00
-0.2886071106823E+00 -0.5252392128356E+01 -0.1108199864321E+01 -0.5847774963389E+00
-0.2549777103927E+00 -0.5200829465770E+01 -0.1091161451492E+01 -0.5351809413708E+00
-0.2353778653052E+00 -0.5144269721594E+01 -0.1075929533412E+01 -0.4873624996456E+00
-0.2277002065828E+00 -0.5084053699644E+01 -0.1062350797076E+01 -0.4408264142276E+00
-0.2303649851586E+00 -0.5020856140793E+01 -0.1050244240840E+01 -0.3949061777597E+00
-0.2422309507592E+00 -0.4954803829295E+01 -0.1039406971499E+01 -0.3489926178574E+00
-0.2624574760079E+00 -0.4885586980176E+01 -0.1029608906579E+01 -0.3026991606716E+00
-0.2903296065618E+00 -0.4812564375203E+01 -0.1020578811561E+01 -0.2559788270623E+00
-0.3250485413728E+00 -0.4734884523654E+01 -0.1011986628085E+01 -0.2091943039816E+00
-0.3655108346939E+00 -0.4651623080973E+01 -0.1003426798086E+01 -0.1631206838914E+00
-0.4101325332331E+00 -0.4561903563303E+01 -0.9944072341250E+00 -0.1188605033693E+00
-0.4567729077386E+00 -0.4465048564936E+01 -0.9843643092032E+00 -0.7766892461766E-01
-0.5027702972815E+00 -0.4361005156453E+01 -0.9727551052420E+00 -0.4064316544082E-01
-0.5451828050765E+00 -0.4250306086270E+01 -0.9590977925609E+00 -0.8600062776193E-02
-0.5811095755475E+00 -0.4133358785432E+01 -0.9428936862461E+00  0.1764754742164E-01
-0.6078147870573E+00 -0.4010112072114E+01 -0.9235853855967E+00  0.3700010522642E-01
-0.6226341459488E+00 -0.3880163357088E+01 -0.9005595140267E+00  0.4790084773169E-01
-0.6227373485342E+00 -0.3743025697318E+01 -0.8731526221815E+00  0.4827055357595E-01
-0.6048173477226E+00 -0.3598418122370E+01 -0.8406471065451E+00  0.3554690574749E-01
-0.5647614664911E+00 -0.3446532923182E+01 -0.8022588898893E+00  0.6828743603216E-02
-0.4973382559601E+00 -0.3288285022275E+01 -0.7571246669291E+00 -0.4087162881485E-01
-0.3959245229860E+00 -0.3125557449700E+01 -0.7042964050319E+00 -0.1102493254290E+00
-0.2522553021906E+00 -0.2961355896300E+01 -0.6427222492754E+00 -0.2032251126384E+00
-0.5615937157548E-01 -0.2799852834849E+01 -0.5712024497966E+00 -0.3203517505190E+00
 0.2043671222329E+00 -0.2646569449880E+01 -0.4884404728077E+00 -0.4597767360768E+00
 0.5423333906154E+00 -0.2508298156040E+01 -0.3931929589440E+00 -0.6157671856831E+00
 0.9699896850151E+00 -0.2392183673337E+01 -0.2844388019028E+00 -0.7772775369761E+00
 0.1495833428251E+01 -0.2303878761823E+01 -0.1616090691227E+00 -0.9269623651790E+00
 0.2120475954016E+01 -0.2244817598775E+01 -0.2486832932245E-01 -0.1041429879902E+01
 0.2832242435563E+01 -0.2209173377649E+01  0.1246138134396E+00 -0.1093629121868E+01
 0.3604120268071E+01 -0.2181828849895E+01  0.2844582878739E+00 -0.1057864766272E+01
 0.4394333358674E+01 -0.2138593446347E+01  0.4511479891880E+00 -0.9163307475732E+00
 0.5152773635243E+01 -0.2051066282195E+01  0.6203414798535E+00 -0.6642363619918E+00
-0.1199346759059E+01 -0.5086365691866E+01 -0.1257142508918E+01 -0.7357650333433E+00
-0.1059092066006E+01 -0.5139761459125E+01 -0.1239770723500E+01 -0.7846957185917E+00
-0.9090164989089E+00 -0.5187123360721E+01 -0.1219227990094E+01 -0.8068360240215E+00
-0.7624239687786E+00 -0.5221713527513E+01 -0.1196827517092E+01 -0.8034158034227E+00
-0.6298081724750E+00 -0.5239354641282E+01 -0.1173832580243E+01 -0.7796850403019E+00
-0.5172003798526E+00 -0.5239092154786E+01 -0.1151258524083E+01 -0.7423893126494E+00
-0.4265448457998E+00 -0.5222474235020E+01 -0.1129803832999E+01 -0.6976398680608E+00
-0.3570485253669E+00 -0.5192319580998E+01 -0.1109873637811E+01 -0.6498744074667E+00
-0.3065592963371E+00 -0.5151668797039E+01 -0.1091645634942E+01 -0.6017444986108E+00
-0.2725445586610E+00 -0.5103163937687E+01 -0.1075141715291E+01 -0.5544779491594E+00
-0.2526334600668E+00 -0.5048797859541E+01 -0.1060286279721E+01 -0.5083577008633E+00
-0.2448431403040E+00 -0.4989884337679E+01 -0.1046945511197E+01 -0.4631423184364E+00
-0.2476181378300E+00 -0.4927125115581E+01 -0.1034948666104E+01 -0.4183830219168E+00
-0.2597692346049E+00 -0.4860706336531E+01 -0.1024095129487E+01 -0.3736517696465E+00
-0.2803534497727E+00 -0.4790403506516E+01 -0.1014151406370E+01 -0.3287077499959E+00
-0.3085142933389E+00 -0.4715686820070E+01 -0.1004840237655E+01 -0.2836111902518E+00
-0.3432922513884E+00 -0.4635840882823E+01 -0.9958266416813E+00 -0.2387868469292E+00
-0.3834315327315E+00 -0.4550094166366E+01 -0.9867051545225E+00 -0.1950237292934E+00
-0.4272324561822E+00 -0.4457726830651E+01 -0.9769918719249E+00 -0.1533997733972E+00
-0.4724901266210E+00 -0.4358207523218E+01 -0.9661395443643E+00 -0.1151320691255E+00
-0.5165233905394E+00 -0.4251589788883E+01 -0.9536226500946E+00 -0.8129989775330E-01
-0.5563756681862E+00 -0.4138480588896E+01 -0.9389712654082E+00 -0.5274206184985E-01
-0.5890830645508E+00 -0.4019390233880E+01 -0.9216946734205E+00 -0.3032235533532E-01
-0.6117714403198E+00 -0.3894438649828E+01 -0.9012420314592E+00 -0.1518769982792E-01
-0.6215698477440E+00 -0.3763464574604E+01 -0.8770068975379E+00 -0.8902001374335E-02
-0.6154031598979E+00 -0.3626276409174E+01 -0.8483359264555E+00 -0.1348203011284E-01
-0.5897227541331E+00 -0.3482923124951E+01 -0.8145291879543E+00 -0.3133794496752E-01
-0.5402239110791E+00 -0.3333944165774E+01 -0.7748336269166E+00 -0.6511334489224E-01
-0.4615866522247E+00 -0.3180598898790E+01 -0.7284371210574E+00 -0.1174157579557E+00
-0.3472749545192E+00 -0.3025078114041E+01 -0.6744706237624E+00 -0.1904187672180E+00
-0.1893905248416E+00 -0.2870606769026E+01 -0.6119994678931E+00 -0.2853649163363E+00
 0.2144310203994E-01 -0.2721410542001E+01 -0.5399934960388E+00 -0.4019766875035E+00
 0.2958254077909E+00 -0.2582754339492E+01 -0.4573857931558E+00 -0.5375098155824E+00
 0.6446027876920E+00 -0.2460698796444E+01 -0.3632192071627E+00 -0.6855138331943E+00
 0.1077103212074E+01 -0.2361108081059E+01 -0.2568009776237E+00 -0.8347839732726E+00
 0.1598444491059E+01 -0.2287934906648E+01 -0.1378980851727E+00 -0.9688705965410E+00
 0.2206159426842E+01 -0.2240940956799E+01 -0.6956306095033E-02 -0.1066763652498E+01
 0.2886934660685E+01 -0.2213441780029E+01  0.1346985781383E+00 -0.1105354782516E+01
 0.3614944728044E+01 -0.2191070616931E+01  0.2847748264661E+00 -0.1063713783534E+01
 0.4352622656602E+01 -0.2152845981202E+01  0.4399553416359E+00 -0.9287628778057E+00
 0.5055197212933E+01 -0.2072652672898E+01  0.5965089168957E+00 -0.6974822156631E+00
-0.1176309674944E+01 -0.4976538270101E+01 -0.1230569607346E+01 -0.7160530272733E+00
-0.1044915781584E+01 -0.5026974658815E+01 -0.1214378106175E+01 -0.7657713955826E+00
-0.9042577801957E+00 -0.5072256337384E+01 -0.1195302841327E+01 -0.7912675444906E+00
-0.7659710941547E+00 -0.5106375252000E+01 -0.1174469286732E+01 -0.7932277857459E+00
-0.6395682500137E+00 -0.5125334292648E+01 -0.1152980525713E+01 -0.7758308245444E+00
-0.5309225155935E+00 -0.5127820655448E+01 -0.1131748651073E+01 -0.7447789945492E+00
-0.4423756526206E+00 -0.5114754385980E+01 -0.1111426024282E+01 -0.7055049563035E+00
-0.3737340665979E+00 -0.5088329737428E+01 -0.1092412777083E+01 -0.6621782284047E+00
-0.3234045213207E+00 -0.5051114580735E+01 -0.1074903836428E+01 -0.6174770365708E+00
-0.2892701177298E+00 -0.5005457938801E+01 -0.1058945627086E+01 -0.5728090735023E+00
-0.2692210158698E+00 -0.4953205089685E+01 -0.1044485236675E+01 -0.5286880261802E+00
-0.2614067868214E+00 -0.4895620099596E+01 -0.1031405392653E+01 -0.4850994186424E+00
-0.2643074556433E+00 -0.4833415769132E+01 -0.1019544660148E+01 -0.4417957352796E+00
-0.2766975029103E+00 -0.4766828731410E+01 -0.1008705261895E+01 -0.3985181497351E+00
-0.2975443285505E+00 -0.4695715340259E+01 -0.9986519486429E+00 -0.3551603969166E+00
-0.3258652467104E+00 -0.4619653530088E+01 -0.9891037700984E+00 -0.3118785643585E+00
-0.3605581150492E+00 -0.4538058183399E+01 -0.9797232742887E+00 -0.2691497421951E+00
-0.4002327217166E+00 -0.4450301994755E+01 -0.9701069577500E+00 -0.2277713651773E+00
-0.4430860832912E+00 -0.4355812389274E+01 -0.9597797088148E+00 -0.1887962111196E+00
-0.4868518007108E+00 -0.4254196796002E+01 -0.9482097334719E+00 -0.1534046855504E+00
-0.5288224475531E+00 -0.4145612213010E+01 -0.9348869460436E+00 -0.1226567867176E+00
-0.5660170427091E+00 -0.4030740472637E+01 -0.9193515167687E+00 -0.9740494441383E-01
-0.5954056598347E+00 -0.3910195059008E+01 -0.9011201571962E+00 -0.7854702416122E-01
-0.6139859593465E+00 -0.3784262913175E+01 -0.8796497876121E+00 -0.6725518126870E-01
-0.6187048052225E+00 -0.3653014165807E+01 -0.8543438069366E+00 -0.6507800859675E-01
-0.6062793362263E+00 -0.3516536583794E+01 -0.8245631962910E+00 -0.7395037832403E-01
-0.5729674317510E+00 -0.3375185714890E+01 -0.7896306410946E+00 -0.9611543605837E-01
-0.5143315838504E+00 -0.3229813585112E+01 -0.7488290449509E+00 -0.1339508436226E+00
-0.4250349940946E+00 -0.3081972434310E+01 -0.7014014961326E+00 -0.1896872151115E+00
-0.2987118133556E+00 -0.2934086959407E+01 -0.6465597641870E+00 -0.2650022704037E+00
-0.1279154874985E+00 -0.2789503888438E+01 -0.5834838838818E+00 -0.3605256820669E+00
 0.9587377867278E-01 -0.2652388844499E+01 -0.5113030207842E+00 -0.4752770193038E+00
 0.3818626317927E+00 -0.2527649872943E+01 -0.4291574546251E+00 -0.6058263613936E+00
 0.7388933833818E+00 -0.2420581188343E+01 -0.3363375660042E+00 -0.7452813354922E+00
 0.1173752658934E+01 -0.2335861680257E+01 -0.2324218077279E+00 -0.8825654899459E+00
 0.1688817677916E+01 -0.2276010388653E+01 -0.1174385438973E+00 -0.1002298649367E+01
 0.2279336858659E+01 -0.2239523712121E+01  0.7962629426191E-02 -0.1085744937645E+01
 0.2931136513679E+01 -0.2219228563541E+01  0.1423815921492E+00 -0.1113180261294E+01
 0.3619611818379E+01 -0.2201674983822E+01  0.2835873711373E+00 -0.1067619617425E+01
 0.4311872620066E+01 -0.2168271729703E+01  0.4287201844611E+00 -0.9389342780682E+00
 0.4965758365682E+01 -0.2097657156934E+01  0.5736202502974E+00 -0.7290985288477E+00
-0.1153472856410E+01 -0.4869254845901E+01 -0.1204545558411E+01 -0.6974795579653E+00
-0.1030077050177E+01 -0.4916997771290E+01 -0.1189414982017E+01 -0.7478646285868E+00
-0.8979897032317E+00 -0.4960288417132E+01 -0.1171655641532E+01 -0.7762748587380E+00
-0.7674477734241E+00 -0.4993752069664E+01 -0.1152239985787E+01 -0.7829941551637E+00
-0.6470728553362E+00 -0.5013598308092E+01 -0.1132134249556E+01 -0.7713348565997E+00
-0.5425123962440E+00 -0.5018273894775E+01 -0.1112157274776E+01 -0.7461055147763E+00
-0.4563700041033E+00 -0.5008201372380E+01 -0.1092914291582E+01 -0.7121086804311E+00
-0.3889276777428E+00 -0.4985040703268E+01 -0.1074793692218E+01 -0.6732186648515E+00
-0.3390712518011E+00 -0.4950926250676E+01 -0.1057999516261E+01 -0.6320826533178E+00
-0.3050616744899E+00 -0.4907917074687E+01 -0.1042595765371E+01 -0.5902316602410E+00
-0.2850395898507E+00 -0.4857697097536E+01 -0.1028547352804E+01 -0.5483674704759E+00
-0.2772902000361E+00 -0.4801463681367E+01 -0.1015750791416E+01 -0.5066741832120E+00
-0.2803377204904E+00 -0.4739926947428E+01 -0.1004052948545E+01 -0.4650868976958E+00
-0.2929312193624E+00 -0.4673364849757E+01 -0.9932592286246E+00 -0.4235022714839E+00
-0.3139612154582E+00 -0.4601708407808E+01 -0.9831339393031E+00 -0.3819366861746E+00
-0.3423339268915E+00 -0.4524637529467E+01 -0.9733943057765E+00 -0.3406312940660E+00
-0.3768214808756E+00 -0.4441690070659E+01 -0.9637023246672E+00 -0.3001070334141E+00
-0.4159151896868E+00 -0.4352373951886E+01 -0.9536578425252E+00 -0.2611652140821E+00
-0.4577195475740E+00 -0.4256254850670E+01 -0.9427948936975E+00 -0.2248327627921E+00
-0.4999092790389E+00 -0.4153072028357E+01 -0.9305962753461E+00 -0.1922536910211E+00
-0.5397459869977E+00 -0.4043082702294E+01 -0.9165657515162E+00 -0.1644662475181E+00
-0.5742179646359E+00 -0.3927043427222E+01 -0.9002522917864E+00 -0.1423281828479E+00
-0.6002289928567E+00 -0.3805669929594E+01 -0.8811797976207E+00 -0.1267561541798E+00
-0.6146596347856E+00 -0.3679410612186E+01 -0.8588140621916E+00 -0.1189280806201E+00
-0.6142982948666E+00 -0.3548555202798E+01 -0.8325707119392E+00 -0.1203579347585E+00
-0.5956894642097E+00 -0.3413452342005E+01 -0.8018283731912E+00 -0.1328829706422E+00
-0.5549424097145E+00 -0.3274737815957E+01 -0.7659360565475E+00 -0.1585695035572E+00
-0.4875407925755E+00 -0.3133539270763E+01 -0.7242160234593E+00 -0.1995281328565E+00
-0.3881932341107E+00 -0.2991650508535E+01 -0.6759687586018E+00 -0.2576255713821E+00
-0.2507705844574E+00 -0.2851662242522E+01 -0.6204865746419E+00 -0.3340805116695E+00
-0.6833705547157E-01 -0.2716960633176E+01 -0.5570595460303E+00 -0.4289841919578E+00
 0.1667440232624E+00 -0.2591565009885E+01 -0.4849642045510E+00 -0.5407799725455E+00
 0.4623361042571E+00 -0.2479964023939E+01 -0.4035255899494E+00 -0.6655374150406E+00
 0.8254589337433E+00 -0.2386690771946E+01 -0.3122463722934E+00 -0.7961472336519E+00
 0.1260719672208E+01 -0.2315355925000E+01 -0.2109272537014E+00 -0.9218673071860E+00
 0.1768292651438E+01 -0.2267291522556E+01 -0.9979977571071E-01 -0.1028470913990E+01
 0.2341783727437E+01 -0.2240053346052E+01  0.2034607658006E-01 -0.1099331776085E+01
 0.2966599006978E+01 -0.2226258928365E+01  0.1480680179290E+00 -0.1117634053942E+01
 0.3619769444059E+01 -0.2213372459478E+01  0.2812794011075E+00 -0.1069530668528E+01
 0.4271102441059E+01 -0.2184914557896E+01  0.4172375828497E+00 -0.9474611215629E+00
 0.4889490047826E+01 -0.2123239504706E+01  0.5532501168681E+00 -0.7543686949861E+00
-0.1130823820732E+01 -0.4764235787558E+01 -0.1179011939227E+01 -0.6799461885351E+00
-0.1014666852515E+01 -0.4809498732192E+01 -0.1164833134299E+01 -0.7308985346415E+00
-0.8904006667077E+00 -0.4850876375933E+01 -0.1148255425638E+01 -0.7618619023247E+00
-0.7670788369647E+00 -0.4883539408683E+01 -0.1130123665970E+01 -0.7728169689578E+00
-0.6525207708449E+00 -0.4903915941317E+01 -0.1111287358992E+01 -0.7663744413151E+00
-0.5521064279343E+00 -0.4910300309914E+01 -0.1092481363849E+01 -0.7465785388063E+00
-0.4685962399160E+00 -0.4902724785384E+01 -0.1074264221068E+01 -0.7176546779384E+00
-0.4026425887139E+00 -0.4882396551362E+01 -0.1057007843766E+01 -0.6831705854254E+00
-0.3535363100798E+00 -0.4851058459333E+01 -0.1040918969394E+01 -0.6456995216241E+00
-0.3198764949460E+00 -0.4810489953095E+01 -0.1026073304898E+01 -0.6068482785769E+00
-0.3000395365307E+00 -0.4762206630898E+01 -0.1012449248572E+01 -0.5674676396861E+00
-0.2924457876402E+00 -0.4707326464990E+01 -0.9999544654265E+00 -0.5279121670478E+00
-0.2956700763204E+00 -0.4646544835139E+01 -0.9884429970209E+00 -0.4882799809741E+00
-0.3084458208177E+00 -0.4580171549263E+01 -0.9777234885854E+00 -0.4486086774693E+00
-0.3295987066873E+00 -0.4508204752101E+01 -0.9675607061754E+00 -0.4090253587246E+00
-0.3579379293965E+00 -0.4430419087365E+01 -0.9576714176226E+00 -0.3698462535563E+00
-0.3921249911454E+00 -0.4346467264187E+01 -0.9477184651886E+00 -0.3316287925341E+00
-0.4305463857896E+00 -0.4255983560745E+01 -0.9373060032740E+00 -0.2951742831135E+00
-0.4712230643559E+00 -0.4158663634508E+01 -0.9259773535710E+00 -0.2614828386953E+00
-0.5117732623001E+00 -0.4054372320603E+01 -0.9132291301888E+00 -0.2316614939740E+00
-0.5494243574761E+00 -0.3943463968824E+01 -0.8985776786498E+00 -0.2067236497406E+00
-0.5811296201082E+00 -0.3826769239847E+01 -0.8815797851277E+00 -0.1875243889138E+00
-0.6037275604019E+00 -0.3705104617665E+01 -0.8617664484547E+00 -0.1749854975511E+00
-0.6139923085142E+00 -0.3579074236276E+01 -0.8386133214543E+00 -0.1702736932661E+00
-0.6085752413333E+00 -0.3449175842231E+01 -0.8115502288058E+00 -0.1748518414762E+00
-0.5838794760008E+00 -0.3316000932498E+01 -0.7799760933223E+00 -0.1904468454329E+00
-0.5359053711328E+00 -0.3180440108095E+01 -0.7432691069212E+00 -0.2189418319925E+00
-0.4601046721874E+00 -0.3043861867676E+01 -0.7007933184152E+00 -0.2621835015492E+00
-0.3512835679758E+00 -0.2908255311756E+01 -0.6519077856605E+00 -0.3216925851059E+00
-0.2036016348013E+00 -0.2776319268813E+01 -0.5959841896036E+00 -0.3982695001962E+00
-0.1067367671291E-01 -0.2651413859482E+01 -0.5324175151727E+00 -0.4915407811176E+00
 0.2342489483100E+00 -0.2537350102168E+01 -0.4606202376353E+00 -0.5994896699879E+00
 0.5377517322209E+00 -0.2438163112178E+01 -0.3800822816550E+00 -0.7178432422760E+00
 0.9052079354485E+00 -0.2357652256620E+01 -0.2904888685629E+00 -0.8394527930719E+00
 0.1339357711637E+01 -0.2298477451846E+01 -0.1918239509002E+00 -0.9540548438557E+00
 0.1838610337169E+01 -0.2260992252853E+01 -0.8447638439559E-01 -0.1048606233436E+01
 0.2395385021609E+01 -0.2242064358761E+01  0.3066413302658E-01 -0.1108420433952E+01
 0.2995067538522E+01 -0.2234282705813E+01  0.1521569688090E+00 -0.1119187372176E+01
 0.3616081525927E+01 -0.2226032755086E+01  0.2780097583108E+00 -0.1069598733308E+01
 0.4231853828698E+01 -0.2202660354225E+01  0.4058387009421E+00 -0.9542331120381E+00
 0.4815069617203E+01 -0.2149740460869E+01  0.5330658392101E+00 -0.7752850876482E+00
-0.1108347935285E+01 -0.4661246430998E+01 -0.1153918890451E+01 -0.6633596137930E+00
-0.9987609552414E+00 -0.4704226728692E+01 -0.1140597553783E+01 -0.7148032202510E+00
-0.8816467019246E+00 -0.4743779789325E+01 -0.1125085315015E+01 -0.7480239061895E+00
-0.7650532640867E+00 -0.4775548696987E+01 -0.1108120408727E+01 -0.7627729758998E+00
-0.6560804197573E+00 -0.4796180298841E+01 -0.1090452159969E+01 -0.7610899774626E+00
-0.5598190395962E+00 -0.4803881466335E+01 -0.1072740117171E+01 -0.7463665614957E+00
-0.4791062132568E+00 -0.4798381425684E+01 -0.1055497543516E+01 -0.7223052224930E+00
-0.4148765490102E+00 -0.4780507172435E+01 -0.1039076759772E+01 -0.6921674927803E+00
-0.3667584719930E+00 -0.4751652847160E+01 -0.1023682279085E+01 -0.6584224372084E+00
-0.3336492343305E+00 -0.4713334156682E+01 -0.1009396693244E+01 -0.6227137112199E+00
-0.3141431863814E+00 -0.4666897417794E+01 -0.9962081356797E+00 -0.5860060984820E+00
-0.3067921932678E+00 -0.4613372891642E+01 -0.9840330316452E+00 -0.5487975054214E+00
-0.3102259192959E+00 -0.4553431403632E+01 -0.9727314790804E+00 -0.5113290280924E+00
-0.3231706783747E+00 -0.4487405659589E+01 -0.9621152819293E+00 -0.4737639731206E+00
-0.3443986656142E+00 -0.4415352860005E+01 -0.9519503193091E+00 -0.4363279699035E+00
-0.3726353757162E+00 -0.4337134322117E+01 -0.9419539536029E+00 -0.3994025921905E+00
-0.4064456897173E+00 -0.4252508940192E+01 -0.9317909398666E+00 -0.3635748583111E+00
-0.4441236962620E+00 -0.4161228397318E+01 -0.9210704324411E+00 -0.3296423289020E+00
-0.4836150629132E+00 -0.4063110184065E+01 -0.9093450629459E+00 -0.2985768848631E+00
-0.5224843738107E+00 -0.3958138360505E+01 -0.8961245602164E+00 -0.2714472158531E+00
-0.5579231787251E+00 -0.3846760751989E+01 -0.8809367992698E+00 -0.2492382344850E+00
-0.5868475755511E+00 -0.3729880527441E+01 -0.8633456334633E+00 -0.2327946220794E+00
-0.6060334573727E+00 -0.3608412227380E+01 -0.8428891495105E+00 -0.2230309301956E+00
-0.6121596235999E+00 -0.3483108744414E+01 -0.8190536858077E+00 -0.2210878437388E+00
-0.6017609492031E+00 -0.3354663038177E+01 -0.7912848092670E+00 -0.2283633095613E+00
-0.5711282764308E+00 -0.3223890250904E+01 -0.7590037167769E+00 -0.2464643726152E+00
-0.5161891540273E+00 -0.3091909546240E+01 -0.7216197508065E+00 -0.2770886850949E+00
-0.4324045797968E+00 -0.2960295925934E+01 -0.6785401112572E+00 -0.3218273727677E+00
-0.3147213527140E+00 -0.2831190657590E+01 -0.6291824114364E+00 -0.3818789992205E+00
-0.1576261229910E+00 -0.2707350370970E+01 -0.5729953073305E+00 -0.4576715698964E+00
 0.4469447658430E-01 -0.2592057185382E+01 -0.5094725493513E+00 -0.5484419264049E+00
 0.2981174570696E+00 -0.2488871520160E+01 -0.4381508191470E+00 -0.6518220153679E+00
 0.6080330288499E+00 -0.2401363335420E+01 -0.3586660666586E+00 -0.7633335388272E+00
 0.9783450835195E+00 -0.2332643200186E+01 -0.2708596273694E+00 -0.8759289134508E+00
 0.1410210929689E+01 -0.2284538324508E+01 -0.1748654815696E+00 -0.9799199743132E+00
 0.1900636266208E+01 -0.2256607001586E+01 -0.7119414813652E-01 -0.1063435000114E+01
 0.2441226182101E+01 -0.2245226601969E+01  0.3919991661049E-01 -0.1113551310593E+01
 0.3017539971860E+01 -0.2243092344832E+01  0.1548895277136E+00 -0.1118095828345E+01
 0.3609507830799E+01 -0.2239455023842E+01  0.2740105654744E+00 -0.1067881894318E+01
 0.4193316511861E+01 -0.2221420105055E+01  0.3943792872379E+00 -0.9588477463131E+00
 0.4744734103285E+01 -0.2176310478585E+01  0.5136847325945E+00 -0.7931183371831E+00
-0.1086030689742E+01 -0.4560083826764E+01 -0.1129222920128E+01 -0.6476356626868E+00
-0.9824197132434E+00 -0.4600963891262E+01 -0.1116676737541E+01 -0.6995127007687E+00
-0.8718571185329E+00 -0.4638787601212E+01 -0.1102128960372E+01 -0.7347472410179E+00
-0.7615326989709E+00 -0.4669608330637E+01 -0.1086228222108E+01 -0.7529160479600E+00
-0.6579020501441E+00 -0.4690285611682E+01 -0.1069637548304E+01 -0.7555915038925E+00
-0.5657588089804E+00 -0.4698986312336E+01 -0.1052949039953E+01 -0.7456082125791E+00
-0.4879562154111E+00 -0.4695207259993E+01 -0.1036632710528E+01 -0.7261986078121E+00
-0.4256378882244E+00 -0.4679458920314E+01 -0.1021019376922E+01 -0.7003263898625E+00
-0.3787095554025E+00 -0.4652828431370E+01 -0.1006307612350E+01 -0.6703361944228E+00
-0.3463277845157E+00 -0.4616587046565E+01 -0.9925829810068E+00 -0.6378773203461E+00
-0.3272853294331E+00 -0.4571915361444E+01 -0.9798401527762E+00 -0.6039978307739E+00
-0.3202595584244E+00 -0.4519751240920E+01 -0.9680021742933E+00 -0.5693134815887E+00
-0.3239372975446E+00 -0.4460733241460E+01 -0.9569341220603E+00 -0.5341885055141E+00
-0.3370450608654E+00 -0.4395208724667E+01 -0.9464507712097E+00 -0.4988964927397E+00
-0.3583120280274E+00 -0.4323285721516E+01 -0.9363195638609E+00 -0.4637493740552E+00
-0.3863924359297E+00 -0.4244903720721E+01 -0.9262592451326E+00 -0.4291845890286E+00
-0.4197674764649E+00 -0.4159918845428E+01 -0.9159372780271E+00 -0.3958121412165E+00
-0.4566501892358E+00 -0.4068191212119E+01 -0.9049682937560E+00 -0.3644220983040E+00
-0.4949186982393E+00 -0.3969652038716E+01 -0.8929141606965E+00 -0.3359562451755E+00
-0.5320872337559E+00 -0.3864398047377E+01 -0.8792970693292E+00 -0.3114429446401E+00
-0.5653113118568E+00 -0.3752966269748E+01 -0.8636555291904E+00 -0.2918346468910E+00
-0.5914694460789E+00 -0.3636329830881E+01 -0.8455598679918E+00 -0.2779582652129E+00
-0.6072788076802E+00 -0.3515497517059E+01 -0.8245552772347E+00 -0.2707100506821E+00
-0.6093341129860E+00 -0.3391362968309E+01 -0.8001394281820E+00 -0.2711918957377E+00
-0.5940731080962E+00 -0.3264800696901E+01 -0.7717747724998E+00 -0.2807256100617E+00
-0.5577009814602E+00 -0.3136829716300E+01 -0.7389061505626E+00 -0.3007919282666E+00
-0.4961045714163E+00 -0.3008771588843E+01 -0.7009752424973E+00 -0.3329043746528E+00
-0.4047892098822E+00 -0.2882374993496E+01 -0.6574328504721E+00 -0.3784110294057E+00
-0.2788763416375E+00 -0.2759894364102E+01 -0.6077541502041E+00 -0.4382163138464E+00
-0.1132054945852E+00 -0.2644101781740E+01 -0.5514614634824E+00 -0.5124243640982E+00
 0.9745926780823E-01 -0.2538161952211E+01 -0.4881405441544E+00 -0.5999557789049E+00
 0.3581557963392E+00 -0.2445358913903E+01 -0.4174406297331E+00 -0.6981905899329E+00
 0.6731718189707E+00 -0.2368802766408E+01 -0.3391261945409E+00 -0.8025615908671E+00
 0.1045113669819E+01 -0.2310970484114E+01 -0.2531713666316E+00 -0.9062308637033E+00
 0.1473807291258E+01 -0.2272969856121E+01 -0.1598325153543E+00 -0.1000144853672E+01
 0.1955157013124E+01 -0.2253720509404E+01 -0.5971270014591E-01 -0.1073564380587E+01
 0.2480226808848E+01 -0.2249266739150E+01  0.4619201462788E-01 -0.1115152144004E+01
 0.3034915380092E+01 -0.2252490695623E+01  0.1564849392255E+00 -0.1114568619264E+01
 0.3600552414760E+01 -0.2253490575051E+01  0.2694123719563E+00 -0.1064323621928E+01
 0.4155636724966E+01 -0.2240783328186E+01  0.3829706850627E+00 -0.9613969908492E+00
 0.4678437811286E+01 -0.2203149964196E+01  0.4950575767949E+00 -0.8079538789493E+00
-0.1063857800120E+01 -0.4460570674732E+01 -0.1104885711434E+01 -0.6326979560279E+00
-0.9656913427351E+00 -0.4499519718064E+01 -0.1093042228447E+01 -0.6849647679138E+00
-0.8611394739704E+00 -0.4535713260626E+01 -0.1079370563003E+01 -0.7220119183308E+00
-0.7566556995947E+00 -0.4565562089015E+01 -0.1064443573583E+01 -0.7432822610305E+00
-0.6581193670966E+00 -0.4586128824844E+01 -0.1048849654017E+01 -0.7499641793281E+00
-0.5700276796883E+00 -0.4595574832557E+01 -0.1033120517844E+01 -0.7444164684131E+00
-0.4952048451926E+00 -0.4593221519043E+01 -0.1017685288012E+01 -0.7294514129103E+00
-0.4349431622243E+00 -0.4579318032794E+01 -0.1002852253947E+01 -0.7077484148981E+00
-0.3893724744073E+00 -0.4554683936965E+01 -0.9888112970089E+00 -0.6815152824692E+00
-0.3578718984113E+00 -0.4520367106175E+01 -0.9756478154555E+00 -0.6523824328608E+00
-0.3394122956192E+00 -0.4477389224260E+01 -0.9633603183310E+00 -0.6214547045994E+00
-0.3327888522018E+00 -0.4426594011184E+01 -0.9518765868612E+00 -0.5894422335391E+00
-0.3367463001127E+00 -0.4368581926374E+01 -0.9410656593204E+00 -0.5568132522223E+00
-0.3500174610012E+00 -0.4303707568622E+01 -0.9307450197938E+00 -0.5239363957318E+00
-0.3712980274142E+00 -0.4232121687105E+01 -0.9206839566232E+00 -0.4911978356642E+00
-0.3991824843863E+00 -0.4153833284229E+01 -0.9106031672920E+00 -0.4590816641316E+00
-0.4320802486592E+00 -0.4068786654368E+01 -0.9001733940191E+00 -0.4282144794712E+00
-0.4681337652040E+00 -0.3976941401040E+01 -0.8890150464963E+00 -0.3993750400118E+00
-0.5051609705902E+00 -0.3878334347690E+01 -0.8766990767200E+00 -0.3734727741900E+00
-0.5406294690034E+00 -0.3773168039463E+01 -0.8627595145495E+00 -0.3514932764537E+00
-0.5716596946057E+00 -0.3662063833881E+01 -0.8467447183149E+00 -0.3343523908786E+00
-0.5950935413011E+00 -0.3546061377592E+01 -0.8282309961203E+00 -0.3228523422608E+00
-0.6075942497350E+00 -0.3426258920275E+01 -0.8067706460239E+00 -0.3178612796795E+00
-0.6056835816762E+00 -0.3303682017870E+01 -0.7818731315600E+00 -0.3204315083576E+00
-0.5857201625421E+00 -0.3179372569422E+01 -0.7530185576136E+00 -0.3317999173685E+00
-0.5438474495526E+00 -0.3054533660454E+01 -0.7196762327253E+00 -0.3533172668237E+00
-0.4759394469720E+00 -0.2930663901720E+01 -0.6813206798909E+00 -0.3863174104429E+00
-0.3775747408177E+00 -0.2809655139994E+01 -0.6374459856611E+00 -0.4319211598790E+00
-0.2440748578408E+00 -0.2693840682022E+01 -0.5875831167281E+00 -0.4907695230081E+00
-0.7064684669062E-01 -0.2585973587975E+01 -0.5313240948504E+00 -0.5626920083727E+00
 0.1473749796521E+00 -0.2489072955928E+01 -0.4683396022340E+00 -0.6463628465716E+00
 0.4142333043006E+00 -0.2406134096269E+01 -0.3983801643300E+00 -0.7389989935599E+00
 0.7332108703575E+00 -0.2339824678512E+01 -0.3213227664190E+00 -0.8360414311389E+00
 0.1105778166026E+01 -0.2292048336438E+01 -0.2372540376176E+00 -0.9309433702319E+00
 0.1530650180341E+01 -0.2263298296466E+01 -0.1465296254085E+00 -0.1015317112513E+01
 0.2002875637440E+01 -0.2251988228678E+01 -0.4982251899019E-01 -0.1079499064055E+01
 0.2513188161574E+01 -0.2253948783349E+01  0.5184787641758E-01 -0.1113570127327E+01
 0.3047916512268E+01 -0.2262306825815E+01  0.1571219396318E+00 -0.1108751480209E+01
 0.3589673781274E+01 -0.2267935689327E+01  0.2643476223285E+00 -0.1058928320493E+01
 0.4118917909646E+01 -0.2260535814075E+01  0.3716764246526E+00 -0.9618959359424E+00
 0.4616063192067E+01 -0.2230124577576E+01  0.4771877300088E+00 -0.8198882915201E+00
-0.1041815295819E+01 -0.4362550631763E+01 -0.1080873201623E+01 -0.6184767147862E+00
-0.9486144263185E+00 -0.4399726288084E+01 -0.1069668158820E+01 -0.6711007614360E+00
-0.8495835837385E+00 -0.4434390784214E+01 -0.1056794889338E+01 -0.7097934479050E+00
-0.7505413280126E+00 -0.4463267389270E+01 -0.1042761758995E+01 -0.7338937570781E+00
-0.6568512532414E+00 -0.4483610428390E+01 -0.1028092351646E+01 -0.7442727621583E+00
-0.5727206906256E+00 -0.4493600664502E+01 -0.1013264286124E+01 -0.7428823371320E+00
-0.5009114939161E+00 -0.4492429922303E+01 -0.9986682981252E+00 -0.7321607444018E+00
-0.4428152602251E+00 -0.4480133518776E+01 -0.9845897704718E+00 -0.7145197382368E+00
-0.3987395389003E+00 -0.4457299915466E+01 -0.9712079053454E+00 -0.6920239142839E+00
-0.3682518866290E+00 -0.4424775285063E+01 -0.9586054486228E+00 -0.6662659971752E+00
-0.3504810099560E+00 -0.4383431413667E+01 -0.9467824988328E+00 -0.6383850993966E+00
-0.3443311441862E+00 -0.4334018423004E+01 -0.9356699273807E+00 -0.6091645149301E+00
-0.3486044028978E+00 -0.4277094489594E+01 -0.9251397922840E+00 -0.5791583977234E+00
-0.3620449171456E+00 -0.4213014891289E+01 -0.9150119753217E+00 -0.5488156791452E+00
-0.3833234593735E+00 -0.4141965278353E+01 -0.9050577610317E+00 -0.5185850403372E+00
-0.4109853245634E+00 -0.4064015556193E+01 -0.8950001894879E+00 -0.4889883053297E+00
-0.4433791183319E+00 -0.3979189163689E+01 -0.8845136695844E+00 -0.4606624438353E+00
-0.4785863709040E+00 -0.3887536300723E+01 -0.8732245473375E+00 -0.4343709966063E+00
-0.5143718938367E+00 -0.3789191226000E+01 -0.8607126367930E+00 -0.4109884440182E+00
-0.5481607698497E+00 -0.3684455170902E+01 -0.8465232007645E+00 -0.3914548454880E+00
-0.5770402389700E+00 -0.3574028362244E+01 -0.8302137326139E+00 -0.3766452532293E+00
-0.5978176023739E+00 -0.3459012748548E+01 -0.8113660822747E+00 -0.3673307763755E+00
-0.6071075559212E+00 -0.3340590443167E+01 -0.7895396115827E+00 -0.3643428669580E+00
-0.6013696858567E+00 -0.3219909484215E+01 -0.7642558454027E+00 -0.3686752725601E+00
-0.5768999703904E+00 -0.3098164800985E+01 -0.7350129652277E+00 -0.3814734013503E+00
-0.5298012214800E+00 -0.2976724169654E+01 -0.7013050886771E+00 -0.4039568300882E+00
-0.4559581853193E+00 -0.2857239260364E+01 -0.6626394990108E+00 -0.4372867475777E+00
-0.3510455910323E+00 -0.2741717419259E+01 -0.6185526112754E+00 -0.4823748109523E+00
-0.2106025063497E+00 -0.2632541483561E+01 -0.5686288064554E+00 -0.5396307446518E+00
-0.3020846237211E-01 -0.2532418485244E+01 -0.5125253971605E+00 -0.6086578254401E+00
 0.1942492984602E+00 -0.2444203457405E+01 -0.4499908384943E+00 -0.6879488827605E+00
 0.4662700606517E+00 -0.2370601257718E+01 -0.3808662450885E+00 -0.7746358046707E+00
 0.7882296364259E+00 -0.2313862843345E+01 -0.3051266459305E+00 -0.8642472889530E+00
 0.1160611928451E+01 -0.2275379978523E+01 -0.2229536133366E+00 -0.9505868903282E+00
 0.1581211189561E+01 -0.2255126259091E+01 -0.1347830159145E+00 -0.1025943007497E+01
 0.2044420182919E+01 -0.2251119601983E+01 -0.4133988442887E-01 -0.1081661431983E+01
 0.2540798109717E+01 -0.2259068719222E+01  0.5634587893859E-01 -0.1109084949572E+01
 0.3057150082245E+01 -0.2272374218441E+01  0.1569551750995E+00 -0.1100763024634E+01
 0.3577254197949E+01 -0.2282609697236E+01  0.2589289040009E+00 -0.1051704587564E+01
 0.4083254594482E+01 -0.2280483618477E+01  0.3605542005736E+00 -0.9603514784369E+00
 0.4557421883496E+01 -0.2257082020044E+01  0.4600679795459E+00 -0.8289856007089E+00
-0.1019889562955E+01 -0.4265884557032E+01 -0.1057154839750E+01 -0.6049077761549E+00
-0.9312198594948E+00 -0.4301434307254E+01 -0.1046530848944E+01 -0.6578652999956E+00
-0.8372647559380E+00 -0.4334671428816E+01 -0.1034387252364E+01 -0.6980642022827E+00
-0.7432922015692E+00 -0.4362593576679E+01 -0.1021177170866E+01 -0.7247617304435E+00
-0.6542034572432E+00 -0.4382634758757E+01 -0.1007367658211E+01 -0.7385652608646E+00
-0.5739260591569E+00 -0.4393012943981E+01 -0.9933878154302E+00 -0.7410780619445E+00
-0.5051353032451E+00 -0.4392827192564E+01 -0.9795925137588E+00 -0.7344063790277E+00
-0.4492819045683E+00 -0.4381939571444E+01 -0.9662443096005E+00 -0.7207126133124E+00
-0.4068109893086E+00 -0.4360740640456E+01 -0.9535103401614E+00 -0.7019162980982E+00
-0.3774474087101E+00 -0.4329896302306E+01 -0.9414687562322E+00 -0.6795584571087E+00
-0.3604580545128E+00 -0.4290138825166E+01 -0.9301193897957E+00 -0.6547936730300E+00
-0.3548468497086E+00 -0.4242127008128E+01 -0.9193947852673E+00 -0.6284595105207E+00
-0.3594717916384E+00 -0.4186373946135E+01 -0.9091691611024E+00 -0.6011792646713E+00
-0.3730923386091E+00 -0.4123229881640E+01 -0.8992644574498E+00 -0.5734681311323E+00
-0.3943619803493E+00 -0.4052907956958E+01 -0.8894540007153E+00 -0.5458260322608E+00
-0.4217864687971E+00 -0.3975530555811E+01 -0.8794634180266E+00 -0.5188039315739E+00
-0.4536636880716E+00 -0.3891191357211E+01 -0.8689710220052E+00 -0.4930431013271E+00
-0.4880232631051E+00 -0.3800022345125E+01 -0.8576091344253E+00 -0.4692878747485E+00
-0.5225837062355E+00 -0.3702246981861E+01 -0.8449661502102E+00 -0.4483749350795E+00
-0.5547319940323E+00 -0.3598257757533E+01 -0.8305979626899E+00 -0.4311958298023E+00
-0.5815247959516E+00 -0.3488827792606E+01 -0.8140705298420E+00 -0.4185806871118E+00
-0.5997376378973E+00 -0.3375116442654E+01 -0.7949708279562E+00 -0.4112635872928E+00
-0.6059423937427E+00 -0.3258383425644E+01 -0.7728651753940E+00 -0.4100318184681E+00
-0.5965467114600E+00 -0.3139889432588E+01 -0.7472872399451E+00 -0.4158132587116E+00
-0.5677987374008E+00 -0.3020968148574E+01 -0.7177533878902E+00 -0.4296572495228E+00
-0.5157788272025E+00 -0.2903133426671E+01 -0.6837824609639E+00 -0.4526530609667E+00
-0.4364017899270E+00 -0.2788167757073E+01 -0.6449139190100E+00 -0.4857982033055E+00
-0.3254556409049E+00 -0.2678169459307E+01 -0.6007250289939E+00 -0.5298147952820E+00
-0.1787072225546E+00 -0.2575546498723E+01 -0.5508507524639E+00 -0.5849137210268E+00
 0.7894694427747E-02 -0.2482939719305E+01 -0.4950090123516E+00 -0.6505184221103E+00
 0.2379350532385E+00 -0.2403029870446E+01 -0.4330189698941E+00 -0.7249996027915E+00
 0.5142262483623E+00 -0.2338237795619E+01 -0.3648023148874E+00 -0.8054715204086E+00
 0.8383329016711E+00 -0.2290428694688E+01 -0.2904191629310E+00 -0.8876146433270E+00
 0.1209887846411E+01 -0.2260542609386E+01 -0.2101309557261E+00 -0.9656240986098E+00
 0.1625927254471E+01 -0.2248117758373E+01 -0.1244381026347E+00 -0.1032459692331E+01
 0.2080348249146E+01 -0.2250867070302E+01 -0.3410376473935E-01 -0.1080406186560E+01
 0.2563648886994E+01 -0.2264445334045E+01  0.5984071148146E-01 -0.1101925848897E+01
 0.3063127141625E+01 -0.2282537594613E+01  0.1561179117287E+00 -0.1090700291628E+01
 0.3563613555318E+01 -0.2297346595572E+01  0.2532533957229E+00 -0.1042662103947E+01
 0.4048715839492E+01 -0.2300449914587E+01  0.3496531901912E+00 -0.9567649315288E+00
 0.4502315351286E+01 -0.2283859614832E+01  0.4436911539023E+00 -0.8353023677949E+00
-0.9980673527373E+00 -0.4170447461483E+01 -0.1033702978247E+01 -0.5919317858286E+00
-0.9135323752920E+00 -0.4204509854347E+01 -0.1023608461181E+01 -0.6452060065196E+00
-0.8242464083100E+00 -0.4236420873374E+01 -0.1012133471419E+01 -0.6867944172144E+00
-0.7349970825005E+00 -0.4263420321359E+01 -0.9996834956684E+00 -0.7158887536830E+00
-0.6502701900598E+00 -0.4283109977320E+01 -0.9866760481785E+00 -0.7328759106726E+00
-0.5737254905080E+00 -0.4293757601110E+01 -0.9734966328298E+00 -0.7390598828249E+00
-0.5079344795687E+00 -0.4294399033320E+01 -0.9604667168899E+00 -0.7362527575657E+00
-0.4543744735951E+00 -0.4284757605835E+01 -0.9478264300097E+00 -0.7263864937860E+00
-0.4135937443982E+00 -0.4265055824345E+01 -0.9357299276921E+00 -0.7112370684571E+00
-0.3854463658055E+00 -0.4235799928354E+01 -0.9242492726044E+00 -0.6922837820938E+00
-0.3693187554839E+00 -0.4197593757598E+01 -0.9133825162269E+00 -0.6706812312228E+00
-0.3643049653734E+00 -0.4151008306578E+01 -0.9030626678470E+00 -0.6473046864728E+00
-0.3693166730891E+00 -0.4096509927158E+01 -0.8931653333586E+00 -0.6228312476505E+00
-0.3831318357600E+00 -0.4034438901607E+01 -0.8835141606388E+00 -0.5978292217485E+00
-0.4043934320078E+00 -0.3965028922946E+01 -0.8738844840126E+00 -0.5728390729399E+00
-0.4315764572117E+00 -0.3888446703844E+01 -0.8640046450859E+00 -0.5484326798770E+00
-0.4629373679080E+00 -0.3804847442458E+01 -0.8535569747923E+00 -0.5252497129773E+00
-0.4964623084541E+00 -0.3714436190664E+01 -0.8421797123731E+00 -0.5040112564152E+00
-0.5298301155754E+00 -0.3617517322626E+01 -0.8294695000004E+00 -0.4855131647657E+00
-0.5603943150330E+00 -0.3514566894615E+01 -0.8149922540739E+00 -0.4705953824641E+00
-0.5851841876494E+00 -0.3406424495725E+01 -0.7983217485707E+00 -0.4600391039259E+00
-0.6009468606427E+00 -0.3294301432581E+01 -0.7790496702534E+00 -0.4545359802467E+00
-0.6042172303093E+00 -0.3179528262116E+01 -0.7567491097616E+00 -0.4548227032057E+00
-0.5913605492821E+00 -0.3063468290583E+01 -0.7309657788652E+00 -0.4617554456563E+00
-0.5585902130642E+00 -0.2947579992918E+01 -0.7012340516456E+00 -0.4762846014854E+00
-0.5019794222999E+00 -0.2833505714611E+01 -0.6670970373226E+00 -0.4993717119281E+00
-0.4174882580684E+00 -0.2723138526168E+01 -0.6281253662071E+00 -0.5318610282476E+00
-0.3010298115164E+00 -0.2618646458628E+01 -0.5839352627302E+00 -0.5743055088738E+00
-0.1486025226602E+00 -0.2522442948899E+01 -0.5342091022721E+00 -0.6267490743392E+00
 0.4348564559833E-01 -0.2437088611744E+01 -0.4787206003625E+00 -0.6884789133466E+00
 0.2783227133063E+00 -0.2365086508577E+01 -0.4173527652733E+00 -0.7577968277238E+00
 0.5580930719612E+00 -0.2308585981782E+01 -0.3500985871811E+00 -0.8318569428615E+00
 0.8836416307852E+00 -0.2269100350186E+01 -0.2770917480090E+00 -0.9065422160312E+00
 0.1253871684992E+01 -0.2247175077106E+01 -0.1986606813831E+00 -0.9764663815224E+00
 0.1665199186362E+01 -0.2241986746330E+01 -0.1153575137127E+00 -0.1035245684203E+01
 0.2111153101107E+01 -0.2251017115545E+01 -0.2797280330442E-01 -0.1076033118843E+01
 0.2582250716950E+01 -0.2269916310921E+01  0.6246688213663E-01 -0.1092282906626E+01
 0.3066279617066E+01 -0.2292652633463E+01  0.1547253990261E+00 -0.1078643765900E+01
 0.3549017431586E+01 -0.2311992685488E+01  0.2474049529063E+00 -0.1031810265539E+01
 0.4015347662532E+01 -0.2320268513953E+01  0.3390158347674E+00 -0.9511377322291E+00
 0.4450548094801E+01 -0.2310294786361E+01  0.4280506680664E+00 -0.8388930032711E+00
-0.9763357680686E+00 -0.4076126002321E+01 -0.1010492369136E+01 -0.5794935384762E+00
-0.8955717473948E+00 -0.4108831684997E+01 -0.1000880701393E+01 -0.6330732484194E+00
-0.8105821954712E+00 -0.4139516818683E+01 -0.9900198175832E+00 -0.6759529294117E+00
-0.7257330749393E+00 -0.4165636130502E+01 -0.9782738556657E+00 -0.7072706011178E+00
-0.6451356018053E+00 -0.4184947829499E+01 -0.9660167006556E+00 -0.7272276074267E+00
-0.5721946276526E+00 -0.4195778230087E+01 -0.9535945857577E+00 -0.7368704080058E+00
-0.5093658787239E+00 -0.4197123653304E+01 -0.9412979204321E+00 -0.7377508114351E+00
-0.4581270940689E+00 -0.4188597944485E+01 -0.9293450215591E+00 -0.7315891642656E+00
-0.4191003460958E+00 -0.4170282127834E+01 -0.9178765084635E+00 -0.7200218239862E+00
-0.3922439052993E+00 -0.4142542185188E+01 -0.9069572316123E+00 -0.7044596188278E+00
-0.3770463187049E+00 -0.4105864826441E+01 -0.8965822423892E+00 -0.6860446863838E+00
-0.3726823208425E+00 -0.4060737594672E+01 -0.8866839963156E+00 -0.6656756815187E+00
-0.3781145968860E+00 -0.4007579339784E+01 -0.8771388004043E+00 -0.6440696882292E+00
-0.3921420711049E+00 -0.3946716171352E+01 -0.8677716614222E+00 -0.6218359600986E+00
-0.4134032009486E+00 -0.3878395879394E+01 -0.8583598288591E+00 -0.5995454539411E+00
-0.4403502214244E+00 -0.3802821683348E+01 -0.8486343936001E+00 -0.5777831478485E+00
-0.4712067385424E+00 -0.3720201801351E+01 -0.8382817204700E+00 -0.5571813945645E+00
-0.5039233274364E+00 -0.3630805747547E+01 -0.8269458273191E+00 -0.5384339778039E+00
-0.5361455901860E+00 -0.3535010467259E+01 -0.8142312236220E+00 -0.5222927814893E+00
-0.5651984277705E+00 -0.3433367662481E+01 -0.7997132299670E+00 -0.5095430202150E+00
-0.5880873186049E+00 -0.3326776591598E+01 -0.7829727937078E+00 -0.5009131137977E+00
-0.6015347329594E+00 -0.3216494606375E+01 -0.7636058792455E+00 -0.4970473781454E+00
-0.6020443803943E+00 -0.3103915971749E+01 -0.7411920814732E+00 -0.4986264060232E+00
-0.5859478536659E+00 -0.2990496525679E+01 -0.7152888865276E+00 -0.5064301140508E+00
-0.5494351130674E+00 -0.2877806054484E+01 -0.6854482437243E+00 -0.5213084944180E+00
-0.4885846874725E+00 -0.2767599021824E+01 -0.6512367515636E+00 -0.5440992573483E+00
-0.3994132451769E+00 -0.2661860971361E+01 -0.6122548524310E+00 -0.5755047378651E+00
-0.2779658493091E+00 -0.2562811629945E+01 -0.5681555043171E+00 -0.6159292364026E+00
-0.1204707748578E+00 -0.2472854677031E+01 -0.5186650981064E+00 -0.6652803328519E+00
 0.7642039544047E-01 -0.2394461805370E+01 -0.4636082888941E+00 -0.7227491956211E+00
 0.3153337399983E+00 -0.2329960500619E+01 -0.4029253581281E+00 -0.7866158445905E+00
 0.5978851285226E+00 -0.2281245473035E+01 -0.3366720739193E+00 -0.8541226807873E+00
 0.9242857786172E+00 -0.2249513238217E+01 -0.2650454958695E+00 -0.9213946037014E+00
 0.1292817382665E+01 -0.2234967850625E+01 -0.1884300964000E+00 -0.9834800254120E+00
 0.1699391627345E+01 -0.2236488052389E+01 -0.1074192866096E+00 -0.1034630025625E+01
 0.2137269685028E+01 -0.2251383795670E+01 -0.2282282246850E-01 -0.1068797430322E+01
 0.2597043214602E+01 -0.2275335242695E+01  0.6434159534028E-01 -0.1080315541410E+01
 0.3066972851181E+01 -0.2302585095918E+01  0.1528775533306E+00 -0.1064661236242E+01
 0.3533685043431E+01 -0.2326404170063E+01  0.2414561782716E+00 -0.1019158862136E+01
 0.3983176691453E+01 -0.2339781671529E+01  0.3286790088825E+00 -0.9434744740068E+00
 0.4401934113938E+01 -0.2336227347371E+01  0.4131413594696E+00 -0.8398131455662E+00
-0.9546822359525E+00 -0.3982816406703E+01 -0.9874997432459E+00 -0.5675414386480E+00
-0.8773537461984E+00 -0.4014288985113E+01 -0.9783285608404E+00 -0.6214199017615E+00
-0.7963177458731E+00 -0.4043846939707E+01 -0.9680329515408E+00 -0.6655077245036E+00
-0.7155674886470E+00 -0.4069136989191E+01 -0.9569409098271E+00 -0.6988976872702E+00
-0.6388751271428E+00 -0.4088063272527E+01 -0.9453876940214E+00 -0.7216339027322E+00
-0.5694035794948E+00 -0.4099016649559E+01 -0.9336840597238E+00 -0.7345406438697E+00
-0.5094847903517E+00 -0.4100972936784E+01 -0.9220915591673E+00 -0.7389396142168E+00
-0.4605759525037E+00 -0.4093461209935E+01 -0.9108074460598E+00 -0.7363578444333E+00
-0.4233480783235E+00 -0.4076444483024E+01 -0.8999585256799E+00 -0.7282977252246E+00
-0.3978415360184E+00 -0.4050166461293E+01 -0.8896016127185E+00 -0.7160975271785E+00
-0.3836310237995E+00 -0.4015007861237E+01 -0.8797277901162E+00 -0.7008770834721E+00
-0.3799628599956E+00 -0.3971377629489E+01 -0.8702681108649E+00 -0.6835462303820E+00
-0.3858477985877E+00 -0.3919647045226E+01 -0.8610989815941E+00 -0.6648497476407E+00
-0.4001076365305E+00 -0.3860124455135E+01 -0.8520464310295E+00 -0.6454267245723E+00
-0.4213816135248E+00 -0.3793065772049E+01 -0.8428894896747E+00 -0.6258692711670E+00
-0.4481064893941E+00 -0.3718703251390E+01 -0.8333619605749E+00 -0.6067680963912E+00
-0.4784809569230E+00 -0.3637289875921E+01 -0.8231541788347E+00 -0.5887427400858E+00
-0.5104274804660E+00 -0.3549151138848E+01 -0.8119157359612E+00 -0.5724556713849E+00
-0.5415646963196E+00 -0.3454728184406E+01 -0.7992585880550E+00 -0.5586116175757E+00
-0.5691938133618E+00 -0.3354640255164E+01 -0.7847668253991E+00 -0.5479379637828E+00
-0.5903003672340E+00 -0.3249839180229E+01 -0.7680279209371E+00 -0.5411067117964E+00
-0.6015861188573E+00 -0.3141622104704E+01 -0.7486416558679E+00 -0.5387103990053E+00
-0.5995291907844E+00 -0.3031439630934E+01 -0.7261937751648E+00 -0.5413688350601E+00
-0.5804353683812E+00 -0.2920830134199E+01 -0.7002531109507E+00 -0.5497822201369E+00
-0.5404807374255E+00 -0.2811461853755E+01 -0.6703885282257E+00 -0.5646998417073E+00
-0.4757589393685E+00 -0.2705186316577E+01 -0.6361890606691E+00 -0.5868404316150E+00
-0.3823509223038E+00 -0.2604065601804E+01 -0.5972833137217E+00 -0.6167762131608E+00
-0.2564362193062E+00 -0.2510356240386E+01 -0.5533585001842E+00 -0.6547829202412E+00
-0.9446639117690E-01 -0.2426440958619E+01 -0.5041814774721E+00 -0.7006606436364E+00
 0.1065833231393E+00 -0.2354698420617E+01 -0.4496230261953E+00 -0.7535411023679E+00
 0.3489147622512E+00 -0.2297287021456E+01 -0.3896744576477E+00 -0.8117237232074E+00
 0.6336340572851E+00 -0.2255866684507E+01 -0.3244465302790E+00 -0.8725794535800E+00
 0.9603986750122E+00 -0.2231352177091E+01 -0.2541907042034E+00 -0.9325052418691E+00
 0.1326963845399E+01 -0.2223654863654E+01 -0.1793382063235E+00 -0.9869919921157E+00
 0.1728833873144E+01 -0.2231410311954E+01 -0.1005152892597E+00 -0.1030900179842E+01
 0.2159080276569E+01 -0.2251803907577E+01 -0.1854472647796E-01 -0.1058918098414E+01
 0.2608404862248E+01 -0.2280569320957E+01  0.6556710923528E-01 -0.1066159074483E+01
 0.3065515731130E+01 -0.2312209766160E+01  0.1506611952390E+00 -0.1048811041674E+01
 0.3517796355449E+01 -0.2340445593980E+01  0.2354701558026E+00 -0.1004719143727E+01
 0.3952214253529E+01 -0.2358838876416E+01  0.3186750801712E+00 -0.9337848146620E+00
 0.4356299335322E+01 -0.2361500622427E+01  0.3989597485238E+00 -0.8381214360643E+00
-0.9330944715177E+00 -0.3890422736808E+01 -0.9647034560404E+00 -0.5560270612794E+00
-0.8588909032936E+00 -0.3920779483966E+01 -0.9559340916965E+00 -0.6102011434488E+00
-0.7814920865143E+00 -0.3949307128894E+01 -0.9461598571806E+00 -0.6554263481419E+00
-0.7045594208375E+00 -0.3973825123412E+01 -0.9356769227926E+00 -0.6907562089834E+00
-0.6315566979233E+00 -0.3992374020234E+01 -0.9247861574119E+00 -0.7161006445513E+00
-0.5654174850103E+00 -0.4003413226442E+01 -0.9137661559066E+00 -0.7320917297343E+00
-0.5083448681159E+00 -0.4005913321664E+01 -0.9028516514095E+00 -0.7398478616309E+00
-0.4617587837358E+00 -0.3999339455646E+01 -0.8922196611715E+00 -0.7407202425713E+00
-0.4263582389304E+00 -0.3983557229548E+01 -0.8819831068382E+00 -0.7360841207201E+00
-0.4022463511729E+00 -0.3958704517420E+01 -0.8721901867151E+00 -0.7272032746523E+00
-0.3890694849573E+00 -0.3925066750444E+01 -0.8628272599374E+00 -0.7151676792779E+00
-0.3861369633394E+00 -0.3882979368969E+01 -0.8538232791846E+00 -0.7008881181964E+00
-0.3925045747712E+00 -0.3832766515750E+01 -0.8450542306966E+00 -0.6851262856563E+00
-0.4070184641470E+00 -0.3774715712505E+01 -0.8363468477929E+00 -0.6685410809313E+00
-0.4283233695598E+00 -0.3709085473429E+01 -0.8274817809282E+00 -0.6517371779884E+00
-0.4548472330048E+00 -0.3636129975143E+01 -0.8181954538217E+00 -0.6353041296385E+00
-0.4847712056879E+00 -0.3556138963582E+01 -0.8081820458968E+00 -0.6198434236139E+00
-0.5159966989954E+00 -0.3469485560156E+01 -0.7970964637079E+00 -0.6059822859831E+00
-0.5461214860298E+00 -0.3376666724998E+01 -0.7845576538963E+00 -0.5943751169774E+00
-0.5724280667612E+00 -0.3278360996341E+01 -0.7701578240967E+00 -0.5856884489598E+00
-0.5918860587313E+00 -0.3175565447534E+01 -0.7534903124809E+00 -0.5805344337629E+00
-0.6011805395426E+00 -0.3069610513011E+01 -0.7341582214506E+00 -0.5794498085368E+00
-0.5967693505247E+00 -0.2961995630034E+01 -0.7117530067177E+00 -0.5829896204983E+00
-0.5749393985349E+00 -0.2854331912518E+01 -0.6858542724306E+00 -0.5917717932304E+00
-0.5318607476897E+00 -0.2748373903171E+01 -0.6560469399481E+00 -0.6064454919589E+00
-0.4636493962157E+00 -0.2646056503819E+01 -0.6219411892747E+00 -0.6276159376005E+00
-0.3664549486162E+00 -0.2549504521146E+01 -0.5831919026426E+00 -0.6557371005675E+00
-0.2365900130089E+00 -0.2460999326046E+01 -0.5395178758505E+00 -0.6909753908873E+00
-0.7071884808448E-01 -0.2382895095824E+01 -0.4907227960940E+00 -0.7330501170984E+00
 0.1338830273815E+00 -0.2317477223768E+01 -0.4367188457849E+00 -0.7810663180616E+00
 0.3790325528088E+00 -0.2266744891909E+01 -0.3775424734458E+00 -0.8333783999125E+00
 0.6653833201645E+00 -0.2232144980326E+01 -0.3133523367016E+00 -0.8875189721075E+00
 0.9921127067949E+00 -0.2214344709254E+01 -0.2444464041344E+00 -0.9401795159648E+00
 0.1356532875820E+01 -0.2213006897586E+01 -0.1712948069056E+00 -0.9872952209154E+00
 0.1753821226783E+01 -0.2226570434652E+01 -0.9454984298268E-01 -0.1024308796126E+01
 0.2176919643671E+01 -0.2252133313859E+01 -0.1504273426173E-01 -0.1046584689372E+01
 0.2616660970489E+01 -0.2285497525877E+01  0.6623268990935E-01 -0.1049929929983E+01
 0.3062169039790E+01 -0.2321409557681E+01  0.1481518986295E+00 -0.1031144770878E+01
 0.3501498353458E+01 -0.2353988866654E+01  0.2295019007806E+00 -0.9885048678260E+00
 0.3922460038520E+01 -0.2377296284705E+01  0.3090327553678E+00 -0.9220845800706E+00
 0.4313482474250E+01 -0.2385962025532E+01  0.3855040954880E+00 -0.8338806811416E+00
-0.9115604380465E+00 -0.3798855430144E+01 -0.9420831876763E+00 -0.5449047953199E+00
-0.8401931275908E+00 -0.3828207862029E+01 -0.9336802118368E+00 -0.5993742730742E+00
-0.7661388183130E+00 -0.3855799988575E+01 -0.9243877751521E+00 -0.6456762193358E+00
-0.6927611017618E+00 -0.3879607887918E+01 -0.9144738115626E+00 -0.6828290597019E+00
-0.6232418293569E+00 -0.3897800053852E+01 -0.9042083901156E+00 -0.7106273318597E+00
-0.5602970855619E+00 -0.3908907038339E+01 -0.8938408380994E+00 -0.7295364199585E+00
-0.5059981646886E+00 -0.3911906460179E+01 -0.8835809381399E+00 -0.7404951888289E+00
-0.4617145011572E+00 -0.3906217092550E+01 -0.8735863317589E+00 -0.7446955427915E+00
-0.4281555432542E+00 -0.3891625099533E+01 -0.8639561414315E+00 -0.7433931755443E+00
-0.4054703512058E+00 -0.3868177402481E+01 -0.8547295634738E+00 -0.7377771648091E+00
-0.3933639792765E+00 -0.3836074244587E+01 -0.8458876573774E+00 -0.7289020573802E+00
-0.3912008159067E+00 -0.3795582677084E+01 -0.8373567110758E+00 -0.7176711559671E+00
-0.3980786936960E+00 -0.3746980483263E+01 -0.8290118477450E+00 -0.7048537416250E+00
-0.4128692714581E+00 -0.3690531733557E+01 -0.8206802132322E+00 -0.6911195871409E+00
-0.4342270127169E+00 -0.3626492436795E+01 -0.8121439020042E+00 -0.6770781159162E+00
-0.4605771544127E+00 -0.3555131923306E+01 -0.8031418275116E+00 -0.6633113482416E+00
-0.4900901825046E+00 -0.3476768956530E+01 -0.7933718396292E+00 -0.6503977720611E+00
-0.5206531588466E+00 -0.3391816075717E+01 -0.7824938585728E+00 -0.6389255742560E+00
-0.5498489338957E+00 -0.3300817685089E+01 -0.7701333352728E+00 -0.6294957253349E+00
-0.5749462857450E+00 -0.3204503277609E+01 -0.7558899239345E+00 -0.6227109955581E+00
-0.5929030166217E+00 -0.3103907681373E+01 -0.7393621506163E+00 -0.6191204695429E+00
-0.6003915269079E+00 -0.3000387945402E+01 -0.7201559051931E+00 -0.6192014370860E+00
-0.5938543173002E+00 -0.2895484796102E+01 -0.6978678330795E+00 -0.6234407956138E+00
-0.5695654123379E+00 -0.2790872561572E+01 -0.6720876047969E+00 -0.6323723491037E+00
-0.5236950780607E+00 -0.2688380696459E+01 -0.6424151644766E+00 -0.6465463592577E+00
-0.4523865622599E+00 -0.2590015149781E+01 -0.6084803514752E+00 -0.6664603094074E+00
-0.3518595134463E+00 -0.2497951678352E+01 -0.5699622468527E+00 -0.6924614784171E+00
-0.2185548238102E+00 -0.2414487210150E+01 -0.5266084146391E+00 -0.7246249968311E+00
-0.4933550460321E-01 -0.2341942932053E+01 -0.4782556944577E+00 -0.7626136989100E+00
 0.1582486104731E+00 -0.2282513927153E+01 -0.4248530696667E+00 -0.8055348976342E+00
 0.4056697149354E+00 -0.2238052613319E+01 -0.3664765851377E+00 -0.8518283352337E+00
 0.6931839204830E+00 -0.2209815651006E+01 -0.3033263506245E+00 -0.8992151981061E+00
 0.1019556006971E+01 -0.2198255537274E+01 -0.2357399095735E+00 -0.9446978753071E+00
 0.1381727901634E+01 -0.2202826235170E+01 -0.1642196691542E+00 -0.9846534336562E+00
 0.1774616605699E+01 -0.2221809272009E+01 -0.8943853459474E-01 -0.1015079496730E+01
 0.2191079669703E+01 -0.2252244130528E+01 -0.1223289234725E-01 -0.1031962952492E+01
 0.2622090393667E+01 -0.2290009231819E+01  0.6641623335933E-01 -0.1031729818603E+01
 0.3057152431375E+01 -0.2330074846405E+01  0.1454155191609E+00 -0.1011709489804E+01
 0.3484910482221E+01 -0.2366912709100E+01  0.2235995579562E+00 -0.9705331693317E+00
 0.3893905234407E+01 -0.2395016486795E+01  0.2997777539895E+00 -0.9083963854628E+00
 0.4273335331361E+01 -0.2409463486028E+01  0.3727743746216E+00 -0.8271587232377E+00
-0.8900683048595E+00 -0.3708030062914E+01 -0.9196196872582E+00 -0.5341315554638E+00
-0.8212682049309E+00 -0.3736484399861E+01 -0.9115505345416E+00 -0.5888985631305E+00
-0.7502870905423E+00 -0.3763233533470E+01 -0.9027041382539E+00 -0.6362248727998E+00
-0.6802190416700E+00 -0.3786396771582E+01 -0.8933231759620E+00 -0.6750965665054E+00
-0.6139865883972E+00 -0.3804263126137E+01 -0.8836499560743E+00 -0.7052082369085E+00
-0.5540992869134E+00 -0.3815435923102E+01 -0.8739070550252E+00 -0.7268803494247E+00
-0.5024952404526E+00 -0.3818909712366E+01 -0.8642810034425E+00 -0.7408933359882E+00
-0.4604829398530E+00 -0.3814071648718E+01 -0.8549109304533E+00 -0.7482953170409E+00
-0.4287676408472E+00 -0.3800644071430E+01 -0.8458823550601E+00 -0.7502304839501E+00
-0.4075298592542E+00 -0.3778596284894E+01 -0.8372252413054E+00 -0.7478143813300E+00
-0.3965218433460E+00 -0.3748052714054E+01 -0.8289149238318E+00 -0.7420622657513E+00
-0.3951558251193E+00 -0.3709217007127E+01 -0.8208745786812E+00 -0.7338631707409E+00
-0.4025688464452E+00 -0.3662321573427E+01 -0.8129780960888E+00 -0.7239860169736E+00
-0.4176590443616E+00 -0.3607604755313E+01 -0.8050527719312E+00 -0.7131035876208E+00
-0.4390944393174E+00 -0.3545315320762E+01 -0.7968819638904E+00 -0.7018230264950E+00
-0.4653032120071E+00 -0.3475731316671E+01 -0.7882069174808E+00 -0.6907129789374E+00
-0.4944516302859E+00 -0.3399193030498E+01 -0.7787289437607E+00 -0.6803243103950E+00
-0.5244187974091E+00 -0.3316144356096E+01 -0.7681126421468E+00 -0.6712025481815E+00
-0.5527784244800E+00 -0.3227168802749E+01 -0.7559894567109E+00 -0.6638922431417E+00
-0.5767905221146E+00 -0.3133038421616E+01 -0.7419657998022E+00 -0.6589296362087E+00
-0.5934051912540E+00 -0.3034818199875E+01 -0.7256446890388E+00 -0.6567977375089E+00
-0.5992860690999E+00 -0.2933885023924E+01 -0.7066342291344E+00 -0.6579110670830E+00
-0.5908648481738E+00 -0.2831813389675E+01 -0.6845356577701E+00 -0.6626854684267E+00
-0.5644077529812E+00 -0.2730331641055E+01 -0.6589478886264E+00 -0.6715693286996E+00
-0.5160899505700E+00 -0.2631333524602E+01 -0.6294847044145E+00 -0.6850156325097E+00
-0.4420846900528E+00 -0.2536885020577E+01 -0.5957939510040E+00 -0.7034199302771E+00
-0.3386803979347E+00 -0.2449202945066E+01 -0.5575766769087E+00 -0.7270337757192E+00
-0.2024385388281E+00 -0.2370592904682E+01 -0.5146062963703E+00 -0.7558575942930E+00
-0.3040418128227E-01 -0.2303341370247E+01 -0.4667491172610E+00 -0.7895194955217E+00
 0.1796264013776E+00 -0.2249558686322E+01 -0.4139864631578E+00 -0.8271542809309E+00
 0.4288210170849E+00 -0.2210964854449E+01 -0.3564287727841E+00 -0.8673126101749E+00
 0.7170909205806E+00 -0.2188649618800E+01 -0.2943117440294E+00 -0.9079258521521E+00
 0.1042849945470E+01 -0.2182881912333E+01 -0.2280063967703E+00 -0.9463188717310E+00
 0.1402733278397E+01 -0.2192942357571E+01 -0.1580418181898E+00 -0.9793054651221E+00
 0.1791452245972E+01 -0.2216988226021E+01 -0.8510719727797E-01 -0.1003411838951E+01
 0.2201813453148E+01 -0.2252022575969E+01 -0.1004182471384E-01 -0.1015199452264E+01
 0.2624931220181E+01 -0.2294003163353E+01  0.6618561235176E-01 -0.1011649137297E+01
 0.3050650298017E+01 -0.2338103029611E+01  0.1425094558047E+00 -0.9905495564528E+00
 0.3468129305624E+01 -0.2379102397447E+01  0.2178053848809E+00 -0.9508252249307E+00
 0.3866535192721E+01 -0.2411868485313E+01  0.2909333458169E+00 -0.8927499667579E+00
 0.4235722880144E+01 -0.2431861871744E+01  0.3607722070559E+00 -0.8180291125350E+00
-0.8686064048888E+00 -0.3617866295228E+01 -0.8972945533941E+00 -0.5236665513701E+00
-0.8021222055576E+00 -0.3645523822928E+01 -0.8895292189522E+00 -0.5787351360211E+00
-0.7339624126900E+00 -0.3671520066638E+01 -0.8810965089950E+00 -0.6270401501683E+00
-0.6669750108677E+00 -0.3694106505144E+01 -0.8722163161993E+00 -0.6675370890042E+00
-0.6038424546468E+00 -0.3711686268811E+01 -0.8631057575529E+00 -0.6998333386230E+00
-0.5468776994902E+00 -0.3722936441904E+01 -0.8539628410038E+00 -0.7241231145375E+00
-0.4978853228384E+00 -0.3726876500542E+01 -0.8449523772668E+00 -0.7410471758500E+00
-0.4581046895511E+00 -0.3722874380522E+01 -0.8361958264749E+00 -0.7515243596884E+00
-0.4282247294055E+00 -0.3710602096371E+01 -0.8277653774900E+00 -0.7565956558142E+00
-0.4084450220501E+00 -0.3689963189432E+01 -0.8196816545106E+00 -0.7573053367813E+00
-0.3985549377904E+00 -0.3661014842159E+01 -0.8119139680884E+00 -0.7546269702558E+00
-0.3980080921147E+00 -0.3623902038866E+01 -0.8043820381824E+00 -0.7494300096817E+00
-0.4059781431181E+00 -0.3578812899744E+01 -0.7969582204480E+00 -0.7424763638698E+00
-0.4213905620326E+00 -0.3525958034399E+01 -0.7894697310504E+00 -0.7344350055709E+00
-0.4429304487304E+00 -0.3465574561160E+01 -0.7817010136264E+00 -0.7259045552681E+00
-0.4690341886120E+00 -0.3397943115314E+01 -0.7733954723096E+00 -0.7174349921804E+00
-0.4978699110265E+00 -0.3323418260197E+01 -0.7642576456330E+00 -0.7095452915987E+00
-0.5273148777244E+00 -0.3242467333507E+01 -0.7539564534811E+00 -0.7027349157416E+00
-0.5549392931738E+00 -0.3155704663464E+01 -0.7421288023861E+00 -0.6974891568619E+00
-0.5779992961451E+00 -0.3063936443120E+01 -0.7283871587069E+00 -0.6942751221859E+00
-0.5934413631236E+00 -0.2968250164848E+01 -0.7123383162090E+00 -0.6935069401796E+00
-0.5979241413776E+00 -0.2870035727649E+01 -0.6935919841408E+00 -0.6955333132894E+00
-0.5878726216264E+00 -0.2770893954339E+01 -0.6717533252031E+00 -0.7006965080692E+00
-0.5595494395741E+00 -0.2672598359779E+01 -0.6464295695031E+00 -0.7093585865488E+00
-0.5091379638110E+00 -0.2577097116482E+01 -0.6172470252563E+00 -0.7218770853890E+00
-0.4328422804048E+00 -0.2486506447465E+01 -0.5838697542743E+00 -0.7385512191871E+00
-0.3270160092110E+00 -0.2403076047412E+01 -0.5460184194608E+00 -0.7595469416004E+00
-0.1883310009147E+00 -0.2329115434582E+01 -0.5034892946019E+00 -0.7848048720322E+00
-0.1399546828497E-01 -0.2266876934438E+01 -0.4561744873421E+00 -0.8139374994258E+00
 0.1979771165238E+00 -0.2218393816339E+01 -0.4040833459843E+00 -0.8461287200426E+00
 0.4484903236046E+00 -0.2185269372976E+01 -0.3473558150502E+00 -0.8800613627994E+00
 0.7371606477248E+00 -0.2168449793935E+01 -0.2862578335075E+00 -0.9138940817969E+00
 0.1062107265438E+01 -0.2168049832398E+01 -0.2211885166879E+00 -0.9452820804246E+00
 0.1419714007273E+01 -0.2183208492002E+01 -0.1526988992212E+00 -0.9714691566803E+00
 0.1804531408598E+01 -0.2211986599213E+01 -0.8149103933717E-01 -0.9894855835944E+00
 0.2209338917755E+01 -0.2251367336462E+01 -0.8405683866714E-02 -0.9964254273604E+00
 0.2625385601266E+01 -0.2297386643517E+01  0.6559979252743E-01 -0.9897697411999E+00
 0.3042816708234E+01 -0.2345398282209E+01  0.1394836872835E+00 -0.9677080722473E+00
 0.3451232465368E+01 -0.2390449718174E+01  0.2121565526003E+00 -0.9294067206175E+00
 0.3840331673364E+01 -0.2427727832219E+01  0.2825207724390E+00 -0.8751823254449E+00
 0.4200523327874E+01 -0.2453019441955E+01  0.3495007823919E+00 -0.8065716391466E+00
-0.8471631934124E+00 -0.3528286966259E+01 -0.8750900449741E+00 -0.5134711056920E+00
-0.7827598192513E+00 -0.3555244310404E+01 -0.8676008388592E+00 -0.5688468662868E+00
-0.7171873354581E+00 -0.3580575205398E+01 -0.8595525209795E+00 -0.6180903550266E+00
-0.6530668809304E+00 -0.3602654266764E+01 -0.8511442422218E+00 -0.6601275107162E+00
-0.5928570858753E+00 -0.3619993321294E+01 -0.8425700939892E+00 -0.6944891026281E+00
-0.5386831512688E+00 -0.3631343790599E+01 -0.8340054008012E+00 -0.7212591975932E+00
-0.4922164997339E+00 -0.3635756565588E+01 -0.8255946253668E+00 -0.7409556167488E+00
-0.4546209987677E+00 -0.3632590772530E+01 -0.8174423664403E+00 -0.7543814446902E+00
-0.4265592513763E+00 -0.3621479725923E+01 -0.8096078075239E+00 -0.7624828685005E+00
-0.4082393878914E+00 -0.3602271659976E+01 -0.8021022215258E+00 -0.7662360151033E+00
-0.3994791766166E+00 -0.3574964268112E+01 -0.7948887007906E+00 -0.7665716144350E+00
-0.3997679364052E+00 -0.3539648281871E+01 -0.7878832553956E+00 -0.7643355514350E+00
-0.4083136548847E+00 -0.3496468630360E+01 -0.7809564686862E+00 -0.7602772762035E+00
-0.4240699641757E+00 -0.3445606391004E+01 -0.7739352825684E+00 -0.7550561310649E+00
-0.4457423351608E+00 -0.3387282907828E+01 -0.7666050600211E+00 -0.7492567455887E+00
-0.4717803014126E+00 -0.3321775562524E+01 -0.7587111840930E+00 -0.7434057045928E+00
-0.5003596228719E+00 -0.3249446183100E+01 -0.7499611723696E+00 -0.7379862066862E+00
-0.5293615993105E+00 -0.3170777797179E+01 -0.7400278903251E+00 -0.7334484928564E+00
-0.5563584200755E+00 -0.3086407336751E+01 -0.7285531622216E+00 -0.7302159412704E+00
-0.5786071728172E+00 -0.2997166731239E+01 -0.7151547914678E+00 -0.7286840991270E+00
-0.5930547174089E+00 -0.2904158304877E+01 -0.6994426148797E+00 -0.7291955934940E+00
-0.5963583155153E+00 -0.2808778138906E+01 -0.6810273010324E+00 -0.7320304878373E+00
-0.5849399400845E+00 -0.2712646051086E+01 -0.6595172080616E+00 -0.7374552366191E+00
-0.5550620414290E+00 -0.2617572241197E+01 -0.6345268659803E+00 -0.7457449170341E+00
-0.5029182342217E+00 -0.2525550152438E+01 -0.6056936863574E+00 -0.7571634699790E+00
-0.4247425947045E+00 -0.2438737577553E+01 -0.5726960429853E+00 -0.7719189603723E+00
-0.3169483611669E+00 -0.2359410420392E+01 -0.5352717642880E+00 -0.7901008259513E+00
-0.1763055218345E+00 -0.2289879156733E+01 -0.4932369430633E+00 -0.8116029534947E+00
-0.1647623113129E-03 -0.2232364440213E+01 -0.4465058471583E+00 -0.8360386363144E+00
 0.2132734257149E+00 -0.2188831770560E+01 -0.3951116748567E+00 -0.8626590258615E+00
 0.4646880440470E+00 -0.2160784375053E+01 -0.3392192712559E+00 -0.8902964692411E+00
 0.7534484643785E+00 -0.2149048031800E+01 -0.2791199176436E+00 -0.9173502151187E+00
 0.1077430710923E+01 -0.2153610945222E+01 -0.2152360500672E+00 -0.9418108779414E+00
 0.1432815721800E+01 -0.2173498867102E+01 -0.1481366312678E+00 -0.9613448609710E+00
 0.1814030003390E+01 -0.2206699541214E+01 -0.7853390873509E-01 -0.9734643917626E+00
 0.2213841953118E+01 -0.2250188341860E+01 -0.7269277856737E-02 -0.9757600372135E+00
 0.2623623835148E+01 -0.2300075078958E+01  0.6470975220226E-01 -0.9661672231174E+00
 0.3033779559985E+01 -0.2351871467402E+01  0.1363816205489E+00 -0.9432280383318E+00
 0.3434282032980E+01 -0.2400853066960E+01  0.2066857962838E+00 -0.9063081629441E+00
 0.3815274774799E+01 -0.2442476870009E+01  0.2745595850494E+00 -0.8557377544808E+00
 0.4167628224321E+01 -0.2472804354745E+01  0.3389647789662E+00 -0.7928727731180E+00
-0.8257272076126E+00 -0.3439217312591E+01 -0.8529889167512E+00 -0.5035085121697E+00
-0.7631846319791E+00 -0.3465566637451E+01 -0.8457502664886E+00 -0.5591983050069E+00
-0.6999820242896E+00 -0.3490317029820E+01 -0.8380598233099E+00 -0.6093443810051E+00
-0.6385293484747E+00 -0.3511958969114E+01 -0.8300976758871E+00 -0.6528436446833E+00
-0.5810749978047E+00 -0.3529108479021E+01 -0.8220367076144E+00 -0.6891591346175E+00
-0.5295641690864E+00 -0.3540591668752E+01 -0.8140311796976E+00 -0.7182787567660E+00
-0.4855359335256E+00 -0.3545496137672E+01 -0.8062064262530E+00 -0.7406123933194E+00
-0.4500737343710E+00 -0.3543180934419E+01 -0.7986509456588E+00 -0.7568600074792E+00
-0.4238056603855E+00 -0.3533250640910E+01 -0.7914112720520E+00 -0.7678813800146E+00
-0.4069395539404E+00 -0.3515507338704E+01 -0.7844893902187E+00 -0.7745883020740E+00
-0.3993141184309E+00 -0.3489896163091E+01 -0.7778420678952E+00 -0.7778685817482E+00
-0.4004494742027E+00 -0.3456457623588E+01 -0.7713814310526E+00 -0.7785417246245E+00
-0.4095860038544E+00 -0.3415294504045E+01 -0.7649761129789E+00 -0.7773403866280E+00
-0.4257063630740E+00 -0.3366556699961E+01 -0.7584526239088E+00 -0.7749094118737E+00
-0.4475395232752E+00 -0.3310445902330E+01 -0.7515970963207E+00 -0.7718147315219E+00
-0.4735528560618E+00 -0.3247230661453E+01 -0.7441567145918E+00 -0.7685553770699E+00
-0.5019352629539E+00 -0.3177273287170E+01 -0.7358417209897E+00 -0.7655752869709E+00
-0.5305777580943E+00 -0.3101064903648E+01 -0.7263285431716E+00 -0.7632726042976E+00
-0.5570598783805E+00 -0.3019256918182E+01 -0.7152633699708E+00 -0.7620063485666E+00
-0.5786443993390E+00 -0.2932698626909E+01 -0.7022686157142E+00 -0.7620982701135E+00
-0.5922824860638E+00 -0.2842499523080E+01 -0.6869564120651E+00 -0.7638170488510E+00
-0.5946334397582E+00 -0.2750055064051E+01 -0.6689377107299E+00 -0.7673714701331E+00
-0.5821194995434E+00 -0.2656996859240E+01 -0.6478232814100E+00 -0.7729501462667E+00
-0.5510056059938E+00 -0.2565163652535E+01 -0.6232338609926E+00 -0.7807406362903E+00
-0.4974965635857E+00 -0.2476585647938E+01 -0.5948164511682E+00 -0.7909150069772E+00
-0.4178541476375E+00 -0.2393454516984E+01 -0.5622617413027E+00 -0.8035947798469E+00
-0.3085439675954E+00 -0.2318067000693E+01 -0.5253222014855E+00 -0.8188007621051E+00
-0.1664202167198E+00 -0.2252733093806E+01 -0.4838306693149E+00 -0.8363912500875E+00
 0.1104598342748E-01 -0.2199645789789E+01 -0.4377199677948E+00 -0.8559940899175E+00
 0.2254979137071E+00 -0.2160713381179E+01 -0.3870430992618E+00 -0.8769425760626E+00
 0.4774290581072E+00 -0.2137356283127E+01 -0.3319854499510E+00 -0.8982324094612E+00
 0.7660070265770E+00 -0.2130302623900E+01 -0.2728591235305E+00 -0.9185135565998E+00
 0.1088912050894E+01 -0.2139440053527E+01 -0.2101056036574E+00 -0.9361150716176E+00
 0.1442164859627E+01 -0.2163706553833E+01 -0.1443083409916E+00 -0.9491186031402E+00
 0.1820098094674E+01 -0.2201036477694E+01 -0.7618767773913E-01 -0.9554990422920E+00
 0.2215479122542E+01 -0.2248405871699E+01 -0.6585349929576E-02 -0.9533131058208E+00
 0.2619787804157E+01 -0.2301991640537E+01  0.6355923367117E-01 -0.9409127845262E+00
 0.3023644054963E+01 -0.2357440174537E+01  0.1332407780706E+00 -0.9171532530716E+00
 0.3417327331711E+01 -0.2410217658603E+01  0.2014219376231E+00 -0.8815650471480E+00
 0.3791344584751E+01 -0.2456005066757E+01  0.2670679075784E+00 -0.8344677696704E+00
 0.4136942691027E+01 -0.2491091233263E+01  0.3291702964578E+00 -0.7770259894212E+00
-0.8042870286473E+00 -0.3350584289208E+01 -0.8309742759535E+00 -0.4937439297644E+00
-0.7433993566099E+00 -0.3376413429085E+01 -0.8239625694170E+00 -0.5497556253514E+00
-0.6823647464035E+00 -0.3400665335606E+01 -0.8166060285703E+00 -0.6007718218234E+00
-0.6233945617194E+00 -0.3421940619821E+01 -0.8090670483641E+00 -0.6456605723851E+00
-0.5685381695837E+00 -0.3438955866340E+01 -0.8014988191279E+00 -0.6838247308397E+00
-0.5195674284141E+00 -0.3450612122348E+01 -0.7940359219844E+00 -0.7151683027621E+00
-0.4778900873218E+00 -0.3456038042620E+01 -0.7867856377123E+00 -0.7400067582786E+00
-0.4445053847678E+00 -0.3454599915262E+01 -0.7798210716262E+00 -0.7589487565615E+00
-0.4200002467027E+00 -0.3445882096900E+01 -0.7731764802417E+00 -0.7727760024030E+00
-0.4045748752596E+00 -0.3429648471457E+01 -0.7668446807701E+00 -0.7823403000860E+00
-0.3980826152992E+00 -0.3405797744410E+01 -0.7607760832783E+00 -0.7884873567934E+00
-0.4000702486032E+00 -0.3374323824299E+01 -0.7548788258290E+00 -0.7920085316924E+00
-0.4098090002022E+00 -0.3335288296420E+01 -0.7490194704856E+00 -0.7936163698305E+00
-0.4263115002930E+00 -0.3288808330309E+01 -0.7430239771923E+00 -0.7939372486408E+00
-0.4483332475943E+00 -0.3235062298703E+01 -0.7366791202367E+00 -0.7935144321584E+00
-0.4743639449756E+00 -0.3174304587382E+01 -0.7297337173455E+00 -0.7928158109516E+00
-0.5026109361540E+00 -0.3106891425888E+01 -0.7219004831655E+00 -0.7922430008231E+00
-0.5309804556153E+00 -0.3033314605516E+01 -0.7128590228486E+00 -0.7921394756665E+00
-0.5570646369657E+00 -0.2954231980593E+01 -0.7022593339763E+00 -0.7927976862842E+00
-0.5781366024492E+00 -0.2870501900010E+01 -0.6897277107695E+00 -0.7944635480098E+00
-0.5911556540131E+00 -0.2783233395351E+01 -0.6748778199293E+00 -0.7973295093176E+00
-0.5927863832892E+00 -0.2693814537158E+01 -0.6573201938842E+00 -0.8015305818327E+00
-0.5794542171414E+00 -0.2603881656229E+01 -0.6366671841612E+00 -0.8071756397342E+00
-0.5474286279499E+00 -0.2515294215109E+01 -0.6125445777394E+00 -0.8143642137701E+00
-0.4929256172771E+00 -0.2430111231431E+01 -0.5846073784529E+00 -0.8231779603936E+00
-0.4122311633952E+00 -0.2350551397280E+01 -0.5525565203687E+00 -0.8336557480271E+00
-0.3018546328470E+00 -0.2278927993322E+01 -0.5161565329251E+00 -0.8457563191200E+00
-0.1587191529254E+00 -0.2217550318514E+01 -0.4752539013696E+00 -0.8593115201259E+00
 0.1960678716213E-01 -0.2168588919581E+01 -0.4297964328883E+00 -0.8739748474548E+00
 0.2346414044347E+00 -0.2133906371803E+01 -0.3798529991340E+00 -0.8891735219333E+00
 0.4867310543489E+00 -0.2114857895093E+01 -0.3256253730009E+00 -0.9040772613003E+00
 0.7748849427484E+00 -0.2112096273282E+01 -0.2674422700919E+00 -0.9175941908912E+00
 0.1096631400458E+01 -0.2125433144019E+01 -0.2057603517782E+00 -0.9283933836605E+00
 0.1447868933902E+01 -0.2153741798278E+01 -0.1411745749787E+00 -0.9349649475802E+00
 0.1822861245886E+01 -0.2194919933572E+01 -0.7441173864589E-01 -0.9357302569424E+00
 0.2214379954459E+01 -0.2245949926274E+01 -0.6313994457208E-02 -0.9291874628851E+00
 0.2613993830575E+01 -0.2303067097546E+01  0.6218534753234E-01 -0.9140747796130E+00
 0.3012495576913E+01 -0.2362028850339E+01  0.1300933472534E+00 -0.8895289983807E+00
 0.3400407294754E+01 -0.2418455812419E+01  0.1963902993934E+00 -0.8552179081082E+00
 0.3768522615474E+01 -0.2468209415840E+01  0.2600626438020E+00 -0.8114309655326E+00
 0.4108385723719E+01 -0.2507761778699E+01  0.3201247937743E+00 -0.7591319929071E+00
-0.7828312456899E+00 -0.3262315976188E+01 -0.8090294564311E+00 -0.4841443064127E+00
-0.7234060270883E+00 -0.3287708509212E+01 -0.8022229192141E+00 -0.5404865868165E+00
-0.6643522876533E+00 -0.3311540978807E+01 -0.7951786651411E+00 -0.5923430682272E+00
-0.6076926664150E+00 -0.3332519751664E+01 -0.7880424953586E+00 -0.6385529291102E+00
-0.5552865851078E+00 -0.3349459142154E+01 -0.7809491570893E+00 -0.6784653430927E+00
-0.5087381727810E+00 -0.3361335378932E+01 -0.7740147218764E+00 -0.7119112780200E+00
-0.4693249572985E+00 -0.3367321769028E+01 -0.7673293566993E+00 -0.7391240854356E+00
-0.4379590972719E+00 -0.3366797961715E+01 -0.7609514231364E+00 -0.7606322181486E+00
-0.4151810125130E+00 -0.3359335310894E+01 -0.7549032759304E+00 -0.7771475333408E+00
-0.4011772286123E+00 -0.3344666360553E+01 -0.7491687289966E+00 -0.7894666222873E+00
-0.3958105149873E+00 -0.3322648746144E+01 -0.7436918633081E+00 -0.7983946798708E+00
-0.3986509095402E+00 -0.3293232975725E+01 -0.7383767880557E+00 -0.8046940730197E+00
-0.4089993257897E+00 -0.3256440252985E+01 -0.7330879266788E+00 -0.8090548478405E+00
-0.4258994479282E+00 -0.3212353550586E+01 -0.7276506105457E+00 -0.8120817907389E+00
-0.4481362758484E+00 -0.3161124445666E+01 -0.7218521550593E+00 -0.8142922435995E+00
-0.4742261902322E+00 -0.3102988055173E+01 -0.7154428597420E+00 -0.8161199379529E+00
-0.5024001103623E+00 -0.3038288181033E+01 -0.7081376688312E+00 -0.8179215397953E+00
-0.5305848579711E+00 -0.2967510019833E+01 -0.6996189859859E+00 -0.8199836104523E+00
-0.5563903170519E+00 -0.2891309956335E+01 -0.6895400649524E+00 -0.8225300771420E+00
-0.5771045441425E+00 -0.2810547148991E+01 -0.6775303487227E+00 -0.8257291891598E+00
-0.5896987261777E+00 -0.2726322583553E+01 -0.6632042718286E+00 -0.8296950306585E+00
-0.5908458394457E+00 -0.2640010233440E+01 -0.6461712242058E+00 -0.8344864554242E+00
-0.5769771080492E+00 -0.2553244206343E+01 -0.6260442722073E+00 -0.8401307794106E+00
-0.5443680478613E+00 -0.2467897130283E+01 -0.6024530446060E+00 -0.8466389345855E+00
-0.4892450991419E+00 -0.2386049355651E+01 -0.5750588995277E+00 -0.8540032718726E+00
-0.4079139803189E+00 -0.2309940408545E+01 -0.5435708858727E+00 -0.8621830758395E+00
-0.2969181271241E+00 -0.2241896658160E+01 -0.5077629646231E+00 -0.8710801819710E+00
-0.1532333075048E+00 -0.2184227432348E+01 -0.4674921549368E+00 -0.8805070828008E+00
 0.2549843691773E-01 -0.2139086935763E+01 -0.4227177060680E+00 -0.8901514089836E+00
 0.2407016211961E+00 -0.2108304161080E+01 -0.3735205135427E+00 -0.8995431380655E+00
 0.4926132342027E+00 -0.2093186930335E+01 -0.3201147439965E+00 -0.9080337784038E+00
 0.7801257664176E+00 -0.2094334523531E+01 -0.2628417553393E+00 -0.9147947747292E+00
 0.1100656767137E+01 -0.2111505886657E+01 -0.2021698269166E+00 -0.9188358061261E+00
 0.1450016846571E+01 -0.2143530781447E+01 -0.1387027890420E+00 -0.9190496258730E+00
 0.1822421680456E+01 -0.2188284689618E+01 -0.7317260292281E-01 -0.9142912193247E+00
 0.2210648840788E+01 -0.2242759817266E+01 -0.6422195391317E-02 -0.9034809772109E+00
 0.2606335012935E+01 -0.2303239775631E+01  0.6061904836412E-01 -0.8857200123109E+00
 0.3000402050248E+01 -0.2365568999600E+01  0.1269666120216E+00 -0.8604025679483E+00
 0.3383552431765E+01 -0.2425487288160E+01  0.1916130315763E+00 -0.8273122867403E+00
 0.3746793068628E+01 -0.2478994879740E+01  0.2535596415559E+00 -0.7866928143451E+00
 0.4081890623531E+01 -0.2522705406310E+01  0.3118370480909E+00 -0.7392988586586E+00
-0.7613484223174E+00 -0.3174341056622E+01 -0.7871379075171E+00 -0.4746783290299E+00
-0.7032061632908E+00 -0.3199376327279E+01 -0.7805165097446E+00 -0.5313605164842E+00
-0.6459603121696E+00 -0.3222865295044E+01 -0.7737651329728E+00 -0.5840293959501E+00
-0.5914522844780E+00 -0.3243616909274E+01 -0.7670138501799E+00 -0.6314951464040E+00
-0.5413587187108E+00 -0.3260541131613E+01 -0.7603799813954E+00 -0.6730589727203E+00
-0.4971206042136E+00 -0.3272689674513E+01 -0.7539620669803E+00 -0.7084885525932E+00
-0.4598863064402E+00 -0.3279283498451E+01 -0.7478339721218E+00 -0.7379463944398E+00
-0.4304787417869E+00 -0.3279720721699E+01 -0.7420399037544E+00 -0.7618912197008E+00
-0.4093875889731E+00 -0.3273565787215E+01 -0.7365906862138E+00 -0.7809731481923E+00
-0.3967808247552E+00 -0.3260525758214E+01 -0.7314613274934E+00 -0.7959386667855E+00
-0.3925264126932E+00 -0.3240421834755E+01 -0.7265896603166E+00 -0.8075546959289E+00
-0.3962149417485E+00 -0.3213163908192E+01 -0.7218757807449E+00 -0.8165545739716E+00
-0.4071762640501E+00 -0.3178733471398E+01 -0.7171819577764E+00 -0.8236043021274E+00
-0.4244863551263E+00 -0.3137177880788E+01 -0.7123328577974E+00 -0.8292847396214E+00
-0.4469626776253E+00 -0.3088618610222E+01 -0.7071162681064E+00 -0.8340847372034E+00
-0.4731525327852E+00 -0.3033266621006E+01 -0.7012838412082E+00 -0.8384014139563E+00
-0.5013154201043E+00 -0.2971447151575E+01 -0.6945525246856E+00 -0.8425443055867E+00
-0.5294040061790E+00 -0.2903631713777E+01 -0.6866071542224E+00 -0.8467411649498E+00
-0.5550510038590E+00 -0.2830467427848E+01 -0.6771036964310E+00 -0.8511457147806E+00
-0.5755639352923E+00 -0.2752806100419E+01 -0.6656740170615E+00 -0.8558469232089E+00
-0.5879295526971E+00 -0.2671733141913E+01 -0.6519325486365E+00 -0.8608785221069E+00
-0.5888321823756E+00 -0.2588601772496E+01 -0.6354868004438E+00 -0.8662209105006E+00
-0.5747112032601E+00 -0.2505037041427E+01 -0.6159496581159E+00 -0.8718180571145E+00
-0.5418492687004E+00 -0.2422917407878E+01 -0.5929533441515E+00 -0.8775916006639E+00
-0.4864819084386E+00 -0.2344337433818E+01 -0.5661638768878E+00 -0.8834452568090E+00
-0.4049293877374E+00 -0.2271551795522E+01 -0.5352962446285E+00 -0.8892608985881E+00
-0.2937587310060E+00 -0.2206897115585E+01 -0.5001311767707E+00 -0.8948871445562E+00
-0.1499813226035E+00 -0.2152684138128E+01 -0.4605330990087E+00 -0.9001221627067E+00
 0.2871156050146E-01 -0.2111057432611E+01 -0.4164691806277E+00 -0.9046936293535E+00
 0.2436821702586E+00 -0.2083824942234E+01 -0.3680285598791E+00 -0.9082402825726E+00
 0.4950953531564E+00 -0.2072264933108E+01 -0.3154339206907E+00 -0.9103005274171E+00
 0.7817672822900E+00 -0.2076944596024E+01 -0.2590354666067E+00 -0.9103123100905E+00
 0.1101043778492E+01 -0.2097592546914E+01 -0.1993097566543E+00 -0.9076258451127E+00
 0.1448679210434E+01 -0.2133014745608E+01 -0.1368671090743E+00 -0.9015319702391E+00
 0.1818859249783E+01 -0.2181077219500E+01 -0.7244359502290E-01 -0.8913098489020E+00
 0.2204366562449E+01 -0.2238783939865E+01 -0.6883475585876E-02 -0.8762883439507E+00
 0.2596883084842E+01 -0.2302455614891E+01  0.5888549486754E-01 -0.8559148313799E+00
 0.2987415825689E+01 -0.2367999439996E+01  0.1238832789845E+00 -0.8298236590996E+00
 0.3366786436338E+01 -0.2431239661254E+01  0.1871093578049E+00 -0.7978986150982E+00
 0.3726143941311E+01 -0.2488274869681E+01  0.2475738180151E+00 -0.7603254055694E+00
 0.4057405519723E+01 -0.2535819906050E+01  0.3043171272694E+00 -0.7176420808264E+00
-0.7398270652893E+00 -0.3086588354040E+01 -0.7652830952694E+00 -0.4653163964534E+00
-0.6828009128282E+00 -0.3111341450322E+01 -0.7588284839375E+00 -0.5223483058017E+00
-0.6272036760019E+00 -0.3134559582602E+01 -0.7523526629318E+00 -0.5758030476762E+00
-0.5747009373796E+00 -0.3155152186503E+01 -0.7459706358924E+00 -0.6244616598293E+00
-0.5267919736729E+00 -0.3172123485001E+01 -0.7397831027585E+00 -0.6675825051672E+00
-0.4847582472838E+00 -0.3184601080183E+01 -0.7338718764289E+00 -0.7048788482958E+00
-0.4496198968572E+00 -0.3191856111206E+01 -0.7282952124652E+00 -0.7364528060860E+00
-0.4221089947330E+00 -0.3193309407678E+01 -0.7230836912570E+00 -0.7627033173086E+00
-0.4026611881626E+00 -0.3188523595740E+01 -0.7182369674832E+00 -0.7842267540599E+00
-0.3914220632321E+00 -0.3177185211460E+01 -0.7137214655736E+00 -0.8017248703748E+00
-0.3882614479216E+00 -0.3159082978156E+01 -0.7094688957875E+00 -0.8159290967145E+00
-0.3927884380241E+00 -0.3134088552923E+01 -0.7053754087003E+00 -0.8275444140198E+00
-0.4043614746958E+00 -0.3102144238470E+01 -0.7013011530833E+00 -0.8372119923666E+00
-0.4220902393161E+00 -0.3063260396040E+01 -0.6970701374584E+00 -0.8454871602292E+00
-0.4448276383340E+00 -0.3017525247662E+01 -0.6924705875179E+00 -0.8528283650822E+00
-0.4711560684211E+00 -0.2965120923555E+01 -0.6872554086361E+00 -0.8595942178132E+00
-0.4993685191840E+00 -0.2906348173926E+01 -0.6811433487718E+00 -0.8660453989658E+00
-0.5274486785326E+00 -0.2841657913049E+01 -0.6738213283571E+00 -0.8723493219805E+00
-0.5530571133601E+00 -0.2771680332301E+01 -0.6649474990407E+00 -0.8785881159450E+00
-0.5735253063452E+00 -0.2697251814833E+01 -0.6541554339833E+00 -0.8847700788169E+00
-0.5858592101661E+00 -0.2619434724148E+01 -0.6410587964154E+00 -0.8908467452197E+00
-0.5867573732752E+00 -0.2539554920538E+01 -0.6252624680798E+00 -0.8967178337522E+00
-0.5726695026001E+00 -0.2459221644939E+01 -0.6063782385435E+00 -0.9022421770785E+00
-0.5398861828556E+00 -0.2380312011255E+01 -0.5840396475250E+00 -0.9072512585640E+00
-0.4846502702593E+00 -0.2304927917881E+01 -0.5579156459416E+00 -0.9115603439740E+00
-0.4032908864525E+00 -0.2235333836153E+01 -0.5277249523848E+00 -0.9149751220414E+00
-0.2923876428205E+00 -0.2173874191831E+01 -0.4932523742803E+00 -0.9172931824317E+00
-0.1489700575745E+00 -0.2122862925235E+01 -0.4543666033324E+00 -0.9183013256213E+00
 0.2924595968317E-01 -0.2084442006914E+01 -0.4110392155712E+00 -0.9177706509521E+00
 0.2435918289976E+00 -0.2060411041964E+01 -0.3633638480078E+00 -0.9154519299560E+00
 0.4941970682348E+00 -0.2052036523648E+01 -0.3115678957254E+00 -0.9110730590656E+00
 0.7798410460076E+00 -0.2059874612167E+01 -0.2560067170466E+00 -0.9043398943576E+00
 0.1097835550224E+01 -0.2083645277000E+01 -0.1971619482931E+00 -0.8949426766623E+00
 0.1443908648677E+01 -0.2122149448788E+01 -0.1356481620437E+00 -0.8825672006884E+00
 0.1812232196605E+01 -0.2173255372106E+01 -0.7220463617618E-01 -0.8669108947494E+00
 0.2195591454243E+01 -0.2233979699316E+01 -0.7677649129038E-02 -0.8477026917937E+00
 0.2585689828009E+01 -0.2300668309050E+01  0.5700430464135E-01 -0.8247260766624E+00
 0.2973575132518E+01 -0.2369266596041E+01  0.1208617090965E+00 -0.7978446616400E+00
 0.3350127469590E+01 -0.2435648722651E+01  0.1828957521131E+00 -0.7670320366538E+00
 0.3706567993178E+01 -0.2495971746550E+01  0.2421192529335E+00 -0.7324071313217E+00
 0.4034893978438E+01 -0.2547012110247E+01  0.2975763780724E+00 -0.6942845367847E+00
-0.7182555956615E+00 -0.2998986419303E+01 -0.7434484140711E+00 -0.4560306126544E+00
-0.6621911747914E+00 -0.3023528109257E+01 -0.7371438677939E+00 -0.5134224214958E+00
-0.6080967039414E+00 -0.3046544638932E+01 -0.7309282794663E+00 -0.5676373110387E+00
-0.5574654243754E+00 -0.3067044807313E+01 -0.7249020571396E+00 -0.6174270882267E+00
-0.5116230809107E+00 -0.3084126361839E+01 -0.7191498992661E+00 -0.6620119941403E+00
-0.4716942893557E+00 -0.3096993331797E+01 -0.7137375348661E+00 -0.7010591005831E+00
-0.4385717186278E+00 -0.3104969174827E+01 -0.7087081892516E+00 -0.7346199358891E+00
-0.4128954381456E+00 -0.3107500927864E+01 -0.7040792836934E+00 -0.7630431718539E+00
-0.3950445838340E+00 -0.3104153609997E+01 -0.6998396491946E+00 -0.7868793082248E+00
-0.3851394241009E+00 -0.3094597363952E+01 -0.6959473679811E+00 -0.8067909426431E+00
-0.3830491422470E+00 -0.3078591771300E+01 -0.6923281930260E+00 -0.8234772565547E+00
-0.3883999149940E+00 -0.3055972260502E+01 -0.6888744453643E+00 -0.8376161587757E+00
-0.4005788117220E+00 -0.3026642321518E+01 -0.6854442368620E+00 -0.8498238835197E+00
-0.4187308215790E+00 -0.2990573980730E+01 -0.6818609706223E+00 -0.8606293029548E+00
-0.4417473186129E+00 -0.2947819216200E+01 -0.6779133170644E+00 -0.8704591760645E+00
-0.4682499310721E+00 -0.2898526862472E+01 -0.6733553687427E+00 -0.8796322589012E+00
-0.4965699832169E+00 -0.2842967471207E+01 -0.6679075008373E+00 -0.8883591147666E+00
-0.5247273057924E+00 -0.2781564630507E+01 -0.6612583971134E+00 -0.8967456677307E+00
-0.5504153145715E+00 -0.2714924077891E+01 -0.6530678882239E+00 -0.9048013733451E+00
-0.5709939347308E+00 -0.2643858796876E+01 -0.6429705559023E+00 -0.9124527089492E+00
-0.5834919373933E+00 -0.2569400690036E+01 -0.6305785348821E+00 -0.9195673132372E+00
-0.5846249133458E+00 -0.2492841691565E+01 -0.6154933301536E+00 -0.9259620628851E+00
-0.5708549586309E+00 -0.2415768541021E+01 -0.5973247088313E+00 -0.9314088489735E+00
-0.5384812039250E+00 -0.2340049922791E+01 -0.5757062339219E+00 -0.9356479460552E+00
-0.4837518327930E+00 -0.2267788324814E+01 -0.5503080397217E+00 -0.9384058447296E+00
-0.4029988662024E+00 -0.2201252810524E+01 -0.5208503431066E+00 -0.9394123098477E+00
-0.2928032436773E+00 -0.2142793312787E+01 -0.4871193185514E+00 -0.9384145773783E+00
-0.1501949362176E+00 -0.2094728875177E+01 -0.4489847689693E+00 -0.9351889722207E+00
 0.2711020426881E-01 -0.2059205972429E+01 -0.4064191596881E+00 -0.9295508922970E+00
 0.2404441266164E+00 -0.2038028556342E+01 -0.3595168913024E+00 -0.9213637461606E+00
 0.4899375719892E+00 -0.2032468986370E+01 -0.3085062874733E+00 -0.9105450947669E+00
 0.7743721523182E+00 -0.2043093181455E+01 -0.2537442096085E+00 -0.8970684484538E+00
 0.1091062669147E+01 -0.2069633760621E+01 -0.1957142212112E+00 -0.8809632385390E+00
 0.1435740052780E+01 -0.2110904919883E+01 -0.1350329754329E+00 -0.8623086111231E+00
 0.1802577707311E+01 -0.2164788274061E+01 -0.7244211442949E-01 -0.8412179064174E+00
 0.2184360217786E+01 -0.2228313572298E+01 -0.8790671033402E-02 -0.8178170662912E+00
 0.2572788060257E+01 -0.2297839511675E+01  0.5498971053584E-01 -0.7922219196389E+00
 0.2958905122603E+01 -0.2369324821460E+01  0.1179160619857E+00 -0.7645208686704E+00
 0.3333589140116E+01 -0.2438658893468E+01  0.1789860519967E+00 -0.7347721713349E+00
 0.3688063580881E+01 -0.2502017332282E+01  0.2372092532545E+00 -0.7030223194567E+00
 0.4014335685034E+01 -0.2556198555792E+01  0.2916274301941E+00 -0.6693563696916E+00
-0.6966223222585E+00 -0.2911463158346E+01 -0.7216171068738E+00 -0.4467947982374E+00
-0.6413777097098E+00 -0.2935859789871E+01 -0.7154475105771E+00 -0.5045569295256E+00
-0.5886534374185E+00 -0.2958740341576E+01 -0.7094787663710E+00 -0.5595065941616E+00
-0.5397721644100E+00 -0.2979212743859E+01 -0.7037969921413E+00 -0.6103663892221E+00
-0.4958884645759E+00 -0.2996468138229E+01 -0.6984713309690E+00 -0.6563229025301E+00
-0.4579718997893E+00 -0.3009787665327E+01 -0.6935519233581E+00 -0.6970047659443E+00
-0.4267882138444E+00 -0.3018548921224E+01 -0.6890674372816E+00 -0.7324222326240E+00
-0.4028846697583E+00 -0.3022227992934E+01 -0.6850225427461E+00 -0.7628828786588E+00
-0.3865821155708E+00 -0.3020395712403E+01 -0.6813955757484E+00 -0.7888991037532E+00
-0.3779733913781E+00 -0.3012709220569E+01 -0.6781365324944E+00 -0.8111000819629E+00
-0.3769252737360E+00 -0.2998901722188E+01 -0.6751654092456E+00 -0.8301563628514E+00
-0.3830801684094E+00 -0.2978774077669E+01 -0.6723708592347E+00 -0.8467205962568E+00
-0.3958541828894E+00 -0.2952191214847E+01 -0.6696090895253E+00 -0.8613845831460E+00
-0.4144294053060E+00 -0.2919085532946E+01 -0.6667029975850E+00 -0.8746504387599E+00
-0.4377387590698E+00 -0.2879469935485E+01 -0.6634417487970E+00 -0.8869125453063E+00
-0.4644472239076E+00 -0.2833455713008E+01 -0.6595805972117E+00 -0.8984489970604E+00
-0.4929292627918E+00 -0.2781277730035E+01 -0.6548414083233E+00 -0.9094194468697E+00
-0.5212459400158E+00 -0.2723325713346E+01 -0.6489143403420E+00 -0.9198675757067E+00
-0.5471285079535E+00 -0.2660173570093E+01 -0.6414604251679E+00 -0.9297294129717E+00
-0.5679698290455E+00 -0.2592603008216E+01 -0.6321145768716E+00 -0.9388487187889E+00
-0.5808251250103E+00 -0.2521608110462E+01 -0.6204866563405E+00 -0.9470076925279E+00
-0.5824298419461E+00 -0.2448440347326E+01 -0.6061740468870E+00 -0.9539382736196E+00
-0.5692604890583E+00 -0.2374657289543E+01 -0.5887835644938E+00 -0.9593235865557E+00
-0.5376253001800E+00 -0.2302112132034E+01 -0.5679474949060E+00 -0.9628114482191E+00
-0.4837757279117E+00 -0.2232901214558E+01 -0.5433353965903E+00 -0.9640387366042E+00
-0.4040406967845E+00 -0.2169292964930E+01 -0.5146667400120E+00 -0.9626585903447E+00
-0.2949912180042E+00 -0.2113640451376E+01 -0.4817263410544E+00 -0.9583670654336E+00
-0.1536400893648E+00 -0.2068269591900E+01 -0.4443819428748E+00 -0.9509288568051E+00
 0.2232148220499E-01 -0.2035338276589E+01 -0.4026033648761E+00 -0.9402020589546E+00
 0.2342572090838E+00 -0.2016667262230E+01 -0.3564820159411E+00 -0.9261606777130E+00
 0.4823355002280E+00 -0.2013552188995E+01 -0.3062433423167E+00 -0.9089097132495E+00
 0.7653792159930E+00 -0.2026589344539E+01 -0.2522420294679E+00 -0.8886884264012E+00
 0.1080743275362E+01 -0.2055545196895E+01 -0.1949603872118E+00 -0.8658642833350E+00
 0.1424190786797E+01 -0.2099265498523E+01 -0.1350149443571E+00 -0.8409096991448E+00
 0.1789912248091E+01 -0.2155656437310E+01 -0.7314883893375E-01 -0.8143551370734E+00
 0.2170688385699E+01 -0.2221761290245E+01 -0.1021458106143E-01 -0.7867258424625E+00
 0.2558192208788E+01 -0.2293939099119E+01  0.5285062272123E-01 -0.7584726386058E+00
 0.2943418519601E+01 -0.2368136741420E+01  0.1150563573506E+00 -0.7299106325588E+00
 0.3317181190739E+01 -0.2440223646030E+01  0.1753915115552E+00 -0.7011828343318E+00
 0.3670635360387E+01 -0.2506353421632E+01  0.2328563912207E+00 -0.6722608166411E+00
 0.3995727185352E+01 -0.2563306127709E+01  0.2864842157976E+00 -0.6429947946192E+00
-0.6749154174971E+00 -0.2823945493310E+01 -0.6997721925889E+00 -0.4375845186403E+00
-0.6203612394792E+00 -0.2848258860529E+01 -0.6937240303390E+00 -0.4957275311673E+00
-0.5688878604359E+00 -0.2871065266177E+01 -0.6879906355744E+00 -0.5513864997555E+00
-0.5216475096332E+00 -0.2891572366922E+01 -0.6826439854833E+00 -0.6032549944898E+00
-0.4796245808423E+00 -0.2909065136553E+01 -0.6777379535781E+00 -0.6504903055809E+00
-0.4436345310184E+00 -0.2922902661304E+01 -0.6733074484975E+00 -0.6926900810218E+00
-0.4143164951782E+00 -0.2932518219399E+01 -0.6693669528898E+00 -0.7298322674648E+00
-0.3921244206990E+00 -0.2937419206959E+01 -0.6659087354545E+00 -0.7621922549057E+00
-0.3773197116797E+00 -0.2937184975609E+01 -0.6629009473357E+00 -0.7902520251032E+00
-0.3699664034751E+00 -0.2931462382798E+01 -0.6602857670936E+00 -0.8146131751714E+00
-0.3699277840423E+00 -0.2919960505014E+01 -0.6579776676158E+00 -0.8359215426543E+00
-0.3768621650534E+00 -0.2902446987738E+01 -0.6558618403315E+00 -0.8548067788229E+00
-0.3902154488763E+00 -0.2878748345529E+01 -0.6537927686233E+00 -0.8718372907458E+00
-0.4092087972919E+00 -0.2848756122535E+01 -0.6515929936749E+00 -0.8874887096762E+00
-0.4328198302860E+00 -0.2812441491657E+01 -0.6490522740603E+00 -0.9021229201491E+00
-0.4597609987296E+00 -0.2769874178966E+01 -0.6459270451642E+00 -0.9159770777460E+00
-0.4884546881742E+00 -0.2721248106665E+01 -0.6419405685334E+00 -0.9291596060811E+00
-0.5170082780903E+00 -0.2666912810408E+01 -0.6367842271885E+00 -0.9416516005868E+00
-0.5431958609162E+00 -0.2607403149287E+01 -0.6301198114302E+00 -0.9533152581764E+00
-0.5644477707450E+00 -0.2543461784671E+01 -0.6215819203455E+00 -0.9639109975919E+00
-0.5778493592760E+00 -0.2476037672496E+01 -0.6107774154557E+00 -0.9731342057239E+00
-0.5801587798551E+00 -0.2406335297887E+01 -0.5972988244488E+00 -0.9806298667377E+00
-0.5678690171705E+00 -0.2335876389310E+01 -0.5807490899500E+00 -0.9859905051772E+00
-0.5372980289442E+00 -0.2266491549217E+01 -0.5607579239882E+00 -0.9887700514292E+00
-0.4846985942284E+00 -0.2200264122796E+01 -0.5369925514067E+00 -0.9885144436779E+00
-0.4063907321616E+00 -0.2139456474554E+01 -0.5091694489303E+00 -0.9847985587825E+00
-0.2989245294045E+00 -0.2086422132124E+01 -0.4770693394147E+00 -0.9772649784694E+00
-0.1592782934840E+00 -0.2043495260118E+01 -0.4405547172851E+00 -0.9656635972723E+00
 0.1490570390107E-01 -0.2012851621977E+01 -0.3995891895695E+00 -0.9498911432833E+00
 0.2250539852679E+00 -0.1996340805563E+01 -0.3542573693378E+00 -0.9300275277159E+00
 0.4714091095070E+00 -0.1995298832644E+01 -0.3047779491690E+00 -0.9063605232284E+00
 0.7528745610796E+00 -0.2010372870070E+01 -0.2514996655456E+00 -0.8793915117575E+00
 0.1066883239479E+01 -0.2041384621136E+01 -0.1949002792356E+00 -0.8498244205102E+00
 0.1409260834688E+01 -0.2087230156316E+01 -0.1355938663460E+00 -0.8185262864670E+00
 0.1774231682885E+01 -0.2145852067133E+01 -0.7432407795712E-01 -0.7864494362103E+00
 0.2154570436831E+01 -0.2214308138723E+01 -0.1194754055645E-01 -0.7545261219330E+00
 0.2541898470926E+01 -0.2288945483655E+01  0.5059059820797E-01 -0.7235513709305E+00
 0.2927115877609E+01 -0.2365673608212E+01  0.1122884555526E+00 -0.6940754916809E+00
 0.3300909895251E+01 -0.2440305924535E+01  0.1721207967081E+00 -0.6663317210481E+00
 0.3654294854487E+01 -0.2508932285222E+01  0.2290725172665E+00 -0.6402175279276E+00
 0.3979082672074E+01 -0.2568272672207E+01  0.2821620041780E+00 -0.6153438381004E+00
-0.6531228954518E+00 -0.2736359050284E+01 -0.6778963992486E+00 -0.4283771277682E+00
-0.5991425404700E+00 -0.2760646229045E+01 -0.6719577639159E+00 -0.4869116104166E+00
-0.5488141095656E+00 -0.2783436334315E+01 -0.6664500987070E+00 -0.5432538982652E+00
-0.5031180374437E+00 -0.2804038123343E+01 -0.6614312420135E+00 -0.5960689270775E+00
-0.4628682353895E+00 -0.2821831375409E+01 -0.6569399319488E+00 -0.6444890602072E+00
-0.4287262040701E+00 -0.2836254099852E+01 -0.6529960705149E+00 -0.6880882781489E+00
-0.4012045582968E+00 -0.2846796548160E+01 -0.6496002309712E+00 -0.7268209782995E+00
-0.3806636776371E+00 -0.2852999148605E+01 -0.6467325748856E+00 -0.7609390886690E+00
-0.3673049263542E+00 -0.2854451826235E+01 -0.6443513601194E+00 -0.7909017766981E+00
-0.3611628259837E+00 -0.2850793260491E+01 -0.6423912268672E+00 -0.8172889832766E+00
-0.3620967141271E+00 -0.2841710184664E+01 -0.6407613893063E+00 -0.8407259874413E+00
-0.3697809681942E+00 -0.2826938117487E+01 -0.6393438266632E+00 -0.8618220730962E+00
-0.3836923600868E+00 -0.2806265240042E+01 -0.6379915295326E+00 -0.8811237618810E+00
-0.4030932702342E+00 -0.2779541103315E+01 -0.6365268841948E+00 -0.8990809979600E+00
-0.4270092278748E+00 -0.2746692688681E+01 -0.6347403927695E+00 -0.9160235859802E+00
-0.4542042840966E+00 -0.2707744383054E+01 -0.6323897428534E+00 -0.9321479865402E+00
-0.4831535264177E+00 -0.2662844161002E+01 -0.6291995468597E+00 -0.9475115552969E+00
-0.5120157410943E+00 -0.2612295257678E+01 -0.6248622090657E+00 -0.9620328863773E+00
-0.5386129016401E+00 -0.2556586437488E+01 -0.6190398770501E+00 -0.9755003045945E+00
-0.5604174145268E+00 -0.2496413655026E+01 -0.6113662230207E+00 -0.9875905577055E+00
-0.5745485211989E+00 -0.2432673481819E+01 -0.6014444095658E+00 -0.9979110381716E+00
-0.5777900187490E+00 -0.2366516900024E+01 -0.5888613925293E+00 -0.1006017854259E+01
-0.5666535414820E+00 -0.2299423086563E+01 -0.5732153341505E+00 -0.1011411113579E+01
-0.5374675732168E+00 -0.2233192841077E+01 -0.5541320911159E+00 -0.1013549285775E+01
-0.4864845641500E+00 -0.2169889445337E+01 -0.5312748098140E+00 -0.1011885598420E+01
-0.4100102291790E+00 -0.2111763401458E+01 -0.5043547336429E+00 -0.1005914153091E+01
-0.3045632533231E+00 -0.2061165489625E+01 -0.4731457556401E+00 -0.9952203513361E+00
-0.1670707061789E+00 -0.2020438828824E+01 -0.4375019135199E+00 -0.9795341442190E+00
 0.4897861150259E-02 -0.1991782790763E+01 -0.3973769918439E+00 -0.9587843806902E+00
 0.2128625565607E+00 -0.1977087166553E+01 -0.3528449272563E+00 -0.9331494920706E+00
 0.4571767289225E+00 -0.1977745035455E+01 -0.3041136658382E+00 -0.9030928081179E+00
 0.7368646248631E+00 -0.1994474910567E+01 -0.2515220608888E+00 -0.8693723057180E+00
 0.1049476441516E+01 -0.2027175569590E+01 -0.1955398285284E+00 -0.8330261739470E+00
 0.1390932895028E+01 -0.2074813106400E+01 -0.1367760443127E+00 -0.7953186757659E+00
 0.1755511172671E+01 -0.2135379574776E+01 -0.7597368155317E-01 -0.7576321881541E+00
 0.2135979556748E+01 -0.2205949372721E+01 -0.1399396340310E-01 -0.7213191683271E+00
 0.2523884553677E+01 -0.2282845973203E+01  0.4820771681322E-01 -0.6875348822046E+00
 0.2909985441383E+01 -0.2361915665798E+01  0.1096139567504E+00 -0.6570802899380E+00
 0.3284778158374E+01 -0.2438878561009E+01  0.1691799219941E+00 -0.6302900675487E+00
 0.3639060874968E+01 -0.2509717157461E+01  0.2258687468671E+00 -0.6069919180881E+00
 0.3964434801049E+01 -0.2571047569288E+01  0.2786774505048E+00 -0.5865540191403E+00
-0.6312325921730E+00 -0.2648627867417E+01 -0.6559721016927E+00 -0.4191518263238E+00
-0.5777225328061E+00 -0.2672941021665E+01 -0.6501327205820E+00 -0.4780882921295E+00
-0.5284466735574E+00 -0.2695768484367E+01 -0.6448430411937E+00 -0.5350870002704E+00
-0.4842108273881E+00 -0.2716522235323E+01 -0.6401466220812E+00 -0.5887849022056E+00
-0.4456568846231E+00 -0.2734678337536E+01 -0.6360670539099E+00 -0.6382939430924E+00
-0.4132917808717E+00 -0.2749754827348E+01 -0.6326093310706E+00 -0.6831717607624E+00
-0.3875014874837E+00 -0.2761299972574E+01 -0.6297603013958E+00 -0.7233578729068E+00
-0.3685528063607E+00 -0.2768888447930E+01 -0.6274882602085E+00 -0.7590893530034E+00
-0.3565869867808E+00 -0.2772122196686E+01 -0.6257418460176E+00 -0.7908100874813E+00
-0.3516089422080E+00 -0.2770633264998E+01 -0.6244484507462E+00 -0.8190843158680E+00
-0.3534741644697E+00 -0.2764087416481E+01 -0.6235123254811E+00 -0.8445210787163E+00
-0.3618736933123E+00 -0.2752188913103E+01 -0.6228125305636E+00 -0.8677122206852E+00
-0.3763165288500E+00 -0.2734687653181E+01 -0.6222008456778E+00 -0.8891842903034E+00
-0.3961085653356E+00 -0.2711390179795E+01 -0.6214997582872E+00 -0.9093628176147E+00
-0.4203265121389E+00 -0.2682177045414E+01 -0.6205007207568E+00 -0.9285464562764E+00
-0.4477901624088E+00 -0.2647023793361E+01 -0.6189628003772E+00 -0.9468917275773E+00
-0.4770320916306E+00 -0.2606027716590E+01 -0.6166119708324E+00 -0.9644055667361E+00
-0.5062676105985E+00 -0.2559439879555E+01 -0.6131415071672E+00 -0.9809445936717E+00
-0.5333716726005E+00 -0.2507696091302E+01 -0.6082135618436E+00 -0.9962236103853E+00
-0.5558634490567E+00 -0.2451438058232E+01 -0.6014603104202E+00 -0.1009835684371E+01
-0.5708999429693E+00 -0.2391502758727E+01 -0.5924805491680E+00 -0.1021299249734E+01
-0.5752936593668E+00 -0.2328981149083E+01 -0.5808549703453E+00 -0.1030079744264E+01
-0.5655772376927E+00 -0.2265303083674E+01 -0.5661760727100E+00 -0.1035583095862E+01
-0.5380907843910E+00 -0.2202232183086E+01 -0.5480646016622E+00 -0.1037170646989E+01
-0.4890852194338E+00 -0.2141804267317E+01 -0.5261779051909E+00 -0.1034200770082E+01
-0.4148471856793E+00 -0.2086251640351E+01 -0.5002197726599E+00 -0.1026083481638E+01
-0.3118542707528E+00 -0.2037918373284E+01 -0.4699545358103E+00 -0.1012341966607E+01
-0.1769664009698E+00 -0.1999156313333E+01 -0.4352245493459E+00 -0.9926791765692E+00
-0.7657358284922E-02 -0.1972193168066E+01 -0.3959701111706E+00 -0.9670471289645E+00
 0.1977169359684E+00 -0.1958969402235E+01 -0.3522504985023E+00 -0.9357126274927E+00
 0.4396574976533E+00 -0.1960951256190E+01 -0.3042587562412E+00 -0.8993046264951E+00
 0.7173505922162E+00 -0.1978949030234E+01 -0.2523196913634E+00 -0.8588300094910E+00
 0.1028505167740E+01 -0.2012961105856E+01 -0.1968911905570E+00 -0.8156580803608E+00
 0.1369172434248E+01 -0.2062044719836E+01 -0.1385744591826E+00 -0.7714538902939E+00
 0.1733704856486E+01 -0.2124256308704E+01 -0.7811029160751E-01 -0.7280413548871E+00
 0.2114867031146E+01 -0.2196690753563E+01 -0.1636474472719E-01 -0.6872119374858E+00
 0.2504108971748E+01 -0.2275637175906E+01  0.4569435984929E-01 -0.6505043934412E+00
 0.2892002588094E+01 -0.2356852519126E+01  0.1070300153885E+00 -0.6189933103814E+00
 0.3268785304111E+01 -0.2435924682764E+01  0.1665721267514E+00 -0.5931322945062E+00
 0.3624959784007E+01 -0.2508682705282E+01  0.2232554190717E+00 -0.5726874813971E+00
 0.3951835519236E+01 -0.2571592253549E+01  0.2760486572508E+00 -0.5567819806720E+00
-0.6092321484107E+00 -0.2560674117674E+01 -0.6339812626640E+00 -0.4098897345148E+00
-0.5561023689204E+00 -0.2585060278369E+01 -0.6282325388192E+00 -0.4692385105786E+00
-0.5078005881410E+00 -0.2607974360299E+01 -0.6231549989738E+00 -0.5268654281645E+00
-0.4649537292632E+00 -0.2628934418681E+01 -0.6187776388092E+00 -0.5813804122531E+00
-0.4280289257620E+00 -0.2647514756136E+01 -0.6151087455453E+00 -0.6318797591870E+00
-0.3973772259498E+00 -0.2663314638721E+01 -0.6121383820557E+00 -0.6779122411337E+00
-0.3732576542633E+00 -0.2675941131280E+01 -0.6098397661960E+00 -0.7194111939555E+00
-0.3558436743521E+00 -0.2685003867894E+01 -0.6081695175116E+00 -0.7566073881941E+00
-0.3452168464861E+00 -0.2690117674966E+01 -0.6070669133365E+00 -0.7899368944510E+00
-0.3413529574278E+00 -0.2690908993561E+01 -0.6064523992345E+00 -0.8199541970671E+00
-0.3441042761488E+00 -0.2687023630486E+01 -0.6062255903604E+00 -0.8472565171845E+00
-0.3531794912938E+00 -0.2678135293522E+01 -0.6062629659971E+00 -0.8724214125511E+00
-0.3681214351750E+00 -0.2663955666594E+01 -0.6064154293901E+00 -0.8959577111167E+00
-0.3882819341624E+00 -0.2644247434860E+01 -0.6065058828421E+00 -0.9182682315287E+00
-0.4127921923697E+00 -0.2618842744030E+01 -0.6063269963149E+00 -0.9396218902435E+00
-0.4405318967462E+00 -0.2587665090765E+01 -0.6056394065269E+00 -0.9601365293498E+00
-0.4700959097894E+00 -0.2550756650622E+01 -0.6041705210852E+00 -0.9797698046077E+00
-0.4997612237756E+00 -0.2508310709190E+01 -0.6016143955578E+00 -0.9983173490524E+00
-0.5274609460917E+00 -0.2460703463647E+01 -0.5976328908532E+00 -0.1015421204165E+01
-0.5507658208084E+00 -0.2408514960677E+01 -0.5918561651165E+00 -0.1030591097540E+01
-0.5668746250745E+00 -0.2352515428408E+01 -0.5838780193969E+00 -0.1043255791352E+01
-0.5726318025209E+00 -0.2293729263777E+01 -0.5732722218021E+00 -0.1052788421100E+01
-0.5645935980794E+00 -0.2233530146013E+01 -0.5596247571575E+00 -0.1058499076647E+01
-0.5391132371863E+00 -0.2173636924209E+01 -0.5425500403638E+00 -0.1059650286025E+01
-0.4924395221232E+00 -0.2116050131416E+01 -0.5216979384818E+00 -0.1055503141837E+01
-0.4208361048962E+00 -0.2062976844712E+01 -0.4967625973240E+00 -0.1045379578493E+01
-0.3207308284411E+00 -0.2016749490206E+01 -0.4674960706956E+00 -0.1028734305906E+01
-0.1889017032106E+00 -0.1979727208882E+01 -0.4337257888815E+00 -0.1005234387829E+01
-0.2270469602537E-01 -0.1954169461130E+01 -0.3953748373226E+00 -0.9748436336450E+00
 0.1796580697126E+00 -0.1942076670228E+01 -0.3524837253554E+00 -0.9379042191771E+00
 0.4188724108990E+00 -0.1945003571342E+01 -0.3052262366368E+00 -0.8951978488295E+00
 0.6943292906902E+00 -0.1963872628669E+01 -0.2539086713793E+00 -0.8479701020003E+00
 0.1003940657736E+01 -0.1998805241155E+01 -0.1989729196487E+00 -0.7979168555290E+00
 0.1343927723370E+01 -0.2048972783180E+01 -0.1410090140632E+00 -0.7471080488079E+00
 0.1708745322042E+01 -0.2112513532443E+01 -0.8075364328344E-01 -0.6978236927846E+00
 0.2091161258621E+01 -0.2186549222081E+01 -0.1907759297627E-01 -0.6523187728752E+00
 0.2482509875272E+01 -0.2267325451072E+01  0.4303688548125E-01 -0.6125465200646E+00
 0.2873128822444E+01 -0.2350483504430E+01  0.1045290651603E+00 -0.5798864527667E+00
 0.3252926532200E+01 -0.2431438110125E+01  0.1642976868634E+00 -0.5549356512572E+00
 0.3612025583244E+01 -0.2505815471789E+01  0.2212420255877E+00 -0.5374111929676E+00
 0.3941356876024E+01 -0.2569880684450E+01  0.2742952424021E+00 -0.5261900960328E+00
-0.5871089940115E+00 -0.2472417839871E+01 -0.6119053758946E+00 -0.4005739783371E+00
-0.5342835235149E+00 -0.2496918655854E+01 -0.6062404449075E+00 -0.4603450875667E+00
-0.4868916301562E+00 -0.2519964008822E+01 -0.6013711367568E+00 -0.5185702858484E+00
-0.4453756268905E+00 -0.2541181610900E+01 -0.5973114564588E+00 -0.5738337947005E+00
-0.4100239787465E+00 -0.2560246411946E+01 -0.5940540869906E+00 -0.6252214198959E+00
-0.3810298578222E+00 -0.2576840169615E+01 -0.5915740143026E+00 -0.6722808405656E+00
-0.3585249065404E+00 -0.2590629230218E+01 -0.5898308361408E+00 -0.7149480468632E+00
-0.3425897677127E+00 -0.2601258386548E+01 -0.5887696396256E+00 -0.7534560539228E+00
-0.3332472390803E+00 -0.2608355647926E+01 -0.5883205861680E+00 -0.7882405074467E+00
-0.3304450107514E+00 -0.2611542399112E+01 -0.5883974907404E+00 -0.8198520257325E+00
-0.3340332270145E+00 -0.2610445192658E+01 -0.5888956927097E+00 -0.8488804587442E+00
-0.3437395540556E+00 -0.2604707772092E+01 -0.5896894740165E+00 -0.8758923809475E+00
-0.3591424619440E+00 -0.2594003746382E+01 -0.5906292504662E+00 -0.9013814297755E+00
-0.3796422165646E+00 -0.2578051306543E+01 -0.5915387134361E+00 -0.9257298000194E+00
-0.4044278534469E+00 -0.2556632516819E+01 -0.5922120828779E+00 -0.9491785448728E+00
-0.4324431058430E+00 -0.2529615963463E+01 -0.5924118226888E+00 -0.9718085857229E+00
-0.4623499370975E+00 -0.2496984599542E+01 -0.5918669161474E+00 -0.9935299419594E+00
-0.4924922268958E+00 -0.2458868613047E+01 -0.5902721767844E+00 -0.1014078726136E+01
-0.5208665019899E+00 -0.2415578159058E+01 -0.5872889409609E+00 -0.1033025420595E+01
-0.5451000221403E+00 -0.2367624358038E+01 -0.5825448847163E+00 -0.1049797135637E+01
-0.5624375164646E+00 -0.2315703589516E+01 -0.5756282297737E+00 -0.1063732535563E+01
-0.5697587970143E+00 -0.2260767147201E+01 -0.5661051972787E+00 -0.1074111028429E+01
-0.5636466145143E+00 -0.2204125589042E+01 -0.5535544489600E+00 -0.1080145373920E+01
-0.5404693054171E+00 -0.2147445144663E+01 -0.5375828980266E+00 -0.1080997666323E+01
-0.4964737318442E+00 -0.2092682723675E+01 -0.5178312988202E+00 -0.1075829130597E+01
-0.4278976987274E+00 -0.2042012310217E+01 -0.4939820091497E+00 -0.1063869072531E+01
-0.3311119780903E+00 -0.1997748562683E+01 -0.4657721150952E+00 -0.1044496385684E+01
-0.2027993367230E+00 -0.1962254994104E+01 -0.4330108726177E+00 -0.1017331632880E+01
-0.4017719142239E-01 -0.1937824598103E+01 -0.3956003638000E+00 -0.9823366440367E+00
 0.1587351682781E+00 -0.1926525527361E+01 -0.3535580770851E+00 -0.9399130127372E+00
 0.3948456928531E+00 -0.1930015313103E+01 -0.3070339286252E+00 -0.8909791028244E+00
 0.6677943747046E+00 -0.1949348783277E+01 -0.2563108855337E+00 -0.8370060017458E+00
 0.9757438325608E+00 -0.1984794784280E+01 -0.2018101933511E+00 -0.7800096408313E+00
 0.1315129879168E+01 -0.2035664138501E+01 -0.1441068540139E+00 -0.7224689138986E+00
 0.1680542862883E+01 -0.2100197683664E+01 -0.8393096540688E-01 -0.6671371997431E+00
 0.2064766348009E+01 -0.2175553724750E+01 -0.2215747567842E-01 -0.6167633232243E+00
 0.2459003349607E+01 -0.2257927403562E+01  0.4021518980812E-01 -0.5737543579516E+00
 0.2853310267962E+01 -0.2342818050323E+01  0.1020984450491E+00 -0.5398354585223E+00
 0.3237192009408E+01 -0.2425423739273E+01  0.1623536564463E+00 -0.5157798451514E+00
 0.3600299792174E+01 -0.2501114295872E+01  0.2198371025362E+00 -0.5012729393708E+00
 0.3933091822010E+01 -0.2565899737966E+01  0.2734384208834E+00 -0.4949460278527E+00
-0.5648503356983E+00 -0.2383776672904E+01 -0.5897254105081E+00 -0.3911897913604E+00
-0.5122678892047E+00 -0.2408428134121E+01 -0.5841392133694E+00 -0.4513928209352E+00
-0.4657365179228E+00 -0.2431644582732E+01 -0.5794762287659E+00 -0.5101842267961E+00
-0.4255067049775E+00 -0.2453167710232E+01 -0.5757348916210E+00 -0.5661242830498E+00
-0.3916831659070E+00 -0.2472775946781E+01 -0.5728918310743E+00 -0.6182939913153E+00
-0.3642985933782E+00 -0.2490234808691E+01 -0.5709066889210E+00 -0.6662481533131E+00
-0.3433567488017E+00 -0.2505270056909E+01 -0.5697253696317E+00 -0.7099344928296E+00
-0.3288463008806E+00 -0.2517561296735E+01 -0.5692815280061E+00 -0.7495968544826E+00
-0.3207327296504E+00 -0.2526749456312E+01 -0.5694964456786E+00 -0.7856777587354E+00
-0.3189371914757E+00 -0.2532450964554E+01 -0.5702776397038E+00 -0.8187297335265E+00
-0.3233092401594E+00 -0.2534273562414E+01 -0.5715165690309E+00 -0.8493396607573E+00
-0.3335971404982E+00 -0.2531831565481E+01 -0.5730857497355E+00 -0.8780665121799E+00
-0.3494169583355E+00 -0.2524760778208E+01 -0.5748355558745E+00 -0.9053914799189E+00
-0.3702199544323E+00 -0.2512734531673E+01 -0.5765909058129E+00 -0.9316785634716E+00
-0.3952563254683E+00 -0.2495483488357E+01 -0.5781479713802E+00 -0.9571432636719E+00
-0.4235379888020E+00 -0.2472818844649E+01 -0.5792713753220E+00 -0.9818318338117E+00
-0.4537988342513E+00 -0.2444660595202E+01 -0.5796918945288E+00 -0.1005608812569E+01
-0.4844548902721E+00 -0.2411070833452E+01 -0.5791051533742E+00 -0.1028152758122E+01
-0.5135714715745E+00 -0.2372287495001E+01 -0.5771718019156E+00 -0.1048964262219E+01
-0.5388374483713E+00 -0.2328745672510E+01 -0.5735166327224E+00 -0.1067388958226E+01
-0.5575478637638E+00 -0.2281060869875E+01 -0.5677217551874E+00 -0.1082675315769E+01
-0.5666215520284E+00 -0.2230104730321E+01 -0.5593452648049E+00 -0.1094007847109E+01
-0.5626710145429E+00 -0.2177117648790E+01 -0.5479577408317E+00 -0.1100500727892E+01
-0.5420822699975E+00 -0.2123705106032E+01 -0.5331574831506E+00 -0.1101214172384E+01
-0.5011013224419E+00 -0.2071771472155E+01 -0.5145745665872E+00 -0.1095206927304E+01
-0.4359385432133E+00 -0.2023448806856E+01 -0.4918774773434E+00 -0.1081610741265E+01
-0.3429019057570E+00 -0.1981026489327E+01 -0.4647856859427E+00 -0.1059720440983E+01
-0.2185673863076E+00 -0.1946867714210E+01 -0.4330870265570E+00 -0.1029097892334E+01
-0.5999478698555E-01 -0.1923298801943E+01 -0.3966587236964E+00 -0.9896868335314E+00
 0.1350073688390E+00 -0.1912461510379E+01 -0.3554908336052E+00 -0.9419292669031E+00
 0.3676065374215E+00 -0.1916129092742E+01 -0.3097045156791E+00 -0.8868605960142E+00
 0.6377378562438E+00 -0.1935508555174E+01 -0.2595541436537E+00 -0.8261607048181E+00
 0.9438662688818E+00 -0.1971041684119E+01 -0.2054350861087E+00 -0.7621563557383E+00
 0.1282692965369E+01 -0.2022206777583E+01 -0.1479027646467E+00 -0.6977386781303E+00
 0.1648984547312E+01 -0.2087371978684E+01 -0.8767748758081E-01 -0.6361538903577E+00
 0.2035560280357E+01 -0.2163746230848E+01 -0.2563719048025E-01 -0.5806807923040E+00
 0.2433481129397E+01 -0.2247470426457E+01  0.3720214114242E-01 -0.5342288061305E+00
 0.2832475596437E+01 -0.2333876017221E+01  0.9971991732918E-01 -0.4989202308078E+00
 0.3221565564815E+01 -0.2417897905614E+01  0.1607335342353E+00 -0.4757466795008E+00
 0.3589831123592E+01 -0.2494590704804E+01  0.2190480870216E+00 -0.4643849589004E+00
 0.3927154884181E+01 -0.2559649523929E+01  0.2735010761260E+00 -0.4632223074672E+00
-0.5424431467374E+00 -0.2294665586733E+01 -0.5674217551493E+00 -0.3817246307885E+00
-0.4900578806987E+00 -0.2319497720139E+01 -0.5619111285407E+00 -0.4423685825518E+00
-0.4443531229332E+00 -0.2342920044909E+01 -0.5574546418752E+00 -0.5016915181089E+00
-0.4053787244954E+00 -0.2364793322934E+01 -0.5540344177415E+00 -0.5582320374106E+00
-0.3730493930505E+00 -0.2385002694309E+01 -0.5516104256915E+00 -0.6110727092729E+00
-0.3472341861460E+00 -0.2403398634515E+01 -0.5501265723297E+00 -0.6597842720599E+00
-0.3278085116478E+00 -0.2419766022545E+01 -0.5495149150270E+00 -0.7043356064336E+00
-0.3146703155920E+00 -0.2433818332179E+01 -0.5496977377454E+00 -0.7449900378949E+00
-0.3077297594172E+00 -0.2445208571107E+01 -0.5505876743093E+00 -0.7822041393132E+00
-0.3068835555406E+00 -0.2453547890903E+01 -0.5520862975155E+00 -0.8165379434374E+00
-0.3119826008040E+00 -0.2458425455223E+01 -0.5540816194619E+00 -0.8485796416679E+00
-0.3227976197607E+00 -0.2459426698085E+01 -0.5564448718609E+00 -0.8788839836864E+00
-0.3389843294948E+00 -0.2456150087374E+01 -0.5590268917038E+00 -0.9079226140016E+00
-0.3600475404048E+00 -0.2448224062947E+01 -0.5616543290397E+00 -0.9360440634949E+00
-0.3853018965877E+00 -0.2435326978577E+01 -0.5641257834391E+00 -0.9634410068763E+00
-0.4138316006608E+00 -0.2417210597836E+01 -0.5662084481365E+00 -0.9901277737688E+00
-0.4444472985232E+00 -0.2393728635000E+01 -0.5676351951630E+00 -0.1015926102992E+01
-0.4756424872719E+00 -0.2364870451453E+01 -0.5681025962103E+00 -0.1040459486824E+01
-0.5055567507729E+00 -0.2330795870327E+01 -0.5672705326729E+00 -0.1063160792144E+01
-0.5319458281684E+00 -0.2291857045138E+01 -0.5647605830770E+00 -0.1083295771430E+01
-0.5521596351174E+00 -0.2248581667185E+01 -0.5601482688073E+00 -0.1100022976829E+01
-0.5631599212551E+00 -0.2201755193498E+01 -0.5529830311906E+00 -0.1112431168456E+01
-0.5615925598522E+00 -0.2152540728078E+01 -0.5428266656748E+00 -0.1119535003380E+01
-0.5438644707415E+00 -0.2102474582190E+01 -0.5292678184730E+00 -0.1120291662835E+01
-0.5062229114241E+00 -0.2053399042300E+01 -0.5119243983732E+00 -0.1113654944868E+01
-0.4448507003021E+00 -0.2007394339184E+01 -0.4904490152055E+00 -0.1098653928808E+01
-0.3559891633366E+00 -0.1966715486333E+01 -0.4645409368560E+00 -0.1074490427175E+01
-0.2360980811503E+00 -0.1933718621017E+01 -0.4339633469000E+00 -0.1040654014587E+01
-0.8206266276167E-01 -0.1910760823205E+01 -0.3985647031324E+00 -0.9970519763713E+00
 0.1085457569007E+00 -0.1900060996863E+01 -0.3583030533317E+00 -0.9441445766266E+00
 0.3371912684634E+00 -0.1903519229683E+01 -0.3132655969118E+00 -0.8830607724796E+00
 0.6041520562622E+00 -0.1922513805947E+01 -0.2636723538659E+00 -0.8156683762138E+00
 0.9082515053688E+00 -0.1957685938109E+01 -0.2098868896756E+00 -0.7445921673126E+00
 0.1246514231495E+01 -0.2008712480127E+01 -0.1524396519979E+00 -0.6731370426569E+00
 0.1613933139363E+01 -0.2074118448661E+01 -0.9203706323123E-01 -0.6050629964779E+00
 0.2003392613047E+01 -0.2151182995821E+01 -0.2955807699522E-01 -0.5442206400003E+00
 0.2405807645138E+01 -0.2235993298315E+01  0.3396286987085E-01 -0.4940802237576E+00
 0.2810533304817E+01 -0.2323687991477E+01  0.9736906411904E-01 -0.4572252871140E+00
 0.3206022957116E+01 -0.2408888717037E+01  0.1594268503914E+00 -0.4349196972989E+00
 0.3580674928957E+01 -0.2486269287872E+01  0.2188811314786E+00 -0.4268613132958E+00
 0.3923682758677E+01 -0.2551143620572E+01  0.2745078317117E+00 -0.4311959565764E+00
-0.5198741597801E+00 -0.2204996603042E+01 -0.5449741606851E+00 -0.3721683101590E+00
-0.4676565513559E+00 -0.2230033138675E+01 -0.5395379460459E+00 -0.4332614261120E+00
-0.4227606989274E+00 -0.2253690862308E+01 -0.5352903202236E+00 -0.4930780988767E+00
-0.3850253119970E+00 -0.2275955509070E+01 -0.5321961721438E+00 -0.5501381513348E+00
-0.3541676346770E+00 -0.2296822520609E+01 -0.5301980389578E+00 -0.6035329575249E+00
-0.3298894576204E+00 -0.2316228371511E+01 -0.5292235737123E+00 -0.6528587725418E+00
-0.3119375067492E+00 -0.2334016227274E+01 -0.5291907546903E+00 -0.6981154973788E+00
-0.3001207631695E+00 -0.2349931815072E+01 -0.5300105235461E+00 -0.7395946704625E+00
-0.2942966768010E+00 -0.2363638785072E+01 -0.5315871002958E+00 -0.7777739249521E+00
-0.2943401350749E+00 -0.2374742291576E+01 -0.5338164932846E+00 -0.8132261328401E+00
-0.3001056749280E+00 -0.2382813000945E+01 -0.5365837431704E+00 -0.8465448588891E+00
-0.3113885257315E+00 -0.2387408090929E+01 -0.5397593313752E+00 -0.8782839312279E+00
-0.3278861471970E+00 -0.2388089431358E+01 -0.5431951238052E+00 -0.9089084335133E+00
-0.3491593971743E+00 -0.2384440945519E+01 -0.5467200766854E+00 -0.9387544105012E+00
-0.3745905656234E+00 -0.2376088251513E+01 -0.5501357716250E+00 -0.9679948321820E+00
-0.4033401762537E+00 -0.2362722133379E+01 -0.5532124701700E+00 -0.9966153406093E+00
-0.4343004519353E+00 -0.2344127168529E+01 -0.5556855323732E+00 -0.1024398095893E+01
-0.4660477365615E+00 -0.2320215751716E+01 -0.5572527059592E+00 -0.1050914560200E+01
-0.4968014831560E+00 -0.2291064021846E+01 -0.5575731093090E+00 -0.1075532570290E+01
-0.5243897292385E+00 -0.2256934503429E+01 -0.5562648548225E+00 -0.1097440089233E+01
-0.5462220230479E+00 -0.2218260253833E+01 -0.5528964636151E+00 -0.1115706450034E+01
-0.5593071663812E+00 -0.2175734043347E+01 -0.5470082500966E+00 -0.1129324175046E+01
-0.5603284188760E+00 -0.2130434493217E+01 -0.5381525904378E+00 -0.1137207875860E+01
-0.5457175186017E+00 -0.2083820041964E+01 -0.5259075199497E+00 -0.1138210974477E+01
-0.5117262240111E+00 -0.2037660695251E+01 -0.5098773914501E+00 -0.1131180174411E+01
-0.4545113320347E+00 -0.1993973795889E+01 -0.4896970328818E+00 -0.1115036819901E+01
-0.3702458299347E+00 -0.1954969166284E+01 -0.4650430061735E+00 -0.1088880319933E+01
-0.2552664234563E+00 -0.1922986827205E+01 -0.4356506566240E+00 -0.1052113201774E+01
-0.1062693129244E+00 -0.1900409295923E+01 -0.4013357277498E+00 -0.1004585832942E+01
 0.7943575368783E-01 -0.1889533326994E+01 -0.3620195200557E+00 -0.9467514085569E+00
 0.3036459526735E+00 -0.1892394593565E+01 -0.3177497329131E+00 -0.8798047450282E+00
 0.5670320370189E+00 -0.1910560566713E+01 -0.2687057099429E+00 -0.8057758498911E+00
 0.8688367587094E+00 -0.1944899143135E+01 -0.2152124800921E+00 -0.7275700633817E+00
 0.1206474561136E+01 -0.1995320098735E+01 -0.1577691098709E+00 -0.6489046210779E+00
 0.1575225902571E+01 -0.2060540514672E+01 -0.9706292386669E-01 -0.5740746780834E+00
 0.1968081676895E+01 -0.2137936144151E+01 -0.3397089395730E-01 -0.5075498555900E+00
 0.2375816264141E+01 -0.2223546836455E+01  0.3045388599101E-01 -0.4534305235374E+00
 0.2787368183809E+01 -0.2312295476199E+01  0.9501454293774E-01 -0.4148403590549E+00
 0.3190529648970E+01 -0.2398436315996E+01  0.1584186689555E+00 -0.3933837698106E+00
 0.3572892431878E+01 -0.2476188044872E+01  0.2193408806696E+00 -0.3888173775506E+00
 0.3922834651641E+01 -0.2540409205068E+01  0.2764850934347E+00 -0.3990481558160E+00
-0.4971298632970E+00 -0.2114678498364E+01 -0.5223616801160E+00 -0.3625131501056E+00
-0.4450677273959E+00 -0.2139936504234E+01 -0.5170008540299E+00 -0.4240627050013E+00
-0.4009801364151E+00 -0.2163853686612E+01 -0.5129667722493E+00 -0.4843316302965E+00
-0.3644822706106E+00 -0.2186547528493E+01 -0.5102059674233E+00 -0.5418246302277E+00
-0.3350852281630E+00 -0.2208127682026E+01 -0.5086425896171E+00 -0.5956502041918E+00
-0.3123195228562E+00 -0.2228617377822E+01 -0.5081873877082E+00 -0.6454406540207E+00
-0.2958031655099E+00 -0.2247916565269E+01 -0.5087439537367E+00 -0.6912372955650E+00
-0.2852585667762E+00 -0.2265800843841E+01 -0.5102118897262E+00 -0.7333686881862E+00
-0.2804937510144E+00 -0.2281942439172E+01 -0.5124872456740E+00 -0.7723402948879E+00
-0.2813649373423E+00 -0.2295939412987E+01 -0.5154608777468E+00 -0.8087428047022E+00
-0.2877329265431E+00 -0.2307343918261E+01 -0.5190153766948E+00 -0.8431789088379E+00
-0.2994196205259E+00 -0.2315685655455E+01 -0.5230210629898E+00 -0.8762046501873E+00
-0.3161662802163E+00 -0.2320490984977E+01 -0.5273314608966E+00 -0.9082815628899E+00
-0.3375921872386E+00 -0.2321300172635E+01 -0.5317784798988E+00 -0.9397364018629E+00
-0.3631503354837E+00 -0.2317686228249E+01 -0.5361673207361E+00 -0.9707259300478E+00
-0.3920815045442E+00 -0.2309277973418E+01 -0.5402719036431E+00 -0.1001210831752E+01
-0.4233642886937E+00 -0.2295788516445E+01 -0.5438305691315E+00 -0.1030937467694E+01
-0.4556633116528E+00 -0.2277049503460E+01 -0.5465425711666E+00 -0.1059428880576E+01
-0.4872836177197E+00 -0.2253048181192E+01 -0.5480663679491E+00 -0.1085991134417E+01
-0.5161311456070E+00 -0.2223951014229E+01 -0.5480164401333E+00 -0.1109737030701E+01
-0.5396800343088E+00 -0.2190089753061E+01 -0.5459539656093E+00 -0.1129647850965E+01
-0.5549905101942E+00 -0.2152058048703E+01 -0.5414097198472E+00 -0.1144619825682E+01
-0.5587876266787E+00 -0.2110842820226E+01 -0.5339260973371E+00 -0.1153467495212E+01
-0.5475325848388E+00 -0.2067815676596E+01 -0.5230696600813E+00 -0.1154940367640E+01
-0.5174861116303E+00 -0.2024663494742E+01 -0.5084299288507E+00 -0.1147776434683E+01
-0.4647823292032E+00 -0.1983328466298E+01 -0.4896221663963E+00 -0.1130784547028E+01
-0.3855266242118E+00 -0.1945962525147E+01 -0.4662978368202E+00 -0.1102952179540E+01
-0.2759286762571E+00 -0.1914877942528E+01 -0.4381613302860E+00 -0.1063579192192E+01
-0.1324843619930E+00 -0.1892474189484E+01 -0.4049917163303E+00 -0.1012436682087E+01
 0.4777989969157E-01 -0.1881123176142E+01 -0.3666686607539E+00 -0.9499422774235E+00
 0.2670295329942E+00 -0.1883001880147E+01 -0.3231944742466E+00 -0.8773244323835E+00
 0.5263786230796E+00 -0.1899883022392E+01 -0.2747008839559E+00 -0.7967439863054E+00
 0.8255551863549E+00 -0.1932888797241E+01 -0.2214667254774E+00 -0.7113635196583E+00
 0.1162439269816E+01 -0.1982199637286E+01 -0.1639520759371E+00 -0.6253067213033E+00
 0.1532673385935E+01 -0.2046766265510E+01 -0.1028185774471E+00 -0.5434243743669E+00
 0.1929411264717E+01 -0.2124095705623E+01 -0.3893688876135E-01 -0.4708570047833E+00
 0.2343304584489E+01 -0.2210194637538E+01  0.2662198978690E-01 -0.4124159114255E+00
 0.2762836774322E+01 -0.2299750890777E+01  0.9261717808907E-01 -0.3718612331942E+00
 0.3175038030365E+01 -0.2386592980712E+01  0.1576890122803E+00 -0.3512245791098E+00
 0.3566549818805E+01 -0.2464398702496E+01  0.2204302265465E+00 -0.3503693485270E+00
 0.3924792249850E+01 -0.2527487028675E+01  0.2794610483994E+00 -0.3669640691519E+00
-0.4741965015039E+00 -0.2023616480147E+01 -0.4995626037742E+00 -0.3527541487755E+00
-0.4222961648452E+00 -0.2049105962175E+01 -0.4942804327694E+00 -0.4147661997537E+00
-0.3790342501987E+00 -0.2073301009957E+01 -0.4904670593396E+00 -0.4754415329896E+00
-0.3437879187598E+00 -0.2096458578329E+01 -0.4880493066902E+00 -0.5332743336418E+00
-0.3158521787506E+00 -0.2118806695546E+01 -0.4869317821152E+00 -0.5873998882720E+00
-0.2945820075702E+00 -0.2140455663211E+01 -0.4870075414131E+00 -0.6374982294928E+00
-0.2794671553783E+00 -0.2161359868698E+01 -0.4881654120896E+00 -0.6836630965320E+00
-0.2701466559733E+00 -0.2181321519524E+01 -0.4902936424054E+00 -0.7262689249536E+00
-0.2663831601656E+00 -0.2200018680765E+01 -0.4932803755365E+00 -0.7658554449852E+00
-0.2680179253532E+00 -0.2217040876657E+01 -0.4970117678082E+00 -0.8030356698847E+00
-0.2749209263803E+00 -0.2231921699043E+01 -0.5013685325556E+00 -0.8384247528127E+00
-0.2869429603288E+00 -0.2244164384983E+01 -0.5062214766056E+00 -0.8725838354555E+00
-0.3038710385616E+00 -0.2253261309990E+01 -0.5114264773311E+00 -0.9059738725825E+00
-0.3253850481875E+00 -0.2258710511147E+01 -0.5168191195681E+00 -0.9389156972587E+00
-0.3510115435273E+00 -0.2260033153780E+01 -0.5222089472430E+00 -0.9715537213107E+00
-0.3800753505677E+00 -0.2256795753826E+01 -0.5273742287372E+00 -0.1003827899016E+01
-0.4116461799693E+00 -0.2248638209120E+01 -0.5320568857462E+00 -0.1035453150129E+01
-0.4444824167969E+00 -0.2235308144236E+01 -0.5359581201929E+00 -0.1065908313867E+01
-0.4769805417147E+00 -0.2216699118137E+01 -0.5387359399982E+00 -0.1094441536888E+01
-0.5071301685345E+00 -0.2192875407405E+01 -0.5400011232345E+00 -0.1120093664622E+01
-0.5324751714355E+00 -0.2164060971020E+01 -0.5393072365275E+00 -0.1141759612149E+01
-0.5501317877300E+00 -0.2130744018418E+01 -0.5361751692193E+00 -0.1158239756277E+01
-0.5568716454946E+00 -0.2093812570255E+01 -0.5301368510495E+00 -0.1168249137965E+01
-0.5491907867066E+00 -0.2054542246798E+01 -0.5207466144606E+00 -0.1170433921316E+01
-0.5233646515862E+00 -0.2014525330530E+01 -0.5075780039868E+00 -0.1163422518445E+01
-0.4755099882153E+00 -0.1975615383262E+01 -0.4902250816004E+00 -0.1145907126010E+01
-0.4016680059908E+00 -0.1939891788459E+01 -0.4683119658684E+00 -0.1116753961614E+01
-0.2979207471362E+00 -0.1909624637997E+01 -0.4415090836056E+00 -0.1075144102543E+01
-0.1605561452611E+00 -0.1887218305891E+01 -0.4095548963333E+00 -0.1020745441286E+01
 0.1370103616084E-01 -0.1875113144943E+01 -0.3722824273040E+00 -0.9539084827778E+00
 0.2274175246692E+00 -0.1875629322286E+01 -0.3296423644355E+00 -0.8758583090089E+00
 0.4822021001675E+00 -0.1890758162848E+01 -0.2817112167339E+00 -0.7888488030238E+00
 0.7783388239134E+00 -0.1921903461591E+01 -0.2287129309436E+00 -0.6962692115208E+00
 0.1114259392579E+01 -0.1969557284813E+01 -0.1710595809958E+00 -0.6026375180398E+00
 0.1486058298960E+01 -0.2032952637930E+01 -0.1093788694239E+00 -0.5133778931469E+00
 0.1887126808302E+01 -0.2109772298650E+01 -0.4452909873309E-01 -0.4343572525328E+00
 0.2308028576326E+01 -0.2196013976126E+01  0.2240292037393E-01 -0.3711905323749E+00
 0.2736761462353E+01 -0.2286117223041E+01  0.9012884920547E-01 -0.3283909536850E+00
 0.3159483949412E+01 -0.2373422844932E+01  0.1572122232387E+00 -0.3085278351346E+00
 0.3561717378232E+01 -0.2450966916479E+01  0.2221500956610E+00 -0.3116336507662E+00
 0.3929759073159E+01 -0.2512431170003E+01  0.2834655848553E+00 -0.3351329216962E+00
-0.4510600800653E+00 -0.1931711825445E+01 -0.4765543882033E+00 -0.3428891760947E+00
-0.3993477372274E+00 -0.1957435288090E+01 -0.4713566120873E+00 -0.4053682557329E+00
-0.3569481110238E+00 -0.1981920787685E+01 -0.4677737867120E+00 -0.4663990070038E+00
-0.3229834655229E+00 -0.2005573519794E+01 -0.4657114040030E+00 -0.5244708731188E+00
-0.2965214789802E+00 -0.2028744226126E+01 -0.4650531479510E+00 -0.5787572475826E+00
-0.2767372550556E+00 -0.2051629946400E+01 -0.4656734472301E+00 -0.6289989598116E+00
-0.2629934686954E+00 -0.2074236102237E+01 -0.4674459211520E+00 -0.6753538654618E+00
-0.2548499671820E+00 -0.2096387222445E+01 -0.4702474449327E+00 -0.7182511190049E+00
-0.2520289475142E+00 -0.2117763764402E+01 -0.4739585494457E+00 -0.7582706988024E+00
-0.2543609743093E+00 -0.2137944952916E+01 -0.4784611925748E+00 -0.7960518447436E+00
-0.2617283467501E+00 -0.2156445812317E+01 -0.4836348390202E+00 -0.8322249732046E+00
-0.2740129589680E+00 -0.2172744453275E+01 -0.4893514897405E+00 -0.8673588646902E+00
-0.2910493276958E+00 -0.2186301318263E+01 -0.4954701365748E+00 -0.9019167565716E+00
-0.3125798506363E+00 -0.2196574305309E+01 -0.5018308386669E+00 -0.9362170571104E+00
-0.3382072271541E+00 -0.2203034225030E+01 -0.5082482980102E+00 -0.9703960235185E+00
-0.3673439244929E+00 -0.2205185668858E+01 -0.5145059263369E+00 -0.1004377611690E+01
-0.3991554366275E+00 -0.2202594249130E+01 -0.5203499449053E+00 -0.1037850262197E+01
-0.4324994308250E+00 -0.2194920868978E+01 -0.5254840677908E+00 -0.1070253465996E+01
-0.4658697912583E+00 -0.2181961071290E+01 -0.5295661804008E+00 -0.1100781943034E+01
-0.4973457454123E+00 -0.2163671169625E+01 -0.5322033909378E+00 -0.1128408407172E+01
-0.5245462127119E+00 -0.2140161082042E+01 -0.5329414668923E+00 -0.1151943655743E+01
-0.5446482055633E+00 -0.2111807415475E+01 -0.5312911321245E+00 -0.1170093201464E+01
-0.5544750406048E+00 -0.2079392184435E+01 -0.5267734528575E+00 -0.1181473852030E+01
-0.5505636902627E+00 -0.2044085733286E+01 -0.5189298924424E+00 -0.1184629880260E+01
-0.5292113556357E+00 -0.2007373733310E+01 -0.5073170253488E+00 -0.1178080234226E+01
-0.4865247712588E+00 -0.1971006456127E+01 -0.4915062528011E+00 -0.1160397211140E+01
-0.4184873074689E+00 -0.1936974068369E+01 -0.4710922821875E+00 -0.1130317052463E+01
-0.3210565070611E+00 -0.1907487080502E+01 -0.4457087241542E+00 -0.1086885888545E+01
-0.1903090792901E+00 -0.1884938764604E+01 -0.4150495749635E+00 -0.1029643307654E+01
-0.2265411033688E-01 -0.1871826525112E+01 -0.3788961327357E+00 -0.9588383124550E+00
 0.1849063291155E+00 -0.1870610832581E+01 -0.3371409057169E+00 -0.8756506564463E+00
 0.4345267091467E+00 -0.1883511158062E+01 -0.2897968941014E+00 -0.7823822724517E+00
 0.7271223702173E+00 -0.1912238913378E+01 -0.2370233121640E+00 -0.6826097038636E+00
 0.1061773660072E+01 -0.1957641605030E+01 -0.1791735916614E+00 -0.5812246228283E+00
 0.1435134655443E+01 -0.2019290758657E+01 -0.1168312223837E+00 -0.4842373452545E+00
 0.1840931123000E+01 -0.2095100764338E+01 -0.5083392902504E-01 -0.3982986134938E+00
 0.2269695375241E+01 -0.2181097065362E+01  0.1771966223983E-01 -0.3299314418605E+00
 0.2708922676953E+01 -0.2271467139666E+01  0.8749110876115E-01 -0.2845417138131E+00
 0.3143782262093E+01 -0.2359000748077E+01  0.1569563051421E+00 -0.2653780262223E+00
 0.3558469074598E+01 -0.2435972121623E+01  0.2244993939402E+00 -0.2727259512100E+00
 0.3937958926749E+01 -0.2495308273629E+01  0.2885301349235E+00 -0.3037484457882E+00
-0.4277063787293E+00 -0.1838861469671E+01 -0.4533135764349E+00 -0.3329191952670E+00
-0.3762296640145E+00 -0.1864813434868E+01 -0.4482086264553E+00 -0.3958679309292E+00
-0.3347494348917E+00 -0.1889596023177E+01 -0.4448690982427E+00 -0.4571970276651E+00
-0.3021134332603E+00 -0.1913772598564E+01 -0.4431772129687E+00 -0.5153984542407E+00
-0.2771494467028E+00 -0.1937821004927E+01 -0.4429940969272E+00 -0.5696970769242E+00
-0.2588485210491E+00 -0.1962023772924E+01 -0.4441744654133E+00 -0.6199092246954E+00
-0.2464484790339E+00 -0.1986432632448E+01 -0.4465762289509E+00 -0.6662692980911E+00
-0.2394354044975E+00 -0.2010888964136E+01 -0.4500648804331E+00 -0.7092699001906E+00
-0.2374969411965E+00 -0.2035071419909E+01 -0.4545136789939E+00 -0.7495366212957E+00
-0.2404578003390E+00 -0.2058546890775E+01 -0.4598009450744E+00 -0.7877380695897E+00
-0.2482159400021E+00 -0.2080811952811E+01 -0.4658055855036E+00 -0.8245220658688E+00
-0.2606864475069E+00 -0.2101321345771E+01 -0.4724015656949E+00 -0.8604671311323E+00
-0.2777528120582E+00 -0.2119506254271E+01 -0.4794518204102E+00 -0.8960414711587E+00
-0.2992214794892E+00 -0.2134787284041E+01 -0.4868017599600E+00 -0.9315646517104E+00
-0.3247735269663E+00 -0.2146587203658E+01 -0.4942721534900E+00 -0.9671692941325E+00
-0.3539124018273E+00 -0.2154349879818E+01 -0.5016524638043E+00 -0.1002768598866E+01
-0.3859039353821E+00 -0.2157566316068E+01 -0.5086940578701E+00 -0.1038030120192E+01
-0.4197106255406E+00 -0.2155808639856E+01 -0.5151038607549E+00 -0.1072359533284E+01
-0.4539298473188E+00 -0.2148770578690E+01 -0.5205400929583E+00 -0.1104903296848E+01
-0.4867365353837E+00 -0.2136295117687E+01 -0.5246063384313E+00 -0.1134570477243E+01
-0.5158301009098E+00 -0.2118372173057E+01 -0.5268404626438E+00 -0.1160090609943E+01
-0.5384532218716E+00 -0.2095260809005E+01 -0.5267428140244E+00 -0.1180075939670E+01
-0.5514862873385E+00 -0.2067630093835E+01 -0.5238232840403E+00 -0.1193047095572E+01
-0.5515139503907E+00 -0.2036535778236E+01 -0.5176099534383E+00 -0.1197448954094E+01
-0.5348635130688E+00 -0.2003344457244E+01 -0.5076416016269E+00 -0.1191692340192E+01
-0.4976411814183E+00 -0.1969687355328E+01 -0.4934657147024E+00 -0.1174227659675E+01
-0.4357819299337E+00 -0.1937446776595E+01 -0.4746457483785E+00 -0.1143653505697E+01
-0.3451260779337E+00 -0.1908753168463E+01 -0.4507758559964E+00 -0.1098865378758E+01
-0.2215408400588E+00 -0.1885968400289E+01 -0.4215018543505E+00 -0.1039248843963E+01
-0.6111092028240E-01 -0.1871630179961E+01 -0.3865482258087E+00 -0.9649146021571E+00
 0.1396182488109E+00 -0.1868330558549E+01 -0.3457424670995E+00 -0.8769501783682E+00
 0.3833961006762E+00 -0.1878521510994E+01 -0.2990250865193E+00 -0.7776526472325E+00
 0.6718480660912E+00 -0.1904245437313E+01 -0.2464794779172E+00 -0.6707360206358E+00
 0.1004811451737E+01 -0.1946751122522E+01 -0.1883879369642E+00 -0.5614340421037E+00
 0.1379627467726E+01 -0.2006012762672E+01 -0.1252770608560E+00 -0.4563480244461E+00
 0.1790479947850E+01 -0.2080245179344E+01 -0.5795304716226E-01 -0.3629696874962E+00
 0.2227954657013E+01 -0.2165553163931E+01  0.1248029880239E-01 -0.2888454956926E+00
 0.2679048419585E+01 -0.2255881468026E+01  0.8463339157289E-01 -0.2404381922073E+00
 0.3127820659347E+01 -0.2343409212500E+01  0.1568822917072E+00 -0.2218565864455E+00
 0.3556883420485E+01 -0.2419506257462E+01  0.2274754359943E+00 -0.2337590156511E+00
 0.3949632666158E+01 -0.2476195592552E+01  0.2946874191124E+00 -0.2730099484347E+00
-0.4041209720691E+00 -0.1744957527996E+01 -0.4298157064178E+00 -0.3228485157463E+00
-0.3529507911035E+00 -0.1771124008003E+01 -0.4248149661516E+00 -0.3862671523494E+00
-0.3124690441996E+00 -0.1796204298809E+01 -0.4217346748861E+00 -0.4478303067762E+00
-0.2812261363118E+00 -0.1820931149979E+01 -0.4204314635232E+00 -0.5060416465025E+00
-0.2577960813239E+00 -0.1845913777613E+01 -0.4207419780568E+00 -0.5601934003631E+00
-0.2409821484897E+00 -0.1871517696693E+01 -0.4224999753324E+00 -0.6101940200629E+00
-0.2299009534565E+00 -0.1897834574291E+01 -0.4255471118907E+00 -0.6563676346435E+00
-0.2239717491811E+00 -0.1924715813073E+01 -0.4297375188544E+00 -0.6992787588006E+00
-0.2228546269975E+00 -0.1951833282443E+01 -0.4349375883692E+00 -0.7396031381131E+00
-0.2263738522678E+00 -0.1978739296016E+01 -0.4410226362285E+00 -0.7780409515714E+00
-0.2344464919441E+00 -0.2004912324837E+01 -0.4478717700300E+00 -0.8152587725005E+00
-0.2470227215116E+00 -0.2029786013846E+01 -0.4553617538570E+00 -0.8518464305752E+00
-0.2640360799505E+00 -0.2052765687041E+01 -0.4633603603030E+00 -0.8882795411002E+00
-0.2853581314419E+00 -0.2073238361147E+01 -0.4717193055469E+00 -0.9248824490612E+00
-0.3107501217049E+00 -0.2090582001918E+01 -0.4802664318811E+00 -0.9617889605917E+00
-0.3398094904708E+00 -0.2104181874287E+01 -0.4887982802352E+00 -0.9989072826211E+00
-0.3719068054574E+00 -0.2113454898517E+01 -0.4970723482018E+00 -0.1035890338502E+01
-0.4061149569338E+00 -0.2117883100432E+01 -0.5047996189952E+00 -0.1072116240274E+01
-0.4411410166195E+00 -0.2117055191069E+01 -0.5116392491616E+00 -0.1106689068250E+01
-0.4752618630891E+00 -0.2110695933833E+01 -0.5171915670912E+00 -0.1138459424733E+01
-0.5062629450848E+00 -0.2098669629287E+01 -0.5209865226377E+00 -0.1166079085661E+01
-0.5314575558390E+00 -0.2081112145343E+01 -0.5225139480225E+00 -0.1188069279667E+01
-0.5477887238591E+00 -0.2058572923059E+01 -0.5212723371512E+00 -0.1202857389542E+01
-0.5518961111718E+00 -0.2031983890739E+01 -0.5167760080827E+00 -0.1208792588862E+01
-0.5401467028289E+00 -0.2002579793501E+01 -0.5085453068439E+00 -0.1204180389572E+01
-0.5086578013621E+00 -0.1971856097247E+01 -0.4961027871143E+00 -0.1187348919653E+01
-0.4533286693034E+00 -0.1941566722651E+01 -0.4789790855281E+00 -0.1156752980387E+01
-0.3698941622474E+00 -0.1913738477671E+01 -0.4567265347894E+00 -0.1111122855819E+01
-0.2540194184601E+00 -0.1890676969450E+01 -0.4289392839737E+00 -0.1049664443193E+01
-0.1014624913775E+00 -0.1874937442119E+01 -0.3952799925895E+00 -0.9723115327039E+00
 0.9170722543210E-01 -0.1869227792587E+01 -0.3555041187285E+00 -0.8800078101736E+00
 0.3288798668110E+00 -0.1876230012126E+01 -0.3094700336744E+00 -0.7749841185049E+00
 0.6124718851373E+00 -0.1898336392594E+01 -0.2571729053234E+00 -0.6610299235141E+00
 0.9431970125777E+00 -0.1937243562590E+01 -0.1988093129649E+00 -0.5436754396526E+00
 0.1319233257504E+01 -0.1993400432224E+01 -0.1348334369532E+00 -0.4301062731613E+00
 0.1735377577079E+01 -0.2065405695058E+01 -0.6600562457949E-01 -0.3287089897994E+00
 0.2182388785727E+01 -0.2149512435541E+01  0.6575270135083E-02 -0.2481787056267E+00
 0.2646800137178E+01 -0.2239447547194E+01  0.8147051921083E-01 -0.1962237702793E+00
 0.3111449872961E+01 -0.2326731732963E+01  0.1569436303383E+00 -0.1780399358322E+00
 0.3557046992708E+01 -0.2401668869060E+01  0.2310756281729E+00 -0.1948375224393E+00
 0.3965032668418E+01 -0.2455175671513E+01  0.3019714038808E+00 -0.2431237826877E+00
-0.3802892630193E+00 -0.1649886727923E+01 -0.4060352042388E+00 -0.3126850851464E+00
-0.3295219402921E+00 -0.1676244651225E+01 -0.4011533242811E+00 -0.3765708796919E+00
-0.2901414209405E+00 -0.1701617242945E+01 -0.3983517387130E+00 -0.4382952074193E+00
-0.2603742287791E+00 -0.1726919290957E+01 -0.3974587098698E+00 -0.4963850623406E+00
-0.2385254396449E+00 -0.1752895297854E+01 -0.3982841534348E+00 -0.5502190401779E+00
-0.2232077144970E+00 -0.1779989547467E+01 -0.4006394583628E+00 -0.5998165724985E+00
-0.2134220100412E+00 -0.1808325236890E+01 -0.4043494554116E+00 -0.6456054262370E+00
-0.2085295082967E+00 -0.1837755413230E+01 -0.4092569904038E+00 -0.6882300007119E+00
-0.2081709668867E+00 -0.1867939400517E+01 -0.4152220796680E+00 -0.7284196671048E+00
-0.2121761608148E+00 -0.1898412572114E+01 -0.4221177528758E+00 -0.7669072385518E+00
-0.2204847453399E+00 -0.1928635976384E+01 -0.4298241507496E+00 -0.8043784592122E+00
-0.2330835713376E+00 -0.1958025067945E+01 -0.4382217343866E+00 -0.8414354089790E+00
-0.2499568055374E+00 -0.1985963528156E+01 -0.4471840734022E+00 -0.8785632407485E+00
-0.2710416255214E+00 -0.2011809444830E+01 -0.4565702208738E+00 -0.9160946908014E+00
-0.2961806935027E+00 -0.2034900256265E+01 -0.4662161969006E+00 -0.9541698482268E+00
-0.3250680452123E+00 -0.2054565787825E+01 -0.4759267736994E+00 -0.9926982139798E+00
-0.3571831782151E+00 -0.2070150361700E+01 -0.4854667152170E+00 -0.1031325033139E+01
-0.3917149330822E+00 -0.2081045399307E+01 -0.4945520738472E+00 -0.1069407876395E+01
-0.4274864024650E+00 -0.2086732070107E+01 -0.5028437020074E+00 -0.1106015092603E+01
-0.4628827768991E+00 -0.2086812563006E+01 -0.5099390755798E+00 -0.1139944741957E+01
-0.4957811438300E+00 -0.2081020358874E+01 -0.5153603082203E+00 -0.1169775023631E+01
-0.5235703378522E+00 -0.2069362832860E+01 -0.5185866418699E+00 -0.1193939099297E+01
-0.5432616656751E+00 -0.2052263477729E+01 -0.5191050364161E+00 -0.1210774995692E+01
-0.5515575892257E+00 -0.2030521398913E+01 -0.5164158053230E+00 -0.1218541224296E+01
-0.5448755070934E+00 -0.2005226585053E+01 -0.5100204260292E+00 -0.1215442501450E+01
-0.5193575413391E+00 -0.1977721280758E+01 -0.4994157718612E+00 -0.1199686251659E+01
-0.4708832315443E+00 -0.1949608823458E+01 -0.4840984182140E+00 -0.1169579379928E+01
-0.3950984878994E+00 -0.1922785814630E+01 -0.4635768674138E+00 -0.1123674158781E+01
-0.2874801245203E+00 -0.1899472039641E+01 -0.4373904393499E+00 -0.1060972101076E+01
-0.1434649068046E+00 -0.1882210898848E+01 -0.4051351671675E+00 -0.9811905322706E+00
 0.4136533439026E-01 -0.1873802144924E+01 -0.3664873675677E+00 -0.8850735243550E+00
 0.2710813051330E+00 -0.1877146494688E+01 -0.3212130426974E+00 -0.7747155638657E+00
 0.5489713274854E+00 -0.1894998202359E+01 -0.2692053789862E+00 -0.6539056799288E+00
 0.8767553366014E+00 -0.1929547033866E+01 -0.2105583425905E+00 -0.5284075772015E+00
 0.1253621773036E+01 -0.1981796092636E+01 -0.1456348660903E+00 -0.4059683879997E+00
 0.1675172849441E+01 -0.2050827629392E+01 -0.7513095710968E-01 -0.2959159838669E+00
 0.2132502688639E+01 -0.2133132583842E+01 -0.1259790424370E-03 -0.2082280762554E+00
 0.2611754411393E+01 -0.2222260241970E+01  0.7789883504543E-01 -0.1520721587328E+00
 0.3094466063372E+01 -0.2309039887067E+01  0.1570852376017E+00 -0.1340003066308E+00
 0.3559061625254E+01 -0.2382551950241E+01  0.2353019385091E+00 -0.1560467835889E+00
 0.3984414717543E+01 -0.2432318626416E+01  0.3104192228510E+00 -0.2143022104275E+00
-0.3561965290403E+00 -0.1553529719479E+01 -0.3819452553954E+00 -0.3024408231702E+00
-0.3059563460769E+00 -0.1580046315631E+01 -0.3772005379622E+00 -0.3667872690734E+00
-0.2678053714396E+00 -0.1605699908814E+01 -0.3747010616341E+00 -0.4285895933444E+00
-0.2396153309896E+00 -0.1631601583635E+01 -0.3742433885017E+00 -0.4864129160202E+00
-0.2194060249330E+00 -0.1658634365130E+01 -0.3756080836095E+00 -0.5397450549469E+00
-0.2055981320298E+00 -0.1687314785457E+01 -0.3785825891386E+00 -0.5887378549770E+00
-0.1970850009941E+00 -0.1717786663402E+01 -0.3829743385860E+00 -0.6339372479314E+00
-0.1931806852212E+00 -0.1749894581526E+01 -0.3886150591402E+00 -0.6760746880566E+00
-0.1935161491117E+00 -0.1783278800729E+01 -0.3953589958594E+00 -0.7159352619292E+00
-0.1979331327075E+00 -0.1817455398677E+01 -0.4030777122833E+00 -0.7542841224164E+00
-0.2063972810292E+00 -0.1851869156943E+01 -0.4116532937286E+00 -0.7918255383849E+00
-0.2189332821731E+00 -0.1885920983738E+01 -0.4209708594552E+00 -0.8291740676620E+00
-0.2355758939823E+00 -0.1918978051073E+01 -0.4309107954322E+00 -0.8668261484792E+00
-0.2563277127415E+00 -0.1950375232460E+01 -0.4413405956167E+00 -0.9051264568861E+00
-0.2811134105174E+00 -0.1979414864468E+01 -0.4521056617339E+00 -0.9442267093079E+00
-0.3097257182566E+00 -0.2005375663038E+01 -0.4630202831584E+00 -0.9840445169852E+00
-0.3417569897784E+00 -0.2027531924925E+01 -0.4738577900017E+00 -0.1024225134576E+01
-0.3765175498176E+00 -0.2045184897567E+01 -0.4843404966942E+00 -0.1064113438710E+01
-0.4129529575149E+00 -0.2057706447722E+01 -0.4941318884106E+00 -0.1102749510518E+01
-0.4495632052195E+00 -0.2064572451408E+01 -0.5028271388182E+00 -0.1138885567717E+01
-0.4843226264671E+00 -0.2065380840055E+01 -0.5099407009031E+00 -0.1171031123940E+01
-0.5147004017366E+00 -0.2060005628490E+01 -0.5149412137185E+00 -0.1197534952008E+01
-0.5377816904271E+00 -0.2048738506706E+01 -0.5173040471350E+00 -0.1216650640690E+01
-0.5503398596121E+00 -0.2032237139073E+01 -0.5165154074336E+00 -0.1226552563509E+01
-0.5488544623823E+00 -0.2011433926631E+01 -0.5120576854329E+00 -0.1225351089492E+01
-0.5295081558869E+00 -0.1987499944084E+01 -0.5034016274955E+00 -0.1211136819693E+01
-0.4881800270505E+00 -0.1961864367048E+01 -0.4900088861213E+00 -0.1182067220258E+01
-0.4204484886268E+00 -0.1936264285065E+01 -0.4713425617620E+00 -0.1136506311494E+01
-0.3216226815334E+00 -0.1912799432520E+01 -0.4468844294697E+00 -0.1073228452032E+01
-0.1868322944519E+00 -0.1893964916915E+01 -0.4161594484746E+00 -0.9916951609237E+00
-0.1117003151208E-01 -0.1882618853987E+01 -0.3787577827437E+00 -0.8923919109191E+00
 0.2101464680171E+00 -0.1881858362572E+01 -0.3343423838930E+00 -0.7771980876106E+00
 0.4813550681468E+00 -0.1894801889765E+01 -0.2826893685361E+00 -0.6498109950409E+00
 0.8053200444939E+00 -0.1924173521271E+01 -0.2237706986898E+00 -0.5161437522432E+00
 0.1182439415829E+01 -0.1971616132505E+01 -0.1578353456872E+00 -0.3844604528863E+00
 0.1609355463875E+01 -0.2036813566014E+01 -0.8549162170162E-01 -0.2650641383820E+00
 0.2077714043760E+01 -0.2116608124823E+01 -0.7778816328505E-02 -0.1693550535820E+00
 0.2573384807346E+01 -0.2204430939680E+01  0.7379077463262E-01 -0.1082047699208E+00
 0.3076574309188E+01 -0.2290381127687E+01  0.1572386386431E+00 -0.8982228172150E-01
 0.3563057053053E+01 -0.2362188333159E+01  0.2401737475577E+00 -0.1174302495391E+00
 0.4008017051731E+01 -0.2407631220244E+01  0.3200771710669E+00 -0.1867515100164E+00
-0.3318279909006E+00 -0.1455760212832E+01 -0.3575176460738E+00 -0.2921320046507E+00
-0.2822702124240E+00 -0.1482392413095E+01 -0.3529325303629E+00 -0.3569278297199E+00
-0.2455048349551E+00 -0.1508310056944E+01 -0.3507629836066E+00 -0.4187126018858E+00
-0.2190127577719E+00 -0.1534836689129E+01 -0.3507698946070E+00 -0.4761084314486E+00
-0.2005111895248E+00 -0.1562995957521E+01 -0.3527014346647E+00 -0.5287400235435E+00
-0.1882296943844E+00 -0.1593366999494E+01 -0.3563193440853E+00 -0.5769159995354E+00
-0.1809653102176E+00 -0.1626100320727E+01 -0.3614131315744E+00 -0.6213153668240E+00
-0.1779984656076E+00 -0.1661020034734E+01 -0.3678037055490E+00 -0.6627625803920E+00
-0.1789612685960E+00 -0.1697740156908E+01 -0.3753402906939E+00 -0.7020987831210E+00
-0.1837142911728E+00 -0.1735755295731E+01 -0.3838939231012E+00 -0.7401195852447E+00
-0.1922523587540E+00 -0.1774495750432E+01 -0.3933496276986E+00 -0.7775459455285E+00
-0.2046386056172E+00 -0.1813352376329E+01 -0.4035982024034E+00 -0.8150043375754E+00
-0.2209576115419E+00 -0.1851681969491E+01 -0.4145279223836E+00 -0.8530037872705E+00
-0.2412763879641E+00 -0.1888803048655E+01 -0.4260158936719E+00 -0.8919043341973E+00
-0.2656014327195E+00 -0.1923989541628E+01 -0.4379182013950E+00 -0.9318748705397E+00
-0.2938256550247E+00 -0.1956474695764E+01 -0.4500600768641E+00 -0.9728484589940E+00
-0.3256578490679E+00 -0.1985466591113E+01 -0.4622248949238E+00 -0.1014478826873E+01
-0.3605353086734E+00 -0.2010177794234E+01 -0.4741426276467E+00 -0.1056106895042E+01
-0.3975326338871E+00 -0.2029869972959E+01 -0.4854805286035E+00 -0.1096752818643E+01
-0.4352712264378E+00 -0.2043889646569E+01 -0.4958321819899E+00 -0.1135130491375E+01
-0.4718282277672E+00 -0.2051695005193E+01 -0.5047046541128E+00 -0.1169686362884E+01
-0.5047577347493E+00 -0.2053022334352E+01 -0.5115560214430E+00 -0.1198689244762E+01
-0.5312241092193E+00 -0.2048026240450E+01 -0.5158500776207E+00 -0.1220314290411E+01
-0.5480798627042E+00 -0.2037214873161E+01 -0.5170589548778E+00 -0.1232659861982E+01
-0.5518792723628E+00 -0.2021350525004E+01 -0.5146459671422E+00 -0.1233750559902E+01
-0.5388630650187E+00 -0.2001414991992E+01 -0.5080556189727E+00 -0.1221566665640E+01
-0.5049322979962E+00 -0.1978638743344E+01 -0.4967142156696E+00 -0.1194117738039E+01
-0.4456242951701E+00 -0.1954567741998E+01 -0.4800384145868E+00 -0.1149572667024E+01
-0.3561084981468E+00 -0.1931143032087E+01 -0.4574503128634E+00 -0.1086459009462E+01
-0.2312317428684E+00 -0.1910767679955E+01 -0.4283998909483E+00 -0.1003944831173E+01
-0.6560827733780E-01 -0.1896314022681E+01 -0.3923844658507E+00 -0.9021962731580E+00
 0.1462747065764E+00 -0.1891039774830E+01 -0.3489530188506E+00 -0.7827909750159E+00
 0.4096748401435E+00 -0.1898416289684E+01 -0.2977482943449E+00 -0.6492267345196E+00
 0.7287441089119E+00 -0.1921734992175E+01 -0.2385981802079E+00 -0.5074568692469E+00
 0.1105314552055E+01 -0.1963368030284E+01 -0.1716106982031E+00 -0.3661894114479E+00
 0.1537354493974E+01 -0.2023738119071E+01 -0.9727672646889E-01 -0.2367154003400E+00
 0.2017339924639E+01 -0.2100185219092E+01 -0.1656905913739E-01 -0.1320029467097E+00
 0.2531054745222E+01 -0.2186098154734E+01  0.6899131912572E-01 -0.6490350661336E-01
 0.3057340133909E+01 -0.2270809462099E+01  0.1573061367061E+00 -0.4565304593659E-01
 0.3569147691849E+01 -0.2340447739348E+01  0.2457399941619E+00 -0.7900946801290E-01
 0.4036087262868E+01 -0.2380750952468E+01  0.3310672670133E+00 -0.1605455192169E+00
-0.3071688775977E+00 -0.1356443812585E+01 -0.3327225429945E+00 -0.2817796473348E+00
-0.2584834305280E+00 -0.1383137950266E+01 -0.3283242810512E+00 -0.3470075535388E+00
-0.2232898536809E+00 -0.1409297244372E+01 -0.3265174244761E+00 -0.4086643381952E+00
-0.1986363793185E+00 -0.1436477047925E+01 -0.3270226903218E+00 -0.4654530282397E+00
-0.1819195288947E+00 -0.1465841494461E+01 -0.3295522095818E+00 -0.5171691449909E+00
-0.1711820392743E+00 -0.1498018591110E+01 -0.3338401310515E+00 -0.5643055923235E+00
-0.1651400420226E+00 -0.1533147971172E+01 -0.3396576077001E+00 -0.6076893686344E+00
-0.1630568045772E+00 -0.1571019265923E+01 -0.3468152192681E+00 -0.6482420856404E+00
-0.1645779302638E+00 -0.1611212576704E+01 -0.3551581066859E+00 -0.6868591048598E+00
-0.1695899586463E+00 -0.1653199285345E+01 -0.3645578542306E+00 -0.7243627935384E+00
-0.1781197137678E+00 -0.1696397797031E+01 -0.3749035077463E+00 -0.7614876744112E+00
-0.1902686978155E+00 -0.1740194360160E+01 -0.3860926173484E+00 -0.7988707264052E+00
-0.2061696949641E+00 -0.1783942595861E+01 -0.3980224640961E+00 -0.8370343581367E+00
-0.2259521991856E+00 -0.1826952749289E+01 -0.4105809958131E+00 -0.8763572004627E+00
-0.2497034388338E+00 -0.1868478416170E+01 -0.4236363773135E+00 -0.9170310153216E+00
-0.2774172373651E+00 -0.1907714485102E+01 -0.4370263510056E+00 -0.9590121672072E+00
-0.3089219772367E+00 -0.1943808038763E+01 -0.4505460099136E+00 -0.1001972134346E+01
-0.3437873260375E+00 -0.1975885674464E+01 -0.4639346070135E+00 -0.1045257588326E+01
-0.3812236407316E+00 -0.2003098945633E+01 -0.4768645243788E+00 -0.1087878050380E+01
-0.4199804632730E+00 -0.2024662756910E+01 -0.4889286513222E+00 -0.1128517474235E+01
-0.4582432073900E+00 -0.2039891958354E+01 -0.4996270405937E+00 -0.1165565614144E+01
-0.4936550974839E+00 -0.2048381301354E+01 -0.5084072873434E+00 -0.1197216505047E+01
-0.5234646381477E+00 -0.2050143701819E+01 -0.5147216756633E+00 -0.1221573995429E+01
-0.5446116494662E+00 -0.2045530426763E+01 -0.5180284229651E+00 -0.1236670262999E+01
-0.5537383084615E+00 -0.2035121701209E+01 -0.5177720096495E+00 -0.1240455014156E+01
-0.5471625231358E+00 -0.2019692153119E+01 -0.5133709429008E+00 -0.1230807611047E+01
-0.5208326502146E+00 -0.2000248563736E+01 -0.5042162503036E+00 -0.1205594783721E+01
-0.4702761462270E+00 -0.1978112477977E+01 -0.4896777321376E+00 -0.1162787595134E+01
-0.3905582628466E+00 -0.1955023751604E+01 -0.4691164098805E+00 -0.1100651584755E+01
-0.2762782274542E+00 -0.1933242463062E+01 -0.4419041446881E+00 -0.1018027233138E+01
-0.1215970923421E+00 -0.1915599486817E+01 -0.4074393219031E+00 -0.9147009443268E+00
 0.7973077647631E-01 -0.1905461293610E+01 -0.3651461088677E+00 -0.7918556060818E+00
 0.3340401087693E+00 -0.1906622939487E+01 -0.3145165708301E+00 -0.6526648221875E+00
 0.6469137131994E+00 -0.1922962681378E+01 -0.2552097974385E+00 -0.5029838599025E+00
 0.1021867175406E+01 -0.1957671059846E+01 -0.1871607796769E+00 -0.3518546254656E+00
 0.1458534605199E+01 -0.2012068130666E+01 -0.1107067067431E+00 -0.2115387909289E+00
 0.1950593947736E+01 -0.2084174638264E+01 -0.2671613850369E-01 -0.9671080013866E-01
 0.2483979211189E+01 -0.2167462173786E+01  0.6330340842389E-01 -0.2254008289817E-01
 0.3036246897895E+01 -0.2250385726723E+01  0.1571722365764E+00 -0.1683104076135E-02
 0.3577294479853E+01 -0.2317325721366E+01  0.2519937554523E+00 -0.4114643356323E-01
 0.4068192439383E+01 -0.2349254468606E+01  0.3437875992782E+00 -0.1352480458455E+00
-0.2821922419424E+00 -0.1255426869929E+01 -0.3075238269567E+00 -0.2714015987478E+00
-0.2346084953040E+00 -0.1282089155842E+01 -0.3033395347493E+00 -0.3370364111778E+00
-0.2012018213031E+00 -0.1308438170252E+01 -0.3019280028101E+00 -0.3984326714880E+00
-0.1785447664779E+00 -0.1336280217141E+01 -0.3029650012383E+00 -0.4544089512808E+00
-0.1636941533526E+00 -0.1366917109423E+01 -0.3061222571166E+00 -0.5049723873664E+00
-0.1545149268886E+00 -0.1401007225381E+01 -0.3111044350898E+00 -0.5508310269010E+00
-0.1496625536157E+00 -0.1438657913823E+01 -0.3176640982212E+00 -0.5929743129745E+00
-0.1484027227455E+00 -0.1479608674955E+01 -0.3256022843920E+00 -0.6324228127336E+00
-0.1504080365912E+00 -0.1523398173403E+01 -0.3347612469873E+00 -0.6701217846586E+00
-0.1555980375023E+00 -0.1569473864233E+01 -0.3450143854882E+00 -0.7069147827108E+00
-0.1640336722573E+00 -0.1617246200678E+01 -0.3562559798956E+00 -0.7435455671123E+00
-0.1758538169704E+00 -0.1666103698590E+01 -0.3683915086015E+00 -0.7806594994674E+00
-0.1912368501000E+00 -0.1715405527372E+01 -0.3813284811766E+00 -0.8187928047527E+00
-0.2103718229362E+00 -0.1764463438466E+01 -0.3949670581659E+00 -0.8583459080163E+00
-0.2334247189449E+00 -0.1812520661266E+01 -0.4091890821397E+00 -0.8995395181772E+00
-0.2604904529157E+00 -0.1858742799825E+01 -0.4238466568640E+00 -0.9423620042997E+00
-0.2915201291696E+00 -0.1902222967674E+01 -0.4387486259067E+00 -0.9865131386657E+00
-0.3262218052858E+00 -0.1942005919740E+01 -0.4536455517650E+00 -0.1031356514452E+01
-0.3639493860018E+00 -0.1977134083890E+01 -0.4682167009553E+00 -0.1075901706261E+01
-0.4035884353680E+00 -0.2006688882425E+01 -0.4820554707418E+00 -0.1118812254470E+01
-0.4434389896327E+00 -0.2029838181019E+01 -0.4946554415013E+00 -0.1158428422563E+01
-0.4812381571328E+00 -0.2046031162341E+01 -0.5054538714267E+00 -0.1192875394005E+01
-0.5143240074702E+00 -0.2055134234724E+01 -0.5138916560964E+00 -0.1220193910397E+01
-0.5397327199699E+00 -0.2057334047206E+01 -0.5194133611751E+00 -0.1238361430968E+01
-0.5542092140375E+00 -0.2053016007692E+01 -0.5214450521161E+00 -0.1245265819165E+01
-0.5541703502453E+00 -0.2042728277708E+01 -0.5193797333300E+00 -0.1238697543752E+01
-0.5356409881929E+00 -0.2027226691201E+01 -0.5125735435168E+00 -0.1216388661303E+01
-0.4941754792266E+00 -0.2007571410918E+01 -0.5003493854848E+00 -0.1176113243571E+01
-0.4247783806625E+00 -0.1985252581231E+01 -0.4820061995612E+00 -0.1115863262692E+01
-0.3218478208340E+00 -0.1962326640785E+01 -0.4568348991312E+00 -0.1034120073230E+01
-0.1791315494636E+00 -0.1941512604956E+01 -0.4241288372039E+00 -0.9302288232893E+00
 0.1033523074620E-01 -0.1926213783220E+01 -0.3831757162045E+00 -0.8048757885766E+00
 0.2540105137645E+00 -0.1920497000404E+01 -0.3332973022945E+00 -0.6607641504768E+00
 0.5590573276648E+00 -0.1928829428127E+01 -0.2739544241748E+00 -0.5034758971686E+00
 0.9309624535109E+00 -0.1955309606639E+01 -0.2048694336785E+00 -0.3422295589857E+00
 0.1371454470099E+01 -0.2002342689829E+01 -0.1261776458261E+00 -0.1901998822504E+00
 0.1875892850431E+01 -0.2068876085735E+01 -0.3859664763605E-01 -0.6391051095439E-01
 0.2430791713589E+01 -0.2148643494984E+01  0.5642964456179E-01  0.1876258718549E-01
 0.3012333560537E+01 -0.2229185365480E+01  0.1566296413453E+00  0.4201481686434E-01
 0.3587507568639E+01 -0.2292496418535E+01  0.2590022338801E+00 -0.3296094558621E-02
 0.4109695054255E+01 -0.2312955529478E+01  0.3593479103099E+00 -0.1193936508063E+00
-0.2569035479154E+00 -0.1152558622494E+01 -0.2818924382823E+00 -0.2610460794521E+00
-0.2106825294702E+00 -0.1179078941515E+01 -0.2779522983388E+00 -0.3270447802651E+00
-0.1793150265134E+00 -0.1205561660314E+01 -0.2769753414927E+00 -0.3880257389431E+00
-0.1588302327169E+00 -0.1234083152164E+01 -0.2785826811273E+00 -0.4429579567309E+00
-0.1459309592669E+00 -0.1266075650229E+01 -0.2824013261072E+00 -0.4921109917137E+00
-0.1383191703902E+00 -0.1302202402538E+01 -0.2881043188786E+00 -0.5364422124346E+00
-0.1346163611745E+00 -0.1342512046224E+01 -0.2954256858819E+00 -0.5771164648937E+00
-0.1341137818297E+00 -0.1386676372535E+01 -0.3041580354053E+00 -0.6152516431357E+00
-0.1365256744990E+00 -0.1434185307928E+01 -0.3141422011665E+00 -0.6518354009666E+00
-0.1418113621164E+00 -0.1484462762105E+01 -0.3252548296909E+00 -0.6877246911942E+00
-0.1500672314209E+00 -0.1536916374921E+01 -0.3373967262959E+00 -0.7236667878512E+00
-0.1614675496149E+00 -0.1590944928756E+01 -0.3504825008969E+00 -0.7603124024041E+00
-0.1762325828289E+00 -0.1645923029602E+01 -0.3644311279166E+00 -0.7982113788588E+00
-0.1946067944848E+00 -0.1701175101669E+01 -0.3791563848807E+00 -0.8377887685214E+00
-0.2168316818772E+00 -0.1755945688992E+01 -0.3945554800532E+00 -0.8793003121832E+00
-0.2431023061464E+00 -0.1809382167687E+01 -0.4104969008835E+00 -0.9227756160593E+00
-0.2734949255242E+00 -0.1860532739140E+01 -0.4268055392927E+00 -0.9679543475010E+00
-0.3078619019699E+00 -0.1908366252081E+01 -0.4432456374151E+00 -0.1014229587615E+01
-0.3457088176193E+00 -0.1951818443651E+01 -0.4595054591012E+00 -0.1060623077613E+01
-0.3860655135001E+00 -0.1989836518166E+01 -0.4751804134140E+00 -0.1105788769050E+01
-0.4273529912533E+00 -0.2021438640916E+01 -0.4897583337318E+00 -0.1148025662692E+01
-0.4674064613577E+00 -0.2045925094816E+01 -0.5026663187251E+00 -0.1185396885553E+01
-0.5036582827583E+00 -0.2063011734451E+01 -0.5133340110912E+00 -0.1215889659863E+01
-0.5332496960751E+00 -0.2072713749546E+01 -0.5211926968906E+00 -0.1237440393839E+01
-0.5530435888838E+00 -0.2075209896726E+01 -0.5256507049548E+00 -0.1247891126391E+01
-0.5595789080880E+00 -0.2070803421837E+01 -0.5260764738242E+00 -0.1244959195571E+01
-0.5489888810156E+00 -0.2059972530231E+01 -0.5217922900246E+00 -0.1226254864647E+01
-0.5168962037349E+00 -0.2043478743791E+01 -0.5120749971356E+00 -0.1189362105362E+01
-0.4582963181779E+00 -0.2022511528776E+01 -0.4961615767842E+00 -0.1131995216505E+01
-0.3674461456338E+00 -0.1998856401008E+01 -0.4732605163806E+00 -0.1052252850696E+01
-0.2377404743236E+00 -0.1975036762559E+01 -0.4425554539710E+00 -0.9489832705421E+00
-0.6153633350480E-01 -0.1954398682072E+01 -0.4031870091234E+00 -0.8222725341300E+00
 0.1697651011089E+00 -0.1941198656063E+01 -0.3542867162701E+00 -0.6741897406143E+00
 0.4650398209049E+00 -0.1940464146131E+01 -0.2950848694424E+00 -0.5098279467794E+00
 0.8320530440885E+00 -0.1957275215085E+01 -0.2250444375527E+00 -0.3383615624921E+00
 0.1275128933117E+01 -0.1995329549825E+01 -0.1440401254879E+00 -0.1737516404905E+00
 0.1791953957281E+01 -0.2054810351478E+01 -0.5257127962266E-01 -0.3447597129085E-01
 0.2370138319675E+01 -0.2129997691214E+01  0.4802812640790E-01  0.5841857420615E-01
 0.2984953945247E+01 -0.2207570707812E+01  0.1554766498038E+00  0.8524509487971E-01
 0.3598797033397E+01 -0.2266321819955E+01  0.2664950466596E+00  0.3289758471366E-01
 0.4170584785739E+01 -0.2279047701893E+01  0.3783074224065E+00 -0.1064638761393E+00
-0.2312826176930E+00 -0.1047679076712E+01 -0.2557923426926E+00 -0.2507467513851E+00
-0.1867484999723E+00 -0.1073962624145E+01 -0.2521422285807E+00 -0.3170615790621E+00
-0.1577155675828E+00 -0.1100545311844E+01 -0.2516521796353E+00 -0.3774457649735E+00
-0.1396027061627E+00 -0.1129801092212E+01 -0.2538807634580E+00 -0.4310755030184E+00
-0.1287440679267E+00 -0.1163277098076E+01 -0.2584042370510E+00 -0.4785431922337E+00
-0.1227038926355E+00 -0.1201606605920E+01 -0.2648621036578E+00 -0.5210931714797E+00
-0.1201043303606E+00 -0.1244747035386E+01 -0.2729702772168E+00 -0.5600755163517E+00
-0.1202894993967E+00 -0.1292283044047E+01 -0.2825145128986E+00 -0.5966990021417E+00
-0.1230309344252E+00 -0.1343649089581E+01 -0.2933360091723E+00 -0.6319822536168E+00
-0.1283340725880E+00 -0.1398247139627E+01 -0.3053162469926E+00 -0.6667853500964E+00
-0.1363311727470E+00 -0.1455488193916E+01 -0.3183638780767E+00 -0.7018518574888E+00
-0.1472289325570E+00 -0.1514790053537E+01 -0.3324038021719E+00 -0.7378337521284E+00
-0.1612846978078E+00 -0.1575553357801E+01 -0.3473676162980E+00 -0.7752933905450E+00
-0.1787928570562E+00 -0.1637127334538E+01 -0.3631840437306E+00 -0.8146824764091E+00
-0.2000655602121E+00 -0.1698770952416E+01 -0.3797673081846E+00 -0.8562973207364E+00
-0.2253953389317E+00 -0.1759626326355E+01 -0.3970043389731E+00 -0.9002179288588E+00
-0.2549845087637E+00 -0.1818707986219E+01 -0.4147385051765E+00 -0.9462359843684E+00
-0.2888345617201E+00 -0.1874916951602E+01 -0.4327503091129E+00 -0.9937875789730E+00
-0.3266101501947E+00 -0.1927086616419E+01 -0.4507393600393E+00 -0.1041919795625E+01
-0.3674928221399E+00 -0.1974030937662E+01 -0.4683047589387E+00 -0.1089288740680E+01
-0.4100295879159E+00 -0.2014617118609E+01 -0.4849293485310E+00 -0.1134161214110E+01
-0.4521560961960E+00 -0.2047994796205E+01 -0.5000301859313E+00 -0.1174546109913E+01
-0.4914014660218E+00 -0.2073727212571E+01 -0.5130257433633E+00 -0.1208388231548E+01
-0.5250186250007E+00 -0.2091653717887E+01 -0.5233344763758E+00 -0.1233598831322E+01
-0.5500021675151E+00 -0.2101737573122E+01 -0.5303479560303E+00 -0.1247993185162E+01
-0.5630355704682E+00 -0.2104022257588E+01 -0.5334115735597E+00 -0.1249235339497E+01
-0.5603927256428E+00 -0.2098685803328E+01 -0.5318157137188E+00 -0.1234832306090E+01
-0.5378085891764E+00 -0.2086157942480E+01 -0.5247933141514E+00 -0.1202192945564E+01
-0.4903275127089E+00 -0.2067279101168E+01 -0.5115213303976E+00 -0.1148761088050E+01
-0.4121386298612E+00 -0.2043495019978E+01 -0.4911267372862E+00 -0.1072243484456E+01
-0.2963685147969E+00 -0.2017040020189E+01 -0.4626817138916E+00 -0.9709510197828E+00
-0.1347751264902E+00 -0.1991086208162E+01 -0.4251722732659E+00 -0.8442762046807E+00
 0.8234901477543E-01 -0.1969960177421E+01 -0.3775222381546E+00 -0.6934853882274E+00
 0.3656777409734E+00 -0.1959173625971E+01 -0.3186991817484E+00 -0.5229330479768E+00
 0.7255420466955E+00 -0.1964822131259E+01 -0.2478560206060E+00 -0.3414566273828E+00
 0.1169417450664E+01 -0.1992100502671E+01 -0.1645366128533E+00 -0.1635768808245E+00
 0.1698088918387E+01 -0.2042803717296E+01 -0.6894296080912E-01 -0.9744903042127E-02
 0.2301110726800E+01 -0.2112174089337E+01  0.3778732805567E-01  0.9536134945444E-01
 0.2953020322395E+01 -0.2186217216174E+01  0.1533606235294E+00  0.1272260031292E+00
 0.3613362252841E+01 -0.2240876003196E+01  0.2744972540193E+00  0.6713634137240E-01
 0.4236096805860E+01 -0.2248558551965E+01  0.3975076567024E+00 -0.9270068102682E-01
-0.2053172850322E+00 -0.9406073457689E+00 -0.2291849295753E+00 -0.2405511821778E+00
-0.1628533392701E+00 -0.9665418942560E+00 -0.2258790500711E+00 -0.3071172234099E+00
-0.1364945198689E+00 -0.9931934416006E+00 -0.2259375956606E+00 -0.3666882310501E+00
-0.1209695890269E+00 -0.1023258568922E+01 -0.2288456349998E+00 -0.4187210792255E+00
-0.1122364952272E+00 -0.1058374677404E+01 -0.2341222380148E+00 -0.4642061968269E+00
-0.1077592623329E+00 -0.1099098454499E+01 -0.2413715469630E+00 -0.5047144087511E+00
-0.1062047645899E+00 -0.1145257595184E+01 -0.2502924756844E+00 -0.5417859022986E+00
-0.1070009767141E+00 -0.1196329568299E+01 -0.2606661128869E+00 -0.5767077966999E+00
-0.1099925285812E+00 -0.1251688510423E+01 -0.2723362118590E+00 -0.6105140507751E+00
-0.1152361438964E+00 -0.1310718166726E+01 -0.2851908663741E+00 -0.6440553405350E+00
-0.1228990997753E+00 -0.1372840617243E+01 -0.2991479478612E+00 -0.6780631490527E+00
-0.1332164181869E+00 -0.1437502487695E+01 -0.3141437858576E+00 -0.7131858577871E+00
-0.1464765813091E+00 -0.1504141982598E+01 -0.3301237177007E+00 -0.7499964927413E+00
-0.1630170983589E+00 -0.1572146469659E+01 -0.3470327187747E+00 -0.7889747262295E+00
-0.1832143541571E+00 -0.1640804200537E+01 -0.3648037163749E+00 -0.8304625154431E+00
-0.2074540757839E+00 -0.1709267315564E+01 -0.3833442839819E+00 -0.8745995298955E+00
-0.2360643240067E+00 -0.1776530522983E+01 -0.4025189753959E+00 -0.9212424441123E+00
-0.2692000970492E+00 -0.1841437522350E+01 -0.4221275301700E+00 -0.9698853186517E+00
-0.3066927559660E+00 -0.1902725621312E+01 -0.4418836820402E+00 -0.1019615289674E+01
-0.3478833144291E+00 -0.1959077846496E+01 -0.4613922390604E+00 -0.1069103607145E+01
-0.3914496017857E+00 -0.2009210046001E+01 -0.4801319367118E+00 -0.1116594782439E+01
-0.4354290279609E+00 -0.2052120111224E+01 -0.4975098352504E+00 -0.1160052041907E+01
-0.4774485319113E+00 -0.2087217460440E+01 -0.5129332061135E+00 -0.1197390079821E+01
-0.5148781807512E+00 -0.2114162379940E+01 -0.5258081199734E+00 -0.1226512793813E+01
-0.5448574518505E+00 -0.2132695315069E+01 -0.5355105613636E+00 -0.1245230297953E+01
-0.5642368546927E+00 -0.2142587216619E+01 -0.5413648223293E+00 -0.1251176434180E+01
-0.5694639187753E+00 -0.2143696209068E+01 -0.5426320336544E+00 -0.1241777980993E+01
-0.5564316180637E+00 -0.2136090364407E+01 -0.5385044045185E+00 -0.1214290392930E+01
-0.5202959618964E+00 -0.2120215286357E+01 -0.5281022575201E+00 -0.1165904375679E+01
-0.4552625821631E+00 -0.2097107375310E+01 -0.5104739991012E+00 -0.1093939672580E+01
-0.3542961713089E+00 -0.2068610007538E+01 -0.4845812429902E+00 -0.9961459248064E+00
-0.2086715052082E+00 -0.2037582660267E+01 -0.4492508397894E+00 -0.8711425431599E+00
-0.7656394758429E-02 -0.2008262141505E+01 -0.4031837132606E+00 -0.7192238235654E+00
 0.2612505814799E+00 -0.1986512273699E+01 -0.3450523435856E+00 -0.5437234475652E+00
 0.6112085122677E+00 -0.1979423814298E+01 -0.2736430644836E+00 -0.3527689927503E+00
 0.1053450901662E+01 -0.1993879877890E+01 -0.1880857980483E+00 -0.1610895295324E+00
 0.1592836959791E+01 -0.2033730874029E+01 -0.8817878416151E-01  0.8987176449062E-02
 0.2221931682973E+01 -0.2095774134324E+01  0.2523151010578E-01  0.1287336336057E+00
 0.2915496520316E+01 -0.2165763337880E+01  0.1499466387216E+00  0.1675893258148E+00
 0.3629459969437E+01 -0.2217527002823E+01  0.2823865975307E+00  0.1008660177194E+00
 0.4308572979458E+01 -0.2219108314780E+01  0.4178929391626E+00 -0.8016658019969E-01
-0.1789971134847E+00 -0.8311435268186E+00 -0.2020281310711E+00 -0.2305165329293E+00
-0.1390562454320E+00 -0.8565992592002E+00 -0.1991311038937E+00 -0.2972460150841E+00
-0.1157591895273E+00 -0.8832949472099E+00 -0.1998108303249E+00 -0.3557428315316E+00
-0.1030510469114E+00 -0.9142738684643E+00 -0.2034649861070E+00 -0.4058424046928E+00
-0.9651706417325E-01 -0.9512236988597E+00 -0.2095481557291E+00 -0.4490249275077E+00
-0.9357569502268E-01 -0.9945634835686E+00 -0.2176278389612E+00 -0.4872275852663E+00
-0.9299333123943E-01 -0.1043946632156E+01 -0.2273879960675E+00 -0.5221776034520E+00
-0.9431596683622E-01 -0.1098724202564E+01 -0.2386080374355E+00 -0.5552202155229E+00
-0.9747629987969E-01 -0.1158208290354E+01 -0.2511369217890E+00 -0.5873845356702E+00
-0.1025857257598E+00 -0.1221770847362E+01 -0.2648713185713E+00 -0.6194973019812E+00
-0.1098441576745E+00 -0.1288854398661E+01 -0.2797397154354E+00 -0.6522686830147E+00
-0.1195096706074E+00 -0.1358945114535E+01 -0.2956909614347E+00 -0.6863379770180E+00
-0.1318948497481E+00 -0.1431531020930E+01 -0.3126851787951E+00 -0.7222862651906E+00
-0.1473721974988E+00 -0.1506051999017E+01 -0.3306848442307E+00 -0.7606215988054E+00
-0.1663742184053E+00 -0.1581842173427E+01 -0.3496432835766E+00 -0.8017358994445E+00
-0.1893736666795E+00 -0.1658081536471E+01 -0.3694910461360E+00 -0.8458375999472E+00
-0.2168224752305E+00 -0.1733761878276E+01 -0.3901168765144E+00 -0.8928621017018E+00
-0.2490328656373E+00 -0.1807683041325E+01 -0.4113431875220E+00 -0.9423779690951E+00
-0.2860108184516E+00 -0.1878494827583E+01 -0.4329011356576E+00 -0.9935289009097E+00
-0.3272650427327E+00 -0.1944753219005E+01 -0.4544036591187E+00 -0.1045015719816E+01
-0.3716088003707E+00 -0.2005023197258E+01 -0.4753264066086E+00 -0.1095071477660E+01
-0.4171814090926E+00 -0.2058150349362E+01 -0.4950663590681E+00 -0.1141623040744E+01
-0.4617069955413E+00 -0.2103389758770E+01 -0.5130193585068E+00 -0.1182568504776E+01
-0.5026767767627E+00 -0.2140220478206E+01 -0.5285794588703E+00 -0.1215824084103E+01
-0.5373874655797E+00 -0.2168154395969E+01 -0.5411083803729E+00 -0.1239218725543E+01
-0.5628787553760E+00 -0.2186679626348E+01 -0.5499116845392E+00 -0.1250382108633E+01
-0.5758046499043E+00 -0.2195318356071E+01 -0.5542246094536E+00 -0.1246687915805E+01
-0.5722622722295E+00 -0.2193752111438E+01 -0.5532028849769E+00 -0.1225266482781E+01
-0.5475845876741E+00 -0.2181991257651E+01 -0.5459151771997E+00 -0.1183083570648E+01
-0.4960864776596E+00 -0.2160596471312E+01 -0.5313365977119E+00 -0.1117093397980E+01
-0.4106974970934E+00 -0.2130914329444E+01 -0.5083223728821E+00 -0.1024482580918E+01
-0.2823648099017E+00 -0.2095333957710E+01 -0.4755397606085E+00 -0.9030410245924E+00
-0.9947877875571E-01 -0.2057799659704E+01 -0.4314556941211E+00 -0.7519334358789E+00
 0.1522406778005E+00 -0.2024325481325E+01 -0.3744169662841E+00 -0.5731681048982E+00
 0.4889819699957E+00 -0.2002895670022E+01 -0.3027827445171E+00 -0.3737050133782E+00
 0.9263741846028E+00 -0.2002224566165E+01 -0.2151700795186E+00 -0.1679739502286E+00
 0.1474512309287E+01 -0.2028721503872E+01 -0.1108418405686E+00  0.2010897970420E-01
 0.2130488620870E+01 -0.2081509470855E+01  0.9795830148960E-02  0.1574046865180E+00
 0.2870430519733E+01 -0.2146899412331E+01  0.1447062236365E+00  0.2062062100315E+00
 0.3645895480704E+01 -0.2196111949389E+01  0.2899567105837E+00  0.1344188622241E+00
 0.4389614059505E+01 -0.2190300056365E+01  0.4398628071825E+00 -0.7005271357782E-01
-0.1523143999345E+00 -0.7190645775444E+00 -0.1742757980927E+00 -0.2207110572206E+00
-0.1154324441483E+00 -0.7438931825252E+00 -0.1718651278957E+00 -0.2874855066101E+00
-0.9563699342885E-01 -0.7706215937444E+00 -0.1732517200163E+00 -0.3445901862341E+00
-0.8598134313079E-01 -0.8026601712738E+00 -0.1777283055293E+00 -0.3923711429257E+00
-0.8169957120863E-01 -0.8416846535846E+00 -0.1846768477105E+00 -0.4329091277203E+00
-0.8024205808600E-01 -0.8878973484078E+00 -0.1936278841840E+00 -0.4685443780743E+00
-0.8054137574970E-01 -0.9407277147696E+00 -0.2042538211475E+00 -0.5011762036595E+00
-0.8229761081485E-01 -0.9993842816899E+00 -0.2163363817246E+00 -0.5321782906113E+00
-0.8554431867568E-01 -0.1063120098224E+01 -0.2297328868031E+00 -0.5625501816921E+00
-0.9044844827979E-01 -0.1131305030781E+01 -0.2443506994534E+00 -0.5930786629114E+00
-0.9723844740851E-01 -0.1203413042413E+01 -0.2601303018406E+00 -0.6244429356673E+00
-0.1061890642996E+00 -0.1278981236009E+01 -0.2770340641899E+00 -0.6572672977114E+00
-0.1176289845507E+00 -0.1357560131295E+01 -0.2950378275655E+00 -0.6921374743817E+00
-0.1319563136031E+00 -0.1438657264710E+01 -0.3141227203434E+00 -0.7295891713797E+00
-0.1496497541005E+00 -0.1521670852784E+01 -0.3342641263579E+00 -0.7700674549672E+00
-0.1712606968670E+00 -0.1605829303887E+01 -0.3554180054469E+00 -0.8138580644983E+00
-0.1973610657944E+00 -0.1690141971541E+01 -0.3775006130923E+00 -0.8609894366207E+00
-0.2284230508373E+00 -0.1773381940945E+01 -0.4003610043223E+00 -0.9111228857867E+00
-0.2646354373685E+00 -0.1854122987291E+01 -0.4237516912463E+00 -0.9634773194516E+00
-0.3056835217839E+00 -0.1930799806612E+01 -0.4472966723444E+00 -0.1016799291831E+01
-0.3505205018319E+00 -0.2001827895572E+01 -0.4704696864914E+00 -0.1069322267588E+01
-0.3973864174071E+00 -0.2065900318439E+01 -0.4926573545105E+00 -0.1118946834036E+01
-0.4440999769665E+00 -0.2122117728971E+01 -0.5132435488354E+00 -0.1163569208716E+01
-0.4882758762370E+00 -0.2169776580305E+01 -0.5316104992300E+00 -0.1201139405060E+01
-0.5273793948815E+00 -0.2208155962199E+01 -0.5471070795686E+00 -0.1229531358924E+01
-0.5586608674738E+00 -0.2236453557248E+01 -0.5590228932745E+00 -0.1246399122270E+01
-0.5790126650858E+00 -0.2253844108057E+01 -0.5665713630712E+00 -0.1249093886808E+01
-0.5847809100655E+00 -0.2259604427998E+01 -0.5688770760896E+00 -0.1234655136795E+01
-0.5715406075671E+00 -0.2253277699076E+01 -0.5649636697473E+00 -0.1199862768604E+01
-0.5338134780850E+00 -0.2234890496943E+01 -0.5537408032570E+00 -0.1141345414386E+01
-0.4646378899597E+00 -0.2205189084339E+01 -0.5339654028165E+00 -0.1055752298005E+01
-0.3548290428839E+00 -0.2165921646120E+01 -0.5041501453132E+00 -0.9400212635202E+00
-0.1921201915178E+00 -0.2120495819581E+01 -0.4625232091119E+00 -0.7920584982851E+00
 0.3939242553852E-01 -0.2074792544891E+01 -0.4070800299365E+00 -0.6122382924821E+00
 0.3590209041704E+00 -0.2037472861273E+01 -0.3356903964226E+00 -0.4058164243135E+00
 0.7874031090655E+00 -0.2019128452235E+01 -0.2463450723048E+00 -0.1862249099860E+00
 0.1341232102480E+01 -0.2029243824785E+01 -0.1376023465115E+00  0.2158320354232E-01
 0.2024110359360E+01 -0.2070277588805E+01 -0.9233446026524E-02  0.1799174818213E+00
 0.2815207141668E+01 -0.2130023099211E+01  0.1370368105335E+00  0.2426397759028E+00
 0.3661432519884E+01 -0.2176624579914E+01  0.2969615924191E+00  0.1677770764744E+00
 0.4480869965319E+01 -0.2162114044620E+01  0.4637511910502E+00 -0.6316791241020E-01
-0.1252655539940E+00 -0.6041183886339E+00 -0.1458767906993E+00 -0.2112162216601E+00
-0.9207837463210E-01 -0.6281523396188E+00 -0.1440461449966E+00 -0.2778753093425E+00
-0.7628020058947E-01 -0.6549260061021E+00 -0.1462412435175E+00 -0.3331968973090E+00
-0.6991000150570E-01 -0.6882279027114E+00 -0.1516275831028E+00 -0.3782174204865E+00
-0.6790112221508E-01 -0.7296275619610E+00 -0.1595057392120E+00 -0.4157500856465E+00
-0.6784321918780E-01 -0.7790098130760E+00 -0.1693706089766E+00 -0.4485656041907E+00
-0.6891390383436E-01 -0.8355278078836E+00 -0.1808883450390E+00 -0.4787033245554E+00
-0.7100307606197E-01 -0.8982379327110E+00 -0.1938482046432E+00 -0.5075247207401E+00
-0.7425396137809E-01 -0.9663437355414E+00 -0.2081195424851E+00 -0.5359710102678E+00
-0.7888670751867E-01 -0.1039226417887E+01 -0.2236226284135E+00 -0.5647724063512E+00
-0.8515238379774E-01 -0.1116403815340E+01 -0.2403112434084E+00 -0.5945676415347E+00
-0.9333507832127E-01 -0.1197475653553E+01 -0.2581621502217E+00 -0.6259599111575E+00
-0.1037708149900E+00 -0.1282067621820E+01 -0.2771676914920E+00 -0.6595353633705E+00
-0.1168727962844E+00 -0.1369770431532E+01 -0.2973286499939E+00 -0.6958552435333E+00
-0.1331541440377E+00 -0.1460066011727E+01 -0.3186440359011E+00 -0.7354193305480E+00
-0.1532339205860E+00 -0.1552254625722E+01 -0.3410977143443E+00 -0.7785981080084E+00
-0.1777975790577E+00 -0.1645387853380E+01 -0.3646370919211E+00 -0.8255275892958E+00
-0.2074785859715E+00 -0.1738233654557E+01 -0.3891424539044E+00 -0.8759818936456E+00
-0.2426569364142E+00 -0.1829304965050E+01 -0.4143923864678E+00 -0.9292763536664E+00
-0.2832043140027E+00 -0.1916923272763E+01 -0.4400255239099E+00 -0.9842215696712E+00
-0.3282183985320E+00 -0.1999356876744E+01 -0.4655150619918E+00 -0.1039064562119E+01
-0.3760372969228E+00 -0.2075146115345E+01 -0.4902366897587E+00 -0.1091690589562E+01
-0.4245694491487E+00 -0.2143237049494E+01 -0.5135613073812E+00 -0.1140009963985E+01
-0.4715534895694E+00 -0.2202742511313E+01 -0.5348592081465E+00 -0.1182029708062E+01
-0.5146334706934E+00 -0.2252705804958E+01 -0.5534678633775E+00 -0.1215696734671E+01
-0.5512908986125E+00 -0.2292029426682E+01 -0.5686640735326E+00 -0.1238719857468E+01
-0.5786867364564E+00 -0.2319534378356E+01 -0.5796442315998E+00 -0.1248460897690E+01
-0.5934579422417E+00 -0.2334082940182E+01 -0.5855081852095E+00 -0.1241907601017E+01
-0.5914831652590E+00 -0.2334730868792E+01 -0.5852428155309E+00 -0.1215703210981E+01
-0.5675884869794E+00 -0.2320925842843E+01 -0.5777028745729E+00 -0.1166209999537E+01
-0.5150766239889E+00 -0.2292720964612E+01 -0.5615595260881E+00 -0.1089597349766E+01
-0.4248631542353E+00 -0.2251050235197E+01 -0.5351826858613E+00 -0.9819735591794E+00
-0.2843236073163E+00 -0.2198506672279E+01 -0.4965660633185E+00 -0.8399069078552E+00
-0.7621880944537E-01 -0.2140467151567E+01 -0.4433371988088E+00 -0.6618543107625E+00
 0.2218134772720E+00 -0.2085902249171E+01 -0.3728177599352E+00 -0.4507729337903E+00
 0.6359293463805E+00 -0.2047157025554E+01 -0.2822455400405E+00 -0.2181877988834E+00
 0.1190933622413E+01 -0.2037255751478E+01 -0.1692644283351E+00  0.1083579756487E-01
 0.1899498365031E+01 -0.2063191382904E+01 -0.3273860406227E-01  0.1942562726917E+00
 0.2746432062901E+01 -0.2115537187796E+01  0.1261789769012E+00  0.2760307664258E+00
 0.3674516813948E+01 -0.2159246985586E+01  0.3030539701882E+00  0.2008240954046E+00
 0.4584106779473E+01 -0.2134796422661E+01  0.4898620786618E+00 -0.6016337740643E-01
-0.9785316745010E-01 -0.4860155323473E+00 -0.1167737416995E+00 -0.2021294921948E+00
-0.6911888251686E-01 -0.5090682148681E+00 -0.1156374212001E+00 -0.2684549136714E+00
-0.5787174084959E-01 -0.5359399111270E+00 -0.1187623321650E+00 -0.3215082990165E+00
-0.5500238077934E-01 -0.5707888725476E+00 -0.1251582525304E+00 -0.3632627745481E+00
-0.5523928121361E-01 -0.6149380643254E+00 -0.1340354711051E+00 -0.3974171727681E+00
-0.5645677967406E-01 -0.6678295837418E+00 -0.1448572748417E+00 -0.4271808801852E+00
-0.5816726343338E-01 -0.7282901678956E+00 -0.1572914886096E+00 -0.4546776062058E+00
-0.6048216179911E-01 -0.7952256974354E+00 -0.1711415743971E+00 -0.4812040031709E+00
-0.6365701879096E-01 -0.8678082211006E+00 -0.1862930507543E+00 -0.5076115255780E+00
-0.6795895552236E-01 -0.9454475317262E+00 -0.2026813004699E+00 -0.5345578485252E+00
-0.7365400633191E-01 -0.1027718800951E+01 -0.2202745647390E+00 -0.5626325614075E+00
-0.8102757984894E-01 -0.1114295881528E+01 -0.2390646958377E+00 -0.5924117413585E+00
-0.9041382305684E-01 -0.1204891796980E+01 -0.2590611278676E+00 -0.6244769324426E+00
-0.1022296688366E+00 -0.1299195801651E+01 -0.2802850982742E+00 -0.6594111488666E+00
-0.1170090668143E+00 -0.1396794157652E+01 -0.3027606494048E+00 -0.6977682692408E+00
-0.1354248625231E+00 -0.1497085311766E+01 -0.3265020397231E+00 -0.7400091013799E+00
-0.1582662768728E+00 -0.1599192577034E+01 -0.3514917760191E+00 -0.7863914412249E+00
-0.1863272412437E+00 -0.1701906120706E+01 -0.3776466780174E+00 -0.8368240793243E+00
-0.2201874195126E+00 -0.1803698093056E+01 -0.4047771085454E+00 -0.8907431019546E+00
-0.2599158874831E+00 -0.1902787851421E+01 -0.4325407542261E+00 -0.9470442484387E+00
-0.3047596353909E+00 -0.1997299729978E+01 -0.4604118799345E+00 -0.1004002901608E+01
-0.3531506086834E+00 -0.2085620653560E+01 -0.4877542597168E+00 -0.1059501023662E+01
-0.4030796457318E+00 -0.2166541081199E+01 -0.5139241530443E+00 -0.1111480348920E+01
-0.4524078084820E+00 -0.2238988796602E+01 -0.5382793290379E+00 -0.1158029730033E+01
-0.4989670207606E+00 -0.2301769139738E+01 -0.5601472404465E+00 -0.1197198421083E+01
-0.5404894749376E+00 -0.2353487501151E+01 -0.5787954038424E+00 -0.1226781421621E+01
-0.5744327211519E+00 -0.2392610564076E+01 -0.5934086658880E+00 -0.1244185583666E+01
-0.5977617186013E+00 -0.2417585969123E+01 -0.6030695465314E+00 -0.1246389187426E+01
-0.6067133004515E+00 -0.2426976578025E+01 -0.6067379847364E+00 -0.1229956397040E+01
-0.5965092772251E+00 -0.2419625933365E+01 -0.6032270511068E+00 -0.1191060991659E+01
-0.5608755505027E+00 -0.2394821898553E+01 -0.5911394986198E+00 -0.1125484800158E+01
-0.4910888746396E+00 -0.2352523109639E+01 -0.5687224053304E+00 -0.1028584473574E+01
-0.3745444020729E+00 -0.2294212413720E+01 -0.5337513711120E+00 -0.8955843717300E+00
-0.1931121097373E+00 -0.2224309184784E+01 -0.4834842661087E+00 -0.7228068878674E+00
 0.7830833040479E-01 -0.2151543424114E+01 -0.4146470249205E+00 -0.5103044495736E+00
 0.4716733413855E+00 -0.2089628418928E+01 -0.3235910203304E+00 -0.2665767827195E+00
 0.1021460472669E+01 -0.2055409748145E+01 -0.2067898581767E+00 -0.1539463724553E-01
 0.1752652555374E+01 -0.2061773798994E+01 -0.6182424964533E-01  0.1976001310809E+00
 0.2659678476076E+01 -0.2103996300542E+01  0.1111364367630E+00  0.3049705816874E+00
 0.3682961786687E+01 -0.2144350385671E+01  0.3077222847885E+00  0.2334117581612E+00
 0.4701342099641E+01 -0.2108774655319E+01  0.5185134965909E+00 -0.6164960476989E-01
-0.7008918573703E-01 -0.3644176152064E+00 -0.8690136148362E-01 -0.1935679919305E+00
-0.4671731660584E-01 -0.3862853935068E+00 -0.8660054331297E-01 -0.2592597571092E+00
-0.4063219323396E-01 -0.4133732737526E+00 -0.9080109475036E-01 -0.3094378257417E+00
-0.4143901127635E-01 -0.4501632878962E+00 -0.9832046129960E-01 -0.3473512186358E+00
-0.4382750563583E-01 -0.4975257934208E+00 -0.1082706614247E+00 -0.3777545780858E+00
-0.4614887668132E-01 -0.5543099573637E+00 -0.1200917685985E+00 -0.4042692388707E+00
-0.4834661870127E-01 -0.6189771914072E+00 -0.1334647640105E+00 -0.4290164172702E+00
-0.5077597455811E-01 -0.6903019197769E+00 -0.1482155810756E+00 -0.4531638984067E+00
-0.5379889182213E-01 -0.7674527084617E+00 -0.1642503225043E+00 -0.4774417424563E+00
-0.5771902239956E-01 -0.8498886196778E+00 -0.1815215311204E+00 -0.5024214009846E+00
-0.6280825465984E-01 -0.9372559778937E+00 -0.2000128494911E+00 -0.5286361825793E+00
-0.6934499473059E-01 -0.1029313488949E+01 -0.2197317000101E+00 -0.5566293881203E+00
-0.7765224571569E-01 -0.1125872563337E+01 -0.2407049653974E+00 -0.5869721584371E+00
-0.8813882787069E-01 -0.1226735535461E+01 -0.2629748765849E+00 -0.6202636034710E+00
-0.1013443062899E+00 -0.1331613984383E+01 -0.2865916624051E+00 -0.6571082629247E+00
-0.1179782053053E+00 -0.1440033553079E+01 -0.3116023563201E+00 -0.6980599938318E+00
-0.1389195765546E+00 -0.1551224303524E+01 -0.3380287810528E+00 -0.7435113359918E+00
-0.1651188940642E+00 -0.1664033151338E+01 -0.3658304145317E+00 -0.7935292381703E+00
-0.1973636398552E+00 -0.1776918052345E+01 -0.3948563443238E+00 -0.8476986283226E+00
-0.2359328225102E+00 -0.1888011379495E+01 -0.4247888467308E+00 -0.9050251583072E+00
-0.2802281995379E+00 -0.1995297796332E+01 -0.4551052059556E+00 -0.9638297041235E+00
-0.3287697057560E+00 -0.2097008895098E+01 -0.4851557274002E+00 -0.1022004463659E+01
-0.3796205957583E+00 -0.2191776461004E+01 -0.5142794190158E+00 -0.1077541481433E+01
-0.4307609105881E+00 -0.2278340229378E+01 -0.5418202360669E+00 -0.1128637692771E+01
-0.4802186035520E+00 -0.2355265527270E+01 -0.5670968346148E+00 -0.1173474794200E+01
-0.5259951207694E+00 -0.2420861456537E+01 -0.5893713242437E+00 -0.1209965417740E+01
-0.5658700386863E+00 -0.2473245853687E+01 -0.6078231875320E+00 -0.1235595677067E+01
-0.5971674268438E+00 -0.2510462265035E+01 -0.6215259476372E+00 -0.1247377641809E+01
-0.6165261634687E+00 -0.2530592487796E+01 -0.6294237396321E+00 -0.1241859455704E+01
-0.6196420116706E+00 -0.2531876063392E+01 -0.6303036244048E+00 -0.1215120363525E+01
-0.6008153394989E+00 -0.2512795570037E+01 -0.6227221911865E+00 -0.1162681798745E+01
-0.5519594083277E+00 -0.2472204212056E+01 -0.6048327330894E+00 -0.1079289536207E+01
-0.4609329566001E+00 -0.2410188282373E+01 -0.5742242563511E+00 -0.9589151918447E+00
-0.3093266986405E+00 -0.2329696951791E+01 -0.5278047379512E+00 -0.7956477927717E+00
-0.6992592692953E-01 -0.2238471448545E+01 -0.4616794819744E+00 -0.5860952374720E+00
 0.2949102953967E+00 -0.2150839809223E+01 -0.3711859082963E+00 -0.3344546785435E+00
 0.8307383141185E+00 -0.2087369909078E+01 -0.2513263227370E+00 -0.6121575265709E-01
 0.1578807528275E+01 -0.2068251667729E+01 -0.9788882934948E-01  0.1860114389205E+00
 0.2549102504536E+01 -0.2096247396349E+01  0.9057102298708E-01  0.3272593996854E+00
 0.3683546223469E+01 -0.2132489213075E+01  0.3102114067014E+00  0.2653310679504E+00
 0.4834989157696E+01 -0.2084655069641E+01  0.5500668258076E+00 -0.6825341323462E-01
-0.4199986072916E-01 -0.2389204455726E+00 -0.5618406209757E-01 -0.1856733340859E+00
-0.2508987727962E-01 -0.2593887746085E+00 -0.5689573122543E-01 -0.2503141863855E+00
-0.2482787735228E-01 -0.2869155868887E+00 -0.6234869377726E-01 -0.2968513606345E+00
-0.2941260068306E-01 -0.3261913266176E+00 -0.7112078651992E-01 -0.3302782573281E+00
-0.3376818878605E-01 -0.3773356238502E+00 -0.8222076375244E-01 -0.3565789905114E+00
-0.3696903298644E-01 -0.4384350498126E+00 -0.9508081797661E-01 -0.3797012921643E+00
-0.3948341440597E-01 -0.5075728921807E+00 -0.1094112629477E+00 -0.4016384672034E+00
-0.4191581552465E-01 -0.5834357426988E+00 -0.1250703135084E+00 -0.4233572118161E+00
-0.4471793840503E-01 -0.6652271892121E+00 -0.1419890276392E+00 -0.4454382683908E+00
-0.4821550004448E-01 -0.7524784751611E+00 -0.1601387974274E+00 -0.4683572864837E+00
-0.5267622589972E-01 -0.8449203216400E+00 -0.1795193121830E+00 -0.4925863222756E+00
-0.5836337095095E-01 -0.9424055774786E+00 -0.2001537926684E+00 -0.5186308447628E+00
-0.6557995771556E-01 -0.1044853325130E+01 -0.2220866598785E+00 -0.5470450967126E+00
-0.7471490177182E-01 -0.1152191861940E+01 -0.2453813563989E+00 -0.5784365284075E+00
-0.8629695371997E-01 -0.1264278494364E+01 -0.2701150936419E+00 -0.6134534035478E+00
-0.1010518494480E+00 -0.1380797186873E+01 -0.2963698116804E+00 -0.6527412285904E+00
-0.1199293437657E+00 -0.1501125819678E+01 -0.3242110375198E+00 -0.6968376054601E+00
-0.1440280089189E+00 -0.1624211706285E+01 -0.3536479483105E+00 -0.7459921883411E+00
-0.1743502801365E+00 -0.1748534158533E+01 -0.3845768934646E+00 -0.7999713100666E+00
-0.2113994901379E+00 -0.1872159492096E+01 -0.4167118026563E+00 -0.8579202821555E+00
-0.2547387191256E+00 -0.1992938348802E+01 -0.4495354202840E+00 -0.9182260193130E+00
-0.3029684662023E+00 -0.2108942734800E+01 -0.4823822473886E+00 -0.9788067548273E+00
-0.3542117497180E+00 -0.2218638737527E+01 -0.5145701051167E+00 -0.1037725661268E+01
-0.4065624578218E+00 -0.2320571696793E+01 -0.5454268390505E+00 -0.1093315142136E+01
-0.4582521325734E+00 -0.2413064065204E+01 -0.5742632481127E+00 -0.1143919236837E+01
-0.5075692885850E+00 -0.2494132123733E+01 -0.6003402914094E+00 -0.1187598437190E+01
-0.5526383570532E+00 -0.2561556618688E+01 -0.6228390044293E+00 -0.1221950624633E+01
-0.5911666851486E+00 -0.2612998561047E+01 -0.6408330587883E+00 -0.1244063395185E+01
-0.6202251482678E+00 -0.2646089321244E+01 -0.6532629036368E+00 -0.1250533450735E+01
-0.6360411404476E+00 -0.2658494816246E+01 -0.6589072011573E+00 -0.1237450751952E+01
-0.6336202612094E+00 -0.2647895691226E+01 -0.6563032002668E+00 -0.1200234840501E+01
-0.6057824799699E+00 -0.2611963141189E+01 -0.6435491338214E+00 -0.1133226558216E+01
-0.5413361609396E+00 -0.2549147614957E+01 -0.6180967643898E+00 -0.1029352393686E+01
-0.4223598653569E+00 -0.2460404814738E+01 -0.5765529446103E+00 -0.8805453449871E+00
-0.2205178885807E+00 -0.2351561673455E+01 -0.5144159200725E+00 -0.6796106367761E+00
 0.1067882399578E+00 -0.2236340452801E+01 -0.4259104489153E+00 -0.4251360275169E+00
 0.6170904903545E+00 -0.2138267972657E+01 -0.3042355009940E+00 -0.1317224103686E+00
 0.1372427875376E+01 -0.2086011564957E+01 -0.1427167400429E+00  0.1540146870610E+00
 0.2406916153451E+01 -0.2093644351457E+01  0.6265436133242E-01  0.3394692965545E+00
 0.3671410704352E+01 -0.2124425692668E+01  0.3093970069471E+00  0.2961955600138E+00
 0.4988039755301E+01 -0.2063276260753E+01  0.5849527076260E+00 -0.8064624215431E-01
-0.1363364125262E-01 -0.1090289910222E+00 -0.2453252682052E-01 -0.1786180254750E+00
-0.4526249545953E-02 -0.1278867673209E+00 -0.2648260376799E-01 -0.2416188355026E+00
-0.1077950340090E-01 -0.1562417751595E+00 -0.3340425620984E-01 -0.2835441184314E+00
-0.1912088412013E-01 -0.1987517898809E+00 -0.4357453544953E-01 -0.3117780940227E+00
-0.2514251212723E-01 -0.2543621935601E+00 -0.5590094197046E-01 -0.3336795865592E+00
-0.2894424714921E-01 -0.3202259054935E+00 -0.6983403156915E-01 -0.3533436701495E+00
-0.3159316938592E-01 -0.3940844577172E+00 -0.8513552668923E-01 -0.3724673837816E+00
-0.3392244198971E-01 -0.4746114837455E+00 -0.1017067866626E+00 -0.3917437806836E+00
-0.3644502178478E-01 -0.5610928652871E+00 -0.1195075791952E+00 -0.4115853518081E+00
-0.3949120607741E-01 -0.6531550798839E+00 -0.1385292592565E+00 -0.4323681417133E+00
-0.4331442404559E-01 -0.7506248303633E+00 -0.1587878532479E+00 -0.4545005661540E+00
-0.4815533741179E-01 -0.8534562947139E+00 -0.1803223291121E+00 -0.4784460051974E+00
-0.5428911493907E-01 -0.9616830822082E+00 -0.2031944424573E+00 -0.5047347477168E+00
-0.6207369518460E-01 -0.1075369748344E+01 -0.2274886920956E+00 -0.5339726964798E+00
-0.7201005522484E-01 -0.1194537873038E+01 -0.2533095894272E+00 -0.5668407973491E+00
-0.8481645673531E-01 -0.1319061838794E+01 -0.2807756632898E+00 -0.6040691531272E+00
-0.1014879620509E+00 -0.1448514653716E+01 -0.3100005277728E+00 -0.6463460275243E+00
-0.1232563100161E+00 -0.1581999085047E+01 -0.3410510840947E+00 -0.6941281682768E+00
-0.1513437396779E+00 -0.1718063824786E+01 -0.3738815184641E+00 -0.7474010203037E+00
-0.1864943422265E+00 -0.1854738623994E+01 -0.4082465993275E+00 -0.8054861020304E+00
-0.2284407710632E+00 -0.1989747771369E+01 -0.4436377150971E+00 -0.8668621088330E+00
-0.2758552804716E+00 -0.2120995474641E+01 -0.4793701581658E+00 -0.9294927444018E+00
-0.3269055859467E+00 -0.2246768208393E+01 -0.5147347665382E+00 -0.9915356938738E+00
-0.3797932268749E+00 -0.2365404539158E+01 -0.5490395613879E+00 -0.1051486813844E+01
-0.4329608353574E+00 -0.2474979131101E+01 -0.5815880019580E+00 -0.1107880738024E+01
-0.4850012744999E+00 -0.2573221698190E+01 -0.6116446036523E+00 -0.1158953265187E+01
-0.5344042174140E+00 -0.2657594298717E+01 -0.6383997127390E+00 -0.1202443340323E+01
-0.5792773676478E+00 -0.2725407689445E+01 -0.6609370212673E+00 -0.1235551822042E+01
-0.6171373428292E+00 -0.2773892184253E+01 -0.6782059155224E+00 -0.1254985215198E+01
-0.6447732219240E+00 -0.2800203568237E+01 -0.6889953682990E+00 -0.1256953500218E+01
-0.6579919542196E+00 -0.2801277225316E+01 -0.6918538462165E+00 -0.1236956125846E+01
-0.6507608639201E+00 -0.2773602872980E+01 -0.6848727575855E+00 -0.1189194842337E+01
-0.6133272590899E+00 -0.2713850361112E+01 -0.6654355339561E+00 -0.1105883719823E+01
-0.5291357995660E+00 -0.2620526769675E+01 -0.6299325232349E+00 -0.9771059563022E+00
-0.3701062836424E+00 -0.2496524302380E+01 -0.5733261257478E+00 -0.7918351166077E+00
-0.9024867890854E-01 -0.2353229979781E+01 -0.4886957390201E+00 -0.5419571700185E+00
 0.3797723979274E+00 -0.2215337143220E+01 -0.3671129545290E+00 -0.2330645316619E+00
 0.1127364806318E+01 -0.2120336684712E+01 -0.1985943786381E+00  0.9403540105738E-01
 0.2222695604670E+01 -0.2098454047319E+01  0.2484831184065E-01  0.3361949543936E+00
 0.3639081511814E+01 -0.2121208382669E+01  0.3035746303525E+00  0.3251725511076E+00
 0.5164302456745E+01 -0.2045832654126E+01  0.6236939698175E+00 -0.9955477550080E-01
 0.1492594395468E-01  0.2588116184642E-01  0.8161421281834E-02 -0.1726139199620E+00
 0.1458038342940E-01  0.8810399385323E-02  0.4678156632654E-02 -0.2331277792992E+00
 0.1130211729289E-02 -0.2102765118996E-01 -0.3979487951434E-02 -0.2692065384909E+00
-0.1075236467244E-01 -0.6779161405288E-01 -0.1570879597914E-01 -0.2915103665186E+00
-0.1799638377143E-01 -0.1286675478508E+00 -0.2933278676154E-01 -0.3088226666800E+00
-0.2207296069024E-01 -0.1997452286444E+00 -0.4436363852800E-01 -0.3250665338797E+00
-0.2467412146732E-01 -0.2785423442344E+00 -0.6064329404399E-01 -0.3414361359366E+00
-0.2680587073795E-01 -0.3638283447370E+00 -0.7812684425917E-01 -0.3582925088147E+00
-0.2900330522127E-01 -0.4550222377759E+00 -0.9680511004193E-01 -0.3758758450498E+00
-0.3158275864805E-01 -0.5518661233791E+00 -0.1166897781442E+00 -0.3944654930055E+00
-0.3477403230741E-01 -0.6542915335173E+00 -0.1378131152185E+00 -0.4144065374277E+00
-0.3878899125987E-01 -0.7623584346417E+00 -0.1602294875679E+00 -0.4361169471787E+00
-0.4386858038378E-01 -0.8762187846663E+00 -0.1840174757521E+00 -0.4600956400078E+00
-0.5033018742799E-01 -0.9960801363604E+00 -0.2092820678762E+00 -0.4869351041464E+00
-0.5863056811350E-01 -0.1122143368418E+01 -0.2361547908252E+00 -0.5173334379664E+00
-0.6945425616192E-01 -0.1254504380570E+01 -0.2647917312922E+00 -0.5520909504390E+00
-0.8380900524313E-01 -0.1392984261003E+01 -0.2953586576504E+00 -0.5920444903157E+00
-0.1030356562525E+00 -0.1536910257124E+01 -0.3279891875627E+00 -0.6378797763440E+00
-0.1285766325701E+00 -0.1684966014031E+01 -0.3627085347251E+00 -0.6898445614233E+00
-0.1614351104915E+00 -0.1835187362090E+01 -0.3993245004667E+00 -0.7474824456129E+00
-0.2015239469473E+00 -0.1985183337667E+01 -0.4373414634397E+00 -0.8093977428054E+00
-0.2475773836691E+00 -0.2132675772736E+01 -0.4760506383748E+00 -0.8736250938959E+00
-0.2977911234386E+00 -0.2275746110746E+01 -0.5147074545067E+00 -0.9384437107531E+00
-0.3504683303081E+00 -0.2412503674911E+01 -0.5525944092781E+00 -0.1002540509934E+01
-0.4042709411304E+00 -0.2540766802855E+01 -0.5890075575739E+00 -0.1064664995494E+01
-0.4581129380589E+00 -0.2657988386084E+01 -0.6232202741152E+00 -0.1123250865264E+01
-0.5108673763188E+00 -0.2761337778667E+01 -0.6544410407492E+00 -0.1176203017428E+01
-0.5610531021785E+00 -0.2847817624781E+01 -0.6817741555511E+00 -0.1220867414109E+01
-0.6066293443985E+00 -0.2914323000601E+01 -0.7041904794931E+00 -0.1254113020197E+01
-0.6449435230836E+00 -0.2957595730679E+01 -0.7205078614889E+00 -0.1272373558646E+01
-0.6726514979582E+00 -0.2973942359351E+01 -0.7293187823295E+00 -0.1271420317291E+01
-0.6850519835983E+00 -0.2958770572053E+01 -0.7287645219896E+00 -0.1245626774066E+01
-0.6742728282850E+00 -0.2906971869482E+01 -0.7162489502263E+00 -0.1186944163384E+01
-0.6260302746503E+00 -0.2814323937005E+01 -0.6880708525842E+00 -0.1084171627164E+01
-0.5141882378864E+00 -0.2679836667162E+01 -0.6388049905286E+00 -0.9229061118703E+00
-0.2919383823059E+00 -0.2510422711681E+01 -0.5604722271491E+00 -0.6878348613654E+00
 0.1198351351486E+00 -0.2328753438818E+01 -0.4417836673170E+00 -0.3723246097815E+00
 0.8373717763440E+00 -0.2179616922481E+01 -0.2684490332276E+00 -0.4292223994322E-02
 0.1982535678241E+01 -0.2114670214746E+01 -0.2642690769484E-01  0.3087961325531E+00
 0.3574827401737E+01 -0.2124366236440E+01  0.2900922373821E+00  0.3503879762797E+00
 0.5368698380817E+01 -0.2034120304952E+01  0.6669156251108E+00 -0.1257657355454E+00
 0.4353875921568E-01  0.1666255678344E+00  0.4203286603635E-01 -0.1679230737961E+00
 0.3168928448408E-01  0.1514173597218E+00  0.3662132938688E-01 -0.2247064639793E+00
 0.1045390741123E-01  0.1190152972959E+00  0.2589384132727E-01 -0.2533743905759E+00
-0.4460290830096E-02  0.6662869709620E-01  0.1243368143850E-01 -0.2690502090533E+00
-0.1232229164799E-01 -0.3999901482137E-03 -0.2544456397156E-02 -0.2817646110914E+00
-0.1632028496951E-01 -0.7709849761919E-01 -0.1868375679615E-01 -0.2947545993132E+00
-0.1870736206466E-01 -0.1609984026451E+00 -0.3594115347751E-01 -0.3084917698462E+00
-0.2056580557214E-01 -0.2510994735915E+00 -0.5433305664236E-01 -0.3229832062262E+00
-0.2240830158006E-01 -0.3469989102833E+00 -0.7388144347359E-01 -0.3383120093612E+00
-0.2452027927201E-01 -0.4485693940389E+00 -0.9461793607209E-01 -0.3546700616444E+00
-0.2710022930538E-01 -0.5558524689590E+00 -0.1165905413902E+00 -0.3723419667149E+00
-0.3032674692053E-01 -0.6690150894138E+00 -0.1398683693511E+00 -0.3916979535202E+00
-0.3440216920048E-01 -0.7883278885508E+00 -0.1645460140022E+00 -0.4131980468966E+00
-0.3959607071462E-01 -0.9141437186210E+00 -0.1907479607095E+00 -0.4374078965541E+00
-0.4630646540925E-01 -0.1046852327624E+01 -0.2186317618646E+00 -0.4650227997504E+00
-0.5515678246652E-01 -0.1186798171744E+01 -0.2483909945434E+00 -0.4968899768909E+00
-0.6712718885255E-01 -0.1334106914650E+01 -0.2802468248765E+00 -0.5339811167689E+00
-0.8363104727810E-01 -0.1488415664350E+01 -0.3144093470107E+00 -0.5772260509782E+00
-0.1063232454355E+00 -0.1648633378333E+01 -0.3509913299838E+00 -0.6271829403001E+00
-0.1364853377791E+00 -0.1812865405174E+01 -0.3898701544002E+00 -0.6836760509347E+00
-0.1742240332704E+00 -0.1978622952014E+01 -0.4305694034729E+00 -0.7454819773078E+00
-0.2183256339402E+00 -0.2143420914561E+01 -0.4723493167388E+00 -0.8107419775576E+00
-0.2669971884977E+00 -0.2305091447486E+01 -0.5144177348622E+00 -0.8778891690506E+00
-0.3186398904495E+00 -0.2461475909240E+01 -0.5560231682233E+00 -0.9458269535365E+00
-0.3721449581924E+00 -0.2610122221602E+01 -0.5964534448468E+00 -0.1013536198523E+01
-0.4267632129136E+00 -0.2748221486315E+01 -0.6349969493079E+00 -0.1079663281515E+01
-0.4817667424140E+00 -0.2872686207038E+01 -0.6708905998874E+00 -0.1142298860528E+01
-0.5360918510362E+00 -0.2980261893595E+01 -0.7032707594058E+00 -0.1198959530263E+01
-0.5881222048994E+00 -0.3067585509616E+01 -0.7311415537979E+00 -0.1246716060139E+01
-0.6357236074042E+00 -0.3131108352251E+01 -0.7533664031570E+00 -0.1282312375727E+01
-0.6763879608415E+00 -0.3166684714859E+01 -0.7686145465934E+00 -0.1301975181851E+01
-0.7068462280071E+00 -0.3168854677399E+01 -0.7751401926317E+00 -0.1300579455086E+01
-0.7214429598106E+00 -0.3130931447214E+01 -0.7704748928860E+00 -0.1270350081881E+01
-0.7089796093546E+00 -0.3045978054974E+01 -0.7509915440563E+00 -0.1199617237806E+01
-0.6470721947701E+00 -0.2908503651439E+01 -0.7111151798383E+00 -0.1071649630258E+01
-0.4916401820752E+00 -0.2718752860454E+01 -0.6420786180735E+00 -0.8645199940500E+00
-0.1585566196618E+00 -0.2492655154511E+01 -0.5302423627357E+00 -0.5569804717778E+00
 0.4973479315385E+00 -0.2277318893567E+01 -0.3559941977104E+00 -0.1548316982231E+00
 0.1668189891215E+01 -0.2149678607398E+01 -0.9629774467160E-01  0.2433246127330E+00
 0.3459831420843E+01 -0.2136393726889E+01  0.2646875427349E+00  0.3676026625040E+00
 0.5607547443122E+01 -0.2031039205965E+01  0.7153016580903E+00 -0.1601733272130E+00
 0.7197117509591E-01  0.3143148202287E+00  0.7725720021614E-01 -0.1648705810113E+00
 0.4604716881967E-01  0.3008021706148E+00  0.6936986892059E-01 -0.2160524237788E+00
 0.1669096953939E-01  0.2640661537834E+00  0.5615142550127E-01 -0.2353576816060E+00
-0.3180021609887E-03  0.2042683692247E+00  0.4079007402057E-01 -0.2438908856733E+00
-0.8038682063551E-02  0.1301918152436E+00  0.2443062700006E-01 -0.2522782255656E+00
-0.1161700139095E-01  0.4757167180576E-01  0.7190934190116E-02 -0.2623208597544E+00
-0.1365898730636E-01 -0.4152201273885E-01 -0.1103620017349E-01 -0.2735994209539E+00
-0.1519260561425E-01 -0.1364504460465E+00 -0.3032861078408E-01 -0.2858080284662E+00
-0.1666817118841E-01 -0.2370170227452E+00 -0.5073703954276E-01 -0.2989060780030E+00
-0.1832722950711E-01 -0.3432329722595E+00 -0.7231204143085E-01 -0.3130118274048E+00
-0.2033155905949E-01 -0.4552505281261E+00 -0.9511641885445E-01 -0.3283545114300E+00
-0.2282417957246E-01 -0.5733412175800E+00 -0.1192330812072E+00 -0.3452552064948E+00
-0.2596676756956E-01 -0.6978909325588E+00 -0.1447715421829E+00 -0.3641277213647E+00
-0.2997685437083E-01 -0.8293950523053E+00 -0.1718743838964E+00 -0.3854965959178E+00
-0.3518282801447E-01 -0.9684343631498E+00 -0.2007234412239E+00 -0.4100307199590E+00
-0.4212107626078E-01 -0.1115620560508E+01 -0.2315483308042E+00 -0.4385911238356E+00
-0.5169702216701E-01 -0.1271439213678E+01 -0.2646272511122E+00 -0.4722539808500E+00
-0.6534350872782E-01 -0.1435940094896E+01 -0.3002567251990E+00 -0.5121944489551E+00
-0.8490622655339E-01 -0.1608382667104E+01 -0.3386577837778E+00 -0.5593313271266E+00
-0.1119628321248E+00 -0.1787038941732E+01 -0.3798003604308E+00 -0.6138450995298E+00
-0.1468307910319E+00 -0.1969351856320E+01 -0.4232365357771E+00 -0.6747519034742E+00
-0.1883397951777E+00 -0.2152589239507E+01 -0.4681858139135E+00 -0.7403528394914E+00
-0.2346950922115E+00 -0.2334258971733E+01 -0.5137908204450E+00 -0.8092754337951E+00
-0.2843987045441E+00 -0.2511870153315E+01 -0.5592537799052E+00 -0.8806594773008E+00
-0.3365842618406E+00 -0.2682678423570E+01 -0.6038525460803E+00 -0.9537196917060E+00
-0.3908524209761E+00 -0.2843637010334E+01 -0.6468978959016E+00 -0.1027317654050E+01
-0.4468859145923E+00 -0.2991452124115E+01 -0.6876676179886E+00 -0.1099744471574E+01
-0.5040429701312E+00 -0.3122671803843E+01 -0.7253429656034E+00 -0.1168708928588E+01
-0.5611039242290E+00 -0.3233754805574E+01 -0.7589717572701E+00 -0.1231507122659E+01
-0.6163773385964E+00 -0.3320999900513E+01 -0.7874754595562E+00 -0.1285249384605E+01
-0.6681101239857E+00 -0.3380037320436E+01 -0.8096295009487E+00 -0.1326769395514E+01
-0.7144612239448E+00 -0.3404874805063E+01 -0.8238672180782E+00 -0.1351754675980E+01
-0.7521652895389E+00 -0.3387686410128E+01 -0.8279703522712E+00 -0.1353272575973E+01
-0.7736961098015E+00 -0.3319246514282E+01 -0.8185885370146E+00 -0.1320186578972E+01
-0.7620349783921E+00 -0.3189575753236E+01 -0.7903221581024E+00 -0.1235069516196E+01
-0.6799048537690E+00 -0.2990697832387E+01 -0.7341205481704E+00 -0.1071476207036E+01
-0.4462834233859E+00 -0.2726134860934E+01 -0.6344836663186E+00 -0.7935686916263E+00
 0.1059627356002E+00 -0.2435078266940E+01 -0.4658231132092E+00 -0.3752648174913E+00
 0.1256710432006E+01 -0.2217696763877E+01 -0.1921972692381E+00  0.1172231329887E+00
 0.3263281038166E+01 -0.2162032865007E+01  0.2202496379138E+00  0.3672544400089E+00
 0.5888544304044E+01 -0.2041684887365E+01  0.7693718948003E+00 -0.2040743296219E+00
 0.9983149324986E-01  0.4705401192251E+00  0.1140743241948E+00 -0.1638556561395E+00
 0.5659265331259E-01  0.4580022872719E+00  0.1029189896505E+00 -0.2065413691723E+00
 0.1933313948620E-01  0.4140419078003E+00  0.8667501074886E-01 -0.2141461547888E+00
 0.1753179706871E-02  0.3446178522684E+00  0.6927420742733E-01 -0.2154796138548E+00
-0.4972972328368E-02  0.2627633454951E+00  0.5155807540162E-01 -0.2201973264994E+00
-0.7866041552031E-02  0.1741002128823E+00  0.3324683476147E-01 -0.2277192551814E+00
-0.9484072693710E-02  0.7980454874151E-01  0.1406409541913E-01 -0.2367444251356E+00
-0.1066855382151E-01 -0.1991721675438E-01 -0.6117154206331E-02 -0.2467725529544E+00
-0.1178430505494E-01 -0.1250803647681E+00 -0.2737293437249E-01 -0.2576804763073E+00
-0.1302037325099E-01 -0.2358353046241E+00 -0.4977113631667E-01 -0.2695298262378E+00
-0.1449937632579E-01 -0.3524401834081E+00 -0.7338791304034E-01 -0.2825013323267E+00
-0.1632892000898E-01 -0.4752651164038E+00 -0.9831880874762E-01 -0.2968661558481E+00
-0.1863043191222E-01 -0.6048040586165E+00 -0.1246868999637E+00 -0.3129851264959E+00
-0.2156867930006E-01 -0.7416868242555E+00 -0.1526511029858E+00 -0.3313274694917E+00
-0.2539688934927E-01 -0.8866785386573E+00 -0.1824150883195E+00 -0.3525100777565E+00
-0.3054380767521E-01 -0.1040663233855E+01 -0.2142414114985E+00 -0.3773655679813E+00
-0.3778928060992E-01 -0.1204531751026E+01 -0.2484642100296E+00 -0.4070224658763E+00
-0.4851237996739E-01 -0.1378863958646E+01 -0.2854752719765E+00 -0.4428769429013E+00
-0.6470492930829E-01 -0.1563443013036E+01 -0.3256295933212E+00 -0.4862532759523E+00
-0.8825108949175E-01 -0.1756860584364E+01 -0.3690223402701E+00 -0.5377853524645E+00
-0.1196982281707E+00 -0.1956544728373E+01 -0.4152485974965E+00 -0.5968297016317E+00
-0.1579145010736E+00 -0.2159451509452E+01 -0.4634732090115E+00 -0.6619310692844E+00
-0.2011002793818E+00 -0.2362639080090E+01 -0.5127478795349E+00 -0.7319642390022E+00
-0.2478743070160E+00 -0.2563180455903E+01 -0.5622109609614E+00 -0.8063135184920E+00
-0.2976306739694E+00 -0.2758007197724E+01 -0.6111275834451E+00 -0.8844059954864E+00
-0.3503265973162E+00 -0.2943873674422E+01 -0.6588400641650E+00 -0.9653019013219E+00
-0.4060587452371E+00 -0.3117354003664E+01 -0.7046825602807E+00 -0.1047502731765E+01
-0.4646123724283E+00 -0.3274870016181E+01 -0.7478964888664E+00 -0.1128933748087E+01
-0.5251375326104E+00 -0.3412773138728E+01 -0.7875821460035E+00 -0.1207126829038E+01
-0.5862818389114E+00 -0.3527338676885E+01 -0.8227241154188E+00 -0.1279571832278E+01
-0.6468961502558E+00 -0.3614230998351E+01 -0.8522254424204E+00 -0.1343799850100E+01
-0.7064459369522E+00 -0.3667374072701E+01 -0.8747640149656E+00 -0.1396555148314E+01
-0.7640172554610E+00 -0.3678502936916E+01 -0.8885040517151E+00 -0.1432268034931E+01
-0.8159895434122E+00 -0.3637033210596E+01 -0.8906045640727E+00 -0.1441412063237E+01
-0.8517814615270E+00 -0.3529396477349E+01 -0.8762356008321E+00 -0.1407909593801E+01
-0.8445262436942E+00 -0.3339405992259E+01 -0.8367864596597E+00 -0.1304440529288E+01
-0.7271006021438E+00 -0.3053588321273E+01 -0.7561377959508E+00 -0.1084995409849E+01
-0.3292859482585E+00 -0.2687144721414E+01 -0.6032861429243E+00 -0.6859585571345E+00
 0.7220964502980E+00 -0.2346871810582E+01 -0.3249550768991E+00 -0.1055228426915E+00
 0.2933944336961E+01 -0.2211820818884E+01  0.1444247057675E+00  0.3278487975556E+00
 0.6219359498542E+01 -0.2075898924899E+01  0.8286921270771E+00 -0.2604927978084E+00
 0.1264556806456E+00  0.6377310764077E+00  0.1528373536881E+00 -0.1653447137708E+00
 0.6181872674357E-01  0.6241743652389E+00  0.1371986204409E+00 -0.1949174061282E+00
 0.1798911275368E-01  0.5682853038052E+00  0.1172548850590E+00 -0.1883078781859E+00
 0.2090385263931E-02  0.4868125595682E+00  0.9778059042347E-01 -0.1833290809911E+00
-0.2864293462139E-02  0.3969230686491E+00  0.7881175621179E-01 -0.1854766918599E+00
-0.4959693946079E-02  0.3023192863998E+00  0.5947191937694E-01 -0.1909477742863E+00
-0.6130518966215E-02  0.2028897499162E+00  0.3935184677638E-01 -0.1979327741340E+00
-0.6969414520509E-02  0.9845704633051E-01  0.1829752663465E-01 -0.2058965734005E+00
-0.7752238024381E-02 -0.1120137821540E-01 -0.3790723304442E-02 -0.2146674419031E+00
-0.8609787236753E-02 -0.1263650981527E+00 -0.2699497748015E-01 -0.2242716952493E+00
-0.9627397960951E-02 -0.2473880043926E+00 -0.5140308123668E-01 -0.2348483901867E+00
-0.1087964381143E-01 -0.3747296706791E+00 -0.7712186404731E-01 -0.2466185274733E+00
-0.1245057802284E-01 -0.5089812743788E+00 -0.1042863720343E+00 -0.2598841218867E+00
-0.1445508661201E-01 -0.6508938743036E+00 -0.1330697941660E+00 -0.2750458934640E+00
-0.1707220019662E-01 -0.8014009793744E+00 -0.1636946383534E+00 -0.2926436194823E+00
-0.2061273539819E-01 -0.9616456188842E+00 -0.1964516737838E+00 -0.3134336345558E+00
-0.2568384409630E-01 -0.1132945098150E+01 -0.2317257919022E+00 -0.3385196970928E+00
-0.3351591566544E-01 -0.1316529480325E+01 -0.2700090832216E+00 -0.3694518084426E+00
-0.4616585789823E-01 -0.1512941710067E+01 -0.3118215182395E+00 -0.4079817919114E+00
-0.6581533895029E-01 -0.1721340658192E+01 -0.3574312047547E+00 -0.4553188872985E+00
-0.9325875145978E-01 -0.1939240581369E+01 -0.4064998726231E+00 -0.5113166646048E+00
-0.1274060192715E+00 -0.2163181099966E+01 -0.4581174306741E+00 -0.5749015917608E+00
-0.1664721284779E+00 -0.2389560927586E+01 -0.5112066188303E+00 -0.6452668971619E+00
-0.2092324524200E+00 -0.2614853216816E+01 -0.5648171422636E+00 -0.7220257892611E+00
-0.2553664118920E+00 -0.2835622958843E+01 -0.6181978833588E+00 -0.8047567204138E+00
-0.3051820551853E+00 -0.3048489433272E+01 -0.6707343076862E+00 -0.8926729720849E+00
-0.3591758906843E+00 -0.3250006893024E+01 -0.7218365674978E+00 -0.9844912545621E+00
-0.4175659498927E+00 -0.3436564090636E+01 -0.7708260195919E+00 -0.1078392856094E+01
-0.4798623486719E+00 -0.3604453892513E+01 -0.8168632604091E+00 -0.1172156160105E+01
-0.5449388217494E+00 -0.3750008535169E+01 -0.8589894841836E+00 -0.1263611660267E+01
-0.6120349201431E+00 -0.3869171723389E+01 -0.8962413420614E+00 -0.1350980124816E+01
-0.6816834569506E+00 -0.3956326549964E+01 -0.9276020152052E+00 -0.1432182530740E+01
-0.7550478418743E+00 -0.4003725187287E+01 -0.9517546200145E+00 -0.1503385517563E+01
-0.8321691133269E+00 -0.4000900199439E+01 -0.9666138769568E+00 -0.1557653783703E+01
-0.9092110984718E+00 -0.3932647652135E+01 -0.9683717645511E+00 -0.1582450402729E+01
-0.9716181047112E+00 -0.3776793008524E+01 -0.9496822367983E+00 -0.1554052653597E+01
-0.9761126048874E+00 -0.3503052413226E+01 -0.8958330169716E+00 -0.1426014123978E+01
-0.7832752161909E+00 -0.3085438004062E+01 -0.7737426555803E+00 -0.1104903736593E+01
 0.4296874173309E-01 -0.2593613316073E+01 -0.5101289224696E+00 -0.4800607593989E+00
 0.2386412148275E+01 -0.2312277869955E+01  0.1482685588494E-01  0.2012912157534E+00
 0.6601544712970E+01 -0.2154641760227E+01  0.8893806038015E+00 -0.3393397284374E+00
 0.1507103666466E+00  0.8199199619674E+00  0.1941260686155E+00 -0.1697809546461E+00
 0.5958636147120E-01  0.8002792777980E+00  0.1719731304164E+00 -0.1786427671252E+00
 0.1268851001837E-01  0.7249429203783E+00  0.1475262882776E+00 -0.1559743672176E+00
 0.1417011482947E-02  0.6296629952081E+00  0.1262160032190E+00 -0.1472795582389E+00
-0.1421123977247E-02  0.5323495862186E+00  0.1061856940306E+00 -0.1482326486648E+00
-0.2802615170621E-02  0.4320617395778E+00  0.8585182616073E-01 -0.1520330040371E+00
-0.3539156748832E-02  0.3276388664601E+00  0.6481994290815E-01 -0.1571943973177E+00
-0.4067611695654E-02  0.2186258744708E+00  0.4291165319446E-01 -0.1632132905140E+00
-0.4562448489880E-02  0.1045993165013E+00  0.2000737390042E-01 -0.1699081610716E+00
-0.5098915971125E-02 -0.1482096333259E-01 -0.3983975920109E-02 -0.1772930899579E+00
-0.5731413809974E-02 -0.1400731682567E+00 -0.2916091684786E-01 -0.1854694839957E+00
-0.6505195471143E-02 -0.2716934219842E+00 -0.5563972432017E-01 -0.1946090792630E+00
-0.7472379632711E-02 -0.4103564879587E+00 -0.8356577476351E-01 -0.2049501960181E+00
-0.8704082971072E-02 -0.5569168245433E+00 -0.1131241831886E+00 -0.2168138648740E+00
-0.1031252507546E-01 -0.7124520690419E+00 -0.1445529209775E+00 -0.2306405766086E+00
-0.1249519144683E-01 -0.8783308158859E+00 -0.1781652041214E+00 -0.2470638987557E+00
-0.1565668669380E-01 -0.1056275243218E+01 -0.2143863891769E+00 -0.2670643621904E+00
-0.2076797057136E-01 -0.1248257194362E+01 -0.2538050367686E+00 -0.2922133386965E+00
-0.2981569273605E-01 -0.1455887787351E+01 -0.2971407004452E+00 -0.3246522311183E+00
-0.4522613678209E-01 -0.1679304299822E+01 -0.3449060924602E+00 -0.3663076519057E+00
-0.6804363335142E-01 -0.1916306291842E+01 -0.3968699909525E+00 -0.4177820508165E+00
-0.9723994545011E-01 -0.2162843341040E+01 -0.4520166640336E+00 -0.4786204576089E+00
-0.1311106745537E+00 -0.2414300897032E+01 -0.5090823219031E+00 -0.5484311558029E+00
-0.1686688225620E+00 -0.2666300196748E+01 -0.5669938123109E+00 -0.6269934459966E+00
-0.2099116105446E+00 -0.2914990617771E+01 -0.6249804549760E+00 -0.7139133408011E+00
-0.2554704675549E+00 -0.3156958845782E+01 -0.6824858728372E+00 -0.8084694603078E+00
-0.3061945499119E+00 -0.3388908677180E+01 -0.7390206564307E+00 -0.9095898037978E+00
-0.3627327586185E+00 -0.3607335259010E+01 -0.7940136153575E+00 -0.1015783871942E+01
-0.4249862547946E+00 -0.3808494221475E+01 -0.8466961078706E+00 -0.1125121541503E+01
-0.4919690480200E+00 -0.3988739750207E+01 -0.8961417729989E+00 -0.1235685776275E+01
-0.5630537894672E+00 -0.4144448486053E+01 -0.9415004691334E+00 -0.1346233612260E+01
-0.6394778853031E+00 -0.4271065551507E+01 -0.9821087019965E+00 -0.1455776223504E+01
-0.7240032067628E+00 -0.4362580064850E+01 -0.1017316669482E+01 -0.1562366322422E+01
-0.8195255909353E+00 -0.4410553622626E+01 -0.1046015858299E+01 -0.1662301333118E+01
-0.9282799937364E+00 -0.4401290094079E+01 -0.1065914033447E+01 -0.1748597137550E+01
-0.1048054680064E+01 -0.4311031453976E+01 -0.1071817242779E+01 -0.1805402851778E+01
-0.1161677324589E+01 -0.4100485712308E+01 -0.1052432623062E+01 -0.1797563061456E+01
-0.1200559761683E+01 -0.3700796669234E+01 -0.9802713007905E+00 -0.1633850794372E+01
-0.7738165413913E+00 -0.3069712698011E+01 -0.7687058593351E+00 -0.1081951586558E+01
 0.1482205225615E+01 -0.2535879909254E+01 -0.2107349398680E+00 -0.1187949183017E+00
 0.7008834060247E+01 -0.2327733462493E+01  0.9362201335016E+00 -0.4765912262224E+00
 0.1707112092541E+00  0.1024627656162E+01  0.2390677766456E+00 -0.1771285069939E+00
 0.4690590747935E-01  0.9856903759563E+00  0.2065192597645E+00 -0.1524737434920E+00
 0.4600927646904E-02  0.8798779167146E+00  0.1768957715083E+00 -0.1153042187520E+00
 0.8866034225117E-03  0.7721868731801E+00  0.1546146976245E+00 -0.1079721430842E+00
-0.4904184950267E-03  0.6688819307715E+00  0.1336783044473E+00 -0.1086441272491E+00
-0.1303212603716E-02  0.5631306377075E+00  0.1123654866951E+00 -0.1110216000121E+00
-0.1645524403569E-02  0.4539788516619E+00  0.9046666679971E-01 -0.1145905857489E+00
-0.1938183793113E-02  0.3405359977683E+00  0.6771956380414E-01 -0.1187631832786E+00
-0.2199356656227E-02  0.2222955210713E+00  0.4401923353895E-01 -0.1234533441874E+00
-0.2485420958095E-02  0.9878830007465E-01  0.1926057611032E-01 -0.1286562709504E+00
-0.2818852153658E-02 -0.3048771302820E-01 -0.6661313135633E-02 -0.1344452945214E+00
-0.3224005141865E-02 -0.1661314849975E+00 -0.3387109853260E-01 -0.1409420904168E+00
-0.3727419106975E-02 -0.3088851431312E+00 -0.6252251337928E-01 -0.1483182949533E+00
-0.4365748068987E-02 -0.4596851925637E+00 -0.9281018950951E-01 -0.1568068414358E+00
-0.5196645518731E-02 -0.6197221378671E+00 -0.1249837585396E+00 -0.1667313287746E+00
-0.6324258619751E-02 -0.7905411211546E+00 -0.1593730783297E+00 -0.1785659693796E+00
-0.7957765202781E-02 -0.9741912650132E+00 -0.1964298089702E+00 -0.1930670617628E+00
-0.1070597833972E-01 -0.1173383800475E+01 -0.2368179592918E+00 -0.2116114953240E+00
-0.1627694367736E-01 -0.1391155478769E+01 -0.2814864886837E+00 -0.2365563996643E+00
-0.2719568012631E-01 -0.1629323383106E+01 -0.3313038175832E+00 -0.2706758660791E+00
-0.4471386505747E-01 -0.1886381816805E+01 -0.3862191421275E+00 -0.3157420933707E+00
-0.6791946527315E-01 -0.2157385772482E+01 -0.4450610541830E+00 -0.3723414666422E+00
-0.9534799349526E-01 -0.2436100011156E+01 -0.5062896084745E+00 -0.4406224009196E+00
-0.1263973627293E+00 -0.2716919511118E+01 -0.5686633832433E+00 -0.5203739316837E+00
-0.1614182222435E+00 -0.2995538514185E+01 -0.6313913566941E+00 -0.6110096929863E+00
-0.2013039357848E+00 -0.3268672905044E+01 -0.6939953785071E+00 -0.7117306769112E+00
-0.2471546930932E+00 -0.3533420343417E+01 -0.7561150185689E+00 -0.8216535626527E+00
-0.3000130977880E+00 -0.3786612760105E+01 -0.8173251837577E+00 -0.9397335064831E+00
-0.3602649396165E+00 -0.4024493478626E+01 -0.8769516967160E+00 -0.1064480466919E+01
-0.4270837192176E+00 -0.4243182006801E+01 -0.9340531591223E+00 -0.1194135425812E+01
-0.4997138466040E+00 -0.4439381652861E+01 -0.9878191146126E+00 -0.1327611422534E+01
-0.5796458072114E+00 -0.4610251469417E+01 -0.1037979470793E+01 -0.1464609643624E+01
-0.6704553783239E+00 -0.4753001985125E+01 -0.1084691488853E+01 -0.1604883782354E+01
-0.7769461669184E+00 -0.4863515662780E+01 -0.1128092382750E+01 -0.1748282691544E+01
-0.9048470617978E+00 -0.4933205223888E+01 -0.1167610474536E+01 -0.1894143422618E+01
-0.1063895826423E+01 -0.4944522916460E+01 -0.1201683766483E+01 -0.2038953320290E+01
-0.1255778153437E+01 -0.4860181208226E+01 -0.1223191890559E+01 -0.2164665312438E+01
-0.1487043340722E+01 -0.4606428990943E+01 -0.1218694484493E+01 -0.2230032519719E+01
-0.1629989127969E+01 -0.3982368300100E+01 -0.1122471502340E+01 -0.1981843037717E+01
 0.1824755783041E-01 -0.3093612581431E+01 -0.6150730138853E+00 -0.8615058742222E+00
 0.7320000869588E+01 -0.2726962263381E+01  0.9186077349298E+00 -0.8049309521697E+00
 0.1839203655677E+00  0.1268628186893E+01  0.2905097148210E+00 -0.1846248910563E+00
 0.1969704016729E-01  0.1171732306089E+01  0.2382858728021E+00 -0.1053108724913E+00
-0.2165241733886E-02  0.1026276287686E+01  0.2048222122425E+00 -0.6699056692412E-01
 0.1496636113276E-02  0.9153259760957E+00  0.1833645251741E+00 -0.6706098123342E-01
-0.2842179656556E-03  0.8059693610825E+00  0.1611370310245E+00 -0.6656708726987E-01
-0.2409002951614E-03  0.6954846796906E+00  0.1390487579511E+00 -0.6812104585277E-01
-0.4441366277233E-03  0.5818182407785E+00  0.1162748225628E+00 -0.7016142920879E-01
-0.5403245644824E-03  0.4641406220160E+00  0.9272006087194E-01 -0.7260511734919E-01
-0.6480904556022E-03  0.3418536667694E+00  0.6824111627964E-01 -0.7535829129987E-01
-0.7596695273954E-03  0.2144447441630E+00  0.4273701556396E-01 -0.7842976565830E-01
-0.8891329976986E-03  0.8136327355662E-01  0.1609482835162E-01 -0.8186182895408E-01
-0.1043530104841E-02 -0.5803587209014E-01 -0.1181588061507E-01 -0.8572765031682E-01
-0.1232852541706E-02 -0.2045450990652E+00 -0.4115559093465E-01 -0.9013021275059E-01
-0.1470203286189E-02 -0.3591593011347E+00 -0.7212590195893E-01 -0.9520964889773E-01
-0.1775412206507E-02 -0.5231456505851E+00 -0.1049842141227E+00 -0.1011613203538E+00
-0.2186191937370E-02 -0.6981665228923E+00 -0.1400705450531E+00 -0.1082757078043E+00
-0.2775907599309E-02 -0.8864815585681E+00 -0.1778514958837E+00 -0.1170193571928E+00
-0.3759871980241E-02 -0.1091345359153E+01 -0.2190210494903E+00 -0.1282998735057E+00
-0.6284829855580E-02 -0.1317476229978E+01 -0.2647522159119E+00 -0.1442373263342E+00
-0.1263662424780E-01 -0.1569597969356E+01 -0.3164469234361E+00 -0.1684488149068E+00
-0.2410848023090E-01 -0.1847796528896E+01 -0.3743810074041E+00 -0.2046178810477E+00
-0.4003219985467E-01 -0.2145634975236E+01 -0.4371334415319E+00 -0.2551616413622E+00
-0.5953016302843E-01 -0.2454195514433E+01 -0.5027451429839E+00 -0.3208977723530E+00
-0.8263103287041E-01 -0.2766127720986E+01 -0.5697517592613E+00 -0.4012863251940E+00
-0.1100592314444E+00 -0.3076677291281E+01 -0.6373473140423E+00 -0.4951887612796E+00
-0.1428568327313E+00 -0.3382943746552E+01 -0.7051601263644E+00 -0.6015221095249E+00
-0.1822050127881E+00 -0.3682745479895E+01 -0.7729901100551E+00 -0.7195402542372E+00
-0.2294036599007E+00 -0.3973615712815E+01 -0.8406038870691E+00 -0.8487823302451E+00
-0.2854666083503E+00 -0.4251962109065E+01 -0.9074857570056E+00 -0.9885623564904E+00
-0.3500053234255E+00 -0.4513056196994E+01 -0.9726123185769E+00 -0.1137349895710E+01
-0.4219934078952E+00 -0.4753141274576E+01 -0.1035026951917E+01 -0.1293460946274E+01
-0.5025131670730E+00 -0.4971843579868E+01 -0.1094871365703E+01 -0.1456310705529E+01
-0.5951107132414E+00 -0.5171590607954E+01 -0.1153340281425E+01 -0.1626914119268E+01
-0.7046709465682E+00 -0.5354772958293E+01 -0.1211888799031E+01 -0.1808456714382E+01
-0.8395687710864E+00 -0.5521861752486E+01 -0.1272286123673E+01 -0.2006605460874E+01
-0.1010223412145E+01 -0.5669256755727E+01 -0.1335896053481E+01 -0.2229376951698E+01
-0.1251315875180E+01 -0.5783918498604E+01 -0.1407046895723E+01 -0.2487353090961E+01
-0.1546965785016E+01 -0.5821361764995E+01 -0.1473665531962E+01 -0.2777220096192E+01
-0.2198510487820E+01 -0.5631304687821E+01 -0.1565963058463E+01 -0.3120735702132E+01
-0.2173248177296E+01 -0.4614319053206E+01 -0.1357513466329E+01 -0.2467837872863E+01
 0.7064574858499E+01 -0.3798686467972E+01  0.6531776878386E+00 -0.1846561227898E+01
 0.1927709885303E+00  0.1602226412662E+01  0.3589994855880E+00 -0.1734450725752E+00
-0.2895546045058E-01  0.1304382623743E+01  0.2550854364595E+00 -0.1484945992509E-01
 0.5667981012084E-02  0.1173080512229E+01  0.2357497021612E+00 -0.2485897061730E-01
-0.7934057367229E-03  0.1057220114571E+01  0.2112853449153E+00 -0.2247266643348E-01
 0.4556825445823E-03  0.9438450184572E+00  0.1888601430146E+00 -0.2286541612517E-01
 0.1383048945884E-03  0.8289835621096E+00  0.1658243758718E+00 -0.2332919720773E-01
 0.1761433900400E-03  0.7111096762633E+00  0.1422571660505E+00 -0.2400605476368E-01
 0.1365509425951E-03  0.5893869021270E+00  0.1179046923708E+00 -0.2479328138689E-01
 0.1167057313338E-03  0.4632366649639E+00  0.9267067551994E-01 -0.2568591250833E-01
 0.9206581190953E-04  0.3321208083720E+00  0.6644257582685E-01 -0.2668596442433E-01
 0.6711162394873E-04  0.1954618910396E+00  0.3910580111543E-01 -0.2780921926321E-01
 0.3968100207709E-04  0.5258424151521E-01  0.1052478466029E-01 -0.2907982682726E-01
 0.9132051826857E-05 -0.9733677202961E-01 -0.1946552828562E-01 -0.3053181029922E-01
-0.2685155761126E-04 -0.2553314027052E+00 -0.5107165161358E-01 -0.3221210270082E-01
-0.6860709985015E-04 -0.4227032205928E+00 -0.8455436679850E-01 -0.3418356963631E-01
-0.1202990746627E-03 -0.6011693739812E+00 -0.1202579364032E+00 -0.3654246822337E-01
-0.1895618446321E-03 -0.7930713314897E+00 -0.1586521810310E+00 -0.3944334426030E-01
-0.2783129903696E-03 -0.1001860544562E+01 -0.2004277744972E+00 -0.4317128735676E-01
-0.7007612952729E-03 -0.1233479881838E+01 -0.2468361323049E+00 -0.4867475471393E-01
-0.2762667336803E-02 -0.1497712016528E+01 -0.3000949412447E+00 -0.5982386371102E-01
-0.7324837072276E-02 -0.1798454238336E+01 -0.3611558204633E+00 -0.8364414535796E-01
-0.1424831922958E-01 -0.2126311408589E+01 -0.4281119519431E+00 -0.1259378430293E+00
-0.2398463883055E-01 -0.2467873400350E+01 -0.4983716152624E+00 -0.1881736155041E+00
-0.3755228646941E-01 -0.2813406561184E+01 -0.5701917780271E+00 -0.2688168938453E+00
-0.5601398191281E-01 -0.3157824836564E+01 -0.6427677732734E+00 -0.3656270504607E+00
-0.8036172452284E-01 -0.3499011493071E+01 -0.7158746541861E+00 -0.4769648022454E+00
-0.1116289977198E+00 -0.3835923402865E+01 -0.7895104918816E+00 -0.6021577862845E+00
-0.1510813895722E+00 -0.4167254040191E+01 -0.8636670988223E+00 -0.7413988576132E+00
-0.2003163249701E+00 -0.4490222130225E+01 -0.9381077050179E+00 -0.8954028560398E+00
-0.2603026440439E+00 -0.4798501118953E+01 -0.1011760767676E+01 -0.1063737327067E+01
-0.3300133217553E+00 -0.5084969956366E+01 -0.1082996671762E+01 -0.1242711093700E+01
-0.4090275781877E+00 -0.5353004181823E+01 -0.1152406369174E+01 -0.1429122598464E+01
-0.4995360284391E+00 -0.5613635499831E+01 -0.1222634323873E+01 -0.1625018665115E+01
-0.6057132820162E+00 -0.5876969258702E+01 -0.1296536527464E+01 -0.1836522235486E+01
-0.7337404455270E+00 -0.6155360013146E+01 -0.1377820112266E+01 -0.2073803105331E+01
-0.8990918336929E+00 -0.6467667727713E+01 -0.1473351934236E+01 -0.2353128901947E+01
-0.1110961529322E+01 -0.6842687498023E+01 -0.1590729829173E+01 -0.2706854899182E+01
-0.1486653438066E+01 -0.7330902162301E+01 -0.1763511146352E+01 -0.3184841469254E+01
-0.1801545626448E+01 -0.8010524921335E+01 -0.1962414138799E+01 -0.3946342719070E+01
-0.4496499655582E+01 -0.8809332387923E+01 -0.2661166448356E+01 -0.5351384724729E+01
 0.4880028328429E+01 -0.7704748135843E+01 -0.5649439699012E+00 -0.6045764955875E+01
-0.1059793959708E+01 -0.2158813678329E+01 -0.1512745586041E+01 -0.1345650055244E+01
-0.9553308202424E+00 -0.2182195424264E+01 -0.1474637331178E+01 -0.1217672671884E+01
-0.8326608576930E+00 -0.2204403489176E+01 -0.1427420239408E+01 -0.1107047867530E+01
-0.7084146772254E+00 -0.2221316485190E+01 -0.1376973642843E+01 -0.1012717920071E+01
-0.5906987336832E+00 -0.2230085570245E+01 -0.1325768619484E+01 -0.9342739210350E+00
-0.4841316479621E+00 -0.2229636156758E+01 -0.1275470864983E+01 -0.8711864811129E+00
-0.3909873782600E+00 -0.2219550482784E+01 -0.1226952791579E+01 -0.8225537461315E+00
-0.3123652499537E+00 -0.2199913062922E+01 -0.1180770804057E+01 -0.7872119831687E+00
-0.2487095591245E+00 -0.2171091628725E+01 -0.1137306555405E+01 -0.7638102271003E+00
-0.2000342124167E+00 -0.2133612844602E+01 -0.1096814114017E+01 -0.7509582556273E+00
-0.1657858862667E+00 -0.2087951203830E+01 -0.1059256429659E+01 -0.7472940366012E+00
-0.1462650952753E+00 -0.2034991428505E+01 -0.1025190563577E+01 -0.7511848306733E+00
-0.1406547098307E+00 -0.1975268251093E+01 -0.9944837891116E+00 -0.7618907214317E+00
-0.1464675713661E+00 -0.1909045738665E+01 -0.9660912532642E+00 -0.7783624931400E+00
-0.1622022215010E+00 -0.1836523009588E+01 -0.9394008562289E+00 -0.7979951493701E+00
-0.1861794212333E+00 -0.1756471694850E+01 -0.9130460222434E+00 -0.8183124000381E+00
-0.2173769053010E+00 -0.1667797655034E+01 -0.8860320411104E+00 -0.8368013260497E+00
-0.2562375576430E+00 -0.1571100876478E+01 -0.8588490618587E+00 -0.8512698271974E+00
-0.2968270336223E+00 -0.1461666233269E+01 -0.8264918333424E+00 -0.8577806549932E+00
-0.3982700718361E+00 -0.1390062013663E+01 -0.8405160780526E+00 -0.8471862159942E+00
-0.1117994554690E+01 -0.2184219389225E+01 -0.1552040549703E+01 -0.1330241825739E+01
-0.9984147433468E+00 -0.2208424226027E+01 -0.1507214311783E+01 -0.1200073336904E+01
-0.8676401307457E+00 -0.2235132281384E+01 -0.1458303030002E+01 -0.1091251011649E+01
-0.7361571664360E+00 -0.2256630352872E+01 -0.1406610130507E+01 -0.1000423153647E+01
-0.6120626688910E+00 -0.2270184176805E+01 -0.1354656014041E+01 -0.9262405036568E+00
-0.4997090688896E+00 -0.2274470053333E+01 -0.1303864184137E+01 -0.8676726363084E+00
-0.4014217969210E+00 -0.2269108791089E+01 -0.1255149373181E+01 -0.8235605624955E+00
-0.3183018562378E+00 -0.2254159137542E+01 -0.1209056664010E+01 -0.7926066522108E+00
-0.2507829977086E+00 -0.2229934550024E+01 -0.1165937244477E+01 -0.7734249705751E+00
-0.1988231941155E+00 -0.2196881354257E+01 -0.1125981134879E+01 -0.7646401083977E+00
-0.1621397480602E+00 -0.2155642947719E+01 -0.1089357864253E+01 -0.7648733092408E+00
-0.1405937710757E+00 -0.2106661003832E+01 -0.1056209741528E+01 -0.7726461639816E+00
-0.1333251862163E+00 -0.2050405944197E+01 -0.1026353628691E+01 -0.7871856351657E+00
-0.1384313576423E+00 -0.1987355371500E+01 -0.9991197601626E+00 -0.8073250374057E+00
-0.1542009693079E+00 -0.1917264299997E+01 -0.9735886741039E+00 -0.8307077844234E+00
-0.1793480503055E+00 -0.1839424542331E+01 -0.9488231161326E+00 -0.8548993454467E+00
-0.2134332071172E+00 -0.1753208393600E+01 -0.9243215499927E+00 -0.8771830125240E+00
-0.2552917689714E+00 -0.1657199306703E+01 -0.8988708032870E+00 -0.8944912421034E+00
-0.3169817019344E+00 -0.1558120079304E+01 -0.8812978349470E+00 -0.9019887120848E+00
-0.3771762734407E+00 -0.1431453345028E+01 -0.8500559185242E+00 -0.9052579722518E+00
-0.1174917249054E+01 -0.2208407407704E+01 -0.1590162584643E+01 -0.1313030078511E+01
-0.1042235354044E+01 -0.2237594649815E+01 -0.1541520097904E+01 -0.1181474817825E+01
-0.9013892790687E+00 -0.2267962518769E+01 -0.1489595341206E+01 -0.1074197058613E+01
-0.7622876243744E+00 -0.2293809792631E+01 -0.1436365782350E+01 -0.9867747298560E+00
-0.6315698660003E+00 -0.2311793533374E+01 -0.1383380794197E+01 -0.9168100903149E+00
-0.5134062217702E+00 -0.2320588791600E+01 -0.1331977652906E+01 -0.8627332794968E+00
-0.4100057846017E+00 -0.2319758988091E+01 -0.1282989439911E+01 -0.8231130932257E+00
-0.3224418112463E+00 -0.2309351221513E+01 -0.1236942722260E+01 -0.7965303448041E+00
-0.2511078850555E+00 -0.2289644024948E+01 -0.1194153394673E+01 -0.7815673313041E+00
-0.1959851292911E+00 -0.2261081555234E+01 -0.1154821338798E+01 -0.7768513400084E+00
-0.1567696897083E+00 -0.2224190932545E+01 -0.1119051489621E+01 -0.7810470281811E+00
-0.1331860765736E+00 -0.2179365907494E+01 -0.1086899429755E+01 -0.7928036956466E+00
-0.1243753152700E+00 -0.2127013696079E+01 -0.1058152832650E+01 -0.8112709618064E+00
-0.1286725315765E+00 -0.2067469218615E+01 -0.1032186619972E+01 -0.8352375896048E+00
-0.1446055970989E+00 -0.2000528607452E+01 -0.1008213073582E+01 -0.8625075494694E+00
-0.1712071536227E+00 -0.1925585190438E+01 -0.9854923992091E+00 -0.8906618076500E+00
-0.2079231335374E+00 -0.1841555156220E+01 -0.9632547937430E+00 -0.9169007438862E+00
-0.2566589514814E+00 -0.1748387727276E+01 -0.9423719366256E+00 -0.9381285587269E+00
-0.3152765684494E+00 -0.1639913728462E+01 -0.9189394372174E+00 -0.9529163406669E+00
-0.3757400221880E+00 -0.1514239520748E+01 -0.8882903829269E+00 -0.9644904550026E+00
-0.1232138011230E+01 -0.2233463702835E+01 -0.1628832801479E+01 -0.1293622037067E+01
-0.1085520948003E+01 -0.2267981123823E+01 -0.1576145969761E+01 -0.1161449593499E+01
-0.9342151241488E+00 -0.2302648065689E+01 -0.1521325695365E+01 -0.1055943837907E+01
-0.7868399834965E+00 -0.2332540199467E+01 -0.1466108682274E+01 -0.9718728030929E+00
-0.6493085607993E+00 -0.2354723718497E+01 -0.1411895167688E+01 -0.9060716860169E+00
-0.5252761888406E+00 -0.2367796683374E+01 -0.1359744246492E+01 -0.8564337371611E+00
-0.4167894075380E+00 -0.2371323313052E+01 -0.1310412975354E+01 -0.8212568859421E+00
-0.3248281472264E+00 -0.2365333940495E+01 -0.1264376178022E+01 -0.7990031315230E+00
-0.2497402174431E+00 -0.2350098678490E+01 -0.1221924277989E+01 -0.7882250638770E+00
-0.1914731145780E+00 -0.2326022972583E+01 -0.1183223157964E+01 -0.7875671145972E+00
-0.1497068490010E+00 -0.2293575169835E+01 -0.1148342545940E+01 -0.7957474244700E+00
-0.1240690902680E+00 -0.2253117953997E+01 -0.1117277907971E+01 -0.8115133125280E+00
-0.1137166209297E+00 -0.2204994118530E+01 -0.1089794044782E+01 -0.8339623769904E+00
-0.1172240639467E+00 -0.2149437687010E+01 -0.1065331020248E+01 -0.8618555736369E+00
-0.1333711716841E+00 -0.2086213485166E+01 -0.1043204786074E+01 -0.8931336727895E+00
-0.1613399098456E+00 -0.2014562167939E+01 -0.1022673973965E+01 -0.9254577888595E+00
-0.2011259017637E+00 -0.1933433844188E+01 -0.1003243078053E+01 -0.9561810090532E+00
-0.2521592461254E+00 -0.1840299218190E+01 -0.9834554757340E+00 -0.9830386870315E+00
-0.3127173171920E+00 -0.1732219773831E+01 -0.9611204303429E+00 -0.1004858873058E+01
-0.3751253839955E+00 -0.1608604994679E+01 -0.9323532756123E+00 -0.1022371914846E+01
-0.1289433455243E+01 -0.2259311250301E+01 -0.1667910007375E+01 -0.1271949823862E+01
-0.1128229751439E+01 -0.2299479466150E+01 -0.1611023328181E+01 -0.1139864599967E+01
-0.9659060458623E+00 -0.2338614428538E+01 -0.1553124619029E+01 -0.1036442072084E+01
-0.8099071458537E+00 -0.2372548435722E+01 -0.1495754119547E+01 -0.9557788246179E+00
-0.6653397284035E+00 -0.2398725205247E+01 -0.1440110515163E+01 -0.8940946848080E+00
-0.5353890944800E+00 -0.2415885011082E+01 -0.1387098826096E+01 -0.8488306792289E+00
-0.4218327662815E+00 -0.2423607871839E+01 -0.1337357096525E+01 -0.8180276169454E+00
-0.3255189592098E+00 -0.2421934310666E+01 -0.1291303033567E+01 -0.8000352995922E+00
-0.2467138996876E+00 -0.2411128107783E+01 -0.1249185740343E+01 -0.7933827205842E+00
-0.1853155934710E+00 -0.2391571697950E+01 -0.1211137023896E+01 -0.7967393960708E+00
-0.1409746503943E+00 -0.2363692732776E+01 -0.1177193667104E+01 -0.8088794074954E+00
-0.1132534912835E+00 -0.2327832454614E+01 -0.1147310391662E+01 -0.8286324604196E+00
-0.1013471996215E+00 -0.2284278782952E+01 -0.1121244208966E+01 -0.8550680394614E+00
-0.1040489496930E+00 -0.2233167707704E+01 -0.1098491826190E+01 -0.8869481424972E+00
-0.1203328329397E+00 -0.2174160739760E+01 -0.1078411976434E+01 -0.9223595144741E+00
-0.1495906068821E+00 -0.2106401468884E+01 -0.1060316272921E+01 -0.9591220953611E+00
-0.1913885298437E+00 -0.2028281680683E+01 -0.1043244996302E+01 -0.9949294564352E+00
-0.2449006864317E+00 -0.1937590762252E+01 -0.1025770978279E+01 -0.1027795454974E+01
-0.3079162875908E+00 -0.1832117487809E+01 -0.1005815871887E+01 -0.1056238601633E+01
-0.3741457298128E+00 -0.1711944575394E+01 -0.9804624409602E+00 -0.1079258637376E+01
-0.1346583322583E+01 -0.2285829492975E+01 -0.1707234018982E+01 -0.1247958738137E+01
-0.1170195172271E+01 -0.2331837921328E+01 -0.1645955549817E+01 -0.1116658274801E+01
-0.9964098683601E+00 -0.2375553120991E+01 -0.1584822600976E+01 -0.1015666714792E+01
-0.8314890642420E+00 -0.2413498127027E+01 -0.1525143976028E+01 -0.9385181163053E+00
-0.6797340182869E+00 -0.2443540677337E+01 -0.1467939103220E+01 -0.8809302723711E+00
-0.5438158982247E+00 -0.2464621650528E+01 -0.1413965644328E+01 -0.8399688202088E+00
-0.4252075036721E+00 -0.2476403428980E+01 -0.1363757134888E+01 -0.8134520039309E+00
-0.3245770740975E+00 -0.2478956104960E+01 -0.1317660590815E+01 -0.7996297068092E+00
-0.2420831351685E+00 -0.2472553078541E+01 -0.1275879017208E+01 -0.7970144579678E+00
-0.1775568343300E+00 -0.2457566862189E+01 -0.1238508134223E+01 -0.8043064303449E+00
-0.1306121810830E+00 -0.2434400865714E+01 -0.1205556128937E+01 -0.8203373802446E+00
-0.1007677608040E+00 -0.2403379281739E+01 -0.1176949107010E+01 -0.8440115402504E+00
-0.8726884678960E-01 -0.2364739964348E+01 -0.1152444138311E+01 -0.8743962631045E+00
-0.8908910936718E-01 -0.2318518128304E+01 -0.1131575398835E+01 -0.9102875430473E+00
-0.1053775968740E+00 -0.2264279499138E+01 -0.1113738832301E+01 -0.9499351748628E+00
-0.1355388543540E+00 -0.2200990038445E+01 -0.1098168576830E+01 -0.9913693445004E+00
-0.1790443355133E+00 -0.2127009184562E+01 -0.1083845151687E+01 -0.1032522655301E+01
-0.2348863923782E+00 -0.2040307018069E+01 -0.1069340900198E+01 -0.1071471276893E+01
-0.3008986874115E+00 -0.1939133387891E+01 -0.1052815072722E+01 -0.1106348051488E+01
-0.3717300025931E+00 -0.1823217433715E+01 -0.1031625292448E+01 -0.1135016561351E+01
-0.1403322744584E+01 -0.2312837442500E+01 -0.1746595283499E+01 -0.1221611969051E+01
-0.1211266802823E+01 -0.2364821830106E+01 -0.1680761653214E+01 -0.1091797613697E+01
-0.1025665091959E+01 -0.2413172097715E+01 -0.1616253475048E+01 -0.9936067234891E+00
-0.8515998841252E+00 -0.2455093063030E+01 -0.1554145681221E+01 -0.9201085038385E+00
-0.6925463234565E+00 -0.2488893383947E+01 -0.1495276658687E+01 -0.8666133277765E+00
-0.5506333583830E+00 -0.2513761474979E+01 -0.1440265568027E+01 -0.8298817125944E+00
-0.4269915039161E+00 -0.2529482979433E+01 -0.1389543003650E+01 -0.8075482761020E+00
-0.3220770592330E+00 -0.2536187315647E+01 -0.1343384252786E+01 -0.7977815249996E+00
-0.2359158029206E+00 -0.2534174256668E+01 -0.1301942324705E+01 -0.7990861377558E+00
-0.1682579252459E+00 -0.2523821332948E+01 -0.1265277248142E+01 -0.8101981940690E+00
-0.1186743594121E+00 -0.2505520884255E+01 -0.1233371761395E+01 -0.8300095213487E+00
-0.8665339108760E-01 -0.2479584364924E+01 -0.1206131742266E+01 -0.8574972634668E+00
-0.7149034108343E-01 -0.2446203731582E+01 -0.1183316211152E+01 -0.8917520230835E+00
-0.7231043040934E-01 -0.2405329262405E+01 -0.1164490652669E+01 -0.9316329616731E+00
-0.8838099033115E-01 -0.2356433432344E+01 -0.1149062775743E+01 -0.9755632056609E+00
-0.1191568608910E+00 -0.2298425533884E+01 -0.1136263722662E+01 -0.1021767186246E+01
-0.1640839442764E+00 -0.2229697042835E+01 -0.1125077061089E+01 -0.1068343490242E+01
-0.2221748611327E+00 -0.2148384351673E+01 -0.1114162827193E+01 -0.1113355190068E+01
-0.2914065975627E+00 -0.2052823401777E+01 -0.1101788096895E+01 -0.1154623687254E+01
-0.3672906286100E+00 -0.1942246783573E+01 -0.1085482580973E+01 -0.1189287501232E+01
-0.1459379247954E+01 -0.2340143951257E+01 -0.1785775899100E+01 -0.1192885040461E+01
-0.1251291479921E+01 -0.2398191997189E+01 -0.1715257229891E+01 -0.1065265963779E+01
-0.1053615688633E+01 -0.2451196692596E+01 -0.1647261815000E+01 -0.9702601094634E+00
-0.8702517753374E+00 -0.2497046154251E+01 -0.1582630022893E+01 -0.9005652721678E+00
-0.7038327503574E+00 -0.2534507407809E+01 -0.1522019870478E+01 -0.8511696352836E+00
-0.5559190049846E+00 -0.2563046633804E+01 -0.1465913846513E+01 -0.8185933115883E+00
-0.4272701134216E+00 -0.2582605754084E+01 -0.1414641654140E+01 -0.8003271229043E+00
-0.3181037769197E+00 -0.2593399187255E+01 -0.1368406389692E+01 -0.7944795554935E+00
-0.2282933083312E+00 -0.2595771974356E+01 -0.1327310679496E+01 -0.7995579586015E+00
-0.1574952585241E+00 -0.2590121272005E+01 -0.1291379766073E+01 -0.8143400753794E+00
-0.1052314381209E+00 -0.2576840674041E+01 -0.1260573889519E+01 -0.8377813378616E+00
-0.7096600732716E-01 -0.2556234520365E+01 -0.1234784244883E+01 -0.8689340492857E+00
-0.5404059830863E-01 -0.2528459408472E+01 -0.1213775000108E+01 -0.9069341105402E+00
-0.5370127830667E-01 -0.2493400272489E+01 -0.1197137725837E+01 -0.9507253416336E+00
-0.6932340519649E-01 -0.2450480553429E+01 -0.1184307857550E+01 -0.9988989095778E+00
-0.1004301476904E+00 -0.2398603808759E+01 -0.1174545956552E+01 -0.1049851444916E+01
-0.1465203335119E+00 -0.2336225636073E+01 -0.1166890602745E+01 -0.1101807785845E+01
-0.2067105085894E+00 -0.2261565563628E+01 -0.1160089751000E+01 -0.1152815673295E+01
-0.2792250802256E+00 -0.2172910550792E+01 -0.1152503743655E+01 -0.1200488269925E+01
-0.3603533137753E+00 -0.2068988423480E+01 -0.1141790613614E+01 -0.1241525809943E+01
-0.1514476599810E+01 -0.2367555272522E+01 -0.1824554975368E+01 -0.1161765961945E+01
-0.1290117759826E+01 -0.2431710588313E+01 -0.1749259319189E+01 -0.1037058350443E+01
-0.1080206937626E+01 -0.2489358490463E+01 -0.1677695746946E+01 -0.9456313528922E+00
-0.8874584426304E+00 -0.2539077150808E+01 -0.1610471724832E+01 -0.8799030681670E+00
-0.7136502270847E+00 -0.2580106135540E+01 -0.1548065486507E+01 -0.8346193660807E+00
-0.5597538450157E+00 -0.2612212202973E+01 -0.1490824038774E+01 -0.8061206512500E+00
-0.4261350361967E+00 -0.2635518709739E+01 -0.1438977256940E+01 -0.7917931815300E+00
-0.3127520850826E+00 -0.2650347466753E+01 -0.1392656785830E+01 -0.7897079957334E+00
-0.2193096710129E+00 -0.2657106599540E+01 -0.1351915643731E+01 -0.7983869103393E+00
-0.1453599062624E+00 -0.2656227451543E+01 -0.1316746054829E+01 -0.8166558409108E+00
-0.9036919321110E-01 -0.2648117030431E+01 -0.1287088521847E+01 -0.8435382000991E+00
-0.5377954234782E-01 -0.2633081385298E+01 -0.1262824632790E+01 -0.8781653771232E+00
-0.3497220718600E-01 -0.2611256064809E+01 -0.1243727284683E+01 -0.9197359547789E+00
-0.3329591011838E-01 -0.2582489473810E+01 -0.1229419127328E+01 -0.9672910814089E+00
-0.4822886465953E-01 -0.2546191166044E+01 -0.1219377411338E+01 -0.1019580776226E+01
-0.7938490483282E-01 -0.2501292751729E+01 -0.1212918495508E+01 -0.1075157039667E+01
-0.1263617202515E+00 -0.2446313924622E+01 -0.1209157550024E+01 -0.1132357117826E+01
-0.1884405124837E+00 -0.2379517998253E+01 -0.1206940496985E+01 -0.1189238931225E+01
-0.2641556648111E+00 -0.2299099115389E+01 -0.1204729743638E+01 -0.1243305821864E+01
-0.3505234690601E+00 -0.2203359746600E+01 -0.1200325108316E+01 -0.1291026895910E+01
-0.1568337901831E+01 -0.2394879181732E+01 -0.1862712024550E+01 -0.1128255477658E+01
-0.1327596236173E+01 -0.2465141690565E+01 -0.1782586821046E+01 -0.1007179608852E+01
-0.1105386119319E+01 -0.2527393459801E+01 -0.1707406397856E+01 -0.9197301956233E+00
-0.9032349813985E+00 -0.2580909467070E+01 -0.1637547886627E+01 -0.8581367811804E+00
-0.7220576686143E+00 -0.2625412854936E+01 -0.1573311142078E+01 -0.8169793265649E+00
-0.5622224647021E+00 -0.2660987860702E+01 -0.1514908849097E+01 -0.7924761311080E+00
-0.4236842912619E+00 -0.2687958856044E+01 -0.1462472275525E+01 -0.7819470372160E+00
-0.3061259959205E+00 -0.2706773716384E+01 -0.1416062861191E+01 -0.7834484728160E+00
-0.2090707891524E+00 -0.2717919885426E+01 -0.1375685613562E+01 -0.7955292037970E+00
-0.1319571026424E+00 -0.2721876919477E+01 -0.1341301986994E+01 -0.8170703023663E+00
-0.7418988264445E-01 -0.2719077915722E+01 -0.1312835861902E+01 -0.8471678282838E+00
-0.3518822309748E-01 -0.2709841996332E+01 -0.1290164199859E+01 -0.8850363840872E+00
-0.1436723140587E-01 -0.2694301617089E+01 -0.1273074355564E+01 -0.9299497620481E+00
-0.1116533233389E-01 -0.2672296243459E+01 -0.1261226937423E+01 -0.9810535568743E+00
-0.2516237799841E-01 -0.2643250923635E+01 -0.1254154248587E+01 -0.1037247875914E+01
-0.5607823461036E-01 -0.2606146094606E+01 -0.1251245431558E+01 -0.1097230262176E+01
-0.1036413532570E+00 -0.2559568469018E+01 -0.1251708613294E+01 -0.1159450126837E+01
-0.1673369879477E+00 -0.2501815948968E+01 -0.1254501877168E+01 -0.1222008096683E+01
-0.2460491240852E+00 -0.2431003518363E+01 -0.1258214738759E+01 -0.1282378651564E+01
-0.3374986854799E+00 -0.2345129736188E+01 -0.1260835354986E+01 -0.1336944871774E+01
-0.1620687431813E+01 -0.2421926611670E+01 -0.1900028595618E+01 -0.1092367488850E+01
-0.1363580408080E+01 -0.2498252257586E+01 -0.1815061348260E+01 -0.9756435379852E+00
-0.1129102877182E+01 -0.2565041224543E+01 -0.1736247723407E+01 -0.8925710987203E+00
-0.9175983883209E+00 -0.2622269519736E+01 -0.1663737912567E+01 -0.8352821308365E+00
-0.7291162695609E+00 -0.2670151040775E+01 -0.1597655631806E+01 -0.7982645040491E+00
-0.5634131934085E+00 -0.2709099497753E+01 -0.1538080960945E+01 -0.7776694328334E+00
-0.4200218331887E+00 -0.2739655148004E+01 -0.1485048177394E+01 -0.7707871833861E+00
-0.2983380369121E+00 -0.2762407221924E+01 -0.1438550268004E+01 -0.7756821102826E+00
-0.1976936922078E+00 -0.2777936820298E+01 -0.1398546337330E+01 -0.7909425671598E+00
-0.1174059176444E+00 -0.2786785077378E+01 -0.1364969764198E+01 -0.8155118309602E+00
-0.5681262401138E-01 -0.2789424198092E+01 -0.1337731302995E+01 -0.8485630470339E+00
-0.1530811044901E-01 -0.2786199661693E+01 -0.1316708649567E+01 -0.8893975374056E+00
 0.7663929435626E-02 -0.2777259550622E+01 -0.1301709938656E+01 -0.9373729445555E+00
 0.1258489609720E-01 -0.2762459593484E+01 -0.1292441104494E+01 -0.9917431083286E+00
-0.2254186901727E-03 -0.2741264382127E+01 -0.1288500203116E+01 -0.1051551206067E+01
-0.3060335236579E-01 -0.2712720834788E+01 -0.1289362364692E+01 -0.1115635153231E+01
-0.7842912135584E-01 -0.2675492574672E+01 -0.1294343193850E+01 -0.1182561650317E+01
-0.1434179660175E+00 -0.2627925799820E+01 -0.1302531566640E+01 -0.1250503811428E+01
-0.2248298457121E+00 -0.2568101783002E+01 -0.1312677862166E+01 -0.1316969222714E+01
-0.3210599084271E+00 -0.2493832491115E+01 -0.1322999424429E+01 -0.1378358848905E+01
-0.1671252169344E+01 -0.2448512463836E+01 -0.1936289372683E+01 -0.1054129401972E+01
-0.1397927336667E+01 -0.2530812781669E+01 -0.1846507850934E+01 -0.9424724928617E+00
-0.1151309592130E+01 -0.2602045206904E+01 -0.1764076751072E+01 -0.8641730363310E+00
-0.9305677508859E+00 -0.2662886794229E+01 -0.1688923631920E+01 -0.8113561887635E+00
-0.7348895528757E+00 -0.2714045051220E+01 -0.1620999259814E+01 -0.7784893090868E+00
-0.5634178587894E+00 -0.2756270609722E+01 -0.1560253576243E+01 -0.7617091944247E+00
-0.4152570152945E+00 -0.2790330353484E+01 -0.1506626059505E+01 -0.7583119079016E+00
-0.2895084656569E+00 -0.2816967022306E+01 -0.1460043475639E+01 -0.7663915836083E+00
-0.1853057503979E+00 -0.2836867781316E+01 -0.1420421556303E+01 -0.7845885264358E+00
-0.1018386745263E+00 -0.2850647836287E+01 -0.1387668656562E+01 -0.8119149474406E+00
-0.3837329978994E-01 -0.2858831542554E+01 -0.1361686272448E+01 -0.8476249230978E+00
 0.5723303067647E-02 -0.2861804764969E+01 -0.1342358283689E+01 -0.8911090989335E+00
 0.3098371995989E-01 -0.2859749522591E+01 -0.1329519923865E+01 -0.9418146544416E+00
 0.3781702704492E-01 -0.2852560247605E+01 -0.1322929310308E+01 -0.9991054364660E+00
 0.2644459298958E-01 -0.2839762141061E+01 -0.1322259244240E+01 -0.1062162100801E+01
-0.3092691880537E-02 -0.2820486070556E+01 -0.1327082014979E+01 -0.1129959905528E+01
-0.5084031464390E-01 -0.2793489169771E+01 -0.1336834854284E+01 -0.1201188388531E+01
-0.1167601245156E+00 -0.2757193461295E+01 -0.1350758181905E+01 -0.1274116166741E+01
-0.2005005321390E+00 -0.2709704016673E+01 -0.1367796134472E+01 -0.1346328726334E+01
-0.3011020281285E+00 -0.2648763632211E+01 -0.1386436856843E+01 -0.1414315783328E+01
-0.1719763331250E+01 -0.2474456190901E+01 -0.1971283170411E+01 -0.1013582382592E+01
-0.1430498317627E+01 -0.2562598041000E+01 -0.1876755283795E+01 -0.9076971490871E+00
-0.1171961685310E+01 -0.2638153222071E+01 -0.1790754001927E+01 -0.8345594354256E+00
-0.9421643224049E+00 -0.2702494498997E+01 -0.1712989641714E+01 -0.7863778466302E+00
-0.7394432067654E+00 -0.2756821155103E+01 -0.1643244245910E+01 -0.7576686089323E+00
-0.5623313614869E+00 -0.2802223837886E+01 -0.1581340939695E+01 -0.7446044601987E+00
-0.4095038916478E+00 -0.2839703009949E+01 -0.1527127239877E+01 -0.7445210142022E+00
-0.2797643823503E+00 -0.2870164150805E+01 -0.1480466406828E+01 -0.7555630618932E+00
-0.1720437215662E+00 -0.2894410946478E+01 -0.1441233690325E+01 -0.7764346133115E+00
-0.8540007591280E-01 -0.2913144094238E+01 -0.1409315756396E+01 -0.8062229338190E+00
-0.1902370962637E-01 -0.2926952700757E+01 -0.1384608909368E+01 -0.8442660858362E+00
 0.2774818464930E-01 -0.2936276974558E+01 -0.1367008527790E+01 -0.8900456717390E+00
 0.5542914536715E-01 -0.2941350129016E+01 -0.1356382858875E+01 -0.9431018363609E+00
 0.6436284187847E-01 -0.2942125384172E+01 -0.1352548391447E+01 -0.1002908741208E+01
 0.5467492981316E-01 -0.2938207727187E+01 -0.1355260411328E+01 -0.1068779644614E+01
 0.2628022673487E-01 -0.2928829879695E+01 -0.1364198333431E+01 -0.1139824420593E+01
-0.2104033778598E-01 -0.2912863107133E+01 -0.1378934615615E+01 -0.1214858871611E+01
-0.8750443923909E-01 -0.2888838482659E+01 -0.1398881169744E+01 -0.1292262108584E+01
-0.1731523257050E+00 -0.2854946133260E+01 -0.1423206272104E+01 -0.1369725897318E+01
-0.2776442913753E+00 -0.2808972037822E+01 -0.1450709671043E+01 -0.1443871205891E+01
-0.1765957937427E+01 -0.2499582311572E+01 -0.2004803911944E+01 -0.9707815126416E+00
-0.1461159528282E+01 -0.2593387928944E+01 -0.1905637300063E+01 -0.8713563612565E+00
-0.1191017819524E+01 -0.2673118349170E+01 -0.1816143994680E+01 -0.8037582089322E+00
-0.9524114359863E+00 -0.2740830547558E+01 -0.1735823727863E+01 -0.7603682711920E+00
-0.7428447402945E+00 -0.2798208802079E+01 -0.1664295160694E+01 -0.7358186451607E+00
-0.5602510686450E+00 -0.2846682628798E+01 -0.1601258833737E+01 -0.7263659766510E+00
-0.4028803678192E+00 -0.2887489465345E+01 -0.1546473817665E+01 -0.7294174012239E+00
-0.2692386912980E+00 -0.2921703986663E+01 -0.1499743054838E+01 -0.7431880375697E+00
-0.1580526017451E+00 -0.2950254884727E+01 -0.1460904514936E+01 -0.7664564971415E+00
-0.6824597669947E-01 -0.2973938481079E+01 -0.1429826691529E+01 -0.7983904181807E+00
 0.1069760992955E-02 -0.2993420400233E+01 -0.1406404796876E+01 -0.8384140184267E+00
 0.5058997678663E-01 -0.3009208513232E+01 -0.1390550708602E+01 -0.8861005252814E+00
 0.8081370651671E-01 -0.3021603169892E+01 -0.1382171044281E+01 -0.9410846756009E+00
 0.9202556397216E-01 -0.3030634397748E+01 -0.1381146148372E+01 -0.1002950049952E+01
 0.8425878446582E-01 -0.3036004609997E+01 -0.1387320534481E+01 -0.1071137730877E+01
 0.5730083379758E-01 -0.3037066085127E+01 -0.1400489664573E+01 -0.1144888751127E+01
 0.1075426172354E-01 -0.3032825798768E+01 -0.1420373618808E+01 -0.1223145508825E+01
-0.5585892577251E-01 -0.3021957308202E+01 -0.1446573626299E+01 -0.1304404562704E+01
-0.1429688787654E+00 -0.3002793279282E+01 -0.1478508210532E+01 -0.1386477202069E+01
-0.2508333615817E+00 -0.2973262609209E+01 -0.1515325102428E+01 -0.1466133578072E+01
-0.1809580455412E+01 -0.2523720967802E+01 -0.2036651663744E+01 -0.9257958159915E+00
-0.1489782657447E+01 -0.2622968391118E+01 -0.1932992987922E+01 -0.8334970328303E+00
-0.1208440012351E+01 -0.2706700016800E+01 -0.1840115809034E+01 -0.7718018139036E+00
-0.9613342814294E+00 -0.2777638790822E+01 -0.1757317339501E+01 -0.7333513243984E+00
-0.7451629815912E+00 -0.2837942103524E+01 -0.1684059385733E+01 -0.7129578463119E+00
-0.5572760514987E+00 -0.2889373046961E+01 -0.1619925072167E+01 -0.7070073439349E+00
-0.3955071988507E+00 -0.2933406046138E+01 -0.1564589221176E+01 -0.7130084925109E+00
-0.2580688954226E+00 -0.2971288761126E+01 -0.1517798094728E+01 -0.7292650169316E+00
-0.1434842482474E+00 -0.3004081371678E+01 -0.1479355837613E+01 -0.7546399935049E+00
-0.5054184209470E-01 -0.3032684485352E+01 -0.1449116370224E+01 -0.7883858342291E+00
 0.2172787670350E-01 -0.3057850870785E+01 -0.1426977803599E+01 -0.8300141604798E+00
 0.7405540429770E-01 -0.3080168369070E+01 -0.1412873089860E+01 -0.8791895530580E+00
 0.1069296910762E+00 -0.3100018938730E+01 -0.1406751942829E+01 -0.9356414697962E+00
 0.1205822335110E+00 -0.3117525484146E+01 -0.1408563324226E+01 -0.9990609477131E+00
 0.1149574796077E+00 -0.3132503819982E+01 -0.1418246776379E+01 -0.1069011845804E+01
 0.8971550903263E-01 -0.3144442253478E+01 -0.1435721566248E+01 -0.1144861792129E+01
 0.4427768245875E-01 -0.3152503514383E+01 -0.1460866137299E+01 -0.1225677025856E+01
-0.2209656943141E-01 -0.3155533074922E+01 -0.1493485929058E+01 -0.1310071558068E+01
-0.1102233670743E+00 -0.3152053524425E+01 -0.1533270135116E+01 -0.1395976831780E+01
-0.2209378355431E+00 -0.3140214984782E+01 -0.1579741821546E+01 -0.1480310012986E+01
-0.1850384434947E+01 -0.2546708489190E+01 -0.2066633669103E+01 -0.8787081671204E+00
-0.1516245492240E+01 -0.2651132450044E+01 -0.1958667627906E+01 -0.7941739796736E+00
-0.1224193640640E+01 -0.2738665224125E+01 -0.1862543661716E+01 -0.7387273189026E+00
-0.9689595442554E+00 -0.2812670409906E+01 -0.1777366073948E+01 -0.7053539503743E+00
-0.7464674274564E+00 -0.2875761458798E+01 -0.1702447572222E+01 -0.6891075509635E+00
-0.5535061742434E+00 -0.2930025706066E+01 -0.1637259979593E+01 -0.6865460358630E+00
-0.3875068354273E+00 -0.2977171337960E+01 -0.1581398737481E+01 -0.6953075123758E+00
-0.2463957166281E+00 -0.3018620208757E+01 -0.1534557481039E+01 -0.7138010485755E+00
-0.1284957822787E+00 -0.3055568435747E+01 -0.1496510178676E+01 -0.7409828983044E+00
-0.3246092208315E-01 -0.3089027957292E+01 -0.1467099769585E+01 -0.7761936695119E+00
 0.4276062688714E-01 -0.3119847947622E+01 -0.1446231037077E+01 -0.8190327136416E+00
 0.9793685188502E-01 -0.3148707254363E+01 -0.1433862085528E+01 -0.8692547896931E+00
 0.1335508806094E+00 -0.3176082320323E+01 -0.1429989773038E+01 -0.9266829313111E+00
 0.1497866927938E+00 -0.3202203013375E+01 -0.1434635667034E+01 -0.9911127311068E+00
 0.1465037337739E+00 -0.3227012536719E+01 -0.1447839133712E+01 -0.1062225392107E+01
 0.1232353242354E+00 -0.3250149503443E+01 -0.1469649660500E+01 -0.1139509555396E+01
 0.7921966962011E-01 -0.3270949034912E+01 -0.1500112797882E+01 -0.1222150141766E+01
 0.1345168725471E-01 -0.3288451060550E+01 -0.1539249701545E+01 -0.1308873659734E+01
-0.7526750100178E-01 -0.3301401081366E+01 -0.1587034229687E+01 -0.1397723756927E+01
-0.1883314231931E+00 -0.3308219828167E+01 -0.1643379083971E+01 -0.1485748965105E+01
-0.1888134272320E+01 -0.2568388105587E+01 -0.2094565512304E+01 -0.8296150569882E+00
-0.1540432517615E+01 -0.2677681359318E+01 -0.1982513517131E+01 -0.7534497614844E+00
-0.1238247410951E+01 -0.2768789922870E+01 -0.1883307542119E+01 -0.7045764545842E+00
-0.9753149745221E+00 -0.2845685474757E+01 -0.1795870206606E+01 -0.6764065126492E+00
-0.7468275062418E+00 -0.2911415334466E+01 -0.1719374130772E+01 -0.6642926327635E+00
-0.5490410865290E+00 -0.2968377835210E+01 -0.1653186889024E+01 -0.6650042788470E+00
-0.3790021601371E+00 -0.3018508599030E+01 -0.1596830052758E+01 -0.6763345886290E+00
-0.2343615799638E+00 -0.3063402381690E+01 -0.1549949058046E+01 -0.6968130508155E+00
-0.1132478140792E+00 -0.3104393639051E+01 -0.1512291479135E+01 -0.7254965849737E+00
-0.1418219930408E-01 -0.3142610960756E+01 -0.1483692781465E+01 -0.7618164172243E+00
 0.6396957963079E-01 -0.3179007658476E+01 -0.1464067893344E+01 -0.8054590572736E+00
 0.1220150728056E+00 -0.3214363159404E+01 -0.1453403597015E+01 -0.8562674132305E+00
 0.1604356738890E+00 -0.3249259547625E+01 -0.1451747216974E+01 -0.9141558634340E+00
 0.1793731764878E+00 -0.3284045657035E+01 -0.1459196062156E+01 -0.9790208749933E+00
 0.1786058677816E+00 -0.3318803742143E+01 -0.1475892997206E+01 -0.1050655257214E+01
 0.1575412773264E+00 -0.3353334062658E+01 -0.1502022605296E+01 -0.1128662447350E+01
 0.1152327215475E+00 -0.3387156166328E+01 -0.1537804015147E+01 -0.1212339553552E+01
 0.5040805716452E-01 -0.3419518567825E+01 -0.1583481935994E+01 -0.1300518151018E+01
-0.3851315934444E-01 -0.3449406654396E+01 -0.1639322308300E+01 -0.1391342516359E+01
-0.1534655105456E+00 -0.3475530542439E+01 -0.1705628140577E+01 -0.1481971801694E+01
-0.1922606923485E+01 -0.2588610668036E+01 -0.2120272262637E+01 -0.7786262067201E+00
-0.1562235458676E+01 -0.2702425808502E+01 -0.2004390790490E+01 -0.7113944582966E+00
-0.1250573235831E+01 -0.2796860460742E+01 -0.1902293832564E+01 -0.6693956325256E+00
-0.9804288470237E+00 -0.2876454571871E+01 -0.1812735202283E+01 -0.6465430787815E+00
-0.7463117266433E+00 -0.2944662108181E+01 -0.1734757697968E+01 -0.6385420331691E+00
-0.5439791000677E+00 -0.3004175404819E+01 -0.1667632613067E+01 -0.6424097969439E+00
-0.3701151011972E+00 -0.3057148241137E+01 -0.1610813766812E+01 -0.6561176828307E+00
-0.2221089585209E+00 -0.3105344564066E+01 -0.1563903151649E+01 -0.6783289271606E+00
-0.9790250162623E-01 -0.3150237521474E+01 -0.1526625806985E+01 -0.7082073400990E+00
 0.4111864642898E-02 -0.3193075877207E+01 -0.1498813082104E+01 -0.7452761971301E+00
 0.8515048076879E-01 -0.3234923161839E+01 -0.1480393156348E+01 -0.7893077400314E+00
 0.1460621953415E+00 -0.3276667344201E+01 -0.1471384416232E+01 -0.8402302083506E+00
 0.1873305884768E+00 -0.3319005478971E+01 -0.1471887194799E+01 -0.8980461810909E+00
 0.2090604245811E+00 -0.3362415180275E+01 -0.1482076731417E+01 -0.9627487252325E+00
 0.2109527652747E+00 -0.3407126842657E+01 -0.1502201812559E+01 -0.1034236417645E+01
 0.1922906166600E+00 -0.3453110327775E+01 -0.1532585260337E+01 -0.1112221172959E+01
 0.1519408681166E+00 -0.3500076502283E+01 -0.1573623744067E+01 -0.1196105639814E+01
 0.8836126748173E-01 -0.3547487981357E+01 -0.1625789551398E+01 -0.1284818977555E+01
-0.4107320634947E-03 -0.3594572061987E+01 -0.1689641908918E+01 -0.1376595354372E+01
-0.1168372104922E+00 -0.3640321647809E+01 -0.1765864658923E+01 -0.1468685940893E+01
-0.1953593605872E+01 -0.2607235430182E+01 -0.2143589641508E+01 -0.7258640630907E+00
-0.1581553788037E+01 -0.2725187178549E+01 -0.2024168249161E+01 -0.6680854190691E+00
-0.1261146062180E+01 -0.2822675078676E+01 -0.1919395931334E+01 -0.6332359495875E+00
-0.9843293634933E+00 -0.2904760482424E+01 -0.1827872222945E+01 -0.6158016631870E+00
-0.7449867647557E+00 -0.2975271957131E+01 -0.1748521594852E+01 -0.6118892082272E+00
-0.5384159995999E+00 -0.3037175293372E+01 -0.1680527903434E+01 -0.6187964226999E+00
-0.3609651717368E+00 -0.3092830359232E+01 -0.1623283895438E+01 -0.6346933375400E+00
-0.2097786269159E+00 -0.3144164262170E+01 -0.1576353153872E+01 -0.6583884463599E+00
-0.8262149247300E-01 -0.3192787169547E+01 -0.1539442067245E+01 -0.6891574009580E+00
 0.2223773295119E-01 -0.3240069701336E+01 -0.1512381021305E+01 -0.7266159994183E+00
 0.1060960455600E+00 -0.3287189951885E+01 -0.1495114132181E+01 -0.7706199961778E+00
 0.1698449728269E+00 -0.3335150672076E+01 -0.1487693674874E+01 -0.8211794352646E+00
 0.2139740725289E+00 -0.3384771306222E+01 -0.1490274696056E+01 -0.8783812012587E+00
 0.2385562027373E+00 -0.3436665811440E+01 -0.1503111512278E+01 -0.9423102907721E+00
 0.2432193694562E+00 -0.3491219119042E+01 -0.1526559878433E+01 -0.1012965367916E+01
 0.2271238132377E+00 -0.3548575134998E+01 -0.1561082117268E+01 -0.1090160957812E+01
 0.1889490678171E+00 -0.3608637838495E+01 -0.1607253718142E+01 -0.1173399507080E+01
 0.1268800710556E+00 -0.3671081709758E+01 -0.1665774765965E+01 -0.1261702103610E+01
 0.3857085346933E-01 -0.3735366220471E+01 -0.1737493818084E+01 -0.1353385928266E+01
-0.7895955866624E-01 -0.3800742906325E+01 -0.1823460153921E+01 -0.1445782354186E+01
-0.1980901458470E+01 -0.2624130868131E+01 -0.2164365188013E+01 -0.6714631473375E+00
-0.1598295194001E+01 -0.2745798824850E+01 -0.2041724183682E+01 -0.6236069529452E+00
-0.1269943656241E+01 -0.2846045431816E+01 -0.1934514866480E+01 -0.5961531541298E+00
-0.9870440082778E+00 -0.2930399880713E+01 -0.1841198623156E+01 -0.5842244116142E+00
-0.7429165028855E+00 -0.3003028761665E+01 -0.1760594269873E+01 -0.5843724777366E+00
-0.5324438033480E+00 -0.3067147467135E+01 -0.1691807892836E+01 -0.5942045633335E+00
-0.3516679520785E+00 -0.3125307280716E+01 -0.1634178355268E+01 -0.6121072272828E+00
-0.1975078449109E+00 -0.3179590234885E+01 -0.1587236093478E+01 -0.6370438681525E+00
-0.6756377602209E-01 -0.3231739861429E+01 -0.1550672705669E+01 -0.6684056700594E+00
 0.4001331334805E-01 -0.3283248460668E+01 -0.1524320515374E+01 -0.7059005220495E+00
 0.1265988998793E+00 -0.3335411242493E+01 -0.1508141797203E+01 -0.7494647540748E+00
 0.1931282199442E+00 -0.3389350182065E+01 -0.1502224318387E+01 -0.7991860669350E+00
 0.2401005408934E+00 -0.3446012576873E+01 -0.1506778653088E+01 -0.8552311503755E+00
 0.2675620869352E+00 -0.3506154037120E+01 -0.1522138212726E+01 -0.9177720500949E+00
 0.2750724568691E+00 -0.3570317766701E+01 -0.1548765291693E+01 -0.9869022474278E+00
 0.2616717378815E+00 -0.3638822799190E+01 -0.1587260994789E+01 -0.1062533932399E+01
 0.2258523578093E+00 -0.3711763512020E+01 -0.1638378238324E+01 -0.1144265304284E+01
 0.1655252803736E+00 -0.3789017660487E+01 -0.1703041414334E+01 -0.1231206674426E+01
 0.7796046774037E-01 -0.3870259214558E+01 -0.1782380406484E+01 -0.1321756683269E+01
-0.4033756294652E-01 -0.3954964584146E+01 -0.1877792004371E+01 -0.1413324493097E+01
-0.2004355127487E+01 -0.2639175520170E+01 -0.2182459398864E+01 -0.6155692680136E+00
-0.1612376004135E+01 -0.2764107360930E+01 -0.2056947176363E+01 -0.5780499685896E+00
-0.1276946355422E+01 -0.2866798100540E+01 -0.1947559889362E+01 -0.5582075770317E+00
-0.9885988766710E+00 -0.2953185015293E+01 -0.1852638424524E+01 -0.5518577297491E+00
-0.7401610445823E+00 -0.3027731984979E+01 -0.1770909719402E+01 -0.5560352788950E+00
-0.5261495006578E+00 -0.3093877131824E+01 -0.1701412512951E+01 -0.5686815222706E+00
-0.3423335459463E+00 -0.3154346089081E+01 -0.1643439424294E+01 -0.5884145090677E+00
-0.1854285060893E+00 -0.3211365510687E+01 -0.1596493183835E+01 -0.6143603049946E+00
-0.5288348615661E-01 -0.3266806721077E+01 -0.1560254393442E+01 -0.6460280914039E+00
 0.5726054747232E-01 -0.3322281675577E+01 -0.1534559926317E+01 -0.6832165816856E+00
 0.1464546149089E+00 -0.3379203428737E+01 -0.1519391938646E+01 -0.7259391127838E+00
 0.2156783630793E+00 -0.3438815780266E+01 -0.1514874582235E+01 -0.7743563653589E+00
 0.2654445346838E+00 -0.3502197384967E+01 -0.1521273835774E+01 -0.8287098494778E+00
 0.2957783545024E+00 -0.3570248631190E+01 -0.1539001026140E+01 -0.8892537191242E+00
 0.3061764429673E+00 -0.3643672227534E+01 -0.1568623014768E+01 -0.9561716081747E+00
 0.2955626206866E+00 -0.3722960457158E+01 -0.1610876979056E+01 -0.1029469662518E+01
 0.2622443170529E+00 -0.3808391740784E+01 -0.1666689284926E+01 -0.1108839942150E+01
 0.2038595763478E+00 -0.3900034199643E+01 -0.1737202068542E+01 -0.1193482770371E+01
 0.1172969013540E+00 -0.3997752971480E+01 -0.1823814348333E+01 -0.1281882132420E+01
-0.1450557950662E-02 -0.4101212940141E+01 -0.1928251839212E+01 -0.1371532331742E+01
-0.2023798254634E+01 -0.2652258833973E+01 -0.2197746826071E+01 -0.5583385998488E+00
-0.1623721562121E+01 -0.2779973919279E+01 -0.2069736871008E+01 -0.5315115597127E+00
-0.1282136799143E+01 -0.2884776063444E+01 -0.1958449040448E+01 -0.5194640248727E+00
-0.9890179956497E+00 -0.2972945341817E+01 -0.1862122763886E+01 -0.5187523541636E+00
-0.7367757299430E+00 -0.3049198495548E+01 -0.1779407881467E+01 -0.5269263235376E+00
-0.5196137940301E+00 -0.3117166819711E+01 -0.1709286884123E+01 -0.5422816747178E+00
-0.3330650409775E+00 -0.3179731079790E+01 -0.1651014172573E+01 -0.5636799690300E+00
-0.1736652858582E+00 -0.3239250340091E+01 -0.1604070340128E+01 -0.5904158130866E+00
-0.3872769346955E-01 -0.3297716318038E+01 -0.1568128681431E+01 -0.6221176783532E+00
 0.7380802392439E-01 -0.3356856780743E+01 -0.1543032911791E+01 -0.6586730851203E+00
 0.1654647790662E+00 -0.3418201529089E+01 -0.1528786268633E+01 -0.7001682712116E+00
 0.2372670324671E+00 -0.3483116931467E+01 -0.1525549448661E+01 -0.7468317794672E+00
 0.2897449047077E+00 -0.3552814581016E+01 -0.1533642743975E+01 -0.7989745582072E+00
 0.3229088405863E+00 -0.3628340710893E+01 -0.1553552975104E+01 -0.8569279665970E+00
 0.3361989983840E+00 -0.3710556520117E+01 -0.1585948031192E+01 -0.9209618411131E+00
 0.3284285374078E+00 -0.3800123211951E+01 -0.1631696492897E+01 -0.9911739386381E+00
 0.2977244008873E+00 -0.3897494342818E+01 -0.1691891868416E+01 -0.1067350562652E+01
 0.2414559845002E+00 -0.4002912894618E+01 -0.1767884743271E+01 -0.1148786406187E+01
 0.1561359620909E+00 -0.4116410168259E+01 -0.1861328872178E+01 -0.1234060104568E+01
 0.3725967117416E-01 -0.4237797502955E+01 -0.1974252775929E+01 -0.1320766432670E+01
-0.2039094840734E+01 -0.2663282004878E+01 -0.2210117111832E+01 -0.4999366330065E+00
-0.1632266553990E+01 -0.2793275364747E+01 -0.2080004696531E+01 -0.4840945357809E+00
-0.1285499648491E+01 -0.2899840103249E+01 -0.1967109678329E+01 -0.4799916333187E+00
-0.9883226548197E+00 -0.2989529075849E+01 -0.1869590308672E+01 -0.4849633648201E+00
-0.7328101739478E+00 -0.3067264297697E+01 -0.1786034997143E+01 -0.4970996596296E+00
-0.5129098721736E+00 -0.3136838373228E+01 -0.1715381670988E+01 -0.5150664984176E+00
-0.3239570040268E+00 -0.3201266102754E+01 -0.1656854855985E+01 -0.5379779654523E+00
-0.1623338236351E+00 -0.3263025028378E+01 -0.1609918656363E+01 -0.5653012110336E+00
-0.2523422723986E-01 -0.3324218145388E+01 -0.1574242611142E+01 -0.5967841893067E+00
 0.8949356791225E-01 -0.3386683425610E+01 -0.1549679229188E+01 -0.6324005558038E+00
 0.1834400503268E+00 -0.3452064507529E+01 -0.1536253490989E+01 -0.6723049039702E+00
 0.2576746248488E+00 -0.3521849226435E+01 -0.1534162058855E+01 -0.7167881609663E+00
 0.3127489279608E+00 -0.3597381840649E+01 -0.1543777465048E+01 -0.7662249806877E+00
 0.3486656382488E+00 -0.3679853608883E+01 -0.1565658342227E+01 -0.8210190995029E+00
 0.3648163367553E+00 -0.3770281264047E+01 -0.1600568511767E+01 -0.8815233378968E+00
 0.3599112059650E+00 -0.3869488712727E+01 -0.1649501423994E+01 -0.9479260297475E+00
 0.3319041992343E+00 -0.3978094140588E+01 -0.1713709268090E+01 -0.1020110197959E+01
 0.2779041512476E+00 -0.4096499177820E+01 -0.1794739657937E+01 -0.1097472465996E+01
 0.1940588472253E+00 -0.4224876668983E+01 -0.1894484371421E+01 -0.1178700616783E+01
 0.7538433012458E-01 -0.4363146932566E+01 -0.2015248418036E+01 -0.1261513130736E+01
-0.2050130457630E+01 -0.2672158788349E+01 -0.2219475939981E+01 -0.4405370060174E+00
-0.1637955280008E+01 -0.2803905436716E+01 -0.2087674531565E+01 -0.4359069040015E+00
-0.1287021304164E+01 -0.2911870117364E+01 -0.1973478963113E+01 -0.4398636846811E+00
-0.9865307651895E+00 -0.3002804634311E+01 -0.1874987633010E+01 -0.4505501436918E+00
-0.7283073509207E+00 -0.3081786135402E+01 -0.1790743934030E+01 -0.4666146431365E+00
-0.5061022416690E+00 -0.3152734784684E+01 -0.1719653398024E+01 -0.4871044668162E+00
-0.3150940433037E+00 -0.3218776743119E+01 -0.1660919265406E+01 -0.5113921754197E+00
-0.1515389760168E+00 -0.3282492589984E+01 -0.1613994831927E+01 -0.5391196325296E+00
-0.1252956934578E-01 -0.3346085904621E+01 -0.1578549268761E+01 -0.5701534565974E+00
 0.1041667587745E+00 -0.3411497567738E+01 -0.1554445476270E+01 -0.6045502207834E+00
 0.2002031317554E+00 -0.3480480371105E+01 -0.1541730298584E+01 -0.6425279913908E+00
 0.2766937688244E+00 -0.3554640695525E+01 -0.1540635051642E+01 -0.6844343121359E+00
 0.3342162762173E+00 -0.3635453428645E+01 -0.1551581457705E+01 -0.7307014609348E+00
 0.3727735550539E+00 -0.3724252347026E+01 -0.1575195028232E+01 -0.7818007750162E+00
 0.3917180761012E+00 -0.3822205138052E+01 -0.1612328915028E+01 -0.8381655061559E+00
 0.3896670830538E+00 -0.3930290811642E+01 -0.1664093148216E+01 -0.9000746421710E+00
 0.3644123691215E+00 -0.4049280940957E+01 -0.1731888224370E+01 -0.9675120613404E+00
 0.3128149224195E+00 -0.4179720127689E+01 -0.1817445441867E+01 -0.1039986261367E+01
 0.2306745333543E+00 -0.4321901444013E+01 -0.1922876643132E+01 -0.1116312117924E+01
 0.1125519051744E+00 -0.4475825815700E+01 -0.2050738732745E+01 -0.1194360152544E+01
-0.2056813289579E+01 -0.2678816276087E+01 -0.2225745890218E+01 -0.3803202317358E+00
-0.1640741870935E+01 -0.2811775801017E+01 -0.2092683300510E+01 -0.3870613053605E+00
-0.1286689633189E+01 -0.2920766310460E+01 -0.1977504288499E+01 -0.3991573910211E+00
-0.9836562634236E+00 -0.3012661940328E+01 -0.1878269550999E+01 -0.4155762825305E+00
-0.7233027476485E+00 -0.3092642940031E+01 -0.1793494468661E+01 -0.4355358262535E+00
-0.4992456442439E+00 -0.3164721856656E+01 -0.1722064721055E+01 -0.4584708132018E+00
-0.3065494688082E+00 -0.3232112296223E+01 -0.1663171025346E+01 -0.4840151550729E+00
-0.1413731770211E+00 -0.3297481169574E+01 -0.1616261538800E+01 -0.5119858233340E+00
-0.7268610569344E-03 -0.3363120530057E+01 -0.1581008269814E+01 -0.5423663789672E+00
 0.1176913291126E+00 -0.3431065277568E+01 -0.1557285751824E+01 -0.5752926697052E+00
 0.2155916180543E+00 -0.3503170944604E+01 -0.1545162279559E+01 -0.6110411197713E+00
 0.2941326339881E+00 -0.3581157748083E+01 -0.1544901799706E+01 -0.6500098920728E+00
 0.3539227743613E+00 -0.3666627506502E+01 -0.1556971220157E+01 -0.6926824128262E+00
 0.3949742662546E+00 -0.3761052524934E+01 -0.1582056777567E+01 -0.7395928159191E+00
 0.4166116535636E+00 -0.3865745539999E+01 -0.1621092922513E+01 -0.7912527725934E+00
 0.4173717508406E+00 -0.3981832109433E+01 -0.1675296364289E+01 -0.8480328115204E+00
 0.3948985220743E+00 -0.4110225810154E+01 -0.1746203820969E+01 -0.9100228714544E+00
 0.3458226001540E+00 -0.4251600073651E+01 -0.1835715407888E+01 -0.9768544994942E+00
 0.2656187633305E+00 -0.4406351724890E+01 -0.1946144486997E+01 -0.1047488961927E+01
 0.1484244295719E+00 -0.4574543905026E+01 -0.2080276148187E+01 -0.1119979051998E+01
-0.2059074983894E+01 -0.2683195623765E+01 -0.2228867179946E+01 -0.3194723254080E+00
-0.1640590444776E+01 -0.2816816992518E+01 -0.2094981490215E+01 -0.3376744063295E+00
-0.1284493712424E+01 -0.2926450248468E+01 -0.1979143656600E+01 -0.3579536432065E+00
-0.9797085758342E+00 -0.3019013567989E+01 -0.1879399402830E+01 -0.3801094428906E+00
-0.7178236049409E+00 -0.3099737094938E+01 -0.1794253524392E+01 -0.4039327693409E+00
-0.4923840843661E+00 -0.3172689649083E+01 -0.1722584650352E+01 -0.4292471771799E+00
-0.2983840809005E+00 -0.3241147493114E+01 -0.1663579835567E+01 -0.4559477274303E+00
-0.1319149401661E+00 -0.3307846174529E+01 -0.1616687719806E+01 -0.4840251976240E+00
 0.1007593801656E-01 -0.3375152884887E+01 -0.1581586161018E+01 -0.5135775933308E+00
 0.1299474022652E+00 -0.3445186173739E+01 -0.1558162218641E+01 -0.5448161035543E+00
 0.2294606664483E+00 -0.3519896227367E+01 -0.1546504709709E+01 -0.5780702754807E+00
 0.3098180346544E+00 -0.3601110624454E+01 -0.1546907513282E+01 -0.6137827182491E+00
 0.3716639002910E+00 -0.3690552846565E+01 -0.1559877800793E+01 -0.6524810429148E+00
 0.4150301339638E+00 -0.3789828456125E+01 -0.1586155207393E+01 -0.6947572191155E+00
 0.4392262945392E+00 -0.3900388272742E+01 -0.1626746125629E+01 -0.7411997084214E+00
 0.4427237128354E+00 -0.4023495205426E+01 -0.1682962597249E+01 -0.7922719311159E+00
 0.4230362221838E+00 -0.4160193667481E+01 -0.1756463994835E+01 -0.8481755052936E+00
 0.3765860973262E+00 -0.4311273711995E+01 -0.1849303174204E+01 -0.9086762212553E+00
 0.2985521518482E+00 -0.4477224508037E+01 -0.1963976002427E+01 -0.9729003581768E+00
 0.1826897883402E+00 -0.4658163570728E+01 -0.2103472672387E+01 -0.1039111931372E+01
-0.2056871282711E+01 -0.2685252708622E+01 -0.2228798270274E+01 -0.2581833581620E+00
-0.1637475201157E+01 -0.2818979232700E+01 -0.2094533578600E+01 -0.2878662585115E+00
-0.1280423591842E+01 -0.2928865752189E+01 -0.1978365986677E+01 -0.3163367355176E+00
-0.9746921539226E+00 -0.3021795705666E+01 -0.1878349289243E+01 -0.3442211795845E+00
-0.7118882646820E+00 -0.3102995491230E+01 -0.1792995360731E+01 -0.3718797923922E+00
-0.4855499902388E+00 -0.3176553680008E+01 -0.1721188720650E+01 -0.3995211541462E+00
-0.2906451161236E+00 -0.3245783932632E+01 -0.1662121648699E+01 -0.4272982218314E+00
-0.1232275370289E+00 -0.3313472061844E+01 -0.1615248807373E+01 -0.4553726792832E+00
 0.1979769994476E-01 -0.3382046058508E+01 -0.1580256724517E+01 -0.4839538519964E+00
 0.1408335267273E+00 -0.3453696406436E+01 -0.1557045549514E+01 -0.5133242011696E+00
 0.2416854500400E+00 -0.3530458238986E+01 -0.1545723206884E+01 -0.5438611674158E+00
 0.3235982867841E+00 -0.3614258255614E+01 -0.1546610181427E+01 -0.5760455130361E+00
 0.3872579901528E+00 -0.3706934831267E+01 -0.1560248111366E+01 -0.6104414392927E+00
 0.4327276730264E+00 -0.3810220412343E+01 -0.1587421583452E+01 -0.6476934597195E+00
 0.4593165709147E+00 -0.3925696099566E+01 -0.1629198374334E+01 -0.6884654131035E+00
 0.4654477141160E+00 -0.4054752541821E+01 -0.1686973264743E+01 -0.7333150887544E+00
 0.4485254749583E+00 -0.4198554138657E+01 -0.1762513467468E+01 -0.7825612212364E+00
 0.4047897053913E+00 -0.4357997069229E+01 -0.1858007456291E+01 -0.8361139639007E+00
 0.3291577610318E+00 -0.4533655977418E+01 -0.1976114156690E+01 -0.8932806235677E+00
 0.2150541398522E+00 -0.4725704994199E+01 -0.2120005896166E+01 -0.9525607948460E+00
-0.2050182470100E+01 -0.2684958755658E+01 -0.2225516370462E+01 -0.1966459178774E+00
-0.1631380460993E+01 -0.2818233120757E+01 -0.2091318378118E+01 -0.2377596091469E+00
-0.1274470101532E+01 -0.2927979636910E+01 -0.1975151372058E+01 -0.2743940508817E+00
-0.9686061049336E+00 -0.3020968939140E+01 -0.1875100265958E+01 -0.3079867206316E+00
-0.7055056494412E+00 -0.3102370371268E+01 -0.1789701725194E+01 -0.3394556689201E+00
-0.4787635392623E+00 -0.3176255866597E+01 -0.1717859116397E+01 -0.3693857598479E+00
-0.2833653865875E+00 -0.3245951193217E+01 -0.1658778788301E+01 -0.3981815836752E+00
-0.1153578933099E+00 -0.3314273736991E+01 -0.1611926862153E+01 -0.4261713501626E+00
 0.2837554369895E-01 -0.3383697207441E+01 -0.1577001177959E+01 -0.4536721284991E+00
 0.1502684639998E+00 -0.3456471119259E+01 -0.1553915244030E+01 -0.4810336280806E+00
 0.2521633536375E+00 -0.3534704278001E+01 -0.1542794230538E+01 -0.5086761083549E+00
 0.3353457826299E+00 -0.3620412451198E+01 -0.1543981330311E+01 -0.5371121420211E+00
 0.4005491187773E+00 -0.3715540654340E+01 -0.1558046017763E+01 -0.5669340993390E+00
 0.4478806506764E+00 -0.3821940882153E+01 -0.1585808304772E+01 -0.5988331939176E+00
 0.4766655779676E+00 -0.3941316065378E+01 -0.1628385724953E+01 -0.6335472837920E+00
 0.4852977311719E+00 -0.4075174743171E+01 -0.1687242191360E+01 -0.6717298456325E+00
 0.4710950373808E+00 -0.4224790708838E+01 -0.1764236961110E+01 -0.7138215611696E+00
 0.4301438589231E+00 -0.4391156818789E+01 -0.1861676086415E+01 -0.7598851700304E+00
 0.3571389484001E+00 -0.4574929464325E+01 -0.1982361537457E+01 -0.8094207169056E+00
 0.2452348617396E+00 -0.4776350467806E+01 -0.2129624329449E+01 -0.8611798068955E+00
-0.2039013482978E+01 -0.2682300797537E+01 -0.2219017706214E+01 -0.1350535243756E+00
-0.1622300597932E+01 -0.2814570139371E+01 -0.2085329241243E+01 -0.1874791858769E+00
-0.1266624648522E+01 -0.2923782235759E+01 -0.1969491230617E+01 -0.2322157237218E+00
-0.9614438806634E+00 -0.3016518804597E+01 -0.1869642457330E+01 -0.2714847217682E+00
-0.6986748484457E+00 -0.3097839911295E+01 -0.1784361932552E+01 -0.3067432870441E+00
-0.4720321340056E+00 -0.3171765153088E+01 -0.1712584720590E+01 -0.3389388424799E+00
-0.2765626112602E+00 -0.3241607560342E+01 -0.1653539976459E+01 -0.3687183923516E+00
-0.1083357113915E+00 -0.3310197486242E+01 -0.1606710598813E+01 -0.3965709449280E+00
 0.3576600012009E-01 -0.3380038846307E+01 -0.1571808233721E+01 -0.4229174897956E+00
 0.1581927138604E+00 -0.3453426285537E+01 -0.1548759774760E+01 -0.4481712219848E+00
 0.2608159017195E+00 -0.3532529488940E+01 -0.1537705382093E+01 -0.4727904896264E+00
 0.3449592795073E+00 -0.3619441320203E+01 -0.1539006555223E+01 -0.4973133903419E+00
 0.4114096581639E+00 -0.3716203639984E+01 -0.1553253167516E+01 -0.5223509663416E+00
 0.4603328297576E+00 -0.3824779768963E+01 -0.1581290057416E+01 -0.5486344603233E+00
 0.4910877690047E+00 -0.3946985496843E+01 -0.1624271927964E+01 -0.5769742892440E+00
 0.5020597552189E+00 -0.4084437349121E+01 -0.1683717464864E+01 -0.6081205464545E+00
 0.4905048291390E+00 -0.4238508147830E+01 -0.1761561555317E+01 -0.6426399015895E+00
 0.4523863951189E+00 -0.4410278189103E+01 -0.1860209138454E+01 -0.6807536487712E+00
 0.3822180572215E+00 -0.4600482724893E+01 -0.1982584388777E+01 -0.7221607204136E+00
 0.2729550877353E+00 -0.4809448639583E+01 -0.2132151963961E+01 -0.7658697140739E+00
-0.2023393866430E+01 -0.2677282121791E+01 -0.2209317708860E+01 -0.7359902537460E-01
-0.1610239935858E+01 -0.2808003034759E+01 -0.2076574190923E+01 -0.1371509719380E+00
-0.1256879089585E+01 -0.2916287779077E+01 -0.1961388423297E+01 -0.1898942923170E+00
-0.9531930980402E+00 -0.3008456175748E+01 -0.1861975153958E+01 -0.2347970129710E+00
-0.6913848789061E+00 -0.3089408597267E+01 -0.1776972929294E+01 -0.2738293067072E+00
-0.4653500969261E+00 -0.3163077862061E+01 -0.1705361136399E+01 -0.3082824830638E+00
-0.2702390112762E+00 -0.3232740384691E+01 -0.1646400311929E+01 -0.3390338369610E+00
-0.1021728962041E+00 -0.3301221433399E+01 -0.1599595330856E+01 -0.3667262463872E+00
 0.4194584897368E-01 -0.3371039554186E+01 -0.1564674037481E+01 -0.3918807876406E+00
 0.1645697058790E+00 -0.3444519864433E+01 -0.1541576570610E+01 -0.4149709019495E+00
 0.2675903621431E+00 -0.3523878679732E+01 -0.1530455505385E+01 -0.4364888914719E+00
 0.3523658608025E+00 -0.3611271883226E+01 -0.1531685826654E+01 -0.4569923283392E+00
 0.4197424804217E+00 -0.3708826667260E+01 -0.1545869563893E+01 -0.4771000520654E+00
 0.4699603289401E+00 -0.3818608536001E+01 -0.1573864653327E+01 -0.4975754939975E+00
 0.5024314055290E+00 -0.3942536700567E+01 -0.1616849484567E+01 -0.5192998974865E+00
 0.5155543548952E+00 -0.4082325890170E+01 -0.1676382617327E+01 -0.5431202858117E+00
 0.5065485780005E+00 -0.4239438043906E+01 -0.1754458044526E+01 -0.5697326111532E+00
 0.4712848048840E+00 -0.4415031322886E+01 -0.1853560858760E+01 -0.5995207298268E+00
 0.4041365182489E+00 -0.4609915152530E+01 -0.1976715953098E+01 -0.6323827473532E+00
 0.2979400941457E+00 -0.4824520217046E+01 -0.2127492652367E+01 -0.6675742696973E+00
-0.2003377400565E+01 -0.2669922549239E+01 -0.2196450970837E+01 -0.1247294619014E-01
-0.1595212540391E+01 -0.2798566002519E+01 -0.2065075909930E+01 -0.8690144055305E-01
-0.1245225607679E+01 -0.2905534577556E+01 -0.1950857282112E+01 -0.1475243131187E+00
-0.9438354331029E+00 -0.2996817456329E+01 -0.1852106853335E+01 -0.1980083263107E+00
-0.6836145726092E+00 -0.3077107367596E+01 -0.1767539307413E+01 -0.2408038240051E+00
-0.4586985471710E+00 -0.3150217735398E+01 -0.1696190648505E+01 -0.2775224143175E+00
-0.2643811506108E+00 -0.3219366025947E+01 -0.1637361168829E+01 -0.3092566944248E+00
-0.9686328410685E-01 -0.3287355459538E+01 -0.1590582805479E+01 -0.3367954350682E+00
 0.4691261578831E-01 -0.3356704011708E+01 -0.1555601952137E+01 -0.3607562248524E+00
 0.1693866461790E+00 -0.3429752167636E+01 -0.1532371791198E+01 -0.3816703488546E+00
 0.2724610307642E+00 -0.3508747277564E+01 -0.1521054532138E+01 -0.4000608631826E+00
 0.3575225918250E+00 -0.3595891798045E+01 -0.1522033523063E+01 -0.4164993018728E+00
 0.4254828338334E+00 -0.3693384683682E+01 -0.1535913865533E+01 -0.4315997080844E+00
 0.4766736241351E+00 -0.3803383337923E+01 -0.1563553561515E+01 -0.4461482666531E+00
 0.5105806408113E+00 -0.3927900405445E+01 -0.1606140285304E+01 -0.4610948293600E+00
 0.5256388778526E+00 -0.4068739397556E+01 -0.1665257240037E+01 -0.4773827493738E+00
 0.5190566479498E+00 -0.4227442170040E+01 -0.1742941190962E+01 -0.4958399085407E+00
 0.4866398023851E+00 -0.4405235410690E+01 -0.1841739931232E+01 -0.5170157022084E+00
 0.4226574851678E+00 -0.4602994377060E+01 -0.1964758334206E+01 -0.5410030968524E+00
 0.3199139175547E+00 -0.4821267865268E+01 -0.2115636350059E+01 -0.5672766945524E+00
-0.1979041420499E+01 -0.2660258537539E+01 -0.2180470974747E+01  0.4813816041018E-01
-0.1577241908450E+01 -0.2786314665372E+01 -0.2050871584494E+01 -0.3685675950515E-01
-0.1231656611182E+01 -0.2891585044251E+01 -0.1937923573138E+01 -0.1052019394209E+00
-0.9333465995242E+00 -0.2981664627085E+01 -0.1840055271839E+01 -0.1612060199014E+00
-0.6753325955024E+00 -0.3060993561295E+01 -0.1756073289241E+01 -0.2077600771852E+00
-0.4520454714942E+00 -0.3133235682403E+01 -0.1685082138058E+01 -0.2467675076461E+00
-0.2589600474684E+00 -0.3201529382598E+01 -0.1626430028006E+01 -0.2795183695213E+00
-0.9238272014785E-01 -0.3268640571096E+01 -0.1579680942878E+01 -0.3069384603531E+00
 0.5068467015104E-01 -0.3337072321646E+01 -0.1544602192285E+01 -0.3297388650305E+00
 0.1726549635966E+00 -0.3409165345147E+01 -0.1521159875471E+01 -0.3485075089418E+00
 0.2754301757015E+00 -0.3487181301932E+01 -0.1509523025500E+01 -0.3637963870865E+00
 0.3604178842552E+00 -0.3573350118371E+01 -0.1510078146204E+01 -0.3761865308037E+00
 0.4285999205247E+00 -0.3669926337990E+01 -0.1523423412344E+01 -0.3862725359579E+00
 0.4804192127340E+00 -0.3779147281210E+01 -0.1550402188251E+01 -0.3948517952765E+00
 0.5154572423136E+00 -0.3903108114851E+01 -0.1592195906054E+01 -0.4029397460012E+00
 0.5322093237532E+00 -0.4043692417631E+01 -0.1650397049937E+01 -0.4115740860337E+00
 0.5278982443487E+00 -0.4202514180360E+01 -0.1727069485545E+01 -0.4217166924522E+00
 0.4982901764134E+00 -0.4380859228628E+01 -0.1824807449912E+01 -0.4340853301747E+00
 0.4375716762535E+00 -0.4579659917015E+01 -0.1946781468220E+01 -0.4489617897296E+00
 0.3385952883696E+00 -0.4799589251902E+01 -0.2096667157542E+01 -0.4659923357955E+00
-0.1950485770982E+01 -0.2648343008131E+01 -0.2161449520701E+01  0.1080533963028E+00
-0.1556360547212E+01 -0.2771325814792E+01 -0.2034012584983E+01  0.1285810082900E-01
-0.1216164649697E+01 -0.2874525595669E+01 -0.1922624410445E+01 -0.6302440389140E-01
-0.9216964028263E+00 -0.2963085216470E+01 -0.1825847356438E+01 -0.1244797747776E+00
-0.6664975837379E+00 -0.3041150710938E+01 -0.1742594694078E+01 -0.1747942085724E+00
-0.4453459736711E+00 -0.3112209232261E+01 -0.1672050942547E+01 -0.2161293611935E+00
-0.2539315647741E+00 -0.3179302996502E+01 -0.1613620239707E+01 -0.2499520395036E+00
-0.8868951823157E-01 -0.3245147698833E+01 -0.1566903488046E+01 -0.2773154901354E+00
 0.5330085500221E-01 -0.3312218572510E+01 -0.1531691323344E+01 -0.2990221579414E+00
 0.1744102825105E+00 -0.3382841865941E+01 -0.1507962840388E+01 -0.3157169822416E+00
 0.2765285987559E+00 -0.3459276157752E+01 -0.1495891348934E+01 -0.3279810312786E+00
 0.3610726099014E+00 -0.3543756876248E+01 -0.1495861601389E+01 -0.3364022438662E+00
 0.4290982285316E+00 -0.3638574718104E+01 -0.1508453946273E+01 -0.3415388372429E+00
 0.4811809578262E+00 -0.3746032037523E+01 -0.1534480003565E+01 -0.3441851996343E+00
 0.5170219288108E+00 -0.3868293631839E+01 -0.1575097696428E+01 -0.3454179870218E+00
 0.5352018967002E+00 -0.4007315571827E+01 -0.1631893423170E+01 -0.3463649601436E+00
 0.5329833392237E+00 -0.4164779380594E+01 -0.1706944135115E+01 -0.3481235544495E+00
 0.5061146205080E+00 -0.4342020981981E+01 -0.1802875985320E+01 -0.3515835352924E+00
 0.4487079506531E+00 -0.4540015763981E+01 -0.1922914667387E+01 -0.3572086984968E+00
 0.3536918373300E+00 -0.4759584063172E+01 -0.2070769340894E+01 -0.3647513149481E+00
-0.1917831404318E+01 -0.2634244799177E+01 -0.2139475810216E+01  0.1670992190623E+00
-0.1532609457509E+01 -0.2753696880830E+01 -0.2014563973910E+01  0.6212040401276E-01
-0.1198742400481E+01 -0.2854466584950E+01 -0.1905008218321E+01 -0.2108936729969E-01
-0.9088489127877E+00 -0.2941192396367E+01 -0.1809519410713E+01 -0.8792130318936E-01
-0.6570583885033E+00 -0.3017688270871E+01 -0.1727130925525E+01 -0.1420051762796E+00
-0.4385427063267E+00 -0.3087241728544E+01 -0.1657118680186E+01 -0.1857220911381E+00
-0.2492370927764E+00 -0.3152785763964E+01 -0.1598950738612E+01 -0.2206920046104E+00
-0.8572536837478E-01 -0.3216976016245E+01 -0.1552269646834E+01 -0.2480855655743E+00
 0.5481956134892E-01 -0.3282248706519E+01 -0.1516891694382E+01 -0.2687956524121E+00
 0.1747117647964E+00 -0.3350902002413E+01 -0.1492809407893E+01 -0.2835264954117E+00
 0.2758157382266E+00 -0.3425174038965E+01 -0.1480198397593E+01 -0.2928909339172E+00
 0.3595409567146E+00 -0.3507281236900E+01 -0.1479437927935E+01 -0.2974843606497E+00
 0.4270188142663E+00 -0.3599527060603E+01 -0.1491078871996E+01 -0.2978094946076E+00
 0.4789811196966E+00 -0.3704259384765E+01 -0.1515880780737E+01 -0.2946405105259E+00
 0.5152751640664E+00 -0.3823694584757E+01 -0.1554957123781E+01 -0.2891087186233E+00
 0.5345941400021E+00 -0.3959854895575E+01 -0.1609872551036E+01 -0.2824233350024E+00
 0.5342648069035E+00 -0.4114491948568E+01 -0.1682706752315E+01 -0.2758181331497E+00
 0.5100333743680E+00 -0.4288986644435E+01 -0.1776108032427E+01 -0.2703620237827E+00
 0.4559263331708E+00 -0.4484329987338E+01 -0.1893349712656E+01 -0.2666937065383E+00
 0.3649239584023E+00 -0.4701502038660E+01 -0.2038191692551E+01 -0.2645758913126E+00
-0.1881218020606E+01 -0.2618046956107E+01 -0.2114654533692E+01  0.2251111652751E+00
-0.1506037289810E+01 -0.2733544812229E+01 -0.1992603582904E+01  0.1108110276302E+00
-0.1179382650007E+01 -0.2831542456666E+01 -0.1885134795355E+01  0.2050601304130E-01
-0.8947625694923E+00 -0.2916125321872E+01 -0.1791117304398E+01 -0.5162408224471E-01
-0.6469542847168E+00 -0.2990741261177E+01 -0.1709716902234E+01 -0.1094949050420E+00
-0.4315662522697E+00 -0.3058460999483E+01 -0.1640312804163E+01 -0.1556623693692E+00
-0.2448044439977E+00 -0.3122101174492E+01 -0.1582445636677E+01 -0.1918732365672E+00
-0.8341660233607E-01 -0.3184250742354E+01 -0.1535803648109E+01 -0.2194054798755E+00
 0.5531723002654E-01 -0.3247297721217E+01 -0.1500230827055E+01 -0.2392429828043E+00
 0.1736408044352E+00 -0.3313500162618E+01 -0.1475733894603E+01 -0.2521535895981E+00
 0.2733790309447E+00 -0.3385059765232E+01 -0.1462489941405E+01 -0.2587877305412E+00
 0.3559112558877E+00 -0.3464147259103E+01 -0.1460870917806E+01 -0.2597535711061E+00
 0.4224407086438E+00 -0.3553052898155E+01 -0.1471387725338E+01 -0.2554777545088E+00
 0.4738818119711E+00 -0.3654142583609E+01 -0.1494722558879E+01 -0.2466945724811E+00
 0.5102568721204E+00 -0.3769655978669E+01 -0.1531917576193E+01 -0.2345805054347E+00
 0.5304050569462E+00 -0.3901670825785E+01 -0.1584494907335E+01 -0.2204088302245E+00
 0.5317412503377E+00 -0.4052027418740E+01 -0.1654534494953E+01 -0.2055470790987E+00
 0.5100149612585E+00 -0.4222162563889E+01 -0.1744709368811E+01 -0.1912597016936E+00
 0.4591197246910E+00 -0.4413038767189E+01 -0.1858341945261E+01 -0.1783673747869E+00
 0.3720360357531E+00 -0.4625731748442E+01 -0.1999236979893E+01 -0.1665286606460E+00
-0.1840800584909E+01 -0.2599843085521E+01 -0.2087102519808E+01  0.2819357914376E+00
-0.1476699614309E+01 -0.2711004664880E+01 -0.1968221006227E+01  0.1588166715193E+00
-0.1158078474846E+01 -0.2805912875402E+01 -0.1863075929891E+01  0.6166657538202E-01
-0.8793908441928E+00 -0.2888050975026E+01 -0.1770697650542E+01 -0.1568328592072E-01
-0.6361149384213E+00 -0.2960469628226E+01 -0.1690394742037E+01 -0.7736897803304E-01
-0.4243357201049E+00 -0.3026017586042E+01 -0.1621666049776E+01 -0.1260698163074E+00
-0.2405489433044E+00 -0.3087395042444E+01 -0.1564133669334E+01 -0.1636311252926E+00
-0.8167618145318E-01 -0.3147121052725E+01 -0.1517534696215E+01 -0.1914289711447E+00
 0.5488623159922E-01 -0.3207526448544E+01 -0.1481740898206E+01 -0.2105403850042E+00
 0.1712987355977E+00 -0.3270820413697E+01 -0.1456775185012E+01 -0.2218028722803E+00
 0.2693323554015E+00 -0.3339154963758E+01 -0.1442816622268E+01 -0.2259138237939E+00
 0.3503053557172E+00 -0.3414627742736E+01 -0.1440231518246E+01 -0.2235062666879E+00
 0.4154842633787E+00 -0.3499487375336E+01 -0.1449481458943E+01 -0.2149093880476E+00
 0.4659864551730E+00 -0.3596088935031E+01 -0.1471148161802E+01 -0.2007988249208E+00
 0.5020468364171E+00 -0.3706637360779E+01 -0.1506157542630E+01 -0.1823848847082E+00
 0.5226903036272E+00 -0.3833244093798E+01 -0.1555960277434E+01 -0.1609708827536E+00
 0.5254592435046E+00 -0.3977868493393E+01 -0.1622632343332E+01 -0.1380418056762E+00
 0.5060906358719E+00 -0.4142072657060E+01 -0.1708911545624E+01 -0.1150883142355E+00
 0.4582473017031E+00 -0.4326742413939E+01 -0.1818192698139E+01 -0.9316675891269E-01
 0.3748056060752E+00 -0.4532871235061E+01 -0.1954290840666E+01 -0.7172477244022E-01
-0.1796742934697E+01 -0.2579728840842E+01 -0.2056941729286E+01  0.3374330600858E+00
-0.1444655978590E+01 -0.2686225079622E+01 -0.1941514092435E+01  0.2060343404161E+00
-0.1134825667918E+01 -0.2777769004287E+01 -0.1838919491272E+01  0.1023018450839E+00
-0.8626815342966E+00 -0.2857166682869E+01 -0.1748328657634E+01  0.1980354231214E-01
-0.6244606400737E+00 -0.2927057682036E+01 -0.1669213607158E+01 -0.4573837820873E-01
-0.4167578632579E+00 -0.2990079977373E+01 -0.1601213781035E+01 -0.9706765822927E-01
-0.2363753757222E+00 -0.3048833503714E+01 -0.1544048169419E+01 -0.1361010134604E+00
-0.8040564345924E-01 -0.3105757785475E+01 -0.1497496807801E+01 -0.1643061209906E+00
 0.5363174391606E-01 -0.3163118656586E+01 -0.1461458845248E+01 -0.1828559172433E+00
 0.1678043419014E+00 -0.3223070207229E+01 -0.1435974953062E+01 -0.1926640395288E+00
 0.2638129896246E+00 -0.3287710876540E+01 -0.1421232003245E+01 -0.1944881571198E+00
 0.3428769339771E+00 -0.3359035077291E+01 -0.1417594323762E+01 -0.1890077418776E+00
 0.4063104082119E+00 -0.3439222337315E+01 -0.1425468603063E+01 -0.1764320535219E+00
 0.4554551942710E+00 -0.3530585363795E+01 -0.1445311176010E+01 -0.1573629631058E+00
 0.4907566231434E+00 -0.3635240756502E+01 -0.1477907538930E+01 -0.1330463748054E+00
 0.5115385854602E+00 -0.3755190697884E+01 -0.1524516488972E+01 -0.1047531636376E+00
 0.5155009638499E+00 -0.3892598016815E+01 -0.1587235610868E+01 -0.7402579520753E-01
 0.4983750362682E+00 -0.4049300016369E+01 -0.1668934736414E+01 -0.4261844043606E-01
 0.4533817918850E+00 -0.4226171150629E+01 -0.1773210994112E+01 -0.1197010724403E-01
 0.3730501858953E+00 -0.4423812637394E+01 -0.1903858347376E+01  0.1872153949513E-01
-0.1749192318318E+01 -0.2557767586804E+01 -0.2024271150273E+01  0.3914823982991E+00
-0.1409976112095E+01 -0.2659374209026E+01 -0.1912594646076E+01  0.2523822036671E+00
-0.1109619971501E+01 -0.2747341401336E+01 -0.1812771840636E+01  0.1423308583186E+00
-0.8445840597416E+00 -0.2823716484074E+01 -0.1724101251221E+01  0.5473317369564E-01
-0.6118948329262E+00 -0.2890702687269E+01 -0.1646220830316E+01 -0.1472400142128E-01
-0.4087293667880E+00 -0.2950829984938E+01 -0.1578992891306E+01 -0.6878288021965E-01
-0.2321783712045E+00 -0.3006599092736E+01 -0.1522225404191E+01 -0.1094168241591E+00
-0.7950047310788E-01 -0.3060356062750E+01 -0.1475732568110E+01 -0.1381831508273E+00
 0.5167035791044E-01 -0.3114276005265E+01 -0.1439424650606E+01 -0.1563500483293E+00
 0.1632882242846E+00 -0.3170475469127E+01 -0.1413378001491E+01 -0.1649113461692E+00
 0.2569796991608E+00 -0.3230996658640E+01 -0.1397787967410E+01 -0.1647028950078E+00
 0.3338057118789E+00 -0.3297712709570E+01 -0.1393036285382E+01 -0.1564861893289E+00
 0.3951179757206E+00 -0.3372693010307E+01 -0.1399460262706E+01 -0.1403261904658E+00
 0.4425024123549E+00 -0.3458185862935E+01 -0.1417371218178E+01 -0.1167370311878E+00
 0.4766037397730E+00 -0.3556159533614E+01 -0.1447391219434E+01 -0.8702811871725E-01
 0.4969718293987E+00 -0.3668436433555E+01 -0.1490588360173E+01 -0.5240378790393E-01
 0.5019977902273E+00 -0.3796858411825E+01 -0.1548584488223E+01 -0.1426109042364E-01
 0.4870780567023E+00 -0.3944373155631E+01 -0.1624928692375E+01  0.2542371766364E-01
 0.4447506410399E+00 -0.4112095513578E+01 -0.1723652085721E+01  0.6447036722296E-01
 0.3668175703483E+00 -0.4299714218713E+01 -0.1848461420043E+01  0.1037391713155E+00
-0.1698264601606E+01 -0.2533950278375E+01 -0.1989140988546E+01  0.4439893949720E+00
-0.1372679416459E+01 -0.2630569419471E+01 -0.1881526948115E+01  0.2978342464840E+00
-0.1082538935298E+01 -0.2715035376487E+01 -0.1784859922012E+01  0.1816909569541E+00
-0.8250059361090E+00 -0.2787955938995E+01 -0.1698092076992E+01  0.8897712497901E-01
-0.5983031214810E+00 -0.2851598059191E+01 -0.1621453550803E+01  0.1553961842088E-01
-0.4001413885285E+00 -0.2908459189303E+01 -0.1555042267636E+01 -0.4134405302727E-01
-0.2278480524663E+00 -0.2960891892073E+01 -0.1498707770132E+01 -0.8370978225970E-01
-0.7883879253654E-01 -0.3011122210375E+01 -0.1452281667685E+01 -0.1131996595340E+00
 0.4910402716181E-01 -0.3061245021608E+01 -0.1415706263799E+01 -0.1311795697723E+00
 0.1579057299517E+00 -0.3113249460497E+01 -0.1389011549833E+01 -0.1387071035861E+00
 0.2490037688723E+00 -0.3169291131409E+01 -0.1372535056911E+01 -0.1367183687309E+00
 0.3232900825431E+00 -0.3231028007858E+01 -0.1366636821432E+01 -0.1261276963748E+00
 0.3821350085814E+00 -0.3300365678999E+01 -0.1371568411618E+01 -0.1068191304135E+00
 0.4273934090635E+00 -0.3379486317866E+01 -0.1387483663618E+01 -0.7919930645175E-01
 0.4598880740366E+00 -0.3470165594181E+01 -0.1414830430879E+01 -0.4469269010610E-01
 0.4793334881482E+00 -0.3573955789227E+01 -0.1454472477818E+01 -0.4471644241279E-02
 0.4843579020101E+00 -0.3692387077347E+01 -0.1507773708584E+01  0.4029154726853E-01
 0.4729197493717E+00 -0.3826944097476E+01 -0.1576391439611E+01  0.8819840831867E-01
 0.4330593783089E+00 -0.3984725939797E+01 -0.1669283279665E+01  0.1357837654116E+00
 0.3558876980077E+00 -0.4162837792137E+01 -0.1789266539703E+01  0.1825215630307E+00
-0.1643056014384E+01 -0.2507018808023E+01 -0.1950535161584E+01  0.4950724073098E+00
-0.1333364794180E+01 -0.2600727434497E+01 -0.1849023342789E+01  0.3425859429115E+00
-0.1053524245303E+01 -0.2681330799351E+01 -0.1755381866535E+01  0.2202677254030E+00
-0.8037914202194E+00 -0.2750091456294E+01 -0.1670324947725E+01  0.1223545046352E+00
-0.5835621732882E+00 -0.2809913739870E+01 -0.1594933675139E+01  0.4490929330353E-01
-0.3908845142631E+00 -0.2863168112607E+01 -0.1529404730750E+01 -0.1487410031687E-01
-0.2232792612448E+00 -0.2911940984398E+01 -0.1473553511714E+01 -0.5910846442968E-01
-0.7829328140415E-01 -0.2958274084244E+01 -0.1427186658235E+01 -0.8949039903811E-01
 0.4610054682438E-01 -0.3004242609339E+01 -0.1390326765855E+01 -0.1074827516087E+00
 0.1516546332286E+00 -0.3051795900192E+01 -0.1363066392015E+01 -0.1142316685153E+00
 0.2402311872840E+00 -0.3102628992826E+01 -0.1345326965192E+01 -0.1106671837867E+00
 0.3115258466479E+00 -0.3159397592457E+01 -0.1338499717135E+01 -0.9802919355129E-01
 0.3674655622705E+00 -0.3222923452585E+01 -0.1342065205044E+01 -0.7611138225696E-01
 0.4105711299994E+00 -0.3294895031439E+01 -0.1355632230238E+01 -0.4496383420390E-01
 0.4409643577436E+00 -0.3378081579108E+01 -0.1380445090540E+01 -0.6256362685052E-02
 0.4589988719168E+00 -0.3472954586891E+01 -0.1416559182445E+01  0.3869080476558E-01
 0.4635407107213E+00 -0.3580351657681E+01 -0.1464901141356E+01  0.8887752056549E-01
 0.4518050752341E+00 -0.3702034799571E+01 -0.1527607966564E+01  0.1436436935454E+00
 0.4242800794266E+00 -0.3836181209249E+01 -0.1603593526949E+01  0.2016637336860E+00
 0.3451522853550E+00 -0.4014761646845E+01 -0.1724716395526E+01  0.2547341589678E+00
-0.3856865418569E+01 -0.6714738691358E+01 -0.4968653919063E+01 -0.5662982191895E+00
 0.1688716837158E+00 -0.9568970058159E+00 -0.3703719004476E+00  0.4907301222457E+00
 0.7821534425205E-01 -0.1585038229173E+00 -0.3773558487698E-01  0.1769424640159E+00
 0.1293823232005E+00  0.1302969491771E+00  0.1220492577079E+00 -0.8121898576048E-02
 0.1097073518728E+00  0.2517746562762E+00  0.1698965433991E+00 -0.8934163962748E-01
 0.8366024360247E-01  0.3173918043909E+00  0.1884944620788E+00 -0.1178789751135E+00
 0.5899541143709E-01  0.3584617210587E+00  0.1962048517754E+00 -0.1178370411566E+00
 0.3879966647897E-01  0.3846429989793E+00  0.1990180522606E+00 -0.1019635775335E+00
 0.2202965807542E-01  0.3965494988827E+00  0.1967322032713E+00 -0.7760422706950E-01
 0.9611931873722E-02  0.3954737223121E+00  0.1903902569844E+00 -0.4750086513821E-01
 0.6240710225490E-02  0.3846884764751E+00  0.1837367172833E+00 -0.1444249754117E-01
 0.2107635862026E-02  0.3511500074713E+00  0.1660310919456E+00  0.1948957204356E-01
 0.6299551093758E-02  0.3032616319128E+00  0.1454937556440E+00  0.6110778698190E-01
 0.3221443595283E-01  0.2616159099983E+00  0.1381002622468E+00  0.1051184039872E+00
 0.8005504849839E-01  0.2313333660074E+00  0.1463525544465E+00  0.1428437821748E+00
 0.1386700777128E+00  0.2066654348099E+00  0.1623076904740E+00  0.1721979932068E+00
 0.1991804852115E+00  0.1853198836698E+00  0.1807151729159E+00  0.1930164111170E+00
 0.2556415338802E+00  0.1621687135883E+00  0.1963708158121E+00  0.2052287371503E+00
 0.3085807398653E+00  0.1347085326783E+00  0.2083459575670E+00  0.2088180906440E+00
 0.3540239296509E+00  0.8645679246877E-01  0.2070259388711E+00  0.2097103047639E+00
-0.1528513634803E+01 -0.4484529953652E+01 -0.2826130479405E+01 -0.9861965220628E+00
-0.4866880472228E+00 -0.2601619945713E+01 -0.1451504752998E+01  0.5231452372618E-01
 0.1188140491538E+00 -0.7184791542477E+00 -0.2818425986793E+00  0.1782282032027E+00
 0.1216941583462E+00 -0.1964588944833E+00 -0.3513942589528E-01  0.5544492225386E-01
 0.1095604941077E+00  0.3398298134840E-01  0.6746543329323E-01 -0.3175630189704E-01
 0.7783558458415E-01  0.1492295454776E+00  0.1067206108584E+00 -0.7424798251288E-01
 0.5013600653559E-01  0.2188171192980E+00  0.1264079688212E+00 -0.8651124079351E-01
 0.2706463067357E-01  0.2628222689009E+00  0.1362468424544E+00 -0.7980771310029E-01
 0.8709549736535E-02  0.2891616687574E+00  0.1399994723371E+00 -0.6187294050280E-01
-0.3980674486060E-02  0.3015821231592E+00  0.1398726805216E+00 -0.3658471447414E-01
-0.1235753052398E-01  0.2992370762792E+00  0.1348333861630E+00 -0.5886785878413E-02
-0.1580919670749E-01  0.2850155696691E+00  0.1265269949710E+00  0.2748102915303E-01
-0.9584899045286E-02  0.2611578224743E+00  0.1182392737118E+00  0.6490423665158E-01
 0.1129938423652E-01  0.2315306704716E+00  0.1141301254234E+00  0.1020613267746E+00
 0.4930040677187E-01  0.2031992190506E+00  0.1186748238356E+00  0.1328311002087E+00
 0.9928453809020E-01  0.1781839285472E+00  0.1304101789888E+00  0.1560870671249E+00
 0.1521138762518E+00  0.1548417539487E+00  0.1442691458283E+00  0.1718976099788E+00
 0.2037715762646E+00  0.1311219065138E+00  0.1573999365066E+00  0.1809057155685E+00
 0.2519939268210E+00  0.1035339769370E+00  0.1670981143425E+00  0.1839005005395E+00
 0.3005672563826E+00  0.7599180168293E-01  0.1769827568419E+00  0.1862994453462E+00
-0.9345333786979E+00 -0.3656721869970E+01 -0.2157889961401E+01 -0.1150028972189E+01
-0.3023668890480E+00 -0.2700951671883E+01 -0.1411559720057E+01 -0.3253169598422E+00
-0.1320445092732E-01 -0.1419835011167E+01 -0.6735285454760E+00  0.1369885361374E-01
 0.1251634016109E+00 -0.5834012666548E+00 -0.2153717960243E+00  0.4780898959116E-01
 0.1115283774338E+00 -0.2288083272209E+00 -0.5512157626016E-01 -0.4103531818336E-02
 0.8017206525078E-01 -0.4511637183452E-01  0.1647617586385E-01 -0.4480045169089E-01
 0.4746289466110E-01  0.6097202942797E-01  0.5096441419260E-01 -0.6319108984160E-01
 0.2051730606065E-01  0.1283225115736E+00  0.6995471411065E-01 -0.6339176891526E-01
-0.6862631500215E-03  0.1718666551767E+00  0.8045478404847E-01 -0.5123906267235E-01
-0.1636732216184E-01  0.1982689601430E+00  0.8549376963429E-01 -0.3045669260176E-01
-0.2707331062997E-01  0.2101738375674E+00  0.8605724744233E-01 -0.3318940070684E-02
-0.3191659971069E-01  0.2119259276638E+00  0.8460438392339E-01  0.2710293371859E-01
-0.2685204581456E-01  0.2048282476043E+00  0.8364881462901E-01  0.6040570790553E-01
-0.9543314713572E-02  0.1873298471666E+00  0.8355967004097E-01  0.9242583953799E-01
 0.2090209146488E-01  0.1645925513253E+00  0.8718248189028E-01  0.1177464530643E+00
 0.6197511428931E-01  0.1413488320615E+00  0.9556225454248E-01  0.1358295604307E+00
 0.1072156580674E+00  0.1188248760232E+00  0.1062390507531E+00  0.1473864164546E+00
 0.1525823208521E+00  0.9628687230559E-01  0.1169685204874E+00  0.1536504239980E+00
 0.1970276609171E+00  0.7480699015817E-01  0.1277622856813E+00  0.1556856128480E+00
 0.2385261786664E+00  0.5601098587624E-01  0.1384324669839E+00  0.1563234148399E+00
-0.6791012476199E+00 -0.3166557483793E+01 -0.1807459599180E+01 -0.1236938511788E+01
-0.2159268138272E+00 -0.2645897574015E+01 -0.1345057458874E+01 -0.5938223768814E+00
-0.9720154518068E-02 -0.1751104325732E+01 -0.8275875036187E+00 -0.1920108126741E+00
 0.9436398159544E-01 -0.9866516490659E+00 -0.4193752026474E+00 -0.3820457399836E-01
 0.1132876633013E+00 -0.5175048049600E+00 -0.1899820560977E+00 -0.2033241930553E-01
 0.8422342767239E-01 -0.2640240368097E+00 -0.8450628608021E-01 -0.3850797849045E-01
 0.4936444817073E-01 -0.1142265294830E+00 -0.3048517813947E-01 -0.5296130947847E-01
 0.1825686971729E-01 -0.1930949627499E-01 -0.4947344808609E-03 -0.5555776103520E-01
-0.6673014099234E-02  0.4404964501051E-01  0.1756701648374E-01 -0.4726567056001E-01
-0.2569669022501E-01  0.8663559539743E-01  0.2864128535839E-01 -0.3044642547804E-01
-0.3924862298232E-01  0.1135124779688E+00  0.3490401175509E-01 -0.7170091176826E-02
-0.4620527417526E-01  0.1303383470458E+00  0.3954254414886E-01  0.1974822882838E-01
-0.4367327508386E-01  0.1375754752637E+00  0.4413403397260E-01  0.4897139374764E-01
-0.3032307162224E-01  0.1314503832685E+00  0.4752983635321E-01  0.7643578774598E-01
-0.6440997559123E-02  0.1158417337395E+00  0.5141834587438E-01  0.9718498829211E-01
 0.2648086189207E-01  0.9670255615558E-01  0.5789620633555E-01  0.1109290131903E+00
 0.6384328010730E-01  0.7702464480374E-01  0.6620792454026E-01  0.1188293233840E+00
 0.1026351047561E+00  0.5833012809566E-01  0.7565365924845E-01  0.1224812711603E+00
 0.1408114872695E+00  0.4224277070635E-01  0.8603550103043E-01  0.1227589889034E+00
 0.1751078854254E+00  0.3029894478360E-01  0.9654120995335E-01  0.1208894210691E+00
-0.5646447375549E+00 -0.2845999580050E+01 -0.1603002825208E+01 -0.1287115221821E+01
-0.1876756081697E+00 -0.2548534480381E+01 -0.1286018738357E+01 -0.7861186385924E+00
-0.7850986129358E-02 -0.1919739977574E+01 -0.9059677506427E+00 -0.3838196307549E+00
 0.8070079228502E-01 -0.1279309163486E+01 -0.5633459330358E+00 -0.1624703782254E+00
 0.1034662894145E+00 -0.8019460309154E+00 -0.3282854776728E+00 -0.7963230709265E-01
 0.8578731691624E-01 -0.4945611109084E+00 -0.1921236826890E+00 -0.6081199614280E-01
 0.5196008441824E-01 -0.3032618984360E+00 -0.1181118522888E+00 -0.6049634730152E-01
 0.1852390176552E-01 -0.1787664374157E+00 -0.7531399156458E-01 -0.5933117513546E-01
-0.9817689598325E-02 -0.9377016199677E-01 -0.4868629012621E-01 -0.5183405968265E-01
-0.3228883735906E-01 -0.3377316943339E-01 -0.3104914311370E-01 -0.3761818085169E-01
-0.4897559114714E-01  0.8515027034623E-02 -0.1901646508465E-01 -0.1774426477914E-01
-0.5870202375897E-01  0.3979094172983E-01 -0.8888208531154E-02  0.5756014690627E-02
-0.5949858705077E-01  0.6032022068022E-01  0.3861678048585E-03  0.3111009036299E-01
-0.5060640504402E-01  0.6525209752868E-01  0.6883475450330E-02  0.5435095455475E-01
-0.3294076154912E-01  0.5770647394905E-01  0.1163988479844E-01  0.7102730841123E-01
-0.7651054033617E-02  0.4432033894987E-01  0.1723456386692E-01  0.8099064532188E-01
 0.2196995547962E-01  0.2935727097619E-01  0.2412379637304E-01  0.8563151458555E-01
 0.5351429307317E-01  0.1556063546306E-01  0.3246521632968E-01  0.8667974363527E-01
 0.8469235766098E-01  0.4897316413010E-02  0.4210714670798E-01  0.8486777938839E-01
 0.1118505198220E+00 -0.1306442225833E-02  0.5195571633840E-01  0.8039078097868E-01
-0.5151695013668E+00 -0.2622567864486E+01 -0.1474736558210E+01 -0.1318184805167E+01
-0.1973698847707E+00 -0.2449555040506E+01 -0.1244054711725E+01 -0.9246190917632E+00
-0.2254546691303E-01 -0.2001213641336E+01 -0.9511667784647E+00 -0.5486222144681E+00
 0.6374693848305E-01 -0.1483883337596E+01 -0.6674641058903E+00 -0.2962228318615E+00
 0.9033996559842E-01 -0.1043022266839E+01 -0.4477606804475E+00 -0.1661040562159E+00
 0.8048101151370E-01 -0.7196993031455E+00 -0.3004325963049E+00 -0.1097857698594E+00
 0.5198029986296E-01 -0.4979273006846E+00 -0.2095950898545E+00 -0.8776300188513E-01
 0.1883167370353E-01 -0.3467235068798E+00 -0.1541091612020E+00 -0.7697811620576E-01
-0.1147667977602E-01 -0.2402108381979E+00 -0.1182931331477E+00 -0.6659962794670E-01
-0.3684626898561E-01 -0.1625460786495E+00 -0.9371440315082E-01 -0.5295960105466E-01
-0.5663519111095E-01 -0.1048754535983E+00 -0.7591000282079E-01 -0.3544816012373E-01
-0.6944754492909E-01 -0.5961140407021E-01 -0.6065770587582E-01 -0.1485346886551E-01
-0.7408886082186E-01 -0.2642090276647E-01 -0.4723958876670E-01  0.6987197417852E-02
-0.7004338555033E-01 -0.1053382255938E-01 -0.3787128771551E-01  0.2629024008654E-01
-0.5848345129223E-01 -0.9339612767585E-02 -0.3187684002726E-01  0.3922171740445E-01
-0.4045652898421E-01 -0.1576539336909E-01 -0.2642430343903E-01  0.4576649099961E-01
-0.1844807946172E-01 -0.2479928976750E-01 -0.2032626348618E-01  0.4741840888918E-01
 0.5636200028370E-02 -0.3292827036475E-01 -0.1282727302556E-01  0.4594260695931E-01
 0.2956674100928E-01 -0.3805511006176E-01 -0.3989533444548E-02  0.4198652573660E-01
 0.4991247478059E-01 -0.3896977862349E-01  0.5143067180795E-02  0.3514294329127E-01
-0.5002879397223E+00 -0.2462066320240E+01 -0.1392306498651E+01 -0.1338566598221E+01
-0.2284325785867E+00 -0.2360106490778E+01 -0.1216613359516E+01 -0.1024925162650E+01
-0.5441426344830E-01 -0.2036792934677E+01 -0.9828673806259E+00 -0.6850235292279E+00
 0.3737327355694E-01 -0.1624697629149E+01 -0.7460424452359E+00 -0.4248076824557E+00
 0.7071445089276E-01 -0.1237486619721E+01 -0.5483829179583E+00 -0.2650130478554E+00
 0.6889094483292E-01 -0.9236945784168E+00 -0.4017577067654E+00 -0.1778211107669E+00
 0.4699319467399E-01 -0.6887047114982E+00 -0.3016044121424E+00 -0.1330342700696E+00
 0.1695269870854E-01 -0.5179571993459E+00 -0.2354721147023E+00 -0.1089930597878E+00
-0.1333555173525E-01 -0.3927251222937E+00 -0.1908485163095E+00 -0.9248715000599E-01
-0.4042411574189E-01 -0.2984862557765E+00 -0.1592878742097E+00 -0.7718553869417E-01
-0.6280886048523E-01 -0.2260888905276E+00 -0.1357819426317E+00 -0.6065171455646E-01
-0.7865719681348E-01 -0.1674719093892E+00 -0.1156806796219E+00 -0.4216704757516E-01
-0.8734284068977E-01 -0.1221784185629E+00 -0.9847499159898E-01 -0.2334958217495E-01
-0.8836035351551E-01 -0.9544815086379E-01 -0.8638999683915E-01 -0.7675565771864E-02
-0.8281789986206E-01 -0.8504309286820E-01 -0.7889466638312E-01  0.1775426928162E-02
-0.7176532008319E-01 -0.8369924124317E-01 -0.7306834363806E-01  0.5170872905746E-02
-0.5714697387396E-01 -0.8597121557069E-01 -0.6726554886838E-01  0.4064280592440E-02
-0.4047486319836E-01 -0.8786896593274E-01 -0.6032159953862E-01  0.2136865725049E-03
-0.2372591508086E-01 -0.8722464554044E-01 -0.5214676335975E-01 -0.5755969845577E-02
-0.9841466199565E-02 -0.8296860183991E-01 -0.4362073186791E-01 -0.1454370926037E-01
-0.5053588732586E+00 -0.2344997361171E+01 -0.1339667426784E+01 -0.1352673928046E+01
-0.2712624330197E+00 -0.2283727663533E+01 -0.1200845342334E+01 -0.1097740984148E+01
-0.9907600338441E-01 -0.2048229315262E+01 -0.1009233497204E+01 -0.7955923647846E+00
 0.4727563759923E-03 -0.1722095591791E+01 -0.8091627305927E+00 -0.5414186088133E+00
 0.4311187886187E-01 -0.1391296722896E+01 -0.6336468750890E+00 -0.3661627502429E+00
 0.5038427881439E-01 -0.1101536316662E+01 -0.4940414565352E+00 -0.2567653990749E+00
 0.3630445768522E-01 -0.8677620033442E+00 -0.3907850454686E+00 -0.1920129858447E+00
 0.1131000427428E-01 -0.6869311303896E+00 -0.3175419284688E+00 -0.1539161922970E+00
-0.1689333176664E-01 -0.5479422383078E+00 -0.2654727172616E+00 -0.1293103697793E+00
-0.4417224342451E-01 -0.4397030108929E+00 -0.2274213689523E+00 -0.1104730853355E+00
-0.6822305579405E-01 -0.3540510087370E+00 -0.1984688098262E+00 -0.9350570818797E-01
-0.8667868094150E-01 -0.2831059761418E+00 -0.1737987883883E+00 -0.7621577890744E-01
-0.9927545095069E-01 -0.2264308188381E+00 -0.1530819464125E+00 -0.5983979265077E-01
-0.1053378497156E+00 -0.1891206825669E+00 -0.1383955098218E+00 -0.4743671351993E-01
-0.1056449503859E+00 -0.1692771447887E+00 -0.1292133844043E+00 -0.4120373418688E-01
-0.1012485757716E+00 -0.1596607523465E+00 -0.1226273839045E+00 -0.4071278766275E-01
-0.9370441833173E-01 -0.1546146907944E+00 -0.1167099809932E+00 -0.4434812613308E-01
-0.8421100466121E-01 -0.1498395966628E+00 -0.1100037823433E+00 -0.5036680474132E-01
-0.7441886168770E-01 -0.1431285659254E+00 -0.1022472907188E+00 -0.5810600567208E-01
-0.6665689774757E-01 -0.1335763342492E+00 -0.9410961879978E-01 -0.6831403442128E-01
-0.5228394784324E+00 -0.2259295003274E+01 -0.1307603203086E+01 -0.1362890660285E+01
-0.3202481676672E+00 -0.2220955363768E+01 -0.1194365656745E+01 -0.1150533449752E+01
-0.1521555892221E+00 -0.2047868550142E+01 -0.1034011342879E+01 -0.8839156808078E+00
-0.4539570330269E-01 -0.1790641490069E+01 -0.8629374786962E+00 -0.6434851225778E+00
 0.7512096232754E-02 -0.1512883571700E+01 -0.7075245916752E+00 -0.4632212262865E+00
 0.2486464837363E-01 -0.1253805397879E+01 -0.5776021508026E+00 -0.3399134748760E+00
 0.1962363251959E-01 -0.1031349233636E+01 -0.4755110313184E+00 -0.2597604300785E+00
 0.1175419773634E-02 -0.8492041317938E+00 -0.3985734936386E+00 -0.2089570384181E+00
-0.2320246997482E-01 -0.7024664532356E+00 -0.3410643930438E+00 -0.1757920695610E+00
-0.4907425769452E-01 -0.5839288753274E+00 -0.2975114717657E+00 -0.1523116982670E+00
-0.7360499864942E-01 -0.4873190440738E+00 -0.2636342994113E+00 -0.1337860800912E+00
-0.9392561979805E-01 -0.4055799431535E+00 -0.2347676139918E+00 -0.1168415019762E+00
-0.1099785719030E+00 -0.3385477280522E+00 -0.2108073604442E+00 -0.1023087450216E+00
-0.1208071056238E+00 -0.2911751569079E+00 -0.1936316628988E+00 -0.9277539254653E-01
-0.1266463522433E+00 -0.2619336008474E+00 -0.1826325774894E+00 -0.8947132498659E-01
-0.1284965864168E+00 -0.2438088160273E+00 -0.1749835387049E+00 -0.9162940604680E-01
-0.1276046800346E+00 -0.2310976025209E+00 -0.1685900723735E+00 -0.9754688624294E-01
-0.1249273766876E+00 -0.2193049162016E+00 -0.1617891772476E+00 -0.1054865613343E+00
-0.1217798576988E+00 -0.2061944234099E+00 -0.1541479117301E+00 -0.1146882105936E+00
-0.1198494868039E+00 -0.1910356886855E+00 -0.1461160321094E+00 -0.1257470339031E+00
-0.5486060093622E+00 -0.2196993935860E+01 -0.1290431970981E+01 -0.1370515332692E+01
-0.3722129690206E+00 -0.2171204880916E+01 -0.1195406386438E+01 -0.1188573684775E+01
-0.2101727326245E+00 -0.2042925810525E+01 -0.1058956312594E+01 -0.9535650044665E+00
-0.9793403448970E-01 -0.1840561989311E+01 -0.9110931288753E+00 -0.7306206989167E+00
-0.3503460115446E-01 -0.1610168437684E+01 -0.7732454262927E+00 -0.5525860443399E+00
-0.7189120374835E-02 -0.1383710241801E+01 -0.6537226985647E+00 -0.4223581607731E+00
-0.2872097541541E-02 -0.1178726871711E+01 -0.5553515141403E+00 -0.3317674194148E+00
-0.1366009105332E-01 -0.1002215643461E+01 -0.4774615940106E+00 -0.2708420590717E+00
-0.3279928650661E-01 -0.8535510255784E+00 -0.4165846456233E+00 -0.2299032871971E+00
-0.5580450373378E-01 -0.7289488068046E+00 -0.3688340550175E+00 -0.2015501253333E+00
-0.7954650942902E-01 -0.6242912400833E+00 -0.3308037414318E+00 -0.1808288738087E+00
-0.1007872882735E+00 -0.5337867767944E+00 -0.2982498098255E+00 -0.1636075795961E+00
-0.1195745422061E+00 -0.4577820914614E+00 -0.2713576171355E+00 -0.1503927796238E+00
-0.1346350130196E+00 -0.4011706827722E+00 -0.2518286763834E+00 -0.1433149102830E+00
-0.1455089285296E+00 -0.3628563377108E+00 -0.2389316745270E+00 -0.1426201673543E+00
-0.1530687280671E+00 -0.3362321651801E+00 -0.2299714192429E+00 -0.1471472002846E+00
-0.1582942979153E+00 -0.3156860410039E+00 -0.2227707587270E+00 -0.1550787301561E+00
-0.1619667235742E+00 -0.2966168787074E+00 -0.2155342925257E+00 -0.1646687276395E+00
-0.1651026271559E+00 -0.2767559651086E+00 -0.2076735378376E+00 -0.1750039867309E+00
-0.1687851879876E+00 -0.2555301158787E+00 -0.1994281923113E+00 -0.1863461030583E+00
-0.5803147562123E+00 -0.2152595420572E+01 -0.1284467779831E+01 -0.1376238263706E+01
-0.4254144569585E+00 -0.2133463839714E+01 -0.1202672796386E+01 -0.1215617731199E+01
-0.2706346394689E+00 -0.2037712090307E+01 -0.1084922960243E+01 -0.1007735947947E+01
-0.1548804618663E+00 -0.1878990912234E+01 -0.9559195434025E+00 -0.8035234815646E+00
-0.8301084076931E-01 -0.1689804025915E+01 -0.8332229852284E+00 -0.6324396782985E+00
-0.4483631810243E-01 -0.1495281192709E+01 -0.7238552282456E+00 -0.5007664745774E+00
-0.3063019137708E-01 -0.1310991567262E+01 -0.6305622249609E+00 -0.4043582874560E+00
-0.3299952350824E-01 -0.1145052529942E+01 -0.5536844637170E+00 -0.3363931686740E+00
-0.4580843652375E-01 -0.9994320437563E+00 -0.4912630244856E+00 -0.2892809705862E+00
-0.6469565322689E-01 -0.8729390263488E+00 -0.4406882982828E+00 -0.2565828185521E+00
-0.8642825367662E-01 -0.7634350418725E+00 -0.3994357478950E+00 -0.2335689563632E+00
-0.1075535671391E+00 -0.6665569726151E+00 -0.3638319527617E+00 -0.2157708809657E+00
-0.1281674123853E+00 -0.5832973408099E+00 -0.3343884331536E+00 -0.2034986031445E+00
-0.1467070581898E+00 -0.5185785866536E+00 -0.3126842522833E+00 -0.1984897163830E+00
-0.1619398143876E+00 -0.4717970409707E+00 -0.2978563212630E+00 -0.2000656083060E+00
-0.1745339595589E+00 -0.4369098450085E+00 -0.2873785874178E+00 -0.2066552747928E+00
-0.1852258476073E+00 -0.4085185336472E+00 -0.2790598584818E+00 -0.2163119671799E+00
-0.1946860120624E+00 -0.3819993165318E+00 -0.2710421037518E+00 -0.2272730040314E+00
-0.2037075967277E+00 -0.3550372790112E+00 -0.2626100909312E+00 -0.2384284489767E+00
-0.2128751060953E+00 -0.3271628643916E+00 -0.2538178454850E+00 -0.2495380768570E+00
-0.6165862973239E+00 -0.2122166469015E+01 -0.1287213796914E+01 -0.1380398638589E+01
-0.4789584766383E+00 -0.2106588032685E+01 -0.1215206856300E+01 -0.1234355545829E+01
-0.3318657146175E+00 -0.2034805205416E+01 -0.1112335329594E+01 -0.1049154479881E+01
-0.2143170605128E+00 -0.1910912742884E+01 -0.9988580050628E+00 -0.8633837313979E+00
-0.1348085332017E+00 -0.1757103680404E+01 -0.8891987381392E+00 -0.7020880976563E+00
-0.8689202797286E-01 -0.1592510776846E+01 -0.7893193162627E+00 -0.5730226442709E+00
-0.6282754381359E-01 -0.1430148870488E+01 -0.7016989129422E+00 -0.4747404323219E+00
-0.5635077355386E-01 -0.1277975623353E+01 -0.6271334049557E+00 -0.4028242901662E+00
-0.6203591619725E-01 -0.1139285696931E+01 -0.5646211567381E+00 -0.3515508517969E+00
-0.7578374190534E-01 -0.1014632490054E+01 -0.5124956277208E+00 -0.3155727849315E+00
-0.9440446314883E-01 -0.9034593176963E+00 -0.4689959758077E+00 -0.2906471683912E+00
-0.1143760998943E+00 -0.8027729903495E+00 -0.4310600713213E+00 -0.2723120089893E+00
-0.1358080463615E+00 -0.7142170043085E+00 -0.3995117728016E+00 -0.2608009726149E+00
-0.1569135250552E+00 -0.6427837792835E+00 -0.3758577320859E+00 -0.2575398265288E+00
-0.1756798845237E+00 -0.5883892826570E+00 -0.3591125076641E+00 -0.2610465220920E+00
-0.1925064951206E+00 -0.5456759462559E+00 -0.3469457465670E+00 -0.2693699820849E+00
-0.2079005548377E+00 -0.5095723365367E+00 -0.3372122580907E+00 -0.2804423967775E+00
-0.2224867430997E+00 -0.4755186118975E+00 -0.3280625160166E+00 -0.2924958974264E+00
-0.2369491352442E+00 -0.4411304464191E+00 -0.3186974025734E+00 -0.3042068034034E+00
-0.2515714832143E+00 -0.4059412686107E+00 -0.3090309925739E+00 -0.3146771680352E+00
-0.6565780098346E+00 -0.2102812206934E+01 -0.1296913398592E+01 -0.1383128481387E+01
-0.5324457942081E+00 -0.2089426797198E+01 -0.1232280114835E+01 -0.1246714186601E+01
-0.3928082840697E+00 -0.2035705657943E+01 -0.1141401549851E+01 -0.1080084904477E+01
-0.2747450278843E+00 -0.1939806332542E+01 -0.1040839136760E+01 -0.9115648792092E+00
-0.1889398357501E+00 -0.1816203055583E+01 -0.9424171565362E+00 -0.7615217790707E+00
-0.1321046745561E+00 -0.1678979931433E+01 -0.8512097626558E+00 -0.6378968856492E+00
-0.9849147627128E-01 -0.1538525194455E+01 -0.7693978332897E+00 -0.5409036412689E+00
-0.8302377184977E-01 -0.1401955660685E+01 -0.6979403315213E+00 -0.4678453819373E+00
-0.8105863874340E-01 -0.1273026331518E+01 -0.6364199344085E+00 -0.4145251075555E+00
-0.8887088604430E-01 -0.1153317582755E+01 -0.5838285788550E+00 -0.3766390257315E+00
-0.1034284856153E+00 -0.1043398810665E+01 -0.5390088278847E+00 -0.3505380711993E+00
-0.1212643396685E+00 -0.9414552218615E+00 -0.4994781926523E+00 -0.3320033536464E+00
-0.1424798015785E+00 -0.8496782071076E+00 -0.4663142628997E+00 -0.3212739789092E+00
-0.1651448898919E+00 -0.7731022284356E+00 -0.4409761444954E+00 -0.3195306569419E+00
-0.1865192874684E+00 -0.7121374159935E+00 -0.4223686495558E+00 -0.3246462657299E+00
-0.2066827629671E+00 -0.6621905492786E+00 -0.4083704557197E+00 -0.3343573315716E+00
-0.2259153563448E+00 -0.6186238007900E+00 -0.3969334028466E+00 -0.3465103672861E+00
-0.2448539290278E+00 -0.5770422441646E+00 -0.3862912004206E+00 -0.3593752907305E+00
-0.2642263138704E+00 -0.5349644429242E+00 -0.3756196547408E+00 -0.3714487904098E+00
-0.2843552171699E+00 -0.4917647005591E+00 -0.3647763604075E+00 -0.3810485055250E+00
-0.6997493474021E+00 -0.2092349723724E+01 -0.1312286560101E+01 -0.1384436104954E+01
-0.5857581543857E+00 -0.2080876401167E+01 -0.1253318237931E+01 -0.1254066835235E+01
-0.4528488350748E+00 -0.2041218721473E+01 -0.1172211748604E+01 -0.1102374138000E+01
-0.3350638009609E+00 -0.1968078729008E+01 -0.1082476986340E+01 -0.9494325048323E+00
-0.2441347151922E+00 -0.1870263198942E+01 -0.9937670171226E+00 -0.8111305274865E+00
-0.1792787758755E+00 -0.1757731317650E+01 -0.9103947416481E+00 -0.6947806033722E+00
-0.1366037492823E+00 -0.1638426033310E+01 -0.8342639957025E+00 -0.6014748405949E+00
-0.1122188815743E+00 -0.1518316158867E+01 -0.7663514670635E+00 -0.5296595861193E+00
-0.1023032282007E+00 -0.1401068138004E+01 -0.7065845403241E+00 -0.4762983685081E+00
-0.1035903940611E+00 -0.1288744131277E+01 -0.6543972252490E+00 -0.4379863731492E+00
-0.1132945056375E+00 -0.1182617550152E+01 -0.6090786646763E+00 -0.4116644911978E+00
-0.1281040855859E+00 -0.1081805132959E+01 -0.5686573312739E+00 -0.3934906748564E+00
-0.1481015403925E+00 -0.9888751313224E+00 -0.5343790343506E+00 -0.3837439440917E+00
-0.1712949620406E+00 -0.9088074011089E+00 -0.5076481093927E+00 -0.3833942833244E+00
-0.1943161778701E+00 -0.8424231810388E+00 -0.4872674974513E+00 -0.3898356582057E+00
-0.2168806149263E+00 -0.7859228009202E+00 -0.4713176042524E+00 -0.4005789071796E+00
-0.2390204072139E+00 -0.7352101114358E+00 -0.4578883426040E+00 -0.4134396307878E+00
-0.2614096717116E+00 -0.6861835430583E+00 -0.4453688098122E+00 -0.4268070151907E+00
-0.2850006335655E+00 -0.6362587130952E+00 -0.4329918918323E+00 -0.4391196530131E+00
-0.3107041055356E+00 -0.5844082618808E+00 -0.4207028116187E+00 -0.4478634161731E+00
-0.7457286017119E+00 -0.2089097748015E+01 -0.1332368380992E+01 -0.1384255945119E+01
-0.6389273629585E+00 -0.2079901160647E+01 -0.1277849402853E+01 -0.1257380079330E+01
-0.5116813659125E+00 -0.2051686820593E+01 -0.1204783044602E+01 -0.1117505547517E+01
-0.3945141983297E+00 -0.1997357802178E+01 -0.1124179837387E+01 -0.9782642456236E+00
-0.2993728237695E+00 -0.1921655210607E+01 -0.1043883173509E+01 -0.8515188138053E+00
-0.2273485421901E+00 -0.1831255935208E+01 -0.9675441019229E+00 -0.7434869142126E+00
-0.1761798186460E+00 -0.1731953346775E+01 -0.8968225854732E+00 -0.6555745843950E+00
-0.1431010494541E+00 -0.1628485710550E+01 -0.8326457750900E+00 -0.5869101305418E+00
-0.1251141643775E+00 -0.1524112550474E+01 -0.7751365540144E+00 -0.5352761436579E+00
-0.1194665076952E+00 -0.1420994341089E+01 -0.7240165970921E+00 -0.4979814148619E+00
-0.1236828818523E+00 -0.1320759700218E+01 -0.6788880118512E+00 -0.4724844040855E+00
-0.1346858853189E+00 -0.1223207846063E+01 -0.6382100521309E+00 -0.4553695242500E+00
-0.1525370741170E+00 -0.1131083174399E+01 -0.6033015152725E+00 -0.4469487312867E+00
-0.1752660905160E+00 -0.1049164393597E+01 -0.5754823260735E+00 -0.4479822034224E+00
-0.1990069798735E+00 -0.9785330627090E+00 -0.5534438186100E+00 -0.4555342363411E+00
-0.2230804126291E+00 -0.9161676528129E+00 -0.5354465893996E+00 -0.4669676999573E+00
-0.2471839989549E+00 -0.8586024177116E+00 -0.5197196145151E+00 -0.4801130252663E+00
-0.2719961631070E+00 -0.8022380413813E+00 -0.5048900748289E+00 -0.4935895942539E+00
-0.2988290026630E+00 -0.7444412543309E+00 -0.4903370195435E+00 -0.5060302548671E+00
-0.3300315279401E+00 -0.6834854011323E+00 -0.4763529554558E+00 -0.5142356799529E+00
-0.7942358805676E+00 -0.2091736658795E+01 -0.1356407090060E+01 -0.1382479150284E+01
-0.6920543997200E+00 -0.2085539262118E+01 -0.1305469017753E+01 -0.1257319780016E+01
-0.5692043254439E+00 -0.2067136635348E+01 -0.1239080248430E+01 -0.1126651931026E+01
-0.4526125370217E+00 -0.2028692129317E+01 -0.1166213190221E+01 -0.9992046546869E+00
-0.3538794172540E+00 -0.1972111948467E+01 -0.1093215939116E+01 -0.8833857785095E+00
-0.2754151865203E+00 -0.1901527061259E+01 -0.1023162853861E+01 -0.7841041034270E+00
-0.2163233547805E+00 -0.1820917420144E+01 -0.9575031617860E+00 -0.7026922511859E+00
-0.1748579666732E+00 -0.1733837121887E+01 -0.8970866893481E+00 -0.6386093456119E+00
-0.1488104821651E+00 -0.1642980208101E+01 -0.8421416222891E+00 -0.5901638579090E+00
-0.1359666218734E+00 -0.1550353974348E+01 -0.7925706782136E+00 -0.5551874814291E+00
-0.1342037501025E+00 -0.1457675197482E+01 -0.7481831034671E+00 -0.5315486548043E+00
-0.1407351667348E+00 -0.1365203286917E+01 -0.7077910714212E+00 -0.5162463989194E+00
-0.1556082202511E+00 -0.1275663492227E+01 -0.6726977031586E+00 -0.5095896279968E+00
-0.1769533264140E+00 -0.1193453415173E+01 -0.6440911669124E+00 -0.5121108022438E+00
-0.2006055262600E+00 -0.1119731171902E+01 -0.6205582465623E+00 -0.5206744079122E+00
-0.2254273224540E+00 -0.1052105368071E+01 -0.6004403630240E+00 -0.5325293295389E+00
-0.2506829136207E+00 -0.9878593150670E+00 -0.5821148460068E+00 -0.5455062605066E+00
-0.2767788252628E+00 -0.9241018210265E+00 -0.5644139023244E+00 -0.5585297614520E+00
-0.3054517203184E+00 -0.8585212635613E+00 -0.5470673010359E+00 -0.5708433785669E+00
-0.3415714737496E+00 -0.7883363116314E+00 -0.5310566577821E+00 -0.5791264388111E+00
-0.8450373510215E+00 -0.2099211620589E+01 -0.1383797013147E+01 -0.1378972741180E+01
-0.7452613937119E+00 -0.2096903432853E+01 -0.1335817465097E+01 -0.1254328937609E+01
-0.6254425103992E+00 -0.2087372614999E+01 -0.1275023105703E+01 -0.1130724219537E+01
-0.5090893494343E+00 -0.2062691944942E+01 -0.1208737205291E+01 -0.1013245218145E+01
-0.4071020480536E+00 -0.2022847354975E+01 -0.1142076216527E+01 -0.9074467148743E+00
-0.3227607559619E+00 -0.1970052062974E+01 -0.1077622022166E+01 -0.8168888485494E+00
-0.2562595323887E+00 -0.1906801810871E+01 -0.1016638828753E+01 -0.7425837624923E+00
-0.2067431093629E+00 -0.1835588113369E+01 -0.9598956722494E+00 -0.6840663046568E+00
-0.1727308271432E+00 -0.1758486576885E+01 -0.9076721775910E+00 -0.6399356327094E+00
-0.1525455322982E+00 -0.1677200908382E+01 -0.8599808249383E+00 -0.6083719990149E+00
-0.1444369169771E+00 -0.1593340640154E+01 -0.8167554497802E+00 -0.5875347106466E+00
-0.1459457266962E+00 -0.1507440453182E+01 -0.7770915025720E+00 -0.5747836026361E+00
-0.1571073398227E+00 -0.1422039138613E+01 -0.7421988429823E+00 -0.5703685172194E+00
-0.1762351350985E+00 -0.1340985789299E+01 -0.7130938326584E+00 -0.5745804447607E+00
-0.1990870022478E+00 -0.1265282701751E+01 -0.6882537591339E+00 -0.5842183458555E+00
-0.2242548167120E+00 -0.1193059653269E+01 -0.6661377992013E+00 -0.5964397327052E+00
-0.2500704432588E+00 -0.1121933556230E+01 -0.6448418781243E+00 -0.6088845806149E+00
-0.2765035009319E+00 -0.1050385197149E+01 -0.6236376865160E+00 -0.6206815597049E+00
-0.3048906719216E+00 -0.9767714272854E+00 -0.6023811850994E+00 -0.6321508657909E+00
-0.3442155135436E+00 -0.8977882303223E+00 -0.5837417581364E+00 -0.6412381790408E+00
-0.8979295970710E+00 -0.2110678055799E+01 -0.1414045593262E+01 -0.1373593473742E+01
-0.7986537234615E+00 -0.2113166850403E+01 -0.1368555666245E+01 -0.1248687413877E+01
-0.6804982233875E+00 -0.2112046357409E+01 -0.1312495949646E+01 -0.1130414974225E+01
-0.5638276251295E+00 -0.2099619870317E+01 -0.1251820319685E+01 -0.1021218231340E+01
-0.4586848673742E+00 -0.2074658018031E+01 -0.1190671153121E+01 -0.9243801528874E+00
-0.3688438781274E+00 -0.2037927119951E+01 -0.1131182366228E+01 -0.8421889723573E+00
-0.2953537231563E+00 -0.1990759448166E+01 -0.1074473187796E+01 -0.7751910022013E+00
-0.2381038287749E+00 -0.1934739775766E+01 -0.1021236491544E+01 -0.7228208272233E+00
-0.1962684908418E+00 -0.1871353255819E+01 -0.9717822184659E+00 -0.6837939285415E+00
-0.1686803075319E+00 -0.1801915131704E+01 -0.9261798540919E+00 -0.6564958126410E+00
-0.1539665197925E+00 -0.1727789848429E+01 -0.8844254908211E+00 -0.6392627090719E+00
-0.1500167967347E+00 -0.1649630070388E+01 -0.8458340254022E+00 -0.6297344223430E+00
-0.1568349577684E+00 -0.1569656743637E+01 -0.8114510976022E+00 -0.6280191039467E+00
-0.1729591434578E+00 -0.1491047299771E+01 -0.7820830263338E+00 -0.6341674859077E+00
-0.1943679781466E+00 -0.1414495580191E+01 -0.7561658705007E+00 -0.6450871428861E+00
-0.2195114801334E+00 -0.1338363486407E+01 -0.7322012324167E+00 -0.6579411945523E+00
-0.2466201841952E+00 -0.1260824286136E+01 -0.7084988992589E+00 -0.6700445469836E+00
-0.2723032845089E+00 -0.1179311619060E+01 -0.6822590029471E+00 -0.6798106136313E+00
-0.2981261450242E+00 -0.1096780347400E+01 -0.6556060497763E+00 -0.6887978945218E+00
-0.3359474316675E+00 -0.1009157383834E+01 -0.6321992616823E+00 -0.6988931034811E+00
-0.9527003307084E+00 -0.2125431530781E+01 -0.1446721971231E+01 -0.1366191764201E+01
-0.8523567177503E+00 -0.2133621764086E+01 -0.1403409882904E+01 -0.1240564945924E+01
-0.7344515145771E+00 -0.2140614682959E+01 -0.1351281109415E+01 -0.1126240733274E+01
-0.6168497778788E+00 -0.2139495471596E+01 -0.1295482263968E+01 -0.1023788689572E+01
-0.5084286334289E+00 -0.2128003655529E+01 -0.1239123172667E+01 -0.9347924884016E+00
-0.4132876244318E+00 -0.2105896473740E+01 -0.1184016523138E+01 -0.8603891068770E+00
-0.3331145583426E+00 -0.2073621940510E+01 -0.1131166151592E+01 -0.8005812261718E+00
-0.2684071557540E+00 -0.2032047458594E+01 -0.1081213666001E+01 -0.7545891502158E+00
-0.2188879470039E+00 -0.1982127917017E+01 -0.1034477453466E+01 -0.7211262066446E+00
-0.1838978742382E+00 -0.1924810253621E+01 -0.9910928175801E+00 -0.6986868152054E+00
-0.1624079878967E+00 -0.1861068052768E+01 -0.9510337367002E+00 -0.6856966413181E+00
-0.1526814437078E+00 -0.1791510793548E+01 -0.9137703491924E+00 -0.6799760511517E+00
-0.1546624077385E+00 -0.1717961199736E+01 -0.8801330932808E+00 -0.6813601190931E+00
-0.1670406006612E+00 -0.1642831768142E+01 -0.8506400111801E+00 -0.6896464977215E+00
-0.1862467631327E+00 -0.1566463853446E+01 -0.8237739877025E+00 -0.7020625641439E+00
-0.2110117153959E+00 -0.1487509123431E+01 -0.7983047922237E+00 -0.7159814807260E+00
-0.2392951975083E+00 -0.1403936094270E+01 -0.7723187051768E+00 -0.7286319818386E+00
-0.2696241084969E+00 -0.1314921914192E+01 -0.7447366287751E+00 -0.7374514123583E+00
-0.2855351494283E+00 -0.1212502850289E+01 -0.7040778580811E+00 -0.7410694656210E+00
-0.3136518665787E+00 -0.1116915222903E+01 -0.6723665303508E+00 -0.7496990905640E+00
-0.1009742487083E+01 -0.2143612505242E+01 -0.1482076842634E+01 -0.1356709081081E+01
-0.9060489265694E+00 -0.2157073005655E+01 -0.1439667304494E+01 -0.1230143220631E+01
-0.7875367863699E+00 -0.2172512085372E+01 -0.1391222966190E+01 -0.1118523239735E+01
-0.6682436456279E+00 -0.2182148988479E+01 -0.1339684534632E+01 -0.1021442957751E+01
-0.5562704492724E+00 -0.2183114584052E+01 -0.1287510962397E+01 -0.9391976435641E+00
-0.4558453298998E+00 -0.2174397270155E+01 -0.1236214018890E+01 -0.8718794257798E+00
-0.3691902945398E+00 -0.2155917180279E+01 -0.1186800510155E+01 -0.8189043832328E+00
-0.2972499931351E+00 -0.2128003604538E+01 -0.1139869188015E+01 -0.7792221960220E+00
-0.2401869949020E+00 -0.2091163942705E+01 -0.1095734937896E+01 -0.7514750653765E+00
-0.1977275482114E+00 -0.2045965493874E+01 -0.1054535727105E+01 -0.7341938599159E+00
-0.1694177748843E+00 -0.1993223053153E+01 -0.1016441186600E+01 -0.7259009465334E+00
-0.1537807455660E+00 -0.1932965163038E+01 -0.9807705745565E+00 -0.7245479224936E+00
-0.1505077674610E+00 -0.1866331125105E+01 -0.9479142771016E+00 -0.7293916769675E+00
-0.1585978889357E+00 -0.1795438529355E+01 -0.9183971142674E+00 -0.7399233179749E+00
-0.1748184609436E+00 -0.1720009724182E+01 -0.8905692447502E+00 -0.7539064279314E+00
-0.1982337602941E+00 -0.1639064031374E+01 -0.8635299598937E+00 -0.7690979629687E+00
-0.2276961071660E+00 -0.1551233979132E+01 -0.8360971384394E+00 -0.7829562234173E+00
-0.2606611045454E+00 -0.1454108992207E+01 -0.8059419434295E+00 -0.7931140067915E+00
-0.2960080329942E+00 -0.1351476282614E+01 -0.7743176263720E+00 -0.7963319471505E+00
-0.2536907169000E+00 -0.1184477768121E+01 -0.6759391862454E+00 -0.7939066410164E+00
-0.1576880430383E+01 -0.2475597353151E+01 -0.1904664553430E+01  0.5420357840212E+00
-0.1275146708762E+01 -0.2562401322605E+01 -0.1803647570168E+01  0.3845166224425E+00
-0.1002139582494E+01 -0.2636782661656E+01 -0.1710293450413E+01  0.2582126465661E+00
-0.7603654863918E+00 -0.2700210563027E+01 -0.1626470739101E+01  0.1569702929501E+00
-0.5476238107589E+00 -0.2754487856989E+01 -0.1551992479905E+01  0.7689054944841E-01
-0.3618452669447E+00 -0.2801994495643E+01 -0.1487004684644E+01  0.1546190842231E-01
-0.2008574923846E+00 -0.2844992931952E+01 -0.1431549695807E+01 -0.2931258490729E-01
-0.6241492363459E-01 -0.2885687035544E+01 -0.1385607917300E+01 -0.5917339098236E-01
 0.5564052045582E-01 -0.2926122005517E+01 -0.1349126294557E+01 -0.7571938567885E-01
 0.1550663958682E+00 -0.2968223559523E+01 -0.1322183863564E+01 -0.8024214091598E-01
 0.2371740026999E+00 -0.3014165787128E+01 -0.1305186135371E+01 -0.7382568143368E-01
 0.3040771246357E+00 -0.3065049365694E+01 -0.1297656950006E+01 -0.5810119759503E-01
 0.3549891073450E+00 -0.3123681071168E+01 -0.1301285219696E+01 -0.3287320465917E-01
 0.3911097795839E+00 -0.3193567927750E+01 -0.1317155326297E+01  0.1722663856012E-02
 0.4159491505658E+00 -0.3275509179451E+01 -0.1343993210167E+01  0.4377659209355E-01
 0.4286180581323E+00 -0.3370149984308E+01 -0.1382520001796E+01  0.9184748054391E-01
 0.4277225605058E+00 -0.3477988781772E+01 -0.1433625120359E+01  0.1445018770818E+00
 0.4123662736753E+00 -0.3598689014766E+01 -0.1497571684514E+01  0.2001163428715E+00
 0.3811866597649E+00 -0.3735976704953E+01 -0.1576751317239E+01  0.2546513641297E+00
 0.4127662245978E+00 -0.3833895205143E+01 -0.1607930616778E+01  0.3072684677195E+00
-0.1515313999283E+01 -0.2452637472842E+01 -0.1864937187169E+01  0.5894627274758E+00
-0.1215176150472E+01 -0.2529690570112E+01 -0.1760087354210E+01  0.4276460691224E+00
-0.9449925372366E+00 -0.2594711637717E+01 -0.1663660958009E+01  0.2968547345800E+00
-0.7065384916025E+00 -0.2647296323727E+01 -0.1576302359207E+01  0.1914216889204E+00
-0.4987382734904E+00 -0.2690641617478E+01 -0.1499008544953E+01  0.1078520021931E+00
-0.3190495520841E+00 -0.2727439917917E+01 -0.1431850047269E+01  0.4421479525628E-01
-0.1649058948864E+00 -0.2760092919833E+01 -0.1374749439431E+01 -0.1154591873969E-02
-0.3382504939317E-01 -0.2790988713594E+01 -0.1327662465237E+01 -0.2993312291540E-01
 0.7651573328263E-01 -0.2822378563942E+01 -0.1290555527137E+01 -0.4382452005078E-01
 0.1679791378569E+00 -0.2856319343598E+01 -0.1263519893494E+01 -0.4425101411143E-01
 0.2422654013874E+00 -0.2894870852823E+01 -0.1246724559012E+01 -0.3251864799646E-01
 0.3012320351788E+00 -0.2939854865575E+01 -0.1240152727141E+01 -0.1052001072653E-01
 0.3438419751350E+00 -0.2994065396925E+01 -0.1245605005082E+01  0.2225468320240E-01
 0.3718904831693E+00 -0.3061643121130E+01 -0.1264183736635E+01  0.6466140533588E-01
 0.3895653902418E+00 -0.3144670437145E+01 -0.1294899368760E+01  0.1132519208744E+00
 0.3964705252495E+00 -0.3243140462685E+01 -0.1337934867201E+01  0.1660445159203E+00
 0.3921445982623E+00 -0.3356930003138E+01 -0.1393449136757E+01  0.2210634509876E+00
 0.3756938175285E+00 -0.3487221630929E+01 -0.1462418068589E+01  0.2758445596790E+00
 0.3608993965233E+00 -0.3628843588923E+01 -0.1535933766532E+01  0.3279498933950E+00
 0.3183203851595E+00 -0.3807208159633E+01 -0.1639777249844E+01  0.3849131555646E+00
-0.1450901463218E+01 -0.2427391605321E+01 -0.1822797737590E+01  0.6341803855010E+00
-0.1153773549379E+01 -0.2495645005530E+01 -0.1715226716457E+01  0.4677483945968E+00
-0.8859906928717E+00 -0.2549887966523E+01 -0.1614862965820E+01  0.3318958518277E+00
-0.6515508039407E+00 -0.2590506948123E+01 -0.1523767139605E+01  0.2215611614167E+00
-0.4494409801117E+00 -0.2621188094845E+01 -0.1443195661569E+01  0.1340631008047E+00
-0.2768280962102E+00 -0.2645335948371E+01 -0.1373417097470E+01  0.6802843560185E-01
-0.1306500847486E+00 -0.2665736756890E+01 -0.1314301812237E+01  0.2203786373252E-01
-0.8090312951554E-02 -0.2685086415555E+01 -0.1265793059188E+01 -0.5572064899496E-02
 0.9344540178880E-01 -0.2705799835118E+01 -0.1227806580551E+01 -0.1666656386413E-01
 0.1760393380494E+00 -0.2730000100178E+01 -0.1200361555156E+01 -0.1286602964174E-01
 0.2414142168009E+00 -0.2759981680774E+01 -0.1183726705065E+01  0.4327226437234E-02
 0.2917446289500E+00 -0.2797319880233E+01 -0.1177620365116E+01  0.3266107686299E-01
 0.3255394384207E+00 -0.2845352340859E+01 -0.1184312061142E+01  0.7278618143192E-01
 0.3451261872171E+00 -0.2909594108905E+01 -0.1205299920136E+01  0.1227549214813E+00
 0.3559428151850E+00 -0.2993001761167E+01 -0.1239417701468E+01  0.1777627207598E+00
 0.3579220548647E+00 -0.3095491415128E+01 -0.1286657596060E+01  0.2354177676659E+00
 0.3506623529840E+00 -0.3217329804827E+01 -0.1347333698949E+01  0.2936207702088E+00
 0.3351161574934E+00 -0.3358952382604E+01 -0.1421203022197E+01  0.3507058258156E+00
 0.3069878612973E+00 -0.3527451605962E+01 -0.1513617956153E+01  0.4069748798633E+00
 0.2508992497631E+00 -0.3725126228314E+01 -0.1632886675777E+01  0.4618350932970E+00
-0.1384800996176E+01 -0.2401464195992E+01 -0.1779544635805E+01  0.6762457341815E+00
-0.1090584132698E+01 -0.2460389533354E+01 -0.1668957618811E+01  0.5048592617155E+00
-0.8254544152530E+00 -0.2503004769032E+01 -0.1564375812646E+01  0.3630832840640E+00
-0.5954635516318E+00 -0.2529989120348E+01 -0.1468962752105E+01  0.2470087756351E+00
-0.3999420986788E+00 -0.2546151611196E+01 -0.1384664040129E+01  0.1550421147566E+00
-0.2354529427795E+00 -0.2555696958561E+01 -0.1311840450303E+01  0.8640298008289E-01
-0.9835340396499E-01 -0.2562000575247E+01 -0.1250366367058E+01  0.3980252264921E-01
 0.1460491174221E-01 -0.2568154018806E+01 -0.1200168077276E+01  0.1347920811458E-01
 0.1063629560126E+00 -0.2576725804495E+01 -0.1161070535842E+01  0.5310654800697E-02
 0.1791932802971E+00 -0.2589902451149E+01 -0.1133033307426E+01  0.1340677730523E-01
 0.2349519956951E+00 -0.2610013016207E+01 -0.1116278676809E+01  0.3599888201714E-01
 0.2760499316826E+00 -0.2638349249571E+01 -0.1110280676591E+01  0.7043515861179E-01
 0.3006470818311E+00 -0.2678812380657E+01 -0.1117737687613E+01  0.1174852942195E+00
 0.3117437722949E+00 -0.2738496190257E+01 -0.1140573633549E+01  0.1745774652189E+00
 0.3158604100471E+00 -0.2821581923243E+01 -0.1177689108215E+01  0.2358888146175E+00
 0.3129745797351E+00 -0.2928165842731E+01 -0.1229139890491E+01  0.2989022674330E+00
 0.3026821220608E+00 -0.3058511377454E+01 -0.1295239746750E+01  0.3617521135149E+00
 0.2824023454966E+00 -0.3214887665908E+01 -0.1378268097098E+01  0.4233864902185E+00
 0.2476971106326E+00 -0.3400952109561E+01 -0.1482029845738E+01  0.4824885351812E+00
 0.1853847903996E+00 -0.3620481811609E+01 -0.1614495595873E+01  0.5335555099125E+00
-0.1317395311133E+01 -0.2375545696213E+01 -0.1735682269050E+01  0.7156258298971E+00
-0.1025812098253E+01 -0.2424764054306E+01 -0.1621770787589E+01  0.5388139001245E+00
-0.7633869443190E+00 -0.2454477387753E+01 -0.1512396232238E+01  0.3900520173259E+00
-0.5384491381231E+00 -0.2465965964795E+01 -0.1412075094790E+01  0.2672594823889E+00
-0.3504680560942E+00 -0.2465506275946E+01 -0.1323507932702E+01  0.1702768170268E+00
-0.1952085235069E+00 -0.2458438057403E+01 -0.1247213889864E+01  0.9888813474239E-01
-0.6827299657422E-01 -0.2448868629799E+01 -0.1183056561395E+01  0.5177872944865E-01
 0.3409751379559E-01 -0.2440353197309E+01 -0.1130940168383E+01  0.2693004996270E-01
 0.1152303228274E+00 -0.2435584821649E+01 -0.1090566611680E+01  0.2182761036274E-01
 0.1776165873264E+00 -0.2436700540612E+01 -0.1061769455351E+01  0.3420463919778E-01
 0.2232427574101E+00 -0.2445961457008E+01 -0.1044677786161E+01  0.6195830102863E-01
 0.2547415664771E+00 -0.2464222572264E+01 -0.1038456070086E+01  0.1020261235364E+00
 0.2700014110810E+00 -0.2495931047802E+01 -0.1046186926606E+01  0.1552889909197E+00
 0.2726842339636E+00 -0.2549887249701E+01 -0.1070285414682E+01  0.2188047916178E+00
 0.2700930091442E+00 -0.2631671590634E+01 -0.1109941930485E+01  0.2861282663256E+00
 0.2621406537959E+00 -0.2741542746951E+01 -0.1165318980827E+01  0.3548153863575E+00
 0.2475734490767E+00 -0.2880116883119E+01 -0.1237295410862E+01  0.4231338792998E+00
 0.2231140496028E+00 -0.3049095071298E+01 -0.1328211076828E+01  0.4896681192513E+00
 0.1836713366692E+00 -0.3252587631968E+01 -0.1442390655132E+01  0.5513642541770E+00
 0.1197675799763E+00 -0.3496141115998E+01 -0.1586895557905E+01  0.5998445491189E+00
-0.1249089069603E+01 -0.2350402715085E+01 -0.1691761134513E+01  0.7523108219881E+00
-0.9595692128724E+00 -0.2389518636098E+01 -0.1574071285023E+01  0.5693391436746E+00
-0.6998890079168E+00 -0.2404772440591E+01 -0.1459190877098E+01  0.4122805021178E+00
-0.4806919971566E+00 -0.2398516709802E+01 -0.1353228088838E+01  0.2817042803117E+00
-0.3013201795802E+00 -0.2379094813877E+01 -0.1259795043730E+01  0.1792281828489E+00
-0.1564196843836E+00 -0.2353325210330E+01 -0.1179580097523E+01  0.1050969776542E+00
-0.4067958573064E-01 -0.2326218950130E+01 -0.1112442309033E+01  0.5774055121975E-01
 0.5024234137014E-01 -0.2301821533294E+01 -0.1058242217520E+01  0.3467120969890E-01
 0.1200904048775E+00 -0.2282860605675E+01 -0.1016501991797E+01  0.3280629862417E-01
 0.1715710338003E+00 -0.2271278523434E+01 -0.9868625176249E+00  0.4937830657633E-01
 0.2067954729989E+00 -0.2269100465660E+01 -0.9692833440924E+00  0.8188371213279E-01
 0.2285781643613E+00 -0.2276570367285E+01 -0.9625563329328E+00  0.1268612273629E+00
 0.2346165228663E+00 -0.2298592324227E+01 -0.9700686241789E+00  0.1852955698487E+00
 0.2291269365927E+00 -0.2345693148689E+01 -0.9947861171619E+00  0.2541531289995E+00
 0.2198759722965E+00 -0.2424862369785E+01 -0.1036343604191E+01  0.3267914649216E+00
 0.2065659774545E+00 -0.2536624220061E+01 -0.1095127371247E+01  0.4009595171921E+00
 0.1876084187609E+00 -0.2681727144394E+01 -0.1172235798074E+01  0.4748776446249E+00
 0.1592657623104E+00 -0.2862079837905E+01 -0.1270322612307E+01  0.5465941008424E+00
 0.1167662502470E+00 -0.3082904116060E+01 -0.1394084793396E+01  0.6116086659852E+00
 0.5313248247656E-01 -0.3352831281808E+01 -0.1550858431752E+01  0.6597531106991E+00
-0.1180272148465E+01 -0.2326887012343E+01 -0.1648364801399E+01  0.7862992299760E+00
-0.8919688681832E+00 -0.2355435875333E+01 -0.1526280225582E+01  0.5960464920145E+00
-0.6350991622858E+00 -0.2354248212493E+01 -0.1404993262582E+01  0.4290926076246E+00
-0.4224779764210E+00 -0.2327543444418E+01 -0.1292510064516E+01  0.2896324067376E+00
-0.2528869854897E+00 -0.2286526613158E+01 -0.1193524388337E+01  0.1813574697850E+00
-0.1194769155908E+00 -0.2239920339092E+01 -0.1108916706888E+01  0.1047434746419E+00
-0.1586656672566E-01 -0.2193797519871E+01 -0.1038542118066E+01  0.5764246412143E-01
 0.6291856066636E-01 -0.2152667548899E+01 -0.9821820219782E+00  0.3682138375882E-01
 0.1210479664395E+00 -0.2119130585719E+01 -0.9390988286797E+00  0.3841742914412E-01
 0.1614233455704E+00 -0.2094716598007E+01 -0.9086478263407E+00  0.5902912908134E-01
 0.1862563052329E+00 -0.2080992804873E+01 -0.8905261525723E+00  0.9569335906530E-01
 0.1984926569099E+00 -0.2077382523983E+01 -0.8830782352847E+00  0.1445896846901E+00
 0.1957298827128E+00 -0.2089105186013E+01 -0.8898863902943E+00  0.2067890213905E+00
 0.1825858502089E+00 -0.2128338192997E+01 -0.9145035987910E+00  0.2794554800238E+00
 0.1669217819621E+00 -0.2203416062721E+01 -0.9571523095288E+00  0.3562159808940E+00
 0.1483170311826E+00 -0.2315154163889E+01 -0.1018413449789E+01  0.4351558246924E+00
 0.1249982449632E+00 -0.2464772118017E+01 -0.1099693717546E+01  0.5144660112655E+00
 0.9315310038844E-01 -0.2654838607541E+01 -0.1203992185308E+01  0.5917199032962E+00
 0.4843747667697E-01 -0.2892533620466E+01 -0.1336725184191E+01  0.6613464531031E+00
-0.1432554468962E-01 -0.3190118237201E+01 -0.1506088573669E+01  0.7118856199302E+00
-0.1111357053390E+01 -0.2306016979211E+01 -0.1606165791249E+01  0.8175896362020E+00
-0.8231324754094E+00 -0.2323327120896E+01 -0.1478836006513E+01  0.6184007478389E+00
-0.5692432617158E+00 -0.2303113313368E+01 -0.1350007586865E+01  0.4396407154290E+00
-0.3642227561098E+00 -0.2252666854305E+01 -0.1229938113775E+01  0.2902456349887E+00
-0.2056783534687E+00 -0.2187097741030E+01 -0.1124604761562E+01  0.1761660374319E+00
-0.8484498025363E-01 -0.2117522027492E+01 -0.1035112491015E+01  0.9769922264899E-01
 0.5850118061803E-02 -0.2051201832363E+01 -0.9613153032833E+00  0.5167901631372E-01
 0.7203151560845E-01 -0.1992990699363E+01 -0.9028508140746E+00  0.3378022457599E-01
 0.1182775019893E+00 -0.1945092010065E+01 -0.8586028166179E+00  0.3911989278585E-01
 0.1476460687731E+00 -0.1908318259709E+01 -0.8275159276408E+00  0.6353504803915E-01
 0.1624121249660E+00 -0.1883499088865E+01 -0.8089108709809E+00  0.1035656366730E+00
 0.1655930719937E+00 -0.1869013399262E+01 -0.8006075517855E+00  0.1551098527685E+00
 0.1548023794397E+00 -0.1870219778668E+01 -0.8062461755925E+00  0.2193019119574E+00
 0.1348666128131E+00 -0.1900809745699E+01 -0.8299932703510E+00  0.2937994561709E+00
 0.1133701294108E+00 -0.1970295423091E+01 -0.8727548858161E+00  0.3730107297579E+00
 0.8978974148092E-01 -0.2079866329524E+01 -0.9353359940081E+00  0.4555658352322E+00
 0.6229052110647E-01 -0.2231517997291E+01 -0.1019536911221E+01  0.5397545153157E+00
 0.2713087130988E-01 -0.2429006221215E+01 -0.1128881411592E+01  0.6228545785408E+00
-0.1958998440687E-01 -0.2682100773148E+01 -0.1269794652830E+01  0.6985748734788E+00
-0.8180082414794E-01 -0.3007409873800E+01 -0.1451929024353E+01  0.7544292219441E+00
-0.1042812625979E+01 -0.2289052474774E+01 -0.1565976593382E+01  0.8461651563117E+00
-0.7532259650230E+00 -0.2294039016367E+01 -0.1432214537621E+01  0.6356690515066E+00
-0.5026840002111E+00 -0.2251350556071E+01 -0.1294396238170E+01  0.4428799877570E+00
-0.3065174253631E+00 -0.2173118153357E+01 -0.1165428719042E+01  0.2826799145921E+00
-0.1603431575245E+00 -0.2079690880396E+01 -0.1052815995153E+01  0.1632553023845E+00
-0.5306238404415E-01 -0.1985115832977E+01 -0.9579437595704E+00  0.8407074040224E-01
 0.2414311953706E-01 -0.1897887206969E+01 -0.8806597188595E+00  0.4035871667091E-01
 0.7752608488849E-01 -0.1822925797535E+01 -0.8203378628632E+00  0.2628262601890E-01
 0.1120328312989E+00 -0.1761615793448E+01 -0.7753039902437E+00  0.3569043811224E-01
 0.1308228595618E+00 -0.1713645306446E+01 -0.7439265481489E+00  0.6356161925872E-01
 0.1361860090729E+00 -0.1678785172117E+01 -0.7250216047916E+00  0.1059464623251E+00
 0.1311453219965E+00 -0.1654163174618E+01 -0.7158183889163E+00  0.1585920506480E+00
 0.1134695186548E+00 -0.1645098358458E+01 -0.7198655528816E+00  0.2226782643897E+00
 0.8798201350396E-01 -0.1666609611814E+01 -0.7419549693239E+00  0.2966481253074E+00
 0.6158968954286E-01 -0.1729135597451E+01 -0.7837465747291E+00  0.3762206452082E+00
 0.3364691405075E-01 -0.1834254759530E+01 -0.8462856852289E+00  0.4608066693549E+00
 0.2268656332788E-02 -0.1984998834521E+01 -0.9318831813846E+00  0.5489884066750E+00
-0.3616507720288E-01 -0.2186776045300E+01 -0.1044782324927E+01  0.6379883450285E+00
-0.8520766707287E-01 -0.2452575755624E+01 -0.1192758205642E+01  0.7211571195284E+00
-0.1479003714096E+00 -0.2804235740396E+01 -0.1387503969029E+01  0.7852309224873E+00
-0.9752209381025E+00 -0.2277597436108E+01 -0.1528824632001E+01  0.8719699935315E+00
-0.6825166407448E+00 -0.2268448332008E+01 -0.1386953533676E+01  0.6468477770539E+00
-0.4359928288901E+00 -0.2198609664490E+01 -0.1238263168748E+01  0.4375368969558E+00
-0.2501728784841E+00 -0.2087590292378E+01 -0.1098748687519E+01  0.2660433842813E+00
-0.1176742678339E+00 -0.1962660281101E+01 -0.9777572355195E+00  0.1424151025149E+00
-0.2472167725008E-01 -0.1841339699439E+01 -0.8770488448193E+00  0.6430388776502E-01
 0.3869946685889E-01 -0.1733213804510E+01 -0.7964217366761E+00  0.2459129804582E-01
 0.7940938349342E-01 -0.1642732400527E+01 -0.7347618161420E+00  0.1544828001281E-01
 0.1026627185913E+00 -0.1569829088515E+01 -0.6895681921150E+00  0.2923436217087E-01
 0.1116534990666E+00 -0.1512559943279E+01 -0.6584260271098E+00  0.6004842545247E-01
 0.1086264111509E+00 -0.1469312736200E+01 -0.6395225711509E+00  0.1035340331216E+00
 0.9653788231748E-01 -0.1435824001110E+01 -0.6294644742358E+00  0.1554827034784E+00
 0.7347133449395E-01 -0.1417226782135E+01 -0.6315650587896E+00  0.2171147678480E+00
 0.4403007286511E-01 -0.1429647928066E+01 -0.6512403902925E+00  0.2879232115025E+00
 0.1405216730450E-01 -0.1484102780692E+01 -0.6909237865396E+00  0.3654290406086E+00
-0.1730508661426E-01 -0.1582473278441E+01 -0.7518958296687E+00  0.4500437694623E+00
-0.5205771940891E-01 -0.1728959557984E+01 -0.8370781182517E+00  0.5408645095803E+00
-0.9375924554059E-01 -0.1931016281649E+01 -0.9516444953656E+00  0.6353478854088E+00
-0.1457953275800E+00 -0.2205472283048E+01 -0.1105095774192E+01  0.7269052343154E+00
-0.2106270869889E+00 -0.2580462816742E+01 -0.1311812251426E+01  0.8018569341758E+00
-0.9093734229983E+00 -0.2273748958310E+01 -0.1496067515420E+01  0.8948720747180E+00
-0.6114667427169E+00 -0.2247444031826E+01 -0.1343688060627E+01  0.6505594198007E+00
-0.3700447205651E+00 -0.2144038594726E+01 -0.1181619155190E+01  0.4220764492722E+00
-0.1962571959134E+00 -0.1994026830511E+01 -0.1029433489808E+01  0.2394854433642E+00
-0.7858618264161E-01 -0.1833697258445E+01 -0.8987732150312E+00  0.1137568574806E+00
-0.4237178532351E-03 -0.1684488165929E+01 -0.7919085833692E+00  0.3932377704442E-01
 0.4926382184817E-01 -0.1556564090638E+01 -0.7084311245345E+00  0.5784831967598E-02
 0.7778370033851E-01 -0.1452946870757E+01 -0.6463266884575E+00  0.2813720713944E-02
 0.9063213688934E-01 -0.1371227457254E+01 -0.6018797990447E+00  0.2116225739694E-01
 0.9095983837583E-01 -0.1307260703403E+01 -0.5716614051129E+00  0.5415890916799E-01
 0.8088988376759E-01 -0.1257799790346E+01 -0.5531476546886E+00  0.9723266647230E-01
 0.6323444843025E-01 -0.1217181703492E+01 -0.5423552085036E+00  0.1464832091173E+00
 0.3656542726597E-01 -0.1190278014312E+01 -0.5422449145362E+00  0.2031755218386E+00
 0.5073019273705E-02 -0.1194081107902E+01 -0.5588338002378E+00  0.2680553199271E+00
-0.2681135264108E-01 -0.1239740583689E+01 -0.5952794085652E+00  0.3408358526393E+00
-0.6023722645022E-01 -0.1329223708668E+01 -0.6530466378494E+00  0.4230878805769E+00
-0.9752260795176E-01 -0.1467846715197E+01 -0.7357235800140E+00  0.5146435487875E+00
-0.1423194400922E+00 -0.1665367360318E+01 -0.8496127940377E+00  0.6135246288597E+00
-0.1981500638320E+00 -0.1943026092627E+01 -0.1006352790983E+01  0.7137131523613E+00
-0.2673048709615E+00 -0.2336473319111E+01 -0.1223775746230E+01  0.8016554504324E+00
-0.8464401673079E+00 -0.2280327319362E+01 -0.1469580715008E+01  0.9146012581592E+00
-0.5408864085665E+00 -0.2231883742330E+01 -0.1303201967616E+01  0.6449055615636E+00
-0.3061382606906E+00 -0.2086007462576E+01 -0.1124308487084E+01  0.3946766008577E+00
-0.1461051766753E+00 -0.1889312306824E+01 -0.9566462148182E+00  0.2023232777019E+00
-0.4404465728536E-01 -0.1689688012404E+01 -0.8148543526871E+00  0.7791693676608E-01
 0.1930333020171E-01 -0.1512603228016E+01 -0.7018509501926E+00  0.1071814484783E-01
 0.5569885754120E-01 -0.1367577606705E+01 -0.6165830105429E+00 -0.1406066679252E-01
 0.7288884697174E-01 -0.1254612795403E+01 -0.5554102543541E+00 -0.9677336363792E-02
 0.7654974289073E-01 -0.1167802786173E+01 -0.5128889290420E+00  0.1311163773219E-01
 0.6969281732656E-01 -0.1100288354346E+01 -0.4843799011705E+00  0.4718274767894E-01
 0.5421666390759E-01 -0.1047134985062E+01 -0.4666716097591E+00  0.8807366699938E-01
 0.3271325541383E-01 -0.1001472808628E+01 -0.4553169888560E+00  0.1325055771564E+00
 0.4429466253821E-02 -0.9679344641301E+00 -0.4528473478532E+00  0.1817833564954E+00
-0.2699444158215E-01 -0.9641161874054E+00 -0.4658219944426E+00  0.2380083641525E+00
-0.5876562057407E-01 -0.1000781497292E+01 -0.4979871441342E+00  0.3033180810978E+00
-0.9245545352081E-01 -0.1079621823942E+01 -0.5508763190105E+00  0.3804978754188E+00
-0.1309262403800E+00 -0.1206773917466E+01 -0.6287190725928E+00  0.4702966275299E+00
-0.1782114597466E+00 -0.1394324920233E+01 -0.7390920967160E+00  0.5716538620842E+00
-0.2384517039506E+00 -0.1668355377511E+01 -0.8961993260140E+00  0.6797316777074E+00
-0.3144677797823E+00 -0.2073356312449E+01 -0.1122277320502E+01  0.7818372768543E+00
-0.7882789686896E+00 -0.2301249063666E+01 -0.1452078171524E+01  0.9306435586242E+00
-0.4721863988254E+00 -0.2222495837858E+01 -0.1266500648029E+01  0.6272532630932E+00
-0.2461311724717E+00 -0.2021635057573E+01 -0.1065850125418E+01  0.3532302707470E+00
-0.1012559246594E+00 -0.1768815767883E+01 -0.8789336932656E+00  0.1542747627738E+00
-0.1491405153402E-01 -0.1526608687561E+01 -0.7245156855369E+00  0.3636828447337E-01
 0.3412337815549E-01 -0.1323749559458E+01 -0.6061243036746E+00 -0.1903622596453E-01
 0.5805696661937E-01 -0.1166564791716E+01 -0.5209986764741E+00 -0.3229768331397E-01
 0.6515046678077E-01 -0.1049586204989E+01 -0.4626847957841E+00 -0.1976657344491E-01
 0.6120306068024E-01 -0.9621416408453E+00 -0.4234411316036E+00  0.6789171627135E-02
 0.4893721295883E-01 -0.8944627434532E+00 -0.3973969983244E+00  0.4038819036869E-01
 0.2989348260985E-01 -0.8402312930131E+00 -0.3808587699235E+00  0.7711237362169E-01
 0.6389030397943E-02 -0.7918043191126E+00 -0.3691451847596E+00  0.1146148201701E+00
-0.2144844053799E-01 -0.7536864460835E+00 -0.3643133957881E+00  0.1541925421577E+00
-0.5058242836705E-01 -0.7437874753508E+00 -0.3733538538004E+00  0.1992763168144E+00
-0.7994016082225E-01 -0.7719171672272E+00 -0.4003729431677E+00  0.2544643326831E+00
-0.1115941420058E+00 -0.8390067767617E+00 -0.4467824306875E+00  0.3236744727896E+00
-0.1492271831425E+00 -0.9514362650578E+00 -0.5173118193420E+00  0.4086693561712E+00
-0.1976371166967E+00 -0.1123293824311E+01 -0.6208375406988E+00  0.5096347140826E+00
-0.2622810820245E+00 -0.1385624376176E+01 -0.7745155633897E+00  0.6235930786627E+00
-0.3477189714656E+00 -0.1793134263537E+01 -0.1006201017899E+01  0.7395953628188E+00
-0.7380267185150E+00 -0.2342167067795E+01 -0.1447691075894E+01  0.9420531379628E+00
-0.4077971259337E+00 -0.2219654020736E+01 -0.1234902035803E+01  0.5939183645495E+00
-0.1925495926954E+00 -0.1945942618937E+01 -0.1005091336918E+01  0.2954235539765E+00
-0.6321859111407E-01 -0.1625724413313E+01 -0.7938032100674E+00  0.9588904460079E-01
 0.8313760781929E-02 -0.1339599798018E+01 -0.6257044359139E+00 -0.8111380579773E-02
 0.4403830626178E-01 -0.1116646972608E+01 -0.5041260719040E+00 -0.4633563797124E-01
 0.5663874384452E-01 -0.9551638536906E+00 -0.4223068005565E+00 -0.4569141392061E-01
 0.5523918699420E-01 -0.8408406178214E+00 -0.3692326715523E+00 -0.2511786999271E-01
 0.4559741363427E-01 -0.7574047204809E+00 -0.3345494333694E+00  0.3718502606257E-02
 0.2990561697856E-01 -0.6927006622144E+00 -0.3115136704707E+00  0.3484233861138E-01
 0.9189987602854E-02 -0.6398219026818E+00 -0.2963969993353E+00  0.6532649971466E-01
-0.1448571287586E-01 -0.5909586505116E+00 -0.2845588500704E+00  0.9397398374115E-01
-0.3988603688987E-01 -0.5506312274361E+00 -0.2775431135292E+00  0.1219460933747E+00
-0.6453964098113E-01 -0.5367226460657E+00 -0.2825932741952E+00  0.1538438098450E+00
-0.8899717212398E-01 -0.5575215003692E+00 -0.3038637753011E+00  0.1965640491176E+00
-0.1158373601101E+00 -0.6126664157652E+00 -0.3423967737929E+00  0.2549190624965E+00
-0.1498094819182E+00 -0.7079337971073E+00 -0.4031393401195E+00  0.3316417989547E+00
-0.1968859585134E+00 -0.8585972193453E+00 -0.4960770923354E+00  0.4283861564298E+00
-0.2647259427988E+00 -0.1100223171789E+01 -0.6415260822292E+00  0.5447028245080E+00
-0.3615718565895E+00 -0.1499048359944E+01 -0.8744914995529E+00  0.6722937223337E+00
-0.7012915597385E+00 -0.2411638797416E+01 -0.1463077264152E+01  0.9471041500554E+00
-0.3518841789162E+00 -0.2222856678838E+01 -0.1210128200075E+01  0.5396846046185E+00
-0.1484956382047E+00 -0.1850240651730E+01 -0.9394060538868E+00  0.2190120407633E+00
-0.3289559431116E-01 -0.1450173929482E+01 -0.6970426744149E+00  0.2934382273486E-01
 0.2595141863248E-01 -0.1123556102183E+01 -0.5158741999601E+00 -0.5077387518419E-01
 0.4945109852638E-01 -0.8919940353225E+00 -0.3959951792898E+00 -0.6631946725329E-01
 0.5204290819147E-01 -0.7371631880484E+00 -0.3220065307160E+00 -0.5074472158489E-01
 0.4413246198311E-01 -0.6325862216845E+00 -0.2765732663581E+00 -0.2376022551873E-01
 0.3100634220462E-01 -0.5570303496548E+00 -0.2472312828745E+00  0.4919965315956E-02
 0.1388029944631E-01 -0.4977168796884E+00 -0.2274031921370E+00  0.3125495593475E-01
-0.6740275308645E-02 -0.4482302129758E+00 -0.2138361289513E+00  0.5355257121195E-01
-0.2893239988897E-01 -0.4012192064746E+00 -0.2021712544781E+00  0.7180755262296E-01
-0.5011657952631E-01 -0.3613086657902E+00 -0.1933698648083E+00  0.8681856602129E-01
-0.6826459526603E-01 -0.3459287927283E+00 -0.1946708918636E+00  0.1040987715200E+00
-0.8527549736494E-01 -0.3613439436873E+00 -0.2099111367621E+00  0.1325239041056E+00
-0.1041361067921E+00 -0.4054497474835E+00 -0.2395053509020E+00  0.1774166649444E+00
-0.1308215532876E+00 -0.4824486944420E+00 -0.2882370157018E+00  0.2422472987689E+00
-0.1727397047960E+00 -0.6073947100076E+00 -0.3666631740277E+00  0.3301281468951E+00
-0.2406522092219E+00 -0.8189808513233E+00 -0.4980275371930E+00  0.4436250176670E+00
-0.3492997110492E+00 -0.1195935262422E+01 -0.7262604356892E+00  0.5777754555773E+00
-0.6888436580452E+00 -0.2523529256695E+01 -0.1509815266098E+01  0.9426018365964E+00
-0.3114550903048E+00 -0.2229324790577E+01 -0.1194166540986E+01  0.4570670964647E+00
-0.1169603154902E+00 -0.1719028115655E+01 -0.8629145604494E+00  0.1225946019418E+00
-0.9159943597112E-02 -0.1228259325523E+01 -0.5815870550113E+00 -0.4006695217225E-01
 0.3936781034649E-01 -0.8753721482640E+00 -0.3929220378246E+00 -0.8411314588161E-01
 0.5111657613737E-01 -0.6546158434230E+00 -0.2836446549048E+00 -0.7317502501160E-01
 0.4509987322669E-01 -0.5192238503185E+00 -0.2228382686680E+00 -0.4451293688136E-01
 0.3334212800190E-01 -0.4296256014073E+00 -0.1862532320281E+00 -0.1471977689598E-01
 0.1889427337499E-01 -0.3642017073783E+00 -0.1622944935699E+00  0.1065493078226E-01
 0.2082338085397E-02 -0.3116761873747E+00 -0.1455091087969E+00  0.2992344901008E-01
-0.1698659073367E-01 -0.2671725213687E+00 -0.1335547823494E+00  0.4248924215044E-01
-0.3634933901356E-01 -0.2242529027324E+00 -0.1224830533099E+00  0.4939031118476E-01
-0.5186400155942E-01 -0.1876009672231E+00 -0.1125485350423E+00  0.5074708981434E-01
-0.6178214833961E-01 -0.1736603568140E+00 -0.1106579771415E+00  0.5269281022162E-01
-0.6886784540152E-01 -0.1862164248511E+00 -0.1198896067147E+00  0.6568390023726E-01
-0.7637737643235E-01 -0.2212820240192E+00 -0.1398999178574E+00  0.9508592428538E-01
-0.9152351668575E-01 -0.2806680317566E+00 -0.1749300273242E+00  0.1446784908874E+00
-0.1230890946494E+00 -0.3774219409402E+00 -0.2352401861304E+00  0.2186531331254E+00
-0.1852684641421E+00 -0.5504004709472E+00 -0.3457643986150E+00  0.3225929273741E+00
-0.3028883384401E+00 -0.8907820825960E+00 -0.5610250964640E+00  0.4548816178605E+00
-0.7229622117335E+00 -0.2702290669313E+01 -0.1609868850008E+01  0.9224391903858E+00
-0.2985076147569E+00 -0.2230592174820E+01 -0.1188676898086E+01  0.3351337951707E+00
-0.9705691163965E-01 -0.1522592672179E+01 -0.7612353024640E+00  0.7801876765292E-02
 0.1282678623773E-01 -0.9435334372218E+00 -0.4374321248530E+00 -0.1013210950516E+00
 0.5114280679961E-01 -0.5989196754521E+00 -0.2574551276137E+00 -0.9744962938140E-01
 0.4879816061532E-01 -0.4171863468624E+00 -0.1731424470970E+00 -0.6166401520256E-01
 0.3787352471871E-01 -0.3089643412563E+00 -0.1274126834495E+00 -0.2603366222835E-01
 0.2473552147631E-01 -0.2362838313662E+00 -0.9942770539608E-01  0.1536646873749E-02
 0.1070386494781E-01 -0.1812491236238E+00 -0.8015627137441E-01  0.2041130657068E-01
-0.4528794908894E-02 -0.1359425411987E+00 -0.6602152780313E-01  0.3082029158757E-01
-0.2099733435764E-01 -0.9764003163417E-01 -0.5575956187473E-01  0.3276157418262E-01
-0.3656257295030E-01 -0.6104782228460E-01 -0.4587688564405E-01  0.2805971504726E-01
-0.4538278649169E-01 -0.3074103805974E-01 -0.3577819744843E-01  0.1576147069534E-01
-0.4573307254321E-01 -0.2138399093196E-01 -0.3154501975332E-01  0.2369442165603E-02
-0.4065633465570E-01 -0.3395951587848E-01 -0.3506944966211E-01 -0.4638061479133E-03
-0.3335607868851E-01 -0.6260787385815E-01 -0.4510305758253E-01  0.1222891804224E-01
-0.3257710413128E-01 -0.1069351768662E+00 -0.6557077190248E-01  0.4406006817331E-01
-0.4764936316344E-01 -0.1762089875104E+00 -0.1052134245498E+00  0.9947107323237E-01
-0.9534133047801E-01 -0.3049539772563E+00 -0.1881387941579E+00  0.1861742715494E+00
-0.2132492202524E+00 -0.5935484028137E+00 -0.3791948818793E+00  0.3043482204537E+00
-0.8596164811278E+00 -0.3000392622623E+01 -0.1814204274161E+01  0.8737713949086E+00
-0.3273097696620E+00 -0.2196093491252E+01 -0.1185999529621E+01  0.1581763850371E+00
-0.7715657841495E-01 -0.1206463240421E+01 -0.6033013133228E+00 -0.1149740690598E+00
 0.4849556481304E-01 -0.5814110191033E+00 -0.2504702628811E+00 -0.1331421512981E+00
 0.5502036181957E-01 -0.3249353555376E+00 -0.1268600467257E+00 -0.7957841984543E-01
 0.4603557921903E-01 -0.1927409540703E+00 -0.6895152600523E-01 -0.3095507250893E-01
 0.3291360313687E-01 -0.1127342018783E+00 -0.3751568131332E-01  0.2907859658330E-02
 0.2022231285209E-01 -0.5525972701916E-01 -0.1646758461675E-01  0.2326783961701E-01
 0.7479587366161E-02 -0.9401193870042E-02 -0.9031550545336E-03  0.3318161523604E-01
-0.5457056621935E-02  0.2897008235959E-01  0.1105112206867E-01  0.3375818741167E-01
-0.1858377690977E-01  0.6022786948758E-01  0.1957272346193E-01  0.2500432334068E-01
-0.2985393527802E-01  0.8806223762107E-01  0.2735790203184E-01  0.9257293966750E-02
-0.3141670641527E-01  0.1086044961073E+00  0.3627826106325E-01 -0.1605792801226E-01
-0.2135918706443E-01  0.1100174854028E+00  0.4166940011335E-01 -0.4420265665926E-01
-0.2067303069927E-02  0.9468806965594E-01  0.4353176018501E-01 -0.6258835564742E-01
 0.2308766039501E-01  0.6943159577925E-01  0.4348405029161E-01 -0.6697260217426E-01
 0.4448369744656E-01  0.3728121212262E-01  0.3842950740005E-01 -0.5423673927686E-01
 0.5110942232873E-01 -0.9673689323879E-02  0.1947479446289E-01 -0.2043006051715E-01
 0.2900380522955E-01 -0.9463208006801E-01 -0.3084528909584E-01  0.4197818120484E-01
-0.7191292505382E-01 -0.3191919200175E+00 -0.1838192767173E+00  0.1305075508744E+00
-0.1244665530072E+01 -0.3540531948820E+01 -0.2249042809375E+01  0.7671782282076E+00
-0.4263981166757E+00 -0.2042464282474E+01 -0.1160365324657E+01 -0.9693968547984E-01
 0.4647942536880E-01 -0.6181218708257E+00 -0.2686719486833E+00 -0.2040082137583E+00
 0.5794817346875E-01 -0.2410407895054E+00 -0.8605352931895E-01 -0.1064824851405E+00
 0.6012361471678E-01 -0.7563587593569E-01 -0.7290762754391E-02 -0.3101430975295E-01
 0.4598143441165E-01  0.9119137645547E-02  0.2589726880120E-01  0.1433439685556E-01
 0.3307174248306E-01  0.6680650927388E-01  0.4694277820669E-01  0.3859644110744E-01
 0.2106319172395E-01  0.1124454083587E+00  0.6274904187968E-01  0.4822909479322E-01
 0.9468472304120E-02  0.1508831104612E+00  0.7536524370853E-01  0.4781221777729E-01
-0.5889004699601E-03  0.1835579412076E+00  0.8599544892857E-01  0.3849867793840E-01
-0.1005476630105E-01  0.2070782494714E+00  0.9260103685519E-01  0.1991789464745E-01
-0.1667619360387E-01  0.2237233159981E+00  0.9731214727844E-01 -0.5367951212117E-02
-0.1136149637681E-01  0.2298372333341E+00  0.1026835961095E+00 -0.4250058508899E-01
 0.9697389705323E-02  0.2198933593640E+00  0.1079076517889E+00 -0.8455989944980E-01
 0.4513134839095E-01  0.1997372029381E+00  0.1150882188327E+00 -0.1178618287251E+00
 0.9096747122876E-01  0.1756386274809E+00  0.1253048660757E+00 -0.1389004751522E+00
 0.1356813866838E+00  0.1509233172750E+00  0.1347042105190E+00 -0.1453880422953E+00
 0.1720894436527E+00  0.1246396662404E+00  0.1394626812960E+00 -0.1343037556213E+00
 0.1785761666426E+00  0.6704057102881E-01  0.1154398664128E+00 -0.9894732560393E-01
 0.1256065142130E+00 -0.8994598067675E-01  0.1676045071954E-01 -0.5554846722757E-01
-0.2928144897786E+01 -0.5121254662149E+01 -0.3783217783574E+01  0.4689886321401E+00
 0.1197784688014E+00 -0.7182285200813E+00 -0.2812715233881E+00 -0.3908064204448E+00
 0.3337531393542E-01 -0.1585074426291E+00 -0.5881210033687E-01 -0.1668266279596E+00
 0.7771163932813E-01  0.4799325720526E-01  0.5908130122084E-01 -0.2914403110227E-01
 0.6816274948967E-01  0.1355655447395E+00  0.9575229804485E-01  0.3702037529860E-01
 0.5319198567650E-01  0.1871441844896E+00  0.1129579996916E+00  0.6718607062978E-01
 0.3935572671378E-01  0.2290959541589E+00  0.1261722896901E+00  0.7707577554273E-01
 0.2787918504717E-01  0.2674383883973E+00  0.1387992591669E+00  0.7437951128400E-01
 0.1682964841920E-01  0.3001192227286E+00  0.1489659690616E+00  0.6343261331176E-01
 0.7897713462268E-02  0.3268472564304E+00  0.1573301354505E+00  0.4444427456761E-01
 0.5898737295930E-02  0.3475167561518E+00  0.1661052814991E+00  0.1807528841091E-01
 0.1573667375638E-02  0.3468841178667E+00  0.1637751586485E+00 -0.1332232817608E-01
 0.1252594569652E-01  0.3311833870716E+00  0.1615433859913E+00 -0.6098658371337E-01
 0.4583741379740E-01  0.3072162389202E+00  0.1659352163564E+00 -0.1166750497940E+00
 0.9970834159821E-01  0.2821577627718E+00  0.1794770685987E+00 -0.1643096117174E+00
 0.1675178015756E+00  0.2575107762126E+00  0.1997634310538E+00 -0.2009747632105E+00
 0.2384598177051E+00  0.2374657257266E+00  0.2236850048455E+00 -0.2254024596560E+00
 0.3047020433158E+00  0.2204823868461E+00  0.2468366815500E+00 -0.2365130463286E+00
 0.3644082337135E+00  0.2057148684735E+00  0.2679578573483E+00 -0.2289102525050E+00
 0.3353335377461E+00  0.3344834627062E-01  0.1733274850482E+00 -0.2269178434313E+00
-0.3808060639721E+00 -0.1226151862071E+01 -0.7552702233246E+00 -0.8357302965843E+00
-0.3593617357741E+00 -0.1076812600582E+01 -0.6750019363753E+00 -0.7830929419723E+00
-0.3546181113213E+00 -0.9615796286886E+00 -0.6186129362356E+00 -0.7271008262835E+00
-0.3486607981557E+00 -0.8561147702605E+00 -0.5662445157194E+00 -0.6682253382870E+00
-0.3396048974903E+00 -0.7569157659457E+00 -0.5153647105078E+00 -0.6067405089552E+00
-0.3256625600243E+00 -0.6626069951055E+00 -0.4644866897329E+00 -0.5432181919605E+00
-0.3059832008981E+00 -0.5730837185381E+00 -0.4131614510871E+00 -0.4782774360744E+00
-0.2801453824745E+00 -0.4885987354562E+00 -0.3613097345110E+00 -0.4125730878745E+00
-0.2480480237592E+00 -0.4095033800624E+00 -0.3090491590123E+00 -0.3467828923703E+00
-0.2098084009247E+00 -0.3361079152648E+00 -0.2565806679583E+00 -0.2815971582477E+00
-0.1657075183449E+00 -0.2686248837812E+00 -0.2041362284815E+00 -0.2177027231868E+00
-0.1161542023830E+00 -0.2071480504980E+00 -0.1519520584687E+00 -0.1557643301168E+00
-0.6166019024042E-01 -0.1516527325200E+00 -0.1002570734431E+00 -0.9640689184780E-01
-0.2820045010340E-02 -0.1020090559633E+00 -0.4926967733267E-01 -0.4020272003670E-01
 0.5970447639485E-01 -0.5800515817950E-01  0.7986795591874E-03  0.1233194518789E-01
 0.1251994373408E+00 -0.1937426609419E-01  0.4973783035974E-01  0.6072697346348E-01
 0.1928883398938E+00  0.1415147116805E-01  0.9730871095225E-01  0.1045270617392E+00
 0.2620417901167E+00  0.4286616157247E-01  0.1433067369304E+00  0.1432345429428E+00
 0.3314506076862E+00  0.6643125044412E-01  0.1870044728469E+00  0.1761146045845E+00
 0.4044614650963E+00  0.8682854743951E-01  0.2309063053062E+00  0.2019039690779E+00
-0.3976938952252E+00 -0.1317516211770E+01 -0.8061487482432E+00 -0.8987395996174E+00
-0.3879696886038E+00 -0.1186460635738E+01 -0.7399822505636E+00 -0.8409186783504E+00
-0.3836720666333E+00 -0.1058537333076E+01 -0.6778384161440E+00 -0.7828849456834E+00
-0.3810265772687E+00 -0.9408644256563E+00 -0.6212887697989E+00 -0.7241736219730E+00
-0.3747162070460E+00 -0.8305732897207E+00 -0.5664860620435E+00 -0.6633796218779E+00
-0.3630819193369E+00 -0.7267318561233E+00 -0.5122124731671E+00 -0.6002325191202E+00
-0.3450995143668E+00 -0.6288070454331E+00 -0.4577360819450E+00 -0.5349616198517E+00
-0.3202659073480E+00 -0.5367328105428E+00 -0.4027893963871E+00 -0.4680898242162E+00
-0.2883689334173E+00 -0.4506606803703E+00 -0.3473439175992E+00 -0.4002999709645E+00
-0.2494187282083E+00 -0.3708249165757E+00 -0.2915145123091E+00 -0.3323613603624E+00
-0.2036038612551E+00 -0.2974434804295E+00 -0.2354922499945E+00 -0.2650809369511E+00
-0.1512652990610E+00 -0.2306588541452E+00 -0.1795043515516E+00 -0.1992669521636E+00
-0.9287246722236E-01 -0.1705069810924E+00 -0.1237883403940E+00 -0.1356996534768E+00
-0.2899614080362E-01 -0.1169098532791E+00 -0.6857581704494E-01 -0.7510870723918E-01
 0.3972524408274E-01 -0.6968744755634E-01 -0.1408223559687E-01 -0.1815981507124E-01
 0.1126223254145E+00 -0.2858976426616E-01  0.3949530363956E-01  0.3454558772741E-01
 0.1890639008999E+00  0.6678014369286E-02  0.9199869994319E-01  0.8245653230090E-01
 0.2684794034174E+00  0.3635503507792E-01  0.1432721857294E+00  0.1250438240751E+00
 0.3511152687697E+00  0.6102928216296E-01  0.1937079384470E+00  0.1618058747167E+00
 0.4378226769250E+00  0.8121353513040E-01  0.2439470190473E+00  0.1927274957432E+00
-0.4070017912557E+00 -0.1401901023652E+01 -0.8501843208503E+00 -0.9565337847512E+00
-0.4082681584512E+00 -0.1281191901687E+01 -0.7940462262510E+00 -0.9046580232506E+00
-0.4096431424973E+00 -0.1155726324276E+01 -0.7357236475174E+00 -0.8478271981346E+00
-0.4102738343417E+00 -0.1032652631772E+01 -0.6781754373533E+00 -0.7888805263478E+00
-0.4075962693623E+00 -0.9148336568987E+00 -0.6215420637662E+00 -0.7277502390477E+00
-0.3993601735438E+00 -0.8026362876859E+00 -0.5649383353451E+00 -0.6640876367369E+00
-0.3843516814222E+00 -0.6962815778402E+00 -0.5078976305651E+00 -0.5978880475417E+00
-0.3618264216864E+00 -0.5959583900812E+00 -0.4501588603890E+00 -0.5294712512380E+00
-0.3313869896948E+00 -0.5019419993442E+00 -0.3916646238549E+00 -0.4594079930640E+00
-0.2928841981408E+00 -0.4145528216110E+00 -0.3324953984400E+00 -0.3884416609815E+00
-0.2463777311842E+00 -0.3341012924851E+00 -0.2728251404326E+00 -0.3174242337709E+00
-0.1921126809024E+00 -0.2608313640976E+00 -0.2128837006101E+00 -0.2472626637813E+00
-0.1304989621653E+00 -0.1948774243904E+00 -0.1529269012933E+00 -0.1788719057914E+00
-0.6208261525308E-01 -0.1362395776821E+00 -0.9321143044311E-01 -0.1131330527233E+00
 0.1249510605102E-01 -0.8478198499600E-01 -0.3397483301797E-01 -0.5085832395264E-01
 0.9255578445639E-01 -0.4025253114568E-01  0.2458252899368E-01  0.7233484746830E-02
 0.1774416456408E+00 -0.2334000556006E-02  0.8230059298110E-01  0.6052846124979E-01
 0.2666518954821E+00  0.2935471313940E-01  0.1391231056992E+00  0.1085247957917E+00
 0.3597661382361E+00  0.5513262137388E-01  0.1950024165221E+00  0.1508990753490E+00
 0.4559608692998E+00  0.7506307897524E-01  0.2495812550562E+00  0.1875767088891E+00
-0.4157370604442E+00 -0.1495207385517E+01 -0.8981438873238E+00 -0.1014634172061E+01
-0.4253917951803E+00 -0.1376567302124E+01 -0.8469207735848E+00 -0.9693013421690E+00
-0.4329203854948E+00 -0.1253210419109E+01 -0.7924814761537E+00 -0.9166165278058E+00
-0.4381938437306E+00 -0.1128782549922E+01 -0.7364789031488E+00 -0.8594494364992E+00
-0.4396338886223E+00 -0.1006369722643E+01 -0.6796216955710E+00 -0.7988213071507E+00
-0.4354788531574E+00 -0.8877452173357E+00 -0.6219153115543E+00 -0.7349071275415E+00
-0.4242915262549E+00 -0.7738682959965E+00 -0.5631351150298E+00 -0.6677913723918E+00
-0.4050848589254E+00 -0.6654518395774E+00 -0.5031522470202E+00 -0.5977387219944E+00
-0.3771999898876E+00 -0.5631085985783E+00 -0.4419450354580E+00 -0.5252410752010E+00
-0.3402533293574E+00 -0.4674152619938E+00 -0.3796042369723E+00 -0.4509981977798E+00
-0.2941027869067E+00 -0.3789019976412E+00 -0.3163122479352E+00 -0.3758750634427E+00
-0.2388339897817E+00 -0.2980160194281E+00 -0.2523195036886E+00 -0.3008519859876E+00
-0.1747487920954E+00 -0.2250764661659E+00 -0.1879178709062E+00 -0.2269703892853E+00
-0.1023444180713E+00 -0.1602350111591E+00 -0.1234123314252E+00 -0.1552747883265E+00
-0.2227371100292E-01 -0.1034531065455E+00 -0.5909160409786E-01 -0.8675322775411E-01
 0.6471382730178E-01 -0.5450857597640E-01  0.4796468110764E-02 -0.2228183303681E-01
 0.1578532820990E+00 -0.1303033688401E-01  0.6806678407840E-01  0.3741840607354E-01
 0.2563998652036E+00  0.2140415498833E-01  0.1305678891591E+00  0.9180662484158E-01
 0.3595634133927E+00  0.4913772531821E-01  0.1920895347069E+00  0.1405031541561E+00
 0.4664847065958E+00  0.7045872538035E-01  0.2523634123887E+00  0.1832060790554E+00
-0.4222944295766E+00 -0.1597542549778E+01 -0.9493233778888E+00 -0.1073772350161E+01
-0.4398976411962E+00 -0.1478861323305E+01 -0.9018167110282E+00 -0.1034523719934E+01
-0.4539677379003E+00 -0.1355943619139E+01 -0.8506583356508E+00 -0.9870986846915E+00
-0.4647473498278E+00 -0.1230635697032E+01 -0.7968300300032E+00 -0.9334831790230E+00
-0.4712008615860E+00 -0.1105202122966E+01 -0.7409094008603E+00 -0.8748538081177E+00
-0.4718650161747E+00 -0.9815508637352E+00 -0.6831054618251E+00 -0.8117326429162E+00
-0.4653212870593E+00 -0.8611220994308E+00 -0.6234283900691E+00 -0.7443890638823E+00
-0.4503745193554E+00 -0.7450457295327E+00 -0.5618475155523E+00 -0.6731246184322E+00
-0.4260986016566E+00 -0.6343058080020E+00 -0.4983900712755E+00 -0.5984036878055E+00
-0.3918230399857E+00 -0.5298055929329E+00 -0.4331654563731E+00 -0.5208940906091E+00
-0.3471313614321E+00 -0.4323825321482E+00 -0.3663715290535E+00 -0.4414640909540E+00
-0.2918682161065E+00 -0.3427832863403E+00 -0.2982862053934E+00 -0.3611548162554E+00
-0.2261500212360E+00 -0.2616161391806E+00 -0.2292500948144E+00 -0.2811347548105E+00
-0.1503662449711E+00 -0.1892932016033E+00 -0.1596399394850E+00 -0.2026372366404E+00
-0.6515875073038E-01 -0.1259773157101E+00 -0.8983395099918E-01 -0.1268819387111E+00
 0.2863179586833E-01 -0.7155074811684E-01 -0.2017190750564E-01 -0.5498605699660E-01
 0.1300467609506E+00 -0.2563137933725E-01  0.4907522923382E-01  0.1212154271834E-01
 0.2381086283205E+00  0.1235140413003E-01  0.1177162149532E+00  0.7375753270447E-01
 0.3519083092070E+00  0.4300058264613E-01  0.1856071787002E+00  0.1294716878298E+00
 0.4705397907015E+00  0.6666544145165E-01  0.2524864584716E+00  0.1789190309549E+00
-0.4265771805265E+00 -0.1709196675890E+01 -0.1003813709970E+01 -0.1133555822644E+01
-0.4515214471433E+00 -0.1590089401971E+01 -0.9595570966501E+00 -0.1100216180814E+01
-0.4724888641505E+00 -0.1466978622949E+01 -0.9115497166245E+00 -0.1058558332574E+01
-0.4895472329515E+00 -0.1340719795570E+01 -0.8602255012230E+00 -0.1009670411502E+01
-0.5019113725328E+00 -0.1212862533587E+01 -0.8059437338320E+00 -0.9544485823675E+00
-0.5083152232118E+00 -0.1085058329395E+01 -0.7488855678255E+00 -0.8934362948031E+00
-0.5073599485151E+00 -0.9588251205771E+00 -0.6891069807255E+00 -0.8269694930178E+00
-0.4977109689006E+00 -0.8355267242682E+00 -0.6266217142000E+00 -0.7553636424505E+00
-0.4781876400647E+00 -0.7164251993422E+00 -0.5614680330971E+00 -0.6790491679227E+00
-0.4478072445731E+00 -0.6027291951247E+00 -0.4937521254056E+00 -0.5986476180297E+00
-0.4058162412623E+00 -0.4956061502176E+00 -0.4236685229210E+00 -0.5150054137771E+00
-0.3517286572963E+00 -0.3961615199519E+00 -0.3515083824151E+00 -0.4291979837116E+00
-0.2853705202333E+00 -0.3053869672616E+00 -0.2776560184184E+00 -0.3425080906373E+00
-0.2069211917081E+00 -0.2240830213462E+00 -0.2025719796217E+00 -0.2563760530253E+00
-0.1169344689025E+00 -0.1527652619140E+00 -0.1267588731623E+00 -0.1723172362301E+00
-0.1631951047040E-01 -0.9157372654133E-01 -0.5070982126690E-01 -0.9180574179815E-01
 0.9373842466161E-01 -0.4021625301440E-01  0.2515542061038E-01 -0.1613458677237E-01
 0.2119295458806E+00  0.2015251203557E-02  0.1005540543745E+00  0.5372106436850E-01
 0.3370694514994E+00  0.3613882415207E-01  0.1754078891113E+00  0.1171990194493E+00
 0.4683319178529E+00  0.6311156260083E-01  0.2497784351797E+00  0.1741141071079E+00
-0.4282504618260E+00 -0.1830101173448E+01 -0.1061425265887E+01 -0.1193247609109E+01
-0.4601054807218E+00 -0.1711245540607E+01 -0.1020534977436E+01 -0.1165972734014E+01
-0.4880976119532E+00 -0.1588102691747E+01 -0.9758141402639E+00 -0.1130485592618E+01
-0.5120284220503E+00 -0.1461111639725E+01 -0.9273758266821E+00 -0.1087191769205E+01
-0.5311333040036E+00 -0.1331305256899E+01 -0.8753461214042E+00 -0.1036577331735E+01
-0.5442273698288E+00 -0.1200004494555E+01 -0.8197889741810E+00 -0.9790018781319E+00
-0.5499086757763E+00 -0.1068612170259E+01 -0.7607047957070E+00 -0.9147130745315E+00
-0.5467166087379E+00 -0.9385367885802E+00 -0.6980690949690E+00 -0.8439482922513E+00
-0.5332323865125E+00 -0.8111893798816E+00 -0.6318782286025E+00 -0.7670426622142E+00
-0.5081452724921E+00 -0.6880008466137E+00 -0.5621886745538E+00 -0.6845152847010E+00
-0.4703108903056E+00 -0.5704300013988E+00 -0.4891482178604E+00 -0.5971301847879E+00
-0.4188177568572E+00 -0.4599466142647E+00 -0.4130192533797E+00 -0.5059345747064E+00
-0.3530696257376E+00 -0.3579824845341E+00 -0.3341944909801E+00 -0.4122736805222E+00
-0.2728802154225E+00 -0.2658442891705E+00 -0.2532005165165E+00 -0.3177750396823E+00
-0.1785645982383E+00 -0.1845840331194E+00 -0.1706798563052E+00 -0.2242888802663E+00
-0.7099609572110E-01 -0.1148321614717E+00 -0.8733928065910E-01 -0.1337684067178E+00
 0.4841307149025E-01 -0.5662409809858E-01 -0.3859182496129E-02 -0.4808123318643E-01
 0.1778491950337E+00 -0.9281730003551E-02  0.7922670836323E-01  0.3123466427728E-01
 0.3153778245308E+00  0.2858081308573E-01  0.1616605592697E+00  0.1032322807358E+00
 0.4596712698663E+00  0.5910382219117E-01  0.2438242926486E+00  0.1678207153726E+00
-0.4270538353003E+00 -0.1960314512073E+01 -0.1122063120420E+01 -0.1251968417034E+01
-0.4654374600485E+00 -0.1842920435870E+01 -0.1084928208330E+01 -0.1231129314547E+01
-0.5004463060487E+00 -0.1720595119534E+01 -0.1043889467376E+01 -0.1202274460072E+01
-0.5316252366565E+00 -0.1593583941287E+01 -0.9988483111002E+00 -0.1165336891530E+01
-0.5581410262915E+00 -0.1462577124288E+01 -0.9497375283635E+00 -0.1120406188647E+01
-0.5788075456097E+00 -0.1328581597131E+01 -0.8964728948142E+00 -0.1067565635224E+01
-0.5921880389283E+00 -0.1192795567266E+01 -0.8389422927836E+00 -0.1006862434873E+01
-0.5966993377662E+00 -0.1056540106900E+01 -0.7770225370221E+00 -0.9383572520421E+00
-0.5906940983120E+00 -0.9212410299572E+00 -0.7106095084842E+00 -0.8622041332091E+00
-0.5725266568227E+00 -0.7884361278454E+00 -0.6396525071716E+00 -0.7787344219794E+00
-0.5406181364173E+00 -0.6597851950726E+00 -0.5641895643693E+00 -0.6885352311197E+00
-0.4935373246466E+00 -0.5370666760007E+00 -0.4843838790756E+00 -0.5925200483086E+00
-0.4301106202072E+00 -0.4221473153727E+00 -0.4005612287066E+00 -0.4919885455807E+00
-0.3495691132537E+00 -0.3169098251267E+00 -0.3132451002443E+00 -0.3886667920521E+00
-0.2517300311917E+00 -0.2231188541571E+00 -0.2231789755479E+00 -0.2847086769886E+00
-0.1371845445994E+00 -0.1421997240207E+00 -0.1313106059184E+00 -0.1826249393484E+00
-0.7428134646414E-02 -0.7492183765620E-01 -0.3870448688406E-01 -0.8509508225716E-01
 0.1351465700029E+00 -0.2105265981389E-01  0.5362413765285E-01  0.5367078923377E-02
 0.2874460556904E+00  0.2086521621661E-01  0.1449062974288E+00  0.8686505443562E-01
 0.4459857331985E+00  0.5349864057519E-01  0.2347576550782E+00  0.1586374059231E+00
-0.4227035442303E+00 -0.2099917693244E+01 -0.1185631978606E+01 -0.1308720040939E+01
-0.4672344686125E+00 -0.1985616792940E+01 -0.1152840090005E+01 -0.1294806097417E+01
-0.5091173416089E+00 -0.1865558907507E+01 -0.1116097834254E+01 -0.1273137190567E+01
-0.5477068281254E+00 -0.1739857508250E+01 -0.1075155235370E+01 -0.1243334308712E+01
-0.5820923253538E+00 -0.1608945803592E+01 -0.1029787917993E+01 -0.1205154182746E+01
-0.6110600300489E+00 -0.1473540115565E+01 -0.9797620659534E+00 -0.1158385787088E+01
-0.6331302011328E+00 -0.1334583238358E+01 -0.9248253142148E+00 -0.1102816753218E+01
-0.6466117125105E+00 -0.1193206450457E+01 -0.8647145344017E+00 -0.1038257388405E+01
-0.6496529948167E+00 -0.1050720984509E+01 -0.7991757682560E+00 -0.9645992042489E+00
-0.6402879587194E+00 -0.9086316589790E+00 -0.7279922184718E+00 -0.8818914484324E+00
-0.6164867019408E+00 -0.7686606059793E+00 -0.6510192330712E+00 -0.7904282815649E+00
-0.5762263837933E+00 -0.6327690374510E+00 -0.5682278465436E+00 -0.6908450930034E+00
-0.5176014502738E+00 -0.5031645569712E+00 -0.4797600221883E+00 -0.5842237492336E+00
-0.4389957517728E+00 -0.3822772925363E+00 -0.3859983298462E+00 -0.4722028868987E+00
-0.3393389516487E+00 -0.2726766590108E+00 -0.2876473362804E+00 -0.3570786365373E+00
-0.2184595148488E+00 -0.1768816039382E+00 -0.1858103253586E+00 -0.2418589314317E+00
-0.7748096397578E-01 -0.9697137339274E-01 -0.8199259835524E-01 -0.1301926927838E+00
 0.8089177707820E-01 -0.3393518000838E-01  0.2206960056684E-01 -0.2605239593236E-01
 0.2523489488053E+00  0.1303432278064E-01  0.1247301373290E+00  0.6689807518256E-01
 0.4310115004206E+00  0.4666791697022E-01  0.2245093256042E+00  0.1460668170381E+00
-0.4147945894298E+00 -0.2248724660735E+01 -0.1251854044402E+01 -0.1362355678699E+01
-0.4650816380732E+00 -0.2139479232037E+01 -0.1224143605847E+01 -0.1355840050548E+01
-0.5135623781912E+00 -0.2023646544642E+01 -0.1192488190707E+01 -0.1341932056032E+01
-0.5595138106360E+00 -0.1901214552369E+01 -0.1156542327679E+01 -0.1320053551050E+01
-0.6019835700228E+00 -0.1772384232101E+01 -0.1115952864168E+01 -0.1289703954071E+01
-0.6397468929269E+00 -0.1637585652496E+01 -0.1070346293634E+01 -0.1250404470346E+01
-0.6713042654177E+00 -0.1497464294984E+01 -0.1019321220803E+01 -0.1201672435220E+01
-0.6948966138152E+00 -0.1352872141913E+01 -0.9624513127511E+00 -0.1143032810616E+01
-0.7085215788939E+00 -0.1204876080403E+01 -0.8992968975888E+00 -0.1074059650990E+01
-0.7099475517113E+00 -0.1054785411700E+01 -0.8294244906994E+00 -0.9944404847050E+00
-0.6967309423774E+00 -0.9041947924573E+00 -0.7524350934639E+00 -0.9040612541332E+00
-0.6662493546514E+00 -0.7550373313973E+00 -0.6680047407486E+00 -0.8031144558248E+00
-0.6157713838601E+00 -0.6096415290490E+00 -0.5759440676065E+00 -0.6922367427982E+00
-0.5425954502725E+00 -0.4707823006274E+00 -0.4762875417149E+00 -0.5726834801207E+00
-0.4443088977948E+00 -0.3417074034020E+00 -0.3694276606255E+00 -0.4465441688045E+00
-0.3192376625358E+00 -0.2260927114255E+00 -0.2563052751117E+00 -0.3169865484229E+00
-0.1671784015983E+00 -0.1278321912265E+00 -0.1386549782760E+00 -0.1884705819988E+00
 0.9719396726548E-02 -0.5031642389282E-01 -0.1908060271975E-01 -0.6673786689156E-01
 0.2064232153109E+00  0.5114111748191E-02  0.9942254346561E-01  0.4179474851114E-01
 0.4153306836952E+00  0.4078567379971E-01  0.2143746874789E+00  0.1313673067410E+00
-0.4030332309799E+00 -0.2406370250681E+01 -0.1320419633031E+01 -0.1411654332067E+01
-0.4585914834899E+00 -0.2304301267412E+01 -0.1298559589630E+01 -0.1412842849746E+01
-0.5132605174301E+00 -0.2194989496171E+01 -0.1272877503164E+01 -0.1407146545985E+01
-0.5663163529790E+00 -0.2078269009044E+01 -0.1242955116998E+01 -0.1393862890197E+01
-0.6168192133057E+00 -0.1954115170435E+01 -0.1208339157293E+01 -0.1372310053936E+01
-0.6635728985130E+00 -0.1822670331451E+01 -0.1168534315119E+01 -0.1341796370970E+01
-0.7051036932952E+00 -0.1684252394305E+01 -0.1122997358324E+01 -0.1301600947980E+01
-0.7396471612846E+00 -0.1539363440194E+01 -0.1071134979978E+01 -0.1250975873922E+01
-0.7651332547287E+00 -0.1388710454033E+01 -0.1012306540550E+01 -0.1189170684823E+01
-0.7791650160112E+00 -0.1233243393738E+01 -0.9458319501834E+00 -0.1115478071190E+01
-0.7789918049123E+00 -0.1074212699304E+01 -0.8710061147725E+00 -0.1029302614027E+01
-0.7614835378353E+00 -0.9132475431051E+00 -0.7871236060455E+00 -0.9302591362507E+00
-0.7231201867436E+00 -0.7524567625407E+00 -0.6935211644046E+00 -0.8183133287881E+00
-0.6600250736101E+00 -0.5945554880685E+00 -0.5896528624934E+00 -0.6939848640419E+00
-0.5680980932970E+00 -0.4430195431804E+00 -0.4752252879390E+00 -0.5586423978381E+00
-0.4433662672748E+00 -0.3022670324085E+00 -0.3504476499623E+00 -0.4149286276299E+00
-0.2827610836018E+00 -0.1778214269156E+00 -0.2164737793941E+00 -0.2673471963908E+00
-0.8581860191870E-01 -0.7637986438039E-01 -0.7623327896721E-01 -0.1229692549042E+00
 0.1431565197111E+00 -0.4355740521661E-02  0.6523636605357E-01  0.8283954162719E-02
 0.3947026023914E+00  0.3684249967953E-01  0.2028261974589E+00  0.1152045472065E+00
-0.3872520600319E+00 -0.2572206351003E+01 -0.1390945449659E+01 -0.1455362844395E+01
-0.4474966330107E+00 -0.2479503010955E+01 -0.1375689829175E+01 -0.1464299565905E+01
-0.5078098862652E+00 -0.2379190626583E+01 -0.1356890237597E+01 -0.1467011073118E+01
-0.5675178040386E+00 -0.2270947347136E+01 -0.1334078617668E+01 -0.1462727365668E+01
-0.6257389440747E+00 -0.2154537480753E+01 -0.1306729916355E+01 -0.1450658238989E+01
-0.6813496068313E+00 -0.2029831900987E+01 -0.1274255305443E+01 -0.1429971577123E+01
-0.7329537827126E+00 -0.1896820435888E+01 -0.1235993879607E+01 -0.1399774812510E+01
-0.7788527740517E+00 -0.1755625026729E+01 -0.1191204563346E+01 -0.1359107506707E+01
-0.8170074105923E+00 -0.1606521835856E+01 -0.1139058742942E+01 -0.1306947587118E+01
-0.8449870007488E+00 -0.1449978480961E+01 -0.1078633773668E+01 -0.1242232471841E+01
-0.8599007588390E+00 -0.1286711372268E+01 -0.1008907699061E+01 -0.1163898183721E+01
-0.8583091611083E+00 -0.1117768850277E+01 -0.9287566629954E+00 -0.1070943873443E+01
-0.8361153776173E+00 -0.9446485620994E+00 -0.8369590495440E+00 -0.9625362222944E+00
-0.7884433963437E+00 -0.7694627155456E+00 -0.7322158707308E+00 -0.8381797055180E+00
-0.7095280612395E+00 -0.5951750334070E+00 -0.6132104529285E+00 -0.6979985396036E+00
-0.5926893663329E+00 -0.4259498792722E+00 -0.4787604442201E+00 -0.5432119238771E+00
-0.4306223821313E+00 -0.2677083182369E+00 -0.3282154283406E+00 -0.3769493795213E+00
-0.2165664687669E+00 -0.1290058698883E+00 -0.1624189987560E+00 -0.2056622652392E+00
 0.5091761647355E-01 -0.2314848940838E-01  0.1305148968753E-01 -0.4147788119501E-01
 0.3612327552072E+00  0.3484949531531E-01  0.1861586572734E+00  0.9622735318720E-01
-0.3674300575415E+00 -0.2745253315708E+01 -0.1462961181717E+01 -0.1492240428840E+01
-0.4316978264132E+00 -0.2664072230439E+01 -0.1455011923030E+01 -0.1508655503805E+01
-0.4970046262940E+00 -0.2575278233734E+01 -0.1443972940551E+01 -0.1519621703554E+01
-0.5627532476742E+00 -0.2478426224490E+01 -0.1429354348292E+01 -0.1524348702279E+01
-0.6281510242018E+00 -0.2373114196612E+01 -0.1410594650205E+01 -0.1522003917271E+01
-0.6921798578278E+00 -0.2258993560834E+01 -0.1387051503253E+01 -0.1511691989403E+01
-0.7535634389892E+00 -0.2135776072933E+01 -0.1357989567159E+01 -0.1492434491140E+01
-0.8107287532286E+00 -0.2003241173428E+01 -0.1322565862174E+01 -0.1463153974487E+01
-0.8617560970272E+00 -0.1861248799915E+01 -0.1279812298317E+01 -0.1422663805904E+01
-0.9043105217112E+00 -0.1709762518427E+01 -0.1228614325749E+01 -0.1369664310080E+01
-0.9355462161058E+00 -0.1548887976307E+01 -0.1167684067472E+01 -0.1302746641958E+01
-0.9519726950765E+00 -0.1378933049183E+01 -0.1095525697023E+01 -0.1220408521868E+01
-0.9492670436695E+00 -0.1200499346098E+01 -0.1010390200628E+01 -0.1121091149826E+01
-0.9220093320249E+00 -0.1014621193155E+01 -0.9102163445261E+00 -0.1003256289930E+01
-0.8633080588855E+00 -0.8229802447128E+00 -0.7925555006810E+00 -0.8655417002109E+00
-0.7642748208507E+00 -0.6282509247030E+00 -0.6544870987502E+00 -0.7070738205039E+00
-0.6133147623281E+00 -0.4346905012377E+00 -0.4925624726266E+00 -0.5281124728024E+00
-0.3954054358268E+00 -0.2493109620292E+00 -0.3030167062237E+00 -0.3314403004038E+00
-0.9231839258667E-01 -0.8459018271161E-01 -0.8314703017930E-01 -0.1256975857361E+00
 0.3004187261025E+00  0.2728175113447E-01  0.1540192239107E+00  0.6594921550043E-01
-0.3437025877793E+00 -0.2924183655777E+01 -0.1535906530576E+01 -0.1521116572868E+01
-0.4112978022972E+00 -0.2856531825968E+01 -0.1535879921389E+01 -0.1544406279314E+01
-0.4808939555154E+00 -0.2781656700031E+01 -0.1533398804218E+01 -0.1563071022862E+01
-0.5519804770122E+00 -0.2699051337677E+01 -0.1527984949028E+01 -0.1576334336926E+01
-0.6238681311618E+00 -0.2608223654910E+01 -0.1519083135601E+01 -0.1583370751097E+01
-0.6956615203123E+00 -0.2508698933355E+01 -0.1506049409404E+01 -0.1583285233607E+01
-0.7662261610594E+00 -0.2400020140137E+01 -0.1488135757788E+01 -0.1575092548163E+01
-0.8341478023045E+00 -0.2281747347132E+01 -0.1464470716521E+01 -0.1557697420757E+01
-0.8976788931434E+00 -0.2153458670049E+01 -0.1434034651063E+01 -0.1529875179080E+01
-0.9546649161186E+00 -0.2014755408953E+01 -0.1395627549244E+01 -0.1490251617937E+01
-0.1002440248815E+01 -0.1865274329028E+01 -0.1347825848168E+01 -0.1437280532578E+01
-0.1037677915786E+01 -0.1704710916884E+01 -0.1288922748086E+01 -0.1369217644031E+01
-0.1056167966846E+01 -0.1532859471367E+01 -0.1216842892874E+01 -0.1284090661689E+01
-0.1052481242027E+01 -0.1349679601426E+01 -0.1129015593559E+01 -0.1179667671041E+01
-0.1019440570561E+01 -0.1155405334253E+01 -0.1022177572670E+01 -0.1053431858935E+01
-0.9472495185617E+00 -0.9507243752270E+00 -0.8920477278182E+00 -0.9025856344668E+00
-0.8219635525621E+00 -0.7370717952973E+00 -0.7327466116354E+00 -0.7241472038220E+00
-0.6226069937286E+00 -0.5171434380869E+00 -0.5356827015946E+00 -0.5153412758763E+00
-0.3147124456949E+00 -0.2955132179842E+00 -0.2868060612017E+00 -0.2748962116649E+00
 0.1642079256815E+00 -0.8217077812595E-01  0.3855745925330E-01 -0.9897632808463E-02
-0.3163591205497E+00 -0.3107336668725E+01 -0.1609137016878E+01 -0.1540957249738E+01
-0.3866128254495E+00 -0.3054946227113E+01 -0.1617532750602E+01 -0.1570196644268E+01
-0.4598125654191E+00 -0.2996098355351E+01 -0.1624278128642E+01 -0.1595595906605E+01
-0.5355383838136E+00 -0.2930296883010E+01 -0.1628942571276E+01 -0.1616406252262E+01
-0.6132122253471E+00 -0.2857050354327E+01 -0.1631023408310E+01 -0.1631829301100E+01
-0.6920702145045E+00 -0.2775872964558E+01 -0.1629933290025E+01 -0.1640997410986E+01
-0.7711298939668E+00 -0.2686283976400E+01 -0.1624984514951E+01 -0.1642954752808E+01
-0.8491497769070E+00 -0.2587806010976E+01 -0.1615369216208E+01 -0.1636638204794E+01
-0.9245767668781E+00 -0.2479963357681E+01 -0.1600133854484E+01 -0.1620856592600E+01
-0.9954749513238E+00 -0.2362281632078E+01 -0.1578145590196E+01 -0.1594265850092E+01
-0.1059426205298E+01 -0.2234290194484E+01 -0.1548046703971E+01 -0.1555336459453E+01
-0.1113387748372E+01 -0.2095529002180E+01 -0.1508190868934E+01 -0.1502307751245E+01
-0.1153482190540E+01 -0.1945562112415E+01 -0.1456550818695E+01 -0.1433120643902E+01
-0.1174677489610E+01 -0.1784000785768E+01 -0.1390578785901E+01 -0.1345314891064E+01
-0.1170278047954E+01 -0.1610539195876E+01 -0.1306984101285E+01 -0.1235866181994E+01
-0.1131068780332E+01 -0.1425000852847E+01 -0.1201352724547E+01 -0.1100915982030E+01
-0.1043772890110E+01 -0.1227377107160E+01 -0.1067440496009E+01 -0.9352965348816E+00
-0.8878700617471E+00 -0.1017664231371E+01 -0.8956011154938E+00 -0.7316147347584E+00
-0.6285553378440E+00 -0.7952108391556E+00 -0.6691701014926E+00 -0.4782756954800E+00
-0.1840255831320E+00 -0.5456584638481E+00 -0.3429515012108E+00 -0.1530790923958E+00
-0.2858244765399E+00 -0.3292769835488E+01 -0.1681939322387E+01 -0.1550930732356E+01
-0.3581504707491E+00 -0.3256984902364E+01 -0.1699113621054E+01 -0.1584923250762E+01
-0.4343575359489E+00 -0.3215818775083E+01 -0.1715582861834E+01 -0.1615740990623E+01
-0.5141275171274E+00 -0.3168846719981E+01 -0.1730997887051E+01 -0.1642653881986E+01
-0.5970092210573E+00 -0.3115652546495E+01 -0.1744951026324E+01 -0.1664876170053E+01
-0.6823902991821E+00 -0.3055833371707E+01 -0.1756965120862E+01 -0.1681546456443E+01
-0.7694660511544E+00 -0.2989003638700E+01 -0.1766480749751E+01 -0.1691708328672E+01
-0.8572025114211E+00 -0.2914799043538E+01 -0.1772840726334E+01 -0.1694289677770E+01
-0.9442904758142E+00 -0.2832881325769E+01 -0.1775270742241E+01 -0.1688078348499E+01
-0.1029086054077E+01 -0.2742944957467E+01 -0.1772854570929E+01 -0.1671690651976E+01
-0.1109531681777E+01 -0.2644726751713E+01 -0.1764501459265E+01 -0.1643527407350E+01
-0.1183048835262E+01 -0.2538019358681E+01 -0.1748902046717E+01 -0.1601709043246E+01
-0.1246389262435E+01 -0.2422689459788E+01 -0.1724466995071E+01 -0.1543975737145E+01
-0.1295424108149E+01 -0.2298700814154E+01 -0.1689238709198E+01 -0.1467528237145E+01
-0.1324837741181E+01 -0.2166140231729E+01 -0.1640759643106E+01 -0.1368764748353E+01
-0.1327672666569E+01 -0.2025238979759E+01 -0.1575868469777E+01 -0.1242826770051E+01
-0.1294630441610E+01 -0.1876359581490E+01 -0.1490365307077E+01 -0.1082770112056E+01
-0.1213069595320E+01 -0.1719924321896E+01 -0.1378507137595E+01 -0.8779248599629E+00
-0.1065239423147E+01 -0.1555750083516E+01 -0.1231865065007E+01 -0.6102605622947E+00
-0.8357872972637E+00 -0.1386912029030E+01 -0.1044668680708E+01 -0.2437410183355E+00
-0.2526197882455E+00 -0.3478340888542E+01 -0.1753551513642E+01 -0.1550455095601E+01
-0.3265456583630E+00 -0.3460040428647E+01 -0.1779695456381E+01 -0.1587815887258E+01
-0.4052924071023E+00 -0.3437648939547E+01 -0.1806182428344E+01 -0.1622499937181E+01
-0.4886675082330E+00 -0.3410846640485E+01 -0.1832771645249E+01 -0.1653775461494E+01
-0.5763771606765E+00 -0.3379331148250E+01 -0.1859182900480E+01 -0.1680838487575E+01
-0.6680003240808E+00 -0.3342827203417E+01 -0.1885088933143E+01 -0.1702790492208E+01
-0.7629627433842E+00 -0.3301095817962E+01 -0.1910107518988E+01 -0.1718614996133E+01
-0.8605091179225E+00 -0.3253943860838E+01 -0.1933792895113E+01 -0.1727150628413E+01
-0.9596719144340E+00 -0.3201234920686E+01 -0.1955626207546E+01 -0.1727057544751E+01
-0.1059235662994E+01 -0.3142902104292E+01 -0.1975004745615E+01 -0.1716772791053E+01
-0.1157696117310E+01 -0.3078963150954E+01 -0.1991229851034E+01 -0.1694448061403E+01
-0.1253214841749E+01 -0.3009537824795E+01 -0.2003493748194E+01 -0.1657859820413E+01
-0.1343572531569E+01 -0.2934866812880E+01 -0.2010866486791E+01 -0.1604275982797E+01
-0.1426131148961E+01 -0.2855330165010E+01 -0.2012286812462E+01 -0.1530253450616E+01
-0.1497831835355E+01 -0.2771461301847E+01 -0.2006567769395E+01 -0.1431323244240E+01
-0.1555301005385E+01 -0.2683951401044E+01 -0.1992448625968E+01 -0.1301487935732E+01
-0.1595268453835E+01 -0.2593645838477E+01 -0.1968789712393E+01 -0.1132394331387E+01
-0.1615915223715E+01 -0.2501592986423E+01 -0.1935228853857E+01 -0.9119393601250E+00
-0.1621566192232E+01 -0.2409718523774E+01 -0.1894703811717E+01 -0.6218342671688E+00
-0.1642881928112E+01 -0.2327112714850E+01 -0.1865897477459E+01 -0.2354349669167E+00
-0.2173135461715E+00 -0.3661798220374E+01 -0.1823182525652E+01 -0.1539208502042E+01
-0.2924797942137E+00 -0.3661361643351E+01 -0.1858305470942E+01 -0.1578455778498E+01
-0.3734223697853E+00 -0.3658234122773E+01 -0.1894878546696E+01 -0.1615348329534E+01
-0.4601070611798E+00 -0.3652205780529E+01 -0.1932787030701E+01 -0.1649135560352E+01
-0.5524374026013E+00 -0.3643090660046E+01 -0.1971898184443E+01 -0.1678971339038E+01
-0.6502340289293E+00 -0.3630739271302E+01 -0.2012057446006E+01 -0.1703889242255E+01
-0.7532176169724E+00 -0.3615049903383E+01 -0.2053085729360E+01 -0.1722775020261E+01
-0.8609947059127E+00 -0.3595979732962E+01 -0.2094777980958E+01 -0.1734333913422E+01
-0.9730469307996E+00 -0.3573556152285E+01 -0.2136903443630E+01 -0.1737049854568E+01
-0.1088725755424E+01 -0.3547888149785E+01 -0.2179208529921E+01 -0.1729132524876E+01
-0.1207257237454E+01 -0.3519176974907E+01 -0.2221424074175E+01 -0.1708446627027E+01
-0.1327765468835E+01 -0.3487724407629E+01 -0.2263280236198E+01 -0.1672415439822E+01
-0.1449330961331E+01 -0.3453935637722E+01 -0.2304535295710E+01 -0.1617887472139E+01
-0.1571114947040E+01 -0.3418311743672E+01 -0.2345030538687E+01 -0.1540950643854E+01
-0.1692610977216E+01 -0.3381424521084E+01 -0.2384796678152E+01 -0.1436673303124E+01
-0.1814147603817E+01 -0.3343862814275E+01 -0.2424264890355E+01 -0.1298748235420E+01
-0.1937916280791E+01 -0.3306149399211E+01 -0.2464710863349E+01 -0.1119029650986E+01
-0.2070063923745E+01 -0.3268603409516E+01 -0.2509173640269E+01 -0.8870319601010E+00
-0.2225411615712E+01 -0.3231489344747E+01 -0.2564743444910E+01 -0.5899587190941E+00
-0.2427756942732E+01 -0.3189358816569E+01 -0.2640044400175E+01 -0.2155968189731E+00
-0.1804784080383E+00 -0.3840861767876E+01 -0.1890029877886E+01 -0.1517110486235E+01
-0.2566139694348E+00 -0.3858168905703E+01 -0.1933947946409E+01 -0.1556743066159E+01
-0.3394963343823E+00 -0.3874197971525E+01 -0.1980436318753E+01 -0.1594185989671E+01
-0.4292841216130E+00 -0.3888831507409E+01 -0.2029514340493E+01 -0.1628662742142E+01
-0.5261180199935E+00 -0.3901976537259E+01 -0.2081204436630E+01 -0.1659276788747E+01
-0.6301077125535E+00 -0.3913576471727E+01 -0.2135531561195E+01 -0.1684986245226E+01
-0.7413257276925E+00 -0.3923620833345E+01 -0.2192524878127E+01 -0.1704574613765E+01
-0.8598084168240E+00 -0.3932153657127E+01 -0.2252222169045E+01 -0.1716616128647E+01
-0.9855658925186E+00 -0.3939280130985E+01 -0.2314677625176E+01 -0.1719433847586E+01
-0.1118605246564E+01 -0.3945170535965E+01 -0.2379974611752E+01 -0.1711048034764E+01
-0.1258974425185E+01 -0.3950059602793E+01 -0.2448245986940E+01 -0.1689111832624E+01
-0.1406838996181E+01 -0.3954238182559E+01 -0.2519706267617E+01 -0.1650830838507E+01
-0.1562611900082E+01 -0.3958032325151E+01 -0.2594702779278E+01 -0.1592863448199E+01
-0.1727169480576E+01 -0.3961762305617E+01 -0.2673797932729E+01 -0.1511200909004E+01
-0.1902208058786E+01 -0.3965669516524E+01 -0.2757902453401E+01 -0.1401032986035E+01
-0.2090830791615E+01 -0.3969793974662E+01 -0.2848493632925E+01 -0.1256625061118E+01
-0.2298474016844E+01 -0.3973754325326E+01 -0.2947947313343E+01 -0.1071285075619E+01
-0.2534319355878E+01 -0.3976388414792E+01 -0.3060032644454E+01 -0.8376407695252E+00
-0.2811877480862E+01 -0.3974288562949E+01 -0.3189498032501E+01 -0.5487627531919E+00
-0.3148345667597E+01 -0.3960521343514E+01 -0.3341167486748E+01 -0.2002506587316E+00
-0.1426599858178E+00 -0.4013290014494E+01 -0.1953296495192E+01 -0.1484292650604E+01
-0.2195442512616E+00 -0.4047745631718E+01 -0.2005626239914E+01 -0.1522851333882E+01
-0.3041463369858E+00 -0.4082265299892E+01 -0.2061613464104E+01 -0.1559265054592E+01
-0.3968477541059E+00 -0.4116793222536E+01 -0.2121411253641E+01 -0.1592735727396E+01
-0.4980574883460E+00 -0.4151291888500E+01 -0.2185194201575E+01 -0.1622325346714E+01
-0.6082076641497E+00 -0.4185749584629E+01 -0.2253159901211E+01 -0.1646932465638E+01
-0.7277587729691E+00 -0.4220186368924E+01 -0.2325534210791E+01 -0.1665264279876E+01
-0.8572137784955E+00 -0.4254657020369E+01 -0.2402579269372E+01 -0.1675804552651E+01
-0.9971442262606E+00 -0.4289250463547E+01 -0.2484605497908E+01 -0.1676776975024E+01
-0.1148233097220E+01 -0.4324084115280E+01 -0.2571989083352E+01 -0.1666103584689E+01
-0.1311341788954E+01 -0.4359290708540E+01 -0.2665197267062E+01 -0.1641358349891E+01
-0.1487612072821E+01 -0.4394993851795E+01 -0.2764824777557E+01 -0.1599717283898E+01
-0.1678618500117E+01 -0.4431266805165E+01 -0.2871646086199E+01 -0.1537909222838E+01
-0.1886591938183E+01 -0.4468066137274E+01 -0.2986689287889E+01 -0.1452177171470E+01
-0.2114739148095E+01 -0.4505128000449E+01 -0.3111337551924E+01 -0.1338271827757E+01
-0.2367672295835E+01 -0.4541803572690E+01 -0.3247453649970E+01 -0.1191521841778E+01
-0.2651926933593E+01 -0.4576804707806E+01 -0.3397503862840E+01 -0.1007066899879E+01
-0.2976261277211E+01 -0.4607707686483E+01 -0.3564465403896E+01 -0.7803992356200E+00
-0.3351502018133E+01 -0.4630469778558E+01 -0.3751526734930E+01 -0.5082725829234E+00
-0.3789831632488E+01 -0.4639359036657E+01 -0.3961719604450E+01 -0.1897854166086E+00
-0.1043552429968E+00 -0.4176932314802E+01 -0.2012205147062E+01 -0.1441064595189E+01
-0.1817732937470E+00 -0.4227504788255E+01 -0.2072360693285E+01 -0.1477178244428E+01
-0.2678557493180E+00 -0.4279345071742E+01 -0.2137184380478E+01 -0.1511115138611E+01
-0.3632273365313E+00 -0.4332425939540E+01 -0.2206957034156E+01 -0.1542069610866E+01
-0.4685801391230E+00 -0.4386722679917E+01 -0.2281992319161E+01 -0.1569085824441E+01
-0.5846822140677E+00 -0.4442218342053E+01 -0.2362643255384E+01 -0.1591036906498E+01
-0.7123913035330E+00 -0.4498904173951E+01 -0.2449308868205E+01 -0.1606601008546E+01
-0.8526779739853E+00 -0.4556776538047E+01 -0.2542443614206E+01 -0.1614235331677E+01
-0.1006660618375E+01 -0.4615829129219E+01 -0.2642570174667E+01 -0.1612149029774E+01
-0.1175656226507E+01 -0.4676038968459E+01 -0.2750296734658E+01 -0.1598276430577E+01
-0.1361252079594E+01 -0.4737343789729E+01 -0.2866340051312E+01 -0.1570253137798E+01
-0.1565404793029E+01 -0.4799607456511E+01 -0.2991555749696E+01 -0.1525399588540E+01
-0.1790573562736E+01 -0.4862568725449E+01 -0.3126976867516E+01 -0.1460720080251E+01
-0.2039892489945E+01 -0.4925767090007E+01 -0.3273859994274E+01 -0.1372930982234E+01
-0.2317377327173E+01 -0.4988436717387E+01 -0.3433732592234E+01 -0.1258540796742E+01
-0.2628139923017E+01 -0.5049359460649E+01 -0.3608424701171E+01 -0.1114016808438E+01
-0.2978514879133E+01 -0.5106657539286E+01 -0.3800031027019E+01 -0.9360833554443E+00
-0.3375987645961E+01 -0.5157591178712E+01 -0.4010782037423E+01 -0.7221709762914E+00
-0.3828815158476E+01 -0.5198476632454E+01 -0.4242827130975E+01 -0.4709592362791E+00
-0.4345248442632E+01 -0.5224809775595E+01 -0.4497927351158E+01 -0.1828769761218E+00
-0.6600493446125E-01 -0.4329771027539E+01 -0.2066014696900E+01 -0.1387884543353E+01
-0.1437076796491E+00 -0.4395038249189E+01 -0.2133210581143E+01 -0.1420305682596E+01
-0.2309760580076E+00 -0.4462596763242E+01 -0.2205979220392E+01 -0.1450481418474E+01
-0.3286732834449E+00 -0.4532409689253E+01 -0.2284708991373E+01 -0.1477620866345E+01
-0.4377724810930E+00 -0.4604426319982E+01 -0.2369833430494E+01 -0.1500783398714E+01
-0.5593695598835E+00 -0.4678580572220E+01 -0.2461836555844E+01 -0.1518861047934E+01
-0.6947026825374E+00 -0.4754786614617E+01 -0.2561259963166E+01 -0.1530560091873E+01
-0.8451792515594E+00 -0.4832930397619E+01 -0.2668711528345E+01 -0.1534382876773E+01
-0.1012412401002E+01 -0.4912856459372E+01 -0.2784876357312E+01 -0.1528611636465E+01
-0.1198268961398E+01 -0.4994348733307E+01 -0.2910530309129E+01 -0.1511296859437E+01
-0.1404931001410E+01 -0.5077103667685E+01 -0.3046556286748E+01 -0.1480254025597E+01
-0.1634972400445E+01 -0.5160693458815E+01 -0.3193962945751E+01 -0.1433074408495E+01
-0.1891449701848E+01 -0.5244516804358E+01 -0.3353904249410E+01 -0.1367158250019E+01
-0.2178000970455E+01 -0.5327734414550E+01 -0.3527695622005E+01 -0.1279781914828E+01
-0.2498935841826E+01 -0.5409187980318E+01 -0.3716818186981E+01 -0.1168213816528E+01
-0.2859279481474E+01 -0.5487304083249E+01 -0.3922894265470E+01 -0.1029894287875E+01
-0.3264721269254E+01 -0.5560006747155E+01 -0.4147622157193E+01 -0.8626836035648E+00
-0.3721416663601E+01 -0.5624682966286E+01 -0.4392666814905E+01 -0.6651541651278E+00
-0.4235616258348E+01 -0.5678258112491E+01 -0.4659520942476E+01 -0.4368642475352E+00
-0.4813158603207E+01 -0.5717436184653E+01 -0.4949379537740E+01 -0.1785139334923E+00
-0.2800924566635E-01 -0.4469952243840E+01 -0.2114041894706E+01 -0.1325338954737E+01
-0.1057179925197E+00 -0.4548178582054E+01 -0.2187331384502E+01 -0.1352971697850E+01
-0.1938104117348E+00 -0.4629505026281E+01 -0.2266958250117E+01 -0.1378285016825E+01
-0.2933745028505E+00 -0.4713856600218E+01 -0.2353398612473E+01 -0.1400531282135E+01
-0.4056447762063E+00 -0.4801124702590E+01 -0.2447181648827E+01 -0.1418822161279E+01
-0.5320180195078E+00 -0.4891161375580E+01 -0.2548894309226E+01 -0.1432115666130E+01
-0.6740744016092E+00 -0.4983770597179E+01 -0.2659187142686E+01 -0.1439203731438E+01
-0.8336040280562E+00 -0.5078696137477E+01 -0.2778781070752E+01 -0.1438701776920E+01
-0.1012639161600E+01 -0.5175605407400E+01 -0.2908474940053E+01 -0.1429042294321E+01
-0.1213492150735E+01 -0.5274068738593E+01 -0.3049153610251E+01 -0.1408475325735E+01
-0.1438798350035E+01 -0.5373533413804E+01 -0.3201795920883E+01 -0.1375079733743E+01
-0.1691561818872E+01 -0.5473291834333E+01 -0.3367481208465E+01 -0.1326790390624E+01
-0.1975198727140E+01 -0.5572443604848E+01 -0.3547391887037E+01 -0.1261447626443E+01
-0.2293568743259E+01 -0.5669852597967E+01 -0.3742808020883E+01 -0.1176875901616E+01
-0.2650977775672E+01 -0.5764102712102E+01 -0.3955087819222E+01 -0.1070997446796E+01
-0.3052130507669E+01 -0.5853463357335E+01 -0.4185629105935E+01 -0.9419809872893E+00
-0.3502011148007E+01 -0.5935884086925E+01 -0.4435810749167E+01 -0.7884135763274E+00
-0.4005683517911E+01 -0.6009044871861E+01 -0.4706922331254E+01 -0.6094663069906E+00
-0.4568028842058E+01 -0.6070486166047E+01 -0.5000102041127E+01 -0.4050082751611E+00
-0.5193485236226E+01 -0.6117830102761E+01 -0.5316318195840E+01 -0.1756178372032E+00
 0.9281039129096E-02 -0.4595808906924E+01 -0.2155668092396E+01 -0.1254103345977E+01
-0.6811333611116E-01 -0.4685002865123E+01 -0.2233964608914E+01 -0.1276010258351E+01
-0.1565893778571E+00 -0.4777874732666E+01 -0.2319198126063E+01 -0.1295543368996E+01
-0.2574351750977E+00 -0.4874289567791E+01 -0.2411910623040E+01 -0.1312027780095E+01
-0.3721138420980E+00 -0.4974059079022E+01 -0.2512701266553E+01 -0.1324664250987E+01
-0.5022807410783E+00 -0.5076932937568E+01 -0.2622230422313E+01 -0.1332521232053E+01
-0.6498039853406E+00 -0.5182587377289E+01 -0.2741223933483E+01 -0.1334528122741E+01
-0.8167876511572E+00 -0.5290611102050E+01 -0.2870477406727E+01 -0.1329471261136E+01
-0.1005596678846E+01 -0.5400488528850E+01 -0.3010860039980E+01 -0.1315994559615E+01
-0.1218881820989E+01 -0.5511580539275E+01 -0.3163317301301E+01 -0.1292607296266E+01
-0.1459602019829E+01 -0.5623103167826E+01 -0.3328871429754E+01 -0.1257702223657E+01
-0.1731040109682E+01 -0.5734105094568E+01 -0.3508618237098E+01 -0.1209587680748E+01
-0.2036805736317E+01 -0.5843445680196E+01 -0.3703718156367E+01 -0.1146537463641E+01
-0.2380817044063E+01 -0.5949776810277E+01 -0.3915379101609E+01 -0.1066861244989E+01
-0.2767251330127E+01 -0.6051534600528E+01 -0.4144829376895E+01 -0.9689954300701E+00
-0.3200456103854E+01 -0.6146950221814E+01 -0.4393280961921E+01 -0.8516087555553E+00
-0.3684818514942E+01 -0.6234091498676E+01 -0.4661887694577E+01 -0.7137090328226E+00
-0.4224603445989E+01 -0.6310945010757E+01 -0.4951707762111E+01 -0.5547296586102E+00
-0.4823787556063E+01 -0.6375540135477E+01 -0.5263684001673E+01 -0.3745715249553E+00
-0.5485927732207E+01 -0.6426097234379E+01 -0.5598651720095E+01 -0.1735840335302E+00
 0.4555822049414E-01 -0.4705869885333E+01 -0.2190346476919E+01 -0.1174920205468E+01
-0.3115082737239E-01 -0.4803835475223E+01 -0.2272443556456E+01 -0.1190320395043E+01
-0.1194866200358E+00 -0.4905820519185E+01 -0.2361894349443E+01 -0.1203329359731E+01
-0.2209021347473E+00 -0.5011615068270E+01 -0.2459283079180E+01 -0.1213371863734E+01
-0.3370454849593E+00 -0.5120938780425E+01 -0.2565252598224E+01 -0.1219770499126E+01
-0.4697772081675E+00 -0.5233430165744E+01 -0.2680507458940E+01 -0.1221742260889E+01
-0.6211889777475E+00 -0.5348633861589E+01 -0.2805816727372E+01 -0.1218396527750E+01
-0.7936225203377E+00 -0.5465986119248E+01 -0.2942016053143E+01 -0.1208735607775E+01
-0.9896868771587E+00 -0.5584799048777E+01 -0.3090008377352E+01 -0.1191659207454E+01
-0.1212271331091E+01 -0.5704244542207E+01 -0.3250762452205E+01 -0.1165974541126E+01
-0.1464550391694E+01 -0.5823339234017E+01 -0.3425308115396E+01 -0.1130414116236E+01
-0.1749976240070E+01 -0.5940932454531E+01 -0.3614727077294E+01 -0.1083663301074E+01
-0.2072253194369E+01 -0.6055699968584E+01 -0.3820137976899E+01 -0.1024399342587E+01
-0.2435288663331E+01 -0.6166147458504E+01 -0.4042674967009E+01 -0.9513422219205E+00
-0.2843116539200E+01 -0.6270628884578E+01 -0.4283460338311E+01 -0.8633153533061E+00
-0.3299793108710E+01 -0.6367385372956E+01 -0.4543573874859E+01 -0.7593107571155E+00
-0.3809272509880E+01 -0.6454608664345E+01 -0.4824024139650E+01 -0.6385498159270E+00
-0.4375277356161E+01 -0.6530528223918E+01 -0.5125728609637E+01 -0.5005287490829E+00
-0.5001186273206E+01 -0.6593512099608E+01 -0.5449508221401E+01 -0.3450397156165E+00
-0.5689957878219E+01 -0.6642160761876E+01 -0.5796095746144E+01 -0.1721652402515E+00
 0.8054464414643E-01 -0.4798862981521E+01 -0.2217609612941E+01 -0.1088585015584E+01
 0.4940954603658E-02 -0.4903246778800E+01 -0.2302203731533E+01 -0.1096849820558E+01
-0.8265382228077E-01 -0.5011756118269E+01 -0.2394372665985E+01 -0.1102752095434E+01
-0.1838143723727E+00 -0.5124098173078E+01 -0.2494718890034E+01 -0.1105838344398E+01
-0.3003219866113E+00 -0.5239896496948E+01 -0.2603902680668E+01 -0.1105579095417E+01
-0.4341813133627E+00 -0.5358679375606E+01 -0.2722644516909E+01 -0.1101369204686E+01
-0.5876370050197E+00 -0.5479866892950E+01 -0.2851726824813E+01 -0.1092529449202E+01
-0.7631889561672E+00 -0.5602756946824E+01 -0.2991994566817E+01 -0.1078309865910E+01
-0.9636038644699E+00 -0.5726511144404E+01 -0.3144354046195E+01 -0.1057895288139E+01
-0.1191919945518E+01 -0.5850142101867E+01 -0.3309769153876E+01 -0.1030413754809E+01
-0.1451440872485E+01 -0.5972504192349E+01 -0.3489254171622E+01 -0.9949486357677E+00
-0.1745714483311E+01 -0.6092290298145E+01 -0.3683862237941E+01 -0.9505552594701E+00
-0.2078491790212E+01 -0.6208037677251E+01 -0.3894668839830E+01 -0.8962824400869E+00
-0.2453662763508E+01 -0.6318146495088E+01 -0.4122750341083E+01 -0.8311985448604E+00
-0.2875167827961E+01 -0.6420914584134E+01 -0.4369158722603E+01 -0.7544207394464E+00
-0.3346888328365E+01 -0.6514590920663E+01 -0.4634895235288E+01 -0.6651451587275E+00
-0.3872525177471E+01 -0.6597447534780E+01 -0.4920887162277E+01 -0.5626755149721E+00
-0.4455480813650E+01 -0.6667864598152E+01 -0.5227972330287E+01 -0.4464484741126E+00
-0.5098762329690E+01 -0.6724416992694E+01 -0.5556894267426E+01 -0.3160557944808E+00
-0.5804921110664E+01 -0.6765946423575E+01 -0.5908307726107E+01 -0.1712646290963E+00
 0.1139792624963E+00 -0.4873716837888E+01 -0.2237076654760E+01 -0.9959366708433E+00
 0.3994028549810E-01 -0.4982049071144E+01 -0.2322791123362E+01 -0.9965852709819E+00
-0.4625313176969E-01 -0.5094382156879E+01 -0.2416098579537E+01 -0.9949479199209E+00
-0.1462482241857E+00 -0.5210338508483E+01 -0.2517595757969E+01 -0.9907085681304E+00
-0.2619021573253E+00 -0.5329448094254E+01 -0.2627934611577E+01 -0.9835035525616E+00
-0.3952978279986E+00 -0.5451137163858E+01 -0.2747824439203E+01 -0.9729246833781E+00
-0.5487587788723E+00 -0.5574716083803E+01 -0.2878033178157E+01 -0.9585236840281E+00
-0.7248624021128E+00 -0.5699366246944E+01 -0.3019387457398E+01 -0.9398172871810E+00
-0.9264491654297E+00 -0.5824127270762E+01 -0.3172770916963E+01 -0.9162922056469E+00
-0.1156624596100E+01 -0.5947886551432E+01 -0.3339120230871E+01 -0.8874094976761E+00
-0.1418750088387E+01 -0.6069373679339E+01 -0.3519418161905E+01 -0.8526080799584E+00
-0.1716418316241E+01 -0.6187162516969E+01 -0.3714682982187E+01 -0.8113071836329E+00
-0.2053409228141E+01 -0.6299683917380E+01 -0.3925953768438E+01 -0.7629074676089E+00
-0.2433623549832E+01 -0.6405252024212E+01 -0.4154271509264E+01 -0.7067904883854E+00
-0.2860992594481E+01 -0.6502106476314E+01 -0.4400656552112E+01 -0.6423165718765E+00
-0.3339366331257E+01 -0.6588471494794E+01 -0.4666083766409E+01 -0.5688222452698E+00
-0.3872386147415E+01 -0.6662630461898E+01 -0.4951457793819E+01 -0.4856205325574E+00
-0.4463354626783E+01 -0.6723011439350E+01 -0.5257592037747E+01 -0.3920101758964E+00
-0.5115120542484E+01 -0.6768275117941E+01 -0.5585195946234E+01 -0.2873013693966E+00
-0.5829998781338E+01 -0.6797391860914E+01 -0.5934873586805E+01 -0.1708630675107E+00
 0.1456060767579E+00 -0.4929560701298E+01 -0.2248458667831E+01 -0.8978529920760E+00
 0.7361256275291E-01 -0.5039291654015E+01 -0.2333869166974E+01 -0.8905499392270E+00
-0.1048637919061E-01 -0.5152674709499E+01 -0.2426685705529E+01 -0.8810809573629E+00
-0.1083577522253E+00 -0.5269250035048E+01 -0.2527475653608E+01 -0.8692761860950E+00
-0.2218744892856E+00 -0.5388460685592E+01 -0.2636857525504E+01 -0.8549465408046E+00
-0.3531295465198E+00 -0.5509643559488E+01 -0.2755503352835E+01 -0.8378887436382E+00
-0.5044494336544E+00 -0.5632019050195E+01 -0.2884140180094E+01 -0.8178926980109E+00
-0.6784073580469E+00 -0.5754678595414E+01 -0.3023550390458E+01 -0.7947485374324E+00
-0.8778340750284E+00 -0.5876571926024E+01 -0.3174570812443E+01 -0.7682509231280E+00
-0.1105823193910E+01 -0.5996496727461E+01 -0.3338090354578E+01 -0.7381989553730E+00
-0.1365727129670E+01 -0.6113093622390E+01 -0.3515045744553E+01 -0.7043905749400E+00
-0.1661139612141E+01 -0.6224849257534E+01 -0.3706414759347E+01 -0.6666105144028E+00
-0.1995860649548E+01 -0.6330110189401E+01 -0.3913206284380E+01 -0.6246109911615E+00
-0.2373840019423E+01 -0.6427110037762E+01 -0.4136446516385E+01 -0.5780847980293E+00
-0.2799095928833E+01 -0.6514011909543E+01 -0.4377160672934E+01 -0.5266316316096E+00
-0.3275606048615E+01 -0.6588966805571E+01 -0.4636349229708E+01 -0.4697207455699E+00
-0.3807170109454E+01 -0.6650187678932E+01 -0.4914958148075E+01 -0.4066568255906E+00
-0.4397248324823E+01 -0.6696037748793E+01 -0.5213844441375E+01 -0.3365613590393E+00
-0.5048791812566E+01 -0.6725130897804E+01 -0.5533743659838E+01 -0.2583868625308E+00
-0.5764097897035E+01 -0.6736438046054E+01 -0.5875251878350E+01 -0.1709806415636E+00
 0.1751647165336E+00 -0.4965724692683E+01 -0.2251563183079E+01 -0.7952497293932E+00
 0.1056936992070E+00 -0.5074258277421E+01 -0.2335225345837E+01 -0.7798047437585E+00
 0.2438007168544E-01 -0.5185879516250E+01 -0.2425904732792E+01 -0.7623482861281E+00
-0.7040920381647E-01 -0.5300050892978E+01 -0.2524116239091E+01 -0.7428589825564E+00
-0.1805028623917E+00 -0.5416136067574E+01 -0.2630420290412E+01 -0.7213215742434E+00
-0.3079359726136E+00 -0.5533397005416E+01 -0.2745426492710E+01 -0.6977336214148E+00
-0.4549614810284E+00 -0.5650986396309E+01 -0.2869795495070E+01 -0.6721174949803E+00
-0.6240650887651E+00 -0.5767934805127E+01 -0.3004239942509E+01 -0.6445311977181E+00
-0.8179815103408E+00 -0.5883135719754E+01 -0.3149525090156E+01 -0.6150734463819E+00
-0.1039708829099E+01 -0.5995332543367E+01 -0.3306469436673E+01 -0.5838804939536E+00
-0.1292517190276E+01 -0.6103110706600E+01 -0.3475945102715E+01 -0.5511131362483E+00
-0.1579948049571E+01 -0.6204897451655E+01 -0.3658877376296E+01 -0.5169324639635E+00
-0.1905799738967E+01 -0.6298971467061E+01 -0.3856242457052E+01 -0.4814628526421E+00
-0.2274094336824E+01 -0.6383484619205E+01 -0.4069062099013E+01 -0.4447410494357E+00
-0.2689019470957E+01 -0.6456497992266E+01 -0.4298393196813E+01 -0.4066514859369E+00
-0.3154837413677E+01 -0.6516034670738E+01 -0.4545309868147E+01 -0.3668504156494E+00
-0.3675749245857E+01 -0.6560149431262E+01 -0.4810872366044E+01 -0.3246852965563E+00
-0.4255700850455E+01 -0.6587017097536E+01 -0.5096077422630E+01 -0.2791232337550E+00
-0.4898127345797E+01 -0.6595044411295E+01 -0.5401790712132E+01 -0.2287151821976E+00
-0.5605669242796E+01 -0.6583014199592E+01 -0.5728681203393E+01 -0.1716365536333E+00
 0.2023825127252E+00 -0.4981741990897E+01 -0.2246298949043E+01 -0.6890835717149E+00
 0.1358756580270E+00 -0.5086468918936E+01 -0.2326778826726E+01 -0.6654533622578E+00
 0.5799326446216E-01 -0.5193515676998E+01 -0.2413695527770E+01 -0.6399893222163E+00
-0.3281154978967E-01 -0.5302267982137E+01 -0.2507487373646E+01 -0.6128164973878E+00
-0.1382678662859E+00 -0.5412014420777E+01 -0.2608632668303E+01 -0.5840825490329E+00
-0.2602881794571E+00 -0.5521955751402E+01 -0.2717654640611E+01 -0.5539683140144E+00
-0.4009762417207E+00 -0.5631200531478E+01 -0.2835123076212E+01 -0.5227089511568E+00
-0.5626447845712E+00 -0.5738748726483E+01 -0.2961654942683E+01 -0.4906121177257E+00
-0.7478406108177E+00 -0.5843471353622E+01 -0.3097916615429E+01 -0.4580663480717E+00
-0.9593724581906E+00 -0.5944091724218E+01 -0.3244628157502E+01 -0.4255372873561E+00
-0.1200338267974E+01 -0.6039171715597E+01 -0.3402569683649E+01 -0.3935507324051E+00
-0.1474148865606E+01 -0.6127104622013E+01 -0.3572589130120E+01 -0.3626609447219E+00
-0.1784544716375E+01 -0.6206115909323E+01 -0.3755610484553E+01 -0.3334017401275E+00
-0.2135600420468E+01 -0.6274273534563E+01 -0.3952640748840E+01 -0.3062173491942E+00
-0.2531708913936E+01 -0.6329510850200E+01 -0.4164773278581E+01 -0.2813705849450E+00
-0.2977532954742E+01 -0.6369665929560E+01 -0.4393183464479E+01 -0.2588276999320E+00
-0.3477909377974E+01 -0.6392544740716E+01 -0.4639113424018E+01 -0.2381221778017E+00
-0.4037666430783E+01 -0.6396003607954E+01 -0.4903824905768E+01 -0.2182024610256E+00
-0.4661298412398E+01 -0.6378055811147E+01 -0.5188496471906E+01 -0.1972839295583E+00
-0.5352467378943E+01 -0.6337028172558E+01 -0.5494062895270E+01 -0.1727672996084E+00
 0.2269692802872E+00 -0.4977350678693E+01 -0.2232679251588E+01 -0.5803552666587E+00
 0.1637920929630E+00 -0.5075689895424E+01 -0.2308591961301E+01 -0.5486434962863E+00
 0.8989298600305E-01 -0.5175395799549E+01 -0.2390186316304E+01 -0.5152904453398E+00
 0.3854909104660E-02 -0.5275764950262E+01 -0.2477797713059E+01 -0.4805637826483E+00
-0.9590645823632E-01 -0.5376006833392E+01 -0.2571799240542E+01 -0.4447505350501E+00
-0.2111240778739E+00 -0.5475274508014E+01 -0.2672607328589E+01 -0.4081813053364E+00
-0.3436793700008E+00 -0.5572657481042E+01 -0.2780678312937E+01 -0.3712695719837E+00
-0.4956252754984E+00 -0.5667156107589E+01 -0.2896507242704E+01 -0.3345417510675E+00
-0.6692227602652E+00 -0.5757651093288E+01 -0.3020630703509E+01 -0.2986510422807E+00
-0.8669848443642E+00 -0.5842876783914E+01 -0.3153634957292E+01 -0.2643754718951E+00
-0.1091724759049E+01 -0.5921399826279E+01 -0.3296168546744E+01 -0.2326013071465E+00
-0.1346607976328E+01 -0.5991603128007E+01 -0.3448959210290E+01 -0.2042909049396E+00
-0.1635207282765E+01 -0.6051674223963E+01 -0.3612834298998E+01 -0.1804313614576E+00
-0.1961558008450E+01 -0.6099598811709E+01 -0.3788743695865E+01 -0.1619581040383E+00
-0.2330205274871E+01 -0.6133161853869E+01 -0.3977782540419E+01 -0.1496464483106E+00
-0.2746230696828E+01 -0.6149963098091E+01 -0.4181211073007E+01 -0.1439647204253E+00
-0.3215237689925E+01 -0.6147454860550E+01 -0.4400465487562E+01 -0.1448846208251E+00
-0.3743292971094E+01 -0.6123032739492E+01 -0.4637173072214E+01 -0.1516440993639E+00
-0.4336695642481E+01 -0.6074131545357E+01 -0.4893088765874E+01 -0.1624405425050E+00
-0.5001338498981E+01 -0.5998316499062E+01 -0.5169837835967E+01 -0.1740659102539E+00
 0.2486109282322E+00 -0.4952500586545E+01 -0.2210828133799E+01 -0.4701050963579E+00
 0.1890034499715E+00 -0.5041965044900E+01 -0.2280891943831E+01 -0.4305522190857E+00
 0.1194916389998E+00 -0.5131680411359E+01 -0.2355728717034E+01 -0.3895728377909E+00
 0.3881284696426E-01 -0.5220807709702E+01 -0.2435537579309E+01 -0.3475688478445E+00
-0.5445024335310E-01 -0.5308469388410E+01 -0.2520572220535E+01 -0.3049233676089E+00
-0.1618040584544E+00 -0.5393787674036E+01 -0.2611128107648E+01 -0.2620647598920E+00
-0.2848394576149E+00 -0.5475862927204E+01 -0.2707530113997E+01 -0.2195369544326E+00
-0.4252636196659E+00 -0.5553726295305E+01 -0.2810125252909E+01 -0.1780441089402E+00
-0.5849517805529E+00 -0.5626295813665E+01 -0.2919286361878E+01 -0.1384691326127E+00
-0.7660059872766E+00 -0.5692340686287E+01 -0.3035422928876E+01 -0.1018740420543E+00
-0.9708217405209E+00 -0.5750454079245E+01 -0.3158999627277E+01 -0.6948793293932E-01
-0.1202165297146E+01 -0.5799028414321E+01 -0.3290561036043E+01 -0.4268308905690E-01
-0.1463267283321E+01 -0.5836230028077E+01 -0.3430763727656E+01 -0.2293454793376E-01
-0.1757935125105E+01 -0.5859971239329E+01 -0.3580415982203E+01 -0.1175409113370E-01
-0.2090682160837E+01 -0.5867881630283E+01 -0.3740524972339E+01 -0.1058592207569E-01
-0.2466859090666E+01 -0.5857281524305E+01 -0.3912346079113E+01 -0.2064899112486E-01
-0.2892772149274E+01 -0.5825173880787E+01 -0.4097434623736E+01 -0.4271248717911E-01
-0.3375759189932E+01 -0.5768263192136E+01 -0.4297690508672E+01 -0.7679707083058E-01
-0.3924418795377E+01 -0.5683173139299E+01 -0.4515568197845E+01 -0.1217782600880E+00
-0.4548532269070E+01 -0.5566544806366E+01 -0.4754086213397E+01 -0.1747046114049E+00
 0.2669606884936E+00 -0.4907373193343E+01 -0.2180993871747E+01 -0.3593854736247E+00
 0.2109752449959E+00 -0.4985699024411E+01 -0.2244120170633E+01 -0.3123444988571E+00
 0.1460612367339E+00 -0.5062976849680E+01 -0.2310950332223E+01 -0.2641575888168E+00
 0.7106727250087E-01 -0.5138171345430E+01 -0.2381538908236E+01 -0.2153267622542E+00
-0.1525848119499E-01 -0.5210314067308E+01 -0.2456019091567E+01 -0.1662574168688E+00
-0.1141612890638E+00 -0.5278531447114E+01 -0.2534565579575E+01 -0.1174060766303E+00
-0.2268767156571E+00 -0.5341970643672E+01 -0.2617358252246E+01 -0.6939331007759E-01
-0.3546881585849E+00 -0.5399722098726E+01 -0.2704572814076E+01 -0.2305823979287E-01
-0.4989919943082E+00 -0.5450756051993E+01 -0.2796381574669E+01  0.2052586896513E-01
-0.6613683908491E+00 -0.5493886027435E+01 -0.2892969569256E+01  0.6005214476561E-01
-0.8436548365735E+00 -0.5527739957104E+01 -0.2994555545433E+01  0.9398437219914E-01
-0.1048037087692E+01 -0.5550731541713E+01 -0.3101421247954E+01  0.1205630869370E+00
-0.1277169213798E+01 -0.5561022138168E+01 -0.3213949927272E+01  0.1378186934835E+00
-0.1534336733568E+01 -0.5556469892494E+01 -0.3332679105796E+01  0.1436027068407E+00
-0.1823671472447E+01 -0.5534563693226E+01 -0.3458370519095E+01  0.1356544811828E+00
-0.2150420167614E+01 -0.5492345369131E+01 -0.3592099793159E+01  0.1117283967761E+00
-0.2521228771769E+01 -0.5426311713165E+01 -0.3735344018445E+01  0.6981197786331E-01
-0.2944418077932E+01 -0.5332331551915E+01 -0.3890072316161E+01  0.8453552492834E-02
-0.3430157401584E+01 -0.5205513363962E+01 -0.4058765249512E+01 -0.7283978316809E-01
-0.3992266215091E+01 -0.5041170901305E+01 -0.4245715433937E+01 -0.1731343978397E+00
 0.2815876298425E+00 -0.4842477913436E+01 -0.2143618427852E+01 -0.2492123972997E+00
 0.2291011341109E+00 -0.4907744294882E+01 -0.2198962279985E+01 -0.1951377637842E+00
 0.1687689490817E+00 -0.4970412856516E+01 -0.2256772630770E+01 -0.1403490318203E+00
 0.9944981391557E-01 -0.5029178724149E+01 -0.2316972581933E+01 -0.8535349016609E-01
 0.2002589418866E-01 -0.5083027326877E+01 -0.2379610667328E+01 -0.3046475972780E-01
-0.7044393242723E-01 -0.5131148398782E+01 -0.2444748389468E+01  0.2390960817694E-01
-0.1727866722695E+00 -0.5172790253621E+01 -0.2512421148796E+01  0.7711317648499E-01
-0.2877938558043E+00 -0.5207112187779E+01 -0.2582605833934E+01  0.1281995243601E+00
-0.4163159583133E+00 -0.5233129949851E+01 -0.2655239570102E+01  0.1759376439488E+00
-0.5593244371404E+00 -0.5249683023826E+01 -0.2730233499729E+01  0.2188199136646E+00
-0.7179776515318E+00 -0.5255420095866E+01 -0.2807496934156E+01  0.2550565430782E+00
-0.8937006182801E+00 -0.5248771674867E+01 -0.2886961970457E+01  0.2825547899098E+00
-0.1088305115666E+01 -0.5227904493786E+01 -0.2968618508913E+01  0.2988887264814E+00
-0.1304173213971E+01 -0.5190649892622E+01 -0.3052566852356E+01  0.3012688774798E+00
-0.1544535150059E+01 -0.5134402964503E+01 -0.3139100905883E+01  0.2865277873239E+00
-0.1813866766890E+01 -0.5055984076182E+01 -0.3228829888054E+01  0.2511506207851E+00
-0.2118433204010E+01 -0.4951473286084E+01 -0.3322856041916E+01  0.1914016980920E+00
-0.2466814209028E+01 -0.4815929712272E+01 -0.3422889634330E+01  0.1036195376579E+00
-0.2870205649646E+01 -0.4643037921138E+01 -0.3531224469312E+01 -0.1530911107739E-01
-0.3341334467586E+01 -0.4423742343827E+01 -0.3649586092107E+01 -0.1677823811510E+00
 0.2921431236408E+00 -0.4758481559921E+01 -0.2099179059727E+01 -0.1406739122460E+00
 0.2429687930194E+00 -0.4809063747340E+01 -0.2146064623087E+01 -0.8020643705937E-01
 0.1870541670534E+00 -0.4855081487423E+01 -0.2193972835009E+01 -0.1972225580635E-01
 0.1230793343382E+00 -0.4894962551083E+01 -0.2242785106182E+01  0.4046616984541E-01
 0.5008341254873E-01 -0.4927740936742E+01 -0.2292499030556E+01  0.1003009878462E+00
-0.3254604490884E-01 -0.4952838918299E+01 -0.2343130926764E+01  0.1594779107020E+00
-0.1251433054793E+00 -0.4969628166129E+01 -0.2394542585582E+01  0.2173019181307E+00
-0.2279793957624E+00 -0.4977333517838E+01 -0.2446497063187E+01  0.2727136719808E+00
-0.3413231169149E+00 -0.4974961712891E+01 -0.2498653863671E+01  0.3243418609161E+00
-0.4654998598839E+00 -0.4961330852945E+01 -0.2550610428560E+01  0.3705249823134E+00
-0.6009127706126E+00 -0.4935070811141E+01 -0.2601912276825E+01  0.4092916308786E+00
-0.7480831937151E+00 -0.4894606969747E+01 -0.2652064370101E+01  0.4383077135312E+00
-0.9077284602769E+00 -0.4838113264902E+01 -0.2700545603985E+01  0.4547943921350E+00
-0.1080909361496E+01 -0.4763430186026E+01 -0.2746839580368E+01  0.4554191944270E+00
-0.1269289856320E+01 -0.4667936828218E+01 -0.2790496534655E+01  0.4361643983090E+00
-0.1475591856278E+01 -0.4548376629770E+01 -0.2831265181261E+01  0.3921877710227E+00
-0.1704324856397E+01 -0.4400606680110E+01 -0.2869317814881E+01  0.3177237386072E+00
-0.1962998609882E+01 -0.4219371977464E+01 -0.2905714168683E+01  0.2061545902285E+00
-0.2263100299170E+01 -0.3997661886320E+01 -0.2942558219717E+01  0.5054763514924E-01
-0.2618847214463E+01 -0.3725365090015E+01 -0.2981779775541E+01 -0.1551306368890E+00
 0.2983582488040E+00 -0.4656335764041E+01 -0.2048249426966E+01 -0.3495761374193E-01
 0.2523994028761E+00 -0.4690825683906E+01 -0.2086060346793E+01  0.3095276642733E-01
 0.2006044708100E+00 -0.4718161473677E+01 -0.2123251785962E+01  0.9576909505048E-01
 0.1414510960050E+00 -0.4736461209281E+01 -0.2159654747762E+01  0.1598110954653E+00
 0.7401094022391E-01 -0.4745381915393E+01 -0.2195544352761E+01  0.2234489038833E+00
-0.1753939595687E-02 -0.4744621824417E+01 -0.2230796603428E+01  0.2864480292409E+00
-0.8570394163052E-01 -0.4733772922874E+01 -0.2265154120572E+01  0.3479876633869E+00
-0.1775462862320E+00 -0.4711988453378E+01 -0.2298081321788E+01  0.4068466086317E+00
-0.2770087839228E+00 -0.4678185967534E+01 -0.2328941527278E+01  0.4615239166057E+00
-0.3837930147426E+00 -0.4631085926128E+01 -0.2356993096231E+01  0.5102564652182E+00
-0.4975432482080E+00 -0.4569245707350E+01 -0.2381390803072E+01  0.5509803354387E+00
-0.6178144288987E+00 -0.4491049788521E+01 -0.2401166176097E+01  0.5812472370461E+00
-0.7440652208873E+00 -0.4394667249229E+01 -0.2415204254829E+01  0.5980972918679E+00
-0.8756933778172E+00 -0.4277968262989E+01 -0.2422220965035E+01  0.5978781264580E+00
-0.1012158132667E+01 -0.4138390500740E+01 -0.2420757851561E+01  0.5759924632156E+00
-0.1153262125736E+01 -0.3972723529833E+01 -0.2409213252007E+01  0.5265512519421E+00
-0.1299847242410E+01 -0.3776847133158E+01 -0.2386046350465E+01  0.4419176462309E+00
-0.1455178826811E+01 -0.3545307756893E+01 -0.2350228688380E+01  0.3121994560735E+00
-0.1628692012863E+01 -0.3271646625697E+01 -0.2303159154282E+01  0.1250702490000E+00
-0.1840613807987E+01 -0.2948333537486E+01 -0.2250805246664E+01 -0.1323336358606E+00
 0.3000949096377E+00 -0.4537531490153E+01 -0.1991595187791E+01  0.6672153621236E-01
 0.2571081885632E+00 -0.4555028947500E+01 -0.2020022751577E+01  0.1365920816545E+00
 0.2093442724245E+00 -0.4560928701892E+01 -0.2045244676662E+01  0.2038088965176E+00
 0.1539729755365E+00 -0.4554878504598E+01 -0.2068425593413E+01  0.2700741242929E+00
 0.9107182058274E-01 -0.4537040465010E+01 -0.2089605257581E+01  0.3362525834904E+00
 0.2083168697645E-01 -0.4508151842248E+01 -0.2109040467629E+01  0.4018976485306E+00
-0.5583526611324E-01 -0.4467493629221E+01 -0.2125964575415E+01  0.4658548835411E+00
-0.1382280815437E+00 -0.4414032794978E+01 -0.2139562606539E+01  0.5266992666042E+00
-0.2256224681365E+00 -0.4346465612185E+01 -0.2148881392301E+01  0.5828167789945E+00
-0.3172040167518E+00 -0.4263348175936E+01 -0.2152859525103E+01  0.6323950677156E+00
-0.4119517560191E+00 -0.4163116712503E+01 -0.2150282174751E+01  0.6733587322416E+00
-0.5085300320996E+00 -0.4044078469738E+01 -0.2139725990436E+01  0.7032675563935E+00
-0.6051684558054E+00 -0.3904370213742E+01 -0.2119483169311E+01  0.7191693256649E+00
-0.6995285192040E+00 -0.3741884355134E+01 -0.2087464045644E+01  0.7173848622019E+00
-0.7885542195148E+00 -0.3554140866259E+01 -0.2041066685137E+01  0.6931847379747E+00
-0.8683560606787E+00 -0.3338088427228E+01 -0.1977028904302E+01  0.6402894533281E+00
-0.9341460957355E+00 -0.3089691937388E+01 -0.1891203870771E+01  0.5500724294156E+00
-0.9810017292145E+00 -0.2803541842256E+01 -0.1778735474080E+01  0.4102578894650E+00
-0.1006043695337E+01 -0.2471660753154E+01 -0.1634521086645E+01  0.2028594991523E+00
-0.1024081785102E+01 -0.2088026981581E+01 -0.1462691116631E+01 -0.9815686262737E-01
 0.2964550532803E+00 -0.4405263738550E+01 -0.1931140077179E+01  0.1629808919746E+00
 0.2576120516904E+00 -0.4403372159989E+01 -0.1948507245958E+01  0.2345332090291E+00
 0.2123344044764E+00 -0.4385275085408E+01 -0.1961282115063E+01  0.3015286319204E+00
 0.1605686411862E+00 -0.4350245594829E+01 -0.1969148163217E+01  0.3686083783116E+00
 0.1004643873387E+00 -0.4304119928938E+01 -0.1975718099540E+01  0.4362658251321E+00
 0.3444573854825E-01 -0.4245830740807E+01 -0.1979350946041E+01  0.5031239685377E+00
-0.3641784760417E-01 -0.4174304142068E+01 -0.1979039330126E+01  0.5676455919869E+00
-0.1110999172192E+00 -0.4088038649046E+01 -0.1973595121139E+01  0.6282193957605E+00
-0.1886099563437E+00 -0.3985475526174E+01 -0.1961820171807E+01  0.6831511568163E+00
-0.2677842724786E+00 -0.3864997924662E+01 -0.1942407627729E+01  0.7305922466774E+00
-0.3471445909611E+00 -0.3724926248979E+01 -0.1913873289918E+01  0.7684583555440E+00
-0.4247276080874E+00 -0.3563483044958E+01 -0.1874459002177E+01  0.7943309487007E+00
-0.4978681827041E+00 -0.3378748106956E+01 -0.1822009651519E+01  0.8053258310255E+00
-0.5628953289319E+00 -0.3168596821646E+01 -0.1753801306323E+01  0.7979009150284E+00
-0.6146936674958E+00 -0.2930612453149E+01 -0.1666293872477E+01  0.7675568176849E+00
-0.6460104980320E+00 -0.2661907555447E+01 -0.1554721481192E+01  0.7083432678166E+00
-0.6464720887493E+00 -0.2358865167251E+01 -0.1412508506737E+01  0.6120003923295E+00
-0.6003834992956E+00 -0.2015990482764E+01 -0.1229695768449E+01  0.4663153849263E+00
-0.4850895435495E+00 -0.1624913386771E+01 -0.9917013747355E+00  0.2515448594830E+00
-0.2641971765832E+00 -0.1164863220243E+01 -0.6716583848045E+00 -0.6853278148069E-01
 0.2892012363744E+00 -0.4262685926693E+01 -0.1867537799713E+01  0.2522539953954E+00
 0.2485778713104E+00 -0.4243482221934E+01 -0.1877605040031E+01  0.3206657599400E+00
 0.2121699697076E+00 -0.4185807522198E+01 -0.1867609644934E+01  0.3859858585797E+00
 0.1602174578204E+00 -0.4122883362420E+01 -0.1862452970438E+01  0.4539949993673E+00
 0.1020682405196E+00 -0.4048743679871E+01 -0.1854937451790E+01  0.5219485669438E+00
 0.3907017363865E-01 -0.3961763146232E+01 -0.1843665692443E+01  0.5879850711433E+00
-0.2731362894537E-01 -0.3859800199298E+01 -0.1826943494641E+01  0.6503997704849E+00
-0.9599718194115E-01 -0.3741098893618E+01 -0.1803435150939E+01  0.7075261055676E+00
-0.1658279200057E+00 -0.3604017132158E+01 -0.1771827170023E+01  0.7575881434690E+00
-0.2354685284065E+00 -0.3446967265574E+01 -0.1730744818781E+01  0.7986133271149E+00
-0.3032411255825E+00 -0.3268338454317E+01 -0.1678642398295E+01  0.8283606710536E+00
-0.3669448998643E+00 -0.3066444777054E+01 -0.1613693144059E+01  0.8442493378565E+00
-0.4235956700645E+00 -0.2839485380699E+01 -0.1533648089969E+01  0.8432721493904E+00
-0.4690355409691E+00 -0.2585518806060E+01 -0.1435640539463E+01  0.8218777131960E+00
-0.4973116629811E+00 -0.2302445428892E+01 -0.1315885829843E+01  0.7757960956351E+00
-0.4996776858707E+00 -0.1988025010410E+01 -0.1169220264287E+01  0.6997660567368E+00
-0.4626666412542E+00 -0.1639748530658E+01 -0.9881351282925E+00  0.5870626204482E+00
-0.3650530850382E+00 -0.1255102157118E+01 -0.7614729618821E+00  0.4286428160367E+00
-0.1664576993775E+00 -0.8277895452075E+00 -0.4672962037697E+00  0.2110980742980E+00
 0.2114255309871E+00 -0.3459209382401E+00 -0.6321284124859E-01 -0.9018917413499E-01
 0.2382501621253E+00 -0.4151944296118E+01 -0.1839436238311E+01  0.3257289544295E+00
 0.2489058067602E+00 -0.4038302697142E+01 -0.1781016533962E+01  0.3916202406942E+00
 0.2051305360720E+00 -0.3960271971403E+01 -0.1764916470129E+01  0.4595335593419E+00
 0.1541437047184E+00 -0.3874446551751E+01 -0.1748542333670E+01  0.5272914632935E+00
 0.9701077629905E-01 -0.3776550649163E+01 -0.1729383735860E+01  0.5928856076128E+00
 0.3623580086703E-01 -0.3663263159048E+01 -0.1704702854021E+01  0.6548896112781E+00
-0.2680213007514E-01 -0.3532872353809E+01 -0.1673047003182E+01  0.7117807922912E+00
-0.9078436874253E-01 -0.3384053312745E+01 -0.1633173706157E+01  0.7618466763753E+00
-0.1543935460009E+00 -0.3215697512220E+01 -0.1583942793346E+01  0.8031129954332E+00
-0.2161605935139E+00 -0.3026787239980E+01 -0.1524185477876E+01  0.8333024202108E+00
-0.2743372680194E+00 -0.2816355843080E+01 -0.1452625758532E+01  0.8497982330519E+00
-0.3267266158812E+00 -0.2583478975103E+01 -0.1367796624293E+01  0.8496146319419E+00
-0.3704403220215E+00 -0.2327299412588E+01 -0.1267937672051E+01  0.8293792464686E+00
-0.4015266595554E+00 -0.2047097518226E+01 -0.1150853360638E+01  0.7853406320425E+00
-0.4143888999132E+00 -0.1742447284272E+01 -0.1013713003996E+01  0.7134263621640E+00
-0.4008088656131E+00 -0.1413498142536E+01 -0.8527242916673E+00  0.6094006950102E+00
-0.3484494838668E+00 -0.1061678023621E+01 -0.6627599268384E+00  0.4692500497239E+00
-0.2373178207902E+00 -0.6903868220904E+00 -0.4360211810480E+00  0.2900259436161E+00
-0.3788155458291E-01 -0.3113678116169E+00 -0.1641472016976E+00  0.7244303821893E-01
 0.3238102809741E+00  0.6171568750256E-01  0.1811972047245E+00 -0.1717719080252E+00
</DataArray>
<DataArray type="Float64" Name="S_Mises" NumberOfComponents="1" ComponentName0="S_Mises" format="ascii">
 0.9113541977689E+01
 0.8057546888337E+01
 0.7227433085211E+01
 0.6889433625380E+01
 0.6639988390002E+01
 0.6464217488768E+01
 0.6326164334807E+01
 0.6214053702762E+01
 0.6119772315468E+01
 0.6039005366352E+01
 0.5969225102389E+01
 0.5909182297417E+01
 0.5858526616778E+01
 0.5817661731598E+01
 0.5787728762873E+01
 0.5770736515189E+01
 0.5769950952542E+01
 0.5790968358351E+01
 0.5844308391511E+01
 0.5944917730872E+01
 0.6082194906444E+01
 0.6215493263080E+01
 0.6314430595357E+01
 0.6372658472788E+01
 0.6398394430209E+01
 0.6403868422894E+01
 0.6399592332708E+01
 0.6392396474364E+01
 0.6384760428218E+01
 0.6374241334469E+01
 0.6359470399740E+01
 0.6351343221766E+01
 0.6365255628953E+01
 0.6411087606221E+01
 0.6498589244164E+01
 0.6636698436445E+01
 0.6852108875270E+01
 0.7106369170423E+01
 0.7686260193710E+01
 0.6883630805810E+01
 0.1419845268216E+02
 0.7690496081682E+01
 0.7890036685520E+01
 0.7272842306967E+01
 0.6876658975829E+01
 0.6627528678728E+01
 0.6439672868291E+01
 0.6294875753557E+01
 0.6177221085660E+01
 0.6079024645689E+01
 0.5995448126498E+01
 0.5923749140702E+01
 0.5862466460671E+01
 0.5811087889047E+01
 0.5769871327496E+01
 0.5739809918029E+01
 0.5722722191122E+01
 0.5721554909263E+01
 0.5740890821524E+01
 0.5785542600884E+01
 0.5855744052089E+01
 0.5941595522693E+01
 0.6024760773664E+01
 0.6088795577363E+01
 0.6126706338362E+01
 0.6140096715699E+01
 0.6134578292769E+01
 0.6115961863326E+01
 0.6088136342775E+01
 0.6052506739096E+01
 0.6009404403062E+01
 0.5960187317428E+01
 0.5907753589632E+01
 0.5855226193970E+01
 0.5803266419092E+01
 0.5746334447286E+01
 0.5672317851588E+01
 0.5538732645130E+01
 0.5312240320848E+01
 0.4624952520153E+01
 0.3519969719554E+01
 0.1199611966137E+02
 0.6892543807811E+01
 0.7387847643801E+01
 0.7170811130096E+01
 0.6823956785086E+01
 0.6582695601397E+01
 0.6398042385055E+01
 0.6251587281483E+01
 0.6132063809557E+01
 0.6031944615942E+01
 0.5946766457520E+01
 0.5873784517918E+01
 0.5811495043291E+01
 0.5759289266469E+01
 0.5717290386667E+01
 0.5686290780011E+01
 0.5667770896894E+01
 0.5663979356408E+01
 0.5677347450139E+01
 0.5707685546906E+01
 0.5750245826618E+01
 0.5797911684201E+01
 0.5842789195443E+01
 0.5876663171963E+01
 0.5893634537170E+01
 0.5891913805500E+01
 0.5872791194607E+01
 0.5838557020535E+01
 0.5790901273963E+01
 0.5730679719593E+01
 0.5658844818194E+01
 0.5576022067475E+01
 0.5480680516024E+01
 0.5369095795855E+01
 0.5234384018535E+01
 0.5063165916786E+01
 0.4828365180446E+01
 0.4488117532946E+01
 0.3959087023102E+01
 0.3116253771101E+01
 0.3298089955909E+01
 0.1099514806884E+02
 0.6370485410685E+01
 0.6910873031516E+01
 0.6946368797564E+01
 0.6723039530072E+01
 0.6510068852777E+01
 0.6338015645825E+01
 0.6196250245738E+01
 0.6078189438137E+01
 0.5978266855853E+01
 0.5892719767794E+01
 0.5819137014766E+01
 0.5756109215066E+01
 0.5703005946433E+01
 0.5659829161724E+01
 0.5627127744797E+01
 0.5605923106857E+01
 0.5597449736375E+01
 0.5601906091528E+01
 0.5616223732587E+01
 0.5634558696614E+01
 0.5652349325069E+01
 0.5666981200006E+01
 0.5674860552077E+01
 0.5671455677458E+01
 0.5653436830904E+01
 0.5619427341097E+01
 0.5569262925183E+01
 0.5503065112384E+01
 0.5421083313675E+01
 0.5323809480239E+01
 0.5210549184367E+01
 0.5077251512862E+01
 0.4916618785744E+01
 0.4718220531448E+01
 0.4465841613300E+01
 0.4135304926767E+01
 0.3696607433259E+01
 0.3121498571129E+01
 0.2624873120591E+01
 0.4083329682904E+01
 0.1012056192933E+02
 0.5993751733882E+01
 0.6506357472223E+01
 0.6678422953960E+01
 0.6576498491404E+01
 0.6412525165676E+01
 0.6260747557903E+01
 0.6128989806215E+01
 0.6015636560991E+01
 0.5917902603931E+01
 0.5833211768488E+01
 0.5759713833128E+01
 0.5696237827569E+01
 0.5642198739005E+01
 0.5597496795337E+01
 0.5562412441721E+01
 0.5537424541388E+01
 0.5522678188186E+01
 0.5516667085953E+01
 0.5515043206374E+01
 0.5512342029183E+01
 0.5505937180386E+01
 0.5495953803389E+01
 0.5481353510828E+01
 0.5458774704486E+01
 0.5424347090070E+01
 0.5375175549415E+01
 0.5309503209395E+01
 0.5226341000628E+01
 0.5125273358323E+01
 0.5006036696169E+01
 0.4866870312744E+01
 0.4702563226817E+01
 0.4504757194530E+01
 0.4262828507388E+01
 0.3963666712647E+01
 0.3594219431216E+01
 0.3152282889093E+01
 0.2706641199762E+01
 0.2725806424766E+01
 0.4790220126317E+01
 0.9405786491469E+01
 0.5702531360430E+01
 0.6168368319635E+01
 0.6407562212471E+01
 0.6401193264676E+01
 0.6293152469149E+01
 0.6168246627955E+01
 0.6050518360827E+01
 0.5944699996600E+01
 0.5850964672864E+01
 0.5768272883232E+01
 0.5695521978310E+01
 0.5631893669669E+01
 0.5576911010956E+01
 0.5530396863931E+01
 0.5492358490338E+01
 0.5462717104283E+01
 0.5440666333874E+01
 0.5423624451072E+01
 0.5406930164308E+01
 0.5385971570352E+01
 0.5359484488857E+01
 0.5329003524480E+01
 0.5294879518577E+01
 0.5254649586172E+01
 0.5204419328201E+01
 0.5140543671640E+01
 0.5060320440556E+01
 0.4962003599860E+01
 0.4844585514346E+01
 0.4707154576834E+01
 0.4547387903060E+01
 0.4360026958879E+01
 0.4137508824647E+01
 0.3871786692166E+01
 0.3556670561104E+01
 0.3194736333899E+01
 0.2820610004538E+01
 0.2592573927540E+01
 0.3077871685467E+01
 0.5263940287492E+01
 0.8838207811518E+01
 0.5465728351964E+01
 0.5883416071653E+01
 0.6150656373518E+01
 0.6212479183475E+01
 0.6157349371226E+01
 0.6062761509999E+01
 0.5961999104829E+01
 0.5865917888241E+01
 0.5777730808385E+01
 0.5698052904410E+01
 0.5626659590886E+01
 0.5563168257558E+01
 0.5507262790269E+01
 0.5458717833234E+01
 0.5417286147668E+01
 0.5382387375471E+01
 0.5352502272790E+01
 0.5324500402109E+01
 0.5293926503841E+01
 0.5257086555786E+01
 0.5213638773736E+01
 0.5165809263041E+01
 0.5114683227004E+01
 0.5058467934466E+01
 0.4993503697760E+01
 0.4915893656355E+01
 0.4822459382100E+01
 0.4710995379752E+01
 0.4580080086029E+01
 0.4428434271551E+01
 0.4253717377646E+01
 0.4051503966985E+01
 0.3816364155398E+01
 0.3544658337587E+01
 0.3239055934720E+01
 0.2919711436712E+01
 0.2657226466235E+01
 0.2669660128367E+01
 0.3468668230013E+01
 0.5554584273126E+01
 0.8387606636213E+01
 0.5265680930310E+01
 0.5639386835076E+01
 0.5913257986573E+01
 0.6020836223789E+01
 0.6010961645200E+01
 0.5946924722660E+01
 0.5864814586437E+01
 0.5780032469746E+01
 0.5698614184591E+01
 0.5622804978533E+01
 0.5553306657339E+01
 0.5490224216380E+01
 0.5433442676934E+01
 0.5382721186329E+01
 0.5337599718040E+01
 0.5297100223499E+01
 0.5259244318078E+01
 0.5220733498724E+01
 0.5177564722647E+01
 0.5126875663740E+01
 0.5068934425960E+01
 0.5006268829894E+01
 0.4940335345403E+01
 0.4869846229144E+01
 0.4791501683450E+01
 0.4701468728295E+01
 0.4596428768122E+01
 0.4473976207932E+01
 0.4332504962433E+01
 0.4170697014698E+01
 0.3986680429669E+01
 0.3777513659820E+01
 0.3540754831478E+01
 0.3278110064580E+01
 0.3001733705603E+01
 0.2748776699312E+01
 0.2618309427353E+01
 0.2846265543684E+01
 0.3816136455565E+01
 0.5723979804297E+01
 0.8024990729113E+01
 0.5091660514642E+01
 0.5426854763548E+01
 0.5695935601502E+01
 0.5832536151580E+01
 0.5859027125642E+01
 0.5823493103135E+01
 0.5760473294090E+01
 0.5687914810753E+01
 0.5614135656847E+01
 0.5542866963085E+01
 0.5475713662177E+01
 0.5413286149073E+01
 0.5355698027037E+01
 0.5302727507097E+01
 0.5253760258924E+01
 0.5207544557735E+01
 0.5161867208848E+01
 0.5113512787777E+01
 0.5059022311545E+01
 0.4996237379752E+01
 0.4925823962261E+01
 0.4850404360911E+01
 0.4771611080340E+01
 0.4688551297087E+01
 0.4598342165799E+01
 0.4497411637431E+01
 0.4382541711808E+01
 0.4251350979302E+01
 0.4102285121554E+01
 0.3934297037048E+01
 0.3746368382549E+01
 0.3537468731610E+01
 0.3308576585307E+01
 0.3067007497787E+01
 0.2834032719315E+01
 0.2661199399868E+01
 0.2664022120650E+01
 0.3059731795496E+01
 0.4101102820006E+01
 0.5816771547802E+01
 0.7727931443604E+01
 0.4936790231045E+01
 0.5238765342461E+01
 0.5497246319203E+01
 0.5650949941898E+01
 0.5705386329838E+01
 0.5695040607846E+01
 0.5650514409823E+01
 0.5590504231616E+01
 0.5524890473773E+01
 0.5458642816677E+01
 0.5394188826525E+01
 0.5332630425996E+01
 0.5274324099079E+01
 0.5219101270722E+01
 0.5166259645462E+01
 0.5114396792244E+01
 0.5061243552799E+01
 0.5003820775238E+01
 0.4939224019366E+01
 0.4865874205971E+01
 0.4784696743237E+01
 0.4698304889462E+01
 0.4608408871612E+01
 0.4514441734317E+01
 0.4413960578316E+01
 0.4303775831439E+01
 0.4180942521716E+01
 0.4043291323699E+01
 0.3889533629993E+01
 0.3719150021498E+01
 0.3532246332306E+01
 0.3329928959362E+01
 0.3116699126869E+01
 0.2905263594308E+01
 0.2724888589511E+01
 0.2637379012795E+01
 0.2761299696546E+01
 0.3274851146928E+01
 0.4326932256020E+01
 0.5861746112275E+01
 0.7480218900015E+01
 0.4796462354217E+01
 0.5069877745878E+01
 0.5315087290525E+01
 0.5477627030651E+01
 0.5552741244461E+01
 0.5563773544668E+01
 0.5536411800419E+01
 0.5488757775680E+01
 0.5431516673160E+01
 0.5370583645256E+01
 0.5309085091422E+01
 0.5248574460518E+01
 0.5189652844694E+01
 0.5132235957624E+01
 0.5075599429293E+01
 0.5018299336927E+01
 0.4958143168667E+01
 0.4892473043435E+01
 0.4818910525437E+01
 0.4736350168598E+01
 0.4645890154728E+01
 0.4550090457675E+01
 0.4450696352580E+01
 0.4347425958199E+01
 0.4238282611616E+01
 0.4120532821890E+01
 0.3991626933716E+01
 0.3849758086024E+01
 0.3694078971043E+01
 0.3524788598730E+01
 0.3343277973999E+01
 0.3152850650545E+01
 0.2961393623715E+01
 0.2786444815330E+01
 0.2663564937982E+01
 0.2659781529333E+01
 0.2885530914326E+01
 0.3474816798231E+01
 0.4503201571177E+01
 0.5876894330527E+01
 0.7270351803036E+01
 0.4667472541927E+01
 0.4916280126851E+01
 0.5147287419354E+01
 0.5313037133484E+01
 0.5402870477210E+01
 0.5431468453277E+01
 0.5419501921246E+01
 0.5383607225423E+01
 0.5334667449679E+01
 0.5279169555663E+01
 0.5220787278225E+01
 0.5161465975272E+01
 0.5102041897110E+01
 0.5042540670016E+01
 0.4982275169562E+01
 0.4919849600983E+01
 0.4853240424247E+01
 0.4780151104757E+01
 0.4698685078955E+01
 0.4608126913948E+01
 0.4509696271744E+01
 0.4405889108092E+01
 0.4298474358008E+01
 0.4187432821764E+01
 0.4071212205580E+01
 0.3947577733835E+01
 0.3814459298974E+01
 0.3670525893406E+01
 0.3515502564688E+01
 0.3350431045604E+01
 0.3178054046572E+01
 0.3003807060559E+01
 0.2838658344970E+01
 0.2704168216472E+01
 0.2640086949054E+01
 0.2713633496337E+01
 0.3020118277109E+01
 0.3653165523668E+01
 0.4639892626255E+01
 0.5873437823950E+01
 0.7090133812999E+01
 0.4547520895884E+01
 0.4775023854878E+01
 0.4991846541812E+01
 0.5157043358255E+01
 0.5256862710295E+01
 0.5299487905368E+01
 0.5300943942922E+01
 0.5275925829951E+01
 0.5234988016230E+01
 0.5184893331280E+01
 0.5129699963291E+01
 0.5071672746923E+01
 0.5011864360772E+01
 0.4950428941509E+01
 0.4886765719146E+01
 0.4819595769385E+01
 0.4747124499783E+01
 0.4667428530225E+01
 0.4579045701828E+01
 0.4481587111831E+01
 0.4376366123767E+01
 0.4265822185963E+01
 0.4151753285639E+01
 0.4034391790086E+01
 0.3912623683764E+01
 0.3784734795386E+01
 0.3649188992988E+01
 0.3505209848659E+01
 0.3353181741368E+01
 0.3195053829164E+01
 0.3034911856912E+01
 0.2880167637637E+01
 0.2744448533704E+01
 0.2652349007802E+01
 0.2645533704492E+01
 0.2787229947115E+01
 0.3154755855671E+01
 0.3808697083619E+01
 0.4745623799773E+01
 0.5858451255953E+01
 0.6933635531197E+01
 0.4434911434129E+01
 0.4643859841170E+01
 0.4847013517279E+01
 0.5009191808672E+01
 0.5115317020308E+01
 0.5168833961067E+01
 0.5181707576401E+01
 0.5166506149323E+01
 0.5133097243985E+01
 0.5088246359266E+01
 0.5036236418351E+01
 0.4979573099796E+01
 0.4919499687814E+01
 0.4856309772811E+01
 0.4789526325427E+01
 0.4718036481667E+01
 0.4640309895337E+01
 0.4554791169565E+01
 0.4460407625452E+01
 0.4357049943026E+01
 0.4246112527956E+01
 0.4129994931915E+01
 0.4010537690051E+01
 0.3888219932254E+01
 0.3762357209867E+01
 0.3631763258930E+01
 0.3495466543087E+01
 0.3353293022969E+01
 0.3206333783616E+01
 0.3057460810156E+01
 0.2912037805853E+01
 0.2779233739069E+01
 0.2674829304544E+01
 0.2625357465624E+01
 0.2672225526499E+01
 0.2871802589454E+01
 0.3283531964752E+01
 0.3942661492686E+01
 0.4827343741177E+01
 0.5836469442172E+01
 0.6796480402609E+01
 0.4328364010537E+01
 0.4521051052580E+01
 0.4711293314293E+01
 0.4868883601839E+01
 0.4978498257499E+01
 0.5040213483483E+01
 0.5062579901049E+01
 0.5056048398463E+01
 0.5029574234994E+01
 0.4989707045551E+01
 0.4940808913667E+01
 0.4885547418448E+01
 0.4825325844919E+01
 0.4760580744618E+01
 0.4690984535347E+01
 0.4615622627566E+01
 0.4533246075580E+01
 0.4442652665800E+01
 0.4343119177395E+01
 0.4234781682815E+01
 0.4119112233743E+01
 0.3998490705029E+01
 0.3874816605130E+01
 0.3748813958648E+01
 0.3620217067707E+01
 0.3488364122201E+01
 0.3352859699153E+01
 0.3214153662893E+01
 0.3074058071041E+01
 0.2936344826323E+01
 0.2807549885474E+01
 0.2698335603833E+01
 0.2626074351245E+01
 0.2618120545674E+01
 0.2713793849992E+01
 0.2961093000135E+01
 0.3403387875920E+01
 0.4057293541187E+01
 0.4890501795633E+01
 0.5810458173878E+01
 0.6675365815668E+01
 0.4226892597596E+01
 0.4405239246347E+01
 0.4583425355764E+01
 0.4735474013074E+01
 0.4846451124803E+01
 0.4914101564839E+01
 0.4944183069515E+01
 0.4945157339526E+01
 0.4924949638787E+01
 0.4889731840418E+01
 0.4843820616691E+01
 0.4789970919261E+01
 0.4729712907415E+01
 0.4663623013253E+01
 0.4591538162016E+01
 0.4512760266769E+01
 0.4426325989400E+01
 0.4331366491792E+01
 0.4227473402790E+01
 0.4115003392056E+01
 0.3995507995764E+01
 0.3871367975937E+01
 0.3744558132391E+01
 0.3616046232509E+01
 0.3485972502227E+01
 0.3354187932664E+01
 0.3220869576683E+01
 0.3087091391113E+01
 0.2955374607066E+01
 0.2830339810144E+01
 0.2719560865752E+01
 0.2634898924831E+01
 0.2594729425518E+01
 0.2626180852287E+01
 0.2765136667193E+01
 0.3050821859245E+01
 0.3513024817228E+01
 0.4155080054758E+01
 0.4939328357244E+01
 0.5782406325755E+01
 0.6567743842247E+01
 0.4129724146022E+01
 0.4295349643200E+01
 0.4462352568729E+01
 0.4608327322264E+01
 0.4719080996984E+01
 0.4790796889144E+01
 0.4826996739981E+01
 0.4834345212519E+01
 0.4819701026230E+01
 0.4788748700445E+01
 0.4745659058331E+01
 0.4693207664056E+01
 0.4633017944915E+01
 0.4565797774672E+01
 0.4491554565693E+01
 0.4409813906254E+01
 0.4319893291904E+01
 0.4221235245900E+01
 0.4113716665956E+01
 0.3997896656106E+01
 0.3875410583311E+01
 0.3748659118647E+01
 0.3619706848294E+01
 0.3489763454813E+01
 0.3359360261447E+01
 0.3228843097737E+01
 0.3098946139433E+01
 0.2971351158411E+01
 0.2849257318300E+01
 0.2738062508589E+01
 0.2646224253141E+01
 0.2586488932739E+01
 0.2577651819348E+01
 0.2645715502979E+01
 0.2822289932739E+01
 0.3138185229032E+01
 0.3612182176744E+01
 0.4238411083623E+01
 0.4977095690293E+01
 0.5753694448264E+01
 0.6471609304611E+01
 0.4036243056810E+01
 0.4190522088251E+01
 0.4347189776555E+01
 0.4486845205324E+01
 0.4596209715978E+01
 0.4670467226604E+01
 0.4711381314595E+01
 0.4724038462612E+01
 0.4714251514446E+01
 0.4687152764035E+01
 0.4646691133783E+01
 0.4595605811948E+01
 0.4535581104353E+01
 0.4467443915266E+01
 0.4391370808757E+01
 0.4307109801944E+01
 0.4214248412712E+01
 0.4112517932204E+01
 0.4002055219696E+01
 0.3883608120202E+01
 0.3758900880867E+01
 0.3630370539897E+01
 0.3500183253131E+01
 0.3369787317789E+01
 0.3240088409215E+01
 0.3111904459084E+01
 0.2986502721127E+01
 0.2866144458862E+01
 0.2754661753844E+01
 0.2658144540487E+01
 0.2585766484253E+01
 0.2550838781686E+01
 0.2572031596376E+01
 0.2673518847124E+01
 0.2882255564134E+01
 0.3221436595415E+01
 0.3701179617797E+01
 0.4309432445553E+01
 0.5006316814557E+01
 0.5725324575317E+01
 0.6385362870612E+01
 0.3945952301231E+01
 0.4090060752871E+01
 0.4237194929019E+01
 0.4370479612295E+01
 0.4477613255682E+01
 0.4553185382845E+01
 0.4597599737432E+01
 0.4614586471038E+01
 0.4608970791011E+01
 0.4585303917007E+01
 0.4547259518120E+01
 0.4497494029696E+01
 0.4437722747433E+01
 0.4368876588873E+01
 0.4291294363813E+01
 0.4204939102947E+01
 0.4109653639081E+01
 0.4005435749236E+01
 0.3892660380185E+01
 0.3772253260261E+01
 0.3646032114352E+01
 0.3516483767791E+01
 0.3385884651092E+01
 0.3255916527906E+01
 0.3127840959290E+01
 0.3002921798535E+01
 0.2882929261085E+01
 0.2770667511437E+01
 0.2670547282506E+01
 0.2589256088016E+01
 0.2536508668907E+01
 0.2525866755357E+01
 0.2575397288151E+01
 0.2706956998084E+01
 0.2942820837518E+01
 0.3299564198175E+01
 0.3780639142727E+01
 0.4369993639031E+01
 0.5028913158148E+01
 0.5698008608313E+01
 0.6307720278770E+01
 0.3858445718002E+01
 0.3993396750335E+01
 0.4131744375115E+01
 0.4258736738066E+01
 0.4363046575109E+01
 0.4438956828848E+01
 0.4485836763027E+01
 0.4506271003301E+01
 0.4504177766786E+01
 0.4483525889575E+01
 0.4447680330590E+01
 0.4399178944278E+01
 0.4339741491693E+01
 0.4270386507301E+01
 0.4191604160658E+01
 0.4103560762272E+01
 0.4006337389653E+01
 0.3900176779006E+01
 0.3785672738808E+01
 0.3663919663899E+01
 0.3536832199248E+01
 0.3406957217597E+01
 0.3276687011571E+01
 0.3147929734582E+01
 0.3022282951890E+01
 0.2901427986567E+01
 0.2787604035852E+01
 0.2684116365804E+01
 0.2595894273065E+01
 0.2530122757938E+01
 0.2496880634668E+01
 0.2509684989666E+01
 0.2585608239124E+01
 0.2743904492616E+01
 0.3002391186129E+01
 0.3372053432158E+01
 0.3851316040597E+01
 0.4421674254891E+01
 0.5046268741311E+01
 0.5672420401150E+01
 0.6237410075848E+01
 0.3773391229256E+01
 0.3900089925526E+01
 0.4030365219860E+01
 0.4151256649889E+01
 0.4252368963517E+01
 0.4327878002984E+01
 0.4376379176862E+01
 0.4399503595991E+01
 0.4400354844193E+01
 0.4382338837872E+01
 0.4348495849437E+01
 0.4301219953841E+01
 0.4242213269710E+01
 0.4172565507004E+01
 0.4092904706001E+01
 0.4003585563038E+01
 0.3904908426639E+01
 0.3797339546109E+01
 0.3681673356976E+01
 0.3559163519233E+01
 0.3431822644338E+01
 0.3302263990897E+01
 0.3172997154070E+01
 0.3046145978349E+01
 0.2923620598888E+01
 0.2807486937602E+01
 0.2700413421337E+01
 0.2606157693517E+01
 0.2530100096475E+01
 0.2479816628926E+01
 0.2465574947177E+01
 0.2500585892969E+01
 0.2600642903738E+01
 0.2782307732904E+01
 0.3059344597940E+01
 0.3438157613117E+01
 0.3913466277024E+01
 0.4465457253656E+01
 0.5059296794963E+01
 0.5648695010099E+01
 0.6177314912490E+01
 0.3690510694750E+01
 0.3809751613926E+01
 0.3932613774266E+01
 0.4047649203036E+01
 0.4145334264172E+01
 0.4219874602900E+01
 0.4269299143900E+01
 0.4294455659373E+01
 0.4297728640783E+01
 0.4281993881043E+01
 0.4249964014185E+01
 0.4203872727577E+01
 0.4145386250995E+01
 0.4075649365043E+01
 0.3995412951371E+01
 0.3905203519647E+01
 0.3805521287438E+01
 0.3697035700342E+01
 0.3580725165853E+01
 0.3457993590258E+01
 0.3330951029299E+01
 0.3202280557868E+01
 0.3074607900661E+01
 0.2950260567792E+01
 0.2831437638761E+01
 0.2720556987067E+01
 0.2620676595732E+01
 0.2535957572741E+01
 0.2472163677755E+01
 0.2437157380160E+01
 0.2441232192500E+01
 0.2497074216916E+01
 0.2619011558587E+01
 0.2820957165786E+01
 0.3113091821972E+01
 0.3498123026310E+01
 0.3968104666251E+01
 0.4502628061520E+01
 0.5069238016665E+01
 0.5625994383206E+01
 0.6129639027308E+01
 0.3609559159931E+01
 0.3722021374714E+01
 0.3838050209522E+01
 0.3947478874169E+01
 0.4041587512437E+01
 0.4114705365468E+01
 0.4164459145775E+01
 0.4191061215079E+01
 0.4196269970828E+01
 0.4182471310842E+01
 0.4152056309961E+01
 0.4107088206231E+01
 0.4049182296750E+01
 0.3979522918989E+01
 0.3898968084988E+01
 0.3808199011121E+01
 0.3707896999612E+01
 0.3598916199352E+01
 0.3482404342759E+01
 0.3359907397864E+01
 0.3233631506926E+01
 0.3106331257857E+01
 0.2980746187078E+01
 0.2859396043175E+01
 0.2744747665629E+01
 0.2639541960387E+01
 0.2547191216113E+01
 0.2472215857909E+01
 0.2420700681338E+01
 0.2400697935111E+01
 0.2422382180113E+01
 0.2497740119831E+01
 0.2639525065528E+01
 0.2859118041725E+01
 0.3163570050862E+01
 0.3552620530005E+01
 0.4016412356430E+01
 0.4534497701285E+01
 0.5076576174307E+01
 0.5605605758919E+01
 0.6084471440564E+01
 0.3530333618050E+01
 0.3636622548132E+01
 0.3746350493583E+01
 0.3850441463818E+01
 0.3940908959663E+01
 0.4012266795797E+01
 0.4061868109730E+01
 0.4089416717338E+01
 0.4096133062177E+01
 0.4083958091139E+01
 0.4054974833459E+01
 0.4011072193575E+01
 0.3953803127922E+01
 0.3884377391037E+01
 0.3803744485612E+01
 0.3712723075715E+01
 0.3612157125333E+01
 0.3503067882951E+01
 0.3386758464555E+01
 0.3264908407470E+01
 0.3139817040919E+01
 0.3014310004884E+01
 0.2891236482174E+01
 0.2773296176265E+01
 0.2663202691259E+01
 0.2563991897453E+01
 0.2479396194973E+01
 0.2414252157039E+01
 0.2374904612397E+01
 0.2369503833898E+01
 0.2407978320682E+01
 0.2501484951716E+01
 0.2661163819680E+01
 0.2896041032658E+01
 0.3210479620333E+01
 0.3601861748497E+01
 0.4059013081785E+01
 0.4561761556562E+01
 0.5081998511936E+01
 0.5586733229794E+01
 0.6043124651934E+01
 0.3452659650784E+01
 0.3553318441009E+01
 0.3657235617533E+01
 0.3756267783836E+01
 0.3843093526486E+01
 0.3912448830800E+01
 0.3961513282978E+01
 0.3989589727202E+01
 0.3997442030257E+01
 0.3986612936522E+01
 0.3958896071561E+01
 0.3916007042898E+01
 0.3859428321043E+01
 0.3790382504678E+01
 0.3709895473907E+01
 0.3618906372228E+01
 0.3518403980811E+01
 0.3409559862656E+01
 0.3293819071048E+01
 0.3172985808166E+01
 0.3049448307324E+01
 0.2926100962989E+01
 0.2805896938937E+01
 0.2691703053372E+01
 0.2586459162143E+01
 0.2493469246983E+01
 0.2416753143015E+01
 0.2361421993640E+01
 0.2334022122971E+01
 0.2342717205746E+01
 0.2397083032424E+01
 0.2507358880770E+01
 0.2683089975442E+01
 0.2931158652483E+01
 0.3253649292011E+01
 0.3646095187195E+01
 0.4096447576274E+01
 0.4585040262730E+01
 0.5085830934633E+01
 0.5569168863800E+01
 0.6005715795484E+01
 0.3376385879529E+01
 0.3471905105388E+01
 0.3570463706943E+01
 0.3664719096864E+01
 0.3747950932819E+01
 0.3815138634515E+01
 0.3863365489550E+01
 0.3891623778806E+01
 0.3900294486737E+01
 0.3890568614504E+01
 0.3863972266251E+01
 0.3822052556010E+01
 0.3766216149269E+01
 0.3697687542264E+01
 0.3617554704030E+01
 0.3526860880093E+01
 0.3426722535289E+01
 0.3318445513289E+01
 0.3203603712713E+01
 0.3084116661027E+01
 0.2962456011217E+01
 0.2841581093873E+01
 0.2724542216661E+01
 0.2614360187337E+01
 0.2514181313204E+01
 0.2427552287637E+01
 0.2358749512895E+01
 0.2313119186523E+01
 0.2297354070295E+01
 0.2319555634382E+01
 0.2388862223958E+01
 0.2514546557017E+01
 0.2704619995936E+01
 0.2964046225292E+01
 0.3292999146086E+01
 0.3685577977301E+01
 0.4129194163948E+01
 0.4604823596653E+01
 0.5088312173202E+01
 0.5552827650381E+01
 0.5972022982141E+01
 0.3301379669690E+01
 0.3392205347031E+01
 0.3485823662983E+01
 0.3575582914223E+01
 0.3655305111508E+01
 0.3720223093831E+01
 0.3767383142638E+01
 0.3795542414273E+01
 0.3804764766962E+01
 0.3795934189712E+01
 0.3770332889034E+01
 0.3729347036478E+01
 0.3674304540270E+01
 0.3606422433861E+01
 0.3526837484248E+01
 0.3436681441237E+01
 0.3337182103434E+01
 0.3229764253077E+01
 0.3116117810352E+01
 0.2998267881409E+01
 0.2878763046058E+01
 0.2760622528271E+01
 0.2646986068638E+01
 0.2541015286295E+01
 0.2446044016772E+01
 0.2365837852098E+01
 0.2304900874152E+01
 0.2268777269590E+01
 0.2264255592863E+01
 0.2299309973822E+01
 0.2382578673247E+01
 0.2522352494991E+01
 0.2725199701308E+01
 0.2994390420246E+01
 0.3328511424199E+01
 0.3720563364756E+01
 0.4157665764822E+01
 0.4621504142233E+01
 0.5089631916363E+01
 0.5537632302146E+01
 0.5941745391122E+01
 0.3227523710292E+01
 0.3314063862623E+01
 0.3403129909321E+01
 0.3488669237479E+01
 0.3564993192348E+01
 0.3627590371961E+01
 0.3673515267661E+01
 0.3701352494348E+01
 0.3710906775014E+01
 0.3702797157011E+01
 0.3678086160099E+01
 0.3638008440508E+01
 0.3583812111504E+01
 0.3516698860200E+01
 0.3437842034246E+01
 0.3348447173505E+01
 0.3249837873821E+01
 0.3143543155269E+01
 0.3031356357925E+01
 0.2915398072798E+01
 0.2798286497788E+01
 0.2683094752467E+01
 0.2573043685509E+01
 0.2471422683019E+01
 0.2381735164848E+01
 0.2307943447482E+01
 0.2254752479384E+01
 0.2227870160979E+01
 0.2234135424226E+01
 0.2281341350015E+01
 0.2377584696450E+01
 0.2530186745462E+01
 0.2744382305485E+01
 0.3021963674203E+01
 0.3360209734904E+01
 0.3751291312024E+01
 0.4182215609484E+01
 0.4635400458082E+01
 0.5089936079764E+01
 0.5523496027072E+01
 0.5914563984030E+01
 0.3154713252046E+01
 0.3237343292376E+01
 0.3322218037616E+01
 0.3403807244631E+01
 0.3476864281969E+01
 0.3537130812369E+01
 0.3581703779849E+01
 0.3609046927184E+01
 0.3618756504194E+01
 0.3611225475833E+01
 0.3587320611927E+01
 0.3548135632161E+01
 0.3494839306654E+01
 0.3428611415967E+01
 0.3350650749450E+01
 0.3262222846964E+01
 0.3164732377959E+01
 0.3059798498843E+01
 0.2949305571701E+01
 0.2835459308505E+01
 0.2720939583627E+01
 0.2608866697329E+01
 0.2502533886472E+01
 0.2405345533587E+01
 0.2320957724820E+01
 0.2253508956667E+01
 0.2207880351211E+01
 0.2189912334776E+01
 0.2206454693887E+01
 0.2265077623119E+01
 0.2373314498823E+01
 0.2537551355315E+01
 0.2761809392986E+01
 0.3046603841595E+01
 0.3388143737198E+01
 0.3777983235018E+01
 0.4203144465743E+01
 0.4646771032893E+01
 0.5089332020179E+01
 0.5510319468549E+01
 0.5890162045293E+01
 0.3082853851765E+01
 0.3161920991967E+01
 0.3242941176292E+01
 0.3320842374206E+01
 0.3390778148093E+01
 0.3448737365721E+01
 0.3491885156722E+01
 0.3518606877487E+01
 0.3528334219764E+01
 0.3521269443555E+01
 0.3498106612435E+01
 0.3459809653034E+01
 0.3407469548376E+01
 0.3342238758419E+01
 0.3265331408061E+01
 0.3178060166234E+01
 0.3081896843917E+01
 0.2978537196082E+01
 0.2869944412621E+01
 0.2758398776581E+01
 0.2646633431793E+01
 0.2537808631843E+01
 0.2435281064274E+01
 0.2342557706879E+01
 0.2263431419653E+01
 0.2202197912214E+01
 0.2163891922700E+01
 0.2154458555725E+01
 0.2180725298226E+01
 0.2250009459121E+01
 0.2369276492083E+01
 0.2544027897843E+01
 0.2777194744715E+01
 0.3068198129678E+01
 0.3412378081452E+01
 0.3800839580004E+01
 0.4220707110768E+01
 0.4655824350965E+01
 0.5087893633875E+01
 0.5497992277860E+01
 0.5868232945398E+01
 0.3011859513592E+01
 0.3087686375272E+01
 0.3165166951873E+01
 0.3239633772499E+01
 0.3306603892792E+01
 0.3362305689324E+01
 0.3403991646919E+01
 0.3430003547532E+01
 0.3439646340670E+01
 0.3432963406073E+01
 0.3410497827400E+01
 0.3373094983251E+01
 0.3321770390924E+01
 0.3257644736470E+01
 0.3181938328407E+01
 0.3095998976271E+01
 0.3001352456665E+01
 0.2899758118449E+01
 0.2793245999487E+01
 0.2684160301535E+01
 0.2575278713841E+01
 0.2469793874889E+01
 0.2371116905742E+01
 0.2282845402944E+01
 0.2208894095484E+01
 0.2153698435137E+01
 0.2122426347573E+01
 0.2121103304588E+01
 0.2156507981436E+01
 0.2235686201551E+01
 0.2365045835650E+01
 0.2549266243573E+01
 0.2790310766910E+01
 0.3086670510723E+01
 0.3432984558757E+01
 0.3820039038401E+01
 0.4235117976590E+01
 0.4662726769934E+01
 0.5085666424811E+01
 0.5486395880768E+01
 0.5848483322075E+01
 0.2941651144038E+01
 0.3014538709399E+01
 0.3088774931346E+01
 0.3160052058327E+01
 0.3224218656201E+01
 0.3277734014154E+01
 0.3317952110769E+01
 0.3343199589801E+01
 0.3352687035630E+01
 0.3346327286031E+01
 0.3324532582793E+01
 0.3288040747627E+01
 0.3237794628438E+01
 0.3174879462492E+01
 0.3100513446204E+01
 0.3016068366388E+01
 0.2923111501230E+01
 0.2823453294596E+01
 0.2719178882722E+01
 0.2612685709148E+01
 0.2506787094948E+01
 0.2404700293587E+01
 0.2309881864757E+01
 0.2226008492528E+01
 0.2157102790759E+01
 0.2107723876797E+01
 0.2083154537840E+01
 0.2089479964663E+01
 0.2133410219440E+01
 0.2221711688646E+01
 0.2360257383767E+01
 0.2552974632404E+01
 0.2800977233777E+01
 0.3101971944043E+01
 0.3450036608014E+01
 0.3835738744245E+01
 0.4246556095574E+01
 0.4667609034647E+01
 0.5082672324508E+01
 0.5475406385565E+01
 0.5830634408434E+01
 0.2872155258249E+01
 0.2942385274387E+01
 0.3013654462971E+01
 0.3081977372960E+01
 0.3143506388022E+01
 0.3194922866246E+01
 0.3233692590177E+01
 0.3258150229674E+01
 0.3267439582341E+01
 0.3261367952345E+01
 0.3240235136255E+01
 0.3204681872314E+01
 0.3155581367774E+01
 0.3093980343215E+01
 0.3021087336395E+01
 0.2938287703773E+01
 0.2847178423436E+01
 0.2749609015854E+01
 0.2647708213336E+01
 0.2543916068727E+01
 0.2441072537979E+01
 0.2342411628246E+01
 0.2251426435460E+01
 0.2171861637426E+01
 0.2107834581208E+01
 0.2064013251667E+01
 0.2045779024059E+01
 0.2059259867858E+01
 0.2111084018370E+01
 0.2207740156347E+01
 0.2354599168318E+01
 0.2554911024376E+01
 0.2809052025269E+01
 0.3114072814042E+01
 0.3463605514768E+01
 0.3848075037402E+01
 0.4255169451227E+01
 0.4670571813944E+01
 0.5078914126710E+01
 0.5464897289111E+01
 0.5814422728189E+01
 0.2803302889194E+01
 0.2871139817708E+01
 0.2939702845976E+01
 0.3005297680058E+01
 0.3064356703149E+01
 0.3113774698402E+01
 0.3151136675504E+01
 0.3174804153370E+01
 0.3183877521864E+01
 0.3178080441359E+01
 0.3157616853868E+01
 0.3123040182193E+01
 0.3075157056567E+01
 0.3014973064435E+01
 0.2943680179149E+01
 0.2862667599687E+01
 0.2773550812852E+01
 0.2678206853501E+01
 0.2578796810461E+01
 0.2477792816081E+01
 0.2378052466472E+01
 0.2282818653575E+01
 0.2195612243107E+01
 0.2120235219970E+01
 0.2060887241769E+01
 0.2022331513630E+01
 0.2010033698882E+01
 0.2030151269395E+01
 0.2089223716104E+01
 0.2193472339659E+01
 0.2347806503765E+01
 0.2554875673684E+01
 0.2814423577076E+01
 0.3122957123176E+01
 0.3473757841464E+01
 0.3857164556606E+01
 0.4261078831238E+01
 0.4671690480274E+01
 0.5074379479752E+01
 0.5454741930206E+01
 0.5799600600065E+01
 0.2735028661363E+01
 0.2800721246465E+01
 0.2866823768879E+01
 0.2929907278013E+01
 0.2986663821272E+01
 0.3034193463020E+01
 0.3070205711208E+01
 0.3093104194599E+01
 0.3101965623308E+01
 0.3096449025936E+01
 0.3076677274770E+01
 0.3043125414273E+01
 0.2996536439829E+01
 0.2937872503999E+01
 0.2868302646619E+01
 0.2789210786435E+01
 0.2702220286152E+01
 0.2609224565078E+01
 0.2512406103801E+01
 0.2414258733840E+01
 0.2317648765347E+01
 0.2225820159544E+01
 0.2142312943107E+01
 0.2070976081808E+01
 0.2016079736315E+01
 0.1982469696516E+01
 0.1975683473059E+01
 0.2001898292183E+01
 0.2067563848754E+01
 0.2178651850174E+01
 0.2339656754969E+01
 0.2552704840194E+01
 0.2817004785560E+01
 0.3128618072781E+01
 0.3480553757079E+01
 0.3863105511078E+01
 0.4264381248057E+01
 0.4671019257939E+01
 0.5069044431787E+01
 0.5444815693452E+01
 0.5785936641704E+01
 0.2667269999220E+01
 0.2731052515279E+01
 0.2794925972981E+01
 0.2855705499774E+01
 0.2910325596714E+01
 0.2956084160521E+01
 0.2990818888746E+01
 0.3012987867225E+01
 0.3021660695754E+01
 0.3016448157260E+01
 0.2997405079243E+01
 0.2964936158302E+01
 0.2919723456034E+01
 0.2862683586367E+01
 0.2794956726931E+01
 0.2717912924265E+01
 0.2633173291677E+01
 0.2542636911378E+01
 0.2448496973486E+01
 0.2353258813119E+01
 0.2259788646141E+01
 0.2171323782870E+01
 0.2091414964772E+01
 0.2023948114781E+01
 0.1973252583996E+01
 0.1944244972030E+01
 0.1942523900550E+01
 0.1974279904148E+01
 0.2045877156678E+01
 0.2163061902293E+01
 0.2329964787547E+01
 0.2548265540127E+01
 0.2816728134989E+01
 0.3131054729891E+01
 0.3484046009426E+01
 0.3865979015884E+01
 0.4265152961991E+01
 0.4668594822747E+01
 0.5062876555132E+01
 0.5434998012932E+01
 0.5773216359890E+01
 0.2599966446423E+01
 0.2662059672984E+01
 0.2723922099763E+01
 0.2782595569333E+01
 0.2835242628728E+01
 0.2879352373741E+01
 0.2912893247182E+01
 0.2934387762585E+01
 0.2942912256359E+01
 0.2938043276255E+01
 0.2919778946990E+01
 0.2888460704722E+01
 0.2844712049734E+01
 0.2789402055063E+01
 0.2723636462065E+01
 0.2648763315193E+01
 0.2566391812182E+01
 0.2478416361014E+01
 0.2387030464590E+01
 0.2294740975366E+01
 0.2204405358524E+01
 0.2119246675289E+01
 0.2042818091581E+01
 0.1979032702174E+01
 0.1932268106945E+01
 0.1907500636196E+01
 0.1910380791665E+01
 0.1947108959956E+01
 0.2023972776170E+01
 0.2146522432374E+01
 0.2318579098486E+01
 0.2541451241550E+01
 0.2813541860042E+01
 0.3130269557779E+01
 0.3484279366126E+01
 0.3865850424774E+01
 0.4263452142645E+01
 0.4664439419465E+01
 0.5055837690158E+01
 0.5425174199461E+01
 0.5761242895696E+01
 0.2533059076216E+01
 0.2593671040064E+01
 0.2653727691133E+01
 0.2710483592648E+01
 0.2761317447703E+01
 0.2803903801857E+01
 0.2836343606283E+01
 0.2857231838224E+01
 0.2865663076550E+01
 0.2861191508977E+01
 0.2843768313124E+01
 0.2813677803074E+01
 0.2771486901985E+01
 0.2718015164366E+01
 0.2654328601831E+01
 0.2581745526944E+01
 0.2501853969710E+01
 0.2416533687134E+01
 0.2327968381927E+01
 0.2238656661636E+01
 0.2151438757849E+01
 0.2069516021470E+01
 0.1996435894143E+01
 0.1936129029604E+01
 0.1893010581108E+01
 0.1872106048317E+01
 0.1879109842274E+01
 0.1920231342907E+01
 0.2001694659155E+01
 0.2128887640825E+01
 0.2305378607195E+01
 0.2532178405230E+01
 0.2807406973912E+01
 0.3126266620713E+01
 0.3481290377761E+01
 0.3862770596787E+01
 0.4259321180302E+01
 0.4658563538282E+01
 0.5047886337619E+01
 0.5415237124756E+01
 0.5749837872231E+01
 0.2466489977989E+01
 0.2525816495749E+01
 0.2584260319826E+01
 0.2639277667579E+01
 0.2688453776645E+01
 0.2729643809224E+01
 0.2761082458658E+01
 0.2781443628681E+01
 0.2789849635167E+01
 0.2785842270267E+01
 0.2769334041552E+01
 0.2740557347519E+01
 0.2700024094130E+01
 0.2648502306078E+01
 0.2587013190904E+01
 0.2516837945165E+01
 0.2439534551862E+01
 0.2356958476761E+01
 0.2271273787094E+01
 0.2184961313342E+01
 0.2100835755279E+01
 0.2022069435820E+01
 0.1952196047600E+01
 0.1895154299068E+01
 0.1855386324734E+01
 0.1837956558290E+01
 0.1848596318663E+01
 0.1893525253469E+01
 0.1978920271145E+01
 0.2110043992401E+01
 0.2290270097111E+01
 0.2520383797149E+01
 0.2798295037843E+01
 0.3119050329392E+01
 0.3475107366213E+01
 0.3856777062141E+01
 0.4252788668425E+01
 0.4650968194939E+01
 0.5038979742254E+01
 0.5405088785854E+01
 0.5738842374769E+01
 0.2400201806708E+01
 0.2458426854122E+01
 0.2515438825220E+01
 0.2568887091008E+01
 0.2616555855051E+01
 0.2656476986720E+01
 0.2687019825833E+01
 0.2706942385008E+01
 0.2715402482251E+01
 0.2711937773766E+01
 0.2696429007934E+01
 0.2669060976782E+01
 0.2630291688953E+01
 0.2580835553461E+01
 0.2521664069852E+01
 0.2454014234256E+01
 0.2379405439534E+01
 0.2299659532947E+01
 0.2216911378710E+01
 0.2133614726915E+01
 0.2052550635005E+01
 0.1976855224974E+01
 0.1910040522272E+01
 0.1856043836402E+01
 0.1819323716088E+01
 0.1804973416512E+01
 0.1818754798594E+01
 0.1866900655140E+01
 0.1955559584865E+01
 0.2089908682427E+01
 0.2273186282451E+01
 0.2506022502707E+01
 0.2786186570419E+01
 0.3108624624564E+01
 0.3465750565991E+01
 0.3847895060898E+01
 0.4243871068851E+01
 0.4641646841322E+01
 0.5029075687327E+01
 0.5394641753772E+01
 0.5728118031459E+01
 0.2334137384585E+01
 0.2391433314022E+01
 0.2447182637179E+01
 0.2499221649088E+01
 0.2545527819627E+01
 0.2584306730316E+01
 0.2614063091112E+01
 0.2633643159838E+01
 0.2642246530152E+01
 0.2639413462312E+01
 0.2624998602811E+01
 0.2599142596233E+01
 0.2562250235024E+01
 0.2514980127253E+01
 0.2458249294923E+01
 0.2393243711737E+01
 0.2321435941492E+01
 0.2244605175935E+01
 0.2164847763328E+01
 0.2084581291504E+01
 0.2006545249530E+01
 0.1933832528486E+01
 0.1869925660723E+01
 0.1818751104877E+01
 0.1784773151973E+01
 0.1773103678051E+01
 0.1789528983850E+01
 0.1840298899549E+01
 0.1931554394492E+01
 0.2068428582495E+01
 0.2254084484482E+01
 0.2489066591169E+01
 0.2771070021188E+01
 0.3094992523014E+01
 0.3453232364904E+01
 0.3836138433697E+01
 0.4232574067458E+01
 0.4630586927628E+01
 0.5018134018996E+01
 0.5383820512338E+01
 0.5717548175317E+01
 0.2268239345952E+01
 0.2324766969383E+01
 0.2379411172100E+01
 0.2430190976801E+01
 0.2475273134348E+01
 0.2513034837457E+01
 0.2542116816571E+01
 0.2561456848826E+01
 0.2570301282886E+01
 0.2568198367433E+01
 0.2554981160527E+01
 0.2530748824790E+01
 0.2495853194753E+01
 0.2450894782895E+01
 0.2396731474909E+01
 0.2334491634207E+01
 0.2265593033986E+01
 0.2191763442127E+01
 0.2115051616891E+01
 0.2037830111120E+01
 0.1962789096006E+01
 0.1892971341823E+01
 0.1831822145432E+01
 0.1783247627800E+01
 0.1751706947983E+01
 0.1742320101385E+01
 0.1760891587797E+01
 0.1813692541066E+01
 0.1906877965017E+01
 0.2045579673306E+01
 0.2232945905027E+01
 0.2469504393975E+01
 0.2752941256810E+01
 0.3078155974698E+01
 0.3437557607792E+01
 0.3821510349853E+01
 0.4218893624116E+01
 0.4617771128566E+01
 0.5006117910382E+01
 0.5372562684089E+01
 0.5707039066231E+01
 0.2202449817545E+01
 0.2258358368552E+01
 0.2312043287556E+01
 0.2361703974670E+01
 0.2405694062866E+01
 0.2442561121152E+01
 0.2471082550158E+01
 0.2490290197992E+01
 0.2499481013974E+01
 0.2498215406726E+01
 0.2486308320257E+01
 0.2463819370446E+01
 0.2431047297844E+01
 0.2388532119177E+01
 0.2337068024432E+01
 0.2277719393811E+01
 0.2211841504347E+01
 0.2141102180304E+01
 0.2067493737201E+01
 0.1993335013026E+01
 0.1921259276752E+01
 0.1854252425532E+01
 0.1795714860368E+01
 0.1749522821221E+01
 0.1720119178344E+01
 0.1712621037448E+01
 0.1732844295327E+01
 0.1787085344076E+01
 0.1881535024994E+01
 0.2021366970584E+01
 0.2209775491545E+01
 0.2447340376482E+01
 0.2731803529716E+01
 0.3058116000593E+01
 0.3418723940485E+01
 0.3804003861265E+01
 0.4202816715644E+01
 0.4603178237779E+01
 0.4992994867576E+01
 0.5360820135616E+01
 0.5696521149393E+01
 0.2136710127452E+01
 0.2192137112896E+01
 0.2244996784110E+01
 0.2293668272523E+01
 0.2336691177677E+01
 0.2372783042374E+01
 0.2400858629215E+01
 0.2420045786977E+01
 0.2429694903984E+01
 0.2429381629623E+01
 0.2418905327843E+01
 0.2398287340993E+01
 0.2367772824873E+01
 0.2327838811600E+01
 0.2279211335948E+01
 0.2222884626958E+01
 0.2160144000206E+01
 0.2092589047146E+01
 0.2022146990293E+01
 0.1951074446461E+01
 0.1881940349190E+01
 0.1817667106261E+01
 0.1761602651164E+01
 0.1717583738492E+01
 0.1690025452613E+01
 0.1684030302280E+01
 0.1705417788178E+01
 0.1760512480472E+01
 0.1855562106908E+01
 0.1995824951471E+01
 0.2184602398538E+01
 0.2422595602082E+01
 0.2707667923353E+01
 0.3034873103262E+01
 0.3396722186022E+01
 0.3783602275520E+01
 0.4184321767534E+01
 0.4586783728640E+01
 0.4978737474821E+01
 0.5348559952618E+01
 0.5685950328369E+01
 0.2070960536683E+01
 0.2126031485756E+01
 0.2178187943571E+01
 0.2225989730475E+01
 0.2268162899941E+01
 0.2303595359935E+01
 0.2331339984575E+01
 0.2350621995707E+01
 0.2360847146510E+01
 0.2361608419700E+01
 0.2352691284917E+01
 0.2334079494387E+01
 0.2305963823433E+01
 0.2268755771214E+01
 0.2223108869962E+01
 0.2169941233988E+01
 0.2110460982725E+01
 0.2046191400607E+01
 0.1978986149980E+01
 0.1911031272013E+01
 0.1844824066565E+01
 0.1783216971437E+01
 0.1729497984672E+01
 0.1687454724174E+01
 0.1661462621286E+01
 0.1656597019533E+01
 0.1678671819058E+01
 0.1734040904041E+01
 0.1829028230332E+01
 0.1969018486319E+01
 0.2157481057294E+01
 0.2395308804160E+01
 0.2680554289513E+01
 0.3008427961891E+01
 0.3371536757390E+01
 0.3760279343504E+01
 0.4163378763959E+01
 0.4568559970656E+01
 0.4963323869275E+01
 0.5335765270108E+01
 0.5675309231598E+01
 0.2005139987704E+01
 0.2059968103428E+01
 0.2111531093716E+01
 0.2158571967914E+01
 0.2200005064111E+01
 0.2234889796811E+01
 0.2262417948849E+01
 0.2281912961248E+01
 0.2292837030654E+01
 0.2294801661211E+01
 0.2287579351561E+01
 0.2271116433086E+01
 0.2245548259247E+01
 0.2211218229622E+01
 0.2168703162759E+01
 0.2118839308060E+01
 0.2062750581535E+01
 0.2001876088840E+01
 0.1937987628751E+01
 0.1873192440743E+01
 0.1809909009564E+01
 0.1750913458249E+01
 0.1699426507603E+01
 0.1659176973580E+01
 0.1634488400169E+01
 0.1630395414468E+01
 0.1652695310014E+01
 0.1707769877696E+01
 0.1802035913495E+01
 0.1941044277700E+01
 0.2128492873047E+01
 0.2365538098058E+01
 0.2650492715100E+01
 0.2978782443948E+01
 0.3343146123508E+01
 0.3733999258047E+01
 0.4139949017735E+01
 0.4548476080578E+01
 0.4946737928962E+01
 0.5322435940814E+01
 0.5664608447119E+01
 0.1939185864687E+01
 0.1993871580869E+01
 0.2044938191053E+01
 0.2091315913364E+01
 0.2132110503947E+01
 0.2166554724520E+01
 0.2193980075322E+01
 0.2213808534769E+01
 0.2225559011624E+01
 0.2228861881612E+01
 0.2223476913314E+01
 0.2209312751632E+01
 0.2186448109783E+01
 0.2155155755964E+01
 0.2115931755943E+01
 0.2069524976368E+01
 0.2016968353686E+01
 0.1959609136585E+01
 0.1899129102079E+01
 0.1837548565694E+01
 0.1777200112325E+01
 0.1720777340995E+01
 0.1671426507694E+01
 0.1632807998160E+01
 0.1609180906650E+01
 0.1605524542064E+01
 0.1627606447402E+01
 0.1681831622864E+01
 0.1774722492710E+01
 0.1912032809226E+01
 0.2097748581002E+01
 0.2333363389190E+01
 0.2617525586647E+01
 0.2945940996167E+01
 0.3311523367506E+01
 0.3704716468940E+01
 0.4113984578329E+01
 0.4526497380666E+01
 0.4928969154850E+01
 0.5308589026452E+01
 0.5653887702130E+01
 0.1873033760166E+01
 0.1927664202938E+01
 0.1978318410047E+01
 0.2024119363606E+01
 0.2064368650664E+01
 0.2098474859825E+01
 0.2125909965002E+01
 0.2146194238127E+01
 0.2158902769363E+01
 0.2163684369009E+01
 0.2160285709632E+01
 0.2148577132392E+01
 0.2128579393025E+01
 0.2100492196469E+01
 0.2064727036578E+01
 0.2021940141070E+01
 0.1973066933110E+01
 0.1919355315233E+01
 0.1862389012645E+01
 0.1804093373242E+01
 0.1746708071690E+01
 0.1692838107101E+01
 0.1645548268230E+01
 0.1608420985378E+01
 0.1585638089483E+01
 0.1582107917958E+01
 0.1603552726536E+01
 0.1656392034611E+01
 0.1747261700550E+01
 0.1882150782702E+01
 0.2065391279446E+01
 0.2298889532422E+01
 0.2581710328178E+01
 0.2909912486039E+01
 0.3276636877209E+01
 0.3672375305633E+01
 0.4085427228066E+01
 0.4502584405870E+01
 0.4910012213012E+01
 0.5294259078584E+01
 0.5643216967887E+01
 0.1806617242478E+01
 0.1861265594698E+01
 0.1911577732207E+01
 0.1956876548060E+01
 0.1996665144190E+01
 0.2030530980810E+01
 0.2058087114375E+01
 0.2078951236653E+01
 0.2092753274081E+01
 0.2099159284247E+01
 0.2097901943307E+01
 0.2088812408025E+01
 0.2071852148618E+01
 0.2047145552131E+01
 0.2015016001741E+01
 0.1976022132013E+01
 0.1930995581085E+01
 0.1881077605763E+01
 0.1827745962836E+01
 0.1772823042323E+01
 0.1718448648086E+01
 0.1667133231094E+01
 0.1621853325821E+01
 0.1586104061520E+01
 0.1563977053895E+01
 0.1560293039610E+01
 0.1580710913010E+01
 0.1631651413414E+01
 0.1719865457957E+01
 0.1851604032495E+01
 0.2031600183713E+01
 0.2262250341635E+01
 0.2543122946103E+01
 0.2870712628131E+01
 0.3238451263377E+01
 0.3636909433663E+01
 0.4054207024742E+01
 0.4476691399365E+01
 0.4889866105340E+01
 0.5279498212803E+01
 0.5632697395599E+01
 0.1739867619080E+01
 0.1794592383011E+01
 0.1844618526449E+01
 0.1889477691908E+01
 0.1928881455592E+01
 0.1962599665696E+01
 0.1990386791791E+01
 0.2011956338957E+01
 0.2026990870704E+01
 0.2035171779546E+01
 0.2036216381788E+01
 0.2029915600179E+01
 0.2016170379093E+01
 0.1995027800234E+01
 0.1966719951083E+01
 0.1931703272783E+01
 0.1890699637387E+01
 0.1844736552739E+01
 0.1795177992703E+01
 0.1743735428473E+01
 0.1692441855709E+01
 0.1643707345987E+01
 0.1600413633325E+01
 0.1565959460390E+01
 0.1544333280865E+01
 0.1540250782449E+01
 0.1559286880632E+01
 0.1607845148484E+01
 0.1692785811780E+01
 0.1820640884321E+01
 0.1996595137572E+01
 0.2223613562336E+01
 0.2501862547594E+01
 0.2828367172474E+01
 0.3196928640628E+01
 0.3598241188005E+01
 0.4020240331254E+01
 0.4448764198223E+01
 0.4868532930974E+01
 0.5264375958184E+01
 0.5622462112758E+01
 0.1672713688585E+01
 0.1727557837922E+01
 0.1777339106907E+01
 0.1821808565327E+01
 0.1860894511819E+01
 0.1894553049934E+01
 0.1922679941154E+01
 0.1945082023692E+01
 0.1961491381811E+01
 0.1971602121845E+01
 0.1975114446668E+01
 0.1971777928499E+01
 0.1961431942933E+01
 0.1944044649033E+01
 0.1919754094250E+01
 0.1888910344568E+01
 0.1852119854532E+01
 0.1810289490049E+01
 0.1764661722844E+01
 0.1716829151648E+01
 0.1668711021588E+01
 0.1622611293797E+01
 0.1581310613063E+01
 0.1548102586179E+01
 0.1526859727033E+01
 0.1522174643542E+01
 0.1539515267865E+01
 0.1585244255781E+01
 0.1666316901214E+01
 0.1789555870850E+01
 0.1960641873974E+01
 0.2183186897916E+01
 0.2458056999928E+01
 0.2782916049267E+01
 0.3152030425724E+01
 0.3556280825331E+01
 0.3983427222428E+01
 0.4418737325354E+01
 0.4846016145595E+01
 0.5248978891615E+01
 0.5612676711733E+01
 0.1605081474733E+01
 0.1660071484924E+01
 0.1709633259592E+01
 0.1753750014848E+01
 0.1792576326270E+01
 0.1826258612616E+01
 0.1854833129626E+01
 0.1878196513222E+01
 0.1896126250371E+01
 0.1908325842418E+01
 0.1914476312494E+01
 0.1914284810283E+01
 0.1907528418458E+01
 0.1894095242636E+01
 0.1874027087734E+01
 0.1847563959589E+01
 0.1815191623844E+01
 0.1777689644205E+01
 0.1736171365365E+01
 0.1692102548948E+01
 0.1647281713847E+01
 0.1603901056748E+01
 0.1564634105851E+01
 0.1532660981644E+01
 0.1511725819212E+01
 0.1506279837607E+01
 0.1521658926895E+01
 0.1564155696264E+01
 0.1640796842845E+01
 0.1758693714721E+01
 0.1924058029234E+01
 0.2141225225423E+01
 0.2411869980141E+01
 0.2734418773021E+01
 0.3103719928937E+01
 0.3510925839678E+01
 0.3943648186253E+01
 0.4386530037276E+01
 0.4822318190465E+01
 0.5233410110554E+01
 0.5603539281728E+01
 0.1536893933791E+01
 0.1592038673903E+01
 0.1641389722065E+01
 0.1685177464550E+01
 0.1723793629383E+01
 0.1757578992554E+01
 0.1786708543164E+01
 0.1811163898698E+01
 0.1830762725669E+01
 0.1845213914412E+01
 0.1854177014821E+01
 0.1857315848961E+01
 0.1854344934844E+01
 0.1845071810184E+01
 0.1829440492648E+01
 0.1807577832758E+01
 0.1779844079265E+01
 0.1746885098480E+01
 0.1709677583868E+01
 0.1669552471369E+01
 0.1628180517674E+01
 0.1587636549377E+01
 0.1550481201155E+01
 0.1519773195432E+01
 0.1499116345326E+01
 0.1492802243851E+01
 0.1506008133543E+01
 0.1544922380450E+01
 0.1616609375658E+01
 0.1728453414283E+01
 0.1887219838066E+01
 0.2098039089291E+01
 0.2363509658375E+01
 0.2682961437874E+01
 0.3051966069200E+01
 0.3462060548946E+01
 0.3900760020824E+01
 0.4352040893250E+01
 0.4797437178377E+01
 0.5217788641910E+01
 0.5595279706849E+01
 0.1468070624664E+01
 0.1523360089651E+01
 0.1572491601065E+01
 0.1615960378661E+01
 0.1654407500759E+01
 0.1688371844079E+01
 0.1718164044686E+01
 0.1743844332495E+01
 0.1765264107701E+01
 0.1782132972470E+01
 0.1794086580689E+01
 0.1800744823675E+01
 0.1801759981215E+01
 0.1796859268200E+01
 0.1785888159461E+01
 0.1768857954146E+01
 0.1745999077659E+01
 0.1717817612776E+01
 0.1685146193484E+01
 0.1649172912056E+01
 0.1611433643936E+01
 0.1573880256334E+01
 0.1538954937475E+01
 0.1509587547812E+01
 0.1489230254791E+01
 0.1481997223261E+01
 0.1492879556001E+01
 0.1527922789715E+01
 0.1594185103833E+01
 0.1699292228336E+01
 0.1850569389948E+01
 0.2054004551016E+01
 0.2313239308064E+01
 0.2628665735624E+01
 0.2996748681044E+01
 0.3409556343878E+01
 0.3854590961623E+01
 0.4315140218465E+01
 0.4771361967393E+01
 0.5202248925783E+01
 0.5588157731444E+01
 0.1398527329679E+01
 0.1453931187694E+01
 0.1502815714083E+01
 0.1545961681800E+01
 0.1584273012644E+01
 0.1618489753530E+01
 0.1649053321425E+01
 0.1676094315716E+01
 0.1699490076960E+01
 0.1718945600477E+01
 0.1734070207119E+01
 0.1744439705163E+01
 0.1749645218022E+01
 0.1749334798151E+01
 0.1743255558142E+01
 0.1731301676047E+01
 0.1713570064102E+01
 0.1690421302043E+01
 0.1662536697971E+01
 0.1630953457277E+01
 0.1597065356570E+01
 0.1562695699359E+01
 0.1530162858930E+01
 0.1502260791511E+01
 0.1482279384625E+01
 0.1474138342371E+01
 0.1482615013453E+01
 0.1513570182963E+01
 0.1574002187842E+01
 0.1671729320202E+01
 0.1814622265617E+01
 0.2009574446698E+01
 0.2261390191066E+01
 0.2571700556372E+01
 0.2938066046732E+01
 0.3353273252751E+01
 0.3804935437650E+01
 0.4275659723435E+01
 0.4744064117448E+01
 0.5186940485265E+01
 0.5582458519043E+01
 0.1328175609614E+01
 0.1383641530339E+01
 0.1432231830206E+01
 0.1475037122245E+01
 0.1513238884112E+01
 0.1547780225393E+01
 0.1579226132440E+01
 0.1607767088701E+01
 0.1633297113233E+01
 0.1655510687777E+01
 0.1673988486233E+01
 0.1688262695693E+01
 0.1697865287454E+01
 0.1702367394018E+01
 0.1701419045436E+01
 0.1694796702289E+01
 0.1682460805263E+01
 0.1664621151749E+01
 0.1641800637629E+01
 0.1614877528894E+01
 0.1585096182671E+01
 0.1554145693876E+01
 0.1524215389430E+01
 0.1497956638980E+01
 0.1478487105159E+01
 0.1469516028125E+01
 0.1475580062814E+01
 0.1502311374663E+01
 0.1556586322647E+01
 0.1646348731721E+01
 0.1779975209384E+01
 0.1965290945854E+01
 0.2208376990127E+01
 0.2512296757443E+01
 0.2875945339376E+01
 0.3293063585994E+01
 0.3751549469221E+01
 0.4233378860486E+01
 0.4715483518525E+01
 0.5172026867037E+01
 0.5578483349049E+01
 0.1256922270737E+01
 0.1312373995354E+01
 0.1360601786618E+01
 0.1403034570319E+01
 0.1441147158806E+01
 0.1476085764363E+01
 0.1508528685075E+01
 0.1538713149908E+01
 0.1566539024549E+01
 0.1591683872535E+01
 0.1613697695269E+01
 0.1632070311806E+01
 0.1646277641611E+01
 0.1655817396963E+01
 0.1660245082578E+01
 0.1659219987612E+01
 0.1652563992254E+01
 0.1640331364902E+01
 0.1622879735345E+01
 0.1600920397896E+01
 0.1575540876462E+01
 0.1548290358652E+01
 0.1521223983785E+01
 0.1496844120789E+01
 0.1478086872541E+01
 0.1468436183199E+01
 0.1472162485125E+01
 0.1494625138346E+01
 0.1542509909663E+01
 0.1623801352864E+01
 0.1747313386080E+01
 0.1921799180640E+01
 0.2154716047459E+01
 0.2450765814208E+01
 0.2810456898577E+01
 0.3228778431881E+01
 0.3694148514080E+01
 0.4188009881214E+01
 0.4685501883606E+01
 0.5157679193134E+01
 0.5576527620854E+01
 0.1184668713675E+01
 0.1240003820609E+01
 0.1287778444352E+01
 0.1329793230599E+01
 0.1367832909648E+01
 0.1403244067353E+01
 0.1436804150600E+01
 0.1468780903934E+01
 0.1499067578198E+01
 0.1527318059258E+01
 0.1553050137283E+01
 0.1575713496553E+01
 0.1594732376221E+01
 0.1609536004736E+01
 0.1619589389201E+01
 0.1624436529494E+01
 0.1623759691413E+01
 0.1617453515415E+01
 0.1605703812180E+01
 0.1589046936577E+01
 0.1568406099672E+01
 0.1545184834836E+01
 0.1521299007180E+01
 0.1499095728798E+01
 0.1481320661556E+01
 0.1471218783624E+01
 0.1472770762103E+01
 0.1491020353788E+01
 0.1532390412810E+01
 0.1604805554701E+01
 0.1717416602283E+01
 0.1879861434432E+01
 0.2101046473898E+01
 0.2387523051438E+01
 0.2741733355103E+01
 0.3160277880849E+01
 0.3632408290357E+01
 0.4139190006539E+01
 0.4653900189048E+01
 0.5144043873643E+01
 0.5576819720105E+01
 0.1111310112731E+01
 0.1166397463650E+01
 0.1213604452351E+01
 0.1255142767841E+01
 0.1293124016827E+01
 0.1329088386508E+01
 0.1363893379491E+01
 0.1397817491247E+01
 0.1430733280187E+01
 0.1462264055443E+01
 0.1491894579792E+01
 0.1519037811928E+01
 0.1543072122742E+01
 0.1563364807625E+01
 0.1579296080030E+01
 0.1590298090182E+01
 0.1595913669844E+01
 0.1595874522963E+01
 0.1590188475709E+01
 0.1579209100240E+01
 0.1563687794952E+01
 0.1544876674838E+01
 0.1524547286918E+01
 0.1504885276687E+01
 0.1488437218367E+01
 0.1478196444118E+01
 0.1477832624092E+01
 0.1492034080498E+01
 0.1526888040625E+01
 0.1590146299003E+01
 0.1691163847077E+01
 0.1840371207005E+01
 0.2048154069657E+01
 0.2323116451818E+01
 0.2669994871059E+01
 0.3087446624860E+01
 0.3565967986786E+01
 0.4086484817713E+01
 0.4620342014588E+01
 0.5131117026459E+01
 0.5579289556341E+01
 0.1036734323927E+01
 0.1091411336282E+01
 0.1137910717175E+01
 0.1178902357559E+01
 0.1216841066245E+01
 0.1253448119583E+01
 0.1289635863848E+01
 0.1325669829818E+01
 0.1361386322023E+01
 0.1396371342545E+01
 0.1430076808480E+01
 0.1461883732747E+01
 0.1491132023575E+01
 0.1517135375967E+01
 0.1539196805413E+01
 0.1556641861975E+01
 0.1568875598575E+01
 0.1575464442383E+01
 0.1576232564043E+01
 0.1571343113265E+01
 0.1561368215694E+01
 0.1547402849928E+01
 0.1531069267089E+01
 0.1514385389454E+01
 0.1499690037547E+01
 0.1489712886839E+01
 0.1487793707602E+01
 0.1498229758332E+01
 0.1526703028779E+01
 0.1580672705273E+01
 0.1669535482494E+01
 0.1804366075190E+01
 0.1996997665445E+01
 0.2258261631625E+01
 0.2595583108251E+01
 0.3010214021434E+01
 0.3494441886621E+01
 0.4029385398714E+01
 0.4584424214651E+01
 0.5118865831328E+01
 0.5581545118032E+01
 0.9608193142278E+00
 0.1014862185416E+01
 0.1060467070030E+01
 0.1100811542444E+01
 0.1138709129988E+01
 0.1176042392213E+01
 0.1213746409313E+01
 0.1252046269374E+01
 0.1290725719277E+01
 0.1329327728851E+01
 0.1367273272835E+01
 0.1403918160081E+01
 0.1438573347134E+01
 0.1470509518157E+01
 0.1498962412371E+01
 0.1523158355992E+01
 0.1542367824683E+01
 0.1555990311770E+01
 0.1563660482808E+01
 0.1565342639651E+01
 0.1561421077590E+01
 0.1552826767423E+01
 0.1541026448428E+01
 0.1527862346760E+01
 0.1515454533626E+01
 0.1506254606316E+01
 0.1503252170165E+01
 0.1510318442768E+01
 0.1532661808407E+01
 0.1577323310898E+01
 0.1653551353057E+01
 0.1772856371103E+01
 0.1948411696955E+01
 0.2193410628115E+01
 0.2518404383759E+01
 0.2927917733076E+01
 0.3416760643850E+01
 0.3966810407311E+01
 0.4545364604335E+01
 0.5107031428627E+01
 0.5588235405525E+01
 0.8834257358683E+00
 0.9365751597459E+00
 0.9810688665968E+00
 0.1020659257497E+01
 0.1058528097325E+01
 0.1096689265941E+01
 0.1136059301024E+01
 0.1176790984422E+01
 0.1218598522029E+01
 0.1260977263526E+01
 0.1303320811219E+01
 0.1344968264350E+01
 0.1385213015351E+01
 0.1423295489887E+01
 0.1458396546953E+01
 0.1489653238961E+01
 0.1516206920199E+01
 0.1537290041935E+01
 0.1552342721550E+01
 0.1561122355304E+01
 0.1563817132635E+01
 0.1561187366029E+01
 0.1554538171500E+01
 0.1545527825694E+01
 0.1536045951075E+01
 0.1528251171761E+01
 0.1524763866000E+01
 0.1528998844163E+01
 0.1545630482816E+01
 0.1581160792834E+01
 0.1644482674000E+01
 0.1747270830333E+01
 0.1903823494451E+01
 0.2129731420210E+01
 0.2439101339607E+01
 0.2840529179414E+01
 0.3332328787618E+01
 0.3897897916083E+01
 0.4502901667392E+01
 0.5095047447010E+01
 0.5614297065644E+01
 0.8044216880572E+00
 0.8563918508600E+00
 0.8995475428400E+00
 0.9382933284524E+00
 0.9761826787403E+00
 0.1015315291969E+01
 0.1056536624872E+01
 0.1099890519599E+01
 0.1145004381227E+01
 0.1191322757268E+01
 0.1238217037111E+01
 0.1285019532803E+01
 0.1331018953814E+01
 0.1375440123402E+01
 0.1417423928177E+01
 0.1456031086921E+01
 0.1490282315035E+01
 0.1519245489470E+01
 0.1542163123845E+01
 0.1558579335247E+01
 0.1568479485317E+01
 0.1572448332947E+01
 0.1571625186479E+01
 0.1567477845762E+01
 0.1561655273379E+01
 0.1556010197887E+01
 0.1552778818147E+01
 0.1554897845496E+01
 0.1566462213327E+01
 0.1593331427826E+01
 0.1643837013517E+01
 0.1729495271212E+01
 0.1865383764814E+01
 0.2069355219976E+01
 0.2359399905969E+01
 0.2749056109304E+01
 0.3241358176737E+01
 0.3822437034925E+01
 0.4456651286298E+01
 0.5086611232536E+01
 0.5647441374040E+01
 0.7236515018077E+00
 0.7741023777232E+00
 0.8156637295578E+00
 0.8534795117976E+00
 0.8914666785430E+00
 0.9317459644234E+00
 0.9750268248549E+00
 0.1021204155964E+01
 0.1069802811540E+01
 0.1120216077007E+01
 0.1171800623362E+01
 0.1223893711987E+01
 0.1275793968256E+01
 0.1326727371433E+01
 0.1375812504000E+01
 0.1422049974192E+01
 0.1464351561965E+01
 0.1501625481806E+01
 0.1532914978936E+01
 0.1557545228052E+01
 0.1575292556273E+01
 0.1586561879584E+01
 0.1592323157964E+01
 0.1593847337185E+01
 0.1592531880638E+01
 0.1589909769583E+01
 0.1587818274811E+01
 0.1588698215382E+01
 0.1596030494638E+01
 0.1614947072792E+01
 0.1653026505520E+01
 0.1721277490887E+01
 0.1835094272022E+01
 0.2014253185704E+01
 0.2280792201272E+01
 0.2654103475331E+01
 0.3143483825241E+01
 0.3739434457101E+01
 0.4406244466086E+01
 0.5081324867588E+01
 0.5687784712364E+01
 0.6409413207783E+00
 0.6894712976147E+00
 0.7291523694250E+00
 0.7659682410620E+00
 0.8041710235744E+00
 0.8458123093767E+00
 0.8913871528775E+00
 0.9405997882068E+00
 0.9928601135136E+00
 0.1047513402838E+01
 0.1103911702265E+01
 0.1161410664018E+01
 0.1219334929170E+01
 0.1276930357939E+01
 0.1333313763915E+01
 0.1387445589736E+01
 0.1438144289142E+01
 0.1484166432393E+01
 0.1524356127478E+01
 0.1557814821924E+01
 0.1584104195614E+01
 0.1603445772248E+01
 0.1616637446014E+01
 0.1624747226230E+01
 0.1628909660375E+01
 0.1630323082832E+01
 0.1630410842057E+01
 0.1631103050598E+01
 0.1635242014324E+01
 0.1647167845980E+01
 0.1673541338625E+01
 0.1724515429541E+01
 0.1815244341608E+01
 0.1966851116268E+01
 0.2205303776743E+01
 0.2556694906338E+01
 0.3038441815556E+01
 0.3647726942858E+01
 0.4350553354248E+01
 0.5077987456866E+01
 0.5736443210572E+01
 0.5560948125304E+00
 0.6022307044478E+00
 0.6397183061646E+00
 0.6754945908890E+00
 0.7140871452033E+00
 0.7573551024777E+00
 0.8054871516572E+00
 0.8579563997208E+00
 0.9140511452037E+00
 0.9730766450067E+00
 0.1034393135983E+01
 0.1097389545040E+01
 0.1161433767412E+01
 0.1225811958834E+01
 0.1289662571303E+01
 0.1351929994086E+01
 0.1411359703437E+01
 0.1466568635349E+01
 0.1516204257044E+01
 0.1559140592282E+01
 0.1594719705785E+01
 0.1622976988892E+01
 0.1644536490486E+01
 0.1660257602981E+01
 0.1671000066020E+01
 0.1677611706171E+01
 0.1681086622446E+01
 0.1682831798880E+01
 0.1685035186976E+01
 0.1691201409495E+01
 0.1706943666027E+01
 0.1741240610890E+01
 0.1808400333430E+01
 0.1930075228486E+01
 0.2135634532949E+01
 0.2458456387575E+01
 0.2926206314165E+01
 0.3545871025535E+01
 0.4287625163902E+01
 0.5075490314946E+01
 0.5794896376934E+01
 0.4688870985636E+00
 0.5120716516098E+00
 0.5470309422010E+00
 0.5817794655613E+00
 0.6210121495143E+00
 0.6662303259065E+00
 0.7172126531504E+00
 0.7731666452579E+00
 0.8332610893074E+00
 0.8967748846597E+00
 0.9630918910899E+00
 0.1031650190482E+01
 0.1101878784562E+01
 0.1173125776364E+01
 0.1244577384395E+01
 0.1315190633023E+01
 0.1383664108415E+01
 0.1448492303844E+01
 0.1508131731085E+01
 0.1561226679354E+01
 0.1606895282811E+01
 0.1644984827510E+01
 0.1675944643438E+01
 0.1700420206301E+01
 0.1718984166782E+01
 0.1732117286841E+01
 0.1740369091871E+01
 0.1744613460887E+01
 0.1746376240439E+01
 0.1748302105102E+01
 0.1754864665461E+01
 0.1773602421710E+01
 0.1817380739244E+01
 0.1907373482870E+01
 0.2075306802571E+01
 0.2361875330433E+01
 0.2807199401031E+01
 0.3432141330877E+01
 0.4214840601521E+01
 0.5072597351082E+01
 0.5864952350971E+01
 0.3790564005615E+00
 0.4186330008992E+00
 0.4507183000121E+00
 0.4845328683014E+00
 0.5247565490417E+00
 0.5723160791800E+00
 0.6264701951602E+00
 0.6861394032500E+00
 0.7503871267299E+00
 0.8184857927573E+00
 0.8898604989188E+00
 0.9640147150561E+00
 0.1040456323545E+01
 0.1118617602337E+01
 0.1197761004194E+01
 0.1276889749248E+01
 0.1354688522294E+01
 0.1429553346033E+01
 0.1499759868684E+01
 0.1563722187813E+01
 0.1620330808296E+01
 0.1669243483114E+01
 0.1710734557201E+01
 0.1745230391412E+01
 0.1773003854982E+01
 0.1794151781134E+01
 0.1808764526607E+01
 0.1817176150471E+01
 0.1820250935557E+01
 0.1819767068865E+01
 0.1819003204218E+01
 0.1823857084452E+01
 0.1845222915594E+01
 0.1902701887363E+01
 0.2028799266932E+01
 0.2270638699314E+01
 0.2682640930924E+01
 0.3304691565698E+01
 0.4128830158012E+01
 0.5067665598207E+01
 0.5948797709279E+01
 0.2862928087881E+00
 0.3214872937290E+00
 0.3503609870204E+00
 0.3834608247805E+00
 0.4251556270663E+00
 0.4755211197412E+00
 0.5331916476860E+00
 0.5968021071230E+00
 0.6653399157456E+00
 0.7380969777354E+00
 0.8145585773560E+00
 0.8943093267985E+00
 0.9769528392182E+00
 0.1062027474706E+01
 0.1148902023067E+01
 0.1236664388638E+01
 0.1324026527846E+01
 0.1409318879984E+01
 0.1490652554271E+01
 0.1566213640714E+01
 0.1634661877067E+01
 0.1695464103529E+01
 0.1748719274856E+01
 0.1794628819584E+01
 0.1833152485006E+01
 0.1863986464313E+01
 0.1886749094310E+01
 0.1901232611567E+01
 0.1907650236599E+01
 0.1906925598872E+01
 0.1901121470285E+01
 0.1894361625347E+01
 0.1895151068978E+01
 0.1920474441873E+01
 0.2001630612735E+01
 0.2190039466985E+01
 0.2555119912212E+01
 0.3161857141751E+01
 0.4025284309621E+01
 0.5058282430974E+01
 0.6049123700570E+01
 0.1902255163603E+00
 0.2201261209549E+00
 0.2454873404444E+00
 0.2782787858955E+00
 0.3220861803213E+00
 0.3757952040278E+00
 0.4373387395364E+00
 0.5051026473592E+00
 0.5780447944858E+00
 0.6555072297218E+00
 0.7370544006923E+00
 0.8223663595585E+00
 0.9111574126896E+00
 0.1003092451220E+01
 0.1097677203462E+01
 0.1194127289508E+01
 0.1291232573926E+01
 0.1387302519283E+01
 0.1480309010459E+01
 0.1568216328584E+01
 0.1649450864249E+01
 0.1723286305715E+01
 0.1789644196339E+01
 0.1848493163257E+01
 0.1899465282102E+01
 0.1941840088825E+01
 0.1974753997421E+01
 0.1997461845865E+01
 0.2009548988124E+01
 0.2011118141470E+01
 0.2003030288555E+01
 0.1987566460523E+01
 0.1970552766688E+01
 0.1965489835890E+01
 0.2000353491903E+01
 0.2127401791262E+01
 0.2429456415450E+01
 0.3002737196678E+01
 0.3898732636839E+01
 0.5040751361440E+01
 0.6169333423338E+01
 0.9043978916068E-01
 0.1139796105062E+00
 0.1355732422098E+00
 0.1687382939061E+00
 0.2154931689697E+00
 0.2731419681091E+00
 0.3389071850263E+00
 0.4110106215251E+00
 0.4884425826175E+00
 0.5706275585919E+00
 0.6572264188307E+00
 0.7480264304065E+00
 0.8428646466162E+00
 0.9415501309267E+00
 0.1043754977170E+01
 0.1148868977737E+01
 0.1255821008961E+01
 0.1362959461684E+01
 0.1468155468726E+01
 0.1569164144474E+01
 0.1664176730421E+01
 0.1752269146175E+01
 0.1833179223897E+01
 0.1906630317823E+01
 0.1971910079431E+01
 0.2027866831002E+01
 0.2073149531562E+01
 0.2106487929817E+01
 0.2126878199794E+01
 0.2133663005200E+01
 0.2126556532674E+01
 0.2105993270606E+01
 0.2074959744013E+01
 0.2042858490365E+01
 0.2032442265015E+01
 0.2092406791566E+01
 0.2313910533268E+01
 0.2828323374896E+01
 0.3742410983971E+01
 0.5009297280308E+01
 0.6313855642337E+01
 0.1548813693966E-01
 0.8614587673533E-02
 0.2009626569519E-01
 0.5472961775714E-01
 0.1054609296187E+00
 0.1676421004186E+00
 0.2379315573654E+00
 0.3145181534338E+00
 0.3964900542472E+00
 0.4833820620561E+00
 0.5749647569551E+00
 0.6711407462088E+00
 0.7718779785383E+00
 0.8771430518376E+00
 0.9868004067907E+00
 0.1100461642833E+01
 0.1217266419249E+01
 0.1335681589059E+01
 0.1453535430582E+01
 0.1568397290068E+01
 0.1678223046975E+01
 0.1781881421472E+01
 0.1878911357046E+01
 0.1968769563786E+01
 0.2050378786488E+01
 0.2122144397623E+01
 0.2182228710884E+01
 0.2228857315437E+01
 0.2260492639538E+01
 0.2275811101235E+01
 0.2273486948760E+01
 0.2252180497741E+01
 0.2212009709781E+01
 0.2157942349210E+01
 0.2106106925026E+01
 0.2097151644211E+01
 0.2221672410866E+01
 0.2643636054058E+01
 0.3548505806016E+01
 0.4954790759819E+01
 0.6488608505362E+01
 0.1238466218989E+00
 0.1173398177255E+00
 0.1017240691644E+00
 0.6432787197451E-01
 0.1100786243412E-01
 0.5963161526149E-01
 0.1345047571004E+00
 0.2156420902495E+00
 0.3021603037059E+00
 0.3937086281885E+00
 0.4901726674893E+00
 0.5915735022948E+00
 0.6980133371408E+00
 0.8096239574247E+00
 0.9264818767092E+00
 0.1048465479848E+01
 0.1175006105018E+01
 0.1304792948544E+01
 0.1435698071197E+01
 0.1565146874798E+01
 0.1690863417893E+01
 0.1811491120036E+01
 0.1926338168698E+01
 0.2034557344023E+01
 0.2134680124891E+01
 0.2224662642731E+01
 0.2302191088447E+01
 0.2365016343445E+01
 0.2411136990330E+01
 0.2438692439473E+01
 0.2445488110594E+01
 0.2428581757432E+01
 0.2385350503203E+01
 0.2316278245675E+01
 0.2230099754750E+01
 0.2155833773066E+01
 0.2172237352053E+01
 0.2461550057057E+01
 0.3309524849379E+01
 0.4862708688029E+01
 0.6701658860250E+01
 0.2397443425858E+00
 0.2439313115891E+00
 0.2301957249832E+00
 0.1874441387280E+00
 0.1251945592978E+00
 0.5238149217993E-01
 0.2926270635438E-01
 0.1144430129764E+00
 0.2054440754989E+00
 0.3015594902776E+00
 0.4027678373265E+00
 0.5092042247326E+00
 0.6211029375140E+00
 0.7387617320420E+00
 0.8624796177588E+00
 0.9924382939956E+00
 0.1128445972148E+01
 0.1269546363371E+01
 0.1413784212149E+01
 0.1558514892333E+01
 0.1701243038717E+01
 0.1840353848300E+01
 0.1974862931897E+01
 0.2103554737729E+01
 0.2224534465948E+01
 0.2335313069366E+01
 0.2433127213485E+01
 0.2515290859463E+01
 0.2579415200106E+01
 0.2623261697043E+01
 0.2644009569894E+01
 0.2637413038670E+01
 0.2598448025405E+01
 0.2523403704428E+01
 0.2413521513456E+01
 0.2284167744627E+01
 0.2191819635448E+01
 0.2308873566697E+01
 0.3022704673989E+01
 0.4710060560896E+01
 0.6964068545627E+01
 0.3637963761724E+00
 0.3803682241746E+00
 0.3657178042523E+00
 0.3145865505942E+00
 0.2444239772960E+00
 0.1652901395723E+00
 0.8015229673036E-01
 0.1217979332405E-01
 0.1063619867834E+00
 0.2069021350260E+00
 0.3126835608448E+00
 0.4239300019298E+00
 0.5409990670472E+00
 0.6643477347840E+00
 0.7944960043085E+00
 0.9319493262144E+00
 0.1076971926539E+01
 0.1229122767509E+01
 0.1386809212894E+01
 0.1547447112733E+01
 0.1708354303002E+01
 0.1867599919077E+01
 0.2023792438411E+01
 0.2175238954089E+01
 0.2319571623069E+01
 0.2453879133168E+01
 0.2575003073299E+01
 0.2679868758227E+01
 0.2765767914802E+01
 0.2830252656602E+01
 0.2870183871281E+01
 0.2880459801405E+01
 0.2854279027116E+01
 0.2784486046285E+01
 0.2665472079629E+01
 0.2498758630700E+01
 0.2312105878003E+01
 0.2233499571969E+01
 0.2702131599760E+01
 0.4461625924725E+01
 0.7290653475535E+01
 0.4986082857901E+00
 0.5287113430516E+00
 0.5079901721842E+00
 0.4446673333192E+00
 0.3658522373137E+00
 0.2806658584756E+00
 0.1903979571326E+00
 0.9533809721402E-01
 0.6422926636000E-02
 0.1097240843017E+00
 0.2198697384684E+00
 0.3356674547536E+00
 0.4575775942226E+00
 0.5862019947496E+00
 0.7222669695465E+00
 0.8665979441681E+00
 0.1019969854196E+01
 0.1182636412207E+01
 0.1353642132469E+01
 0.1530694759418E+01
 0.1711003067880E+01
 0.1892219904392E+01
 0.2072339328727E+01
 0.2249010853765E+01
 0.2419333016572E+01
 0.2580027447259E+01
 0.2727642924345E+01
 0.2858784874214E+01
 0.2970463218300E+01
 0.3060154476462E+01
 0.3124742269175E+01
 0.3158871288242E+01
 0.3154926496344E+01
 0.3103693410870E+01
 0.2994294584384E+01
 0.2816206911688E+01
 0.2568020890433E+01
 0.2306943839343E+01
 0.2408151697058E+01
 0.4069245697394E+01
 0.7699535457292E+01
 0.6485924770623E+00
 0.6913846241305E+00
 0.6553234081541E+00
 0.5760758101795E+00
 0.4889304967731E+00
 0.3980125130865E+00
 0.3028412423527E+00
 0.2033161671748E+00
 0.9918609746651E-01
 0.1032476615702E-01
 0.1242943605177E+00
 0.2443544532853E+00
 0.3707411359391E+00
 0.5041788749403E+00
 0.6455733364482E+00
 0.7960369858069E+00
 0.9568587454241E+00
 0.1129152594312E+01
 0.1312981167077E+01
 0.1506757793172E+01
 0.1707759980308E+01
 0.1913048852837E+01
 0.2119631804965E+01
 0.2324210895607E+01
 0.2523279723560E+01
 0.2713299970439E+01
 0.2890706777888E+01
 0.3051903277758E+01
 0.3193604032008E+01
 0.3313225255240E+01
 0.3407967565953E+01
 0.3472971495118E+01
 0.3501147063750E+01
 0.3483309814901E+01
 0.3406279183494E+01
 0.3251160622954E+01
 0.2994925439756E+01
 0.2617343107067E+01
 0.2298455759057E+01
 0.3494091704836E+01
 0.8206751065031E+01
 0.8218729351037E+00
 0.8700288296341E+00
 0.8031124508099E+00
 0.7070826773072E+00
 0.6133936378090E+00
 0.5170567502434E+00
 0.4172645062646E+00
 0.3135040458092E+00
 0.2053247950222E+00
 0.9234152326896E-01
 0.2596177671437E-01
 0.1499514940807E+00
 0.2804216869113E+00
 0.4181719046174E+00
 0.5642502092031E+00
 0.7199976135315E+00
 0.8871419756566E+00
 0.1067731689350E+01
 0.1263327423231E+01
 0.1473796072800E+01
 0.1696887555092E+01
 0.1928751042507E+01
 0.2164735689339E+01
 0.2400146727301E+01
 0.2630808274900E+01
 0.2853108972416E+01
 0.3063658548601E+01
 0.3258884602944E+01
 0.3435153217829E+01
 0.3589565285939E+01
 0.3719711892859E+01
 0.3822105374236E+01
 0.3891996932748E+01
 0.3922801358111E+01
 0.3903614857379E+01
 0.3813600466158E+01
 0.3620806163186E+01
 0.3261849401002E+01
 0.2642940748829E+01
 0.2848501962503E+01
 0.8809355336013E+01
 0.1035535632517E+01
 0.1059785019591E+01
 0.9421577849813E+00
 0.8378327868135E+00
 0.7388878085479E+00
 0.6375957287117E+00
 0.5335651159049E+00
 0.4257811144516E+00
 0.3137809779866E+00
 0.1970893773728E+00
 0.7521264277557E-01
 0.5244262670977E-01
 0.1865821883171E+00
 0.3281172737886E+00
 0.4781934593887E+00
 0.6383070720235E+00
 0.8104763120867E+00
 0.9975292646536E+00
 0.1202966360129E+01
 0.1429478378980E+01
 0.1676228242381E+01
 0.1937811901927E+01
 0.2206696650642E+01
 0.2476136955264E+01
 0.2741275813636E+01
 0.2998739178362E+01
 0.3245726952881E+01
 0.3479112869335E+01
 0.3694963900227E+01
 0.3889304237428E+01
 0.4059496648940E+01
 0.4204563956204E+01
 0.4324472462865E+01
 0.4418382499646E+01
 0.4481629441169E+01
 0.4505034369552E+01
 0.4456778192862E+01
 0.4311513449793E+01
 0.3788878121116E+01
 0.2935219989252E+01
 0.9458740793281E+01
 0.1334130746601E+01
 0.1216448573742E+01
 0.1071069247050E+01
 0.9695296901449E+00
 0.8647201402725E+00
 0.7596763918983E+00
 0.6516159465281E+00
 0.5400836905623E+00
 0.4244793790608E+00
 0.3043274546550E+00
 0.1790954577264E+00
 0.4816568357852E-01
 0.8921720136534E-01
 0.2339957599673E+00
 0.3873644972353E+00
 0.5508942063329E+00
 0.7267253816896E+00
 0.9180199503488E+00
 0.1129998422433E+01
 0.1370687181082E+01
 0.1643041027926E+01
 0.1938552938982E+01
 0.2244612724230E+01
 0.2551576409378E+01
 0.2854034216799E+01
 0.3149356568231E+01
 0.3435878618383E+01
 0.3711543333425E+01
 0.3972728585506E+01
 0.4213035556296E+01
 0.4426758785675E+01
 0.4617387717520E+01
 0.4793629933329E+01
 0.4962042942862E+01
 0.5129994388769E+01
 0.5304809251779E+01
 0.5507536634341E+01
 0.5710855280334E+01
 0.6130128326570E+01
 0.5466668024453E+01
 0.1093163129440E+02
 0.9566643867072E+00
 0.1066657035788E+01
 0.1191452797971E+01
 0.1313156084872E+01
 0.1422270382933E+01
 0.1513841991532E+01
 0.1585517482729E+01
 0.1636400913047E+01
 0.1666413667302E+01
 0.1675991068965E+01
 0.1666016515278E+01
 0.1636993422020E+01
 0.1590089479128E+01
 0.1527682548389E+01
 0.1451243600725E+01
 0.1361161222166E+01
 0.1257373754501E+01
 0.1140023863711E+01
 0.1010158819052E+01
 0.8605909368660E+00
 0.9286768567982E+00
 0.1052305871135E+01
 0.1187935420892E+01
 0.1319825796485E+01
 0.1438576314987E+01
 0.1539239707550E+01
 0.1619447310630E+01
 0.1678276902262E+01
 0.1715610449464E+01
 0.1731861070972E+01
 0.1727824111602E+01
 0.1703998360260E+01
 0.1661532662421E+01
 0.1602484658081E+01
 0.1528121756552E+01
 0.1438943490317E+01
 0.1334788983407E+01
 0.1215442478452E+01
 0.1076328370019E+01
 0.9146415335951E+00
 0.9007655793820E+00
 0.1039877128140E+01
 0.1187300352503E+01
 0.1329502114645E+01
 0.1457793102334E+01
 0.1567373601302E+01
 0.1655921021170E+01
 0.1722524442515E+01
 0.1767068780194E+01
 0.1789944383434E+01
 0.1791863561503E+01
 0.1773401261064E+01
 0.1735650379775E+01
 0.1680339305118E+01
 0.1608564299703E+01
 0.1520637565852E+01
 0.1416102226037E+01
 0.1293274621514E+01
 0.1148668009794E+01
 0.9875984263996E+00
 0.8733837713611E+00
 0.1028970568037E+01
 0.1189069422846E+01
 0.1341882762535E+01
 0.1479679841948E+01
 0.1598028226834E+01
 0.1694741368675E+01
 0.1768971790234E+01
 0.1820635190039E+01
 0.1850116572159E+01
 0.1858090739860E+01
 0.1845189072950E+01
 0.1812434814526E+01
 0.1761261802695E+01
 0.1692521411029E+01
 0.1606264501453E+01
 0.1501588764157E+01
 0.1376801355551E+01
 0.1230854991271E+01
 0.1069881129077E+01
 0.8466589832968E+00
 0.1019531114253E+01
 0.1192926694601E+01
 0.1356650681827E+01
 0.1503967603938E+01
 0.1630962196635E+01
 0.1735688497307E+01
 0.1817418951268E+01
 0.1876132820560E+01
 0.1912237122506E+01
 0.1926396319190E+01
 0.1919279291709E+01
 0.1891828431368E+01
 0.1845203603457E+01
 0.1779998605107E+01
 0.1695998854016E+01
 0.1592189240735E+01
 0.1467374087258E+01
 0.1321557317899E+01
 0.1160256828993E+01
 0.8206780781563E+00
 0.1011483178513E+01
 0.1198649325380E+01
 0.1373514271673E+01
 0.1530372441245E+01
 0.1665913167319E+01
 0.1778519315332E+01
 0.1867641714967E+01
 0.1933359628093E+01
 0.1976128483944E+01
 0.1996622921531E+01
 0.1995534650131E+01
 0.1973719111576E+01
 0.1932092707046E+01
 0.1871014915862E+01
 0.1790106107561E+01
 0.1688404982456E+01
 0.1565029259046E+01
 0.1420343504255E+01
 0.1258748520236E+01
 0.7955134204807E+00
 0.1004751944791E+01
 0.1206036819590E+01
 0.1392204574874E+01
 0.1558607222739E+01
 0.1702602556801E+01
 0.1822969958975E+01
 0.1919392059733E+01
 0.1992084335504E+01
 0.2041575809995E+01
 0.2068568348150E+01
 0.2073768551027E+01
 0.2057948656020E+01
 0.2021820338674E+01
 0.1965559924302E+01
 0.1888695104141E+01
 0.1790314294694E+01
 0.1669661596663E+01
 0.1527051977465E+01
 0.1365710706803E+01
 0.7712344564773E+00
 0.9992609544160E+00
 0.1214899105565E+01
 0.1412462314567E+01
 0.1588384537544E+01
 0.1740740113131E+01
 0.1868758200261E+01
 0.1972398557185E+01
 0.2052046353370E+01
 0.2108327879761E+01
 0.2141988170267E+01
 0.2153748279458E+01
 0.2144309612020E+01
 0.2114222632743E+01
 0.2063527682073E+01
 0.1991688300516E+01
 0.1897802573842E+01
 0.1781096606431E+01
 0.1641628815763E+01
 0.1481515097850E+01
 0.7479108046864E+00
 0.9949333877992E+00
 0.1225050485764E+01
 0.1434032879783E+01
 0.1619415694722E+01
 0.1780026464924E+01
 0.1915585684497E+01
 0.2026367708485E+01
 0.2112956883765E+01
 0.2176098774313E+01
 0.2216597589947E+01
 0.2235194800858E+01
 0.2232539172881E+01
 0.2209060653133E+01
 0.2164698514483E+01
 0.2098862101728E+01
 0.2010619423803E+01
 0.1899091988761E+01
 0.1763989621092E+01
 0.1606431384008E+01
 0.7256130148674E+00
 0.9916923018346E+00
 0.1236307420084E+01
 0.1456663687011E+01
 0.1651410223957E+01
 0.1820154476315E+01
 0.1963139977180E+01
 0.2080985804176E+01
 0.2174500721656E+01
 0.2244569764024E+01
 0.2292072564665E+01
 0.2317781542200E+01
 0.2322313379464E+01
 0.2306012611533E+01
 0.2268743950229E+01
 0.2209867250082E+01
 0.2128395385462E+01
 0.2023303228573E+01
 0.1893929573422E+01
 0.1740521092392E+01
 0.7044122543987E+00
 0.9894607278695E+00
 0.1248487578882E+01
 0.1480103154828E+01
 0.1684075860686E+01
 0.1860810493746E+01
 0.2011096526743E+01
 0.2135921126224E+01
 0.2236338500748E+01
 0.2313391388680E+01
 0.2368050985372E+01
 0.2401133814127E+01
 0.2413245260390E+01
 0.2404674524686E+01
 0.2375233702089E+01
 0.2324239421297E+01
 0.2250639822849E+01
 0.2153252584896E+01
 0.2031062025148E+01
 0.1883570221660E+01
 0.6843795656137E+00
 0.9881617143736E+00
 0.1261409637671E+01
 0.1504100587022E+01
 0.1717119099170E+01
 0.1901675758277E+01
 0.2059120742795E+01
 0.2190826382518E+01
 0.2298109240893E+01
 0.2382185827217E+01
 0.2444134395096E+01
 0.2484829852828E+01
 0.2504886371602E+01
 0.2504564052761E+01
 0.2483642297588E+01
 0.2441404191351E+01
 0.2376735838639E+01
 0.2288307191652E+01
 0.2174787106171E+01
 0.2035059653366E+01
 0.6655849421557E+00
 0.9877184191681E+00
 0.1274893523373E+01
 0.1528406664814E+01
 0.1750246216606E+01
 0.1942428103870E+01
 0.2106870292078E+01
 0.2245341414085E+01
 0.2359433260539E+01
 0.2450549798709E+01
 0.2519890704579E+01
 0.2568403676346E+01
 0.2596730675495E+01
 0.2605126092179E+01
 0.2593355593585E+01
 0.2560681378361E+01
 0.2505938189199E+01
 0.2427669061717E+01
 0.2324277514107E+01
 0.2194148946848E+01
 0.6480963611305E+00
 0.9880542921318E+00
 0.1288760986198E+01
 0.1552774363089E+01
 0.1783164665678E+01
 0.1982743916338E+01
 0.2153997599042E+01
 0.2299096129291E+01
 0.2419915413893E+01
 0.2518058000884E+01
 0.2594857846013E+01
 0.2651349313377E+01
 0.2688219908283E+01
 0.2705739419771E+01
 0.2703677913846E+01
 0.2681290934083E+01
 0.2637376407314E+01
 0.2570375530707E+01
 0.2478477948187E+01
 0.2359676052415E+01
 0.6319788414358E+00
 0.9890933628959E+00
 0.1302836432979E+01
 0.1576960202986E+01
 0.1815584786966E+01
 0.2022300360738E+01
 0.2200152589513E+01
 0.2351713716903E+01
 0.2479148720840E+01
 0.2584267152474E+01
 0.2668548329279E+01
 0.2733126186924E+01
 0.2778750143720E+01
 0.2805724451183E+01
 0.2813840560022E+01
 0.2802361601437E+01
 0.2770063623293E+01
 0.2715309530849E+01
 0.2636119541267E+01
 0.2530178238744E+01
 0.6172935900650E+00
 0.9907606378485E+00
 0.1316947971393E+01
 0.1600725763743E+01
 0.1847221776821E+01
 0.2060777840924E+01
 0.2244985663843E+01
 0.2402814136159E+01
 0.2536718387639E+01
 0.2648720607158E+01
 0.2740454591320E+01
 0.2813165467083E+01
 0.2867679417578E+01
 0.2904352210772E+01
 0.2923012076981E+01
 0.2922942649191E+01
 0.2902910812453E+01
 0.2861219036800E+01
 0.2795749472185E+01
 0.2703938059402E+01
 0.6040972539334E+00
 0.9929825947365E+00
 0.1330928623224E+01
 0.1623839400048E+01
 0.1877797863760E+01
 0.2097862660139E+01
 0.2288150880726E+01
 0.2452017866285E+01
 0.2592206184950E+01
 0.2710953466232E+01
 0.2810055006911E+01
 0.2890877226202E+01
 0.2954336283842E+01
 0.3000854479158E+01
 0.3030310255373E+01
 0.3042018412631E+01
 0.3034745603330E+01
 0.3006743903792E+01
 0.2955773139632E+01
 0.2879051876774E+01
 0.5924413203143E+00
 0.9956877667367E+00
 0.1344617672497E+01
 0.1646078114113E+01
 0.1907044640286E+01
 0.2133249834099E+01
 0.2329309305955E+01
 0.2498949863614E+01
 0.2645195111526E+01
 0.2770498084376E+01
 0.2876820416034E+01
 0.2965658231503E+01
 0.3038029149461E+01
 0.3094434969323E+01
 0.3134815626730E+01
 0.3158525080745E+01
 0.3164334395584E+01
 0.3150447400438E+01
 0.3114502891510E+01
 0.3053508073419E+01
 0.5823716791704E+00
 0.9988073969614E+00
 0.1357862102281E+01
 0.1667229522545E+01
 0.1934705487393E+01
 0.2166645996663E+01
 0.2368132468012E+01
 0.2543243663652E+01
 0.2695274267420E+01
 0.2826889871557E+01
 0.2940221049286E+01
 0.3036900244980E+01
 0.3118056251276E+01
 0.3184281356196E+01
 0.3235586140280E+01
 0.3271369093600E+01
 0.3290406445751E+01
 0.3290849509780E+01
 0.3270206483681E+01
 0.3225259733472E+01
 0.5739283466279E+00
 0.1002276147586E+01
 0.1370518090357E+01
 0.1687093881874E+01
 0.1960538054477E+01
 0.2197772360806E+01
 0.2404305880286E+01
 0.2584545578735E+01
 0.2742043870805E+01
 0.2879673302917E+01
 0.2999733738040E+01
 0.3103998691644E+01
 0.3193716099349E+01
 0.3269577903874E+01
 0.3331672591494E+01
 0.3379446383724E+01
 0.3411678541941E+01
 0.3426459416307E+01
 0.3421150738071E+01
 0.3392284589004E+01
 0.5671453420024E+00
 0.1006032845397E+01
 0.1382452525812E+01
 0.1705486123481E+01
 0.1984316739490E+01
 0.2226367675243E+01
 0.2437532563794E+01
 0.2622518914384E+01
 0.2785120325861E+01
 0.2928408024074E+01
 0.3054849272828E+01
 0.3166361529718E+01
 0.3264318173661E+01
 0.3349518387974E+01
 0.3422134331231E+01
 0.3481661693295E+01
 0.3526879085369E+01
 0.3555805623287E+01
 0.3565638615787E+01
 0.3552631047129E+01
 0.5620506963859E+00
 0.1010021245799E+01
 0.1393544511803E+01
 0.1722237853903E+01
 0.2005835119580E+01
 0.2252191121502E+01
 0.2467536507573E+01
 0.2656848130426E+01
 0.2824141252642E+01
 0.2972674943630E+01
 0.3105079777339E+01
 0.3223418157405E+01
 0.3329193658094E+01
 0.3423319011748E+01
 0.3506054809970E+01
 0.3576947310030E+01
 0.3634770658632E+01
 0.3677462996389E+01
 0.3702040413435E+01
 0.3704452111863E+01
 0.5586665612792E+00
 0.1014190797898E+01
 0.1403686820878E+01
 0.1737199277504E+01
 0.2024908282452E+01
 0.2275025094579E+01
 0.2494066000783E+01
 0.2687242868844E+01
 0.2858770385678E+01
 0.3012082200632E+01
 0.3149965961509E+01
 0.3274628186501E+01
 0.3387705994257E+01
 0.3490231027617E+01
 0.3582556573061E+01
 0.3664280717399E+01
 0.3734170523541E+01
 0.3790076102962E+01
 0.3828820453684E+01
 0.3846032533150E+01
 0.5570093795513E+00
 0.1018497393871E+01
 0.1412787270198E+01
 0.1750240999078E+01
 0.2041375008157E+01
 0.2294677808280E+01
 0.2516896766906E+01
 0.2713441765723E+01
 0.2888702243095E+01
 0.3046270890234E+01
 0.3189084113634E+01
 0.3319489912095E+01
 0.3439261043468E+01
 0.3549552803048E+01
 0.3650815396492E+01
 0.3742700839582E+01
 0.3823968737882E+01
 0.3892378584322E+01
 0.3944556419592E+01
 0.3975807078659E+01
 0.5570900794906E+00
 0.1022904087746E+01
 0.1420769987940E+01
 0.1761255669144E+01
 0.2055099756414E+01
 0.2310985671142E+01
 0.2535834834554E+01
 0.2735215968372E+01
 0.2913666472359E+01
 0.3074920436875E+01
 0.3222052701135E+01
 0.3357548322883E+01
 0.3483316671345E+01
 0.3600641116826E+01
 0.3710073344680E+01
 0.3811322709241E+01
 0.3903143890351E+01
 0.3983208633779E+01
 0.4047951616045E+01
 0.4092365318353E+01
 0.5589142589947E+00
 0.1027381770856E+01
 0.1427576546144E+01
 0.1770159439237E+01
 0.2065974418801E+01
 0.2323815382098E+01
 0.2550719081255E+01
 0.2752372279647E+01
 0.2933431779835E+01
 0.3097753507430E+01
 0.3248538457250E+01
 0.3388402511431E+01
 0.3519391594590E+01
 0.3642921514409E+01
 0.3759650598565E+01
 0.3869350501354E+01
 0.3970776608968E+01
 0.4061521363351E+01
 0.4137843303277E+01
 0.4194451431767E+01
 0.5624823373982E+00
 0.1031909793220E+01
 0.1433166938420E+01
 0.1776893198395E+01
 0.2073919798821E+01
 0.2333065697250E+01
 0.2561423386888E+01
 0.2764755850097E+01
 0.2947809349521E+01
 0.3114540357020E+01
 0.3268261836601E+01
 0.3411712357583E+01
 0.3547073353331E+01
 0.3675897584761E+01
 0.3798955948599E+01
 0.3916088937254E+01
 0.4026061120493E+01
 0.4126398970059E+01
 0.4213208767334E+01
 0.4280962157156E+01
 0.5677896682031E+00
 0.1036476523290E+01
 0.1437520387465E+01
 0.1781423571667E+01
 0.2078886793431E+01
 0.2338668829302E+01
 0.2567858342100E+01
 0.2772252345632E+01
 0.2956655663115E+01
 0.3125102509561E+01
 0.3281001739235E+01
 0.3427204385627E+01
 0.3566025310910E+01
 0.3699159066150E+01
 0.3827495888210E+01
 0.3950953098699E+01
 0.4068315181403E+01
 0.4177059471818E+01
 0.4273170357390E+01
 0.4350944417672E+01
 0.5748266313246E+00
 0.1041079841192E+01
 0.1440635974780E+01
 0.1783743669023E+01
 0.2080857256521E+01
 0.2340591445446E+01
 0.2569972457569E+01
 0.2774789514913E+01
 0.2959874626946E+01
 0.3129315668999E+01
 0.3286599403519E+01
 0.3434676709150E+01
 0.3575992610731E+01
 0.3712388724458E+01
 0.3844882266315E+01
 0.3973476670790E+01
 0.4096988598867E+01
 0.4212864650308E+01
 0.4317000659655E+01
 0.4403594274390E+01
 0.5835787082531E+00
 0.1045727553460E+01
 0.1442533081028E+01
 0.1783873576949E+01
 0.2079844531633E+01
 0.2338835236295E+01
 0.2567752824879E+01
 0.2772338082196E+01
 0.2957418908582E+01
 0.3127111752305E+01
 0.3284961368818E+01
 0.3434002991669E+01
 0.3576807050076E+01
 0.3715367987581E+01
 0.3850838478955E+01
 0.3983318558080E+01
 0.4111670315075E+01
 0.4233327509115E+01
 0.4344128835074E+01
 0.4438258742583E+01
 0.5940265879208E+00
 0.1050437731799E+01
 0.1443251654054E+01
 0.1781860618161E+01
 0.2075893674376E+01
 0.2333437058384E+01
 0.2561225206014E+01
 0.2764911912663E+01
 0.2949290399094E+01
 0.3118479940065E+01
 0.3276061415447E+01
 0.3425135374825E+01
 0.3568390881776E+01
 0.3707981391189E+01
 0.3845204255466E+01
 0.3980267831343E+01
 0.4112093771272E+01
 0.4238118943436E+01
 0.4354148616706E+01
 0.4454441442324E+01
 0.6061463236226E+00
 0.1055238960325E+01
 0.1442852318490E+01
 0.1777779412423E+01
 0.2069081391249E+01
 0.2324468655001E+01
 0.2550453529919E+01
 0.2752567398339E+01
 0.2935539709626E+01
 0.3103466617083E+01
 0.3259941358402E+01
 0.3408106316532E+01
 0.3550759594340E+01
 0.3690219977753E+01
 0.3827939187482E+01
 0.3964247094109E+01
 0.4098140286019E+01
 0.4227072402599E+01
 0.4346826526570E+01
 0.4451810384469E+01
 0.6199095479332E+00
 0.1060170474372E+01
 0.1441416367173E+01
 0.1771731806126E+01
 0.2059515743364E+01
 0.2312035966428E+01
 0.2535538779159E+01
 0.2735402019583E+01
 0.2916264606256E+01
 0.3082174032463E+01
 0.3236710487302E+01
 0.3383029192732E+01
 0.3524023704054E+01
 0.3662183857907E+01
 0.3799125207924E+01
 0.3935314311564E+01
 0.4069840522424E+01
 0.4200185338292E+01
 0.4322104596903E+01
 0.4430199038988E+01
 0.6352836954605E+00
 0.1065282146983E+01
 0.1439045720338E+01
 0.1763846808476E+01
 0.2047335700080E+01
 0.2296278058926E+01
 0.2516617282953E+01
 0.2713552103501E+01
 0.2891607362359E+01
 0.3054757550667E+01
 0.3206543405414E+01
 0.3350097438951E+01
 0.3488389612738E+01
 0.3624084438484E+01
 0.3758968600141E+01
 0.3893663220029E+01
 0.4027373927676E+01
 0.4157619185990E+01
 0.4280093996375E+01
 0.4389581939961E+01
 0.6522320970245E+00
 0.1070634246717E+01
 0.1435863081702E+01
 0.1754280796634E+01
 0.2032710650882E+01
 0.2277365642968E+01
 0.2493858417272E+01
 0.2687189825557E+01
 0.2861751037979E+01
 0.3021421344151E+01
 0.3169675870024E+01
 0.3309581591697E+01
 0.3444159218647E+01
 0.3576246875053E+01
 0.3707802829549E+01
 0.3839622554773E+01
 0.3971064666162E+01
 0.4099698785760E+01
 0.4221080004789E+01
 0.4330074670758E+01
 0.6707134442508E+00
 0.1076296845703E+01
 0.1432012766894E+01
 0.1743218545677E+01
 0.2015839880156E+01
 0.2255499023199E+01
 0.2467461696762E+01
 0.2656519680573E+01
 0.2826914855223E+01
 0.2982412531880E+01
 0.3126398403889E+01
 0.3261823415218E+01
 0.3391727018395E+01
 0.3519113545320E+01
 0.3646095098172E+01
 0.3773656999059E+01
 0.3901371264947E+01
 0.4026905117829E+01
 0.4145547450478E+01
 0.4252003003621E+01
 0.6906796312094E+00
 0.1082348435664E+01
 0.1427664058295E+01
 0.1730876021147E+01
 0.1996951879314E+01
 0.2230904730763E+01
 0.2437653355113E+01
 0.2621774811417E+01
 0.2787348986584E+01
 0.2938013587644E+01
 0.3077047430930E+01
 0.3207226511175E+01
 0.3331571742082E+01
 0.3453244891633E+01
 0.3574463566153E+01
 0.3696377041765E+01
 0.3818869829462E+01
 0.3939842566725E+01
 0.4054191948213E+01
 0.4155982136519E+01
 0.7120676851213E+00
 0.1088875730044E+01
 0.1423020431441E+01
 0.1717508268317E+01
 0.1976300913092E+01
 0.2203829539810E+01
 0.2404682612594E+01
 0.2583214637732E+01
 0.2743328977641E+01
 0.2888533214434E+01
 0.3021993481835E+01
 0.3146243920112E+01
 0.3264242496849E+01
 0.3379306390134E+01
 0.3493697183867E+01
 0.3608603866802E+01
 0.3724230656267E+01
 0.3839150620487E+01
 0.3947877864775E+01
 0.4043057025728E+01
 0.7347777844772E+00
 0.1095964801909E+01
 0.1418366274096E+01
 0.1703416472993E+01
 0.1954153319068E+01
 0.2174533466528E+01
 0.2368817791395E+01
 0.2541123296040E+01
 0.2695156600008E+01
 0.2834290539365E+01
 0.2961626291420E+01
 0.3079365561650E+01
 0.3190340569493E+01
 0.3298043861047E+01
 0.3404724213593E+01
 0.3511478961025E+01
 0.3618447356774E+01
 0.3725150514847E+01
 0.3827397711289E+01
 0.3914997270065E+01
 0.7585015436732E+00
 0.1103895566237E+01
 0.1414167550905E+01
 0.1688913837019E+01
 0.1930762824698E+01
 0.2143284772583E+01
 0.2330348266301E+01
 0.2495799618646E+01
 0.2643164878021E+01
 0.2775633482304E+01
 0.2896275129798E+01
 0.3007121792812E+01
 0.3110547899465E+01
 0.3210194230526E+01
 0.3308564325091E+01
 0.3406371829157E+01
 0.3503361553643E+01
 0.3598652091246E+01
 0.3691087205343E+01
 0.3777400766756E+01
 0.2495227980084E+01
 0.9752308661590E+00
 0.2050189617945E+00
 0.7830542917537E-02
 0.1235108965342E+00
 0.2027747281187E+00
 0.2596476388743E+00
 0.2997783869975E+00
 0.3245866926429E+00
 0.3343870152240E+00
 0.3279551446639E+00
 0.3024652786011E+00
 0.2573443284853E+00
 0.1988629675727E+00
 0.1313434942752E+00
 0.5979011124912E-01
 0.1664763338133E-01
 0.8191449795408E-01
 0.1511638620151E+00
 0.2320964252819E+00
 0.2566333061868E+01
 0.1833926548080E+01
 0.7253403130855E+00
 0.2755377552317E+00
 0.6559355596430E-01
 0.6220310248448E-01
 0.1463047865340E+00
 0.2043572337012E+00
 0.2430429958677E+00
 0.2647757115843E+00
 0.2699860535915E+00
 0.2606470408780E+00
 0.2345915087735E+00
 0.1908649637144E+00
 0.1334953698639E+00
 0.6883404129755E-01
 0.9506870005791E-02
 0.6371357135280E-01
 0.1290117344664E+00
 0.1948158571629E+00
 0.2361504668702E+01
 0.2079188459741E+01
 0.1218936172155E+01
 0.6137889707365E+00
 0.2947612313897E+00
 0.1085080658846E+00
 0.1214309935474E-01
 0.9346876331442E-01
 0.1495234251659E+00
 0.1859605593907E+00
 0.2055354719286E+00
 0.2112428617538E+00
 0.2007120493314E+00
 0.1705805635170E+00
 0.1245639539750E+00
 0.6900975925281E-01
 0.1212705036516E-01
 0.4932165282600E-01
 0.1061598980106E+00
 0.1583095816203E+00
 0.2157287435226E+01
 0.2106167005974E+01
 0.1509007811976E+01
 0.9365696209631E+00
 0.5464168791966E+00
 0.3016393837418E+00
 0.1416873048590E+00
 0.3253344260326E-01
 0.4394142034296E-01
 0.9729978926125E-01
 0.1323137524272E+00
 0.1529120929896E+00
 0.1569912990851E+00
 0.1401327659438E+00
 0.1059507973081E+00
 0.6092595094906E-01
 0.1217253785809E-01
 0.3867191545663E-01
 0.8553947563145E-01
 0.1255595266783E+00
 0.1978358962387E+01
 0.2046210918379E+01
 0.1656753959767E+01
 0.1178351944784E+01
 0.7843900107365E+00
 0.5027460687902E+00
 0.3077236262838E+00
 0.1709260610783E+00
 0.7277135848550E-01
 0.2362245004147E-02
 0.4980312977948E-01
 0.8529929691521E-01
 0.1037661342738E+00
 0.1003373684650E+00
 0.7850632448471E-01
 0.4502198839889E-01
 0.6580300800948E-02
 0.3293409033216E-01
 0.6915677938661E-01
 0.9805290173968E-01
 0.1827486457559E+01
 0.1952065335149E+01
 0.1714652107422E+01
 0.1340964098093E+01
 0.9819365079843E+00
 0.6932417630432E+00
 0.4764218285553E+00
 0.3167328595125E+00
 0.1982334441317E+00
 0.1090234524883E+00
 0.4205733366511E-01
 0.9356967592290E-02
 0.4139163757234E-01
 0.5159345388530E-01
 0.4260842194036E-01
 0.2144956754336E-01
 0.5651257014653E-02
 0.3340784569487E-01
 0.5856279453611E-01
 0.7697498941856E-01
 0.1701272700014E+01
 0.1847716356068E+01
 0.1717936183393E+01
 0.1440183114449E+01
 0.1133475960278E+01
 0.8599867069338E+00
 0.6374238552116E+00
 0.4634893248545E+00
 0.3287867567924E+00
 0.2237195237649E+00
 0.1416700105295E+00
 0.7726940833857E-01
 0.3081634890324E-01
 0.8251343254781E-02
 0.5391956652614E-02
 0.1133870205376E-01
 0.2532907850759E-01
 0.4122469716449E-01
 0.5509215554483E-01
 0.6339113355741E-01
 0.1595466829124E+01
 0.1744530712094E+01
 0.1689245039463E+01
 0.1492681772000E+01
 0.1242892541560E+01
 0.9980907886243E+00
 0.7833417606660E+00
 0.6050341553587E+00
 0.4602139080643E+00
 0.3428471419786E+00
 0.2478582213130E+00
 0.1704723683120E+00
 0.1105524391920E+00
 0.7309382710698E-01
 0.5572087644114E-01
 0.5118840780673E-01
 0.5327327768193E-01
 0.5726810443501E-01
 0.5986118768153E-01
 0.5826441668475E-01
 0.1506129007727E+01
 0.1647825181350E+01
 0.1643061720870E+01
 0.1512430517984E+01
 0.1317475528963E+01
 0.1107974314380E+01
 0.9106751363366E+00
 0.7368895940175E+00
 0.5886625562252E+00
 0.4635867989933E+00
 0.3586818308224E+00
 0.2703162373853E+00
 0.1984035096187E+00
 0.1480598228153E+00
 0.1177407095227E+00
 0.1004859836726E+00
 0.9027119893700E-01
 0.8238316737256E-01
 0.7376431794578E-01
 0.6235055046885E-01
 0.1429920121846E+01
 0.1559840056443E+01
 0.1588649329311E+01
 0.1510280150208E+01
 0.1364998526066E+01
 0.1192832318212E+01
 0.1018936895036E+01
 0.8566565025596E+00
 0.7112890538567E+00
 0.5834352522724E+00
 0.4722350739166E+00
 0.3754714817972E+00
 0.2934080203709E+00
 0.2313856659944E+00
 0.1888452116056E+00
 0.1593019377350E+00
 0.1370449278008E+00
 0.1174191945609E+00
 0.9759900632156E-01
 0.7619416662968E-01
 0.1364101090244E+01
 0.1481204777619E+01
 0.1531900015174E+01
 0.1494369634189E+01
 0.1392539708732E+01
 0.1256971565560E+01
 0.1109555719115E+01
 0.9637143990383E+00
 0.8264573571437E+00
 0.7005242719725E+00
 0.5868591691012E+00
 0.4846678532337E+00
 0.3947315578118E+00
 0.3226680489040E+00
 0.2690168876478E+00
 0.2279633877389E+00
 0.1941957695359E+00
 0.1631380241348E+00
 0.1321229761620E+00
 0.1002932983891E+00
 0.1306456823099E+01
 0.1411701110343E+01
 0.1476496935490E+01
 0.1470677607074E+01
 0.1406094789612E+01
 0.1304877088971E+01
 0.1184981767227E+01
 0.1058715183420E+01
 0.9336215367735E+00
 0.8137246683079E+00
 0.7013012742281E+00
 0.5968037829637E+00
 0.5015655294723E+00
 0.4214593600862E+00
 0.3581510952733E+00
 0.3066543949392E+00
 0.2621405892966E+00
 0.2201302690076E+00
 0.1779924679162E+00
 0.1351355383693E+00
 0.1255208279976E+01
 0.1350677303260E+01
 0.1424654957596E+01
 0.1443515041663E+01
 0.1410534554155E+01
 0.1340734619599E+01
 0.1248072383134E+01
 0.1143096952678E+01
 0.1033073292216E+01
 0.9225908121629E+00
 0.8147649051336E+00
 0.7110212711902E+00
 0.6131746312596E+00
 0.5272583532476E+00
 0.4559963139292E+00
 0.3953415666816E+00
 0.3410379209914E+00
 0.2887382371127E+00
 0.2356887486018E+00
 0.1811246706193E+00
 0.1208932625152E+01
 0.1297279374410E+01
 0.1377602086285E+01
 0.1415919254675E+01
 0.1409696419536E+01
 0.1368214576570E+01
 0.1301705914362E+01
 0.1218698053319E+01
 0.1125667282674E+01
 0.1027222844204E+01
 0.9268766258346E+00
 0.8267265316964E+00
 0.7289297756665E+00
 0.6395259239642E+00
 0.5621382048861E+00
 0.4937224021392E+00
 0.4307056762952E+00
 0.3689617473519E+00
 0.3054513476682E+00
 0.2385509955818E+00
 0.1166496084175E+01
 0.1250582640385E+01
 0.1335899087363E+01
 0.1389956711811E+01
 0.1406516895139E+01
 0.1390396800014E+01
 0.1348554903717E+01
 0.1287478295534E+01
 0.1212577963391E+01
 0.1128103161797E+01
 0.1037604189894E+01
 0.9435674497597E+00
 0.8483202613102E+00
 0.7577090406038E+00
 0.6760130368281E+00
 0.6012034094307E+00
 0.5305420336062E+00
 0.4603323999057E+00
 0.3871786160823E+00
 0.3076064455410E+00
 0.1126999182107E+01
 0.1209666718872E+01
 0.1299656173218E+01
 0.1366953308252E+01
 0.1403166635309E+01
 0.1409767726261E+01
 0.1390962580814E+01
 0.1351329275307E+01
 0.1295104953333E+01
 0.1225939638306E+01
 0.1147154381471E+01
 0.1061382446969E+01
 0.9709462107662E+00
 0.8812743818718E+00
 0.7969710939422E+00
 0.7169493177652E+00
 0.6394938415761E+00
 0.5617545715262E+00
 0.4802434691285E+00
 0.3883917324173E+00
 0.1089732336980E+01
 0.1173657642956E+01
 0.1268681659398E+01
 0.1347669626494E+01
 0.1401174101153E+01
 0.1428253401730E+01
 0.1430883751765E+01
 0.1411951146728E+01
 0.1374526323590E+01
 0.1321530811952E+01
 0.1255869970677E+01
 0.1180131871935E+01
 0.1096486969878E+01
 0.1009730077006E+01
 0.9243970430233E+00
 0.8400863115904E+00
 0.7561766469761E+00
 0.6713823278771E+00
 0.5831348078717E+00
 0.4808538038234E+00
 0.1054142147324E+01
 0.1141748396291E+01
 0.1242584411735E+01
 0.1332433083910E+01
 0.1401535929525E+01
 0.1447270687705E+01
 0.1469865337968E+01
 0.1470775060029E+01
 0.1451991488067E+01
 0.1415657767680E+01
 0.1364139585563E+01
 0.1299824924396E+01
 0.1224635352020E+01
 0.1142588866022E+01
 0.1057763263633E+01
 0.9700807368978E+00
 0.8794899774338E+00
 0.7866985169718E+00
 0.6929196122771E+00
 0.5844117608073E+00
 0.1019804519296E+01
 0.1113218105586E+01
 0.1220823716903E+01
 0.1321239996069E+01
 0.1404821389839E+01
 0.1467789221138E+01
 0.1509051888925E+01
 0.1528915701084E+01
 0.1528437574121E+01
 0.1509000967464E+01
 0.1472334718073E+01
 0.1420465812261E+01
 0.1355021543115E+01
 0.1279225450004E+01
 0.1196459028788E+01
 0.1106652926839E+01
 0.1009812607453E+01
 0.9065017013839E+00
 0.8040345422013E+00
 0.6969690702131E+00
 0.9865065621717E+00
 0.1087308778537E+01
 0.1202706587307E+01
 0.1313866167183E+01
 0.1411283170385E+01
 0.1490399925366E+01
 0.1549204077779E+01
 0.1587147680331E+01
 0.1604518128236E+01
 0.1602035695864E+01
 0.1580793656342E+01
 0.1542090124306E+01
 0.1487177938740E+01
 0.1418757165396E+01
 0.1339381710609E+01
 0.1249012409724E+01
 0.1147459152715E+01
 0.1034835633552E+01
 0.9153975659647E+00
 0.8072390580989E+00
 0.7877495796214E+00
 0.1120724064657E+01
 0.1419845441493E+01
 0.1683159891335E+01
 0.1913765982822E+01
 0.2115361692073E+01
 0.2291710856996E+01
 0.2446624458040E+01
 0.2583717577275E+01
 0.2706164735850E+01
 0.2816975033130E+01
 0.2918924571203E+01
 0.3013761561301E+01
 0.3105560190072E+01
 0.3198047502379E+01
 0.3291012964102E+01
 0.3383682835193E+01
 0.3474990760171E+01
 0.3566988195139E+01
 0.3679148500146E+01
 0.8204277217928E+00
 0.1143933015811E+01
 0.1432639657711E+01
 0.1683754468499E+01
 0.1900653869710E+01
 0.2087728695167E+01
 0.2249210267562E+01
 0.2389277133252E+01
 0.2511867213213E+01
 0.2620360745197E+01
 0.2718004891961E+01
 0.2807979579978E+01
 0.2891805756721E+01
 0.2974622001488E+01
 0.3061853802302E+01
 0.3153152277477E+01
 0.3248011889298E+01
 0.3346684966791E+01
 0.3456609369241E+01
 0.3574345315636E+01
 0.8536315309939E+00
 0.1167240628486E+01
 0.1444659246929E+01
 0.1681999715270E+01
 0.1883042759754E+01
 0.2053060452922E+01
 0.2197051689980E+01
 0.2319754077771E+01
 0.2425483947352E+01
 0.2517870003969E+01
 0.2600383022710E+01
 0.2676264144937E+01
 0.2747113124489E+01
 0.2819720199082E+01
 0.2901349858945E+01
 0.2991871204444E+01
 0.3091168392904E+01
 0.3200443096170E+01
 0.3322127145348E+01
 0.3444916135465E+01
 0.8877529336002E+00
 0.1191059864252E+01
 0.1456228748987E+01
 0.1677970050887E+01
 0.1860772145016E+01
 0.2011134179047E+01
 0.2135073247899E+01
 0.2238046318153E+01
 0.2324804593154E+01
 0.2399197520982E+01
 0.2464842036111E+01
 0.2524938485078E+01
 0.2581273739849E+01
 0.2642588330946E+01
 0.2718144417201E+01
 0.2808006184449E+01
 0.2912052788297E+01
 0.3030019404502E+01
 0.3161238612492E+01
 0.3297587807390E+01
 0.9230578048067E+00
 0.1215942334392E+01
 0.1467705471959E+01
 0.1671710111704E+01
 0.1833623937572E+01
 0.1961630342085E+01
 0.2063038797241E+01
 0.2144152700125E+01
 0.2210167203370E+01
 0.2265079170518E+01
 0.2312560222919E+01
 0.2355624782696E+01
 0.2396298408412E+01
 0.2445373064357E+01
 0.2514000336684E+01
 0.2602329373974E+01
 0.2709810393278E+01
 0.2835084117026E+01
 0.2977311404243E+01
 0.3133106554597E+01
 0.9598591132129E+00
 0.1242441654975E+01
 0.1479407202356E+01
 0.1663129453896E+01
 0.1801201470073E+01
 0.1904065218261E+01
 0.1980608398416E+01
 0.2038066731294E+01
 0.2082027854549E+01
 0.2116507350368E+01
 0.2145081191074E+01
 0.2170392065818E+01
 0.2194696856982E+01
 0.2230763483938E+01
 0.2291365628270E+01
 0.2376700570007E+01
 0.2486043743849E+01
 0.2617818101208E+01
 0.2772424213004E+01
 0.2951311756565E+01
 0.9985561497833E+00
 0.1271138401327E+01
 0.1491525283465E+01
 0.1651896541733E+01
 0.1762830497002E+01
 0.1837721500790E+01
 0.1887308078107E+01
 0.1919777774311E+01
 0.1940977346645E+01
 0.1954735134115E+01
 0.1964317927291E+01
 0.1971771559772E+01
 0.1979540313243E+01
 0.2002170024582E+01
 0.2053681743067E+01
 0.2134418752703E+01
 0.2243905075470E+01
 0.2381071151809E+01
 0.2548384437411E+01
 0.2751996735835E+01
 0.1039672955962E+01
 0.1302631248152E+01
 0.1504046012151E+01
 0.1637323772076E+01
 0.1717460314580E+01
 0.1761589442099E+01
 0.1782515683698E+01
 0.1789289981326E+01
 0.1787770632329E+01
 0.1781300637209E+01
 0.1772563242222E+01
 0.1762761781011E+01
 0.1754475547564E+01
 0.1763743285546E+01
 0.1805366986419E+01
 0.1879925520989E+01
 0.1987562107885E+01
 0.2128297246168E+01
 0.2307226039056E+01
 0.2535346156780E+01
 0.1083894143301E+01
 0.1337511079034E+01
 0.1516641776734E+01
 0.1618234359446E+01
 0.1663561762776E+01
 0.1674324237072E+01
 0.1665475985259E+01
 0.1646672340332E+01
 0.1623381775341E+01
 0.1598061921814E+01
 0.1572492271059E+01
 0.1546797480690E+01
 0.1523657452379E+01
 0.1520258756755E+01
 0.1551620259190E+01
 0.1618551965990E+01
 0.1722051729042E+01
 0.1863677271670E+01
 0.2051614013578E+01
 0.2302158072739E+01
 0.1132104744409E+01
 0.1376307332133E+01
 0.1528515815954E+01
 0.1592794929685E+01
 0.1599023156438E+01
 0.1574233065880E+01
 0.1535363710038E+01
 0.1492155764103E+01
 0.1449089008040E+01
 0.1407237813890E+01
 0.1367144939367E+01
 0.1327672408782E+01
 0.1291611693642E+01
 0.1276919371423E+01
 0.1298189558668E+01
 0.1356324800130E+01
 0.1453222162189E+01
 0.1592270331063E+01
 0.1785126741858E+01
 0.2054045326821E+01
 0.1185436414587E+01
 0.1419391525330E+01
 0.1538173999600E+01
 0.1558300148995E+01
 0.1521053027258E+01
 0.1459318277282E+01
 0.1391422733120E+01
 0.1326293341411E+01
 0.1266590319241E+01
 0.1211444163678E+01
 0.1159876777083E+01
 0.1109413167632E+01
 0.1063041189306E+01
 0.1039110355956E+01
 0.1051114517162E+01
 0.1099764775167E+01
 0.1187664288574E+01
 0.1320112564944E+01
 0.1512471632469E+01
 0.1793654159914E+01
 0.1245320553811E+01
 0.1466807218596E+01
 0.1543081626914E+01
 0.1510896077216E+01
 0.1426117731981E+01
 0.1327426166541E+01
 0.1233221733366E+01
 0.1150196627678E+01
 0.1078138053503E+01
 0.1013705021726E+01
 0.9542635323642E+00
 0.8961028160464E+00
 0.8425878100192E+00
 0.8121157215522E+00
 0.8164286926351E+00
 0.8556339584757E+00
 0.9325752869806E+00
 0.1054241217824E+01
 0.1239653463242E+01
 0.1524925633161E+01
 0.1313544649800E+01
 0.1517966577668E+01
 0.1539135803684E+01
 0.1445238500947E+01
 0.1309982506652E+01
 0.1176588716699E+01
 0.1061074808375E+01
 0.9658419062975E+00
 0.8866545578499E+00
 0.8174020005176E+00
 0.7539421904509E+00
 0.6916571816329E+00
 0.6345629388013E+00
 0.6008059995602E+00
 0.5998143278660E+00
 0.6306029922721E+00
 0.6955177010262E+00
 0.8026210987032E+00
 0.9740991483107E+00
 0.1253412921810E+01
 0.1392296135959E+01
 0.1571092678839E+01
 0.1519837544847E+01
 0.1354118018909E+01
 0.1168010407439E+01
 0.1005697856186E+01
 0.8766612715168E+00
 0.7763856742240E+00
 0.6957480314448E+00
 0.6261112070735E+00
 0.5623791001430E+00
 0.4995705080221E+00
 0.4426729343997E+00
 0.4093201161046E+00
 0.4062172724081E+00
 0.4308212842022E+00
 0.4840343114243E+00
 0.5739329097363E+00
 0.7247195956700E+00
 0.9866637288570E+00
 0.1484145227945E+01
 0.1622149787630E+01
 0.1474973735583E+01
 0.1228205176409E+01
 0.9960471463898E+00
 0.8157071139980E+00
 0.6837815057518E+00
 0.5863213987975E+00
 0.5094991603333E+00
 0.4432938566497E+00
 0.3825850521669E+00
 0.3226679828331E+00
 0.2697827451605E+00
 0.2407850814999E+00
 0.2394574332486E+00
 0.2613926979416E+00
 0.3050733111587E+00
 0.3771491468170E+00
 0.5018551123454E+00
 0.7346718953501E+00
 0.1591804272178E+01
 0.1662671990214E+01
 0.1388524287023E+01
 0.1056423477196E+01
 0.7925849524731E+00
 0.6114503056415E+00
 0.4889256210551E+00
 0.4011180317552E+00
 0.3319325403785E+00
 0.2718815417556E+00
 0.2168350102785E+00
 0.1629169546858E+00
 0.1177709727137E+00
 0.9714648737065E-01
 0.1019145623315E+00
 0.1258084205542E+00
 0.1641840722780E+00
 0.2207699203057E+00
 0.3169828461253E+00
 0.5103887293836E+00
 0.1717225954744E+01
 0.1674953662659E+01
 0.1235506006427E+01
 0.8287027520208E+00
 0.5632104195529E+00
 0.4037057217663E+00
 0.3004804821757E+00
 0.2261384627626E+00
 0.1663148805278E+00
 0.1138856378719E+00
 0.6646987759520E-01
 0.2140608762095E-01
 0.1288413564313E-01
 0.2118283649549E-01
 0.6216615585289E-02
 0.2549585874830E-01
 0.6453184908183E-01
 0.1115382627971E+00
 0.1819266582405E+00
 0.3302369322218E+00
 0.1857579492327E+01
 0.1620183710765E+01
 0.9787660929006E+00
 0.5457493264856E+00
 0.3291509214068E+00
 0.2068333746258E+00
 0.1261574275457E+00
 0.6537781440049E-01
 0.1461929904862E-01
 0.2982312022610E-01
 0.6826432094017E-01
 0.1021333307957E+00
 0.1212840262636E+00
 0.1138066202664E+00
 0.8383866864322E-01
 0.4023088480600E-01
 0.6702521689823E-02
 0.5265439416351E-01
 0.1070899176566E+00
 0.2144710766595E+00
 0.1993454354785E+01
 0.1401512805152E+01
 0.5758170367207E+00
 0.2589902905576E+00
 0.1175720887112E+00
 0.3196645363671E-01
 0.2936841785308E-01
 0.7924060973232E-01
 0.1225631114273E+00
 0.1595702803787E+00
 0.1881355796606E+00
 0.2082847205762E+00
 0.2089870304514E+00
 0.1821653094587E+00
 0.1340939679708E+00
 0.7376228346226E-01
 0.1575326546096E-01
 0.4204586051980E-01
 0.9687330202202E-01
 0.1866770019212E+00
 0.1914578643850E+01
 0.7259573770582E+00
 0.1662177380603E+00
 0.2601169404407E-01
 0.5869162891478E-01
 0.1162298541964E+00
 0.1645170967189E+00
 0.2076534376331E+00
 0.2455201582757E+00
 0.2764008990634E+00
 0.2960398036990E+00
 0.2992302808336E+00
 0.2761580095003E+00
 0.2266083623112E+00
 0.1584205890182E+00
 0.7897237484510E-01
 0.1430369850594E-01
 0.7461869563822E-01
 0.1384926874176E+00
 0.2616742281999E+00
 0.7336765100204E+00
 0.6228227233810E+00
 0.5271250815881E+00
 0.4409517957903E+00
 0.3628958426230E+00
 0.2933047448665E+00
 0.2328142988133E+00
 0.1819930523020E+00
 0.1412091022348E+00
 0.1105979099037E+00
 0.9007645789403E-01
 0.7939762096943E-01
 0.7819811644428E-01
 0.8595775210842E-01
 0.1019395465589E+00
 0.1252447438604E+00
 0.1549152352724E+00
 0.1900319422902E+00
 0.2298236797456E+00
 0.2754727429173E+00
 0.7982496926785E+00
 0.6931246586508E+00
 0.5860497565854E+00
 0.4864529460612E+00
 0.3964362628045E+00
 0.3166226178547E+00
 0.2474290141519E+00
 0.1892206180860E+00
 0.1422867059107E+00
 0.1067746642183E+00
 0.8264592674655E-01
 0.6970496327410E-01
 0.6769616069803E-01
 0.7626123088198E-01
 0.9475843381525E-01
 0.1223192381790E+00
 0.1580599320339E+00
 0.2012335047173E+00
 0.2515259162574E+00
 0.3092248676261E+00
 0.8633152834600E+00
 0.7576712638725E+00
 0.6478313277280E+00
 0.5407313185631E+00
 0.4410683217258E+00
 0.3511040219437E+00
 0.2720775380474E+00
 0.2047900158821E+00
 0.1498057142456E+00
 0.1074842356436E+00
 0.7794118126391E-01
 0.6104371840619E-01
 0.5660143655474E-01
 0.6449682033500E-01
 0.8427233938774E-01
 0.1150260778574E+00
 0.1557788774030E+00
 0.2056971620811E+00
 0.2641138231744E+00
 0.3302516204594E+00
 0.9366048660476E+00
 0.8255140731196E+00
 0.7121906612836E+00
 0.5999120306608E+00
 0.4927209789744E+00
 0.3936806802438E+00
 0.3048687698398E+00
 0.2277601095075E+00
 0.1634541843136E+00
 0.1127595387479E+00
 0.7616312450468E-01
 0.5372403218827E-01
 0.4520542343430E-01
 0.5074981519142E-01
 0.7040452546539E-01
 0.1032500838499E+00
 0.1480533172407E+00
 0.2036828304902E+00
 0.2691159858370E+00
 0.3433466335834E+00
 0.1019596918199E+01
 0.9016083529929E+00
 0.7830188817611E+00
 0.6652259855127E+00
 0.5510941312373E+00
 0.4435492345859E+00
 0.3450756718216E+00
 0.2577003459389E+00
 0.1830974943079E+00
 0.1226533658422E+00
 0.7744481483011E-01
 0.4802876833830E-01
 0.3402217516686E-01
 0.3521807289475E-01
 0.5298162968016E-01
 0.8677018164355E-01
 0.1348576094929E+00
 0.1956558213169E+00
 0.2677841395368E+00
 0.3501365419696E+00
 0.1112627500429E+01
 0.9879291971049E+00
 0.8632165378716E+00
 0.7391792329408E+00
 0.6178471249893E+00
 0.5017563287383E+00
 0.3934467309988E+00
 0.2952784855521E+00
 0.2094092666107E+00
 0.1378182581554E+00
 0.8232846995928E-01
 0.4454340858462E-01
 0.2479089766056E-01
 0.1969985987731E-01
 0.3206787257367E-01
 0.6525239178531E-01
 0.1160192652719E+00
 0.1819043800302E+00
 0.2608539588391E+00
 0.3512930987207E+00
 0.1215927300672E+01
 0.1085475414810E+01
 0.9546663966631E+00
 0.8240589598839E+00
 0.6952180776942E+00
 0.5703252041775E+00
 0.4518269971291E+00
 0.3422392000419E+00
 0.2440733304741E+00
 0.1598396375863E+00
 0.9215587244095E-01
 0.4431355748449E-01
 0.2175173017253E-01
 0.1727222907126E-01
 0.1207743525172E-01
 0.3837029352107E-01
 0.9096519073410E-01
 0.1621390169646E+00
 0.2485877533765E+00
 0.3472505218981E+00
 0.1329772838674E+01
 0.1194943587140E+01
 0.1058778573712E+01
 0.9218904928049E+00
 0.7856070668414E+00
 0.6518398319515E+00
 0.5228906218102E+00
 0.4013103917277E+00
 0.2898332429648E+00
 0.1913887996241E+00
 0.1093044479740E+00
 0.4875483097589E-01
 0.2648150202973E-01
 0.3463735866474E-01
 0.2858116376451E-01
 0.9440023127675E-02
 0.5850344713015E-01
 0.1353157981382E+00
 0.2310509862435E+00
 0.3402339262925E+00
 0.1454480227714E+01
 0.1317014993814E+01
 0.1176871050810E+01
 0.1034711113790E+01
 0.8917071452811E+00
 0.7495431446788E+00
 0.6103375946252E+00
 0.4765719186976E+00
 0.3510609547874E+00
 0.2369926012712E+00
 0.1381826425357E+00
 0.6093690837470E-01
 0.3307695433518E-01
 0.5495250889491E-01
 0.6058054777330E-01
 0.3791051513936E-01
 0.1767193545764E-01
 0.9945303909528E-01
 0.2074054076676E+00
 0.3331596501441E+00
 0.1590238828494E+01
 0.1452174521565E+01
 0.1309984476622E+01
 0.1164289623065E+01
 0.1016096522463E+01
 0.8668501958900E+00
 0.7184277956325E+00
 0.5731255256669E+00
 0.4336713331324E+00
 0.3032947686207E+00
 0.1859774284381E+00
 0.8792342699758E-01
 0.3714370167095E-01
 0.6922490476220E-01
 0.9193116716375E-01
 0.8230815970705E-01
 0.3520541626057E-01
 0.5200680844805E-01
 0.1744542622660E+00
 0.3246539869792E+00
 0.1736986725503E+01
 0.1600579168337E+01
 0.1458684484493E+01
 0.1311790789226E+01
 0.1160697674433E+01
 0.1006575088895E+01
 0.8509919239850E+00
 0.6959411583072E+00
 0.5438855866822E+00
 0.3978507119210E+00
 0.2616437708999E+00
 0.1407070962901E+00
 0.5103989386049E-01
 0.6805347333523E-01
 0.1124882475412E+00
 0.1242260750224E+00
 0.9192481328969E-01
 0.9512877316687E-02
 0.1278172104268E+00
 0.3101862310059E+00
 0.1894307655987E+01
 0.1761958579208E+01
 0.1622975878374E+01
 0.1477668891454E+01
 0.1326603055991E+01
 0.1170648892032E+01
 0.1011020935229E+01
 0.8493198723745E+00
 0.6875942959348E+00
 0.5284422377423E+00
 0.3751967809147E+00
 0.2323873789243E+00
 0.1081138174115E+00
 0.4954355825316E-01
 0.1064870250371E+00
 0.1475988001462E+00
 0.1426346500195E+00
 0.7653510359729E-01
 0.6414853889541E-01
 0.2829058452891E+00
 0.2061371510428E+01
 0.1935522416176E+01
 0.1802196138323E+01
 0.1661528245791E+01
 0.1513862341522E+01
 0.1359785780063E+01
 0.1200165521587E+01
 0.1036190614167E+01
 0.8694323021237E+00
 0.7019364143725E+00
 0.5363732454895E+00
 0.3763125932017E+00
 0.2269308234806E+00
 0.9903636653654E-01
 0.6147325490745E-01
 0.1249883616099E+00
 0.1578558000054E+00
 0.1279913660982E+00
 0.8541715445733E-02
 0.2367477648706E+00
 0.2236911504717E+01
 0.2119902807462E+01
 0.1994921481858E+01
 0.1861974019251E+01
 0.1721235576498E+01
 0.1573076485706E+01
 0.1418091914985E+01
 0.1257138120756E+01
 0.1091382441272E+01
 0.9223771472338E+00
 0.7521724511574E+00
 0.5834966973440E+00
 0.4200700538117E+00
 0.2672797936262E+00
 0.1346171322723E+00
 0.5701868676709E-01
 0.8713489603348E-01
 0.9752460823554E-01
 0.2473045914858E-01
 0.2133844098149E+00
 0.2419238781151E+01
 0.2313149855395E+01
 0.2198933422201E+01
 0.2076526430280E+01
 0.1946007608617E+01
 0.1807622580521E+01
 0.1661812176528E+01
 0.1509246674544E+01
 0.1350870974623E+01
 0.1187967783262E+01
 0.1022248872115E+01
 0.8559897865043E+00
 0.6922330681910E+00
 0.5351023822407E+00
 0.3902973986842E+00
 0.2658518209076E+00
 0.1729889933977E+00
 0.1261065024452E+00
 0.1505155850640E+00
 0.3139473686416E+00
 0.2606303128613E+01
 0.2512805818356E+01
 0.2411303875074E+01
 0.2301707714889E+01
 0.2184050966261E+01
 0.2058519103501E+01
 0.1925480151255E+01
 0.1785520320218E+01
 0.1639488296407E+01
 0.1488552871994E+01
 0.1334279932706E+01
 0.1178736846859E+01
 0.1024635321216E+01
 0.8755278825338E+00
 0.7360778802618E+00
 0.6124270459697E+00
 0.5126950895146E+00
 0.4476812415006E+00
 0.4320106003762E+00
 0.4819234440163E+00
 0.2795797833264E+01
 0.2716062686748E+01
 0.2628627205278E+01
 0.2533383853930E+01
 0.2430328405558E+01
 0.2319590953310E+01
 0.2201466453111E+01
 0.2076447267243E+01
 0.1945259716750E+01
 0.1808906173864E+01
 0.1668713461260E+01
 0.1526386835356E+01
 0.1384065626158E+01
 0.1244369395237E+01
 0.1110406768821E+01
 0.9856789146923E+00
 0.8737049590871E+00
 0.7769023826735E+00
 0.6931913193798E+00
 0.6044117801519E+00
 0.2985280348891E+01
 0.2919947475916E+01
 0.2847300479270E+01
 0.2767190033587E+01
 0.2679542009323E+01
 0.2584386326641E+01
 0.2481881667816E+01
 0.2372337556945E+01
 0.2256233720027E+01
 0.2134234788531E+01
 0.2007195784731E+01
 0.1876149517787E+01
 0.1742259382005E+01
 0.1606706863969E+01
 0.1470455590598E+01
 0.1333778855380E+01
 0.1195322803302E+01
 0.1050249450492E+01
 0.8865349914461E+00
 0.6807531516186E+00
 0.3172279750593E+01
 0.3121479899779E+01
 0.3063750389101E+01
 0.2998855214509E+01
 0.2926595764214E+01
 0.2846832604878E+01
 0.2759499440103E+01
 0.2664609834257E+01
 0.2562254778734E+01
 0.2452586623531E+01
 0.2335781498503E+01
 0.2211967223263E+01
 0.2081095630480E+01
 0.1942725243824E+01
 0.1795659678686E+01
 0.1637356112873E+01
 0.1462986620016E+01
 0.1264050143446E+01
 0.1027057199346E+01
 0.7349859802680E+00
 0.3354381812460E+01
 0.3317790400998E+01
 0.3274592145768E+01
 0.3224411787739E+01
 0.3166866904855E+01
 0.3101578383618E+01
 0.3028171367593E+01
 0.2946266033294E+01
 0.2855455126966E+01
 0.2755262945516E+01
 0.2645077490402E+01
 0.2524043612187E+01
 0.2390899861921E+01
 0.2243735789848E+01
 0.2079641682883E+01
 0.1894228571546E+01
 0.1681039839805E+01
 0.1431075808816E+01
 0.1133207655330E+01
 0.7779580597383E+00
 0.3529293057610E+01
 0.3506202369447E+01
 0.3476728961423E+01
 0.3440312109082E+01
 0.3396335863558E+01
 0.3344126416887E+01
 0.3282941003250E+01
 0.3211945766916E+01
 0.3130179572944E+01
 0.3036499236054E+01
 0.2929499959636E+01
 0.2807403105558E+01
 0.2667902469177E+01
 0.2507961828054E+01
 0.2323565391876E+01
 0.2109449605556E+01
 0.1858918073203E+01
 0.1564008675469E+01
 0.1216684929706E+01
 0.8140322618017E+00
 0.3694883832466E+01
 0.3684277256566E+01
 0.3667395125910E+01
 0.3643462219335E+01
 0.3611597230248E+01
 0.3570800615339E+01
 0.3519934430357E+01
 0.3457692328816E+01
 0.3382557585885E+01
 0.3292746557403E+01
 0.3186134675012E+01
 0.3060162529409E+01
 0.2911721838581E+01
 0.2737027226385E+01
 0.2531493673075E+01
 0.2289668949240E+01
 0.2005327857602E+01
 0.1671954422498E+01
 0.1284277252411E+01
 0.8444480742407E+00
 0.3849201435690E+01
 0.3849816222460E+01
 0.3844148536598E+01
 0.3831195845769E+01
 0.3809800814076E+01
 0.3778633071426E+01
 0.3736163950484E+01
 0.3680633780957E+01
 0.3610011206250E+01
 0.3521944246303E+01
 0.3413703574933E+01
 0.3282120206686E+01
 0.3123523371293E+01
 0.2933691186325E+01
 0.2707839060779E+01
 0.2440692104407E+01
 0.2126727438645E+01
 0.1760783305605E+01
 0.1339736435767E+01
 0.8694603801189E+00
 0.3990497797773E+01
 0.4000885476516E+01
 0.4004887363225E+01
 0.4001275984400E+01
 0.3988627380841E+01
 0.3965299093903E+01
 0.3929403144408E+01
 0.3878774612241E+01
 0.3810936881894E+01
 0.3723065394127E+01
 0.3611953017706E+01
 0.3473982226859E+01
 0.3305112596772E+01
 0.3100897334510E+01
 0.2856550602125E+01
 0.2567100952659E+01
 0.2227698557819E+01
 0.1834261119567E+01
 0.1385220020945E+01
 0.8891826216721E+00
 0.4117231890423E+01
 0.4135810494430E+01
 0.4147827441936E+01
 0.4151847675816E+01
 0.4146207536044E+01
 0.4128990923266E+01
 0.4098002715486E+01
 0.4050740751197E+01
 0.3984368630546E+01
 0.3895692733405E+01
 0.3781148256079E+01
 0.3636800869827E+01
 0.3458372943645E+01
 0.3241306333942E+01
 0.2980878223664E+01
 0.2672396047977E+01
 0.2311528729263E+01
 0.1894959807370E+01
 0.1422188275161E+01
 0.9038201119405E+00
 0.4228061063868E+01
 0.4253154615273E+01
 0.4271462840348E+01
 0.4281373560866E+01
 0.4281024629494E+01
 0.4268279792568E+01
 0.4240703727343E+01
 0.4195537688492E+01
 0.4129678703735E+01
 0.4039666672024E+01
 0.3921685049171E+01
 0.3771582145072E+01
 0.3584921455672E+01
 0.3357071054229E+01
 0.3083344853199E+01
 0.2759217042492E+01
 0.2380663708632E+01
 0.1944823243416E+01
 0.1451851795077E+01
 0.9137293307377E+00
 0.4321831080176E+01
 0.4351696774908E+01
 0.4374527232805E+01
 0.4388573974194E+01
 0.4391828007478E+01
 0.4381996835561E+01
 0.4356481651043E+01
 0.4312355507376E+01
 0.4246345649479E+01
 0.4154824908206E+01
 0.4033818245825E+01
 0.3879031479212E+01
 0.3685910105514E+01
 0.3449737339094E+01
 0.3165783251175E+01
 0.2829526293808E+01
 0.2437003370183E+01
 0.1985486841829E+01
 0.1475392704010E+01
 0.9194525187317E+00
 0.4397565914243E+01
 0.4430410175266E+01
 0.4455958710465E+01
 0.4472374499883E+01
 0.4477559376473E+01
 0.4469134421178E+01
 0.4444419900612E+01
 0.4400414002665E+01
 0.4333773745926E+01
 0.4240803504748E+01
 0.4117457461833E+01
 0.3959362857639E+01
 0.3761871731148E+01
 0.3520150484914E+01
 0.3229320539038E+01
 0.2884674757074E+01
 0.2482031905882E+01
 0.2018434917688E+01
 0.1494104175360E+01
 0.9218031754122E+00
 0.4454459839126E+01
 0.4488445703410E+01
 0.4514873276297E+01
 0.4531867364268E+01
 0.4537298913145E+01
 0.4528773709329E+01
 0.4503616383792E+01
 0.4458847232579E+01
 0.4391156436747E+01
 0.4296882291616E+01
 0.4171999912413E+01
 0.4012126764042E+01
 0.3812552271472E+01
 0.3568301371955E+01
 0.3274247585794E+01
 0.2925304846940E+01
 0.2516767686780E+01
 0.2045014589333E+01
 0.1509479828341E+01
 0.9220140930106E+00
 0.4491872460650E+01
 0.4525120959535E+01
 0.4550548961935E+01
 0.4566288984240E+01
 0.4570232719795E+01
 0.4560038392494E+01
 0.4533120672830E+01
 0.4486621871754E+01
 0.4417373694566E+01
 0.4321858588638E+01
 0.4196176987265E+01
 0.4036025161786E+01
 0.3836689257264E+01
 0.3593064812386E+01
 0.3299718739540E+01
 0.2951026551841E+01
 0.2541457801801E+01
 0.2066226273218E+01
 0.1523194863057E+01
 0.9219543658124E+00
 0.4509325802077E+01
 0.4539916595899E+01
 0.4562425407968E+01
 0.4575019467552E+01
 0.4575646690086E+01
 0.4562078630587E+01
 0.4531904875918E+01
 0.4482491522591E+01
 0.4410924099887E+01
 0.4313947782199E+01
 0.4187909558431E+01
 0.4028703188519E+01
 0.3831718220174E+01
 0.3591799033364E+01
 0.3303229448021E+01
 0.2959775960753E+01
 0.2554861477394E+01
 0.2082061712740E+01
 0.1536736618834E+01
 0.9243197645867E+00
 0.4506504705819E+01
 0.4532490447872E+01
 0.4550133598182E+01
 0.4557617147774E+01
 0.4552957577312E+01
 0.4534095009706E+01
 0.4498878818274E+01
 0.4444999499718E+01
 0.4369906621990E+01
 0.4270728204367E+01
 0.4144191352609E+01
 0.3986537085502E+01
 0.3793422830898E+01
 0.3559811015151E+01
 0.3279852396431E+01
 0.2946792391589E+01
 0.2552966366084E+01
 0.2090049852800E+01
 0.1550157372270E+01
 0.9323869677902E+00
 0.4483266490794E+01
 0.4502730925429E+01
 0.4513570293486E+01
 0.4513893355526E+01
 0.4501780520713E+01
 0.4475400805576E+01
 0.4432950515892E+01
 0.4372536736143E+01
 0.4292066520500E+01
 0.4189154864039E+01
 0.4061037462231E+01
 0.3904469539579E+01
 0.3715593046397E+01
 0.3489759010224E+01
 0.3221299438399E+01
 0.2903260016279E+01
 0.2527148044060E+01
 0.2082847138009E+01
 0.1559177324365E+01
 0.9479417038669E+00
 0.4439679866669E+01
 0.4450852328963E+01
 0.4452992525334E+01
 0.4443984137826E+01
 0.4421983120700E+01
 0.4385475821422E+01
 0.4333098722115E+01
 0.4263442767743E+01
 0.4174924836359E+01
 0.4065706318353E+01
 0.3933624446598E+01
 0.3776101151046E+01
 0.3590002411532E+01
 0.3371422576266E+01
 0.3115366846774E+01
 0.2815309726181E+01
 0.2462635235587E+01
 0.2046091948716E+01
 0.1551774676694E+01
 0.9659046994000E+00
 0.4376021096065E+01
 0.4377332394729E+01
 0.4368862598128E+01
 0.4348109020828E+01
 0.4313405131636E+01
 0.4263722567034E+01
 0.4198230127371E+01
 0.4116024682733E+01
 0.4016016879517E+01
 0.3896906168124E+01
 0.3757163404111E+01
 0.3594982688169E+01
 0.3408174990241E+01
 0.3193972509906E+01
 0.2948699124504E+01
 0.2667239036426E+01
 0.2342220085194E+01
 0.1962858914608E+01
 0.1513870984049E+01
 0.9769905252120E+00
 0.4292882172070E+01
 0.4283028760167E+01
 0.4261931639890E+01
 0.4226644538070E+01
 0.4176068744675E+01
 0.4109911447448E+01
 0.4027941603845E+01
 0.3929680791372E+01
 0.3814429054581E+01
 0.3681339011534E+01
 0.3529472454059E+01
 0.3357819911694E+01
 0.3165270492888E+01
 0.2950510125907E+01
 0.2711802343901E+01
 0.2446562918632E+01
 0.2150544556414E+01
 0.1816310433140E+01
 0.1430414934027E+01
 0.9700117865216E+00
 0.4191435574018E+01
 0.4169427151791E+01
 0.4133239751916E+01
 0.4080121673478E+01
 0.4010281470287E+01
 0.3924524340018E+01
 0.3823017341042E+01
 0.3705473010728E+01
 0.3571389751254E+01
 0.3420222742432E+01
 0.3251502272166E+01
 0.3064919360668E+01
 0.2860393596385E+01
 0.2638124392294E+01
 0.2398609019282E+01
 0.2142570472764E+01
 0.1870656449758E+01
 0.1582444261830E+01
 0.1273542306481E+01
 0.9261216094032E+00
 0.4073673253616E+01
 0.4038446354919E+01
 0.3983614170309E+01
 0.3908501229219E+01
 0.3816565982474E+01
 0.3708980620512E+01
 0.3585740425966E+01
 0.3446433046937E+01
 0.3290565575767E+01
 0.3117744608789E+01
 0.2927794440009E+01
 0.2720873850860E+01
 0.2497624309822E+01
 0.2259378638730E+01
 0.2008462631752E+01
 0.1748636268644E+01
 0.1485714100674E+01
 0.1228461729463E+01
 0.9891439210907E+00
 0.7811769863819E+00
 0.3943851833250E+01
 0.3892083792369E+01
 0.3810625320269E+01
 0.3711178643954E+01
 0.3596657937902E+01
 0.3466821196613E+01
 0.3321078691262E+01
 0.3158848816115E+01
 0.2979706252885E+01
 0.2783432665816E+01
 0.2570084082319E+01
 0.2340103424907E+01
 0.2094510742243E+01
 0.1835217516062E+01
 0.1565546457624E+01
 0.1291105385910E+01
 0.1021332201435E+01
 0.7723360187951E+00
 0.5735063492477E+00
 0.4826930651920E+00
 0.3803832388340E+01
 0.3714571461674E+01
 0.3609103007182E+01
 0.3490646241003E+01
 0.3356418284555E+01
 0.3205707287239E+01
 0.3038223241536E+01
 0.2853959057386E+01
 0.2653094088676E+01
 0.2436017579926E+01
 0.2203404405270E+01
 0.1956353949486E+01
 0.1696621096615E+01
 0.1426998168512E+01
 0.1151950976658E+01
 0.8787020074289E+00
 0.6191210109591E+00
 0.3933550715701E+00
 0.2370776817973E+00
 0.2272750518668E+00
</DataArray>
<DataArray type="Float64" Name="S_Hyd" NumberOfComponents="1" ComponentName0="S_Hyd" format="ascii">
 0.4942022255251E+01
 0.3382945984322E+01
 0.3181806219764E+01
 0.3002954900936E+01
 0.2899783449304E+01
 0.2821464951630E+01
 0.2761400834766E+01
 0.2712319802441E+01
 0.2671140985416E+01
 0.2635855416654E+01
 0.2605381721300E+01
 0.2579165334794E+01
 0.2557053889140E+01
 0.2539223178640E+01
 0.2526173391065E+01
 0.2518785416187E+01
 0.2518496361266E+01
 0.2527753769903E+01
 0.2552012955860E+01
 0.2600320990544E+01
 0.2667968587913E+01
 0.2735227173253E+01
 0.2789498112129E+01
 0.2829596865318E+01
 0.2860093494437E+01
 0.2886787109970E+01
 0.2914657137836E+01
 0.2947371318116E+01
 0.2987121096655E+01
 0.3033412864958E+01
 0.3084555272733E+01
 0.3145262280997E+01
 0.3224908038808E+01
 0.3332298791687E+01
 0.3477981015954E+01
 0.3680580402244E+01
 0.3960282350435E+01
 0.4406489372827E+01
 0.4940741196028E+01
 0.6841431902249E+01
 0.1373592566942E+01
 0.4365455708391E+01
 0.3607449422507E+01
 0.3183399661240E+01
 0.3021224945561E+01
 0.2899369738830E+01
 0.2815656806462E+01
 0.2750510808809E+01
 0.2698301894132E+01
 0.2654888353193E+01
 0.2618107313541E+01
 0.2586658764859E+01
 0.2559870251979E+01
 0.2537498929195E+01
 0.2519656813726E+01
 0.2506795264308E+01
 0.2499759864691E+01
 0.2499950103285E+01
 0.2509832385712E+01
 0.2534069222685E+01
 0.2576289843248E+01
 0.2631141143449E+01
 0.2686032052496E+01
 0.2731765930386E+01
 0.2766570519075E+01
 0.2793262915747E+01
 0.2816030211056E+01
 0.2838689353699E+01
 0.2864039373398E+01
 0.2893434803218E+01
 0.2926548789103E+01
 0.2963292617791E+01
 0.3006523406239E+01
 0.3061411607523E+01
 0.3133090597642E+01
 0.3227039567475E+01
 0.3347408383729E+01
 0.3506282395269E+01
 0.3672497140016E+01
 0.3931227135003E+01
 0.3429560815193E+01
-0.1778101613714E+01
 0.4058472035626E+01
 0.3590224453581E+01
 0.3216346558432E+01
 0.3020103916912E+01
 0.2896849514810E+01
 0.2806378582607E+01
 0.2737829011107E+01
 0.2682878090838E+01
 0.2637604981934E+01
 0.2599520323756E+01
 0.2567212538086E+01
 0.2539899966755E+01
 0.2517263887868E+01
 0.2499353066080E+01
 0.2486563225163E+01
 0.2479679479198E+01
 0.2480023055530E+01
 0.2489862800957E+01
 0.2512324555342E+01
 0.2548381906846E+01
 0.2593126755312E+01
 0.2637783888112E+01
 0.2675676408573E+01
 0.2704950483458E+01
 0.2727233214651E+01
 0.2745450429696E+01
 0.2762409531336E+01
 0.2780103763146E+01
 0.2799337670247E+01
 0.2819920665941E+01
 0.2841915636783E+01
 0.2866683800614E+01
 0.2896354344829E+01
 0.2932499908992E+01
 0.2974419213009E+01
 0.3018638509183E+01
 0.3047084267084E+01
 0.3026015296516E+01
 0.2786150561867E+01
 0.1492985929688E+01
-0.2459008310061E+01
 0.3847533299900E+01
 0.3521793465491E+01
 0.3215465141916E+01
 0.3016316514393E+01
 0.2887729459131E+01
 0.2794486377796E+01
 0.2722992674944E+01
 0.2666022954983E+01
 0.2619212932955E+01
 0.2580048452454E+01
 0.2547002550099E+01
 0.2519221945584E+01
 0.2496320683548E+01
 0.2478287242423E+01
 0.2465453681420E+01
 0.2458523075089E+01
 0.2458687817226E+01
 0.2467766271586E+01
 0.2487593699314E+01
 0.2517804353826E+01
 0.2554117704745E+01
 0.2590110459015E+01
 0.2620817883278E+01
 0.2644499647035E+01
 0.2661980742739E+01
 0.2675206605910E+01
 0.2686124947648E+01
 0.2696042639959E+01
 0.2705346517207E+01
 0.2713742713779E+01
 0.2720964315144E+01
 0.2727033977219E+01
 0.2731705604331E+01
 0.2733142688506E+01
 0.2726071375427E+01
 0.2697426588063E+01
 0.2618248848388E+01
 0.2417681015531E+01
 0.1870632531767E+01
 0.4376301944953E+00
-0.2509484676267E+01
 0.3684299346553E+01
 0.3441422371049E+01
 0.3190856201911E+01
 0.3003847120715E+01
 0.2874108563288E+01
 0.2779290710975E+01
 0.2706104926415E+01
 0.2647639757459E+01
 0.2599678819126E+01
 0.2559652784548E+01
 0.2525999839100E+01
 0.2497811755117E+01
 0.2474649693551E+01
 0.2456443920474E+01
 0.2443455906858E+01
 0.2436288774376E+01
 0.2435938312126E+01
 0.2443712266241E+01
 0.2460505153784E+01
 0.2485272907176E+01
 0.2514331154339E+01
 0.2542810599634E+01
 0.2566914077542E+01
 0.2585051639651E+01
 0.2597501104303E+01
 0.2605447337484E+01
 0.2610122940336E+01
 0.2612259881698E+01
 0.2611866427882E+01
 0.2608392968942E+01
 0.2601064843986E+01
 0.2588730356907E+01
 0.2569173915852E+01
 0.2537849933798E+01
 0.2485410708039E+01
 0.2393071804883E+01
 0.2222792232802E+01
 0.1888686694349E+01
 0.1200038240601E+01
-0.1548049240208E+00
-0.2402216071307E+01
 0.3549565996191E+01
 0.3359854019087E+01
 0.3152514849542E+01
 0.2982424127041E+01
 0.2855896314394E+01
 0.2761000574458E+01
 0.2687085219588E+01
 0.2627726414083E+01
 0.2578971190850E+01
 0.2538311848306E+01
 0.2504184176370E+01
 0.2475653652769E+01
 0.2452239470661E+01
 0.2433817052637E+01
 0.2420572306573E+01
 0.2412989608653E+01
 0.2411831011966E+01
 0.2417933955682E+01
 0.2431538353541E+01
 0.2451268141732E+01
 0.2473951267438E+01
 0.2495788173474E+01
 0.2513789378937E+01
 0.2526498690639E+01
 0.2533809043559E+01
 0.2536315094166E+01
 0.2534663044026E+01
 0.2529098621803E+01
 0.2519269727066E+01
 0.2504298044905E+01
 0.2482862612466E+01
 0.2452799637106E+01
 0.2410339903586E+01
 0.2348807388649E+01
 0.2256059653688E+01
 0.2109882710758E+01
 0.1868362223021E+01
 0.1450707738504E+01
 0.7180560208907E+00
-0.5001331230018E+00
-0.2264125322887E+01
 0.3433764397445E+01
 0.3280447814546E+01
 0.3106494634393E+01
 0.2953749693135E+01
 0.2833185119368E+01
 0.2739767922456E+01
 0.2665973712135E+01
 0.2606282701783E+01
 0.2557084908090E+01
 0.2516014259391E+01
 0.2481545504645E+01
 0.2452739859336E+01
 0.2429086587361E+01
 0.2410409871706E+01
 0.2396816587973E+01
 0.2388659794142E+01
 0.2386462610378E+01
 0.2390666690387E+01
 0.2401065519552E+01
 0.2416136717619E+01
 0.2433131714414E+01
 0.2449007487738E+01
 0.2461340835275E+01
 0.2468779531638E+01
 0.2470936272940E+01
 0.2467946058745E+01
 0.2459976924321E+01
 0.2446860579254E+01
 0.2427905864286E+01
 0.2401888885274E+01
 0.2366971806917E+01
 0.2320162989462E+01
 0.2256516826283E+01
 0.2167876232577E+01
 0.2040479335730E+01
 0.1850821085301E+01
 0.1558407102710E+01
 0.1096304772087E+01
 0.3705193117388E+00
-0.7073935211637E+00
-0.2131574416101E+01
 0.3331402740870E+01
 0.3204201391176E+01
 0.3056293450801E+01
 0.2919677971851E+01
 0.2806440376294E+01
 0.2715758451110E+01
 0.2642856487672E+01
 0.2583337117230E+01
 0.2534029435718E+01
 0.2492761158179E+01
 0.2458082514028E+01
 0.2429070447187E+01
 0.2405195262508E+01
 0.2386234184698E+01
 0.2372213729614E+01
 0.2363352170059E+01
 0.2359949031967E+01
 0.2362128034878E+01
 0.2369381854095E+01
 0.2380141853433E+01
 0.2392003466710E+01
 0.2402468976736E+01
 0.2409516444340E+01
 0.2411868752890E+01
 0.2408928151962E+01
 0.2400469692446E+01
 0.2386272324792E+01
 0.2365815853501E+01
 0.2338100272292E+01
 0.2301574980945E+01
 0.2253954185224E+01
 0.2191608583176E+01
 0.2108778385129E+01
 0.1996440699312E+01
 0.1840243531281E+01
 0.1617278925788E+01
 0.1291728287256E+01
 0.8120142396302E+00
 0.1174702800297E+00
-0.8339354608036E+00
-0.2012659293520E+01
 0.3239027786081E+01
 0.3131262551321E+01
 0.3003947737430E+01
 0.2881738027955E+01
 0.2776287645537E+01
 0.2689203480638E+01
 0.2617845271454E+01
 0.2558942420318E+01
 0.2509828755147E+01
 0.2468564340206E+01
 0.2433802313278E+01
 0.2404652736231E+01
 0.2380576847695E+01
 0.2361309684704E+01
 0.2346798935145E+01
 0.2337132618469E+01
 0.2332412167424E+01
 0.2332512683267E+01
 0.2336726412489E+01
 0.2343491613158E+01
 0.2350680967991E+01
 0.2356195358844E+01
 0.2358299442889E+01
 0.2355767518030E+01
 0.2347839938800E+01
 0.2334008477377E+01
 0.2313736325561E+01
 0.2286207185637E+01
 0.2250150413988E+01
 0.2203729995217E+01
 0.2144301339623E+01
 0.2067786108656E+01
 0.1967944487873E+01
 0.1835425655106E+01
 0.1656140964846E+01
 0.1409104394006E+01
 0.1064471910315E+01
 0.5843481610322E+00
-0.6875168797475E-01
-0.9111303846609E+00
-0.1907318867113E+01
 0.3154328074655E+01
 0.3061463747655E+01
 0.2950658727732E+01
 0.2841087823308E+01
 0.2743357950446E+01
 0.2660383274938E+01
 0.2591075047789E+01
 0.2533168858217E+01
 0.2484519855829E+01
 0.2443445000941E+01
 0.2408719606851E+01
 0.2379500681310E+01
 0.2355249146171E+01
 0.2335663086347E+01
 0.2320615667254E+01
 0.2310074719935E+01
 0.2303972415283E+01
 0.2301992804864E+01
 0.2303296560650E+01
 0.2306355902436E+01
 0.2309266323904E+01
 0.2310223211902E+01
 0.2307697121715E+01
 0.2300495853684E+01
 0.2287733213212E+01
 0.2268677533504E+01
 0.2242537287376E+01
 0.2208251390037E+01
 0.2164322221386E+01
 0.2108682308462E+01
 0.2038425583545E+01
 0.1949202955101E+01
 0.1834587378737E+01
 0.1685342340064E+01
 0.1488271833814E+01
 0.1225029786891E+01
 0.8717946975454E+00
 0.4017437174557E+00
-0.2070283012982E+00
-0.9568907469384E+00
-0.1813517756463E+01
 0.3075684346180E+01
 0.2994530705073E+01
 0.2897140126779E+01
 0.2798576291508E+01
 0.2708216672036E+01
 0.2629594787366E+01
 0.2562698341628E+01
 0.2506099672698E+01
 0.2458150245378E+01
 0.2417432508593E+01
 0.2382855795668E+01
 0.2353634167492E+01
 0.2329235670067E+01
 0.2309327053907E+01
 0.2293713433217E+01
 0.2282255628541E+01
 0.2274744851946E+01
 0.2270720262306E+01
 0.2269258151193E+01
 0.2268877228918E+01
 0.2267852094500E+01
 0.2264597606977E+01
 0.2257732921635E+01
 0.2246086600479E+01
 0.2228672840922E+01
 0.2204584179317E+01
 0.2172825941429E+01
 0.2132139834556E+01
 0.2080847595583E+01
 0.2016709906128E+01
 0.1936656256755E+01
 0.1836227142503E+01
 0.1709051937177E+01
 0.1546344931615E+01
 0.1336199847714E+01
 0.1063151192454E+01
 0.7088150318615E+00
 0.2548785880132E+00
-0.3103180960989E+00
-0.9818852072044E+00
-0.1729107846228E+01
 0.3001921835130E+01
 0.2930167784865E+01
 0.2843814586976E+01
 0.2754817662101E+01
 0.2671341539451E+01
 0.2597126386535E+01
 0.2532876414302E+01
 0.2477827204794E+01
 0.2430775478464E+01
 0.2390563020609E+01
 0.2356238043350E+01
 0.2327078236014E+01
 0.2302564821088E+01
 0.2282339010201E+01
 0.2266145717233E+01
 0.2253753167216E+01
 0.2244837485196E+01
 0.2238829250900E+01
 0.2234752763179E+01
 0.2231177738671E+01
 0.2226523109245E+01
 0.2219368493143E+01
 0.2208440753386E+01
 0.2192580718395E+01
 0.2170724425931E+01
 0.2141827370194E+01
 0.2104735913060E+01
 0.2058038591001E+01
 0.1999923051400E+01
 0.1928038339908E+01
 0.1839240304331E+01
 0.1729096384074E+01
 0.1591483576913E+01
 0.1418298517432E+01
 0.1199121710514E+01
 0.9212974825949E+00
 0.5710566191847E+00
 0.1364263427074E+00
-0.3876346169807E+00
-0.9927293062539E+00
-0.1652290978626E+01
 0.2932163968439E+01
 0.2868092651245E+01
 0.2790927729733E+01
 0.2710253891871E+01
 0.2633123640237E+01
 0.2563243112573E+01
 0.2501770729314E+01
 0.2448449010857E+01
 0.2402456877343E+01
 0.2362878073020E+01
 0.2328898322497E+01
 0.2299862289637E+01
 0.2275269040973E+01
 0.2254739964068E+01
 0.2237968255856E+01
 0.2224643920015E+01
 0.2214350685744E+01
 0.2206438833226E+01
 0.2199902943882E+01
 0.2193363972204E+01
 0.2185357676323E+01
 0.2174588209304E+01
 0.2159860918385E+01
 0.2140023738916E+01
 0.2113952287367E+01
 0.2080497181933E+01
 0.2038384068797E+01
 0.1986088745280E+01
 0.1921709574569E+01
 0.1842841185479E+01
 0.1746346433088E+01
 0.1627931572216E+01
 0.1481860889566E+01
 0.1300851357261E+01
 0.1076017133254E+01
 0.7972688714212E+00
 0.4546059032002E+00
 0.4068082173863E-01
-0.4453526760271E+00
-0.9936795628972E+00
-0.1581660678404E+01
 0.2865741260957E+01
 0.2808049016488E+01
 0.2738616011194E+01
 0.2665202064106E+01
 0.2593877405199E+01
 0.2528180104685E+01
 0.2469536419871E+01
 0.2418064222120E+01
 0.2373259411425E+01
 0.2334423207734E+01
 0.2300872445724E+01
 0.2272019276273E+01
 0.2247383947507E+01
 0.2226573411637E+01
 0.2209237658949E+01
 0.2195002019167E+01
 0.2183377216162E+01
 0.2173655139662E+01
 0.2164816014213E+01
 0.2155530113039E+01
 0.2144428348183E+01
 0.2130309674524E+01
 0.2112037093714E+01
 0.2088463033211E+01
 0.2058417809279E+01
 0.2020674307935E+01
 0.1973870761004E+01
 0.1916406902248E+01
 0.1846333395510E+01
 0.1761242272394E+01
 0.1658071678407E+01
 0.1532752763774E+01
 0.1380029778930E+01
 0.1193502171784E+01
 0.9657640541995E+00
 0.6889726530581E+00
 0.3561267366829E+00
-0.3679983727484E-01
-0.4880609208735E+00
-0.9875659510264E+00
-0.1516134843091E+01
 0.2802132183628E+01
 0.2749809754654E+01
 0.2686948013907E+01
 0.2619889046361E+01
 0.2553852932522E+01
 0.2492141183280E+01
 0.2436318068302E+01
 0.2386770482172E+01
 0.2343249772066E+01
 0.2305246680437E+01
 0.2272199114845E+01
 0.2243584875985E+01
 0.2218947494827E+01
 0.2197884356576E+01
 0.2180010344951E+01
 0.2164898408014E+01
 0.2152002548640E+01
 0.2140573201210E+01
 0.2129586854193E+01
 0.2117760239196E+01
 0.2103802397611E+01
 0.2086585041540E+01
 0.2065014084373E+01
 0.2037945719675E+01
 0.2004178132114E+01
 0.1962429651964E+01
 0.1911280118664E+01
 0.1849085978434E+01
 0.1773887548840E+01
 0.1683319233542E+01
 0.1574449527580E+01
 0.1443496226755E+01
 0.1285736213058E+01
 0.1095656948250E+01
 0.8672190605672E+00
 0.5944900259431E+00
 0.2728124959367E+00
-0.9948750370080E-01
-0.5191208383557E+00
-0.9763240722796E+00
-0.1454875110241E+01
 0.2740923463642E+01
 0.2693175877223E+01
 0.2635950028957E+01
 0.2574476480914E+01
 0.2513247825359E+01
 0.2455300294820E+01
 0.2402247458423E+01
 0.2354661639306E+01
 0.2312494724618E+01
 0.2275398299815E+01
 0.2242919039428E+01
 0.2214596741298E+01
 0.2189999213674E+01
 0.2168718494498E+01
 0.2150341769057E+01
 0.2134400454254E+01
 0.2120305340150E+01
 0.2107278487429E+01
 0.2094300009012E+01
 0.2080129961970E+01
 0.2063542174473E+01
 0.2043464756054E+01
 0.2018836224326E+01
 0.1988517169159E+01
 0.1951285258525E+01
 0.1905824184838E+01
 0.1850680598583E+01
 0.1784196449940E+01
 0.1704434226820E+01
 0.1609108139335E+01
 0.1495459054582E+01
 0.1360031527822E+01
 0.1198655737535E+01
 0.1006673744393E+01
 0.7792694930036E+00
 0.5121010612703E+00
 0.2023169419443E+00
-0.1501140237435E+00
-0.5410382992882E+00
-0.9613107067892E+00
-0.1397216895448E+01
 0.2681782668179E+01
 0.2637973883659E+01
 0.2585622123797E+01
 0.2529078723665E+01
 0.2472217499072E+01
 0.2417804311848E+01
 0.2367442753647E+01
 0.2321826165156E+01
 0.2281059759013E+01
 0.2244928398899E+01
 0.2213074121633E+01
 0.2185093785457E+01
 0.2160579521752E+01
 0.2139121529702E+01
 0.2120285857226E+01
 0.2103571766083E+01
 0.2088357934207E+01
 0.2073848153470E+01
 0.2059031268400E+01
 0.2042707607318E+01
 0.2023705345781E+01
 0.2000996859820E+01
 0.1973546197969E+01
 0.1940219904480E+01
 0.1899785426732E+01
 0.1850908959676E+01
 0.1792125686224E+01
 0.1721787864720E+01
 0.1638007571697E+01
 0.1538608629565E+01
 0.1421034195582E+01
 0.1282177427894E+01
 0.1118418357030E+01
 0.9258957726150E+00
 0.7008643007595E+00
 0.4402855697352E+00
 0.1426830597825E+00
-0.1908464629074E+00
-0.5557155793978E+00
-0.9435009858731E+00
-0.1342611425562E+01
 0.2624438810496E+01
 0.2584052643724E+01
 0.2535948337642E+01
 0.2483775732069E+01
 0.2430883742135E+01
 0.2379776311910E+01
 0.2332008618082E+01
 0.2288346199200E+01
 0.2249008049544E+01
 0.2213886957027E+01
 0.2182706725780E+01
 0.2155115537020E+01
 0.2130729117214E+01
 0.2109138617753E+01
 0.2089894603189E+01
 0.2072472141352E+01
 0.2056226849332E+01
 0.2040352054490E+01
 0.2023848872317E+01
 0.2005555092799E+01
 0.1984345077606E+01
 0.1959226494346E+01
 0.1929184198791E+01
 0.1893092833349E+01
 0.1849718738798E+01
 0.1797725311382E+01
 0.1735654774090E+01
 0.1661890595466E+01
 0.1574616773742E+01
 0.1471789259886E+01
 0.1351072711171E+01
 0.1209716033055E+01
 0.1044628572570E+01
 0.8526746838186E+00
 0.6310300288196E+00
 0.3777118330292E+00
 0.9227729295278E-01
-0.2234168033936E+00
-0.5646269389086E+00
-0.9236224057505E+00
-0.1290584413030E+01
 0.2568668352739E+01
 0.2531280314305E+01
 0.2486903196192E+01
 0.2438622352005E+01
 0.2389341644071E+01
 0.2341318855427E+01
 0.2296036903576E+01
 0.2254297082541E+01
 0.2216399701120E+01
 0.2182322875885E+01
 0.2151859040104E+01
 0.2124701567767E+01
 0.2100488455597E+01
 0.2078813917185E+01
 0.2059217787588E+01
 0.2041157597775E+01
 0.2023973231037E+01
 0.2006853571251E+01
 0.1988814443554E+01
 0.1968728593959E+01
 0.1945510186325E+01
 0.1918195561302E+01
 0.1885787349075E+01
 0.1847170748256E+01
 0.1801119005688E+01
 0.1746305222678E+01
 0.1681294192212E+01
 0.1604517759854E+01
 0.1514249315055E+01
 0.1408592792572E+01
 0.1285444482589E+01
 0.1142404885407E+01
 0.9768809334849E+00
 0.7863859081230E+00
 0.5688775967414E+00
 0.3232181342318E+00
 0.4973665802730E-01
-0.2492276237844E+00
-0.5689165686832E+00
-0.9022959671717E+00
-0.1240682944301E+01
 0.2514284986614E+01
 0.2479541416210E+01
 0.2438455949908E+01
 0.2393655004461E+01
 0.2347665131333E+01
 0.2302517019574E+01
 0.2259607637940E+01
 0.2219747248059E+01
 0.2183291242773E+01
 0.2150283403880E+01
 0.2120572533110E+01
 0.2093890996394E+01
 0.2069897306505E+01
 0.2048190233541E+01
 0.2028302787553E+01
 0.2009680450355E+01
 0.1991653258631E+01
 0.1973410284540E+01
 0.1953983719586E+01
 0.1932279064734E+01
 0.1907245276506E+01
 0.1877942507497E+01
 0.1843389323951E+01
 0.1802484040536E+01
 0.1754013773295E+01
 0.1696671831842E+01
 0.1629058355680E+01
 0.1549667234590E+01
 0.1456874224024E+01
 0.1348941230774E+01
 0.1223998920587E+01
 0.1079986978667E+01
 0.9147715749523E+00
 0.7264384053048E+00
 0.5136019488696E+00
 0.2757961669206E+00
 0.1391261201730E-01
-0.2693971529314E+00
-0.5695496458597E+00
-0.8799106723453E+00
-0.1193017818977E+01
 0.2461139184130E+01
 0.2428756182191E+01
 0.2390605652969E+01
 0.2348938544295E+01
 0.2305961022791E+01
 0.2263497274038E+01
 0.2222852020961E+01
 0.2184825527036E+01
 0.2149807646161E+01
 0.2117891227872E+01
 0.2088970447410E+01
 0.2062810759690E+01
 0.2039089294974E+01
 0.2017410498738E+01
 0.1997303872484E+01
 0.1978207515632E+01
 0.1959446524246E+01
 0.1940213891407E+01
 0.1919559393793E+01
 0.1896419443395E+01
 0.1869773868869E+01
 0.1838703010705E+01
 0.1802240292013E+01
 0.1759299553378E+01
 0.1708687592655E+01
 0.1649126372104E+01
 0.1579261262579E+01
 0.1497658071304E+01
 0.1402802974846E+01
 0.1293119512316E+01
 0.1166967753273E+01
 0.1022606028870E+01
 0.8583148985919E+00
 0.6726751236553E+00
 0.4648436096835E+00
 0.2348770848781E+00
-0.1592525865463E-01
-0.2847631807623E+00
-0.5671747352316E+00
-0.8574403582748E+00
-0.1147240486349E+01
 0.2409091086908E+01
 0.2378829934494E+01
 0.2343311253965E+01
 0.2304479942958E+01
 0.2264268470995E+01
 0.2224314521932E+01
 0.2185828556022E+01
 0.2149587357743E+01
 0.2115999006246E+01
 0.2085191504849E+01
 0.2057094680063E+01
 0.2031501557606E+01
 0.2008105872155E+01
 0.1986518432581E+01
 0.1966267854190E+01
 0.1946788587378E+01
 0.1927404625401E+01
 0.1907315661366E+01
 0.1885589763980E+01
 0.1861192527580E+01
 0.1833131480269E+01
 0.1800504561215E+01
 0.1762359573357E+01
 0.1717628103054E+01
 0.1665141403201E+01
 0.1603656726469E+01
 0.1531872094073E+01
 0.1448432028933E+01
 0.1351937500416E+01
 0.1240973133874E+01
 0.1114119078226E+01
 0.9699283970577E+00
 0.8070511698772E+00
 0.6244927368321E+00
 0.4218545021643E+00
 0.1995995489429E+00
-0.4069215265481E-01
-0.2961360321807E+00
-0.5625587952293E+00
-0.8344751553373E+00
-0.1106500219996E+01
 0.2358023849172E+01
 0.2329666239669E+01
 0.2296510822760E+01
 0.2260247303872E+01
 0.2222574690384E+01
 0.2184962700566E+01
 0.2148528415456E+01
 0.2114015661280E+01
 0.2081837912936E+01
 0.2052146584313E+01
 0.2024898472000E+01
 0.1999908906019E+01
 0.1976885969494E+01
 0.1955446952889E+01
 0.1935121388321E+01
 0.1915342811461E+01
 0.1895436906840E+01
 0.1874611983270E+01
 0.1851954684145E+01
 0.1826458237697E+01
 0.1797155334983E+01
 0.1763159548361E+01
 0.1723532875507E+01
 0.1677226622081E+01
 0.1623100437457E+01
 0.1559952167274E+01
 0.1486538195383E+01
 0.1401586619426E+01
 0.1303815555131E+01
 0.1191968364406E+01
 0.1064835017123E+01
 0.9212404638310E+00
 0.7601645538706E+00
 0.5809777299115E+00
 0.3836478970364E+00
 0.1689527666932E+00
-0.6132826529161E-01
-0.3043139338392E+00
-0.5560195097172E+00
-0.8116773918050E+00
-0.1066131665181E+01
 0.2307837752245E+01
 0.2281195079239E+01
 0.2250170602088E+01
 0.2216240789934E+01
 0.2180904292856E+01
 0.2145480207701E+01
 0.2110995060819E+01
 0.2078153493739E+01
 0.2047364532746E+01
 0.2018793361419E+01
 0.1992416246618E+01
 0.1968066038852E+01
 0.1945462934003E+01
 0.1924230539964E+01
 0.1903900614976E+01
 0.1883907883812E+01
 0.1863581856592E+01
 0.1842140842007E+01
 0.1818690103308E+01
 0.1792249098177E+01
 0.1761873576661E+01
 0.1726691245485E+01
 0.1685778278088E+01
 0.1638107351274E+01
 0.1582569598882E+01
 0.1518007414704E+01
 0.1443239483691E+01
 0.1357080205663E+01
 0.1258364807247E+01
 0.1145990600431E+01
 0.1018945086050E+01
 0.8763016274125E+00
 0.7173321244097E+00
 0.5417192480119E+00
 0.3497309587964E+00
 0.1423882945049E+00
-0.7839983224743E-01
-0.3097790515806E+00
-0.5480211241436E+00
-0.7887585646813E+00
-0.1027369452432E+01
 0.2258445812211E+01
 0.2233353447349E+01
 0.2204257893372E+01
 0.2172456417238E+01
 0.2139275070043E+01
 0.2105898053757E+01
 0.2073265395311E+01
 0.2042038728487E+01
 0.2012615199707E+01
 0.1985165937363E+01
 0.1959680281218E+01
 0.1936004324546E+01
 0.1913868220355E+01
 0.1892901518914E+01
 0.1872639104468E+01
 0.1852518467261E+01
 0.1831874533307E+01
 0.1809936565037E+01
 0.1785828299217E+01
 0.1758594116821E+01
 0.1727311036932E+01
 0.1691119714984E+01
 0.1649110533991E+01
 0.1600278836492E+01
 0.1543549525832E+01
 0.1477812282774E+01
 0.1401950467586E+01
 0.1314865684617E+01
 0.1215508285314E+01
 0.1102922913269E+01
 0.9762810761856E+00
 0.8348812490989E+00
 0.6782523806595E+00
 0.5063427269757E+00
 0.3196650267391E+00
 0.1194253988088E+00
-0.9238402810856E-01
-0.3129698745646E+00
-0.5388247372217E+00
-0.7659413606142E+00
-0.9901151412949E+00
 0.2209771395429E+01
 0.2186084429749E+01
 0.2158741099200E+01
 0.2128887120731E+01
 0.2097699281986E+01
 0.2066241010030E+01
 0.2035370550749E+01
 0.2005704482989E+01
 0.1977622569460E+01
 0.1951295606680E+01
 0.1926720612737E+01
 0.1903753150082E+01
 0.1882131295269E+01
 0.1861490016472E+01
 0.1841367890381E+01
 0.1821206311969E+01
 0.1800346765682E+01
 0.1778030070914E+01
 0.1753398131667E+01
 0.1725519007672E+01
 0.1693489415601E+01
 0.1656461971671E+01
 0.1613541272011E+01
 0.1563746243702E+01
 0.1506037096526E+01
 0.1439352447577E+01
 0.1362641342861E+01
 0.1274891955491E+01
 0.1175166218863E+01
 0.1062648176505E+01
 0.9366791928366E+00
 0.7967603187661E+00
 0.6426455248579E+00
 0.4745080693429E+00
 0.2930592471780E+00
 0.9964503674303E-01
-0.1036957515475E+00
-0.3142438753615E+00
-0.5286952380918E+00
-0.7433528400745E+00
-0.9543754481665E+00
 0.2161746376402E+01
 0.2139336291074E+01
 0.2113589752430E+01
 0.2085523492093E+01
 0.2056184677759E+01
 0.2026528547084E+01
 0.1997336571448E+01
 0.1969179516491E+01
 0.1942415786571E+01
 0.1917210873438E+01
 0.1893564974152E+01
 0.1871339831524E+01
 0.1850279561592E+01
 0.1830023927919E+01
 0.1810115499586E+01
 0.1790000356748E+01
 0.1769027317202E+01
 0.1746449072988E+01
 0.1721425252210E+01
 0.1693046380505E+01
 0.1660427444609E+01
 0.1622732144399E+01
 0.1579079203557E+01
 0.1528511671825E+01
 0.1470025912201E+01
 0.1402610159937E+01
 0.1325278981565E+01
 0.1237105207189E+01
 0.1137257598789E+01
 0.1025050781592E+01
 0.8999816658131E+00
 0.7617324807182E+00
 0.6102532842832E+00
 0.4459072211362E+00
 0.2695660284816E+00
 0.8267976783104E-01
-0.1126917564778E+00
-0.3139103463011E+00
-0.5178578015712E+00
-0.7211083921927E+00
-0.9201359476660E+00
 0.2114309653246E+01
 0.2093061671898E+01
 0.2068774479040E+01
 0.2042354316372E+01
 0.2014735291404E+01
 0.1986775606189E+01
 0.1959185003189E+01
 0.1932488595204E+01
 0.1907020656642E+01
 0.1882937489083E+01
 0.1860238756492E+01
 0.1838789547701E+01
 0.1818338299625E+01
 0.1798528892566E+01
 0.1778907979341E+01
 0.1758926814211E+01
 0.1737942022429E+01
 0.1715218247552E+01
 0.1689932279435E+01
 0.1661195904752E+01
 0.1628141039466E+01
 0.1589941636169E+01
 0.1545730331594E+01
 0.1494574461331E+01
 0.1435506757955E+01
 0.1367564904946E+01
 0.1289827822003E+01
 0.1201450043069E+01
 0.1101701491247E+01
 0.9900180124095E+00
 0.8660379290340E+00
 0.7296046207148E+00
 0.5808383186493E+00
 0.4202619062334E+00
 0.2488762021789E+00
 0.6820752863172E-01
-0.1196814214768E+00
-0.3122358195803E+00
-0.5065067851562E+00
-0.6993063716986E+00
-0.8873822967855E+00
 0.2067405930822E+01
 0.2047216896940E+01
 0.2024266917701E+01
 0.1999366966509E+01
 0.1973352071853E+01
 0.1946993241482E+01
 0.1920933409926E+01
 0.1895652836480E+01
 0.1871459832145E+01
 0.1848498522255E+01
 0.1826765009770E+01
 0.1806125313266E+01
 0.1786330644535E+01
 0.1767028299335E+01
 0.1747768946322E+01
 0.1728009268714E+01
 0.1707113928386E+01
 0.1684359403831E+01
 0.1658938979401E+01
 0.1629984487907E+01
 0.1596643477315E+01
 0.1558099321159E+01
 0.1513498200729E+01
 0.1461931539577E+01
 0.1402468085876E+01
 0.1334194058078E+01
 0.1256250716815E+01
 0.1167870510958E+01
 0.1068418191277E+01
 0.9574411888359E+00
 0.8347055201815E+00
 0.7001971656673E+00
 0.5541834891364E+00
 0.3973213578323E+00
 0.2307150245605E+00
 0.5594560591413E-01
-0.1249337627219E+00
-0.3094507942096E+00
-0.4948098996683E+00
-0.6780316611153E+00
-0.8561013255020E+00
 0.2020984713175E+01
 0.2001761377928E+01
 0.1980039610579E+01
 0.1956547687036E+01
 0.1932033377320E+01
 0.1907189147833E+01
 0.1882595817487E+01
 0.1858690020038E+01
 0.1835752994131E+01
 0.1813914440700E+01
 0.1793164462512E+01
 0.1773367970610E+01
 0.1754277579025E+01
 0.1735543301293E+01
 0.1716719636401E+01
 0.1697268766124E+01
 0.1676563420121E+01
 0.1653891634101E+01
 0.1628462427022E+01
 0.1599426440073E+01
 0.1565945567970E+01
 0.1527211739527E+01
 0.1482384144539E+01
 0.1430577755291E+01
 0.1370896470425E+01
 0.1302473486954E+01
 0.1224509689656E+01
 0.1136310994524E+01
 0.1037330183332E+01
 0.9272165662744E+00
 0.8058507062495E+00
 0.6733441394773E+00
 0.5300909851564E+00
 0.3768601881202E+00
 0.2148385705513E+00
 0.4564564437019E-01
-0.1286831890826E+00
-0.3057551028644E+00
-0.4829123505465E+00
-0.6573580096023E+00
-0.8262827086787E+00
 0.1974999461967E+01
 0.1956657097384E+01
 0.1936065879040E+01
 0.1913881795888E+01
 0.1890775364564E+01
 0.1867368096259E+01
 0.1844183095434E+01
 0.1821614869499E+01
 0.1799917029009E+01
 0.1779203203343E+01
 0.1759455558384E+01
 0.1740536200117E+01
 0.1722197941802E+01
 0.1704092840898E+01
 0.1685778958416E+01
 0.1666723900453E+01
 0.1646308337226E+01
 0.1623831451758E+01
 0.1598517156260E+01
 0.1569533631308E+01
 0.1536055822800E+01
 0.1497283293143E+01
 0.1452387532294E+01
 0.1400506204510E+01
 0.1340777039802E+01
 0.1272378105538E+01
 0.1194566612610E+01
 0.1106716986626E+01
 0.1008362942423E+01
 0.8992460412242E+00
 0.7793489056177E+00
 0.6488930525003E+00
 0.5083814020940E+00
 0.3586764081931E+00
 0.2010305760230E+00
 0.3708945249535E-01
-0.1311342168422E+00
-0.3013223867362E+00
-0.4709403057572E+00
-0.6373501524281E+00
-0.7979194871394E+00
 0.1929406888122E+01
 0.1911868159652E+01
 0.1892319690863E+01
 0.1871353822347E+01
 0.1849572291856E+01
 0.1827532289120E+01
 0.1805703280396E+01
 0.1784439300184E+01
 0.1763966191772E+01
 0.1744380351769E+01
 0.1725654498446E+01
 0.1707646537164E+01
 0.1690108440406E+01
 0.1672693674815E+01
 0.1654963541306E+01
 0.1636390887323E+01
 0.1616364071722E+01
 0.1594192907620E+01
 0.1569115288308E+01
 0.1540315629066E+01
 0.1506980606249E+01
 0.1468316424668E+01
 0.1423505995759E+01
 0.1371708527828E+01
 0.1312093863603E+01
 0.1243882363103E+01
 0.1166383790801E+01
 0.1079035738302E+01
 0.9814455800008E+00
 0.8734376807238E+00
 0.7550849375153E+00
 0.6267046656211E+00
 0.4888928021978E+00
 0.3425896095571E+00
 0.1890996836172E+00
 0.3008546814986E-01
-0.1324653781738E+00
-0.2963037935796E+00
-0.4590037958614E+00
-0.6180655030607E+00
-0.7710081814020E+00
 0.1884166351956E+01
 0.1867360400485E+01
 0.1848775527347E+01
 0.1828947600414E+01
 0.1808416757775E+01
 0.1787681654000E+01
 0.1767161854336E+01
 0.1747172641822E+01
 0.1727912261406E+01
 0.1709459105720E+01
 0.1691775293747E+01
 0.1674713401356E+01
 0.1658023674901E+01
 0.1641360406083E+01
 0.1624287783839E+01
 0.1606283635077E+01
 0.1586743659555E+01
 0.1564987697712E+01
 0.1540266651419E+01
 0.1511779829096E+01
 0.1478724282870E+01
 0.1440311792501E+01
 0.1395735648827E+01
 0.1344175192902E+01
 0.1284830312999E+01
 0.1216960687839E+01
 0.1139924479550E+01
 0.1053216816200E+01
 0.9565113770379E+00
 0.8497061287822E+00
 0.7329531611739E+00
 0.6066526937158E+00
 0.4714798132923E+00
 0.3284393342300E+00
 0.1788770669682E+00
 0.2446578439070E-01
-0.1328324650692E+00
-0.2908310347103E+00
-0.4471991103592E+00
-0.5995555005340E+00
-0.7455487399852E+00
 0.1839239351677E+01
 0.1823101046445E+01
 0.1805408254089E+01
 0.1786646329738E+01
 0.1767299890203E+01
 0.1747814088347E+01
 0.1728561985420E+01
 0.1709821839675E+01
 0.1691764689113E+01
 0.1674450461818E+01
 0.1657829827077E+01
 0.1641749136976E+01
 0.1625956171987E+01
 0.1610105523869E+01
 0.1593763907990E+01
 0.1576413815386E+01
 0.1557457868182E+01
 0.1536225265217E+01
 0.1511978894647E+01
 0.1483931581177E+01
 0.1451289360056E+01
 0.1413268440719E+01
 0.1369071298540E+01
 0.1317895760888E+01
 0.1258969393196E+01
 0.1191587887211E+01
 0.1115153339970E+01
 0.1029212579960E+01
 0.9334982229301E+00
 0.8279729160342E+00
 0.7128575367162E+00
 0.5886234807495E+00
 0.4560127878779E+00
 0.3160836324547E+00
 0.1702143924423E+00
 0.2008364917829E-01
-0.1323712230598E+00
-0.2850189080702E+00
-0.4356107643525E+00
-0.5818666844083E+00
-0.7215444051519E+00
 0.1794589084504E+01
 0.1779058415813E+01
 0.1762192996108E+01
 0.1744432610737E+01
 0.1726211493670E+01
 0.1707925660799E+01
 0.1689904733549E+01
 0.1672391632183E+01
 0.1655530734422E+01
 0.1639363288664E+01
 0.1623827916013E+01
 0.1608764056388E+01
 0.1593916421103E+01
 0.1578939442494E+01
 0.1563402007839E+01
 0.1546790925412E+01
 0.1528515272285E+01
 0.1507912888237E+01
 0.1484257586341E+01
 0.1456774299324E+01
 0.1424676614727E+01
 0.1387183951056E+01
 0.1343506633723E+01
 0.1292859122952E+01
 0.1234494035183E+01
 0.1167739494048E+01
 0.1092036825361E+01
 0.1006978576700E+01
 0.9123489633549E+00
 0.8081666819331E+00
 0.6947116214737E+00
 0.5725156599058E+00
 0.4423770278826E+00
 0.3053977946500E+00
 0.1629820766505E+00
 0.1681136752467E-01
-0.1311995834257E+00
-0.2789673711028E+00
-0.4243130999316E+00
-0.5650415378614E+00
-0.6990015561038E+00
 0.1750180068215E+01
 0.1735201656171E+01
 0.1719105020612E+01
 0.1702288463305E+01
 0.1685140167053E+01
 0.1668010780890E+01
 0.1651189230230E+01
 0.1634884712579E+01
 0.1619215594941E+01
 0.1604204423131E+01
 0.1589777381840E+01
 0.1575766491224E+01
 0.1561912917977E+01
 0.1547870545916E+01
 0.1533210101003E+01
 0.1517422349343E+01
 0.1499922326114E+01
 0.1480055762271E+01
 0.1457106306349E+01
 0.1430309565175E+01
 0.1398885212389E+01
 0.1362054585151E+01
 0.1319034399744E+01
 0.1269053716202E+01
 0.1211387357672E+01
 0.1145392071748E+01
 0.1070543515282E+01
 0.9864738738770E+00
 0.8930116832275E+00
 0.7902233399007E+00
 0.6784385340872E+00
 0.5582398283551E+00
 0.4304720947890E+00
 0.2962732588566E+00
 0.1570678155198E+00
 0.1453855553294E-01
-0.1294195027974E+00
-0.2727632377107E+00
-0.4133715874344E+00
-0.5491191632800E+00
-0.6779295495141E+00
 0.1705977812318E+01
 0.1691500511973E+01
 0.1676119625806E+01
 0.1660195331159E+01
 0.1644073394813E+01
 0.1628062339179E+01
 0.1612412832484E+01
 0.1597301871483E+01
 0.1582822524449E+01
 0.1568978760954E+01
 0.1555684116472E+01
 0.1542762842948E+01
 0.1529952206959E+01
 0.1516905228981E+01
 0.1503194173975E+01
 0.1488313410702E+01
 0.1471683423705E+01
 0.1452657068305E+01
 0.1430526722178E+01
 0.1404537213987E+01
 0.1373912807069E+01
 0.1337875404846E+01
 0.1295646546731E+01
 0.1246467706507E+01
 0.1189632887564E+01
 0.1124523468641E+01
 0.1050644389925E+01
 0.9676613266137E+00
 0.8754399247187E+00
 0.7740861889113E+00
 0.6639708916570E+00
 0.5457182402844E+00
 0.4202112020968E+00
 0.2886166783992E+00
 0.1523753535861E+00
 0.1317069969560E-01
-0.1271184657638E+00
-0.2664815528322E+00
-0.4028438702439E+00
-0.5341358085241E+00
-0.6583405847405E+00
 0.1661948531270E+01
 0.1647925118371E+01
 0.1633212036860E+01
 0.1618134076635E+01
 0.1602997618350E+01
 0.1588071824249E+01
 0.1573571255885E+01
 0.1559642123885E+01
 0.1546352941281E+01
 0.1533689342495E+01
 0.1521552147663E+01
 0.1509757632910E+01
 0.1498038922369E+01
 0.1486047935931E+01
 0.1473358222178E+01
 0.1459467416568E+01
 0.1443800948402E+01
 0.1425718027993E+01
 0.1404518650512E+01
 0.1379455404409E+01
 0.1349755623098E+01
 0.1314640371444E+01
 0.1273334352511E+01
 0.1225089140266E+01
 0.1169214742387E+01
 0.1105113027015E+01
 0.1032313053031E+01
 0.9505077909362E+00
 0.8595928551024E+00
 0.7597059888342E+00
 0.6512507379149E+00
 0.5348845335419E+00
 0.4115206984463E+00
 0.2823491464513E+00
 0.1488234754437E+00
 0.1262798875761E-01
-0.1243706935203E+00
-0.2601866912759E+00
-0.3927805939095E+00
-0.5201252811453E+00
-0.6402495795982E+00
 0.1618058892770E+01
 0.1604445818505E+01
 0.1590357310534E+01
 0.1576084971146E+01
 0.1561898294784E+01
 0.1548029424530E+01
 0.1534658694342E+01
 0.1521902827374E+01
 0.1509806533113E+01
 0.1498337439387E+01
 0.1487383708146E+01
 0.1476753557774E+01
 0.1466175835151E+01
 0.1455301203020E+01
 0.1443704292191E+01
 0.1430885701716E+01
 0.1416275320076E+01
 0.1399237954596E+01
 0.1379080112780E+01
 0.1355060680619E+01
 0.1326408527186E+01
 0.1292342432364E+01
 0.1252088528867E+01
 0.1204906074250E+01
 0.1150117784774E+01
 0.1087141758246E+01
 0.1015525916636E+01
 0.9349842982633E+00
 0.8454354016377E+00
 0.7470410178089E+00
 0.6402294800430E+00
 0.5256835041508E+00
 0.4043396488122E+00
 0.2774055746393E+00
 0.1463452040284E+00
 0.1284439062314E-01
-0.1212380952227E+00
-0.2539332208900E+00
-0.3832260583938E+00
-0.5071192768147E+00
-0.6236740884373E+00
 0.1574275795485E+01
 0.1561033000105E+01
 0.1547530246729E+01
 0.1534027681311E+01
 0.1520759943907E+01
 0.1507924115236E+01
 0.1495667925671E+01
 0.1484079789080E+01
 0.1473181354134E+01
 0.1462922636821E+01
 0.1453179302588E+01
 0.1443751543562E+01
 0.1434363897741E+01
 0.1424665697904E+01
 0.1414232518651E+01
 0.1402567665000E+01
 0.1389105032122E+01
 0.1373214291393E+01
 0.1354207376046E+01
 0.1331348017591E+01
 0.1303865081082E+01
 0.1270973585105E+01
 0.1231899300934E+01
 0.1185906673577E+01
 0.1132327739715E+01
 0.1070592475963E+01
 0.1000262341120E+01
 0.9210661865799E+00
 0.8329383509123E+00
 0.7360571106180E+00
 0.6308678335476E+00
 0.5180709267803E+00
 0.3986195083586E+00
 0.2737342147494E+00
 0.1448871882466E+00
 0.1376695100080E-01
-0.1177709882726E+00
-0.2477665548923E+00
-0.3742187109630E+00
-0.4951476298817E+00
-0.6086342469809E+00
 0.1530566171533E+01
 0.1517656949029E+01
 0.1504705307179E+01
 0.1491941253258E+01
 0.1479566187144E+01
 0.1467743734632E+01
 0.1456590406843E+01
 0.1446167364556E+01
 0.1436473917129E+01
 0.1427442913422E+01
 0.1418937773955E+01
 0.1410750799882E+01
 0.1402602288750E+01
 0.1394140257605E+01
 0.1384941157838E+01
 0.1374510800204E+01
 0.1362286680627E+01
 0.1347642639980E+01
 0.1329894981567E+01
 0.1308310851721E+01
 0.1282117576910E+01
 0.1250524920631E+01
 0.1212756462027E+01
 0.1168079280545E+01
 0.1115831278027E+01
 0.1055449891663E+01
 0.9865047363105E+00
 0.9087331953805E+00
 0.8220784209341E+00
 0.7267276869914E+00
 0.6231357837130E+00
 0.5120134277352E+00
 0.3943238916896E+00
 0.2712963207185E+00
 0.1444092705591E+00
 0.1535529806740E-01
-0.1140086078670E+00
-0.2417234151914E+00
-0.3657914996840E+00
-0.4842384998540E+00
-0.5951527487545E+00
 0.1486896809678E+01
 0.1474287717281E+01
 0.1461856540780E+01
 0.1449804096276E+01
 0.1438299780672E+01
 0.1427475052006E+01
 0.1417416360902E+01
 0.1408158549901E+01
 0.1399679281008E+01
 0.1391894718678E+01
 0.1384656368858E+01
 0.1377748873620E+01
 0.1370888456701E+01
 0.1363721924310E+01
 0.1355826617293E+01
 0.1346710720762E+01
 0.1335814985087E+01
 0.1322516777804E+01
 0.1306135760229E+01
 0.1285941095836E+01
 0.1261157054104E+01
 0.1230986645021E+01
 0.1194649402828E+01
 0.1151412453546E+01
 0.1100616065776E+01
 0.1041700673278E+01
 0.9742386250052E+00
 0.8979695267879E+00
 0.8128383092827E+00
 0.7190337736761E+00
 0.6170125672847E+00
 0.5074884129152E+00
 0.3914284375618E+00
 0.2700659475121E+00
 0.1448842270599E+00
 0.1758134184849E-01
-0.1099794197060E+00
-0.2358321210429E+00
-0.3579720995482E+00
-0.4744185006178E+00
-0.5832548531455E+00
 0.1443234195826E+01
 0.1430895003386E+01
 0.1418957515122E+01
 0.1407593966804E+01
 0.1396942644591E+01
 0.1387103829492E+01
 0.1378134857450E+01
 0.1370045068479E+01
 0.1362791134574E+01
 0.1356273048147E+01
 0.1350330801723E+01
 0.1344741701771E+01
 0.1339218162421E+01
 0.1333405978612E+01
 0.1326883481117E+01
 0.1319161178043E+01
 0.1309682800383E+01
 0.1297828664568E+01
 0.1282920834405E+01
 0.1264229138044E+01
 0.1240973297271E+01
 0.1212348078720E+01
 0.1177567114365E+01
 0.1135894975707E+01
 0.1086670779687E+01
 0.1029333467242E+01
 0.9634526701450E+00
 0.8887638747133E+00
 0.8052067197534E+00
 0.7129640230290E+00
 0.6124866770278E+00
 0.5044840526713E+00
 0.3899207695817E+00
 0.2700298853610E+00
 0.1462976760508E+00
 0.2042916186919E-01
-0.1057012441299E+00
-0.2301127118437E+00
-0.3507830187546E+00
-0.4657127766584E+00
-0.5729684244802E+00
 0.1399544367799E+01
 0.1387448043449E+01
 0.1375981254062E+01
 0.1365287954013E+01
 0.1355475890324E+01
 0.1346614880273E+01
 0.1338733889156E+01
 0.1331817454371E+01
 0.1325801878208E+01
 0.1320571517789E+01
 0.1315955318891E+01
 0.1311723664374E+01
 0.1307585521010E+01
 0.1303185971167E+01
 0.1298104532001E+01
 0.1291854074287E+01
 0.1283881121124E+01
 0.1273568438562E+01
 0.1260239607211E+01
 0.1243163825254E+01
 0.1221554815743E+01
 0.1194597634064E+01
 0.1161498165477E+01
 0.1121515834050E+01
 0.1073985089477E+01
 0.1018338885215E+01
 0.9541386669812E+00
 0.8811094236290E+00
 0.7991783692152E+00
 0.7085147298775E+00
 0.6095558907688E+00
 0.5029993248452E+00
 0.3898005536307E+00
 0.2711877293246E+00
 0.1486481540684E+00
 0.2389508081618E-01
-0.1011811951595E+00
-0.2245769083166E+00
-0.3442415891415E+00
-0.4581450288439E+00
-0.5643240013484E+00
 0.1355792781661E+01
 0.1343915511144E+01
 0.1332900180862E+01
 0.1322862467600E+01
 0.1313879847582E+01
 0.1305992124812E+01
 0.1299200445809E+01
 0.1293465133709E+01
 0.1288702704236E+01
 0.1284782437781E+01
 0.1281522762699E+01
 0.1278687637448E+01
 0.1275983043221E+01
 0.1273053752581E+01
 0.1269480769775E+01
 0.1264779470001E+01
 0.1258399078093E+01
 0.1249724402613E+01
 0.1238079738726E+01
 0.1222732430858E+01
 0.1202888804195E+01
 0.1177722770434E+01
 0.1146430654065E+01
 0.1108264168470E+01
 0.1062549606434E+01
 0.1008709454760E+01
 0.9462914995295E+00
 0.8750038161743E+00
 0.7947539738188E+00
 0.7056898457496E+00
 0.6082273241237E+00
 0.5030441155309E+00
 0.3910796522005E+00
 0.2735520852284E+00
 0.1519473612195E+00
 0.2798792645865E-01
-0.9641543242919E-01
-0.2192279107786E+00
-0.3383598397866E+00
-0.4517374881247E+00
-0.5573548940886E+00
 0.1311944187094E+01
 0.1300265425018E+01
 0.1289686066373E+01
 0.1280293228264E+01
 0.1272134092023E+01
 0.1265218646430E+01
 0.1259520587151E+01
 0.1254976504833E+01
 0.1251483676495E+01
 0.1248896885984E+01
 0.1247024635477E+01
 0.1245625045660E+01
 0.1244401675903E+01
 0.1242999501139E+01
 0.1241001426103E+01
 0.1237925585382E+01
 0.1233223926351E+01
 0.1226282999107E+01
 0.1216427108582E+01
 0.1202920605903E+01
 0.1184961083622E+01
 0.1161709926265E+01
 0.1132352131359E+01
 0.1096129189713E+01
 0.1052355797314E+01
 0.1000439532897E+01
 0.9399090599491E+00
 0.8704490878830E+00
 0.7919402125071E+00
 0.7045009882563E+00
 0.6085175049260E+00
 0.5046393764603E+00
 0.3937823762241E+00
 0.2771489149236E+00
 0.1562205812751E+00
 0.3272948904796E-01
-0.9138871856375E-01
-0.2140600281188E+00
-0.3331442493659E+00
-0.4465108325988E+00
-0.5520973076459E+00
 0.1267962509583E+01
 0.1256465062036E+01
 0.1246309982471E+01
 0.1237555262251E+01
 0.1230217475814E+01
 0.1224276748909E+01
 0.1219679517247E+01
 0.1216339019919E+01
 0.1214133811596E+01
 0.1212904783408E+01
 0.1212451165665E+01
 0.1212525916938E+01
 0.1212830843720E+01
 0.1213011750621E+01
 0.1212653977571E+01
 0.1211278798013E+01
 0.1208341027166E+01
 0.1203228776174E+01
 0.1195265766864E+01
 0.1183712315534E+01
 0.1167756024293E+01
 0.1146544429367E+01
 0.1119249500417E+01
 0.1085100067253E+01
 0.1043395864007E+01
 0.9935251823109E+00
 0.9349921297809E+00
 0.8674515669913E+00
 0.7907496648259E+00
 0.7049674419569E+00
 0.6104524656933E+00
 0.5078173364528E+00
 0.3979458343558E+00
 0.2820180246244E+00
 0.1615072845613E+00
 0.3815518547875E-01
-0.8607376989367E-01
-0.2090581277246E+00
-0.3285953696464E+00
-0.4424840456807E+00
-0.5485904779919E+00
 0.1223810736592E+01
 0.1212480874759E+01
 0.1202742258578E+01
 0.1194622898083E+01
 0.1188108159228E+01
 0.1183148013913E+01
 0.1179661657633E+01
 0.1177539264629E+01
 0.1176641157725E+01
 0.1176794966868E+01
 0.1177791370794E+01
 0.1179378933388E+01
 0.1181258486264E+01
 0.1183077412181E+01
 0.1184424151048E+01
 0.1184823630665E+01
 0.1183733817596E+01
 0.1180544338909E+01
 0.1174577867336E+01
 0.1165089754965E+01
 0.1151256445252E+01
 0.1132210380498E+01
 0.1107108884172E+01
 0.1075165782702E+01
 0.1035662584780E+01
 0.9879640060313E+00
 0.9315442186228E+00
 0.8660217344814E+00
 0.7912007177751E+00
 0.7071161453894E+00
 0.6140678496251E+00
 0.5126217647019E+00
 0.4036203816902E+00
 0.2882137044489E+00
 0.1678619287293E+00
 0.4431495080655E-01
-0.8043037861748E-01
-0.2041968875626E+00
-0.3247073088604E+00
-0.4396741996127E+00
-0.5468768349759E+00
 0.1179450806370E+01
 0.1168278412232E+01
 0.1158952443140E+01
 0.1151469768944E+01
 0.1145783647921E+01
 0.1141813363663E+01
 0.1139450725114E+01
 0.1138563041874E+01
 0.1138992877214E+01
 0.1140555265245E+01
 0.1143033123868E+01
 0.1146171485238E+01
 0.1149671097473E+01
 0.1153181797306E+01
 0.1156295928402E+01
 0.1158542736258E+01
 0.1159383774661E+01
 0.1158210292366E+01
 0.1154343589497E+01
 0.1147033251201E+01
 0.1135443496275E+01
 0.1118690515718E+01
 0.1095915468055E+01
 0.1066314953060E+01
 0.1029149120395E+01
 0.9837549424709E+00
 0.9295713603423E+00
 0.8661740423581E+00
 0.7933174375417E+00
 0.7109816583817E+00
 0.6194090236666E+00
 0.5191082808614E+00
 0.4108701671154E+00
 0.2958055256202E+00
 0.1753549729841E+00
 0.5127438032380E-01
-0.7440428136092E-01
-0.1994398321818E+00
-0.3214670644787E+00
-0.4380961686031E+00
-0.5470021454594E+00
 0.1134843496207E+01
 0.1123822243126E+01
 0.1114909269906E+01
 0.1108068821723E+01
 0.1103220837684E+01
 0.1100253130997E+01
 0.1099029816407E+01
 0.1099395461839E+01
 0.1101175334945E+01
 0.1104172581320E+01
 0.1108163225163E+01
 0.1112889729902E+01
 0.1118053769524E+01
 0.1123308644131E+01
 0.1128251552868E+01
 0.1132416882211E+01
 0.1135270376229E+01
 0.1136205178312E+01
 0.1134541051257E+01
 0.1129521152128E+01
 0.1120296523703E+01
 0.1105966048648E+01
 0.1085653317868E+01
 0.1058535623801E+01
 0.1023848784033E+01
 0.9808980182305E+00
 0.9290818621751E+00
 0.8679266830224E+00
 0.7971293963662E+00
 0.7166060977648E+00
 0.6265311860437E+00
 0.5273447011834E+00
 0.4197737741386E+00
 0.3048793002100E+00
 0.1840741241767E+00
 0.5911615325636E-01
-0.6792573889823E-01
-0.1947381258199E+00
-0.3188536968234E+00
-0.4377622575212E+00
-0.5490156566059E+00
 0.1089948307836E+01
 0.1079075878692E+01
 0.1070580627153E+01
 0.1064392331070E+01
 0.1060396064748E+01
 0.1058447134281E+01
 0.1058381496238E+01
 0.1060021033929E+01
 0.1063174187390E+01
 0.1067632973312E+01
 0.1073167473015E+01
 0.1079518649345E+01
 0.1086390234120E+01
 0.1093440139793E+01
 0.1100271529587E+01
 0.1106424926601E+01
 0.1111371050946E+01
 0.1114505398079E+01
 0.1115146204770E+01
 0.1112529695830E+01
 0.1105792913499E+01
 0.1094016486608E+01
 0.1076305167510E+01
 0.1051815026838E+01
 0.1019754770237E+01
 0.9793940536019E+00
 0.9300860007976E+00
 0.8713013024285E+00
 0.8026714455323E+00
 0.7240390311206E+00
 0.6354994579347E+00
 0.5374114132125E+00
 0.4304249548394E+00
 0.3155382158235E+00
 0.1941258453228E+00
 0.6794178707093E-01
-0.6090777122570E-01
-0.1900290835158E+00
-0.3168373339765E+00
-0.4386817558918E+00
-0.5529701800027E+00
 0.1044723347259E+01
 0.1034001695220E+01
 0.1025933531759E+01
 0.1020411922176E+01
 0.1017285166602E+01
 0.1016374762795E+01
 0.1017487894839E+01
 0.1020423766781E+01
 0.1024974478620E+01
 0.1030921742692E+01
 0.1038030740500E+01
 0.1046042112990E+01
 0.1054662908697E+01
 0.1063556946591E+01
 0.1072334628156E+01
 0.1080543793868E+01
 0.1087661124757E+01
 0.1093085128760E+01
 0.1096132722287E+01
 0.1096032866656E+01
 0.1091907917660E+01
 0.1082819426248E+01
 0.1067852181414E+01
 0.1046139307172E+01
 0.1016859845074E+01
 0.9792443206326E+00
 0.9325956620598E+00
 0.8763226496902E+00
 0.8099834226025E+00
 0.7333373124015E+00
 0.6463889404665E+00
 0.5494017610895E+00
 0.4429334454545E+00
 0.3279041478025E+00
 0.2056371523407E+00
 0.7787377655568E-01
-0.5324397891264E-01
-0.1852343538780E+00
-0.3153780206444E+00
-0.4408604476186E+00
-0.5589220898583E+00
 0.9991251951415E+00
 0.9885608532631E+00
 0.9809341064983E+00
 0.9760986012595E+00
 0.9738635521373E+00
 0.9740150707313E+00
 0.9763308120554E+00
 0.9805872726343E+00
 0.9865607388222E+00
 0.9940235232730E+00
 0.1002737052660E+01
 0.1012442940639E+01
 0.1022852941961E+01
 0.1033638226301E+01
 0.1044417881517E+01
 0.1054748444377E+01
 0.1064113758279E+01
 0.1071916227075E+01
 0.1077471866617E+01
 0.1080002233058E+01
 0.1078614459661E+01
 0.1072350325123E+01
 0.1060273688933E+01
 0.1041493215988E+01
 0.1015155995368E+01
 0.9804501510260E+00
 0.9366239201062E+00
 0.8830181562462E+00
 0.8191097824952E+00
 0.7445648453622E+00
 0.6592847206842E+00
 0.5634224264714E+00
 0.4574258562070E+00
 0.3421191577432E+00
 0.2187577361314E+00
 0.8905819636029E-01
-0.4480584019147E-01
-0.1802576961726E+00
-0.3144244425730E+00
-0.4443001858048E+00
-0.5669311626706E+00
 0.9531087645713E+00
 0.9427132124684E+00
 0.9355475618068E+00
 0.9314227964400E+00
 0.9301062843523E+00
 0.9313468828951E+00
 0.9348918306949E+00
 0.9404948781866E+00
 0.9479170871206E+00
 0.9569223732668E+00
 0.9672696660292E+00
 0.9787029673279E+00
 0.9909402608444E+00
 0.1003661664871E+01
 0.1016496583398E+01
 0.1029011839896E+01
 0.1040699876888E+01
 0.1050968122531E+01
 0.1059132347650E+01
 0.1064406768658E+01
 0.1065882920549E+01
 0.1062582251054E+01
 0.1053546892632E+01
 0.1037859771997E+01
 0.1014634038098E+01
 0.9830124933956E+00
 0.9421845526752E+00
 0.8914174372391E+00
 0.8300991396191E+00
 0.7577922560614E+00
 0.6742818030608E+00
 0.5795937810057E+00
 0.4740466184415E+00
 0.3583471788730E+00
 0.2336624418659E+00
 0.1016678567876E+00
-0.3543932403959E-01
-0.1749822153494E+00
-0.3139126063862E+00
-0.4489987823049E+00
-0.5770602626813E+00
 0.9066271416117E+00
 0.8964172417793E+00
 0.8897381854370E+00
 0.8863544149310E+00
 0.8859881828524E+00
 0.8883489197953E+00
 0.8931524468109E+00
 0.9001297496887E+00
 0.9090273466998E+00
 0.9196018787295E+00
 0.9316111594388E+00
 0.9448031196576E+00
 0.9589036289131E+00
 0.9736035078301E+00
 0.9885442947047E+00
 0.1003304915150E+01
 0.1017388103107E+01
 0.1030207708717E+01
 0.1041080172989E+01
 0.1049212663834E+01
 0.1053680912203E+01
 0.1053485614967E+01
 0.1047646555071E+01
 0.1035219894022E+01
 0.1015283190646E+01
 0.9869314171495E+00
 0.9492914849691E+00
 0.9015517007977E+00
 0.8430036982328E+00
 0.7730964420174E+00
 0.6914849256123E+00
 0.5980501656123E+00
 0.4929589497130E+00
 0.3767758692498E+00
 0.2505541186007E+00
 0.1159060928852E+00
-0.2496059729483E-01
-0.1692667810439E+00
-0.3137645795182E+00
-0.4549508663391E+00
-0.5893748309061E+00
 0.8596314021610E+00
 0.8496299217528E+00
 0.8434693392984E+00
 0.8408629166048E+00
 0.8414839456645E+00
 0.8449999401718E+00
 0.8510942132128E+00
 0.8594750270362E+00
 0.8698751659366E+00
 0.8820452615041E+00
 0.8957435289370E+00
 0.9107234964049E+00
 0.9267207090983E+00
 0.9434385993786E+00
 0.9605328518347E+00
 0.9775965483310E+00
 0.9941446840587E+00
 0.1009599225454E+01
 0.1023278485617E+01
 0.1034383121338E+01
 0.1041973032336E+01
 0.1045027883068E+01
 0.1042544661356E+01
 0.1033552003331E+01
 0.1017090601058E+01
 0.9922055619078E+00
 0.9579581591607E+00
 0.9134530582358E+00
 0.8578785572946E+00
 0.7905599753622E+00
 0.7110082286279E+00
 0.6189400596630E+00
 0.5143458042599E+00
 0.3976186209923E+00
 0.2696668705578E+00
 0.1320112475197E+00
-0.1315054010687E-01
-0.1629410363983E+00
-0.3138872567788E+00
-0.4621512506069E+00
-0.6039428002620E+00
 0.8120703983936E+00
 0.8023066385994E+00
 0.7967034675329E+00
 0.7949174098686E+00
 0.7965682969780E+00
 0.8012789067755E+00
 0.8086989007811E+00
 0.8185139706436E+00
 0.8304441490238E+00
 0.8442354952682E+00
 0.8596482908244E+00
 0.8764434578898E+00
 0.8943681356986E+00
 0.9131404304086E+00
 0.9324323822226E+00
 0.9518535355790E+00
 0.9709334183773E+00
 0.9891041354121E+00
 0.1005687391527E+01
 0.1019878138495E+01
 0.1030720603641E+01
 0.1037173270861E+01
 0.1038210059940E+01
 0.1032831597821E+01
 0.1020040839392E+01
 0.9988315313193E+00
 0.9681968244053E+00
 0.9271537233146E+00
 0.8747808678371E+00
 0.8102703242734E+00
 0.7329747260337E+00
 0.6424260774174E+00
 0.5384107512867E+00
 0.4211166799518E+00
 0.2912697285637E+00
 0.1502619123535E+00
 0.2519580817450E-03
-0.1557976681562E+00
-0.3141704713022E+00
-0.4706038711743E+00
-0.6208384379926E+00
 0.7638905013050E+00
 0.7544010665566E+00
 0.7494021139625E+00
 0.7484867677089E+00
 0.7512161578907E+00
 0.7571651688750E+00
 0.7659486676608E+00
 0.7772301086291E+00
 0.7907179818999E+00
 0.8061554145560E+00
 0.8233065772336E+00
 0.8419417084556E+00
 0.8618215801626E+00
 0.8826811802726E+00
 0.9042113122397E+00
 0.9260405548176E+00
 0.9477155682349E+00
 0.9686809813597E+00
 0.9882637645493E+00
 0.1005654265148E+01
 0.1019881389142E+01
 0.1029882414648E+01
 0.1034608081423E+01
 0.1033030802039E+01
 0.1024115358149E+01
 0.1006803242489E+01
 0.9800177600731E+00
 0.9426851118181E+00
 0.8937688478410E+00
 0.8323188866138E+00
 0.7575155560808E+00
 0.6686847594825E+00
 0.5653787300514E+00
 0.4475413918222E+00
 0.3156706874545E+00
 0.1709832412800E+00
 0.1555763246382E-01
-0.1475815474326E+00
-0.3144772733812E+00
-0.4803474891506E+00
-0.6401543341847E+00
 0.7150352832686E+00
 0.7058650519606E+00
 0.7015259585019E+00
 0.7015397805025E+00
 0.7054028605700E+00
 0.7126386793213E+00
 0.7228262541730E+00
 0.7356074019636E+00
 0.7506805720661E+00
 0.7677878366684E+00
 0.7866992456282E+00
 0.8071963947833E+00
 0.8290558344723E+00
 0.8520317767636E+00
 0.8758363919142E+00
 0.9001201425509E+00
 0.9244497783682E+00
 0.9482852435180E+00
 0.9709610451500E+00
 0.9916643516657E+00
 0.1009409295691E+01
 0.1023112030181E+01
 0.1031700142430E+01
 0.1034117896914E+01
 0.1029291921503E+01
 0.1016111225328E+01
 0.9934284190033E+00
 0.9600768172517E+00
 0.9149006143659E+00
 0.8567997712572E+00
 0.7847689219564E+00
 0.6979060290348E+00
 0.5954965812952E+00
 0.4771963544902E+00
 0.3432213921443E+00
 0.1945534505219E+00
 0.3313811786327E-01
-0.1379826365380E+00
-0.3146122695054E+00
-0.4914799822209E+00
-0.6621345258045E+00
 0.6654450777257E+00
 0.6566485539483E+00
 0.6530348408431E+00
 0.6540453725219E+00
 0.6591044109791E+00
 0.6676802538119E+00
 0.6793152069648E+00
 0.6936304299229E+00
 0.7103162045514E+00
 0.7291156994074E+00
 0.7498070061818E+00
 0.7721852251081E+00
 0.7960449183072E+00
 0.8211619814293E+00
 0.8472727441059E+00
 0.8740526911576E+00
 0.9010920086377E+00
 0.9278692025050E+00
 0.9537290369145E+00
 0.9778572905016E+00
 0.9992540687791E+00
 0.1016814562060E+01
 0.1029443338543E+01
 0.1036056833065E+01
 0.1035544006440E+01
 0.1026741873052E+01
 0.1008432488085E+01
 0.9793554521139E+00
 0.9382328081104E+00
 0.8838082784015E+00
 0.8148786336874E+00
 0.7302922086670E+00
 0.6290331338491E+00
 0.5104195885389E+00
 0.3743215547055E+00
 0.2214134107367E+00
 0.5343227634388E-01
-0.1266068152756E+00
-0.3143444692493E+00
-0.5039875046462E+00
-0.6875751900184E+00
 0.6150476462759E+00
 0.6066790619652E+00
 0.6038559981217E+00
 0.6059299949523E+00
 0.6122445066307E+00
 0.6222088624533E+00
 0.6353281885532E+00
 0.6512045606975E+00
 0.6695224856606E+00
 0.6900287624078E+00
 0.7125119509436E+00
 0.7367830080538E+00
 0.7626569528828E+00
 0.7899341065226E+00
 0.8183781541170E+00
 0.8476933032016E+00
 0.8774972409169E+00
 0.9072910922635E+00
 0.9364333902823E+00
 0.9641109295116E+00
 0.9893108707176E+00
 0.1010907730300E+01
 0.1027783299430E+01
 0.1038826709450E+01
 0.1042890091282E+01
 0.1038759453761E+01
 0.1025147074304E+01
 0.1000698758543E+01
 0.9640123871517E+00
 0.9136697869168E+00
 0.8482576638744E+00
 0.7663514228928E+00
 0.6665945963114E+00
 0.5479088415458E+00
 0.4097388622689E+00
 0.2523552885185E+00
 0.7719329431354E-01
-0.1128592877221E+00
-0.3132592788007E+00
-0.5180044613279E+00
-0.7186958116953E+00
 0.5637848695638E+00
 0.5559045897746E+00
 0.5539506761067E+00
 0.5571653553360E+00
 0.5648026452010E+00
 0.5762086306021E+00
 0.5908513644268E+00
 0.6083160632568E+00
 0.6282843945312E+00
 0.6505096513040E+00
 0.6747934442125E+00
 0.7009649930894E+00
 0.7288622467825E+00
 0.7583127603449E+00
 0.7891109503075E+00
 0.8209937915722E+00
 0.8536110679855E+00
 0.8864912638220E+00
 0.9190109067905E+00
 0.9503608150268E+00
 0.9795166553003E+00
 0.1005332624966E+01
 0.1026668009434E+01
 0.1042385380837E+01
 0.1051301396855E+01
 0.1052152934583E+01
 0.1043584567090E+01
 0.1024149981554E+01
 0.9923231412461E+00
 0.9465210210076E+00
 0.8851108969510E+00
 0.8063740082335E+00
 0.7085734237414E+00
 0.5901697315563E+00
 0.4500888695164E+00
 0.2880802473986E+00
 0.1051425579397E+00
-0.9605625162301E-01
-0.3109532957462E+00
-0.5329900867008E+00
-0.7566148354176E+00
 0.5115846790324E+00
 0.5042844508994E+00
 0.5033043530207E+00
 0.5077615206108E+00
 0.5168084676844E+00
 0.5297242007377E+00
 0.5459405476544E+00
 0.5650290187809E+00
 0.5866720110595E+00
 0.6106324864026E+00
 0.6367277482467E+00
 0.6648075960885E+00
 0.6947352239691E+00
 0.7263680784415E+00
 0.7595346069375E+00
 0.7940086680865E+00
 0.8294770000529E+00
 0.8655006074784E+00
 0.9014787088845E+00
 0.9366095062469E+00
 0.9698586850186E+00
 0.1000060359444E+01
 0.1026051473985E+01
 0.1046668939754E+01
 0.1060695898889E+01
 0.1066823133872E+01
 0.1063631414230E+01
 0.1049586615269E+01
 0.1023042648091E+01
 0.9822534623750E+00
 0.9253634162924E+00
 0.8503445359726E+00
 0.7550444669334E+00
 0.6373983555819E+00
 0.4957120350564E+00
 0.3290732216204E+00
 0.1378859199060E+00
-0.7557465517289E-01
-0.3067212432500E+00
-0.5489945012213E+00
-0.7950153035325E+00
 0.4583698534588E+00
 0.4517580945324E+00
 0.4518751857101E+00
 0.4576912643161E+00
 0.4682444702152E+00
 0.4827430879315E+00
 0.5005849451526E+00
 0.5213322193001E+00
 0.5446724169545E+00
 0.5703817256655E+00
 0.5982958882931E+00
 0.6282875639133E+00
 0.6602474272026E+00
 0.6940654289307E+00
 0.7296074236897E+00
 0.7666885584433E+00
 0.8050379407951E+00
 0.8442550498564E+00
 0.8837673531060E+00
 0.9227844666619E+00
 0.9602638614993E+00
 0.9950196581450E+00
 0.1025866399488E+01
 0.1051616226888E+01
 0.1071021109428E+01
 0.1082729631214E+01
 0.1085264053832E+01
 0.1077008795663E+01
 0.1056204501925E+01
 0.1020947985525E+01
 0.9691624739457E+00
 0.8985016684216E+00
 0.8063674165080E+00
 0.6901046786017E+00
 0.5472861221713E+00
 0.3761715914255E+00
 0.1763575661331E+00
-0.5046301958494E-01
-0.2998932737192E+00
-0.5647731880482E+00
-0.8357858679467E+00
 0.4040562571248E+00
 0.3982622028420E+00
 0.3996216556874E+00
 0.4069299671609E+00
 0.4190963062540E+00
 0.4352556725175E+00
 0.4547759864877E+00
 0.4772160689451E+00
 0.5022738373410E+00
 0.5297426305645E+00
 0.5594794239235E+00
 0.5913819155259E+00
 0.6253703498245E+00
 0.6613696802487E+00
 0.6992865584697E+00
 0.7389820830957E+00
 0.7802337433402E+00
 0.8226863648282E+00
 0.8658022605640E+00
 0.9088073069522E+00
 0.9506528014124E+00
 0.9901327058410E+00
 0.1026038704273E+01
 0.1057158904613E+01
 0.1082216747307E+01
 0.1099823355421E+01
 0.1108449205143E+01
 0.1106405756215E+01
 0.1091830340841E+01
 0.1062673182228E+01
 0.1016644733140E+01
 0.9510795094068E+00
 0.8629113775268E+00
 0.7488339232695E+00
 0.6055654815145E+00
 0.4303401536935E+00
 0.2216836783844E+00
-0.1959166005464E-01
-0.2894124436793E+00
-0.5799134139663E+00
-0.8797256034409E+00
 0.3485515918572E+00
 0.3437302515230E+00
 0.3465034357299E+00
 0.3554566066446E+00
 0.3693536908346E+00
 0.3872557635593E+00
 0.4085076372223E+00
 0.4326727580765E+00
 0.4594657679008E+00
 0.4887013928382E+00
 0.5202605972209E+00
 0.5540681214995E+00
 0.5900756478037E+00
 0.6282454328855E+00
 0.6685282444142E+00
 0.7108360020669E+00
 0.7550012168093E+00
 0.8007219987016E+00
 0.8475033719687E+00
 0.8945933335800E+00
 0.9409393612985E+00
 0.9853146967856E+00
 0.1026487084924E+01
 0.1063220985257E+01
 0.1094214145550E+01
 0.1118045772666E+01
 0.1133142712071E+01
 0.1137754138051E+01
 0.1129927325464E+01
 0.1107481592762E+01
 0.1067930792372E+01
 0.1008300278106E+01
 0.9250464067369E+00
 0.8141600497631E+00
 0.6713807845083E+00
 0.4926901384915E+00
 0.2752046896056E+00
 0.1846689182373E-01
-0.2740736176636E+00
-0.5939231774631E+00
-0.9275023705830E+00
 0.2917535777757E+00
 0.2880922864159E+00
 0.2924824834030E+00
 0.3032551624400E+00
 0.3190114744627E+00
 0.3387412137468E+00
 0.3617766855857E+00
 0.3876964044721E+00
 0.4162390798015E+00
 0.4472452512732E+00
 0.4806224808486E+00
 0.5163242940319E+00
 0.5543353761005E+00
 0.5946572926035E+00
 0.6372880638885E+00
 0.6821954202174E+00
 0.7292741747863E+00
 0.7782848981444E+00
 0.8287847626440E+00
 0.8800510368917E+00
 0.9310301124225E+00
 0.9804733673423E+00
 0.1027122602008E+01
 0.1069718403010E+01
 0.1106935713010E+01
 0.1137328132942E+01
 0.1159288448804E+01
 0.1171016355878E+01
 0.1170485616527E+01
 0.1155405734798E+01
 0.1123119038230E+01
 0.1070365358431E+01
 0.9931321143046E+00
 0.8866743866072E+00
 0.7456355106114E+00
 0.5644910730713E+00
 0.3385288524666E+00
 0.6547720731148E-01
-0.2523579506687E+00
-0.6061079328499E+00
-0.9797241451577E+00
 0.2335474804990E+00
 0.2312748395284E+00
 0.2375246613805E+00
 0.2503165019524E+00
 0.2680709388814E+00
 0.2897145460859E+00
 0.3145829733129E+00
 0.3422831445439E+00
 0.3725860968819E+00
 0.4053625959061E+00
 0.4405491240074E+00
 0.4781293857382E+00
 0.5181222493013E+00
 0.5605701895874E+00
 0.6055212912905E+00
 0.6530040713375E+00
 0.7029835433087E+00
 0.7552933466558E+00
 0.8095542070381E+00
 0.8650814977099E+00
 0.9208237484345E+00
 0.9755085073200E+00
 0.1027848293325E+01
 0.1076558644707E+01
 0.1120294466982E+01
 0.1157590793310E+01
 0.1186817317039E+01
 0.1206139078085E+01
 0.1213475954404E+01
 0.1206454087232E+01
 0.1182278982558E+01
 0.1137444796536E+01
 0.1067502728968E+01
 0.9669685202099E+00
 0.8292940395432E+00
 0.6471820326243E+00
 0.4135797112177E+00
 0.1236484977552E+00
-0.2222728707658E+00
-0.6154445619346E+00
-0.1037026980304E+01
 0.1738027208090E+00
 0.1732010844752E+00
 0.1816021872457E+00
 0.1966409201574E+00
 0.2165413201604E+00
 0.2401835342145E+00
 0.2669295247063E+00
 0.2964311584702E+00
 0.3285006409294E+00
 0.3630430577326E+00
 0.4000256940149E+00
 0.4394633945632E+00
 0.4814099248168E+00
 0.5259497466388E+00
 0.5731833176927E+00
 0.6232047049014E+00
 0.6760575537105E+00
 0.7316608199780E+00
 0.7897126788412E+00
 0.8495776829119E+00
 0.9102104006085E+00
 0.9703114427515E+00
 0.1028558825259E+01
 0.1083640458678E+01
 0.1134193655146E+01
 0.1178742633850E+01
 0.1215646359969E+01
 0.1243051879839E+01
 0.1258847463632E+01
 0.1260607233156E+01
 0.1245444366907E+01
 0.1209665451158E+01
 0.1148448498441E+01
 0.1055609462794E+01
 0.9233589524828E+00
 0.7423718073740E+00
 0.5026526392323E+00
 0.1957776562679E+00
-0.1811420437248E+00
-0.6204228056986E+00
-0.1100133637954E+01
 0.1123681227998E+00
 0.1137914610378E+00
 0.1246973860061E+00
 0.1422415712735E+00
 0.1644415254629E+00
 0.1901616335919E+00
 0.2188225231781E+00
 0.2501406239106E+00
 0.2839780517521E+00
 0.3202775908777E+00
 0.3590386199076E+00
 0.4003075803660E+00
 0.4441733142413E+00
 0.4907627067037E+00
 0.5402301805753E+00
 0.5927396160004E+00
 0.6484220669877E+00
 0.7072958878380E+00
 0.7691537773781E+00
 0.8334235949635E+00
 0.8990708294038E+00
 0.9647644827971E+00
 0.1029140197454E+01
 0.1090853664555E+01
 0.1148526481963E+01
 0.1200680567909E+01
 0.1245677993390E+01
 0.1281666101661E+01
 0.1306525791050E+01
 0.1317814385950E+01
 0.1312606384234E+01
 0.1287098251660E+01
 0.1236193513429E+01
 0.1153105874902E+01
 0.1028831827369E+01
 0.8518208872530E+00
 0.6084709944323E+00
 0.2854334765414E+00
-0.1253087211088E+00
-0.6187940062103E+00
-0.1169905400724E+01
 0.4906505303177E-01
 0.5296520687827E-01
 0.6680851159007E-01
 0.8714906981687E-01
 0.1118018825526E+00
 0.1396680614040E+00
 0.1702710512641E+00
 0.2034135707993E+00
 0.2390151554224E+00
 0.2770585150726E+00
 0.3175757025523E+00
 0.3606446537459E+00
 0.4063888798682E+00
 0.4549773785414E+00
 0.5066191725634E+00
 0.5615513196065E+00
 0.6200010478467E+00
 0.6821021597193E+00
 0.7477630276428E+00
 0.8164931885161E+00
 0.8872754191763E+00
 0.9587403044262E+00
 0.1029469520293E+01
 0.1098079109140E+01
 0.1163175989472E+01
 0.1223289192114E+01
 0.1276799409623E+01
 0.1321874026120E+01
 0.1356411814201E+01
 0.1377990719487E+01
 0.1383707675251E+01
 0.1369745498162E+01
 0.1330871051386E+01
 0.1259865030825E+01
 0.1146652237257E+01
 0.9773914659034E+00
 0.7342258999407E+00
 0.3971887523441E+00
-0.4969662306419E-01
-0.6071492531657E+00
-0.1247387924145E+01
-0.1632284236098E-01
-0.9356313149124E-02
 0.7958975804036E-02
 0.3141759156815E-01
 0.5866557279459E-01
 0.8872727595422E-01
 0.1212865865819E+00
 0.1562536865780E+00
 0.1936102176797E+00
 0.2333795533904E+00
 0.2756262270144E+00
 0.3204589711565E+00
 0.3680349469341E+00
 0.4185641305549E+00
 0.4723095757855E+00
 0.5295834560081E+00
 0.5907173079656E+00
 0.6559783669796E+00
 0.7254170604422E+00
 0.7986489910161E+00
 0.8746829160179E+00
 0.9521012649267E+00
 0.1029414896231E+01
 0.1105188804832E+01
 0.1178015100520E+01
 0.1246440532753E+01
 0.1308882065245E+01
 0.1363548294170E+01
 0.1408380941498E+01
 0.1441015705084E+01
 0.1458637546546E+01
 0.1457529025880E+01
 0.1432497882664E+01
 0.1376141688080E+01
 0.1277609965192E+01
 0.1120944440379E+01
 0.8835673236622E+00
 0.5368980597882E+00
 0.5285381473337E-01
-0.5801844675597E+00
-0.1333831233659E+01
-0.8406573102881E-01
-0.7324265786425E-01
-0.5178768201145E-01
-0.2486736256820E-01
 0.5088912731119E-02
 0.3736751312828E-01
 0.7188230606241E-01
 0.1086661119353E+00
 0.1477628851123E+00
 0.1892358697943E+00
 0.2331810798849E+00
 0.2797367352285E+00
 0.3290920239178E+00
 0.3814959166817E+00
 0.4372635182994E+00
 0.4967819829180E+00
 0.5604936427930E+00
 0.6288186862129E+00
 0.7019826512507E+00
 0.7797402991178E+00
 0.8611387962525E+00
 0.9446986217468E+00
 0.1028835456949E+01
 0.1112046322638E+01
 0.1192906874881E+01
 0.1269993882845E+01
 0.1341781183113E+01
 0.1406541501346E+01
 0.1462283089438E+01
 0.1506732787604E+01
 0.1537229074098E+01
 0.1550280366013E+01
 0.1540949766637E+01
 0.1501983069462E+01
 0.1422230342016E+01
 0.1284157220201E+01
 0.1060484712303E+01
 0.7119883865795E+00
 0.1925954869516E+00
-0.5293750788963E+00
-0.1430603298416E+01
-0.1545143985136E+00
-0.1387397361184E+00
-0.1123028496080E+00
-0.8158014702811E-01
-0.4886125339339E-01
-0.1438186820164E-01
 0.2207240007290E-01
 0.6065722081494E-01
 0.1014740778254E+00
 0.1446240810658E+00
 0.1902328353467E+00
 0.2384661594532E+00
 0.2895430807704E+00
 0.3437487635242E+00
 0.4014468774627E+00
 0.4630966558578E+00
 0.5292544956522E+00
 0.6005134429410E+00
 0.6773155591449E+00
 0.7596007114291E+00
 0.8464730610431E+00
 0.9363716161994E+00
 0.1027581628130E+01
 0.1118507545921E+01
 0.1207705077164E+01
 0.1293795775737E+01
 0.1375335218899E+01
 0.1450685913193E+01
 0.1517943495691E+01
 0.1574950899555E+01
 0.1619258981790E+01
 0.1647734415695E+01
 0.1655940683979E+01
 0.1637177053699E+01
 0.1580644296577E+01
 0.1468241078109E+01
 0.1268967316880E+01
 0.9316462148495E+00
 0.3843945337030E+00
-0.4404992703577E+00
-0.1538743770493E+01
-0.2281486455566E+00
-0.2058379767450E+00
-0.1733500193451E+00
-0.1385484131342E+00
-0.1031161495228E+00
-0.6649366869724E-01
-0.2812819048898E-01
 0.1223430826074E-01
 0.5474586806517E-01
 0.9954227139725E-01
 0.1467758242581E+00
 0.1966376150535E+00
 0.2493737968308E+00
 0.3053022021805E+00
 0.3648301721087E+00
 0.4284828176762E+00
 0.4969284138885E+00
 0.5709505368632E+00
 0.6512591785552E+00
 0.7380446713755E+00
 0.8304971846802E+00
 0.9269464065125E+00
 0.1025495746336E+01
 0.1124421907960E+01
 0.1222255151713E+01
 0.1317680111968E+01
 0.1409365103061E+01
 0.1495792959159E+01
 0.1575164272447E+01
 0.1645448210405E+01
 0.1704450863676E+01
 0.1749528008206E+01
 0.1777008081364E+01
 0.1781209106027E+01
 0.1752471179903E+01
 0.1673572898538E+01
 0.1512275573123E+01
 0.1206572270866E+01
 0.6499101457278E+00
-0.2888494079482E+00
-0.1657384233573E+01
-0.3056747035805E+00
-0.2743972374745E+00
-0.2345097672059E+00
-0.1955611784185E+00
-0.1576235104663E+00
-0.1189438372769E+00
-0.7870369257544E-01
-0.3659505281488E-01
 0.7581446514741E-02
 0.5398995428987E-01
 0.1028061611967E+00
 0.1542437261793E+00
 0.2085727414787E+00
 0.2661395850272E+00
 0.3273892726415E+00
 0.3929033426887E+00
 0.4634515780494E+00
 0.5400181597375E+00
 0.6236430287348E+00
 0.7148624006324E+00
 0.8129997351506E+00
 0.9162348499707E+00
 0.1022413224965E+01
 0.1129634270500E+01
 0.1236395751364E+01
 0.1341468598715E+01
 0.1443673117069E+01
 0.1541652020040E+01
 0.1633726500531E+01
 0.1717978947034E+01
 0.1792482661864E+01
 0.1855204007373E+01
 0.1903509216392E+01
 0.1933227729908E+01
 0.1936743505052E+01
 0.1899364450011E+01
 0.1791666011695E+01
 0.1547485291945E+01
 0.1020257832270E+01
-0.2965371140165E-01
-0.1778761185515E+01
-0.3882521324098E+00
-0.3439462565619E+00
-0.2950525728914E+00
-0.2524320033033E+00
-0.2123713854240E+00
-0.1717036501893E+00
-0.1296398842065E+00
-0.8582330532320E-01
-0.4001474730395E-01
 0.7967951741275E-02
 0.5832183297151E-01
 0.1112794472585E+00
 0.1671315474516E+00
 0.2262483635676E+00
 0.2891058383650E+00
 0.3563304038181E+00
 0.4287727730295E+00
 0.5076100672338E+00
 0.5942813935108E+00
 0.6898121763546E+00
 0.7937399720487E+00
 0.9040333168413E+00
 0.1018164631163E+01
 0.1133987610540E+01
 0.1249960894430E+01
 0.1364971728725E+01
 0.1478041294508E+01
 0.1588027210995E+01
 0.1693392194713E+01
 0.1792283523742E+01
 0.1883000914884E+01
 0.1964217379602E+01
 0.2034633313698E+01
 0.2092031690620E+01
 0.2131828040421E+01
 0.2143634458940E+01
 0.2104865219986E+01
 0.1960542577236E+01
 0.1537411699579E+01
 0.4214698745023E+00
-0.1872440243752E+01
-0.4781355473540E+00
-0.4130385144001E+00
-0.3537915386233E+00
-0.3092293914090E+00
-0.2673566055746E+00
-0.2247309705996E+00
-0.1809333313527E+00
-0.1354391259265E+00
-0.8803846598467E-01
-0.3852115174229E-01
 0.1332262610583E-01
 0.6774219622400E-01
 0.1250450252058E+00
 0.1856203767141E+00
 0.2499675139751E+00
 0.3187461527014E+00
 0.3928596130621E+00
 0.4736359127022E+00
 0.5629729703766E+00
 0.6626076269384E+00
 0.7724382746632E+00
 0.8901220973128E+00
 0.1012579204375E+01
 0.1137326752364E+01
 0.1262782697707E+01
 0.1387990739779E+01
 0.1512230018360E+01
 0.1634650347217E+01
 0.1753903371653E+01
 0.1868106295047E+01
 0.1975638204692E+01
 0.2075958915807E+01
 0.2169382950767E+01
 0.2256184737483E+01
 0.2335220920074E+01
 0.2403367503122E+01
 0.2446383750741E+01
 0.2437388938719E+01
 0.2244942976803E+01
 0.1230146012495E+01
-0.1837215447046E+01
-0.5810194224271E+00
-0.4765717396862E+00
-0.4096444193982E+00
-0.3667290457944E+00
-0.3222740580471E+00
-0.2780975124488E+00
-0.2325496422378E+00
-0.1854401194411E+00
-0.1364822308645E+00
-0.8547403006653E-01
-0.3218965630351E-01
 0.2363176093668E-01
 0.8231118084720E-01
 0.1442518021266E+00
 0.2099684256381E+00
 0.2801410866276E+00
 0.3557029873503E+00
 0.4380420935412E+00
 0.5295044252486E+00
 0.6328938390132E+00
 0.7487620055104E+00
 0.8742668722074E+00
 0.1005490273482E+01
 0.1139503504373E+01
 0.1274694612256E+01
 0.1410320235216E+01
 0.1545980200913E+01
 0.1681207753262E+01
 0.1814971491473E+01
 0.1945224612999E+01
 0.2070053878129E+01
 0.2189742704214E+01
 0.2306680534207E+01
 0.2423777567964E+01
 0.2544572215749E+01
 0.2671792073784E+01
 0.2814093756502E+01
 0.2947331027324E+01
 0.3131926078035E+01
 0.2715026898944E+01
-0.1306355359455E+01
-0.7179989622602E+00
-0.5101708665839E+00
-0.4714993984676E+00
-0.4225706845832E+00
-0.3777202813388E+00
-0.3316487476253E+00
-0.2845143285679E+00
-0.2358093818135E+00
-0.1853413487384E+00
-0.1328851500036E+00
-0.7821160125965E-01
-0.2104956905919E-01
 0.3893105608780E-01
 0.1021433019588E+00
 0.1691087314971E+00
 0.2405158698197E+00
 0.3173043581218E+00
 0.4008555440166E+00
 0.4936722584795E+00
 0.6001898750365E+00
 0.7223116319572E+00
 0.8562238932538E+00
 0.9967432181476E+00
 0.1140383541893E+01
 0.1285535530584E+01
 0.1431749290593E+01
 0.1579020964155E+01
 0.1727334176195E+01
 0.1876215386738E+01
 0.2023521510224E+01
 0.2165993316628E+01
 0.2304812709728E+01
 0.2445268617381E+01
 0.2593073022727E+01
 0.2755640190313E+01
 0.2946703831881E+01
 0.3181459618840E+01
 0.3527022248906E+01
 0.3924828228861E+01
 0.5322332830621E+01
 0.1129887925772E+01
 0.1577117741359E+01
 0.1537387858562E+01
 0.1488161528759E+01
 0.1435568268419E+01
 0.1382184307804E+01
 0.1329746223235E+01
 0.1279163550874E+01
 0.1231016372311E+01
 0.1185702581085E+01
 0.1143487057012E+01
 0.1104331173252E+01
 0.1068815695786E+01
 0.1036802250012E+01
 0.1007201521098E+01
 0.9793753624392E+00
 0.9518990461089E+00
 0.9237355338153E+00
 0.8953958319934E+00
 0.8616617000778E+00
 0.8762827211838E+00
 0.1618084831206E+01
 0.1571351093719E+01
 0.1520358480711E+01
 0.1466465883272E+01
 0.1412300953246E+01
 0.1359347768787E+01
 0.1308559987064E+01
 0.1260505885930E+01
 0.1215551597403E+01
 0.1173895227751E+01
 0.1135713520011E+01
 0.1101154838812E+01
 0.1070028253035E+01
 0.1041635496435E+01
 0.1015017981136E+01
 0.9891985695897E+00
 0.9636543835700E+00
 0.9371206263204E+00
 0.9187998720619E+00
 0.8862285123310E+00
 0.1657829080467E+01
 0.1607116700588E+01
 0.1552982379681E+01
 0.1497487733118E+01
 0.1442248064524E+01
 0.1388657555425E+01
 0.1337584737535E+01
 0.1289578585006E+01
 0.1244968434892E+01
 0.1203962674441E+01
 0.1166670703958E+01
 0.1133150471274E+01
 0.1103180614666E+01
 0.1076109456721E+01
 0.1051115759378E+01
 0.1027428247757E+01
 0.1004244361167E+01
 0.9824728717942E+00
 0.9580432447095E+00
 0.9260899752876E+00
 0.1698144838514E+01
 0.1643216013862E+01
 0.1586062961734E+01
 0.1528496288413E+01
 0.1471975815662E+01
 0.1417605706236E+01
 0.1366175231981E+01
 0.1318179421914E+01
 0.1273921057974E+01
 0.1233573081708E+01
 0.1197208188259E+01
 0.1164821650745E+01
 0.1136168261414E+01
 0.1110664257068E+01
 0.1087596480975E+01
 0.1066192017250E+01
 0.1045934274668E+01
 0.1025304646683E+01
 0.1002019173789E+01
 0.9720278847623E+00
 0.1738884904306E+01
 0.1679577515256E+01
 0.1619215031143E+01
 0.1559403233707E+01
 0.1501391816271E+01
 0.1446124310552E+01
 0.1394265911548E+01
 0.1346252101148E+01
 0.1302342582604E+01
 0.1262674771772E+01
 0.1227287016758E+01
 0.1196132112520E+01
 0.1168956730513E+01
 0.1145236161196E+01
 0.1124301849711E+01
 0.1105436116229E+01
 0.1087638402276E+01
 0.1069420808988E+01
 0.1048616549096E+01
 0.1022184248722E+01
 0.1779882278180E+01
 0.1715996214472E+01
 0.1652261863442E+01
 0.1590043722432E+01
 0.1530404599615E+01
 0.1474134397693E+01
 0.1421789355847E+01
 0.1373731256624E+01
 0.1330171743639E+01
 0.1291210610247E+01
 0.1256856391911E+01
 0.1227032049851E+01
 0.1201484316483E+01
 0.1179727545502E+01
 0.1161131976104E+01
 0.1144899156543E+01
 0.1129966223921E+01
 0.1114844770215E+01
 0.1097615716008E+01
 0.1075524242919E+01
 0.1820918490194E+01
 0.1752283428714E+01
 0.1685030221574E+01
 0.1620279542792E+01
 0.1558905455364E+01
 0.1501553467130E+01
 0.1448672495666E+01
 0.1400549542555E+01
 0.1357344128098E+01
 0.1319118835445E+01
 0.1285855668354E+01
 0.1257456499426E+01
 0.1233670094606E+01
 0.1214043448494E+01
 0.1197959066139E+01
 0.1184615372479E+01
 0.1172952682734E+01
 0.1161574013333E+01
 0.1148672698745E+01
 0.1131673331052E+01
 0.1861766366104E+01
 0.1788246902333E+01
 0.1717358065409E+01
 0.1649975984160E+01
 0.1586786676215E+01
 0.1528293161767E+01
 0.1474839173882E+01
 0.1426636451289E+01
 0.1383791987394E+01
 0.1346332098867E+01
 0.1314215333894E+01
 0.1287328257525E+01
 0.1265425002296E+01
 0.1248079758878E+01
 0.1234703938725E+01
 0.1224526637667E+01
 0.1216545524110E+01
 0.1209455274406E+01
 0.1201546458224E+01
 0.1190377450290E+01
 0.1902195615900E+01
 0.1823695889109E+01
 0.1749087058345E+01
 0.1679002439423E+01
 0.1613940616377E+01
 0.1554263362254E+01
 0.1500210334292E+01
 0.1451918779222E+01
 0.1409443971428E+01
 0.1372777804211E+01
 0.1341858248497E+01
 0.1316561853479E+01
 0.1296651852226E+01
 0.1281734837086E+01
 0.1271265814014E+01
 0.1264532050690E+01
 0.1260611064966E+01
 0.1258299669240E+01
 0.1255994841279E+01
 0.1251402774659E+01
 0.1941976369371E+01
 0.1858441582595E+01
 0.1780061992325E+01
 0.1707230778365E+01
 0.1640260555210E+01
 0.1579373058167E+01
 0.1524705140944E+01
 0.1476320857832E+01
 0.1434225429380E+01
 0.1398378669704E+01
 0.1368701220089E+01
 0.1345064806430E+01
 0.1327247734686E+01
 0.1314896171072E+01
 0.1307522516740E+01
 0.1304489920258E+01
 0.1304972811856E+01
 0.1307884938028E+01
 0.1311755793736E+01
 0.1314487925551E+01
 0.1980880879700E+01
 0.1892298004642E+01
 0.1810130608377E+01
 0.1734535273541E+01
 0.1665640980714E+01
 0.1603531217369E+01
 0.1548241719529E+01
 0.1499765175614E+01
 0.1458058949945E+01
 0.1423053586407E+01
 0.1394656041699E+01
 0.1372738807236E+01
 0.1357101853281E+01
 0.1347438600627E+01
 0.1343330001311E+01
 0.1344228850615E+01
 0.1349421629959E+01
 0.1357958444159E+01
 0.1368536496960E+01
 0.1379297274657E+01
 0.2018684668621E+01
 0.1925082656423E+01
 0.1839143850035E+01
 0.1760792725678E+01
 0.1689977954636E+01
 0.1626647348251E+01
 0.1570737809428E+01
 0.1522172987867E+01
 0.1480865029339E+01
 0.1446718389125E+01
 0.1419630371597E+01
 0.1399479915197E+01
 0.1386095242165E+01
 0.1379224176956E+01
 0.1378525597437E+01
 0.1383553592472E+01
 0.1393721446233E+01
 0.1408237255905E+01
 0.1426000227762E+01
 0.1445434172394E+01
 0.2055167564187E+01
 0.1956617214141E+01
 0.1866956303103E+01
 0.1785882821039E+01
 0.1713169535926E+01
 0.1648632046356E+01
 0.1592111380491E+01
 0.1543464979995E+01
 0.1502562786123E+01
 0.1469286642183E+01
 0.1443528439917E+01
 0.1425179105900E+01
 0.1414101280841E+01
 0.1410103644580E+01
 0.1412931069567E+01
 0.1422249328797E+01
 0.1437612686845E+01
 0.1458408030547E+01
 0.1483768243690E+01
 0.1512442000080E+01
 0.2090114720314E+01
 0.1986728252430E+01
 0.1893426721125E+01
 0.1809688570469E+01
 0.1735116234356E+01
 0.1669397510393E+01
 0.1612281216943E+01
 0.1563561910933E+01
 0.1523070667136E+01
 0.1490670383103E+01
 0.1466251812039E+01
 0.1449723081683E+01
 0.1440986835885E+01
 0.1439918327382E+01
 0.1446355453338E+01
 0.1460084971967E+01
 0.1480815051951E+01
 0.1508129953424E+01
 0.1541423456193E+01
 0.1579807024406E+01
 0.2123317695653E+01
 0.2015248012162E+01
 0.1918418612729E+01
 0.1832096803917E+01
 0.1755721490283E+01
 0.1688858056876E+01
 0.1631167488721E+01
 0.1582385250426E+01
 0.1542307152513E+01
 0.1510780899224E+01
 0.1487700265894E+01
 0.1472995351544E+01
 0.1466613730161E+01
 0.1468502191620E+01
 0.1478597705584E+01
 0.1496816103565E+01
 0.1523030656408E+01
 0.1557038524470E+01
 0.1598515675538E+01
 0.1646964880624E+01
 0.2154575531080E+01
 0.2042015190064E+01
 0.1941800842160E+01
 0.1852998676036E+01
 0.1774892152825E+01
 0.1706930619968E+01
 0.1648692303623E+01
 0.1599857802141E+01
 0.1560191465567E+01
 0.1529529549653E+01
 0.1507772785937E+01
 0.1494877496002E+01
 0.1490840404251E+01
 0.1495683995872E+01
 0.1509449312219E+01
 0.1532187946569E+01
 0.1563947387725E+01
 0.1604749691613E+01
 0.1654567604018E+01
 0.1713310111777E+01
 0.2183695963403E+01
 0.2066875798021E+01
 0.1963448291980E+01
 0.1872290218629E+01
 0.1792538990493E+01
 0.1723535270254E+01
 0.1664780270642E+01
 0.1615904339900E+01
 0.1576644310755E+01
 0.1546828647175E+01
 0.1526368657397E+01
 0.1515250561204E+01
 0.1513523696903E+01
 0.1521289514234E+01
 0.1538696957189E+01
 0.1565938463543E+01
 0.1603242486642E+01
 0.1650864148885E+01
 0.1709080707347E+01
 0.1778208064520E+01
 0.2210496618053E+01
 0.2089684019222E+01
 0.1983242509712E+01
 0.1889872873726E+01
 0.1808577177597E+01
 0.1738595705984E+01
 0.1679359036382E+01
 0.1630452224746E+01
 0.1591588610028E+01
 0.1562592364889E+01
 0.1543388612473E+01
 0.1533996521697E+01
 0.1534520695098E+01
 0.1545143829037E+01
 0.1566125296647E+01
 0.1597801657151E+01
 0.1640586459411E+01
 0.1694972088424E+01
 0.1761541567656E+01
 0.1841007839075E+01
 0.2234806225854E+01
 0.2110303071916E+01
 0.2001072357396E+01
 0.1905654022954E+01
 0.1822926772246E+01
 0.1752039732135E+01
 0.1692359808802E+01
 0.1643432014319E+01
 0.1604950243088E+01
 0.1576737663230E+01
 0.1558736012835E+01
 0.1550999791374E+01
 0.1553690643250E+01
 0.1567073706993E+01
 0.1591519876006E+01
 0.1627511146343E+01
 0.1675647496273E+01
 0.1736658801556E+01
 0.1811429728362E+01
 0.1901054206304E+01
 0.2256465838205E+01
 0.2128606067511E+01
 0.2016834651512E+01
 0.1919547504049E+01
 0.1835513178141E+01
 0.1763799721106E+01
 0.1703717862688E+01
 0.1654778057758E+01
 0.1616658781040E+01
 0.1589185220898E+01
 0.1572318046606E+01
 0.1566148760169E+01
 0.1570896896356E+01
 0.1586910054303E+01
 0.1614670200508E+01
 0.1654804018699E+01
 0.1708096464178E+01
 0.1775511264816E+01
 0.1858226384434E+01
 0.1957698050488E+01
 0.2275330015507E+01
 0.2144476847143E+01
 0.2030434781775E+01
 0.1931474105496E+01
 0.1846267582988E+01
 0.1773813048478E+01
 0.1713373019774E+01
 0.1664429066870E+01
 0.1626648200225E+01
 0.1599860351474E+01
 0.1584046917491E+01
 0.1579337333141E+01
 0.1586008895352E+01
 0.1604490434276E+01
 0.1635372933111E+01
 0.1679424938509E+01
 0.1737612236219E+01
 0.1811125563946E+01
 0.1901423472820E+01
 0.2010305112435E+01
 0.2291267971559E+01
 0.2157810784136E+01
 0.2041787301012E+01
 0.1941362033784E+01
 0.1855127368986E+01
 0.1782022499288E+01
 0.1721270097780E+01
 0.1672328655359E+01
 0.1634857564313E+01
 0.1608693889537E+01
 0.1593841006219E+01
 0.1590466449220E+01
 0.1598904140094E+01
 0.1619661615137E+01
 0.1653435184308E+01
 0.1701130389146E+01
 0.1763887270115E+01
 0.1843113884463E+01
 0.1940534359449E+01
 0.2058263535903E+01
 0.2304164652482E+01
 0.2168515538422E+01
 0.2050816476690E+01
 0.1949147346447E+01
 0.1862036489596E+01
 0.1788376638796E+01
 0.1727359320922E+01
 0.1678425836125E+01
 0.1641231661256E+01
 0.1615623028962E+01
 0.1601625982730E+01
 0.1599445553480E+01
 0.1609470125912E+01
 0.1632282104287E+01
 0.1668677813020E+01
 0.1719692976919E+01
 0.1786633069814E+01
 0.1871111561503E+01
 0.1975100731060E+01
 0.2101003673493E+01
 0.2313921728653E+01
 0.2176511749430E+01
 0.2057456794880E+01
 0.1954774344170E+01
 0.1866945806784E+01
 0.1792830141459E+01
 0.1731596683943E+01
 0.1682675465976E+01
 0.1645721580909E+01
 0.1620592095078E+01
 0.1607335845978E+01
 0.1606193992781E+01
 0.1617606203378E+01
 0.1642224606735E+01
 0.1680938658993E+01
 0.1734905625601E+01
 0.1805585598735E+01
 0.1894783549045E+01
 0.2004701184597E+01
 0.2138004214424E+01
 0.2320458485295E+01
 0.2181733657488E+01
 0.2061653410716E+01
 0.1958195918250E+01
 0.1869813385447E+01
 0.1795344073985E+01
 0.1733944263459E+01
 0.1685038628465E+01
 0.1648285220309E+01
 0.1623553233427E+01
 0.1610913868703E+01
 0.1610642304601E+01
 0.1623225317432E+01
 0.1649378345415E+01
 0.1690075602983E+01
 0.1746585574294E+01
 0.1820510369683E+01
 0.1913830960462E+01
 0.2028959149519E+01
 0.2168798541214E+01
 0.2323712595868E+01
 0.2184129642503E+01
 0.2063362539164E+01
 0.1959373848885E+01
 0.1870604741424E+01
 0.1795886127934E+01
 0.1734370469861E+01
 0.1685482944834E+01
 0.1648887702629E+01
 0.1624466996705E+01
 0.1612313423543E+01
 0.1612733367694E+01
 0.1626255582356E+01
 0.1653651176518E+01
 0.1695969367944E+01
 0.1754578029946E+01
 0.1831207146711E+01
 0.1927996929624E+01
 0.2047549452872E+01
 0.2192982151592E+01
 0.2323640753869E+01
 0.2183662670819E+01
 0.2062551776903E+01
 0.1958279049610E+01
 0.1869293038881E+01
 0.1794430796966E+01
 0.1732850232485E+01
 0.1683982802082E+01
 0.1647501694360E+01
 0.1623302809741E+01
 0.1611498665277E+01
 0.1612423383419E+01
 0.1626641650827E+01
 0.1654971440923E+01
 0.1698525967662E+01
 0.1758759364149E+01
 0.1837514043722E+01
 0.1937071606709E+01
 0.2060204124359E+01
 0.2210218916838E+01
 0.2320219198740E+01
 0.2180310653289E+01
 0.2059200370166E+01
 0.1954891770011E+01
 0.1865859248634E+01
 0.1790959507419E+01
 0.1729365122702E+01
 0.1680519497485E+01
 0.1644107613900E+01
 0.1620039299763E+01
 0.1608445051634E+01
 0.1609682666293E+01
 0.1624345851108E+01
 0.1653289512083E+01
 0.1697678737455E+01
 0.1759039734453E+01
 0.1839310877522E+01
 0.1940896348760E+01
 0.2066717351127E+01
 0.2220246645172E+01
 0.2313443995576E+01
 0.2174066659515E+01
 0.2053299371633E+01
 0.1949201714197E+01
 0.1860292230764E+01
 0.1785460669228E+01
 0.1723903382687E+01
 0.1675081265482E+01
 0.1638693693303E+01
 0.1614664448812E+01
 0.1603139656438E+01
 0.1604496198640E+01
 0.1619349049779E+01
 0.1648578998874E+01
 0.1693389885267E+01
 0.1755365019589E+01
 0.1836521624669E+01
 0.1939366977479E+01
 0.2066949685483E+01
 0.2222881838603E+01
 0.2303331232360E+01
 0.2164939053846E+01
 0.2044851763986E+01
 0.1941208142582E+01
 0.1852588801822E+01
 0.1777929698462E+01
 0.1716459902632E+01
 0.1667663220153E+01
 0.1631255914231E+01
 0.1607175576388E+01
 0.1595581274325E+01
 0.1596863949692E+01
 0.1611651250244E+01
 0.1640837620129E+01
 0.1685651593202E+01
 0.1747718050867E+01
 0.1829115836810E+01
 0.1932435792254E+01
 0.2060831529126E+01
 0.2218024258422E+01
 0.2289916973547E+01
 0.2152951484280E+01
 0.2033872489116E+01
 0.1930919914256E+01
 0.1842753749206E+01
 0.1768368977025E+01
 0.1707036115129E+01
 0.1658267183041E+01
 0.1621797782685E+01
 0.1597579104218E+01
 0.1585780259646E+01
 0.1586800909761E+01
 0.1601271905127E+01
 0.1630087758434E+01
 0.1674486683313E+01
 0.1736119253247E+01
 0.1817108904351E+01
 0.1920111846512E+01
 0.2048365075366E+01
 0.2205663432591E+01
 0.2273256977595E+01
 0.2138142719439E+01
 0.2020388409524E+01
 0.1918355499483E+01
 0.1830799815346E+01
 0.1756787763985E+01
 0.1695639819358E+01
 0.1646901411374E+01
 0.1610329947927E+01
 0.1585890085674E+01
 0.1573758050577E+01
 0.1574336793440E+01
 0.1588249943270E+01
 0.1616376752243E+01
 0.1659948926197E+01
 0.1720626714605E+01
 0.1800561807185E+01
 0.1902458834042E+01
 0.2029623236327E+01
 0.2185887040358E+01
 0.2253426099938E+01
 0.2120566315662E+01
 0.2004438218604E+01
 0.1903542991912E+01
 0.1816747662918E+01
 0.1743202049493E+01
 0.1682284933661E+01
 0.1633580235037E+01
 0.1596869680284E+01
 0.1572131474606E+01
 0.1559546302643E+01
 0.1559515289245E+01
 0.1572643478615E+01
 0.1599777027754E+01
 0.1642123133152E+01
 0.1701335699432E+01
 0.1779580058828E+01
 0.1879594115598E+01
 0.2004740826905E+01
 0.2158887188912E+01
 0.2230517337904E+01
 0.2100290104083E+01
 0.1986072401251E+01
 0.1886520239956E+01
 0.1800625861633E+01
 0.1727634371686E+01
 0.1666991198451E+01
 0.1618323677151E+01
 0.1581440279851E+01
 0.1556333215170E+01
 0.1543185566110E+01
 0.1542392736040E+01
 0.1554529039444E+01
 0.1580386348602E+01
 0.1621125514824E+01
 0.1678377768870E+01
 0.1754311297993E+01
 0.1851687100831E+01
 0.1973917788941E+01
 0.2124923257603E+01
 0.2204639836802E+01
 0.2077395228315E+01
 0.1965353300676E+01
 0.1867335065254E+01
 0.1782470816042E+01
 0.1710113351972E+01
 0.1649783751722E+01
 0.1601156997600E+01
 0.1564070439415E+01
 0.1538531084262E+01
 0.1524723558564E+01
 0.1523035640340E+01
 0.1533999971617E+01
 0.1558327776839E+01
 0.1597105560914E+01
 0.1651920225391E+01
 0.1724940221118E+01
 0.1818952323814E+01
 0.1937420329253E+01
 0.2084310897527E+01
 0.2175915396746E+01
 0.2051975095139E+01
 0.1942355760047E+01
 0.1846046489920E+01
 0.1762326436228E+01
 0.1690673118641E+01
 0.1630692551694E+01
 0.1582110643464E+01
 0.1544793705050E+01
 0.1518765621037E+01
 0.1504213076875E+01
 0.1501517968422E+01
 0.1511161523634E+01
 0.1533750213887E+01
 0.1570249355664E+01
 0.1622171355868E+01
 0.1691680531074E+01
 0.1781631188937E+01
 0.1895562603459E+01
 0.2037452156551E+01
 0.2144471168275E+01
 0.2024131716882E+01
 0.1917171387826E+01
 0.1822725624933E+01
 0.1740243976423E+01
 0.1669350540555E+01
 0.1609752349618E+01
 0.1561220078912E+01
 0.1523648585973E+01
 0.1497080272796E+01
 0.1481709963387E+01
 0.1477917489025E+01
 0.1486126844055E+01
 0.1506813781845E+01
 0.1540797224096E+01
 0.1589389533799E+01
 0.1654777554611E+01
 0.1739953238838E+01
 0.1848666784285E+01
 0.1984873599625E+01
 0.2110410351799E+01
 0.1993981655732E+01
 0.1889911071158E+01
 0.1797467265012E+01
 0.1716272783504E+01
 0.1646184081011E+01
 0.1587000956044E+01
 0.1538529701323E+01
 0.1500676765987E+01
 0.1473521748778E+01
 0.1457268308963E+01
 0.1452314427691E+01
 0.1459011765764E+01
 0.1477684889586E+01
 0.1508982337758E+01
 0.1554017654777E+01
 0.1614481703273E+01
 0.1694074597101E+01
 0.1796998986087E+01
 0.1927119356136E+01
 0.2073785289509E+01
 0.1961591928015E+01
 0.1860811411265E+01
 0.1770351317365E+01
 0.1690451577158E+01
 0.1621214281823E+01
 0.1562482571557E+01
 0.1514080890199E+01
 0.1475949086081E+01
 0.1448118426793E+01
 0.1430940806483E+01
 0.1424791582249E+01
 0.1429933027345E+01
 0.1446525524140E+01
 0.1475035983675E+01
 0.1516364926299E+01
 0.1571934294640E+01
 0.1643471929238E+01
 0.1740316613718E+01
 0.1865405544611E+01
 0.2033536661330E+01
 0.1927705190489E+01
 0.1830078970396E+01
 0.1741402608080E+01
 0.1662803196099E+01
 0.1594485785873E+01
 0.1536257919119E+01
 0.1487918007961E+01
 0.1449489609456E+01
 0.1421069219659E+01
 0.1402574923578E+01
 0.1395457154315E+01
 0.1399174365120E+01
 0.1413318710559E+01
 0.1439187437301E+01
 0.1476838299140E+01
 0.1527237362772E+01
 0.1592612563634E+01
 0.1671831552257E+01
 0.1798108585672E+01
 0.5180086009664E+01
 0.3861324075159E+00
 0.3934135451409E-01
-0.1272428433619E+00
-0.1771261838494E+00
-0.1965155033574E+00
-0.2045539947571E+00
-0.2074869059063E+00
-0.2051037867432E+00
-0.1984919703901E+00
-0.1915553013280E+00
-0.1730962450930E+00
-0.1516849795502E+00
-0.1439768693993E+00
-0.1525803229841E+00
-0.1692144009989E+00
-0.1884051805991E+00
-0.2047270210935E+00
-0.2172117433702E+00
-0.2158355536636E+00
 0.2946391355953E+01
 0.1513270915311E+01
 0.2938359012577E+00
 0.3663472067744E-01
-0.7033630291643E-01
-0.1112619136400E+00
-0.1317870315516E+00
-0.1420445806763E+00
-0.1459568969437E+00
-0.1458247097316E+00
-0.1405709773061E+00
-0.1319111226442E+00
-0.1232707323803E+00
-0.1189867267105E+00
-0.1237248165527E+00
-0.1359595485421E+00
-0.1504082586763E+00
-0.1640978064283E+00
-0.1742086727002E+00
-0.1845139383025E+00
 0.2249715070023E+01
 0.1471626093663E+01
 0.7021893358568E+00
 0.2245365536894E+00
 0.5746717534911E-01
-0.1717728976004E-01
-0.5313311276055E-01
-0.7293151058162E-01
-0.8387839202505E-01
-0.8913180253848E-01
-0.8971925812659E-01
-0.8820457062552E-01
-0.8720833880624E-01
-0.8711540083132E-01
-0.9089237489350E-01
-0.9962873363108E-01
-0.1107598616146E+00
-0.1219459045484E+00
-0.1331989789189E+00
-0.1443232105089E+00
 0.1884372776864E+01
 0.1402293948905E+01
 0.8628039946231E+00
 0.4372209567060E+00
 0.1980663992521E+00
 0.8810229840585E-01
 0.3178241981726E-01
 0.5157870128513E-03
-0.1831454913167E-01
-0.2986006351027E-01
-0.3638928891384E-01
-0.4122520567313E-01
-0.4601207805082E-01
-0.4955238266650E-01
-0.5360636068494E-01
-0.6035987479440E-01
-0.6902528315044E-01
-0.7887296403341E-01
-0.8969658633543E-01
-0.1006493467208E+00
 0.1671215714271E+01
 0.1340742942303E+01
 0.9445195714487E+00
 0.5873181014124E+00
 0.3422550730579E+00
 0.2002991588937E+00
 0.1231378887688E+00
 0.7851884240494E-01
 0.5075804724043E-01
 0.3237038330205E-01
 0.1982567639906E-01
 0.9266430186766E-02
-0.4026004781003E-03
-0.7176389311662E-02
-0.1213519906612E-01
-0.1796794959439E-01
-0.2515034094295E-01
-0.3384671495531E-01
-0.4389894026065E-01
-0.5416659797818E-01
 0.1537491308021E+01
 0.1296993212334E+01
 0.9916419622381E+00
 0.6958668350012E+00
 0.4668143272295E+00
 0.3132169626456E+00
 0.2185140302254E+00
 0.1606669981261E+00
 0.1233268837072E+00
 0.9770225026198E-01
 0.7914021584333E-01
 0.6323888495837E-01
 0.4924978411834E-01
 0.3948283194174E-01
 0.3323330136236E-01
 0.2754874193077E-01
 0.2119121090513E-01
 0.1337311445398E-01
 0.4159300832344E-02
-0.5361921112634E-02
 0.1451553586205E+01
 0.1268384142960E+01
 0.1024691526250E+01
 0.7777889336092E+00
 0.5717183622621E+00
 0.4188537801164E+00
 0.3144386429889E+00
 0.2454922051132E+00
 0.1989697301128E+00
 0.1660660819094E+00
 0.1415598978815E+00
 0.1206032619415E+00
 0.1026654169505E+00
 0.9006616707282E-01
 0.8225188637112E-01
 0.7617763498814E-01
 0.7012791277101E-01
 0.6288847622324E-01
 0.5436577466035E-01
 0.4547693330246E-01
 0.1396674553738E+01
 0.1251945146296E+01
 0.1052179605284E+01
 0.8435951886692E+00
 0.6606105730411E+00
 0.5150644981275E+00
 0.4074141970425E+00
 0.3310543515281E+00
 0.2767694291120E+00
 0.2370988744232E+00
 0.2069142914524E+00
 0.1811944818239E+00
 0.1595960720671E+00
 0.1442846807014E+00
 0.1347118265263E+00
 0.1278455706742E+00
 0.1216763633731E+00
 0.1146847945557E+00
 0.1065982394440E+00
 0.9811428359885E-01
 0.1363245894931E+01
 0.1245189729393E+01
 0.1078011827414E+01
 0.8996582240228E+00
 0.7376320223809E+00
 0.6021809667694E+00
 0.4957455441448E+00
 0.4155340685529E+00
 0.3555777720848E+00
 0.3101715349292E+00
 0.2748527807115E+00
 0.2447577256478E+00
 0.2197778867998E+00
 0.2018713084768E+00
 0.1904041768600E+00
 0.1824296470496E+00
 0.1757641183096E+00
 0.1686738233789E+00
 0.1607073976129E+00
 0.1523337358663E+00
 0.1345343972068E+01
 0.1246274745458E+01
 0.1104018285248E+01
 0.9498630508919E+00
 0.8061494883769E+00
 0.6815406869136E+00
 0.5789834944644E+00
 0.4977791095082E+00
 0.4343116525694E+00
 0.3845291218520E+00
 0.3448804969814E+00
 0.3109412916312E+00
 0.2829047502677E+00
 0.2625447907250E+00
 0.2490989802558E+00
 0.2397574374967E+00
 0.2322503658821E+00
 0.2247059649357E+00
 0.2165107100341E+00
 0.2079144987259E+00
 0.1339125985538E+01
 0.1253850364353E+01
 0.1131089896673E+01
 0.9965969725009E+00
 0.8686792839710E+00
 0.7546575796858E+00
 0.6573946611999E+00
 0.5772455057223E+00
 0.5121678349219E+00
 0.4594409926195E+00
 0.4164330144814E+00
 0.3793141641720E+00
 0.3486177287829E+00
 0.3259899657089E+00
 0.3105310588738E+00
 0.2996074639951E+00
 0.2909347465788E+00
 0.2825758107820E+00
 0.2737849888901E+00
 0.2646186053240E+00
 0.1341988854418E+01
 0.1266917788541E+01
 0.1159668749876E+01
 0.1041362602820E+01
 0.9270369839148E+00
 0.8229073736938E+00
 0.7315584424147E+00
 0.6538199339543E+00
 0.5886475899554E+00
 0.5343039532266E+00
 0.4889532522176E+00
 0.4494030538550E+00
 0.4165122744905E+00
 0.3918516788082E+00
 0.3743938916149E+00
 0.3617093959812E+00
 0.3515617164884E+00
 0.3420226236713E+00
 0.3322589947456E+00
 0.3221812481330E+00
 0.1352101205120E+01
 0.1284717568747E+01
 0.1189971830621E+01
 0.1085130165729E+01
 0.9825200159564E+00
 0.8874314562148E+00
 0.8021381680052E+00
 0.7276399213521E+00
 0.6635016348898E+00
 0.6086723492182E+00
 0.5619453747217E+00
 0.5207325847274E+00
 0.4861574238620E+00
 0.4597410876076E+00
 0.4403417843392E+00
 0.4257479226552E+00
 0.4138241866605E+00
 0.4027291245377E+00
 0.3916034705118E+00
 0.3802987593788E+00
 0.1368128543742E+01
 0.1306650931161E+01
 0.1222093101717E+01
 0.1128539838770E+01
 0.1036054977086E+01
 0.9491349450580E+00
 0.8697645927650E+00
 0.7989621691681E+00
 0.7366519688430E+00
 0.6822439168623E+00
 0.6349969068220E+00
 0.5928555166064E+00
 0.5571185686885E+00
 0.5292501575141E+00
 0.5080022854534E+00
 0.4913736733663E+00
 0.4773729537512E+00
 0.4643206748607E+00
 0.4514170794977E+00
 0.4386050596784E+00
 0.1389064910240E+01
 0.1332225975486E+01
 0.1256050410369E+01
 0.1172017279298E+01
 0.1088303735962E+01
 0.1008716193107E+01
 0.9349852502980E+00
 0.8680775116981E+00
 0.8081210896221E+00
 0.7548258152921E+00
 0.7077768646405E+00
 0.6653679278377E+00
 0.6289739212629E+00
 0.5999709367289E+00
 0.5769946203975E+00
 0.5582315516139E+00
 0.5418353437272E+00
 0.5263747597724E+00
 0.5112024255124E+00
 0.4966232948427E+00
 0.1414126543141E+01
 0.1361020893197E+01
 0.1291807069741E+01
 0.1215839285520E+01
 0.1139735768279E+01
 0.1066701700547E+01
 0.9982479789035E+00
 0.9352605926362E+00
 0.8779774375184E+00
 0.8262970914782E+00
 0.7800206836839E+00
 0.7379098416911E+00
 0.7013231385457E+00
 0.6714993028332E+00
 0.6469649815749E+00
 0.6259910178498E+00
 0.6068856915648E+00
 0.5884315162046E+00
 0.5703467616386E+00
 0.5536548143877E+00
 0.1442681994919E+01
 0.1392660763887E+01
 0.1329279410367E+01
 0.1260172833223E+01
 0.1190675206518E+01
 0.1123478280367E+01
 0.1059900057338E+01
 0.1000742298327E+01
 0.9462965272063E+00
 0.8965757552061E+00
 0.8515110023039E+00
 0.8101592274835E+00
 0.7737817738060E+00
 0.7434382523521E+00
 0.7175411543777E+00
 0.6944840897273E+00
 0.6722819592045E+00
 0.6501754615321E+00
 0.6280144281022E+00
 0.6085818340008E+00
 0.1474217748711E+01
 0.1426792080037E+01
 0.1368346843481E+01
 0.1305089271711E+01
 0.1241338012842E+01
 0.1179317788102E+01
 0.1120195453039E+01
 0.1064693365362E+01
 0.1013134655042E+01
 0.9655917644427E+00
 0.9220606196810E+00
 0.8818269641749E+00
 0.8459809330024E+00
 0.8153631565208E+00
 0.7883431429461E+00
 0.7633587329856E+00
 0.7386477898635E+00
 0.7112913021721E+00
 0.6835041807334E+00
 0.6591013590613E+00
 0.1508284610907E+01
 0.1463129454913E+01
 0.1408782435650E+01
 0.1350609171148E+01
 0.1291851820542E+01
 0.1234400207103E+01
 0.1179300883482E+01
 0.1127222760117E+01
 0.1078497772496E+01
 0.1033266981813E+01
 0.9915032591216E+00
 0.9526541954826E+00
 0.9175855669186E+00
 0.8868374599945E+00
 0.8588282014270E+00
 0.8322752103501E+00
 0.8051833323183E+00
 0.7764275504881E+00
 0.7340386192660E+00
 0.7009778732774E+00
 0.1545143944986E+01
 0.1500929745573E+01
 0.1450423945977E+01
 0.1396692389580E+01
 0.1342298665240E+01
 0.1288818872982E+01
 0.1237302661658E+01
 0.1188374261896E+01
 0.1142361958501E+01
 0.1099409589730E+01
 0.1059694004879E+01
 0.1022505494387E+01
 0.9882510565558E+00
 0.9574778441861E+00
 0.9284658099586E+00
 0.9002759171872E+00
 0.8716757415791E+00
 0.8402373467273E+00
 0.8072673139934E+00
 0.7047025570888E+00
 0.1985714112321E+01
 0.1880398533845E+01
 0.1783071898188E+01
 0.1695682262840E+01
 0.1618034715884E+01
 0.1550281482411E+01
 0.1492466706715E+01
 0.1444569958826E+01
 0.1406535926539E+01
 0.1378447009073E+01
 0.1360725973266E+01
 0.1352876397021E+01
 0.1356659061173E+01
 0.1373204491488E+01
 0.1401184413017E+01
 0.1441350642657E+01
 0.1494630447208E+01
 0.1561298141868E+01
 0.1643847120809E+01
 0.1676353199108E+01
 0.1944296219765E+01
 0.1834984691598E+01
 0.1734455044321E+01
 0.1643379058179E+01
 0.1562796145307E+01
 0.1492779839090E+01
 0.1433249418050E+01
 0.1384158742741E+01
 0.1345472785932E+01
 0.1317286699745E+01
 0.1299776670149E+01
 0.1292925185846E+01
 0.1298609475624E+01
 0.1317978791532E+01
 0.1350001471888E+01
 0.1394868268212E+01
 0.1452744847211E+01
 0.1524648627330E+01
 0.1601292652977E+01
 0.1709555008106E+01
 0.1900363602043E+01
 0.1788215090455E+01
 0.1683580541738E+01
 0.1588608297223E+01
 0.1504608245509E+01
 0.1431860380684E+01
 0.1370229551292E+01
 0.1319656595898E+01
 0.1280053671293E+01
 0.1251440772428E+01
 0.1234098056346E+01
 0.1227731872133E+01
 0.1234708321193E+01
 0.1256589280608E+01
 0.1292158882483E+01
 0.1341408985441E+01
 0.1404667050264E+01
 0.1481679749103E+01
 0.1578027233606E+01
 0.1702371218109E+01
 0.1855269942658E+01
 0.1739977094954E+01
 0.1630944998977E+01
 0.1531471808028E+01
 0.1443585916668E+01
 0.1367663450548E+01
 0.1303573448757E+01
 0.1251239061446E+01
 0.1210477794775E+01
 0.1181247492759E+01
 0.1163779899107E+01
 0.1157526664827E+01
 0.1165300995480E+01
 0.1189108683837E+01
 0.1227803540470E+01
 0.1281443717829E+01
 0.1350356334048E+01
 0.1436917805836E+01
 0.1545094948222E+01
 0.1683197539027E+01
 0.1809541092132E+01
 0.1690782313383E+01
 0.1576753521437E+01
 0.1472163399236E+01
 0.1379827421581E+01
 0.1300286823591E+01
 0.1233399395923E+01
 0.1179065283966E+01
 0.1136973703501E+01
 0.1106951136212E+01
 0.1089132161920E+01
 0.1082645691958E+01
 0.1090705521109E+01
 0.1115829476806E+01
 0.1157173503991E+01
 0.1214907024661E+01
 0.1289946281635E+01
 0.1384730699508E+01
 0.1503768983477E+01
 0.1654423031309E+01
 0.1763750973067E+01
 0.1641053044664E+01
 0.1521284108535E+01
 0.1410812265266E+01
 0.1313403345729E+01
 0.1229774997412E+01
 0.1159780281631E+01
 0.1103273803148E+01
 0.1059757397532E+01
 0.1028856669086E+01
 0.1010529445585E+01
 0.1003516178619E+01
 0.1011348141846E+01
 0.1037117443086E+01
 0.1080443333893E+01
 0.1141728537951E+01
 0.1222118174569E+01
 0.1324378895967E+01
 0.1453407553070E+01
 0.1616852410361E+01
 0.1718507987403E+01
 0.1591228323033E+01
 0.1464780212454E+01
 0.1347510495118E+01
 0.1244312662328E+01
 0.1156104653857E+01
 0.1082735401554E+01
 0.1023977003404E+01
 0.9790604826532E+00
 0.9473136929259E+00
 0.9284208840709E+00
 0.9206560341194E+00
 0.9277538978650E+00
 0.9534186471932E+00
 0.9978821967625E+00
 0.1061750194165E+01
 0.1146489196867E+01
 0.1255225897487E+01
 0.1393607109327E+01
 0.1570177451853E+01
 0.1674513274617E+01
 0.1541765200940E+01
 0.1407454720650E+01
 0.1282275908063E+01
 0.1172460285354E+01
 0.1079159832920E+01
 0.1002222339195E+01
 0.9412699992763E+00
 0.8951391082312E+00
 0.8627293728588E+00
 0.8433326116267E+00
 0.8346759596847E+00
 0.8405545249403E+00
 0.8653121344122E+00
 0.9098933931654E+00
 0.9751375273505E+00
 0.1062921462468E+01
 0.1176918920499E+01
 0.1323828470128E+01
 0.1513713240767E+01
 0.1632613898045E+01
 0.1493159839670E+01
 0.1349476931484E+01
 0.1215021432587E+01
 0.1097616677691E+01
 0.9987073255307E+00
 0.9181346020972E+00
 0.8552458585032E+00
 0.8082956507976E+00
 0.7755829983445E+00
 0.7558735892784E+00
 0.7462787471791E+00
 0.7504981308949E+00
 0.7735275225447E+00
 0.8170974942125E+00
 0.8822978435695E+00
 0.9715377865241E+00
 0.1089241149143E+01
 0.1243513876113E+01
 0.1446546693611E+01
 0.1593881002071E+01
 0.1445972835476E+01
 0.1290955220710E+01
 0.1145503952794E+01
 0.1019363928152E+01
 0.9143700738361E+00
 0.8303120247758E+00
 0.7660282777250E+00
 0.7189115206795E+00
 0.6864441571074E+00
 0.6667362987333E+00
 0.6562501976760E+00
 0.6584401688104E+00
 0.6789527484977E+00
 0.7203247999757E+00
 0.7838913982412E+00
 0.8726984652150E+00
 0.9921400075185E+00
 0.1152121128273E+01
 0.1367634051719E+01
 0.1559729965576E+01
 0.1400866278390E+01
 0.1231900823494E+01
 0.1073239172078E+01
 0.9370188853727E+00
 0.8256068223839E+00
 0.7385771311082E+00
 0.6738299529588E+00
 0.6274917064698E+00
 0.5959874233801E+00
 0.5766858537555E+00
 0.5654341545219E+00
 0.5653191671940E+00
 0.5826139629553E+00
 0.6206104482984E+00
 0.6808358576560E+00
 0.7670309677210E+00
 0.8857665314826E+00
 0.1049176315814E+01
 0.1275851312101E+01
 0.1532116067226E+01
 0.1358657372837E+01
 0.1172151403450E+01
 0.9973545661058E+00
 0.8495290074587E+00
 0.7317169493356E+00
 0.6428205865688E+00
 0.5790447342619E+00
 0.5347139907749E+00
 0.5049918127300E+00
 0.4865299769713E+00
 0.4746921806902E+00
 0.4721174485765E+00
 0.4856442078100E+00
 0.5191780873336E+00
 0.5743178654913E+00
 0.6554730768128E+00
 0.7705428255653E+00
 0.9343354691586E+00
 0.1170033804244E+01
 0.1513868734627E+01
 0.1320394294904E+01
 0.1111205451821E+01
 0.9163351286026E+00
 0.7553461415439E+00
 0.6319168283256E+00
 0.5431688338570E+00
 0.4823735113307E+00
 0.4414599039229E+00
 0.4143075096062E+00
 0.3970655267756E+00
 0.3848534911581E+00
 0.3798160941365E+00
 0.3892412525061E+00
 0.4174100904057E+00
 0.4657944498183E+00
 0.5393250891807E+00
 0.6472561605687E+00
 0.8074736738633E+00
 0.1049018084301E+01
 0.1509294954068E+01
 0.1287451060824E+01
 0.1047861182850E+01
 0.8275820714982E+00
 0.6523301577166E+00
 0.5255782460833E+00
 0.4402773034675E+00
 0.3849447007932E+00
 0.3487855800720E+00
 0.3247695719022E+00
 0.3090096381381E+00
 0.2966677378193E+00
 0.2893534592851E+00
 0.2946185204140E+00
 0.3167941492648E+00
 0.3569668498894E+00
 0.4202942063817E+00
 0.5171867567314E+00
 0.6688250656057E+00
 0.9117039053623E+00
 0.1525335873769E+01
 0.1261623019277E+01
 0.9793807812739E+00
 0.7267040660694E+00
 0.5378262945034E+00
 0.4128460386953E+00
 0.3357089368576E+00
 0.2883423420198E+00
 0.2577517634416E+00
 0.2370799241263E+00
 0.2229355390786E+00
 0.2107742869472E+00
 0.2015983700416E+00
 0.2029547599526E+00
 0.2188435259381E+00
 0.2496970683925E+00
 0.3005024211438E+00
 0.3822658629438E+00
 0.5192201992461E+00
 0.7571651363866E+00
 0.1574062726946E+01
 0.1244982140623E+01
 0.8996343305314E+00
 0.6063354413771E+00
 0.4096421252474E+00
 0.2957146407302E+00
 0.2323207485866E+00
 0.1941789018112E+00
 0.1692006425244E+00
 0.1517009860287E+00
 0.1392379648173E+00
 0.1276950983520E+00
 0.1173378346083E+00
 0.1153668274317E+00
 0.1249912923224E+00
 0.1458531061030E+00
 0.1823738585888E+00
 0.2452504072400E+00
 0.3604777779014E+00
 0.5848985058334E+00
 0.1678373910351E+01
 0.1239258895888E+01
 0.7936282954275E+00
 0.4560462586124E+00
 0.2684106654221E+00
 0.1805102111147E+00
 0.1328344999957E+00
 0.1036586717620E+00
 0.8356717668347E-01
 0.6883095463692E-01
 0.5813230928885E-01
 0.4782909362632E-01
 0.3730067399995E-01
 0.3288736107616E-01
 0.3656176673209E-01
 0.4702233670973E-01
 0.6836101763331E-01
 0.1096905917412E+00
 0.1961447006308E+00
 0.3953308349818E+00
 0.1891404459304E+01
 0.1236467596845E+01
 0.6289737107196E+00
 0.2611285723905E+00
 0.1322583468146E+00
 0.7188563361885E-01
 0.3911209335159E-01
 0.1716833292794E-01
 0.9415871861384E-03
-0.1152138260211E-01
-0.2040560534658E-01
-0.2852206812496E-01
-0.3782201691844E-01
-0.4344256615057E-01
-0.4538417559034E-01
-0.4533443548862E-01
-0.4006480565641E-01
-0.2030350915591E-01
 0.3215785464477E-01
 0.1916413739295E+00
 0.2344746762756E+01
 0.1209742574602E+01
 0.2801047980467E+00
 0.8971538178520E-01
 0.7601007991097E-02
-0.2699928028613E-01
-0.4894034332121E-01
-0.6541921398744E-01
-0.7857227549127E-01
-0.8965482988873E-01
-0.9654150667518E-01
-0.1014530898909E+00
-0.1070531110222E+00
-0.1124994669527E+00
-0.1199855900539E+00
-0.1306369882618E+00
-0.1404363048259E+00
-0.1453972637297E+00
-0.1203522013614E+00
-0.1747366141861E-01
 0.3944205781170E+01
 0.2932405248893E+00
 0.6131474301020E-01
-0.6159539925141E-01
-0.9982686409135E-01
-0.1177647232859E+00
-0.1315413235209E+00
-0.1447056108705E+00
-0.1553049467365E+00
-0.1640250351144E+00
-0.1731735916490E+00
-0.1707443146303E+00
-0.1684175729198E+00
-0.1729962896913E+00
-0.1871143909896E+00
-0.2082640029474E+00
-0.2332035160924E+00
-0.2573403705706E+00
-0.2793603198451E+00
-0.1807031230216E+00
 0.7874093831225E+00
 0.7037254242438E+00
 0.6449368920818E+00
 0.5903400280452E+00
 0.5372951246479E+00
 0.4842520816209E+00
 0.4307427901744E+00
 0.3766846174806E+00
 0.3222001876113E+00
 0.2674989947159E+00
 0.2128228768692E+00
 0.1584181037832E+00
 0.1045233320679E+00
 0.5136625943545E-01
-0.8326659248449E-03
-0.5185433386878E-01
-0.1014495073380E+00
-0.1494048962066E+00
-0.1949621103258E+00
-0.2407321059473E+00
 0.8404529517462E+00
 0.7714708583017E+00
 0.7066826052843E+00
 0.6477265909080E+00
 0.5905918529368E+00
 0.5340087495424E+00
 0.4772142139149E+00
 0.4199293714260E+00
 0.3621245104623E+00
 0.3039193856977E+00
 0.2455131972263E+00
 0.1871428349193E+00
 0.1290559295696E+00
 0.7149393704255E-01
 0.1468147969016E-01
-0.4117595492931E-01
-0.9591353840414E-01
-0.1493688747416E+00
-0.2019508297932E+00
-0.2543277437009E+00
 0.8863623785861E+00
 0.8278354287964E+00
 0.7670310380969E+00
 0.7070339678223E+00
 0.6479906633424E+00
 0.5889782655249E+00
 0.5295102966092E+00
 0.4693145573855E+00
 0.4083312042980E+00
 0.3466441393973E+00
 0.2844347213673E+00
 0.2219425818700E+00
 0.1594344292830E+00
 0.9717787445943E-01
 0.3542057065432E-01
-0.2562859410146E-01
-0.8580274602196E-01
-0.1450432381069E+00
-0.2033003920440E+00
-0.2602017344437E+00
 0.9363627777617E+00
 0.8829599569630E+00
 0.8262040935858E+00
 0.7678184322672E+00
 0.7085417689455E+00
 0.6483797940158E+00
 0.5870983124271E+00
 0.5245629818410E+00
 0.4607512079746E+00
 0.3957576094412E+00
 0.3297723441611E+00
 0.2630565042995E+00
 0.1959143763891E+00
 0.1286639202185E+00
 0.6160614054875E-01
-0.5000573145382E-02
-0.7096324309780E-01
-0.1361239697837E+00
-0.2002635578059E+00
-0.2631022814549E+00
 0.9897201190811E+00
 0.9401918918432E+00
 0.8868565642300E+00
 0.8307376922878E+00
 0.7724374618041E+00
 0.7121737805783E+00
 0.6499572588531E+00
 0.5857559214801E+00
 0.5195981603114E+00
 0.4515980297639E+00
 0.3819618075446E+00
 0.3109792359467E+00
 0.2390054184103E+00
 0.1664331286865E+00
 0.9365667247990E-01
 0.2103028658471E-01
-0.5116353694907E-01
-0.1227254158012E+00
-0.1935053568511E+00
-0.2632305635416E+00
 0.1046529188795E+01
 0.1000389315255E+01
 0.9503390679079E+00
 0.8968308432480E+00
 0.8402392133172E+00
 0.7807530401439E+00
 0.7184306832726E+00
 0.6532864691229E+00
 0.5853602908347E+00
 0.5147628550345E+00
 0.4416969714670E+00
 0.3664661865544E+00
 0.2894711686377E+00
 0.2111920642254E+00
 0.1321528679929E+00
 0.5286768609288E-01
-0.2622586408586E-01
-0.1048329504862E+00
-0.1828720549209E+00
-0.2604073052112E+00
 0.1106592300387E+01
 0.1063961999588E+01
 0.1017338147988E+01
 0.9668386294857E+00
 0.9125948941024E+00
 0.8546736128548E+00
 0.7930752139140E+00
 0.7277741640957E+00
 0.6587666649989E+00
 0.5861115978865E+00
 0.5099630365216E+00
 0.4305945415005E+00
 0.3484155337506E+00
 0.2639750070365E+00
 0.1779428292209E+00
 0.9105584595064E-01
 0.4023403034822E-02
-0.8259805779780E-01
-0.1685397322954E+00
-0.2541997949020E+00
 0.1169810489264E+01
 0.1131095368083E+01
 0.1088310297653E+01
 0.1041352496348E+01
 0.9901518929810E+00
 0.9346206791849E+00
 0.8746419663260E+00
 0.8100873272293E+00
 0.7408482122511E+00
 0.6668717639465E+00
 0.5881976319531E+00
 0.5049959599076E+00
 0.4176063880955E+00
 0.3265746795416E+00
 0.2326759536322E+00
 0.1368982915129E+00
 0.4035148639556E-01
-0.5590601594730E-01
-0.1510725231119E+00
-0.2447473429506E+00
 0.1236084405360E+01
 0.1201897117186E+01
 0.1163591361123E+01
 0.1120906523915E+01
 0.1073608682313E+01
 0.1021454070522E+01
 0.9641795845684E+00
 0.9015108991232E+00
 0.8331832491939E+00
 0.7589706120567E+00
 0.6787221803305E+00
 0.5924077559293E+00
 0.5001753431444E+00
 0.4024237913851E+00
 0.2998876489800E+00
 0.1937171480485E+00
 0.8548164524125E-01
-0.2300873254555E-01
-0.1300378029716E+00
-0.2340629143317E+00
 0.1305124431522E+01
 0.1276234825319E+01
 0.1243232371180E+01
 0.1205756896895E+01
 0.1163440222097E+01
 0.1115892946352E+01
 0.1062696593735E+01
 0.1003406689493E+01
 0.9375648522954E+00
 0.8647191513701E+00
 0.7844536094329E+00
 0.6964304755991E+00
 0.6004523268385E+00
 0.4965550975383E+00
 0.3851479872741E+00
 0.2672118830243E+00
 0.1445551903669E+00
 0.1989254329534E-01
-0.1036532901749E+00
-0.2234970149912E+00
 0.1376607704897E+01
 0.1353817446844E+01
 0.1327042505588E+01
 0.1295846826340E+01
 0.1259757847011E+01
 0.1218259181694E+01
 0.1170784481975E+01
 0.1116715193819E+01
 0.1055383416437E+01
 0.9860801199777E+00
 0.9080702063296E+00
 0.8206182289953E+00
 0.7230327045630E+00
 0.6147444747240E+00
 0.4954476414721E+00
 0.3653603165485E+00
 0.2256854299705E+00
 0.7947724842210E-01
-0.6801238174767E-01
-0.2114570998433E+00
 0.1450134620231E+01
 0.1434229824380E+01
 0.1414630250148E+01
 0.1390847922948E+01
 0.1362335447061E+01
 0.1328478937754E+01
 0.1288589366069E+01
 0.1241894121375E+01
 0.1187529329797E+01
 0.1124533085126E+01
 0.1051839943390E+01
 0.9682782247935E+00
 0.8725743297536E+00
 0.7633739942067E+00
 0.6393045158583E+00
 0.4991332299417E+00
 0.3421820429029E+00
 0.1693304458038E+00
-0.1360687225090E-01
-0.1940803025986E+00
 0.1525214851655E+01
 0.1516927326627E+01
 0.1505418600193E+01
 0.1490177940152E+01
 0.1470619957006E+01
 0.1446074973971E+01
 0.1415776359694E+01
 0.1378845262944E+01
 0.1334272398419E+01
 0.1280895788629E+01
 0.1217372753295E+01
 0.1142143813761E+01
 0.1053385530132E+01
 0.9489489565689E+00
 0.8262812680931E+00
 0.6823376147680E+00
 0.5135225787308E+00
 0.3159110346932E+00
 0.8668520182586E-01
-0.1605732337159E+00
 0.1601264258044E+01
 0.1601236516552E+01
 0.1598649819921E+01
 0.1593005587906E+01
 0.1583724973891E+01
 0.1570136621024E+01
 0.1551460686328E+01
 0.1526788621986E+01
 0.1495057404752E+01
 0.1455015958105E+01
 0.1405180142004E+01
 0.1343770526918E+01
 0.1268623443695E+01
 0.1177058812337E+01
 0.1065674492495E+01
 0.9300072072023E+00
 0.7639273198316E+00
 0.5584777111367E+00
 0.2990105749603E+00
-0.4019820226961E-01
 0.1677610935384E+01
 0.1686363934388E+01
 0.1693396349804E+01
 0.1698259279367E+01
 0.1700428662661E+01
 0.1699292156362E+01
 0.1694132795106E+01
 0.1684108334697E+01
 0.1668224659681E+01
 0.1645300724533E+01
 0.1613921034585E+01
 0.1572369206495E+01
 0.1518531707217E+01
 0.1449752353760E+01
 0.1362600448371E+01
 0.1252474119242E+01
 0.1112863497760E+01
 0.9337118028705E+00
 0.6976454261641E+00
 0.3575451827303E+00
 0.1753511211472E+01
 0.1771416331389E+01
 0.1788586390955E+01
 0.1804657374720E+01
 0.1819204264625E+01
 0.1831729597250E+01
 0.1841650146535E+01
 0.1848280760431E+01
 0.1850814181275E+01
 0.1848295194158E+01
 0.1839586630918E+01
 0.1823323413553E+01
 0.1797848572431E+01
 0.1761121210501E+01
 0.1710579205339E+01
 0.1642926705368E+01
 0.1553785110059E+01
 0.1437167018271E+01
 0.1284284857223E+01
 0.1089122669001E+01
 0.1828170730143E+01
 0.1855427181130E+01
 0.1883041258331E+01
 0.1910761931322E+01
 0.1938297069802E+01
 0.1965305486880E+01
 0.1991388693445E+01
 0.2016081957958E+01
 0.2038844347556E+01
 0.2059047504300E+01
 0.2075963039766E+01
 0.2088748804913E+01
 0.2096435277080E+01
 0.2097916042144E+01
 0.2091953635532E+01
 0.2077233677466E+01
 0.2052568001568E+01
 0.2017579021332E+01
 0.1975329509241E+01
 0.1945297373474E+01
 0.1900764764066E+01
 0.1937382302836E+01
 0.1975511679751E+01
 0.2015033290803E+01
 0.2055808749030E+01
 0.2097676915412E+01
 0.2140451083239E+01
 0.2183917473278E+01
 0.2227835508905E+01
 0.2271940811710E+01
 0.2315952762179E+01
 0.2359590037554E+01
 0.2402600631588E+01
 0.2444819076466E+01
 0.2486277392150E+01
 0.2527425102816E+01
 0.2569592181117E+01
 0.2615946991177E+01
 0.2673881468456E+01
 0.2752386719826E+01
 0.1970456684600E+01
 0.2016243607182E+01
 0.2064710208220E+01
 0.2115876656505E+01
 0.2169766331294E+01
 0.2226405248492E+01
 0.2285823813055E+01
 0.2348061414332E+01
 0.2413174549560E+01
 0.2481250131427E+01
 0.2552426671639E+01
 0.2626927815452E+01
 0.2705115668170E+01
 0.2787576572974E+01
 0.2875260009570E+01
 0.2969706133067E+01
 0.3073391885171E+01
 0.3190246805041E+01
 0.3325221358770E+01
 0.3483344832620E+01
 0.2036415498501E+01
 0.2090972040964E+01
 0.2149341700327E+01
 0.2211684076761E+01
 0.2278181192807E+01
 0.2349039049997E+01
 0.2424493117562E+01
 0.2504816689412E+01
 0.2590333395905E+01
 0.2681435431951E+01
 0.2778609921519E+01
 0.2882476900724E+01
 0.2993843797160E+01
 0.3113782454449E+01
 0.3243734900156E+01
 0.3385643172832E+01
 0.3542078501413E+01
 0.3716144789197E+01
 0.3911166177207E+01
 0.4130303424532E+01
 0.2097830901620E+01
 0.2160546258429E+01
 0.2228128400513E+01
 0.2300870103409E+01
 0.2379098379400E+01
 0.2463181270502E+01
 0.2553534781896E+01
 0.2650632708746E+01
 0.2755019974087E+01
 0.2867330643208E+01
 0.2988311973545E+01
 0.3118855999745E+01
 0.3260039718567E+01
 0.3413173191408E+01
 0.3579848878932E+01
 0.3761974694946E+01
 0.3961734481813E+01
 0.4181453620699E+01
 0.4423372973968E+01
 0.4689328523129E+01
 0.2153930219634E+01
 0.2223985503327E+01
 0.2299850680547E+01
 0.2381930654690E+01
 0.2470677410523E+01
 0.2566595562649E+01
 0.2670249753440E+01
 0.2782273725841E+01
 0.2903381739228E+01
 0.3034382667945E+01
 0.3176196985281E+01
 0.3329876268337E+01
 0.3496623585206E+01
 0.3677810335670E+01
 0.3874980669708E+01
 0.4089825943397E+01
 0.4324116724534E+01
 0.4579588814931E+01
 0.4857798437772E+01
 0.5159991441867E+01
 0.2204001128071E+01
 0.2280409319692E+01
 0.2363424562711E+01
 0.2453543238514E+01
 0.2551317042541E+01
 0.2657357901438E+01
 0.2772344047158E+01
 0.2897027078762E+01
 0.3032239836351E+01
 0.3178904833193E+01
 0.3338042561574E+01
 0.3510778287224E+01
 0.3698344739675E+01
 0.3902076454036E+01
 0.4123389435665E+01
 0.4363740990313E+01
 0.4624568661366E+01
 0.4907216907008E+01
 0.5212872349744E+01
 0.5542544511609E+01
 0.2247398653397E+01
 0.2329026936716E+01
 0.2417887412195E+01
 0.2514545121976E+01
 0.2619624729225E+01
 0.2733814700320E+01
 0.2857871765371E+01
 0.2992625386645E+01
 0.3138981749225E+01
 0.3297926553855E+01
 0.3470525539136E+01
 0.3657921147116E+01
 0.3861323190960E+01
 0.4081990985316E+01
 0.4321205102517E+01
 0.4580229095863E+01
 0.4860265902732E+01
 0.5162418739619E+01
 0.5487670564405E+01
 0.5836892228894E+01
 0.2283552713919E+01
 0.2369143286351E+01
 0.2462400496221E+01
 0.2563933427399E+01
 0.2674412287869E+01
 0.2794571610950E+01
 0.2925213188903E+01
 0.3067208230909E+01
 0.3221498101096E+01
 0.3389092775168E+01
 0.3571065913702E+01
 0.3768545257298E+01
 0.3982697046617E+01
 0.4214703696281E+01
 0.4465735254030E+01
 0.4736917452175E+01
 0.5029301771292E+01
 0.5343844729905E+01
 0.5681402198072E+01
 0.6042738128746E+01
 0.2311975983439E+01
 0.2400169851910E+01
 0.2496260868845E+01
 0.2600877145162E+01
 0.2714707054743E+01
 0.2838501735293E+01
 0.2973076907594E+01
 0.3119313489936E+01
 0.3278156351690E+01
 0.3450610400421E+01
 0.3637733078819E+01
 0.3840622339799E+01
 0.4060399435764E+01
 0.4298186533226E+01
 0.4555080378233E+01
 0.4832124828105E+01
 0.5130286624843E+01
 0.5450439247363E+01
 0.5793357863270E+01
 0.6159725086782E+01
 0.2332271410051E+01
 0.2421633303003E+01
 0.2518911289395E+01
 0.2624727496879E+01
 0.2739761621052E+01
 0.2864753143687E+01
 0.3000502680277E+01
 0.3147872035485E+01
 0.3307782451051E+01
 0.3481210459467E+01
 0.3669180643210E+01
 0.3872754605132E+01
 0.4093015637986E+01
 0.4331049027769E+01
 0.4587918540969E+01
 0.4864640530820E+01
 0.5162158134377E+01
 0.5481319367960E+01
 0.5822863868886E+01
 0.6187421409686E+01
 0.2344137764123E+01
 0.2433182752745E+01
 0.2529948931406E+01
 0.2635027813627E+01
 0.2749064233461E+01
 0.2872758819614E+01
 0.3006869554648E+01
 0.3152212114640E+01
 0.3309658937832E+01
 0.3480136758650E+01
 0.3664622165538E+01
 0.3864134543007E+01
 0.4079725707776E+01
 0.4312465524524E+01
 0.4563422837103E+01
 0.4833640694631E+01
 0.5124105312154E+01
 0.5435710171664E+01
 0.5769222123403E+01
 0.6125262607146E+01
 0.2347374386410E+01
 0.2434596641350E+01
 0.2529134725786E+01
 0.2631525445295E+01
 0.2742353073459E+01
 0.2862253156913E+01
 0.2991914457469E+01
 0.3132079945467E+01
 0.3283547440084E+01
 0.3447170269713E+01
 0.3623857666531E+01
 0.3814574292507E+01
 0.4020337887693E+01
 0.4242213685014E+01
 0.4481303553345E+01
 0.4738727317521E+01
 0.5015590347721E+01
 0.5312931790207E+01
 0.5631654156408E+01
 0.5972454881927E+01
 0.2341886142405E+01
 0.2425790695878E+01
 0.2516405980102E+01
 0.2614188968524E+01
 0.2719638318456E+01
 0.2833299523823E+01
 0.2955766616470E+01
 0.3087682817912E+01
 0.3229742859956E+01
 0.3382697446637E+01
 0.3547359889073E+01
 0.3724614205913E+01
 0.3915423703417E+01
 0.4120838234624E+01
 0.4341997680906E+01
 0.4580127449593E+01
 0.4836522514236E+01
 0.5112498314835E+01
 0.5409283565150E+01
 0.5727852815590E+01
 0.2327686883331E+01
 0.2406829921254E+01
 0.2491896376617E+01
 0.2583235918072E+01
 0.2681237510724E+01
 0.2786335304825E+01
 0.2899005054660E+01
 0.3019762875264E+01
 0.3149168185687E+01
 0.3287832195190E+01
 0.3436431044024E+01
 0.3595723438208E+01
 0.3766571935242E+01
 0.3949966838674E+01
 0.4147049889720E+01
 0.4359134955975E+01
 0.4587719346012E+01
 0.4834499594266E+01
 0.5101305317904E+01
 0.5389830944670E+01
 0.2304905930704E+01
 0.2377951179586E+01
 0.2455972496464E+01
 0.2539177480682E+01
 0.2627830617433E+01
 0.2722239946713E+01
 0.2822744166272E+01
 0.2929705055960E+01
 0.3043511318698E+01
 0.3164589867480E+01
 0.3293425149014E+01
 0.3430584915837E+01
 0.3576753679685E+01
 0.3732774115545E+01
 0.3899696254486E+01
 0.4078828898028E+01
 0.4271793551266E+01
 0.4480570963580E+01
 0.4707720044174E+01
 0.4956387762944E+01
 0.2273802125532E+01
 0.2339614650016E+01
 0.2409288648390E+01
 0.2482880993722E+01
 0.2560530546690E+01
 0.2642419438584E+01
 0.2728735203858E+01
 0.2819661023796E+01
 0.2915376540323E+01
 0.3016074662513E+01
 0.3121983446370E+01
 0.3233396625786E+01
 0.3350713759746E+01
 0.3474495243953E+01
 0.3605535228256E+01
 0.3744955109968E+01
 0.3894294834460E+01
 0.4055607315336E+01
 0.4231478671686E+01
 0.4426384183444E+01
 0.2234836237148E+01
 0.2292535146919E+01
 0.2352805512735E+01
 0.2415567164056E+01
 0.2480870700005E+01
 0.2548780240226E+01
 0.2619332691562E+01
 0.2692503959172E+01
 0.2768228492756E+01
 0.2846413653565E+01
 0.2926964893851E+01
 0.3009811421202E+01
 0.3094942706122E+01
 0.3182463319650E+01
 0.3272679673482E+01
 0.3366226910375E+01
 0.3464254177337E+01
 0.3568544518543E+01
 0.3681489346699E+01
 0.3804887634507E+01
 0.2188505832003E+01
 0.2237386525802E+01
 0.2287333385126E+01
 0.2338222774309E+01
 0.2390052184916E+01
 0.2442838629991E+01
 0.2496438019063E+01
 0.2550603325596E+01
 0.2604979564492E+01
 0.2659147047130E+01
 0.2712631952859E+01
 0.2764918177854E+01
 0.2815462443055E+01
 0.2863726375963E+01
 0.2909241073065E+01
 0.2951744555770E+01
 0.2991416450463E+01
 0.3029361585343E+01
 0.3067773468403E+01
 0.3108664026673E+01
 0.2135408980735E+01
 0.2174828875941E+01
 0.2213602929610E+01
 0.2251554953679E+01
 0.2288971775977E+01
 0.2325724122480E+01
 0.2361543661692E+01
 0.2395872020466E+01
 0.2428045426245E+01
 0.2457290679034E+01
 0.2482726586210E+01
 0.2503343464506E+01
 0.2517978908315E+01
 0.2525294201947E+01
 0.2523768828323E+01
 0.2511732969192E+01
 0.2487580242011E+01
 0.2450238424028E+01
 0.2401165930947E+01
 0.2346584197379E+01
 0.2076343922769E+01
 0.2105981170171E+01
 0.2132276368710E+01
 0.2156443707491E+01
 0.2178524634003E+01
 0.2198786874300E+01
 0.2216431156916E+01
 0.2230607827687E+01
 0.2240323157541E+01
 0.2244470572597E+01
 0.2241783547758E+01
 0.2230778164091E+01
 0.2209673946286E+01
 0.2176292306661E+01
 0.2127920590303E+01
 0.2061157797403E+01
 0.1971680634632E+01
 0.1854426348517E+01
 0.1704075178378E+01
 0.1524933294438E+01
 0.2013316254149E+01
 0.2031422451419E+01
 0.2044740931998E+01
 0.2052941705620E+01
 0.2059791213713E+01
 0.2063578649433E+01
 0.2063253773266E+01
 0.2057577895802E+01
 0.2045301884775E+01
 0.2025063274956E+01
 0.1995314709953E+01
 0.1954223218407E+01
 0.1899541980393E+01
 0.1828431152301E+01
 0.1737199997707E+01
 0.1620879844890E+01
 0.1472615254246E+01
 0.1282023250169E+01
 0.1033901435019E+01
 0.7002395938768E+00
 0.1947007496677E+01
 0.1957503130218E+01
 0.1947082399142E+01
 0.1941706291679E+01
 0.1933870963714E+01
 0.1922119555012E+01
 0.1904685774295E+01
 0.1880177075499E+01
 0.1847224074062E+01
 0.1804393537587E+01
 0.1750073992732E+01
 0.1682360940326E+01
 0.1598909713577E+01
 0.1496731628831E+01
 0.1371880973905E+01
 0.1218974320189E+01
 0.1030183433402E+01
 0.7938760680128E+00
 0.4871811494516E+00
 0.6590274950054E-01
 0.1917710124102E+01
 0.1856804474781E+01
 0.1840019301820E+01
 0.1822948393568E+01
 0.1802974536241E+01
 0.1777243404067E+01
 0.1744240495689E+01
 0.1702670462548E+01
 0.1651344617189E+01
 0.1589044437124E+01
 0.1514439623211E+01
 0.1426000738426E+01
 0.1321892468887E+01
 0.1199825846140E+01
 0.1056849729393E+01
 0.8890104332722E+00
 0.6909624781088E+00
 0.4545752746429E+00
 0.1711321892991E+00
-0.1889077244004E+00
</DataArray>
<DataArray type="Float64" Name="S_Oct" NumberOfComponents="1" ComponentName0="S_Oct" format="ascii">
 0.4296164888702E+01
 0.3798364029648E+01
 0.3407044630083E+01
 0.3247710156694E+01
 0.3130120545047E+01
 0.3047261347582E+01
 0.2982182466695E+01
 0.2929333007920E+01
 0.2884888335723E+01
 0.2846814430780E+01
 0.2813919698885E+01
 0.2785615249181E+01
 0.2761735932324E+01
 0.2742472040708E+01
 0.2728361503931E+01
 0.2720351281554E+01
 0.2719980963771E+01
 0.2729888663885E+01
 0.2755033396655E+01
 0.2802461094064E+01
 0.2867174175230E+01
 0.2930011623162E+01
 0.2976651128873E+01
 0.3004100013529E+01
 0.3016232060205E+01
 0.3018812525103E+01
 0.3016796756858E+01
 0.3013404596704E+01
 0.3009804930029E+01
 0.3004846181682E+01
 0.2997883096274E+01
 0.2994051907836E+01
 0.3000610279479E+01
 0.3022215680760E+01
 0.3063464348463E+01
 0.3128569646067E+01
 0.3230115100755E+01
 0.3349974553348E+01
 0.3623337803291E+01
 0.3244974681315E+01
 0.6693214782609E+01
 0.3625334620030E+01
 0.3719398962761E+01
 0.3428450742504E+01
 0.3241688129144E+01
 0.3124246980825E+01
 0.3035690902528E+01
 0.2967432888045E+01
 0.2911969945706E+01
 0.2865679699978E+01
 0.2826281350999E+01
 0.2792482124959E+01
 0.2763593192546E+01
 0.2739373101611E+01
 0.2719943428164E+01
 0.2705772343840E+01
 0.2697717112126E+01
 0.2697166850180E+01
 0.2706281886634E+01
 0.2727330937286E+01
 0.2760424218750E+01
 0.2800894990109E+01
 0.2840099465389E+01
 0.2870285761341E+01
 0.2888157065463E+01
 0.2894469349875E+01
 0.2891867940358E+01
 0.2883092071357E+01
 0.2869974995176E+01
 0.2853179038928E+01
 0.2832860402865E+01
 0.2809659246197E+01
 0.2784941749872E+01
 0.2760180098091E+01
 0.2735686025315E+01
 0.2708848036428E+01
 0.2673956278602E+01
 0.2610983608367E+01
 0.2504214102776E+01
 0.2180223526444E+01
 0.1659329638845E+01
 0.5655025040320E+01
 0.3249176310752E+01
 0.3482664778203E+01
 0.3380352784466E+01
 0.3216844078172E+01
 0.3103112465490E+01
 0.3016066104528E+01
 0.2947026506611E+01
 0.2890682601604E+01
 0.2843485961116E+01
 0.2803332592163E+01
 0.2768928575899E+01
 0.2739565035962E+01
 0.2714954996757E+01
 0.2695156534950E+01
 0.2680543180229E+01
 0.2671812823603E+01
 0.2670025474278E+01
 0.2676327254097E+01
 0.2690628770065E+01
 0.2710691878328E+01
 0.2733161779080E+01
 0.2754317240761E+01
 0.2770285586430E+01
 0.2778285964712E+01
 0.2777474804024E+01
 0.2768460318800E+01
 0.2752322174377E+01
 0.2729857040001E+01
 0.2701468327022E+01
 0.2667605029751E+01
 0.2628562010638E+01
 0.2583617572265E+01
 0.2531016030726E+01
 0.2467512289894E+01
 0.2386799302688E+01
 0.2276113174092E+01
 0.2115718894872E+01
 0.1866331520895E+01
 0.1469016115629E+01
 0.1554734515191E+01
 0.5183162506417E+01
 0.3003075622230E+01
 0.3257816789669E+01
 0.3274549654254E+01
 0.3169271227933E+01
 0.3068875887860E+01
 0.2987769228286E+01
 0.2920940377793E+01
 0.2865285979362E+01
 0.2818182022344E+01
 0.2777854738293E+01
 0.2743167495863E+01
 0.2713455906149E+01
 0.2688422785247E+01
 0.2668069053742E+01
 0.2652653457966E+01
 0.2642657495779E+01
 0.2638663110628E+01
 0.2640763856593E+01
 0.2647513257315E+01
 0.2656156442246E+01
 0.2664543024928E+01
 0.2671440556921E+01
 0.2675154919108E+01
 0.2673549845820E+01
 0.2665055680095E+01
 0.2649023452850E+01
 0.2625375720405E+01
 0.2594169772185E+01
 0.2555523181651E+01
 0.2509667856815E+01
 0.2456276441315E+01
 0.2393439316356E+01
 0.2317716322606E+01
 0.2224190488614E+01
 0.2105217925646E+01
 0.1949401437327E+01
 0.1742597455628E+01
 0.1471488538073E+01
 0.1237377055549E+01
 0.1924900072401E+01
 0.4770878646431E+01
 0.2825481663851E+01
 0.3067126326288E+01
 0.3148238772251E+01
 0.3100191119823E+01
 0.3022893352786E+01
 0.2951344702327E+01
 0.2889233502532E+01
 0.2835798270287E+01
 0.2789726041094E+01
 0.2749802398397E+01
 0.2715155139399E+01
 0.2685232263417E+01
 0.2659757992768E+01
 0.2638685294435E+01
 0.2622146371532E+01
 0.2610366962349E+01
 0.2603415464785E+01
 0.2600581804017E+01
 0.2599816299842E+01
 0.2598542952703E+01
 0.2595523678025E+01
 0.2590817468976E+01
 0.2583934825058E+01
 0.2573291073674E+01
 0.2557061740599E+01
 0.2533882054039E+01
 0.2502923816063E+01
 0.2463720774891E+01
 0.2416077031403E+01
 0.2359868329820E+01
 0.2294264667531E+01
 0.2216809564427E+01
 0.2123562906567E+01
 0.2009516629740E+01
 0.1868490407251E+01
 0.1694331288590E+01
 0.1486000404731E+01
 0.1275922897727E+01
 0.1284957471436E+01
 0.2258131423130E+01
 0.4433930273674E+01
 0.2688199063259E+01
 0.2907796711780E+01
 0.3020553794209E+01
 0.3017551443425E+01
 0.2966620523984E+01
 0.2907739345772E+01
 0.2852241708423E+01
 0.2802358453144E+01
 0.2758171197777E+01
 0.2719189914312E+01
 0.2684894808840E+01
 0.2654900136496E+01
 0.2628981062614E+01
 0.2607054083426E+01
 0.2589122622150E+01
 0.2575149538761E+01
 0.2564754705904E+01
 0.2556721085308E+01
 0.2548851323056E+01
 0.2538971347116E+01
 0.2526485217157E+01
 0.2512116352751E+01
 0.2496030142101E+01
 0.2477065570094E+01
 0.2453386799406E+01
 0.2423275526135E+01
 0.2385457932330E+01
 0.2339110929155E+01
 0.2283759512821E+01
 0.2218973947582E+01
 0.2143659215293E+01
 0.2055336419186E+01
 0.1950440364751E+01
 0.1825177750226E+01
 0.1676630581469E+01
 0.1506013150535E+01
 0.1329648307528E+01
 0.1222151069927E+01
 0.1450922626944E+01
 0.2481445248698E+01
 0.4166371118040E+01
 0.2576569054531E+01
 0.2773468933872E+01
 0.2899447220309E+01
 0.2928590772410E+01
 0.2902602329686E+01
 0.2858013184291E+01
 0.2810513330969E+01
 0.2765220211106E+01
 0.2723648422986E+01
 0.2686087898845E+01
 0.2652432768096E+01
 0.2622502666534E+01
 0.2596148576517E+01
 0.2573264264309E+01
 0.2553733180430E+01
 0.2537281741446E+01
 0.2523193768938E+01
 0.2509993560508E+01
 0.2495580886646E+01
 0.2478214368587E+01
 0.2457732887711E+01
 0.2435185840142E+01
 0.2411084795624E+01
 0.2384584652584E+01
 0.2353960217711E+01
 0.2317374493334E+01
 0.2273329154053E+01
 0.2220784519441E+01
 0.2159070458139E+01
 0.2087583935635E+01
 0.2005221601990E+01
 0.1909897286039E+01
 0.1799051315840E+01
 0.1670967964998E+01
 0.1526905610722E+01
 0.1376365170671E+01
 0.1252628568949E+01
 0.1258489853488E+01
 0.1635145884752E+01
 0.2618456137467E+01
 0.3953955686928E+01
 0.2482265795591E+01
 0.2658432448544E+01
 0.2787536547474E+01
 0.2838249414837E+01
 0.2833594493849E+01
 0.2803407199066E+01
 0.2764700109648E+01
 0.2724733436557E+01
 0.2686352488860E+01
 0.2650615686407E+01
 0.2617853863608E+01
 0.2588116515758E+01
 0.2561349441366E+01
 0.2537439101393E+01
 0.2516168637257E+01
 0.2497076992441E+01
 0.2479231547486E+01
 0.2461077373143E+01
 0.2440727416944E+01
 0.2416832365421E+01
 0.2389518603991E+01
 0.2359977758707E+01
 0.2328896416047E+01
 0.2295667527976E+01
 0.2258735554956E+01
 0.2216293612876E+01
 0.2166777300787E+01
 0.2109052610331E+01
 0.2042362425640E+01
 0.1966085427578E+01
 0.1879339177495E+01
 0.1780737016589E+01
 0.1669127834572E+01
 0.1545315904094E+01
 0.1415030839032E+01
 0.1295785762701E+01
 0.1234282900884E+01
 0.1341742444664E+01
 0.1798943977109E+01
 0.2698309956662E+01
 0.3783016909010E+01
 0.2400231784935E+01
 0.2558243869213E+01
 0.2685089792682E+01
 0.2749483909532E+01
 0.2761971874465E+01
 0.2745220975613E+01
 0.2715513152730E+01
 0.2681308755663E+01
 0.2646528928972E+01
 0.2612932544541E+01
 0.2581276174907E+01
 0.2551847563008E+01
 0.2524700261937E+01
 0.2499729719369E+01
 0.2476646337209E+01
 0.2454860046737E+01
 0.2433327537974E+01
 0.2410533045281E+01
 0.2384845988445E+01
 0.2355248887760E+01
 0.2322055684431E+01
 0.2286502543398E+01
 0.2249359034729E+01
 0.2210204277407E+01
 0.2167679285102E+01
 0.2120100177743E+01
 0.2065949975501E+01
 0.2004106071113E+01
 0.1933835751874E+01
 0.1854645409399E+01
 0.1766054992082E+01
 0.1667578752238E+01
 0.1559677959697E+01
 0.1445801199757E+01
 0.1335975835955E+01
 0.1254501427824E+01
 0.1255832071162E+01
 0.1442371400805E+01
 0.1933278409580E+01
 0.2742052404043E+01
 0.3642981818878E+01
 0.2327225233111E+01
 0.2469577665800E+01
 0.2591426766774E+01
 0.2663883349374E+01
 0.2689544908745E+01
 0.2684667888627E+01
 0.2663678037586E+01
 0.2635388968285E+01
 0.2604458346212E+01
 0.2573228901165E+01
 0.2542844998824E+01
 0.2513826090522E+01
 0.2486340224423E+01
 0.2460307933485E+01
 0.2435398152451E+01
 0.2410949768983E+01
 0.2385893091614E+01
 0.2358823734675E+01
 0.2328372531929E+01
 0.2293795098295E+01
 0.2255527675376E+01
 0.2214802164947E+01
 0.2172424775732E+01
 0.2128128242405E+01
 0.2080760971212E+01
 0.2028819383412E+01
 0.1970915205904E+01
 0.1906025808867E+01
 0.1833543736947E+01
 0.1753224133634E+01
 0.1665116889597E+01
 0.1569743565356E+01
 0.1469226058352E+01
 0.1369554392446E+01
 0.1284524799748E+01
 0.1243272389671E+01
 0.1301689160211E+01
 0.1543779635580E+01
 0.2039735426644E+01
 0.2763253617055E+01
 0.3526209005974E+01
 0.2261074037582E+01
 0.2389963289265E+01
 0.2505556177152E+01
 0.2582178145456E+01
 0.2617587325422E+01
 0.2622788001614E+01
 0.2609889551678E+01
 0.2587425228983E+01
 0.2560441514479E+01
 0.2531717409660E+01
 0.2502726713361E+01
 0.2474201728396E+01
 0.2446425812325E+01
 0.2419359232190E+01
 0.2392660516693E+01
 0.2365648994110E+01
 0.2337291104439E+01
 0.2306333910524E+01
 0.2271656206978E+01
 0.2232736881526E+01
 0.2190093622038E+01
 0.2144933211756E+01
 0.2098078381274E+01
 0.2049396250499E+01
 0.1997945583506E+01
 0.1942437800307E+01
 0.1881670981865E+01
 0.1814793365704E+01
 0.1741405527109E+01
 0.1661601280274E+01
 0.1576036351204E+01
 0.1486268050046E+01
 0.1396014342061E+01
 0.1313542682881E+01
 0.1255616553185E+01
 0.1253833037244E+01
 0.1360252317896E+01
 0.1638044347607E+01
 0.2122829578686E+01
 0.2770394555622E+01
 0.3427276707693E+01
 0.2200267656932E+01
 0.2317556677273E+01
 0.2426454559294E+01
 0.2504589723855E+01
 0.2546937568205E+01
 0.2560418783408E+01
 0.2554777706111E+01
 0.2537856784227E+01
 0.2514786352696E+01
 0.2488624394562E+01
 0.2461102725044E+01
 0.2433138394652E+01
 0.2405125615563E+01
 0.2377076468118E+01
 0.2348667038757E+01
 0.2319239343515E+01
 0.2287839476476E+01
 0.2253384840846E+01
 0.2214981387993E+01
 0.2172291859614E+01
 0.2125891209895E+01
 0.2076956043659E+01
 0.2026320244869E+01
 0.1973974762688E+01
 0.1919187838810E+01
 0.1860905989904E+01
 0.1798153357910E+01
 0.1730302499832E+01
 0.1657223801846E+01
 0.1579408341496E+01
 0.1498149044872E+01
 0.1416008227932E+01
 0.1338156376800E+01
 0.1274757122225E+01
 0.1244548923065E+01
 0.1279219097943E+01
 0.1423697409153E+01
 0.1722118743055E+01
 0.2187266360001E+01
 0.2768765142795E+01
 0.3342321132461E+01
 0.2143721908712E+01
 0.2250967832075E+01
 0.2353179026905E+01
 0.2431053552997E+01
 0.2478108846811E+01
 0.2498202556468E+01
 0.2498888939153E+01
 0.2487095287597E+01
 0.2467797017137E+01
 0.2444182156185E+01
 0.2418163752997E+01
 0.2390809460872E+01
 0.2362615517259E+01
 0.2333654582882E+01
 0.2303643452052E+01
 0.2271979234073E+01
 0.2237815949956E+01
 0.2200246909617E+01
 0.2158582844751E+01
 0.2112640424836E+01
 0.2063038775381E+01
 0.2010927863354E+01
 0.1957155268059E+01
 0.1901830528489E+01
 0.1844428492680E+01
 0.1784141092540E+01
 0.1720244188516E+01
 0.1652371768979E+01
 0.1580705031915E+01
 0.1506162819239E+01
 0.1430671169551E+01
 0.1357724045018E+01
 0.1293745445866E+01
 0.1250329312994E+01
 0.1247116548202E+01
 0.1313912797554E+01
 0.1487166172355E+01
 0.1795437023541E+01
 0.2237108513186E+01
 0.2761700406890E+01
 0.3268547134924E+01
 0.2090637299356E+01
 0.2189136523048E+01
 0.2284904084381E+01
 0.2361355664117E+01
 0.2411383568652E+01
 0.2436611696465E+01
 0.2442680376932E+01
 0.2435514355485E+01
 0.2419765246474E+01
 0.2398622336656E+01
 0.2374104615383E+01
 0.2347393270853E+01
 0.2319074392866E+01
 0.2289286381265E+01
 0.2257804362254E+01
 0.2224103726715E+01
 0.2187463062533E+01
 0.2147149148592E+01
 0.2102656319209E+01
 0.2053933040455E+01
 0.2001636641466E+01
 0.1946898281749E+01
 0.1890585597893E+01
 0.1832924453894E+01
 0.1773592197562E+01
 0.1712029618703E+01
 0.1647778730685E+01
 0.1580757490564E+01
 0.1511480240762E+01
 0.1441300848049E+01
 0.1372747786394E+01
 0.1310143348932E+01
 0.1260926626506E+01
 0.1237605377988E+01
 0.1259699193765E+01
 0.1353780723488E+01
 0.1547871812346E+01
 0.1858588451601E+01
 0.2275631663003E+01
 0.2751338080499E+01
 0.3203891587258E+01
 0.2040410362196E+01
 0.2131243904913E+01
 0.2220924967130E+01
 0.2295213741112E+01
 0.2346886585336E+01
 0.2375979421866E+01
 0.2386523052220E+01
 0.2383444072374E+01
 0.2370964032030E+01
 0.2352170458696E+01
 0.2329119658267E+01
 0.2303069139596E+01
 0.2274680417585E+01
 0.2244159284604E+01
 0.2211351316924E+01
 0.2175825372900E+01
 0.2136992693887E+01
 0.2094286550962E+01
 0.2047366014558E+01
 0.1996295229842E+01
 0.1941768128632E+01
 0.1884906594691E+01
 0.1826606064895E+01
 0.1767207847711E+01
 0.1706586691962E+01
 0.1644430617371E+01
 0.1580553219759E+01
 0.1515166567205E+01
 0.1449124871863E+01
 0.1384206225730E+01
 0.1323491708359E+01
 0.1272007602258E+01
 0.1237943321110E+01
 0.1234193861207E+01
 0.1279294689381E+01
 0.1395872626746E+01
 0.1604372430714E+01
 0.1912626517492E+01
 0.2305404655398E+01
 0.2739076251033E+01
 0.3146797623440E+01
 0.1992576279405E+01
 0.2076649695894E+01
 0.2160647433416E+01
 0.2232323857852E+01
 0.2284638970025E+01
 0.2316529693291E+01
 0.2330710250588E+01
 0.2331169525876E+01
 0.2321643524393E+01
 0.2305041695029E+01
 0.2283398936609E+01
 0.2258013945797E+01
 0.2229608046599E+01
 0.2198452971712E+01
 0.2164471846959E+01
 0.2127335591001E+01
 0.2086590081898E+01
 0.2041825745434E+01
 0.1992850073599E+01
 0.1939831202086E+01
 0.1883500532060E+01
 0.1824980365502E+01
 0.1765201631974E+01
 0.1704620541394E+01
 0.1643303196903E+01
 0.1581179355041E+01
 0.1518332479327E+01
 0.1455268837866E+01
 0.1393176950402E+01
 0.1334234981877E+01
 0.1282013286682E+01
 0.1242103264993E+01
 0.1223167181419E+01
 0.1237993526183E+01
 0.1303497925520E+01
 0.1438171216576E+01
 0.1656055780492E+01
 0.1958723522061E+01
 0.2328421717276E+01
 0.2725852483012E+01
 0.3096064138633E+01
 0.1946770632055E+01
 0.2024847240182E+01
 0.2103573174262E+01
 0.2172386333000E+01
 0.2224596115957E+01
 0.2258403311734E+01
 0.2275468085070E+01
 0.2278932188246E+01
 0.2272028852626E+01
 0.2257437786322E+01
 0.2237125134230E+01
 0.2212399309847E+01
 0.2184025604139E+01
 0.2152337711998E+01
 0.2117339127647E+01
 0.2078806211255E+01
 0.2036417227138E+01
 0.1989909378240E+01
 0.1939224633585E+01
 0.1884626557344E+01
 0.1826886068894E+01
 0.1767134855435E+01
 0.1706346172224E+01
 0.1645090269090E+01
 0.1583617614212E+01
 0.1522091233198E+01
 0.1460857219817E+01
 0.1400708368933E+01
 0.1343152780744E+01
 0.1290735044757E+01
 0.1247442075958E+01
 0.1219282575869E+01
 0.1215116720666E+01
 0.1247202248831E+01
 0.1330440233276E+01
 0.1479354704045E+01
 0.1702799008038E+01
 0.1998006145791E+01
 0.2346225408814E+01
 0.2712317574162E+01
 0.3050745882987E+01
 0.1902703223991E+01
 0.1975431056876E+01
 0.2049284913405E+01
 0.2115119113879E+01
 0.2166674038616E+01
 0.2201679364827E+01
 0.2220966450871E+01
 0.2226933087666E+01
 0.2222319476056E+01
 0.2209545002604E+01
 0.2190471207185E+01
 0.2166389355526E+01
 0.2138093437007E+01
 0.2105973258037E+01
 0.2070112051718E+01
 0.2030391032180E+01
 0.1986615753489E+01
 0.1938659545075E+01
 0.1886586923020E+01
 0.1830750424844E+01
 0.1771962868446E+01
 0.1711373084654E+01
 0.1650002209123E+01
 0.1588532975710E+01
 0.1527392323866E+01
 0.1466965830282E+01
 0.1407850884094E+01
 0.1351113455148E+01
 0.1298560004012E+01
 0.1253061353301E+01
 0.1218942010387E+01
 0.1202476933496E+01
 0.1212467322149E+01
 0.1260308870954E+01
 0.1358708303008E+01
 0.1518599774520E+01
 0.1744752804089E+01
 0.2031485936877E+01
 0.2360000378894E+01
 0.2698943887801E+01
 0.3010088924098E+01
 0.1860139753626E+01
 0.1928073129214E+01
 0.1997432845012E+01
 0.2060263847261E+01
 0.2110767131082E+01
 0.2146392173473E+01
 0.2167329301013E+01
 0.2175336924029E+01
 0.2172689667076E+01
 0.2161532995678E+01
 0.2143598694052E+01
 0.2120139017829E+01
 0.2091962565157E+01
 0.2059508174773E+01
 0.2022935563147E+01
 0.1982227302780E+01
 0.1937309304348E+01
 0.1888180519928E+01
 0.1835017701123E+01
 0.1778257240456E+01
 0.1718756021655E+01
 0.1657686345425E+01
 0.1596121331402E+01
 0.1534853770573E+01
 0.1474478368525E+01
 0.1415590911411E+01
 0.1359025886796E+01
 0.1306105190500E+01
 0.1258908061960E+01
 0.1220587025377E+01
 0.1195721653548E+01
 0.1190705007391E+01
 0.1214053924467E+01
 0.1276071766484E+01
 0.1387259046684E+01
 0.1555429479660E+01
 0.1782210383361E+01
 0.2060034757267E+01
 0.2370652397417E+01
 0.2686067017465E+01
 0.2973487855298E+01
 0.1818888754693E+01
 0.1882505281420E+01
 0.1947722977182E+01
 0.2007587751183E+01
 0.2056759879928E+01
 0.2092544316715E+01
 0.2114643729621E+01
 0.2124276522866E+01
 0.2123289761709E+01
 0.2113554373429E+01
 0.2096656614874E+01
 0.2073792842101E+01
 0.2045773758248E+01
 0.2013079505067E+01
 0.1975941150701E+01
 0.1934437094676E+01
 0.1888605557297E+01
 0.1838560965508E+01
 0.1784583243310E+01
 0.1727188293377E+01
 0.1667278688005E+01
 0.1606055034517E+01
 0.1544645070472E+01
 0.1483948308015E+01
 0.1424717846631E+01
 0.1367746269617E+01
 0.1314089144676E+01
 0.1265304589169E+01
 0.1223716295818E+01
 0.1192711306248E+01
 0.1177040819058E+01
 0.1183076849890E+01
 0.1218867412918E+01
 0.1293488982438E+01
 0.1415340778324E+01
 0.1589601232268E+01
 0.1815527792533E+01
 0.2084397233221E+01
 0.2378833897780E+01
 0.2674004620929E+01
 0.2940343307782E+01
 0.1778793684185E+01
 0.1838520022385E+01
 0.1899932385081E+01
 0.1956921151721E+01
 0.2004585953473E+01
 0.2040181256039E+01
 0.2063044928669E+01
 0.2073945884387E+01
 0.2074347166638E+01
 0.2065854339811E+01
 0.2049900602065E+01
 0.2027614531157E+01
 0.1999798513501E+01
 0.1966966243298E+01
 0.1929413781576E+01
 0.1887308333790E+01
 0.1840791485593E+01
 0.1790083029014E+01
 0.1735557464554E+01
 0.1677805773201E+01
 0.1617776709094E+01
 0.1556702174154E+01
 0.1495765202886E+01
 0.1435966985183E+01
 0.1378207967393E+01
 0.1323462034447E+01
 0.1272987094823E+01
 0.1228554518618E+01
 0.1192700623532E+01
 0.1168996769608E+01
 0.1162283176448E+01
 0.1178787494572E+01
 0.1225954821785E+01
 0.1311592443523E+01
 0.1442188874126E+01
 0.1620763042015E+01
 0.1844825694952E+01
 0.2105036736772E+01
 0.2384975381169E+01
 0.2662820364330E+01
 0.2912014176097E+01
 0.1739723425533E+01
 0.1795934133896E+01
 0.1853851911714E+01
 0.1908080132887E+01
 0.1954129312321E+01
 0.1989267964978E+01
 0.2012566917044E+01
 0.2024425812165E+01
 0.2025968710398E+01
 0.2018551273523E+01
 0.2003452249486E+01
 0.1981724608610E+01
 0.1954153819144E+01
 0.1921279535840E+01
 0.1883455727703E+01
 0.1840930593771E+01
 0.1793939938865E+01
 0.1742799342667E+01
 0.1687970030893E+01
 0.1630113811314E+01
 0.1570225373745E+01
 0.1509569531820E+01
 0.1449384064031E+01
 0.1390766169169E+01
 0.1334752503250E+01
 0.1282482862773E+01
 0.1235398794759E+01
 0.1195461864324E+01
 0.1165389133829E+01
 0.1148887006886E+01
 0.1150807891845E+01
 0.1177132074605E+01
 0.1234613888722E+01
 0.1329811960909E+01
 0.1467525558515E+01
 0.1649031008886E+01
 0.1870582478643E+01
 0.2122559223641E+01
 0.2389661718022E+01
 0.2652119186188E+01
 0.2889539548290E+01
 0.1701562506054E+01
 0.1754577702521E+01
 0.1809274219792E+01
 0.1860859387010E+01
 0.1905222624536E+01
 0.1939690711005E+01
 0.1963144867968E+01
 0.1975685203700E+01
 0.1978140634708E+01
 0.1971635884010E+01
 0.1957298115094E+01
 0.1936099947705E+01
 0.1908802840195E+01
 0.1875965094603E+01
 0.1837991181683E+01
 0.1795202229914E+01
 0.1747919408244E+01
 0.1696545366322E+01
 0.1641621150399E+01
 0.1583875536792E+01
 0.1524348510937E+01
 0.1464338598028E+01
 0.1405137227919E+01
 0.1347932221485E+01
 0.1293886458008E+01
 0.1244292012944E+01
 0.1200757454595E+01
 0.1165413731790E+01
 0.1141129244665E+01
 0.1131699859665E+01
 0.1141921910789E+01
 0.1177445984249E+01
 0.1244284048631E+01
 0.1347801170344E+01
 0.1491321223815E+01
 0.1674721378499E+01
 0.1893354942182E+01
 0.2137582715902E+01
 0.2393120958708E+01
 0.2642507896527E+01
 0.2868247343706E+01
 0.1664215227449E+01
 0.1714320309600E+01
 0.1766046559143E+01
 0.1815115513085E+01
 0.1857762299611E+01
 0.1891400706158E+01
 0.1914782989784E+01
 0.1927769527952E+01
 0.1930935643272E+01
 0.1925196306884E+01
 0.1911533468186E+01
 0.1890837565270E+01
 0.1863840668820E+01
 0.1831113062593E+01
 0.1793102346451E+01
 0.1750194442337E+01
 0.1702787198690E+01
 0.1651362036661E+01
 0.1596533251018E+01
 0.1539092583250E+01
 0.1480123947546E+01
 0.1420959363368E+01
 0.1362941948373E+01
 0.1307344354984E+01
 0.1255445788442E+01
 0.1208677371731E+01
 0.1168798575142E+01
 0.1138089381158E+01
 0.1119540770731E+01
 0.1116994819331E+01
 0.1135131866336E+01
 0.1179211314930E+01
 0.1254484655163E+01
 0.1365206835191E+01
 0.1513434606933E+01
 0.1697933911506E+01
 0.1913437116703E+01
 0.2150435020534E+01
 0.2395677073180E+01
 0.2633611300978E+01
 0.2848756280626E+01
 0.1627599368132E+01
 0.1675050376902E+01
 0.1724037403703E+01
 0.1770721614602E+01
 0.1811651662208E+01
 0.1844346066203E+01
 0.1867475270770E+01
 0.1880710633504E+01
 0.1884412244663E+01
 0.1879307360921E+01
 0.1866241505476E+01
 0.1846023423472E+01
 0.1819351958209E+01
 0.1786803448232E+01
 0.1748861498062E+01
 0.1705968824188E+01
 0.1658591542523E+01
 0.1607281933164E+01
 0.1552721200760E+01
 0.1495759854375E+01
 0.1437523717991E+01
 0.1379377222244E+01
 0.1322712501889E+01
 0.1268880987987E+01
 0.1219268541876E+01
 0.1175432675481E+01
 0.1139268357253E+01
 0.1113185003297E+01
 0.1100268580395E+01
 0.1104367481724E+01
 0.1129995778196E+01
 0.1181980311640E+01
 0.1264820744113E+01
 0.1381761439936E+01
 0.1533784985322E+01
 0.1718785754478E+01
 0.1931083906639E+01
 0.2161408707860E+01
 0.2397483694565E+01
 0.2625331379444E+01
 0.2831121576577E+01
 0.1591643567545E+01
 0.1636671762437E+01
 0.1683132732773E+01
 0.1727565149691E+01
 0.1766801013434E+01
 0.1798473599755E+01
 0.1821207957242E+01
 0.1834529042547E+01
 0.1838616453464E+01
 0.1834031633325E+01
 0.1821493994522E+01
 0.1801732853604E+01
 0.1775411319042E+01
 0.1743106623896E+01
 0.1705331641689E+01
 0.1662578163077E+01
 0.1615372494632E+01
 0.1564330216963E+01
 0.1510193272996E+01
 0.1453866536655E+01
 0.1396515156332E+01
 0.1339534173846E+01
 0.1284361518020E+01
 0.1232421211287E+01
 0.1185196437132E+01
 0.1144359122849E+01
 0.1111925183792E+01
 0.1090414841656E+01
 0.1082983094595E+01
 0.1093449012274E+01
 0.1126120451921E+01
 0.1185368614717E+01
 0.1274970093106E+01
 0.1397264790436E+01
 0.1552334684426E+01
 0.1737398120228E+01
 0.1946520796109E+01
 0.2170734660907E+01
 0.2398653361644E+01
 0.2617628057563E+01
 0.2815238632049E+01
 0.1556285301139E+01
 0.1599100936042E+01
 0.1643233033411E+01
 0.1685545950228E+01
 0.1723127354435E+01
 0.1753729984783E+01
 0.1775961444992E+01
 0.1789235852942E+01
 0.1793583311692E+01
 0.1789420537656E+01
 0.1777351968778E+01
 0.1758031052595E+01
 0.1732083771046E+01
 0.1700083839204E+01
 0.1662567134170E+01
 0.1620067167918E+01
 0.1573162730262E+01
 0.1522525469990E+01
 0.1468952023117E+01
 0.1413397033839E+01
 0.1357061914198E+01
 0.1301369940024E+01
 0.1247801199227E+01
 0.1197846093359E+01
 0.1153076207560E+01
 0.1115266658938E+01
 0.1086540692050E+01
 0.1069511861553E+01
 0.1067380322702E+01
 0.1083905116360E+01
 0.1123158357709E+01
 0.1189048369167E+01
 0.1284671459255E+01
 0.1411569181117E+01
 0.1569075332872E+01
 0.1753890390035E+01
 0.1959942437475E+01
 0.2178597945503E+01
 0.2399275494536E+01
 0.2610464901710E+01
 0.2800965638764E+01
 0.1521469267992E+01
 0.1562264687031E+01
 0.1604250824093E+01
 0.1644574450092E+01
 0.1680553907462E+01
 0.1710062500920E+01
 0.1731711704370E+01
 0.1744834298877E+01
 0.1749338229976E+01
 0.1745515319387E+01
 0.1733866443730E+01
 0.1714973625532E+01
 0.1689425231029E+01
 0.1657787740959E+01
 0.1620614276709E+01
 0.1578473135220E+01
 0.1531988265557E+01
 0.1481880454696E+01
 0.1428995091254E+01
 0.1374331831422E+01
 0.1319124905526E+01
 0.1264822996024E+01
 0.1212944425542E+01
 0.1165039825561E+01
 0.1122760724036E+01
 0.1087974974873E+01
 0.1062900512046E+01
 0.1050228065621E+01
 0.1053181539039E+01
 0.1075434625864E+01
 0.1120804174470E+01
 0.1192741470257E+01
 0.1293714225584E+01
 0.1424567337686E+01
 0.1584018059840E+01
 0.1768375683292E+01
 0.1971515345234E+01
 0.2185148731617E+01
 0.2399418878538E+01
 0.2603800997733E+01
 0.2788152200580E+01
 0.1487146088814E+01
 0.1526098263378E+01
 0.1566108601986E+01
 0.1604570123020E+01
 0.1639009540697E+01
 0.1667419455580E+01
 0.1688431353955E+01
 0.1701321037221E+01
 0.1705898175719E+01
 0.1702348014903E+01
 0.1691079153989E+01
 0.1672607177380E+01
 0.1647483048595E+01
 0.1616262921523E+01
 0.1579511910883E+01
 0.1537826597887E+01
 0.1491869150064E+01
 0.1442402845064E+01
 0.1390315979694E+01
 0.1336648336548E+01
 0.1282663220521E+01
 0.1229831555262E+01
 0.1179705787516E+01
 0.1133890758597E+01
 0.1094109964045E+01
 0.1062314309816E+01
 0.1040804778926E+01
 0.1032334574749E+01
 0.1040132717619E+01
 0.1067767831481E+01
 0.1118791184004E+01
 0.1196213180635E+01
 0.1301929433417E+01
 0.1436182823987E+01
 0.1597186274805E+01
 0.1780958376460E+01
 0.1981381302689E+01
 0.2190508871987E+01
 0.2399134122119E+01
 0.2597589508477E+01
 0.2776649016343E+01
 0.1453271242660E+01
 0.1490543849997E+01
 0.1528737131163E+01
 0.1565460108035E+01
 0.1598428148010E+01
 0.1625750385222E+01
 0.1646090448962E+01
 0.1658687188934E+01
 0.1663272702058E+01
 0.1659942334615E+01
 0.1649023271311E+01
 0.1630969911517E+01
 0.1606296549562E+01
 0.1575546460282E+01
 0.1539291987641E+01
 0.1498151929709E+01
 0.1452820104834E+01
 0.1404095899577E+01
 0.1352904770529E+01
 0.1300321653425E+01
 0.1247634964624E+01
 0.1196334461953E+01
 0.1148002503095E+01
 0.1104292293237E+01
 0.1066991803725E+01
 0.1038126051494E+01
 0.1020068434864E+01
 0.1015621503026E+01
 0.1028003764187E+01
 0.1060664630852E+01
 0.1116887649372E+01
 0.1199266252062E+01
 0.1309182157776E+01
 0.1446362469013E+01
 0.1608610454245E+01
 0.1791732960815E+01
 0.1989660412951E+01
 0.2194776647054E+01
 0.2398456060313E+01
 0.2591778415057E+01
 0.2766311539516E+01
 0.1419804190695E+01
 0.1455549316088E+01
 0.1492074010171E+01
 0.1527178006063E+01
 0.1558748023527E+01
 0.1585006102229E+01
 0.1604657051093E+01
 0.1616919178636E+01
 0.1621464834914E+01
 0.1618314469333E+01
 0.1607724093984E+01
 0.1590092224162E+01
 0.1565897579311E+01
 0.1535668455903E+01
 0.1499980112890E+01
 0.1459467913778E+01
 0.1414851116559E+01
 0.1366959086238E+01
 0.1316748791840E+01
 0.1265325300672E+01
 0.1213998028001E+01
 0.1164271998044E+01
 0.1117755228691E+01
 0.1076143643215E+01
 0.1041282662560E+01
 0.1015263178744E+01
 0.1000521375292E+01
 0.9998976868474E+00
 0.1016587611571E+01
 0.1053912582481E+01
 0.1114893298803E+01
 0.1201735631920E+01
 0.1315365109933E+01
 0.1455070432947E+01
 0.1618324440804E+01
 0.1800783672301E+01
 0.1996453760248E+01
 0.2198030478560E+01
 0.2397406143891E+01
 0.2586311821043E+01
 0.2757001477797E+01
 0.1386707647890E+01
 0.1421067175710E+01
 0.1456062466343E+01
 0.1489662826230E+01
 0.1519911250552E+01
 0.1545138632223E+01
 0.1564097624785E+01
 0.1575999400539E+01
 0.1580471825394E+01
 0.1577473810681E+01
 0.1567199689046E+01
 0.1549997272977E+01
 0.1526311025239E+01
 0.1496652531585E+01
 0.1461596055314E+01
 0.1421788262930E+01
 0.1377967976456E+01
 0.1330988647315E+01
 0.1281833218154E+01
 0.1231631854699E+01
 0.1181710769219E+01
 0.1133586589545E+01
 0.1088888753540E+01
 0.1049350466697E+01
 0.1016868007375E+01
 0.9935905641015E+00
 0.9820084666440E+00
 0.9849903014446E+00
 0.1005699222146E+01
 0.1047324933922E+01
 0.1112636000938E+01
 0.1203483783180E+01
 0.1320393330635E+01
 0.1462283597789E+01
 0.1626362853912E+01
 0.1808184584610E+01
 0.2001845741246E+01
 0.2200332000217E+01
 0.2395994711473E+01
 0.2581131323324E+01
 0.2748587419216E+01
 0.1353946973152E+01
 0.1387053720255E+01
 0.1420650337947E+01
 0.1452858066589E+01
 0.1481863122449E+01
 0.1506101082727E+01
 0.1524377305858E+01
 0.1535906747685E+01
 0.1540285790527E+01
 0.1537423596699E+01
 0.1527461491657E+01
 0.1510701522306E+01
 0.1487555322493E+01
 0.1458516321030E+01
 0.1424154228081E+01
 0.1385122106943E+01
 0.1342172780306E+01
 0.1296178120481E+01
 0.1248141621502E+01
 0.1199213535311E+01
 0.1150732629982E+01
 0.1104223431109E+01
 0.1061332599904E+01
 0.1023825394415E+01
 0.9936427506613E+00
 0.9729851778084E+00
 0.9643894804809E+00
 0.9707444111917E+00
 0.9951745500294E+00
 0.1040738690434E+01
 0.1109968692596E+01
 0.1204396607110E+01
 0.1324199823849E+01
 0.1467988002612E+01
 0.1632759297898E+01
 0.1813999968975E+01
 0.2005906116040E+01
 0.2201728667773E+01
 0.2394223080040E+01
 0.2576177287746E+01
 0.2740945159859E+01
 0.1321489655113E+01
 0.1353468289891E+01
 0.1385789211376E+01
 0.1416710912702E+01
 0.1444551603181E+01
 0.1467847469551E+01
 0.1485460074463E+01
 0.1496617030525E+01
 0.1500894257452E+01
 0.1498161487494E+01
 0.1488514859839E+01
 0.1472215260498E+01
 0.1449642938608E+01
 0.1421271932638E+01
 0.1387664144214E+01
 0.1349474448015E+01
 0.1307464391822E+01
 0.1262518818354E+01
 0.1215656474653E+01
 0.1168042735084E+01
 0.1121024683373E+01
 0.1076131033441E+01
 0.1035021537305E+01
 0.9994884678343E+00
 0.9715115626103E+00
 0.9533362180634E+00
 0.9475389725953E+00
 0.9570224862826E+00
 0.9848695047152E+00
 0.1034012777145E+01
 0.1106766599817E+01
 0.1204379942634E+01
 0.1326731997655E+01
 0.1472176106102E+01
 0.1637545150600E+01
 0.1818284809419E+01
 0.2008691824493E+01
 0.2202256012137E+01
 0.2392085426964E+01
 0.2571390005648E+01
 0.2733957941653E+01
 0.1289304875460E+01
 0.1320272657059E+01
 0.1351433684961E+01
 0.1381171536354E+01
 0.1407926827431E+01
 0.1430332515422E+01
 0.1447308852022E+01
 0.1458103300612E+01
 0.1462280618166E+01
 0.1459680069225E+01
 0.1450359576342E+01
 0.1434543077622E+01
 0.1412580824450E+01
 0.1384926379893E+01
 0.1352130834613E+01
 0.1314846574164E+01
 0.1273838859065E+01
 0.1230000255737E+01
 0.1184359595395E+01
 0.1138092481491E+01
 0.1092550105590E+01
 0.1049261685677E+01
 0.1009896006330E+01
 0.9762674874143E+00
 0.9503891019741E+00
 0.9345451772688E+00
 0.9313461208522E+00
 0.9437039050989E+00
 0.9746589453266E+00
 0.1027026331402E+01
 0.1102924771392E+01
 0.1203356601913E+01
 0.1327948791003E+01
 0.1474844703338E+01
 0.1640748775943E+01
 0.1821085402215E+01
 0.2010248598710E+01
 0.2201939594894E+01
 0.2389570461235E+01
 0.2566710732767E+01
 0.2727516689910E+01
 0.1257363135802E+01
 0.1287430502220E+01
 0.1317540738939E+01
 0.1346192482641E+01
 0.1371940643265E+01
 0.1393511437109E+01
 0.1409885545022E+01
 0.1420336101698E+01
 0.1424424512275E+01
 0.1421967298064E+01
 0.1412990304997E+01
 0.1397684308880E+01
 0.1376370836634E+01
 0.1349481984208E+01
 0.1317555236491E+01
 0.1281236439615E+01
 0.1241289793723E+01
 0.1198610534754E+01
 0.1154232542444E+01
 0.1109336843096E+01
 0.1065274583823E+01
 0.1023571847346E+01
 0.9859024692438E+00
 0.9540982911544E+00
 0.9302001887585E+00
 0.9165258693402E+00
 0.9157145484641E+00
 0.9306844721220E+00
 0.9644357406411E+00
 0.1019677159492E+01
 0.1098355934134E+01
 0.1201263895792E+01
 0.1327818376673E+01
 0.1475993354515E+01
 0.1642395039488E+01
 0.1822439985371E+01
 0.2010612388148E+01
 0.2200796705184E+01
 0.2386662896296E+01
 0.2562082633786E+01
 0.2721520291557E+01
 0.1225635936749E+01
 0.1254906964460E+01
 0.1284069192111E+01
 0.1311728130917E+01
 0.1336546192722E+01
 0.1357339725932E+01
 0.1373151045303E+01
 0.1383283657037E+01
 0.1387302141939E+01
 0.1385006882706E+01
 0.1376396995322E+01
 0.1361633434333E+01
 0.1341010120593E+01
 0.1314936739061E+01
 0.1283934541209E+01
 0.1248639001288E+01
 0.1209808702384E+01
 0.1168336676984E+01
 0.1125256952274E+01
 0.1081751269832E+01
 0.1039166651664E+01
 0.9990224634028E+00
 0.9629936835251E+00
 0.9329249625980E+00
 0.9108799209942E+00
 0.8992044233147E+00
 0.9005621416230E+00
 0.9178759661962E+00
 0.9541099166443E+00
 0.1011880378600E+01
 0.1092988668838E+01
 0.1198051604636E+01
 0.1326316352259E+01
 0.1475623220832E+01
 0.1642505044891E+01
 0.1822379366941E+01
 0.2009810614219E+01
 0.2198837829292E+01
 0.2383344743526E+01
 0.2557451643705E+01
 0.2715875946406E+01
 0.1194095499959E+01
 0.1222668253731E+01
 0.1250979230549E+01
 0.1277734219104E+01
 0.1301697528186E+01
 0.1321772928059E+01
 0.1337065198518E+01
 0.1346912005487E+01
 0.1350886529350E+01
 0.1348778612181E+01
 0.1340565238889E+01
 0.1326380436418E+01
 0.1306491454909E+01
 0.1281284636061E+01
 0.1251262502568E+01
 0.1217046512934E+01
 0.1179385271680E+01
 0.1139164904759E+01
 0.1097414819499E+01
 0.1055312870794E+01
 0.1014197956655E+01
 0.9755792083705E+00
 0.9411289059683E+00
 0.9126999773903E+00
 0.8923737458395E+00
 0.8825192545771E+00
 0.8858208747111E+00
 0.9052057360109E+00
 0.9436079115690E+00
 0.1003567258141E+01
 0.1086765897567E+01
 0.1193680347675E+01
 0.1323424339203E+01
 0.1473736218202E+01
 0.1641096022263E+01
 0.1820927522104E+01
 0.2007863259895E+01
 0.2196067912338E+01
 0.2379596439993E+01
 0.2552767261765E+01
 0.2710499566785E+01
 0.1162714526110E+01
 0.1190681314785E+01
 0.1218231997667E+01
 0.1244167424120E+01
 0.1267349264248E+01
 0.1286766431818E+01
 0.1301586753288E+01
 0.1311185100886E+01
 0.1315147730345E+01
 0.1313258640414E+01
 0.1305476586768E+01
 0.1291911123108E+01
 0.1272803564218E+01
 0.1248515960411E+01
 0.1219529713538E+01
 0.1186448785449E+01
 0.1150007616373E+01
 0.1111080881262E+01
 0.1070688731190E+01
 0.1030000640863E+01
 0.9903434724779E+00
 0.9532126733990E+00
 0.9202740423091E+00
 0.8933843041773E+00
 0.8746375012935E+00
 0.8664210305954E+00
 0.8714366617356E+00
 0.8926163647171E+00
 0.9328719621029E+00
 0.9946842770857E+00
 0.1079643677610E+01
 0.1188120316105E+01
 0.1319128931346E+01
 0.1470334425850E+01
 0.1638181322667E+01
 0.1818102142776E+01
 0.2004783804264E+01
 0.2192487433149E+01
 0.2375397830673E+01
 0.2547983288928E+01
 0.2705316239573E+01
 0.1131465982493E+01
 0.1158913533067E+01
 0.1185789233982E+01
 0.1210984988103E+01
 0.1233456258973E+01
 0.1252275260917E+01
 0.1266673293353E+01
 0.1276064877814E+01
 0.1280053005900E+01
 0.1278419726657E+01
 0.1271108824332E+01
 0.1258207410722E+01
 0.1239931393172E+01
 0.1216617547320E+01
 0.1188723842445E+01
 0.1156833404114E+01
 0.1121662480991E+01
 0.1084069900111E+01
 0.1045062046117E+01
 0.1005795627894E+01
 0.9675816484936E+00
 0.9318984900021E+00
 0.9004017370931E+00
 0.8749474552661E+00
 0.8576374245464E+00
 0.8508726284515E+00
 0.8573692342674E+00
 0.8800654087009E+00
 0.9218596289816E+00
 0.9851924009366E+00
 0.1071590290147E+01
 0.1181350336980E+01
 0.1313420945063E+01
 0.1465419701462E+01
 0.1633770484742E+01
 0.1813915127237E+01
 0.2000580007511E+01
 0.2188093304915E+01
 0.2370729014406E+01
 0.2543058510776E+01
 0.2700260735654E+01
 0.1100322915241E+01
 0.1127332475400E+01
 0.1153612958367E+01
 0.1178144383839E+01
 0.1199973321971E+01
 0.1218253875782E+01
 0.1232281158783E+01
 0.1241511291698E+01
 0.1245566959358E+01
 0.1244231438371E+01
 0.1237436208435E+01
 0.1225247570045E+01
 0.1207856344188E+01
 0.1185573001687E+01
 0.1158829830858E+01
 0.1128185905068E+01
 0.1094335397546E+01
 0.1058117027327E+01
 0.1020519022457E+01
 0.9826810447714E+00
 0.9458945018002E+00
 0.9116173963809E+00
 0.8814914100081E+00
 0.8573674930326E+00
 0.8413501324268E+00
 0.8358490896643E+00
 0.8435920530735E+00
 0.8675252208541E+00
 0.9105434737173E+00
 0.9750665847214E+00
 0.1062585616230E+01
 0.1173357243627E+01
 0.1306294935416E+01
 0.1458993467163E+01
 0.1627869348158E+01
 0.1808373000025E+01
 0.1995254549983E+01
 0.2182879611600E+01
 0.2365571062490E+01
 0.2537957328644E+01
 0.2695278057685E+01
 0.1069258281918E+01
 0.1095905659153E+01
 0.1121665183349E+01
 0.1145603012849E+01
 0.1166854945724E+01
 0.1184655983283E+01
 0.1198365359710E+01
 0.1207482338348E+01
 0.1211651644547E+01
 0.1210660320696E+01
 0.1204429669608E+01
 0.1193006436993E+01
 0.1176556479237E+01
 0.1155362880640E+01
 0.1129830052394E+01
 0.1100489910114E+01
 0.1068010798494E+01
 0.1033207195123E+01
 0.9970448939089E+00
 0.9606423269861E+00
 0.9252676532164E+00
 0.8923552482631E+00
 0.8635292406420E+00
 0.8406309934347E+00
 0.8257625743804E+00
 0.8213375724580E+00
 0.8300922551102E+00
 0.8549828631835E+00
 0.8989108933057E+00
 0.9642955056347E+00
 0.1052620794312E+01
 0.1164135535433E+01
 0.1297748953932E+01
 0.1451056642173E+01
 0.1620480196793E+01
 0.1801477255170E+01
 0.1988805527145E+01
 0.2176838185984E+01
 0.2359906614567E+01
 0.2532650337513E+01
 0.2690324016152E+01
 0.1038244800806E+01
 0.1064600344502E+01
 0.1089907658019E+01
 0.1113317930430E+01
 0.1134055056875E+01
 0.1151434354820E+01
 0.1164879485393E+01
 0.1173934057415E+01
 0.1178266649619E+01
 0.1177670036640E+01
 0.1172056982249E+01
 0.1161455589641E+01
 0.1146006686460E+01
 0.1125964839035E+01
 0.1101704432114E+01
 0.1073727219336E+01
 0.1042672084422E+01
 0.1009325247271E+01
 0.9746258944238E+00
 0.9396671365914E+00
 0.9056903086725E+00
 0.8741029760837E+00
 0.8465081032292E+00
 0.8247329671507E+00
 0.8108719569709E+00
 0.8073372994547E+00
 0.8168706346441E+00
 0.8424401102366E+00
 0.8869641168086E+00
 0.9528815281109E+00
 0.1041698156648E+01
 0.1153687317388E+01
 0.1287784533821E+01
 0.1441609707783E+01
 0.1611601920881E+01
 0.1793224617307E+01
 0.1981226799810E+01
 0.2169959031296E+01
 0.2353720352862E+01
 0.2527114847077E+01
 0.2685365822606E+01
 0.1007254813701E+01
 0.1033383345213E+01
 0.1058301633191E+01
 0.1081245592862E+01
 0.1101526784850E+01
 0.1118540653031E+01
 0.1131775611592E+01
 0.1140820524502E+01
 0.1145369161881E+01
 0.1145221482931E+01
 0.1140282906911E+01
 0.1130563494700E+01
 0.1116178813851E+01
 0.1097353739461E+01
 0.1074430527604E+01
 0.1047877862345E+01
 0.1018301647257E+01
 0.9864559369822E+00
 0.9532492329282E+00
 0.9197453144616E+00
 0.8871551884674E+00
 0.8568564911847E+00
 0.8304274535962E+00
 0.8096767391624E+00
 0.7966856386137E+00
 0.7938594976437E+00
 0.8039416551844E+00
 0.8299135422035E+00
 0.8747203658048E+00
 0.9408409048309E+00
 0.1029831446802E+01
 0.1142022518870E+01
 0.1276406899870E+01
 0.1430652900905E+01
 0.1601230194362E+01
 0.1783607217555E+01
 0.1972508197660E+01
 0.2162230585572E+01
 0.2346999353462E+01
 0.2521335341386E+01
 0.2680382689786E+01
 0.9762601593722E+00
 0.1002220853729E+01
 0.1026807643732E+01
 0.1049341622180E+01
 0.1069222244923E+01
 0.1085925266747E+01
 0.1099004208229E+01
 0.1108093835447E+01
 0.1112914017762E+01
 0.1113272885385E+01
 0.1109069307735E+01
 0.1100295625540E+01
 0.1087041771147E+01
 0.1069501727121E+01
 0.1047983571511E+01
 0.1022920107553E+01
 0.9948808482096E+00
 0.9645838766497E+00
 0.9329030176832E+00
 0.9008687810001E+00
 0.8696584050429E+00
 0.8406165418866E+00
 0.8152931686734E+00
 0.7954737856059E+00
 0.7832209907995E+00
 0.7809273241369E+00
 0.7913334844282E+00
 0.8174347214014E+00
 0.8622121764328E+00
 0.9282042159718E+00
 0.1017046323929E+01
 0.1129159398972E+01
 0.1263625410302E+01
 0.1418186541710E+01
 0.1589357669447E+01
 0.1772612681965E+01
 0.1962635571096E+01
 0.2153639823672E+01
 0.2339733310126E+01
 0.2515303870209E+01
 0.2675366428662E+01
 0.9452320550226E+00
 0.9710782766412E+00
 0.9953853033687E+00
 0.1017560584128E+01
 0.1037092332985E+01
 0.1053537153687E+01
 0.1066514049006E+01
 0.1075704085984E+01
 0.1080853741687E+01
 0.1081779877414E+01
 0.1078375247994E+01
 0.1070614553799E+01
 0.1058561601064E+01
 0.1042378269899E+01
 0.1022336475179E+01
 0.9988304286493E+00
 0.9723899493998E+00
 0.9436934383426E+00
 0.9135761294304E+00
 0.8830313848779E+00
 0.8531992893287E+00
 0.8253885197323E+00
 0.8011173384361E+00
 0.7821435261379E+00
 0.7705052210200E+00
 0.7685757690571E+00
 0.7790880406307E+00
 0.8050504408165E+00
 0.8494878762495E+00
 0.9150170475634E+00
 0.1003381162826E+01
 0.1115125353528E+01
 0.1249454248222E+01
 0.1404211510530E+01
 0.1575974196287E+01
 0.1760224130874E+01
 0.1951590682805E+01
 0.2144172187094E+01
 0.2331914622881E+01
 0.2509020364120E+01
 0.2670322030483E+01
 0.9141409832677E+00
 0.9399200770983E+00
 0.9639931080005E+00
 0.9858557759621E+00
 0.1005086530387E+01
 0.1021323691680E+01
 0.1034252126032E+01
 0.1043599351456E+01
 0.1049138579367E+01
 0.1050695567211E+01
 0.1048157068811E+01
 0.1041480018960E+01
 0.1030701523427E+01
 0.1015950166370E+01
 0.9974597954369E+00
 0.9755834297498E+00
 0.9508080002201E+00
 0.9237686059696E+00
 0.8952580442858E+00
 0.8662287010411E+00
 0.8377801673005E+00
 0.8111822178198E+00
 0.7879180118971E+00
 0.7697130719162E+00
 0.7585751541652E+00
 0.7568515273698E+00
 0.7672610373741E+00
 0.7928230302274E+00
 0.8366122062132E+00
 0.9013409101700E+00
 0.9888881645673E+00
 0.1099958050313E+01
 0.1233913394832E+01
 0.1388729903577E+01
 0.1561067086148E+01
 0.1746420091708E+01
 0.1939350928689E+01
 0.2133811328595E+01
 0.2323538342436E+01
 0.2502492866091E+01
 0.2665268222829E+01
 0.8829565821364E+00
 0.9087096198320E+00
 0.9325882420604E+00
 0.9541790186244E+00
 0.9731527145022E+00
 0.9892305356876E+00
 0.1002163568297E+01
 0.1011725666349E+01
 0.1017716525426E+01
 0.1019970593116E+01
 0.1018368449721E+01
 0.1012848973478E+01
 0.1003421948735E+01
 0.9901815173018E+00
 0.9733216592422E+00
 0.9531517232692E+00
 0.9301126720915E+00
 0.9047927726053E+00
 0.8779386000323E+00
 0.8504577720752E+00
 0.8234060814969E+00
 0.7980115366548E+00
 0.7757188928233E+00
 0.7582169238425E+00
 0.7474769637207E+00
 0.7458128249045E+00
 0.7559220046160E+00
 0.7808306933180E+00
 0.8236670646442E+00
 0.8872543877761E+00
 0.9736347863333E+00
 0.1083706918383E+01
 0.1217029920076E+01
 0.1371745901025E+01
 0.1544621436907E+01
 0.1731174321117E+01
 0.1925888864673E+01
 0.2122538644170E+01
 0.2314601954353E+01
 0.2495737663884E+01
 0.2660237990467E+01
 0.8516475354430E+00
 0.8774090157334E+00
 0.9011263848059E+00
 0.9224804513852E+00
 0.9412369754773E+00
 0.9572014839603E+00
 0.9701915698983E+00
 0.9800270114623E+00
 0.9865333543021E+00
 0.9895531764544E+00
 0.9889604602511E+00
 0.9846756122273E+00
 0.9766804692692E+00
 0.9650336679918E+00
 0.9498876526869E+00
 0.9315057662142E+00
 0.9102800465507E+00
 0.8867484873152E+00
 0.8616077097382E+00
 0.8357167967136E+00
 0.8100844614550E+00
 0.7858941418984E+00
 0.7645489898519E+00
 0.7476966250456E+00
 0.7372658536194E+00
 0.7355291926307E+00
 0.7451542704566E+00
 0.7691678526382E+00
 0.8107523520333E+00
 0.8728545116328E+00
 0.9577055110421E+00
 0.1066435038208E+01
 0.1198839653720E+01
 0.1353266910793E+01
 0.1526620565917E+01
 0.1714455548736E+01
 0.1911171519686E+01
 0.2110332563847E+01
 0.2305104988120E+01
 0.2488779325024E+01
 0.2655279016533E+01
 0.8201814612122E+00
 0.8459789623287E+00
 0.8695615125030E+00
 0.8907083258994E+00
 0.9092834382358E+00
 0.9251783549122E+00
 0.9382773317731E+00
 0.9484453138187E+00
 0.9555326600519E+00
 0.9593891774641E+00
 0.9598816076836E+00
 0.9569113907484E+00
 0.9504318313896E+00
 0.9404651241343E+00
 0.9271206760707E+00
 0.9106136556166E+00
 0.8912843565222E+00
 0.8696171506295E+00
 0.8462550213849E+00
 0.8220047640456E+00
 0.7978247419570E+00
 0.7748510737559E+00
 0.7544422218849E+00
 0.7382003690034E+00
 0.7280056902080E+00
 0.7260811819986E+00
 0.7350548847400E+00
 0.7579454717274E+00
 0.7979868844041E+00
 0.8582583436061E+00
 0.9412039740410E+00
 0.1048221485777E+01
 0.1179389315334E+01
 0.1333305071561E+01
 0.1507046613838E+01
 0.1696227162922E+01
 0.1895159466820E+01
 0.2097167554975E+01
 0.2295048433281E+01
 0.2481650625831E+01
 0.2650454057931E+01
 0.7885247947879E+00
 0.8143785747246E+00
 0.8378456899748E+00
 0.8588087937110E+00
 0.8772340855868E+00
 0.8931008726173E+00
 0.9063600162942E+00
 0.9169204592776E+00
 0.9246559048783E+00
 0.9294221534390E+00
 0.9310778792388E+00
 0.9295050294906E+00
 0.9246278851226E+00
 0.9164314361738E+00
 0.9049807588366E+00
 0.8904408757985E+00
 0.8730976724733E+00
 0.8533786495498E+00
 0.8318695138156E+00
 0.8093210235127E+00
 0.7866379194702E+00
 0.7649062993825E+00
 0.7454369717727E+00
 0.7297825577730E+00
 0.7197685779371E+00
 0.7175600083992E+00
 0.7257344570983E+00
 0.7472913087334E+00
 0.7855093203030E+00
 0.8436047277266E+00
 0.9242554430437E+00
 0.1029164173409E+01
 0.1158739182128E+01
 0.1311879206607E+01
 0.1485881392357E+01
 0.1676446858263E+01
 0.1877805600895E+01
 0.2083012751360E+01
 0.2284433918860E+01
 0.2474392379044E+01
 0.2645841175649E+01
 0.7566426634270E+00
 0.7825652028292E+00
 0.8059288474662E+00
 0.8267256853369E+00
 0.8450285840666E+00
 0.8609065661209E+00
 0.8743767226186E+00
 0.8853903272668E+00
 0.8938424864155E+00
 0.8995934292584E+00
 0.9024927886569E+00
 0.9024025136490E+00
 0.8992175199984E+00
 0.8928850601876E+00
 0.8834248412425E+00
 0.8709500030009E+00
 0.8556895375821E+00
 0.8380109348417E+00
 0.8184390305010E+00
 0.7976647912163E+00
 0.7765360469237E+00
 0.7560862090525E+00
 0.7375755908822E+00
 0.7225033155870E+00
 0.7126343853733E+00
 0.7100671250245E+00
 0.7173168972403E+00
 0.7373500664400E+00
 0.7734790494169E+00
 0.8290561678061E+00
 0.9070096532452E+00
 0.1009383251296E+01
 0.1136966412199E+01
 0.1289017371338E+01
 0.1463107605770E+01
 0.1655066312986E+01
 0.1859053583409E+01
 0.2067830090158E+01
 0.2273262595678E+01
 0.2467053185269E+01
 0.2641533749837E+01
 0.7244987483654E+00
 0.7504942281522E+00
 0.7737585353613E+00
 0.7944002751240E+00
 0.8126041098022E+00
 0.8285306827375E+00
 0.8422624845833E+00
 0.8537908497399E+00
 0.8630298253761E+00
 0.8698421810805E+00
 0.8740674271336E+00
 0.8755470877371E+00
 0.8741465853914E+00
 0.8697751925047E+00
 0.8624065187524E+00
 0.8521003620437E+00
 0.8390265452685E+00
 0.8234895327260E+00
 0.8059497421303E+00
 0.7870345827013E+00
 0.7675316566956E+00
 0.7484190467495E+00
 0.7309038476258E+00
 0.7164279549038E+00
 0.7066902223784E+00
 0.7037137263984E+00
 0.7099390425003E+00
 0.7282833944154E+00
 0.7620769680386E+00
 0.8148007534695E+00
 0.8896439633910E+00
 0.9890251114882E+00
 0.1114169137891E+01
 0.1264760150922E+01
 0.1438710602322E+01
 0.1632030994025E+01
 0.1838835908337E+01
 0.2051571751745E+01
 0.2261533574098E+01
 0.2459689154328E+01
 0.2637640148899E+01
 0.6920551293073E+00
 0.7181188330542E+00
 0.7412796496479E+00
 0.7617710279200E+00
 0.7798951750886E+00
 0.7959061200751E+00
 0.8099502981258E+00
 0.8220561018941E+00
 0.8321534807605E+00
 0.8401055398731E+00
 0.8457405248275E+00
 0.8488792506715E+00
 0.8493578005253E+00
 0.8470475822549E+00
 0.8418757519971E+00
 0.8338476362214E+00
 0.8230718585055E+00
 0.8097869885571E+00
 0.7943855338021E+00
 0.7774275663095E+00
 0.7596371047061E+00
 0.7419342680197E+00
 0.7254703148194E+00
 0.7116263945686E+00
 0.7020298746075E+00
 0.6986201908451E+00
 0.7037501716956E+00
 0.7202697104913E+00
 0.7515060649244E+00
 0.8010540385827E+00
 0.8723667764588E+00
 0.9682670310744E+00
 0.1090471467493E+01
 0.1239164911422E+01
 0.1412680875919E+01
 0.1607280274396E+01
 0.1817071605109E+01
 0.2034176606832E+01
 0.2249241601759E+01
 0.2452363661894E+01
 0.2634282817496E+01
 0.6592721056603E+00
 0.6853897347982E+00
 0.7084341215343E+00
 0.7287733257702E+00
 0.7468334603277E+00
 0.7629633866680E+00
 0.7773711907454E+00
 0.7901184377008E+00
 0.8011473053184E+00
 0.8103187270587E+00
 0.8174485350049E+00
 0.8223367632613E+00
 0.8247906655562E+00
 0.8246443322253E+00
 0.8217785510021E+00
 0.8161434369416E+00
 0.8077846749097E+00
 0.7968722438243E+00
 0.7837273154046E+00
 0.7688388329602E+00
 0.7528638290861E+00
 0.7366618172983E+00
 0.7213256892462E+00
 0.7081725285255E+00
 0.6987532029875E+00
 0.6949154788650E+00
 0.6989114199345E+00
 0.7135038267832E+00
 0.7419917470838E+00
 0.7880607590820E+00
 0.8554211395400E+00
 0.9473224790396E+00
 0.1066029559341E+01
 0.1212311268395E+01
 0.1385017616812E+01
 0.1580748170794E+01
 0.1793663766626E+01
 0.2015565322991E+01
 0.2236373271887E+01
 0.2445147193828E+01
 0.2631596183005E+01
 0.6261079867765E+00
 0.6522548725561E+00
 0.6751605595798E+00
 0.6953391677608E+00
 0.7133476510071E+00
 0.7296305954413E+00
 0.7444543381836E+00
 0.7579086739926E+00
 0.7699436429730E+00
 0.7804152224359E+00
 0.7891257401623E+00
 0.7958546670325E+00
 0.8003813722002E+00
 0.8025036855875E+00
 0.8020566297784E+00
 0.7989348272809E+00
 0.7931196296547E+00
 0.7847099363391E+00
 0.7739522428161E+00
 0.7612605676446E+00
 0.7472215063996E+00
 0.7326313060608E+00
 0.7185220252364E+00
 0.7061435315642E+00
 0.6969655053031E+00
 0.6927364990329E+00
 0.6955951123995E+00
 0.7081963736521E+00
 0.7337818294974E+00
 0.7760962349318E+00
 0.8390883605995E+00
 0.9264470365453E+00
 0.1041038896757E+01
 0.1184308049027E+01
 0.1355733634530E+01
 0.1552365061690E+01
 0.1768497379762E+01
 0.1995633933054E+01
 0.2222900248348E+01
 0.2438116846774E+01
 0.2629722269899E+01
 0.5925188407083E+00
 0.6186590343784E+00
 0.6413938332083E+00
 0.6613968392743E+00
 0.6793632857865E+00
 0.6958335023958E+00
 0.7111272418874E+00
 0.7253563350671E+00
 0.7384735781682E+00
 0.7503269731833E+00
 0.7607043887399E+00
 0.7693653232340E+00
 0.7760627227328E+00
 0.7805598065327E+00
 0.7826470375484E+00
 0.7821638031473E+00
 0.7790261368452E+00
 0.7732596210102E+00
 0.7650328439417E+00
 0.7546811129949E+00
 0.7427170918553E+00
 0.7298710745657E+00
 0.7171118630922E+00
 0.7056190854595E+00
 0.6967768338378E+00
 0.6922274552530E+00
 0.6939840508267E+00
 0.7045730471043E+00
 0.7271461447801E+00
 0.7654672986066E+00
 0.8236914294369E+00
 0.9059448218062E+00
 0.1015742885793E+01
 0.1155302084218E+01
 0.1324862087477E+01
 0.1522060749421E+01
 0.1741438310011E+01
 0.1974246791122E+01
 0.2208766770107E+01
 0.2431353288433E+01
 0.2628800330787E+01
 0.5584581872659E+00
 0.5845434068332E+00
 0.6070645804447E+00
 0.6268705406217E+00
 0.6448026172947E+00
 0.6614955971234E+00
 0.6773159720842E+00
 0.6923899581661E+00
 0.7066672333338E+00
 0.7199846378199E+00
 0.7321148557302E+00
 0.7427984657467E+00
 0.7517640516024E+00
 0.7587425490086E+00
 0.7634817598943E+00
 0.7657667237415E+00
 0.7654476592104E+00
 0.7624748993359E+00
 0.7569360361130E+00
 0.7490839096516E+00
 0.7393537258215E+00
 0.7284071165994E+00
 0.7171472294596E+00
 0.7066805036539E+00
 0.6983012565987E+00
 0.6935391856731E+00
 0.6942707953442E+00
 0.7028737353670E+00
 0.7223757682154E+00
 0.7565125934768E+00
 0.8095979503979E+00
 0.8861751786518E+00
 0.9904428061878E+00
 0.1125489159941E+01
 0.1292465498399E+01
 0.1489769279988E+01
 0.1712333689433E+01
 0.1951232881496E+01
 0.2193869588428E+01
 0.2424925537183E+01
 0.2628938027694E+01
 0.5238766111422E+00
 0.5498450374040E+00
 0.5720986252904E+00
 0.5916799749984E+00
 0.6095845074758E+00
 0.6265382739307E+00
 0.6429455049690E+00
 0.6589374846148E+00
 0.6744541363262E+00
 0.6893178863258E+00
 0.7032858494578E+00
 0.7160812917954E+00
 0.7274111745672E+00
 0.7369772379599E+00
 0.7444873117938E+00
 0.7496737091172E+00
 0.7523209187568E+00
 0.7523024647398E+00
 0.7496220363588E+00
 0.7444463091276E+00
 0.7371294956459E+00
 0.7282618485832E+00
 0.7186784832129E+00
 0.7094097227022E+00
 0.7016560336517E+00
 0.6968284863745E+00
 0.6966569799693E+00
 0.7033516107212E+00
 0.7197819250925E+00
 0.7496021540692E+00
 0.7972222829102E+00
 0.8675593069160E+00
 0.9655090877126E+00
 0.1095127597711E+01
 0.1258647652706E+01
 0.1455436296660E+01
 0.1681013429967E+01
 0.1926387417214E+01
 0.2178050113278E+01
 0.2418831762981E+01
 0.2630102319662E+01
 0.4887212471587E+00
 0.5144962379660E+00
 0.5364162563327E+00
 0.5557399009245E+00
 0.5736243797121E+00
 0.5908811101484E+00
 0.6079401763920E+00
 0.6249267508523E+00
 0.6417636667446E+00
 0.6582557635787E+00
 0.6741446725959E+00
 0.6891386004880E+00
 0.7029263770096E+00
 0.7151844748829E+00
 0.7255843324588E+00
 0.7338080109878E+00
 0.7395750497270E+00
 0.7426810604850E+00
 0.7430431565077E+00
 0.7407382473070E+00
 0.7360360354974E+00
 0.7294526989411E+00
 0.7217529741501E+00
 0.7138881188084E+00
 0.7069606634849E+00
 0.7022573895364E+00
 0.7013526797682E+00
 0.7062722812614E+00
 0.7196947096718E+00
 0.7451362591569E+00
 0.7870265740688E+00
 0.8505863250064E+00
 0.9413937275001E+00
 0.1064554742277E+01
 0.1223569611318E+01
 0.1419028498253E+01
 0.1647295702995E+01
 0.1899470492963E+01
 0.2161118300011E+01
 0.2413056494211E+01
 0.2631165601639E+01
 0.4529345683903E+00
 0.4784106221849E+00
 0.4999089709624E+00
 0.5189275376470E+00
 0.5367926317423E+00
 0.5543917003312E+00
 0.5721655444441E+00
 0.5902202716224E+00
 0.6084539391685E+00
 0.6266511009933E+00
 0.6445388019714E+00
 0.6618133674827E+00
 0.6781499793283E+00
 0.6932048347257E+00
 0.7066176576873E+00
 0.7180237348951E+00
 0.7270791652780E+00
 0.7335008672756E+00
 0.7371166205778E+00
 0.7379095969182E+00
 0.7360609548344E+00
 0.7320095581684E+00
 0.7264468344476E+00
 0.7202412174091E+00
 0.7143921182047E+00
 0.7100552308795E+00
 0.7086398689048E+00
 0.7119709417551E+00
 0.7225037053270E+00
 0.7435573395063E+00
 0.7794915831913E+00
 0.8357325080512E+00
 0.9184900823065E+00
 0.1033983686045E+01
 0.1187187211684E+01
 0.1380233655876E+01
 0.1610676413972E+01
 0.1869972359127E+01
 0.2142705423127E+01
 0.2407477703277E+01
 0.2634319433409E+01
 0.4164508856715E+00
 0.4415057643648E+00
 0.4624802989210E+00
 0.4811433881714E+00
 0.4989949304632E+00
 0.5169842778678E+00
 0.5355434903896E+00
 0.5547445900826E+00
 0.5744528523136E+00
 0.5944303826408E+00
 0.6143913224497E+00
 0.6340241201350E+00
 0.6529956776949E+00
 0.6709479283544E+00
 0.6874947253398E+00
 0.7022292712571E+00
 0.7147467966366E+00
 0.7246854755354E+00
 0.7317813767559E+00
 0.7359201357982E+00
 0.7371904660146E+00
 0.7359507821481E+00
 0.7328163217875E+00
 0.7285688040407E+00
 0.7240990054793E+00
 0.7204245112722E+00
 0.7187805795712E+00
 0.7207769674229E+00
 0.7286171970721E+00
 0.7453663458395E+00
 0.7752165668862E+00
 0.8236713684655E+00
 0.8974710020725E+00
 0.1003965019558E+01
 0.1149803398158E+01
 0.1339038296615E+01
 0.1570874855245E+01
 0.1837486699224E+01
 0.2122688202686E+01
 0.2401828400165E+01
 0.2646605017808E+01
 0.3792080203725E+00
 0.4037069900640E+00
 0.4240507783612E+00
 0.4423157168605E+00
 0.4601769278761E+00
 0.4786242186623E+00
 0.4980561413460E+00
 0.5184933633141E+00
 0.5397602416360E+00
 0.5615949334973E+00
 0.5837011090146E+00
 0.6057640170679E+00
 0.6274483520866E+00
 0.6483886922489E+00
 0.6681800476202E+00
 0.6863796367868E+00
 0.7025258205623E+00
 0.7161791919276E+00
 0.7269826683778E+00
 0.7347213446470E+00
 0.7393883201465E+00
 0.7412592528615E+00
 0.7408712178954E+00
 0.7389161427322E+00
 0.7361713557882E+00
 0.7335102416809E+00
 0.7319869546632E+00
 0.7329858737352E+00
 0.7384373690106E+00
 0.7511036381956E+00
 0.7749121996154E+00
 0.8152918895362E+00
 0.8793503397433E+00
 0.9755034058191E+00
 0.1112231782028E+01
 0.1295917477834E+01
 0.1527990898017E+01
 0.1801914098703E+01
 0.2100885563950E+01
 0.2397851530524E+01
 0.2662229394625E+01
 0.3411325894294E+00
 0.3649153604138E+00
 0.3845075695588E+00
 0.4023341002639E+00
 0.4202414223998E+00
 0.4392292598580E+00
 0.4596320531291E+00
 0.4814002557718E+00
 0.5043098817149E+00
 0.5280749229637E+00
 0.5523921113187E+00
 0.5769490287982E+00
 0.6014150442336E+00
 0.6254252807509E+00
 0.6485642341463E+00
 0.6703607866249E+00
 0.6903019463377E+00
 0.7078730406584E+00
 0.7226230510587E+00
 0.7342338618402E+00
 0.7426000325957E+00
 0.7479124425506E+00
 0.7506283352246E+00
 0.7513468401996E+00
 0.7507267280368E+00
 0.7494906530313E+00
 0.7485047129407E+00
 0.7489195209038E+00
 0.7523759904927E+00
 0.7612933509526E+00
 0.7792441676896E+00
 0.8114179907400E+00
 0.8650717359087E+00
 0.9495280577585E+00
 0.1075175754664E+01
 0.1251156376918E+01
 0.1481852486252E+01
 0.1762786308279E+01
 0.2077123561023E+01
 0.2395359514189E+01
 0.2681247426694E+01
 0.3021426361766E+00
 0.3250198866512E+00
 0.3437257232924E+00
 0.3610808916190E+00
 0.3790898560021E+00
 0.3987197463809E+00
 0.4202039336415E+00
 0.4434029924158E+00
 0.4680387460234E+00
 0.4938025536871E+00
 0.5203889670021E+00
 0.5474942375129E+00
 0.5747999979689E+00
 0.6019507434679E+00
 0.6285301359426E+00
 0.6540481233530E+00
 0.6779477194515E+00
 0.6996427658362E+00
 0.7185883697888E+00
 0.7343609496102E+00
 0.7467538792165E+00
 0.7558715858808E+00
 0.7620902005310E+00
 0.7659131875876E+00
 0.7678753778610E+00
 0.7685416715970E+00
 0.7685830416923E+00
 0.7689093519282E+00
 0.7708604781396E+00
 0.7764823690964E+00
 0.7889149527587E+00
 0.8129443696596E+00
 0.8557143889743E+00
 0.9271825079314E+00
 0.1039590170074E+01
 0.1205237537131E+01
 0.1432335208013E+01
 0.1719554971475E+01
 0.2050870519135E+01
 0.2393786243687E+01
 0.2704185262725E+01
 0.2621456086153E+00
 0.2838942766359E+00
 0.3015661015588E+00
 0.3184312039150E+00
 0.3366239084876E+00
 0.3570206191522E+00
 0.3797102847303E+00
 0.4044445254700E+00
 0.4308878420833E+00
 0.4587127295323E+00
 0.4876176005776E+00
 0.5173143926008E+00
 0.5475051285573E+00
 0.5778532990342E+00
 0.6079527664072E+00
 0.6373059110049E+00
 0.6653213446626E+00
 0.6913470847537E+00
 0.7147455412131E+00
 0.7349859237507E+00
 0.7517580787018E+00
 0.7650786897036E+00
 0.7752419362208E+00
 0.7826529397230E+00
 0.7877169853637E+00
 0.7908337424209E+00
 0.7924718336624E+00
 0.7932945177231E+00
 0.7943332048327E+00
 0.7972399900043E+00
 0.8046609609006E+00
 0.8208286957583E+00
 0.8524880925787E+00
 0.9098461881748E+00
 0.1006747773590E+01
 0.1158927455271E+01
 0.1379426885265E+01
 0.1671539631579E+01
 0.2021205885721E+01
 0.2392609079697E+01
 0.2731740349602E+01
 0.2210354980035E+00
 0.2413928915378E+00
 0.2578728591661E+00
 0.2742534701690E+00
 0.2927479347472E+00
 0.3140639875204E+00
 0.3380972870636E+00
 0.3644742518994E+00
 0.3928030444988E+00
 0.4227437347604E+00
 0.4540058713970E+00
 0.4863245636683E+00
 0.5194306404065E+00
 0.5530167944343E+00
 0.5866994054781E+00
 0.6199868101089E+00
 0.6522655159630E+00
 0.6828258203632E+00
 0.7109401159818E+00
 0.7359693146271E+00
 0.7574977007547E+00
 0.7754532843210E+00
 0.7900478815122E+00
 0.8015857724946E+00
 0.8103369073894E+00
 0.8165279195571E+00
 0.8204178577532E+00
 0.8224186724952E+00
 0.8232496547449E+00
 0.8241575160534E+00
 0.8272511366750E+00
 0.8360841996801E+00
 0.8567214964781E+00
 0.8991444826619E+00
 0.9783090087603E+00
 0.1113398708311E+01
 0.1323326488408E+01
 0.1617926939369E+01
 0.1986894913971E+01
 0.2391245323453E+01
 0.2764765052472E+01
 0.1786889008595E+00
 0.1973454891762E+00
 0.2124706442290E+00
 0.2284109845891E+00
 0.2473726095330E+00
 0.2697923870468E+00
 0.2953208821393E+00
 0.3234492165849E+00
 0.3537358838839E+00
 0.3858379029090E+00
 0.4194842620637E+00
 0.4544408947865E+00
 0.4904758146049E+00
 0.5273213947779E+00
 0.5646299522041E+00
 0.6019316003470E+00
 0.6386062936732E+00
 0.6738979100321E+00
 0.7069935821986E+00
 0.7371457085964E+00
 0.7638312682079E+00
 0.7868889242410E+00
 0.8064480041382E+00
 0.8227094963337E+00
 0.8358020326183E+00
 0.8457712606118E+00
 0.8526597748889E+00
 0.8566250524057E+00
 0.8580745199956E+00
 0.8578464230496E+00
 0.8574863338017E+00
 0.8597744748873E+00
 0.8698464242784E+00
 0.8969422714207E+00
 0.9563851462091E+00
 0.1070389347940E+01
 0.1264609062497E+01
 0.1557846543890E+01
 0.1946349202065E+01
 0.2388920472852E+01
 0.2804290133425E+01
 0.1349597243327E+00
 0.1515505636407E+00
 0.1651617531902E+00
 0.1807651663478E+00
 0.2004202846388E+00
 0.2241628055776E+00
 0.2513489531672E+00
 0.2813352113154E+00
 0.3136442441452E+00
 0.3479422520867E+00
 0.3839865958147E+00
 0.4215814596384E+00
 0.4605399850071E+00
 0.5006445527808E+00
 0.5415976076198E+00
 0.5829691835053E+00
 0.6241520908740E+00
 0.6643592912606E+00
 0.7027003530121E+00
 0.7383201907573E+00
 0.7705869988141E+00
 0.7992494432424E+00
 0.8243541717614E+00
 0.8459961386938E+00
 0.8641563687313E+00
 0.8786916459704E+00
 0.8894220526559E+00
 0.8962496481678E+00
 0.8992749456206E+00
 0.8989333481205E+00
 0.8961972556653E+00
 0.8930106342015E+00
 0.8933827814982E+00
 0.9053203339625E+00
 0.9435777197970E+00
 0.1032394505447E+01
 0.1204495077780E+01
 0.1490513750717E+01
 0.1897537221025E+01
 0.2384497205399E+01
 0.2851584259273E+01
 0.8967316838207E-01
 0.1037684485623E+00
 0.1157238420825E+00
 0.1311818777114E+00
 0.1518328814878E+00
 0.1771515580703E+00
 0.2061634589345E+00
 0.2381076714287E+00
 0.2724929293403E+00
 0.3090090715020E+00
 0.3474507765553E+00
 0.3876672196423E+00
 0.4295237234941E+00
 0.4728623162765E+00
 0.5174499960810E+00
 0.5629170026742E+00
 0.6086928727414E+00
 0.6539806792946E+00
 0.6978243596979E+00
 0.7392642668726E+00
 0.7775585942297E+00
 0.8123649551312E+00
 0.8436463647617E+00
 0.8713880338104E+00
 0.8954165210685E+00
 0.9153921965252E+00
 0.9309079618343E+00
 0.9416125442482E+00
 0.9473104777528E+00
 0.9480501837340E+00
 0.9442375333063E+00
 0.9369478148631E+00
 0.9289274826741E+00
 0.9265407942073E+00
 0.9429756792632E+00
 0.1002866821940E+01
 0.1145256737308E+01
 0.1415503889261E+01
 0.1837880190361E+01
 0.2376232979967E+01
 0.2908251666029E+01
 0.4263372546973E-01
 0.5373050367061E-01
 0.6390983927598E-01
 0.7954399457788E-01
 0.1015844540519E+00
 0.1287603585844E+00
 0.1597623791500E+00
 0.1937522650801E+00
 0.2302540415927E+00
 0.2689964108082E+00
 0.3098195050201E+00
 0.3526230409648E+00
 0.3973302048298E+00
 0.4438509882702E+00
 0.4920308148362E+00
 0.5415820299016E+00
 0.5919997009286E+00
 0.6425052518929E+00
 0.6920951251814E+00
 0.7397110715681E+00
 0.7845004341157E+00
 0.8260275971498E+00
 0.8641689735651E+00
 0.8987941512989E+00
 0.9295673260371E+00
 0.9559455916963E+00
 0.9772920614541E+00
 0.9930079331076E+00
 0.1002619998555E+01
 0.1005818386496E+01
 0.1002468363220E+01
 0.9927747485192E+00
 0.9781454037871E+00
 0.9630127276946E+00
 0.9581024719750E+00
 0.9863700208781E+00
 0.1090787886088E+01
 0.1333284425185E+01
 0.1764189456502E+01
 0.2361405383923E+01
 0.2976380093419E+01
 0.7301177771984E-02
 0.4060955574054E-02
 0.9473470499728E-02
 0.2579978923188E-01
 0.4971475898910E-01
 0.7902724401225E-01
 0.1121620117809E+00
 0.1482652793996E+00
 0.1869072040208E+00
 0.2278684893226E+00
 0.2710409857242E+00
 0.3163787818499E+00
 0.3638667685820E+00
 0.4134892000167E+00
 0.4651821728796E+00
 0.5187625933884E+00
 0.5738248930412E+00
 0.6296463394197E+00
 0.6852031731062E+00
 0.7393495729342E+00
 0.7911219312397E+00
 0.8399869575956E+00
 0.8857273078770E+00
 0.9280868727644E+00
 0.9665578292844E+00
 0.1000388462811E+01
 0.1028712479711E+01
 0.1050693414695E+01
 0.1065606449493E+01
 0.1072827641589E+01
 0.1071732025605E+01
 0.1061688068273E+01
 0.1042751377224E+01
 0.1017263779024E+01
 0.9928283257264E+00
 0.9886067658656E+00
 0.1047306418199E+01
 0.1246221987209E+01
 0.1672781679009E+01
 0.2335710763753E+01
 0.3058759383071E+01
 0.5838185744784E-01
 0.5531452054460E-01
 0.4795318607736E-01
 0.3032444966165E-01
 0.5189156115688E-02
 0.2811061301634E-01
 0.6340615056502E-01
 0.1016546562164E+00
 0.1424397331705E+00
 0.1855960272025E+00
 0.2310696114227E+00
 0.2788704233620E+00
 0.3290466427006E+00
 0.3816603936707E+00
 0.4367477451117E+00
 0.4942513670935E+00
 0.5539031898624E+00
 0.6150852946400E+00
 0.6767945612532E+00
 0.7378173124817E+00
 0.7970806592351E+00
 0.8539451033579E+00
 0.9080845212967E+00
 0.9590995297812E+00
 0.1006297861316E+01
 0.1048716027018E+01
 0.1085263286819E+01
 0.1114879396045E+01
 0.1136620877488E+01
 0.1149610640787E+01
 0.1152814150875E+01
 0.1144844419564E+01
 0.1124465010881E+01
 0.1091904036421E+01
 0.1051279106204E+01
 0.1016269786697E+01
 0.1024002507989E+01
 0.1160385825050E+01
 0.1560124975668E+01
 0.2292302858827E+01
 0.3159192283521E+01
 0.1130165669290E+00
 0.1149903230456E+00
 0.1085153054238E+00
 0.8836201439218E-01
 0.5901728123144E-01
 0.2469287221940E-01
 0.1379457206604E-01
 0.5394895369004E-01
 0.9684726595993E-01
 0.1421565070043E+00
 0.1898665793449E+00
 0.2400411735448E+00
 0.2927907326207E+00
 0.3482556202720E+00
 0.4065767909016E+00
 0.4678398983957E+00
 0.5319545327390E+00
 0.5984698950469E+00
 0.6664642690299E+00
 0.7346909659659E+00
 0.8019736594154E+00
 0.8675511239436E+00
 0.9309593140390E+00
 0.9916252130969E+00
 0.1048655603904E+01
 0.1100877138361E+01
 0.1146987168097E+01
 0.1185719482255E+01
 0.1215947986327E+01
 0.1236617423204E+01
 0.1246398064263E+01
 0.1243288429622E+01
 0.1224920146216E+01
 0.1189543914048E+01
 0.1137744952470E+01
 0.1076767001062E+01
 0.1033233684909E+01
 0.1088413437276E+01
 0.1424916648335E+01
 0.2220343841606E+01
 0.3282893395507E+01
 0.1714952563751E+00
 0.1793073004412E+00
 0.1724010262583E+00
 0.1482975221302E+00
 0.1152225678870E+00
 0.7791851903656E-01
 0.3778415503048E-01
 0.5741609635256E-02
 0.5013952141002E-01
 0.9753460181259E-01
 0.1474004441593E+00
 0.1998425194086E+00
 0.2550294059498E+00
 0.3131765255544E+00
 0.3745290081814E+00
 0.4393251255256E+00
 0.5076894349355E+00
 0.5794140292109E+00
 0.6537481324327E+00
 0.7294735646276E+00
 0.8053259415480E+00
 0.8803950448818E+00
 0.9540249046096E+00
 0.1025417476758E+01
 0.1093456549413E+01
 0.1156769716850E+01
 0.1213868089804E+01
 0.1263302247755E+01
 0.1303795498496E+01
 0.1334193897303E+01
 0.1353017652424E+01
 0.1357861772339E+01
 0.1345520036982E+01
 0.1312619310298E+01
 0.1256515588379E+01
 0.1177926114878E+01
 0.1089937163438E+01
 0.1052881795411E+01
 0.1273797051899E+01
 0.2103230630994E+01
 0.3436847007888E+01
 0.2350462000253E+00
 0.2492369173080E+00
 0.2394688636850E+00
 0.2096181911748E+00
 0.1724643986112E+00
 0.1323071545171E+00
 0.8975445774170E-01
 0.4494281003030E-01
 0.3027796652920E-02
 0.5172442937946E-01
 0.1036475886992E+00
 0.1582351556533E+00
 0.2157041465292E+00
 0.2763382704217E+00
 0.3404799146623E+00
 0.4085181885891E+00
 0.4808184003385E+00
 0.5575001511665E+00
 0.6381130207792E+00
 0.7215764295406E+00
 0.8065745812859E+00
 0.8920010172610E+00
 0.9769101281751E+00
 0.1060193883773E+01
 0.1140484521311E+01
 0.1216236602403E+01
 0.1285823205640E+01
 0.1347644113673E+01
 0.1400289789950E+01
 0.1442570654523E+01
 0.1473017631996E+01
 0.1489106205874E+01
 0.1487246613140E+01
 0.1463095105034E+01
 0.1411524003659E+01
 0.1327572669653E+01
 0.1210576657236E+01
 0.1087503755077E+01
 0.1135213596744E+01
 0.1918260817961E+01
 0.3629595822558E+01
 0.3057494258382E+00
 0.3259218374205E+00
 0.3089224171840E+00
 0.2715647412370E+00
 0.2304840465315E+00
 0.1876248980004E+00
 0.1427607307271E+00
 0.9584416035612E-01
 0.4675677474533E-01
 0.4867141442528E-02
 0.5859292345686E-01
 0.1151897939541E+00
 0.1747690475249E+00
 0.2376722009342E+00
 0.3043261893038E+00
 0.3752554338262E+00
 0.4510675383513E+00
 0.5322876376217E+00
 0.6189452578738E+00
 0.7102924354382E+00
 0.8050457751434E+00
 0.9018198777213E+00
 0.9992040152729E+00
 0.1095643523461E+01
 0.1189485468906E+01
 0.1279061872327E+01
 0.1362692243378E+01
 0.1438681002152E+01
 0.1505479378305E+01
 0.1561869363719E+01
 0.1606531317299E+01
 0.1637174463377E+01
 0.1650456553806E+01
 0.1642047994060E+01
 0.1605735406176E+01
 0.1532611815478E+01
 0.1411821391733E+01
 0.1233827373133E+01
 0.1083502435658E+01
 0.1647130625718E+01
 0.3868699553062E+01
 0.3874346171237E+00
 0.4101355235080E+00
 0.3785908400153E+00
 0.3333219706556E+00
 0.2891565338876E+00
 0.2437428895703E+00
 0.1967003746188E+00
 0.1477872244807E+00
 0.9679103660397E-01
 0.4353021152572E-01
 0.1223849891092E-01
 0.7068781220903E-01
 0.1321920509378E+00
 0.1971281263044E+00
 0.2659900994756E+00
 0.3394101299775E+00
 0.4182027379080E+00
 0.5033335453517E+00
 0.5955382585503E+00
 0.6947541314419E+00
 0.7999204647445E+00
 0.9092219609183E+00
 0.1020466190272E+01
 0.1131440017812E+01
 0.1240174914122E+01
 0.1344968467906E+01
 0.1444222489971E+01
 0.1536252934564E+01
 0.1619346756494E+01
 0.1692137303466E+01
 0.1753489002334E+01
 0.1801757752354E+01
 0.1834704949002E+01
 0.1849226294379E+01
 0.1840181691196E+01
 0.1797748500238E+01
 0.1706864394234E+01
 0.1537650553772E+01
 0.1245894217181E+01
 0.1342796702606E+01
 0.4152769930651E+01
 0.4881561786088E+00
 0.4995874493016E+00
 0.4441374391386E+00
 0.3949581633708E+00
 0.3483150533069E+00
 0.3005655089518E+00
 0.2515250077739E+00
 0.2007151422199E+00
 0.1479177715611E+00
 0.9290882349344E-01
 0.3545557982504E-01
 0.2472169131314E-01
 0.8795568707176E-01
 0.1546759662136E+00
 0.2254225585685E+00
 0.3009008394048E+00
 0.3820621975117E+00
 0.4702398049790E+00
 0.5670837805242E+00
 0.6738625702242E+00
 0.7901815713359E+00
 0.9134932910112E+00
 0.1040246777127E+01
 0.1167262154809E+01
 0.1292249811283E+01
 0.1413619205353E+01
 0.1530050358842E+01
 0.1640069534947E+01
 0.1741822686727E+01
 0.1833435600255E+01
 0.1913665072446E+01
 0.1982050456910E+01
 0.2038575869031E+01
 0.2082845484917E+01
 0.2112660379077E+01
 0.2123693568126E+01
 0.2100945388278E+01
 0.2032466931684E+01
 0.1786094275020E+01
 0.1383675972450E+01
 0.4458893170943E+01
 0.6289152652740E+00
 0.5734393569719E+00
 0.5049068851397E+00
 0.4570406789755E+00
 0.4076329833435E+00
 0.3581148854791E+00
 0.3071747030129E+00
 0.2545978933366E+00
 0.2001014982718E+00
 0.1434613379252E+00
 0.8442640842537E-01
 0.2270552098591E-01
 0.4205739205595E-01
 0.1103066590945E+00
 0.1826053751907E+00
 0.2596940193429E+00
 0.3425816303021E+00
 0.4327587547708E+00
 0.5326863648217E+00
 0.6461481337523E+00
 0.7745369684096E+00
 0.9138426192287E+00
 0.1058120585627E+01
 0.1202824654524E+01
 0.1345404632291E+01
 0.1484620923847E+01
 0.1619688713595E+01
 0.1749638306488E+01
 0.1872762215084E+01
 0.1986044007491E+01
 0.2086794104019E+01
 0.2176657444284E+01
 0.2259738821571E+01
 0.2339129475624E+01
 0.2418302546498E+01
 0.2500711063223E+01
 0.2596277667851E+01
 0.2692122996733E+01
 0.2889770206174E+01
 0.2577012020391E+01
 0.5153220411799E+01
 0.4509759167735E+00
 0.5028269488042E+00
 0.5616562352727E+00
 0.6190277149130E+00
 0.6704646883019E+00
 0.7136319585715E+00
 0.7474201091515E+00
 0.7714067882370E+00
 0.7855549362740E+00
 0.7900697667154E+00
 0.7853677170147E+00
 0.7716860996455E+00
 0.7495753689234E+00
 0.7201564596440E+00
 0.6841227941506E+00
 0.6416575536545E+00
 0.5927316721957E+00
 0.5374124031630E+00
 0.4761934340180E+00
 0.4056864581904E+00
 0.4377824686487E+00
 0.4960617449081E+00
 0.5599981278161E+00
 0.6221718471194E+00
 0.6781513783877E+00
 0.7256045567202E+00
 0.7634147834141E+00
 0.7911473188654E+00
 0.8087465217939E+00
 0.8164071382380E+00
 0.8145040973409E+00
 0.8032725304472E+00
 0.7832540085073E+00
 0.7554185123174E+00
 0.7203635043579E+00
 0.6783244664983E+00
 0.6292255610802E+00
 0.5729650791038E+00
 0.5073860594827E+00
 0.4311661538400E+00
 0.4246249662936E+00
 0.4902027792722E+00
 0.5596987537068E+00
 0.6267333072448E+00
 0.6872102588183E+00
 0.7388670014224E+00
 0.7806086554525E+00
 0.8120058093747E+00
 0.8330042115323E+00
 0.8437878743153E+00
 0.8446925835332E+00
 0.8359893716422E+00
 0.8181934355385E+00
 0.7921195448957E+00
 0.7582844828630E+00
 0.7168354230274E+00
 0.6675569912560E+00
 0.6096555032060E+00
 0.5414872927051E+00
 0.4655583629309E+00
 0.4117170582052E+00
 0.4850613775336E+00
 0.5605327014640E+00
 0.6325696006304E+00
 0.6975277668175E+00
 0.7533177304814E+00
 0.7989087427649E+00
 0.8339012990679E+00
 0.8582556592957E+00
 0.8721533161062E+00
 0.8759123748101E+00
 0.8698304707027E+00
 0.8543899652065E+00
 0.8302667760872E+00
 0.7978622446946E+00
 0.7572003475709E+00
 0.7078557317927E+00
 0.6490303832382E+00
 0.5802306073235E+00
 0.5043468009557E+00
 0.3991188722945E+00
 0.4806115763462E+00
 0.5623510368071E+00
 0.6395312645473E+00
 0.7089771276197E+00
 0.7688429527329E+00
 0.8182114043156E+00
 0.8567395097993E+00
 0.8844174932163E+00
 0.9014372243736E+00
 0.9081119337013E+00
 0.9047569347720E+00
 0.8918164751077E+00
 0.8698373204494E+00
 0.8390993894491E+00
 0.7995015270393E+00
 0.7505652060373E+00
 0.6917267784250E+00
 0.6229880941421E+00
 0.5469503144660E+00
 0.3868713561570E+00
 0.4768177430552E+00
 0.5650487108272E+00
 0.6474808370374E+00
 0.7214244872968E+00
 0.7853189983193E+00
 0.8384020455614E+00
 0.8804147476535E+00
 0.9113944689979E+00
 0.9315559009952E+00
 0.9412170715246E+00
 0.9407040554669E+00
 0.9304201119688E+00
 0.9107972366890E+00
 0.8820048898047E+00
 0.8438641118000E+00
 0.7959217416558E+00
 0.7377618678847E+00
 0.6695563489819E+00
 0.5933797429782E+00
 0.3750086227645E+00
 0.4736446090480E+00
 0.5685312089953E+00
 0.6562915304616E+00
 0.7347344909368E+00
 0.8026145423861E+00
 0.8593562799271E+00
 0.9048100941285E+00
 0.9390775615536E+00
 0.9624080663691E+00
 0.9751324708832E+00
 0.9775838700284E+00
 0.9701263000036E+00
 0.9530952478781E+00
 0.9265738342016E+00
 0.8903394104879E+00
 0.8439622521557E+00
 0.7870860248580E+00
 0.7198592056600E+00
 0.6438022012797E+00
 0.3635634093732E+00
 0.4710561313617E+00
 0.5727089306684E+00
 0.6658411205339E+00
 0.7487716517526E+00
 0.8205927588524E+00
 0.8809410638686E+00
 0.9297975966589E+00
 0.9673439278515E+00
 0.9938752938289E+00
 0.1009742906945E+01
 0.1015286675582E+01
 0.1010837245082E+01
 0.9966541070337E+00
 0.9727562781065E+00
 0.9388908688699E+00
 0.8946327128781E+00
 0.8396169922372E+00
 0.7738712452116E+00
 0.6983929147467E+00
 0.3525685344776E+00
 0.4690160968945E+00
 0.5774943371863E+00
 0.6760095824926E+00
 0.7633998795318E+00
 0.8391125226930E+00
 0.9030157516345E+00
 0.9552388985650E+00
 0.9960574272435E+00
 0.1025822799899E+01
 0.1044914124675E+01
 0.1053680933973E+01
 0.1052429058939E+01
 0.1041361178589E+01
 0.1020448665877E+01
 0.9894130832714E+00
 0.9478150859709E+00
 0.8952405488999E+00
 0.8315526820110E+00
 0.7572790167619E+00
 0.3420572555533E+00
 0.4674882343185E+00
 0.5828009069151E+00
 0.6866778473291E+00
 0.7784822452540E+00
 0.8580290486728E+00
 0.9254330601882E+00
 0.9809861157905E+00
 0.1025069470652E+01
 0.1058100333992E+01
 0.1080493368964E+01
 0.1092612697199E+01
 0.1094749025773E+01
 0.1087064770078E+01
 0.1069496154655E+01
 0.1041741412037E+01
 0.1003335206738E+01
 0.9537942888804E+00
 0.8928069629711E+00
 0.8204895114859E+00
 0.3320631212241E+00
 0.4664362602629E+00
 0.5885426888365E+00
 0.6977273184231E+00
 0.7938809740825E+00
 0.8771944790874E+00
 0.9480399944539E+00
 0.1006882874955E+01
 0.1054220079272E+01
 0.1090543158983E+01
 0.1116309939968E+01
 0.1131905335004E+01
 0.1137614725525E+01
 0.1133574441968E+01
 0.1119695905100E+01
 0.1095656970600E+01
 0.1060961787163E+01
 0.1015053002925E+01
 0.9574518206618E+00
 0.8879235177179E+00
 0.3226196211673E+00
 0.4658238994283E+00
 0.5946342057677E+00
 0.7090398164467E+00
 0.8094577060854E+00
 0.8964585495303E+00
 0.9706788270083E+00
 0.1032765460987E+01
 0.1083339085429E+01
 0.1122973168314E+01
 0.1152176003269E+01
 0.1171360026019E+01
 0.1180814759641E+01
 0.1180662817082E+01
 0.1170800207111E+01
 0.1150888972881E+01
 0.1120404019061E+01
 0.1078718355103E+01
 0.1025204473607E+01
 0.9593363206762E+00
 0.3137597507027E+00
 0.4656149280644E+00
 0.6009905704452E+00
 0.7204978114004E+00
 0.8250739790052E+00
 0.9156693894757E+00
 0.9931881804058E+00
 0.1058464093319E+01
 0.1112247505523E+01
 0.1155200253535E+01
 0.1187887870038E+01
 0.1210757104246E+01
 0.1224110579705E+01
 0.1228068217084E+01
 0.1222519550835E+01
 0.1207116778065E+01
 0.1181310591211E+01
 0.1144414170678E+01
 0.1095674927723E+01
 0.1034331732833E+01
 0.3055155545451E+00
 0.4657732600979E+00
 0.6075277551129E+00
 0.7319848545286E+00
 0.8405918847156E+00
 0.9346744457327E+00
 0.1015404205962E+01
 0.1083804309081E+01
 0.1140759066041E+01
 0.1187023925231E+01
 0.1223227719420E+01
 0.1249858052522E+01
 0.1267239017645E+01
 0.1275497794563E+01
 0.1274525991350E+01
 0.1263972667883E+01
 0.1243271161435E+01
 0.1211686645306E+01
 0.1168365709456E+01
 0.1112361958711E+01
 0.2979176828971E+00
 0.4662630827535E+00
 0.6141629843578E+00
 0.7433861687951E+00
 0.8558748764551E+00
 0.9533215324490E+00
 0.1037161877127E+01
 0.1108608477754E+01
 0.1168681914717E+01
 0.1218235218608E+01
 0.1257965746372E+01
 0.1288408040408E+01
 0.1309915379898E+01
 0.1322631190382E+01
 0.1326457160780E+01
 0.1321045927809E+01
 0.1305820514899E+01
 0.1280009188189E+01
 0.1242678669099E+01
 0.1192737460151E+01
 0.2909949890119E+00
 0.4670490437036E+00
 0.6208152273611E+00
 0.7545893615750E+00
 0.8707886964972E+00
 0.9714599905577E+00
 0.1058296391047E+01
 0.1132697446406E+01
 0.1195820515907E+01
 0.1248618868527E+01
 0.1291862683371E+01
 0.1326138918916E+01
 0.1351837041626E+01
 0.1369124762127E+01
 0.1377921107416E+01
 0.1377888378842E+01
 0.1368445280443E+01
 0.1348791588921E+01
 0.1317928940187E+01
 0.1274648625141E+01
 0.2847741765017E+00
 0.4680964842256E+00
 0.6274057698381E+00
 0.7654852342211E+00
 0.8852024021084E+00
 0.9889419419883E+00
 0.1078644669426E+01
 0.1155892307227E+01
 0.1221977714408E+01
 0.1277955719636E+01
 0.1324672633929E+01
 0.1362772593484E+01
 0.1392687480140E+01
 0.1414616367711E+01
 0.1428501953782E+01
 0.1434021232044E+01
 0.1430592796860E+01
 0.1417392669108E+01
 0.1393364820455E+01
 0.1357198070303E+01
 0.2792795166995E+00
 0.4693717145360E+00
 0.6338588495505E+00
 0.7759686645681E+00
 0.8989894647813E+00
 0.1005623615771E+01
 0.1098046937148E+01
 0.1178016262938E+01
 0.1246956933948E+01
 0.1306025321818E+01
 0.1356146149622E+01
 0.1398024697451E+01
 0.1432140675351E+01
 0.1458730633833E+01
 0.1477766258287E+01
 0.1488943002095E+01
 0.1491681539373E+01
 0.1485135147081E+01
 0.1468190743074E+01
 0.1439437510082E+01
 0.2745326423416E+00
 0.4708423223271E+00
 0.6401023336260E+00
 0.7859395341239E+00
 0.9120289131561E+00
 0.1021366717781E+01
 0.1116348351253E+01
 0.1198896560519E+01
 0.1270564474433E+01
 0.1332608665231E+01
 0.1386033494758E+01
 0.1431608504675E+01
 0.1469865812932E+01
 0.1501084626781E+01
 0.1525269933937E+01
 0.1542138179899E+01
 0.1551112473767E+01
 0.1551321336153E+01
 0.1541590120327E+01
 0.1520402019084E+01
 0.2705524172105E+00
 0.4724775070530E+00
 0.6460684236201E+00
 0.7953036829141E+00
 0.9242065020632E+00
 0.1036039826553E+01
 0.1133400661332E+01
 0.1218366470006E+01
 0.1292611876905E+01
 0.1357491013396E+01
 0.1414088045282E+01
 0.1463239015770E+01
 0.1505532207356E+01
 0.1541293804965E+01
 0.1570565521426E+01
 0.1593086303059E+01
 0.1608280688157E+01
 0.1615248459154E+01
 0.1612745924234E+01
 0.1599138291066E+01
 0.2673548781655E+00
 0.4742484313846E+00
 0.6516943704469E+00
 0.8039738687552E+00
 0.9354158816769E+00
 0.1049519787052E+01
 0.1149063870148E+01
 0.1236267272101E+01
 0.1312918312558E+01
 0.1380464781269E+01
 0.1440069757546E+01
 0.1492637139568E+01
 0.1538814344364E+01
 0.1578978110564E+01
 0.1613209594497E+01
 0.1641271062084E+01
 0.1662586745126E+01
 0.1676222845872E+01
 0.1680858162989E+01
 0.1674726336319E+01
 0.2649532391901E+00
 0.4761285813645E+00
 0.6569231827874E+00
 0.8118707102071E+00
 0.9455597433316E+00
 0.1061693076361E+01
 0.1163207864887E+01
 0.1252450219738E+01
 0.1331312953848E+01
 0.1401332407269E+01
 0.1463748644455E+01
 0.1519533891801E+01
 0.1569396941014E+01
 0.1613768058248E+01
 0.1652770087561E+01
 0.1686189132580E+01
 0.1713447320517E+01
 0.1733572681540E+01
 0.1745158587044E+01
 0.1746295472586E+01
 0.2633579426018E+00
 0.4780941270736E+00
 0.6617043131367E+00
 0.8189235929302E+00
 0.9545509185350E+00
 0.1072457114498E+01
 0.1175713987920E+01
 0.1266778436837E+01
 0.1347637283712E+01
 0.1419909166372E+01
 0.1484908194593E+01
 0.1543674531026E+01
 0.1596979920804E+01
 0.1645310685024E+01
 0.1688833364531E+01
 0.1727358495629E+01
 0.1760304866202E+01
 0.1786659009078E+01
 0.1804923271164E+01
 0.1813037123236E+01
 0.2625767396435E+00
 0.4801242758846E+00
 0.6659943060873E+00
 0.8250715194390E+00
 0.9623134074752E+00
 0.1081721492582E+01
 0.1186476514284E+01
 0.1279128715265E+01
 0.1361747296614E+01
 0.1436025869210E+01
 0.1503348668350E+01
 0.1564822551282E+01
 0.1621283204071E+01
 0.1673275238143E+01
 0.1721010882480E+01
 0.1764326095747E+01
 0.1802636150401E+01
 0.1834884861280E+01
 0.1859481728711E+01
 0.1874213430673E+01
 0.2626147819597E+00
 0.4822016112991E+00
 0.6697573953194E+00
 0.8302638847031E+00
 0.9687833158503E+00
 0.1089409092860E+01
 0.1195404004988E+01
 0.1289393172830E+01
 0.1373515547148E+01
 0.1449531395015E+01
 0.1518890209542E+01
 0.1582763458181E+01
 0.1642051226219E+01
 0.1697358500218E+01
 0.1748945347148E+01
 0.1796674755330E+01
 0.1839959675210E+01
 0.1877702557217E+01
 0.1908222691747E+01
 0.1929159511800E+01
 0.2634747084247E+00
 0.4843124113598E+00
 0.6729660376274E+00
 0.8344611621773E+00
 0.9739096808616E+00
 0.1095457076605E+01
 0.1202420506172E+01
 0.1297480735526E+01
 0.1382833002446E+01
 0.1460295007699E+01
 0.1531375714711E+01
 0.1597308262148E+01
 0.1659057108124E+01
 0.1717289670779E+01
 0.1772316288758E+01
 0.1824029318863E+01
 0.1871842044519E+01
 0.1914619531973E+01
 0.1950598039489E+01
 0.1977283367173E+01
 0.2651567167146E+00
 0.4864469415724E+00
 0.6756013738194E+00
 0.8376354866865E+00
 0.9776551689224E+00
 0.1099817716986E+01
 0.1207466564239E+01
 0.1303318406619E+01
 0.1389610653794E+01
 0.1468208404485E+01
 0.1540673404902E+01
 0.1608296629003E+01
 0.1672106414338E+01
 0.1732834739421E+01
 0.1790845008456E+01
 0.1846062028841E+01
 0.1897903413181E+01
 0.1945203129073E+01
 0.1986125659957E+01
 0.2018064914219E+01
 0.2676586164494E+00
 0.4885997187725E+00
 0.6776536093802E+00
 0.8397711251274E+00
 0.9799966326360E+00
 0.1102459058766E+01
 0.1210500031217E+01
 0.1306852288505E+01
 0.1393780846015E+01
 0.1473187450942E+01
 0.1546679052598E+01
 0.1615599641059E+01
 0.1681040452818E+01
 0.1743800306908E+01
 0.1804298865011E+01
 0.1862497152160E+01
 0.1917822168516E+01
 0.1969084718628E+01
 0.2014391824584E+01
 0.2051054868201E+01
 0.2709758726775E+00
 0.4907697436423E+00
 0.6791223113254E+00
 0.8408648295099E+00
 0.9809255178448E+00
 0.1103365388708E+01
 0.1211496634807E+01
 0.1308048321574E+01
 0.1395298280117E+01
 0.1475173553348E+01
 0.1549317816848E+01
 0.1619122128149E+01
 0.1685739083014E+01
 0.1750036827643E+01
 0.1812494882250E+01
 0.1873114865868E+01
 0.1931338947135E+01
 0.1985963441636E+01
 0.2035053627219E+01
 0.2075874248677E+01
 0.2751016413079E+00
 0.4929606962170E+00
 0.6800166157872E+00
 0.8409260686934E+00
 0.9804481147545E+00
 0.1102537503775E+01
 0.1210450289922E+01
 0.1306892705108E+01
 0.1394140643378E+01
 0.1474134617056E+01
 0.1548545639885E+01
 0.1618804534683E+01
 0.1686123013403E+01
 0.1751441265748E+01
 0.1815302667816E+01
 0.1877754376030E+01
 0.1938259974529E+01
 0.1995609725786E+01
 0.2047841971753E+01
 0.2092215235694E+01
 0.2800268190159E+00
 0.4951810955797E+00
 0.6803553543600E+00
 0.8399771508206E+00
 0.9785856627822E+00
 0.1099992778304E+01
 0.1207373140879E+01
 0.1303391975219E+01
 0.1390308827258E+01
 0.1470065541743E+01
 0.1544350161631E+01
 0.1614624300014E+01
 0.1682155593619E+01
 0.1747959190816E+01
 0.1812646669392E+01
 0.1876316249654E+01
 0.1938459593694E+01
 0.1997868429586E+01
 0.2052565342111E+01
 0.2099843833511E+01
 0.2857401172165E+00
 0.4974444164119E+00
 0.6801671057701E+00
 0.8380532519852E+00
 0.9753743217196E+00
 0.1095765032404E+01
 0.1202295324071E+01
 0.1297572715359E+01
 0.1383826690079E+01
 0.1462988193417E+01
 0.1536751093864E+01
 0.1606596724950E+01
 0.1673844125014E+01
 0.1739586380226E+01
 0.1804507838292E+01
 0.1868764001696E+01
 0.1931881857665E+01
 0.1992661040296E+01
 0.2049113675719E+01
 0.2098603540943E+01
 0.2922281633772E+00
 0.4997691544282E+00
 0.6794901918276E+00
 0.8352023830371E+00
 0.9708650320619E+00
 0.1089904206806E+01
 0.1195264443136E+01
 0.1289480878212E+01
 0.1374740319212E+01
 0.1452950772768E+01
 0.1525799956206E+01
 0.1594775255422E+01
 0.1661240705466E+01
 0.1726370026585E+01
 0.1790924798067E+01
 0.1855124957205E+01
 0.1918541221169E+01
 0.1979986356631E+01
 0.2037459646312E+01
 0.2088415854983E+01
 0.2994756060249E+00
 0.5021788200058E+00
 0.6783726581924E+00
 0.8314853594983E+00
 0.9651233045946E+00
 0.1082475857971E+01
 0.1186344764285E+01
 0.1279180728992E+01
 0.1363116782969E+01
 0.1440026519305E+01
 0.1511579057425E+01
 0.1579251077812E+01
 0.1644442633725E+01
 0.1708409788030E+01
 0.1771994791618E+01
 0.1835490444360E+01
 0.1898522276422E+01
 0.1959920480003E+01
 0.2017655659302E+01
 0.2069268770880E+01
 0.3074651591424E+00
 0.5047018240159E+00
 0.6768723479514E+00
 0.8269758982700E+00
 0.9582289902860E+00
 0.1073560459589E+01
 0.1175616132115E+01
 0.1266753431991E+01
 0.1349042376682E+01
 0.1424311680847E+01
 0.1494199534572E+01
 0.1560151724253E+01
 0.1623592225994E+01
 0.1685858944365E+01
 0.1747875016051E+01
 0.1810015430451E+01
 0.1871977835982E+01
 0.1932616541489E+01
 0.1989836196878E+01
 0.2041216775158E+01
 0.3161773497752E+00
 0.5073711987774E+00
 0.6750572921444E+00
 0.8217611031587E+00
 0.9502760326965E+00
 0.1063252436176E+01
 0.1163172598732E+01
 0.1252295386993E+01
 0.1332620442644E+01
 0.1405922750392E+01
 0.1473798341387E+01
 0.1537638303956E+01
 0.1598875449760E+01
 0.1658926034441E+01
 0.1718785712512E+01
 0.1778918969271E+01
 0.1839124051580E+01
 0.1898301277341E+01
 0.1954229809309E+01
 0.2004413438324E+01
 0.3255895005704E+00
 0.5102239456430E+00
 0.6730072912513E+00
 0.8159427812974E+00
 0.9413721437108E+00
 0.1051658575536E+01
 0.1149120811722E+01
 0.1235916498598E+01
 0.1313968913298E+01
 0.1384992887361E+01
 0.1450534069629E+01
 0.1511901076569E+01
 0.1570517980557E+01
 0.1627875253314E+01
 0.1685018284488E+01
 0.1742488848036E+01
 0.1800232501921E+01
 0.1857259597159E+01
 0.1911164412542E+01
 0.1959148767482E+01
 0.3356719258754E+00
 0.5133009417223E+00
 0.6708182645591E+00
 0.8096411621808E+00
 0.9316371848750E+00
 0.1038895208119E+01
 0.1133578254644E+01
 0.1217739058400E+01
 0.1293217682077E+01
 0.1361667615739E+01
 0.1424581389138E+01
 0.1483153607452E+01
 0.1538778669973E+01
 0.1593020309447E+01
 0.1646944646750E+01
 0.1701112176554E+01
 0.1755619167833E+01
 0.1809792958495E+01
 0.1861047472986E+01
 0.1905915359744E+01
 0.3463775693794E+00
 0.5166427622476E+00
 0.6686242737463E+00
 0.8029982261590E+00
 0.9211967089275E+00
 0.1025084906733E+01
 0.1116671415794E+01
 0.1197897009641E+01
 0.1270509005484E+01
 0.1336097373492E+01
 0.1396124022669E+01
 0.1451626846930E+01
 0.1503940967322E+01
 0.1554712785865E+01
 0.1605002386334E+01
 0.1655327056890E+01
 0.1705752442228E+01
 0.1756052793326E+01
 0.1804252583967E+01
 0.1845547411993E+01
 0.3575610567145E+00
 0.5203813604054E+00
 0.6666449766525E+00
 0.7961616179971E+00
 0.9101703241377E+00
 0.1010354131138E+01
 0.1098536707752E+01
 0.1176531223218E+01
 0.1245999872695E+01
 0.1308446171617E+01
 0.1365317189641E+01
 0.1417570807701E+01
 0.1466326341945E+01
 0.1513300072887E+01
 0.1559672180176E+01
 0.1605779079760E+01
 0.1651500474353E+01
 0.1696420864568E+01
 0.1739995195233E+01
 0.1780683798288E+01
 0.1176261750216E+01
 0.4597282391223E+00
 0.9664686543783E-01
 0.3691353331575E-02
 0.5822359499315E-01
 0.9558892353734E-01
 0.1223990707780E+00
 0.1413168868661E+00
 0.1530116343005E+00
 0.1576315506704E+00
 0.1545995378113E+00
 0.1425834997149E+00
 0.1213132798479E+00
 0.9374490193171E-01
 0.6191591697784E-01
 0.2818532874143E-01
 0.7847769636432E-02
 0.3861486465388E-01
 0.7125932793417E-01
 0.1094113041373E+00
 0.1209781007220E+01
 0.8645212655636E+00
 0.3419287027005E+00
 0.1298897434649E+00
 0.3092109881633E-01
 0.2932282371841E-01
 0.6896873778550E-01
 0.9633492382308E-01
 0.1145715669986E+00
 0.1248164674365E+00
 0.1272726462136E+00
 0.1228701934007E+00
 0.1105874977750E+00
 0.8997460675560E-01
 0.6293032085852E-01
 0.3244867825198E-01
 0.4481581499302E-02
 0.3003486557145E-01
 0.6081671486255E-01
 0.9183707578835E-01
 0.1113223976695E+01
 0.9801388394987E+00
 0.5746120221094E+00
 0.2893428956169E+00
 0.1389517770310E+00
 0.5115119280030E-01
 0.5724311932240E-02
 0.4406159757916E-01
 0.7048601858737E-01
 0.8766264838560E-01
 0.9689035065006E-01
 0.9958084001560E-01
 0.9461656743206E-01
 0.8041244880100E-01
 0.5872001103144E-01
 0.3253151249047E-01
 0.5716746365996E-02
 0.2325045011506E-01
 0.5004425584893E-01
 0.7462785246036E-01
 0.1016955049611E+01
 0.9928566481573E+00
 0.7113531044744E+00
 0.4415031533575E+00
 0.2575833870898E+00
 0.1421941691445E+00
 0.6679203604925E-01
 0.1533641192007E-01
 0.2071418419965E-01
 0.4586756052977E-01
 0.6237330105702E-01
 0.7208345191890E-01
 0.7400640811358E-01
 0.6605921937685E-01
 0.4994568483245E-01
 0.2872076871088E-01
 0.5738189375804E-02
 0.1823011577390E-01
 0.4032369551876E-01
 0.5918932850451E-01
 0.9326073586168E+00
 0.9645930774159E+00
 0.7810013064724E+00
 0.5554804338539E+00
 0.3697649971245E+00
 0.2369967696376E+00
 0.1450623085844E+00
 0.8057531791331E-01
 0.3430474737417E-01
 0.1113572974171E-02
 0.2347742052759E-01
 0.4021047418613E-01
 0.4891582480168E-01
 0.4729948909868E-01
 0.3700823627278E-01
 0.2122356886624E-01
 0.3101983545732E-02
 0.1552527907072E-01
 0.3260081844620E-01
 0.4622258115676E-01
 0.8614853777777E+00
 0.9202124238688E+00
 0.8082947550224E+00
 0.6321365380596E+00
 0.4628893089936E+00
 0.3267973010997E+00
 0.2245874037845E+00
 0.1493093018573E+00
 0.9344814173564E-01
 0.5139414837523E-01
 0.1982601722215E-01
 0.4410916823901E-02
 0.1951220507454E-01
 0.2432138740476E-01
 0.2008580272646E-01
 0.1011142310895E-01
 0.2664028104859E-02
 0.1574860949045E-01
 0.2760676609448E-01
 0.3628635799975E-01
 0.8019876418851E+00
 0.8710218433898E+00
 0.8098428832818E+00
 0.6789088309183E+00
 0.5343256918829E+00
 0.4054016214688E+00
 0.3004844870068E+00
 0.2184909630748E+00
 0.1549915635282E+00
 0.1054623948920E+00
 0.6678388342414E-01
 0.3642514840965E-01
 0.1452696618726E-01
 0.3889720512902E-02
 0.2541792741952E-02
 0.5345115408043E-02
 0.1194024211595E-01
 0.1943350861158E-01
 0.2597069118396E-01
 0.2988286693703E-01
 0.7521102760210E+00
 0.8223796643400E+00
 0.7963177483268E+00
 0.7036569354231E+00
 0.5859051629487E+00
 0.4705045099174E+00
 0.3692708473024E+00
 0.2852158360691E+00
 0.2169469167924E+00
 0.1616196926690E+00
 0.1168414860422E+00
 0.8036144509224E-01
 0.5211491961956E-01
 0.3445676054015E-01
 0.2626707305679E-01
 0.2413044685219E-01
 0.2511326393662E-01
 0.2699644332780E-01
 0.2821883449299E-01
 0.2746610942645E-01
 0.7099960231370E+00
 0.7767922399619E+00
 0.7745467231570E+00
 0.7129665835600E+00
 0.6210639203845E+00
 0.5223041007190E+00
 0.4292963762411E+00
 0.3473730859437E+00
 0.2774981902250E+00
 0.2185369128245E+00
 0.1690842365753E+00
 0.1274282963466E+00
 0.9352831137507E-01
 0.6979606982263E-01
 0.5550350275013E-01
 0.4736954697938E-01
 0.4255425127613E-01
 0.3883579753651E-01
 0.3477283295271E-01
 0.2939233136483E-01
 0.6740708098083E+00
 0.7353156543184E+00
 0.7488964757886E+00
 0.7119528904690E+00
 0.6434664760607E+00
 0.5623065473506E+00
 0.4803314587206E+00
 0.4038317480716E+00
 0.3353048755772E+00
 0.2750340155100E+00
 0.2226137487204E+00
 0.1769989539473E+00
 0.1383138672392E+00
 0.1090762489960E+00
 0.8902248648060E-01
 0.7509565361905E-01
 0.6460359851679E-01
 0.5535193914367E-01
 0.4600861280469E-01
 0.3591827460714E-01
 0.6430434207570E+00
 0.6982466283868E+00
 0.7221445925527E+00
 0.7044526012894E+00
 0.6564495140772E+00
 0.5925420785109E+00
 0.5230495820603E+00
 0.4542993244581E+00
 0.3895957343986E+00
 0.3302303087317E+00
 0.2766480653820E+00
 0.2284746170964E+00
 0.1860782408514E+00
 0.1521071769682E+00
 0.1268157770063E+00
 0.1074629715549E+00
 0.9154476367772E-01
 0.7690400209006E-01
 0.6228336826313E-01
 0.4727871426566E-01
 0.6158696526273E+00
 0.6654822854214E+00
 0.6960273303240E+00
 0.6932840726006E+00
 0.6628394404837E+00
 0.6151249588178E+00
 0.5586057621258E+00
 0.4990831236941E+00
 0.4401134131429E+00
 0.3835934873195E+00
 0.3305965911076E+00
 0.2813360013143E+00
 0.2364402580662E+00
 0.1986778476744E+00
 0.1688340454381E+00
 0.1445582680948E+00
 0.1235742588772E+00
 0.1037704039731E+00
 0.8390645404243E-01
 0.6370350370684E-01
 0.5917108577151E+00
 0.6367153868865E+00
 0.6715887875780E+00
 0.6804795164696E+00
 0.6649323655608E+00
 0.6320283608602E+00
 0.5883469636839E+00
 0.5388610711949E+00
 0.4869954202591E+00
 0.4349134796938E+00
 0.3840838596619E+00
 0.3351786416177E+00
 0.2890532932102E+00
 0.2485519713457E+00
 0.2149587238503E+00
 0.1863658017903E+00
 0.1607668177165E+00
 0.1361125103001E+00
 0.1111047415905E+00
 0.8538298855672E-01
 0.5698963048283E+00
 0.6115433618258E+00
 0.6494078513258E+00
 0.6674707377290E+00
 0.6645372651122E+00
 0.6449825368071E+00
 0.6136300527705E+00
 0.5744997718137E+00
 0.5306446459591E+00
 0.4842374926174E+00
 0.4369338316340E+00
 0.3897226244996E+00
 0.3436207915884E+00
 0.3014754117198E+00
 0.2649944910927E+00
 0.2327429723842E+00
 0.2030366029359E+00
 0.1739302357007E+00
 0.1439911461725E+00
 0.1124540177565E+00
 0.5498915275649E+00
 0.5895303103005E+00
 0.6297488691034E+00
 0.6552318776513E+00
 0.6630384229377E+00
 0.6554393372202E+00
 0.6357148781472E+00
 0.6069230889353E+00
 0.5716147337543E+00
 0.5317929303900E+00
 0.4891313059079E+00
 0.4448019614880E+00
 0.3999020062603E+00
 0.3571874671849E+00
 0.3186756016744E+00
 0.2834100051206E+00
 0.2500999131116E+00
 0.2170027743821E+00
 0.1825177499748E+00
 0.1450070690525E+00
 0.5312725093729E+00
 0.5702423599265E+00
 0.6126637955291E+00
 0.6443879692203E+00
 0.6614590953079E+00
 0.6645708794249E+00
 0.6557060488469E+00
 0.6370227294570E+00
 0.6105183299000E+00
 0.5779134877145E+00
 0.5407737614708E+00
 0.5003404837892E+00
 0.4577084332001E+00
 0.4154367276717E+00
 0.3756957766241E+00
 0.3379731495726E+00
 0.3014602879370E+00
 0.2648136445925E+00
 0.2263889424275E+00
 0.1830896184994E+00
 0.5137047501047E+00
 0.5532675187504E+00
 0.5980622696847E+00
 0.6352975544619E+00
 0.6605198056989E+00
 0.6732851104107E+00
 0.6745250693083E+00
 0.6656001537036E+00
 0.6479579228865E+00
 0.6229755991187E+00
 0.5920227817028E+00
 0.5563194995598E+00
 0.5168889145888E+00
 0.4759913230794E+00
 0.4357649450871E+00
 0.3960204851384E+00
 0.3564650899011E+00
 0.3164926645405E+00
 0.2748923846614E+00
 0.2266766569619E+00
 0.4969273738050E+00
 0.5382253556173E+00
 0.5857599091562E+00
 0.6281149794065E+00
 0.6606903732292E+00
 0.6822499449926E+00
 0.6929011652721E+00
 0.6933300123641E+00
 0.6844753516249E+00
 0.6673474715771E+00
 0.6430615676246E+00
 0.6127433455970E+00
 0.5772986412627E+00
 0.5386215568480E+00
 0.4986343844035E+00
 0.4573004449059E+00
 0.4145955513527E+00
 0.3708532374001E+00
 0.3266454377722E+00
 0.2754943460480E+00
 0.4807404607194E+00
 0.5247760475996E+00
 0.5755018192369E+00
 0.6228385071968E+00
 0.6622391540738E+00
 0.6919224744128E+00
 0.7113738825474E+00
 0.7207377733992E+00
 0.7205123821877E+00
 0.7113498779404E+00
 0.6940652422171E+00
 0.6696140055290E+00
 0.6387632811935E+00
 0.6030326602428E+00
 0.5640161951120E+00
 0.5216811926587E+00
 0.4760302283051E+00
 0.4273290001371E+00
 0.3790255180659E+00
 0.3285543705500E+00
 0.4650436531978E+00
 0.5125622736982E+00
 0.5669613224417E+00
 0.6193624509245E+00
 0.6652852666356E+00
 0.7025812626043E+00
 0.7303018058931E+00
 0.7481885916711E+00
 0.7563770993415E+00
 0.7552068694987E+00
 0.7451932760375E+00
 0.7269482560651E+00
 0.7010624035427E+00
 0.6688085416722E+00
 0.6313905934459E+00
 0.5887900964678E+00
 0.5409174320129E+00
 0.4878261959322E+00
 0.4315225509169E+00
 0.3805361413469E+00
 0.3713487130848E+00
 0.5283143906387E+00
 0.6693215599442E+00
 0.7934491819895E+00
 0.9021579360382E+00
 0.9971910647515E+00
 0.1080322858334E+01
 0.1153349830198E+01
 0.1217976146375E+01
 0.1275698290485E+01
 0.1327934765573E+01
 0.1375994238713E+01
 0.1420700824584E+01
 0.1463975113189E+01
 0.1507574050326E+01
 0.1551398389259E+01
 0.1595083385433E+01
 0.1638126354052E+01
 0.1681494360797E+01
 0.1734367235630E+01
 0.3867533370354E+00
 0.5392551951356E+00
 0.6753528113094E+00
 0.7937294683525E+00
 0.8959768266405E+00
 0.9841647450869E+00
 0.1060287888339E+01
 0.1126316042038E+01
 0.1184105559936E+01
 0.1235249901389E+01
 0.1281279793603E+01
 0.1323694268290E+01
 0.1363210306968E+01
 0.1402250259146E+01
 0.1443371724406E+01
 0.1486410238345E+01
 0.1531127488198E+01
 0.1577642423009E+01
 0.1629461283269E+01
 0.1684962540659E+01
 0.4024057628003E+00
 0.5502425091191E+00
 0.6810189000050E+00
 0.7929022697476E+00
 0.8876748697910E+00
 0.9678219789649E+00
 0.1035700099068E+01
 0.1093542559385E+01
 0.1143384097888E+01
 0.1186935302635E+01
 0.1225832312694E+01
 0.1261603016754E+01
 0.1295001546008E+01
 0.1329228849213E+01
 0.1367709439903E+01
 0.1410381611400E+01
 0.1457190754941E+01
 0.1508703344069E+01
 0.1566065754960E+01
 0.1623949040004E+01
 0.4184907462447E+00
 0.5614710045413E+00
 0.6864728155784E+00
 0.7910026677403E+00
 0.8771764013227E+00
 0.9480577439201E+00
 0.1006483181280E+01
 0.1055025152117E+01
 0.1095923395169E+01
 0.1130992557661E+01
 0.1161937678858E+01
 0.1190267416585E+01
 0.1216824110364E+01
 0.1245728085797E+01
 0.1281345566431E+01
 0.1323706809759E+01
 0.1372754849185E+01
 0.1428364845367E+01
 0.1490222173228E+01
 0.1554497800109E+01
 0.4351336221373E+00
 0.5732007134536E+00
 0.6918829946713E+00
 0.7880517041091E+00
 0.8643786136020E+00
 0.9247214113796E+00
 0.9725258155866E+00
 0.1010763276105E+01
 0.1041882811373E+01
 0.1067768560932E+01
 0.1090151343686E+01
 0.1110452171850E+01
 0.1129625902890E+01
 0.1152759917559E+01
 0.1185111123983E+01
 0.1226749831478E+01
 0.1277416869878E+01
 0.1336471469589E+01
 0.1403518055763E+01
 0.1476960593957E+01
 0.4524819252910E+00
 0.5856926129742E+00
 0.6973992432815E+00
 0.7840067432275E+00
 0.8490945158477E+00
 0.8975849517693E+00
 0.9336677529299E+00
 0.9607538708060E+00
 0.9814773430475E+00
 0.9977311332511E+00
 0.1011200970936E+01
 0.1023132631716E+01
 0.1034590020147E+01
 0.1051591991144E+01
 0.1080160115951E+01
 0.1120387393268E+01
 0.1171932259735E+01
 0.1234051287518E+01
 0.1306933307561E+01
 0.1391261704309E+01
 0.4707238832716E+00
 0.5992203889367E+00
 0.7031117614994E+00
 0.7787114976520E+00
 0.8310062656749E+00
 0.8663102234274E+00
 0.8896855601450E+00
 0.9049919217242E+00
 0.9149854959613E+00
 0.9214709791708E+00
 0.9259883511959E+00
 0.9295020272438E+00
 0.9331642527507E+00
 0.9438320009802E+00
 0.9681148579479E+00
 0.1006174649285E+01
 0.1057786996802E+01
 0.1122447705288E+01
 0.1201319944509E+01
 0.1297303702475E+01
 0.4901065315847E+00
 0.6140662593023E+00
 0.7090140896057E+00
 0.7718418281551E+00
 0.8096185565723E+00
 0.8304212267834E+00
 0.8402859516763E+00
 0.8434793862033E+00
 0.8427631582173E+00
 0.8397131732683E+00
 0.8355943257713E+00
 0.8309738726465E+00
 0.8270677047389E+00
 0.8314365583213E+00
 0.8510581590846E+00
 0.8862053893445E+00
 0.9369457630098E+00
 0.1003288943431E+01
 0.1087636785298E+01
 0.1195173640076E+01
 0.5109525992112E+00
 0.6305087692645E+00
 0.7149517899728E+00
 0.7628429927424E+00
 0.7842105355878E+00
 0.7892840146260E+00
 0.7851129087198E+00
 0.7762487854940E+00
 0.7652695078657E+00
 0.7533336144470E+00
 0.7412799654863E+00
 0.7291673251455E+00
 0.7182590111884E+00
 0.7166568507064E+00
 0.7314408047331E+00
 0.7629927139028E+00
 0.8117829701064E+00
 0.8785458911608E+00
 0.9671401209189E+00
 0.1085247723065E+01
 0.5336792945234E+00
 0.6487974983651E+00
 0.7205492657412E+00
 0.7508507305467E+00
 0.7537867447945E+00
 0.7421005840346E+00
 0.7237773939705E+00
 0.7034089729225E+00
 0.6831071094188E+00
 0.6633782672957E+00
 0.6444783049942E+00
 0.6258707756293E+00
 0.6088715914896E+00
 0.6019455643743E+00
 0.6119724267998E+00
 0.6393776424422E+00
 0.6850554969698E+00
 0.7506034323846E+00
 0.8415168162970E+00
 0.9682862529731E+00
 0.5588200849464E+00
 0.6691075818133E+00
 0.7251021771748E+00
 0.7345897349858E+00
 0.7170312734123E+00
 0.6879292331837E+00
 0.6559229667242E+00
 0.6252206770362E+00
 0.5970764024805E+00
 0.5710802554439E+00
 0.5467711562776E+00
 0.5229823826466E+00
 0.5011224224261E+00
 0.4898413193982E+00
 0.4955001352593E+00
 0.5184340868206E+00
 0.5598703148161E+00
 0.6223070310676E+00
 0.7129859651142E+00
 0.8455366797190E+00
 0.5870497389003E+00
 0.6914595539750E+00
 0.7274156548770E+00
 0.7122432412449E+00
 0.6722783460363E+00
 0.6257546959239E+00
 0.5813463002467E+00
 0.5422078900861E+00
 0.5082391524580E+00
 0.4778651299901E+00
 0.4498441431825E+00
 0.4224269185779E+00
 0.3971997028065E+00
 0.3828350225452E+00
 0.3848681766117E+00
 0.4033497161678E+00
 0.4396202062607E+00
 0.4969740760866E+00
 0.5843782467866E+00
 0.7188568373424E+00
 0.6192108861767E+00
 0.7155763071222E+00
 0.7255555759681E+00
 0.6812919629678E+00
 0.6175316757928E+00
 0.5546492401638E+00
 0.5001954615655E+00
 0.4553022409980E+00
 0.4179729669504E+00
 0.3853269983476E+00
 0.3554117569936E+00
 0.3260503222593E+00
 0.2991358380774E+00
 0.2832226643110E+00
 0.2827551857913E+00
 0.2972691013814E+00
 0.3278701885539E+00
 0.3783592144109E+00
 0.4591947422124E+00
 0.5908645177591E+00
 0.6563346927709E+00
 0.7406201913864E+00
 0.7164582895087E+00
 0.6383373557982E+00
 0.5506053863977E+00
 0.4740905159558E+00
 0.4132620865954E+00
 0.3659917167066E+00
 0.3279787673545E+00
 0.2951516535324E+00
 0.2651080502058E+00
 0.2354997959355E+00
 0.2086780225078E+00
 0.1929553531824E+00
 0.1914926586366E+00
 0.2030911010259E+00
 0.2281759626234E+00
 0.2705545682804E+00
 0.3416360937047E+00
 0.4651177422837E+00
 0.6996327699639E+00
 0.7646887432891E+00
 0.6953092870021E+00
 0.5789814726180E+00
 0.4695411277292E+00
 0.3845280211800E+00
 0.3223376930447E+00
 0.2763945580297E+00
 0.2401802075203E+00
 0.2089707280636E+00
 0.1803523231785E+00
 0.1521071458220E+00
 0.1271768057001E+00
 0.1135071759581E+00
 0.1128813165704E+00
 0.1232216995114E+00
 0.1438129380529E+00
 0.1777898128220E+00
 0.2365767687417E+00
 0.3463276527661E+00
 0.7503837301194E+00
 0.7837910927795E+00
 0.6545566261306E+00
 0.4980028030201E+00
 0.3736281297067E+00
 0.2882404383184E+00
 0.2304817480959E+00
 0.1890888535402E+00
 0.1564745001321E+00
 0.1281661879032E+00
 0.1022170041110E+00
 0.7679978895240E-01
 0.5551776895519E-01
 0.4579529332550E-01
 0.4804298541751E-01
 0.5930665820285E-01
 0.7739711391374E-01
 0.1040719384868E+00
 0.1494271466767E+00
 0.2405995543922E+00
 0.8095080782858E+00
 0.7895807286930E+00
 0.5824231168941E+00
 0.3906542236946E+00
 0.2654999379339E+00
 0.1903087023098E+00
 0.1416478577071E+00
 0.1066026936710E+00
 0.7840158655565E-01
 0.5368620454601E-01
 0.3133420079481E-01
 0.1009092647696E-01
 0.6073639788656E-02
 0.9985684887150E-02
 0.2930540690925E-02
 0.1201886307540E-01
 0.3042060539218E-01
 0.5257964132374E-01
 0.8576104914700E-01
 0.1556751827815E+00
 0.8756713704117E+00
 0.7637619257668E+00
 0.4613947609903E+00
 0.2572686997240E+00
 0.1551632323737E+00
 0.9750218784909E-01
 0.5947118167640E-01
 0.3081939726783E-01
 0.6891603662317E-02
 0.1405875369868E-01
 0.3218010949993E-01
 0.4814611386056E-01
 0.5717383828042E-01
 0.5364895528953E-01
 0.3952192741551E-01
 0.1896502097297E-01
 0.3159599025283E-02
 0.2482151944819E-01
 0.5048267131448E-01
 0.1011026351162E+00
 0.9397233948363E+00
 0.6606794722953E+00
 0.2714427542586E+00
 0.1220891938098E+00
 0.5542401413728E-01
 0.1506913075800E-01
 0.1384440494442E-01
 0.3735438165805E-01
 0.5777680480904E-01
 0.7522215155441E-01
 0.8868796277365E-01
 0.9818635889131E-01
 0.9851743094148E-01
 0.8587355041013E-01
 0.6321250271225E-01
 0.3477187388798E-01
 0.7426160555519E-02
 0.1982060872958E-01
 0.4566651251713E-01
 0.8800038263337E-01
 0.9025410281211E+00
 0.3422195894468E+00
 0.7835579315730E-01
 0.1226203016581E-01
 0.2766749920302E-01
 0.5479127871904E-01
 0.7755410314071E-01
 0.9788876925802E-01
 0.1157393125565E+00
 0.1302966333692E+00
 0.1395545017978E+00
 0.1410585071425E+00
 0.1301821341311E+00
 0.1068242064426E+00
 0.7468018184956E-01
 0.3722793451959E-01
 0.6742828139732E-02
 0.3517559045939E-01
 0.6528607894514E-01
 0.1233544141480E+00
 0.3458584236218E+00
 0.2936014474532E+00
 0.2484891464830E+00
 0.2078666699865E+00
 0.1710707407887E+00
 0.1382651826996E+00
 0.1097497129654E+00
 0.8579234760772E-01
 0.6656660917033E-01
 0.5213635471866E-01
 0.4246244946809E-01
 0.3742839746504E-01
 0.3686294560918E-01
 0.4052087294094E-01
 0.4805476309525E-01
 0.5904093846111E-01
 0.7302774224681E-01
 0.8958191669029E-01
 0.1083399216169E+00
 0.1298590963659E+00
 0.3762985138487E+00
 0.3267420975597E+00
 0.2762665046629E+00
 0.2293161179254E+00
 0.1868818464915E+00
 0.1492573334414E+00
 0.1166391558461E+00
 0.8919945479260E-01
 0.6707459641475E-01
 0.5033405941847E-01
 0.3895966349329E-01
 0.3285923480898E-01
 0.3191227619325E-01
 0.3594988899886E-01
 0.4466955408358E-01
 0.5766184185731E-01
 0.7451016651672E-01
 0.9486238385837E-01
 0.1185704540199E+00
 0.1457700005399E+00
 0.4069707274910E+00
 0.3571696590630E+00
 0.3053906166010E+00
 0.2549031881039E+00
 0.2079216008392E+00
 0.1655120232122E+00
 0.1282585814412E+00
 0.9653893929970E-01
 0.7061909093571E-01
 0.5066855459614E-01
 0.3674182520360E-01
 0.2877628482257E-01
 0.2668217307517E-01
 0.3040409268257E-01
 0.3972636176502E-01
 0.5422381311086E-01
 0.7343486705151E-01
 0.9696657211892E-01
 0.1245044502478E+00
 0.1556821068831E+00
 0.4415197680497E+00
 0.3891510660452E+00
 0.3357298973942E+00
 0.2828012433304E+00
 0.2322708969771E+00
 0.1855828524150E+00
 0.1437165163505E+00
 0.1073671452777E+00
 0.7705304142763E-01
 0.5315535632808E-01
 0.3590364120908E-01
 0.2532575164868E-01
 0.2131004097120E-01
 0.2392369231054E-01
 0.3318901158853E-01
 0.4867255629890E-01
 0.6979300306535E-01
 0.9601700710058E-01
 0.1268624923407E+00
 0.1618551552696E+00
 0.4806425966235E+00
 0.4250222535838E+00
 0.3691186407269E+00
 0.3135905369184E+00
 0.2597882648467E+00
 0.2090911143772E+00
 0.1626702317117E+00
 0.1214811080850E+00
 0.8631298656227E-01
 0.5781935114827E-01
 0.3650783582274E-01
 0.2264097852270E-01
 0.1603820718080E-01
 0.1660195877613E-01
 0.2497577975010E-01
 0.4090385589663E-01
 0.6357248677801E-01
 0.9223303868787E-01
 0.1262346539738E+00
 0.1650559487786E+00
 0.5244976336585E+00
 0.4657142897367E+00
 0.4069241783743E+00
 0.3484524320831E+00
 0.2912559278777E+00
 0.2365302017028E+00
 0.1854725676833E+00
 0.1391956129816E+00
 0.9871647497580E-01
 0.6496814994201E-01
 0.3881001292861E-01
 0.2099796417823E-01
 0.1168654123165E-01
 0.9286603005115E-02
 0.1511694010338E-01
 0.3076027248002E-01
 0.5469200614805E-01
 0.8575054709792E-01
 0.1229677354630E+00
 0.1656011548596E+00
 0.5731936264901E+00
 0.5116980177488E+00
 0.4500340552343E+00
 0.3884651190876E+00
 0.3277289447607E+00
 0.2688538795703E+00
 0.2129932890621E+00
 0.1613331060917E+00
 0.1150572713900E+00
 0.7534912775979E-01
 0.4344269488611E-01
 0.2088961133052E-01
 0.1025386393836E-01
 0.8142206868332E-02
 0.5693357577222E-02
 0.1808792982991E-01
 0.4288140214667E-01
 0.7643306559373E-01
 0.1171853907550E+00
 0.1636954658698E+00
 0.6268609277760E+00
 0.5633018090682E+00
 0.4991130061646E+00
 0.4345833459825E+00
 0.3703387228744E+00
 0.3072802436136E+00
 0.2464930030006E+00
 0.1891795329009E+00
 0.1366287010091E+00
 0.9022154537159E-01
 0.5152661091752E-01
 0.2298324773244E-01
 0.1248349977415E-01
 0.1632820746282E-01
 0.1347328980806E-01
 0.4450069578758E-02
 0.2757878945901E-01
 0.6378847897678E-01
 0.1089184794484E+00
 0.1603878109808E+00
 0.6856485547454E+00
 0.6208468220337E+00
 0.5547823337400E+00
 0.4877674967532E+00
 0.4203547795072E+00
 0.3533380269295E+00
 0.2877159013150E+00
 0.2246581569561E+00
 0.1654917211600E+00
 0.1117193836332E+00
 0.6513992238618E-01
 0.2872593409086E-01
 0.1559262580760E-01
 0.2590486112187E-01
 0.2855794409233E-01
 0.1787118822221E-01
 0.8330630265861E-02
 0.4688261223592E-01
 0.9777184681102E-01
 0.1570529652231E+00
 0.7496457728896E+00
 0.6845616344433E+00
 0.6175326044457E+00
 0.5488513918230E+00
 0.4789924942493E+00
 0.4086371011911E+00
 0.3386701107231E+00
 0.2701739637801E+00
 0.2044346269761E+00
 0.1429745250600E+00
 0.8767060053080E-01
 0.4144750097010E-01
 0.1750970888660E-01
 0.3263293305623E-01
 0.4333676780259E-01
 0.3880043858389E-01
 0.1659599238156E-01
 0.2451624461432E-01
 0.8223852790348E-01
 0.1530433571548E+00
 0.8188233949560E+00
 0.7545202558380E+00
 0.6876304603977E+00
 0.6183841083734E+00
 0.5471581309991E+00
 0.4745040474207E+00
 0.4011614401232E+00
 0.3280698082306E+00
 0.2563901243551E+00
 0.1875486241995E+00
 0.1233400564390E+00
 0.6632996129852E-01
 0.2406043670653E-01
 0.3208071498576E-01
 0.5302746842678E-01
 0.5856073336570E-01
 0.4333377255763E-01
 0.4484413372817E-02
 0.6025361083008E-01
 0.1462231915833E+00
 0.8929851928013E+00
 0.8305952396850E+00
 0.7650781662004E+00
 0.6965797956638E+00
 0.6253666778892E+00
 0.5518491799628E+00
 0.4765998394813E+00
 0.4003732274350E+00
 0.3241350595738E+00
 0.2491100598487E+00
 0.1768694587094E+00
 0.1095484609997E+00
 0.5096534228775E-01
 0.2335505733661E-01
 0.5019846500810E-01
 0.6957874165224E-01
 0.6723861884064E-01
 0.3607899383497E-01
 0.3023991123743E-01
 0.1333630944275E+00
 0.9717398490456E+00
 0.9124140170775E+00
 0.8495634069577E+00
 0.7832519264880E+00
 0.7136415516489E+00
 0.6410091640289E+00
 0.5657634525738E+00
 0.4884649399196E+00
 0.4098543177429E+00
 0.3308959990430E+00
 0.2528487727551E+00
 0.1773954576659E+00
 0.1069762160956E+00
 0.4668619090804E-01
 0.2897877027111E-01
 0.5892007870917E-01
 0.7441393775563E-01
 0.6033570860090E-01
 0.4026603276429E-02
 0.1116039666472E+00
 0.1054490195933E+01
 0.9993317670751E+00
 0.9404150051709E+00
 0.8777429702704E+00
 0.8113982321075E+00
 0.7415553669117E+00
 0.6684949396212E+00
 0.5926205933832E+00
 0.5144826167276E+00
 0.4348127570803E+00
 0.3545774938901E+00
 0.2750629809946E+00
 0.1980229224158E+00
 0.1259969030315E+00
 0.6345912472907E-01
 0.2687886671157E-01
 0.4107578390884E-01
 0.4597354121061E-01
 0.1165805024388E-01
 0.1005903754531E+00
 0.1140440098308E+01
 0.1090429299100E+01
 0.1036587156144E+01
 0.9788839467763E+00
 0.9173567841958E+00
 0.8521214563417E+00
 0.7833857727207E+00
 0.7114657053690E+00
 0.6368066844428E+00
 0.5600133835839E+00
 0.4818927396885E+00
 0.4035174551091E+00
 0.3263217977863E+00
 0.2522496820743E+00
 0.1839879581927E+00
 0.1253237502364E+00
 0.8154779353478E-01
 0.5944717535380E-01
 0.7095372724867E-01
 0.1479962088681E+00
 0.1228623077380E+01
 0.1184548022643E+01
 0.1136699547711E+01
 0.1085035422338E+01
 0.1029571499134E+01
 0.9703952115253E+00
 0.9076800479949E+00
 0.8417023509150E+00
 0.7728621947104E+00
 0.7017105532943E+00
 0.6289855922782E+00
 0.5556618784325E+00
 0.4830177225836E+00
 0.4127278019050E+00
 0.3469904404097E+00
 0.2887008781248E+00
 0.2416867829846E+00
 0.2110389611167E+00
 0.2036517500470E+00
 0.2271808901845E+00
 0.1317951737818E+01
 0.1280364229285E+01
 0.1239146748042E+01
 0.1194248601641E+01
 0.1145667797387E+01
 0.1093465661776E+01
 0.1037781238366E+01
 0.9788466289625E+00
 0.9170042245885E+00
 0.8527265480462E+00
 0.7866390695426E+00
 0.7195456546628E+00
 0.6524547932424E+00
 0.5866013584489E+00
 0.5234507707391E+00
 0.4646534964343E+00
 0.4118684675512E+00
 0.3662352954056E+00
 0.3267735217287E+00
 0.2849224455829E+00
 0.1407274652296E+01
 0.1376476440619E+01
 0.1342230317979E+01
 0.1304465891721E+01
 0.1263148216845E+01
 0.1218291397849E+01
 0.1169970238277E+01
 0.1118330649186E+01
 0.1063598775582E+01
 0.1006087927743E+01
 0.9462011670349E+00
 0.8844253643646E+00
 0.8213089490676E+00
 0.7574088792612E+00
 0.6931794130301E+00
 0.6287493821616E+00
 0.5634805732810E+00
 0.4950923389204E+00
 0.4179166028071E+00
 0.3209101132157E+00
 0.1495427015643E+01
 0.1471479736314E+01
 0.1444265783998E+01
 0.1413673905317E+01
 0.1379610473778E+01
 0.1342009759875E+01
 0.1300840511185E+01
 0.1256109122013E+01
 0.1207858486114E+01
 0.1156160421964E+01
 0.1101097957974E+01
 0.1042731348888E+01
 0.9810378884070E+00
 0.9158094625934E+00
 0.8464820903346E+00
 0.7718570737532E+00
 0.6896585065321E+00
 0.5958789521271E+00
 0.4841594068829E+00
 0.3464757138164E+00
 0.1581270750853E+01
 0.1564021394067E+01
 0.1543657541262E+01
 0.1520002293632E+01
 0.1492875375692E+01
 0.1462098071625E+01
 0.1427493672413E+01
 0.1388883127548E+01
 0.1346074455768E+01
 0.1298843408484E+01
 0.1246901486818E+01
 0.1189845569459E+01
 0.1127081003668E+01
 0.1057707194795E+01
 0.9803524909367E+00
 0.8929479120384E+00
 0.7924497801138E+00
 0.6746156058704E+00
 0.5341992117177E+00
 0.3667329463464E+00
 0.1663724702554E+01
 0.1652839647766E+01
 0.1638945749980E+01
 0.1621778681153E+01
 0.1601048080206E+01
 0.1576436311017E+01
 0.1547593230422E+01
 0.1514125755060E+01
 0.1475580801574E+01
 0.1431419467254E+01
 0.1380979524630E+01
 0.1323422515643E+01
 0.1257661285000E+01
 0.1182264543716E+01
 0.1095339230084E+01
 0.9944040804399E+00
 0.8763023834880E+00
 0.7372807601726E+00
 0.5735507762418E+00
 0.3837384882831E+00
 0.1741784942422E+01
 0.1736784954593E+01
 0.1728826641881E+01
 0.1717544561526E+01
 0.1702523261615E+01
 0.1683291552914E+01
 0.1659313003358E+01
 0.1629971795308E+01
 0.1594552937822E+01
 0.1552215612979E+01
 0.1501958289650E+01
 0.1442574450719E+01
 0.1372598837993E+01
 0.1290247008046E+01
 0.1193357561841E+01
 0.1079360293787E+01
 0.9453206177417E+00
 0.7881668733223E+00
 0.6054141027357E+00
 0.3980766397704E+00
 0.1814530958220E+01
 0.1814820771482E+01
 0.1812148998745E+01
 0.1806043041731E+01
 0.1795957327069E+01
 0.1781264712281E+01
 0.1761244576675E+01
 0.1735067403719E+01
 0.1701775602732E+01
 0.1660260439681E+01
 0.1609235297864E+01
 0.1547206303211E+01
 0.1472443038024E+01
 0.1382955287838E+01
 0.1276487574826E+01
 0.1150553291877E+01
 0.1002548929068E+01
 0.8300412103955E+00
 0.6315578124891E+00
 0.4098675538367E+00
 0.1881138702077E+01
 0.1886035500797E+01
 0.1887922008283E+01
 0.1886219587979E+01
 0.1880256979079E+01
 0.1869259919154E+01
 0.1852338406284E+01
 0.1828471887340E+01
 0.1796492874574E+01
 0.1755069857992E+01
 0.1702690981431E+01
 0.1637650926889E+01
 0.1558045019842E+01
 0.1461777021997E+01
 0.1346590867710E+01
 0.1210142994410E+01
 0.1050147171115E+01
 0.8646789840750E+00
 0.6529989801639E+00
 0.4191647076650E+00
 0.1940881726291E+01
 0.1949639764209E+01
 0.1955304607590E+01
 0.1957199764015E+01
 0.1954540976629E+01
 0.1946424987533E+01
 0.1931817006294E+01
 0.1909537502667E+01
 0.1878249384937E+01
 0.1836447166140E+01
 0.1782450381697E+01
 0.1714404371253E+01
 0.1630292640216E+01
 0.1527966459089E+01
 0.1405199470563E+01
 0.1259779578361E+01
 0.1089665092913E+01
 0.8932926199114E+00
 0.6704259823268E+00
 0.4260648867506E+00
 0.1993127099688E+01
 0.2004956313263E+01
 0.2013586893331E+01
 0.2018258851787E+01
 0.2018094363961E+01
 0.2012086390217E+01
 0.1999086908405E+01
 0.1977795433504E+01
 0.1946749210355E+01
 0.1904317131681E+01
 0.1848700061298E+01
 0.1777940873721E+01
 0.1689948180885E+01
 0.1582538471580E+01
 0.1453502702956E+01
 0.1300707387674E+01
 0.1122255634732E+01
 0.9167984690859E+00
 0.6844094997179E+00
 0.4307361372891E+00
 0.2037330709290E+01
 0.2051409532803E+01
 0.2062171913868E+01
 0.2068793611261E+01
 0.2070327577262E+01
 0.2065693118375E+01
 0.2053665145045E+01
 0.2032863881435E+01
 0.2001746536006E+01
 0.1958603244823E+01
 0.1901560157131E+01
 0.1828592975591E+01
 0.1737554686969E+01
 0.1626221777191E+01
 0.1492364536448E+01
 0.1333851486598E+01
 0.1148814405887E+01
 0.9359674732092E+00
 0.6955067906126E+00
 0.4334340739828E+00
 0.2073032452451E+01
 0.2088515385579E+01
 0.2100559080571E+01
 0.2108297557916E+01
 0.2110741732180E+01
 0.2106770170166E+01
 0.2095119633442E+01
 0.2074375054208E+01
 0.2042960535915E+01
 0.1999133943925E+01
 0.1940988061673E+01
 0.1866461550543E+01
 0.1773363340699E+01
 0.1659414852453E+01
 0.1522316301186E+01
 0.1359848721496E+01
 0.1170041061180E+01
 0.9514993451204E+00
 0.7043274627973E+00
 0.4345421841688E+00
 0.2099852505846E+01
 0.2115873595913E+01
 0.2128331673245E+01
 0.2136342763141E+01
 0.2138903219837E+01
 0.2134884400217E+01
 0.2123025123228E+01
 0.2101920742954E+01
 0.2070010995783E+01
 0.2025569737575E+01
 0.1966699619452E+01
 0.1891334694556E+01
 0.1797254376524E+01
 0.1682113398284E+01
 0.1543495114132E+01
 0.1379001929539E+01
 0.1186415665329E+01
 0.9640291224952E+00
 0.7115756151226E+00
 0.4346416116782E+00
 0.2117488984767E+01
 0.2133162477451E+01
 0.2145149352737E+01
 0.2152569270409E+01
 0.2154428365178E+01
 0.2149622713202E+01
 0.2136933578463E+01
 0.2115013833425E+01
 0.2082369929642E+01
 0.2037343676903E+01
 0.1978096801836E+01
 0.1902600507292E+01
 0.1808632660745E+01
 0.1693786996054E+01
 0.1555502331158E+01
 0.1391127257512E+01
 0.1198054697169E+01
 0.9740284061722E+00
 0.7180409444905E+00
 0.4346134560070E+00
 0.2125716568819E+01
 0.2140137207321E+01
 0.2150747963088E+01
 0.2156684859711E+01
 0.2156980535249E+01
 0.2150584490663E+01
 0.2136360446303E+01
 0.2113066768157E+01
 0.2079329561553E+01
 0.2033614486985E+01
 0.1974199498508E+01
 0.1899148895993E+01
 0.1806289291388E+01
 0.1693190302101E+01
 0.1557157295007E+01
 0.1395251768427E+01
 0.1204373250438E+01
 0.9814933039516E+00
 0.7244245893835E+00
 0.4357285156827E+00
 0.2124386691289E+01
 0.2136636487569E+01
 0.2144953548386E+01
 0.2148481327495E+01
 0.2146284784915E+01
 0.2137392885272E+01
 0.2120791813425E+01
 0.2095392859081E+01
 0.2059993737041E+01
 0.2013240582608E+01
 0.1953590538643E+01
 0.1879271604407E+01
 0.1788236671757E+01
 0.1678111005704E+01
 0.1546137247205E+01
 0.1389131255228E+01
 0.1203479886400E+01
 0.9852589492887E+00
 0.7307511932258E+00
 0.4395314317430E+00
 0.2113432091671E+01
 0.2122607714153E+01
 0.2127717441257E+01
 0.2127869734164E+01
 0.2122159689073E+01
 0.2109724172101E+01
 0.2089712913634E+01
 0.2061233584743E+01
 0.2023299561300E+01
 0.1974786541202E+01
 0.1914391418797E+01
 0.1840584592248E+01
 0.1751547359491E+01
 0.1645088173891E+01
 0.1518535118083E+01
 0.1368609896706E+01
 0.1191309012678E+01
 0.9818635569743E+00
 0.7350032394203E+00
 0.4468640046492E+00
 0.2092885160013E+01
 0.2098151909246E+01
 0.2099160807491E+01
 0.2094914212895E+01
 0.2084542833960E+01
 0.2067333128038E+01
 0.2042642326639E+01
 0.2009806194848E+01
 0.1968078441822E+01
 0.1916592338680E+01
 0.1854328347220E+01
 0.1780071153567E+01
 0.1692343366447E+01
 0.1589303843949E+01
 0.1468598015492E+01
 0.1327149732348E+01
 0.1160897383115E+01
 0.9645369945790E+00
 0.7315135978425E+00
 0.4553318419505E+00
 0.2062876127762E+01
 0.2063494279880E+01
 0.2059501579473E+01
 0.2049718249311E+01
 0.2033358679056E+01
 0.2009938093499E+01
 0.1979064661364E+01
 0.1940312643128E+01
 0.1893168512577E+01
 0.1837019184752E+01
 0.1771143814049E+01
 0.1694691091368E+01
 0.1606629098046E+01
 0.1505653080452E+01
 0.1390030097744E+01
 0.1257348539802E+01
 0.1104133136848E+01
 0.9253005660212E+00
 0.7136456257751E+00
 0.4605577503550E+00
 0.2023684063137E+01
 0.2019039120221E+01
 0.2009093842346E+01
 0.1992459343023E+01
 0.1968617685374E+01
 0.1937430836378E+01
 0.1898789881535E+01
 0.1852469290318E+01
 0.1798139100566E+01
 0.1735399852601E+01
 0.1663809270851E+01
 0.1582891486375E+01
 0.1492122819874E+01
 0.1390883811992E+01
 0.1278355884407E+01
 0.1153320820243E+01
 0.1013776426056E+01
 0.8562169493419E+00
 0.6743040665073E+00
 0.4572679413869E+00
 0.1975861678197E+01
 0.1965486808463E+01
 0.1948427904566E+01
 0.1923387802255E+01
 0.1890464814738E+01
 0.1850038515839E+01
 0.1802187657630E+01
 0.1746776728926E+01
 0.1683569274248E+01
 0.1612308462895E+01
 0.1532772870462E+01
 0.1444816842479E+01
 0.1348402472578E+01
 0.1243623764936E+01
 0.1130715135300E+01
 0.1010017406974E+01
 0.8818359072629E+00
 0.7459713789265E+00
 0.6003536006937E+00
 0.4365779134749E+00
 0.1920347987980E+01
 0.1903741868681E+01
 0.1877893728971E+01
 0.1842485148971E+01
 0.1799146458035E+01
 0.1748430232036E+01
 0.1690334247184E+01
 0.1624664118930E+01
 0.1551187488376E+01
 0.1469718903255E+01
 0.1380175534967E+01
 0.1282632233797E+01
 0.1177391390888E+01
 0.1065081304476E+01
 0.9467983644478E+00
 0.8243150422578E+00
 0.7003723436606E+00
 0.5791024128876E+00
 0.4662869161151E+00
 0.3682503629183E+00
 0.1859149583524E+01
 0.1834745895020E+01
 0.1796346003015E+01
 0.1749466390223E+01
 0.1695480811666E+01
 0.1634275184857E+01
 0.1565571508964E+01
 0.1489095612412E+01
 0.1404646998239E+01
 0.1312122741983E+01
 0.1211549255218E+01
 0.1103135333620E+01
 0.9873618327389E+00
 0.8651298337063E+00
 0.7380056776325E+00
 0.6086329157356E+00
 0.4814606169859E+00
 0.3640826908298E+00
 0.2703534857377E+00
 0.2275436930860E+00
 0.1793143784195E+01
 0.1751065779835E+01
 0.1701347473586E+01
 0.1645506418491E+01
 0.1582230753005E+01
 0.1511184907537E+01
 0.1432232171232E+01
 0.1345369201804E+01
 0.1250680547486E+01
 0.1148349699904E+01
 0.1038694797775E+01
 0.9222340960550E+00
 0.7997948550138E+00
 0.6726933877971E+00
 0.5430348981264E+00
 0.4142240987301E+00
 0.2918564434828E+00
 0.1854293590142E+00
 0.1117594909779E+00
 0.1071384869130E+00
</DataArray>
<DataArray type="Float64" Name="OI" NumberOfComponents="1" ComponentName0="OI" format="ascii">
 0.4296164888702E+01
 0.3798364029648E+01
 0.3407044630083E+01
 0.3247710156694E+01
 0.3130120545047E+01
 0.3047261347582E+01
 0.2982182466695E+01
 0.2929333007920E+01
 0.2884888335723E+01
 0.2846814430780E+01
 0.2813919698885E+01
 0.2785615249181E+01
 0.2761735932324E+01
 0.2742472040708E+01
 0.2728361503931E+01
 0.2720351281554E+01
 0.2719980963771E+01
 0.2729888663885E+01
 0.2755033396655E+01
 0.2802461094064E+01
 0.2867174175230E+01
 0.2930011623162E+01
 0.2976651128873E+01
 0.3004100013529E+01
 0.3016232060205E+01
 0.3018812525103E+01
 0.3016796756858E+01
 0.3013404596704E+01
 0.3009804930029E+01
 0.3004846181682E+01
 0.2997883096274E+01
 0.2994051907836E+01
 0.3000610279479E+01
 0.3022215680760E+01
 0.3063464348463E+01
 0.3128569646067E+01
 0.3230115100755E+01
 0.3349974553348E+01
 0.3623337803291E+01
 0.3244974681315E+01
 0.6693214782609E+01
 0.3625334620030E+01
 0.3719398962761E+01
 0.3428450742504E+01
 0.3241688129144E+01
 0.3124246980825E+01
 0.3035690902528E+01
 0.2967432888045E+01
 0.2911969945706E+01
 0.2865679699978E+01
 0.2826281350999E+01
 0.2792482124959E+01
 0.2763593192546E+01
 0.2739373101611E+01
 0.2719943428164E+01
 0.2705772343840E+01
 0.2697717112126E+01
 0.2697166850180E+01
 0.2706281886634E+01
 0.2727330937286E+01
 0.2760424218750E+01
 0.2800894990109E+01
 0.2840099465389E+01
 0.2870285761341E+01
 0.2888157065463E+01
 0.2894469349875E+01
 0.2891867940358E+01
 0.2883092071357E+01
 0.2869974995176E+01
 0.2853179038928E+01
 0.2832860402865E+01
 0.2809659246197E+01
 0.2784941749872E+01
 0.2760180098091E+01
 0.2735686025315E+01
 0.2708848036428E+01
 0.2673956278602E+01
 0.2610983608367E+01
 0.2504214102776E+01
 0.2180223526444E+01
 0.1659329638845E+01
 0.5655025040320E+01
 0.3249176310752E+01
 0.3482664778203E+01
 0.3380352784466E+01
 0.3216844078172E+01
 0.3103112465490E+01
 0.3016066104528E+01
 0.2947026506611E+01
 0.2890682601604E+01
 0.2843485961116E+01
 0.2803332592163E+01
 0.2768928575899E+01
 0.2739565035962E+01
 0.2714954996757E+01
 0.2695156534950E+01
 0.2680543180229E+01
 0.2671812823603E+01
 0.2670025474278E+01
 0.2676327254097E+01
 0.2690628770065E+01
 0.2710691878328E+01
 0.2733161779080E+01
 0.2754317240761E+01
 0.2770285586430E+01
 0.2778285964712E+01
 0.2777474804024E+01
 0.2768460318800E+01
 0.2752322174377E+01
 0.2729857040001E+01
 0.2701468327022E+01
 0.2667605029751E+01
 0.2628562010638E+01
 0.2583617572265E+01
 0.2531016030726E+01
 0.2467512289894E+01
 0.2386799302688E+01
 0.2276113174092E+01
 0.2115718894872E+01
 0.1866331520895E+01
 0.1469016115629E+01
 0.1554734515191E+01
 0.5183162506417E+01
 0.3003075622230E+01
 0.3257816789669E+01
 0.3274549654254E+01
 0.3169271227933E+01
 0.3068875887860E+01
 0.2987769228286E+01
 0.2920940377793E+01
 0.2865285979362E+01
 0.2818182022344E+01
 0.2777854738293E+01
 0.2743167495863E+01
 0.2713455906149E+01
 0.2688422785247E+01
 0.2668069053742E+01
 0.2652653457966E+01
 0.2642657495779E+01
 0.2638663110628E+01
 0.2640763856593E+01
 0.2647513257315E+01
 0.2656156442246E+01
 0.2664543024928E+01
 0.2671440556921E+01
 0.2675154919108E+01
 0.2673549845820E+01
 0.2665055680095E+01
 0.2649023452850E+01
 0.2625375720405E+01
 0.2594169772185E+01
 0.2555523181651E+01
 0.2509667856815E+01
 0.2456276441315E+01
 0.2393439316356E+01
 0.2317716322606E+01
 0.2224190488614E+01
 0.2105217925646E+01
 0.1949401437327E+01
 0.1742597455628E+01
 0.1471488538073E+01
 0.1237377055549E+01
 0.1924900072401E+01
 0.4770878646431E+01
 0.2825481663851E+01
 0.3067126326288E+01
 0.3148238772251E+01
 0.3100191119823E+01
 0.3022893352786E+01
 0.2951344702327E+01
 0.2889233502532E+01
 0.2835798270287E+01
 0.2789726041094E+01
 0.2749802398397E+01
 0.2715155139399E+01
 0.2685232263417E+01
 0.2659757992768E+01
 0.2638685294435E+01
 0.2622146371532E+01
 0.2610366962349E+01
 0.2603415464785E+01
 0.2600581804017E+01
 0.2599816299842E+01
 0.2598542952703E+01
 0.2595523678025E+01
 0.2590817468976E+01
 0.2583934825058E+01
 0.2573291073674E+01
 0.2557061740599E+01
 0.2533882054039E+01
 0.2502923816063E+01
 0.2463720774891E+01
 0.2416077031403E+01
 0.2359868329820E+01
 0.2294264667531E+01
 0.2216809564427E+01
 0.2123562906567E+01
 0.2009516629740E+01
 0.1868490407251E+01
 0.1694331288590E+01
 0.1486000404731E+01
 0.1275922897727E+01
 0.1284957471436E+01
 0.2258131423130E+01
 0.4433930273674E+01
 0.2688199063259E+01
 0.2907796711780E+01
 0.3020553794209E+01
 0.3017551443425E+01
 0.2966620523984E+01
 0.2907739345772E+01
 0.2852241708423E+01
 0.2802358453144E+01
 0.2758171197777E+01
 0.2719189914312E+01
 0.2684894808840E+01
 0.2654900136496E+01
 0.2628981062614E+01
 0.2607054083426E+01
 0.2589122622150E+01
 0.2575149538761E+01
 0.2564754705904E+01
 0.2556721085308E+01
 0.2548851323056E+01
 0.2538971347116E+01
 0.2526485217157E+01
 0.2512116352751E+01
 0.2496030142101E+01
 0.2477065570094E+01
 0.2453386799406E+01
 0.2423275526135E+01
 0.2385457932330E+01
 0.2339110929155E+01
 0.2283759512821E+01
 0.2218973947582E+01
 0.2143659215293E+01
 0.2055336419186E+01
 0.1950440364751E+01
 0.1825177750226E+01
 0.1676630581469E+01
 0.1506013150535E+01
 0.1329648307528E+01
 0.1222151069927E+01
 0.1450922626944E+01
 0.2481445248698E+01
 0.4166371118040E+01
 0.2576569054531E+01
 0.2773468933872E+01
 0.2899447220309E+01
 0.2928590772410E+01
 0.2902602329686E+01
 0.2858013184291E+01
 0.2810513330969E+01
 0.2765220211106E+01
 0.2723648422986E+01
 0.2686087898845E+01
 0.2652432768096E+01
 0.2622502666534E+01
 0.2596148576517E+01
 0.2573264264309E+01
 0.2553733180430E+01
 0.2537281741446E+01
 0.2523193768938E+01
 0.2509993560508E+01
 0.2495580886646E+01
 0.2478214368587E+01
 0.2457732887711E+01
 0.2435185840142E+01
 0.2411084795624E+01
 0.2384584652584E+01
 0.2353960217711E+01
 0.2317374493334E+01
 0.2273329154053E+01
 0.2220784519441E+01
 0.2159070458139E+01
 0.2087583935635E+01
 0.2005221601990E+01
 0.1909897286039E+01
 0.1799051315840E+01
 0.1670967964998E+01
 0.1526905610722E+01
 0.1376365170671E+01
 0.1252628568949E+01
 0.1258489853488E+01
 0.1635145884752E+01
 0.2618456137467E+01
 0.3953955686928E+01
 0.2482265795591E+01
 0.2658432448544E+01
 0.2787536547474E+01
 0.2838249414837E+01
 0.2833594493849E+01
 0.2803407199066E+01
 0.2764700109648E+01
 0.2724733436557E+01
 0.2686352488860E+01
 0.2650615686407E+01
 0.2617853863608E+01
 0.2588116515758E+01
 0.2561349441366E+01
 0.2537439101393E+01
 0.2516168637257E+01
 0.2497076992441E+01
 0.2479231547486E+01
 0.2461077373143E+01
 0.2440727416944E+01
 0.2416832365421E+01
 0.2389518603991E+01
 0.2359977758707E+01
 0.2328896416047E+01
 0.2295667527976E+01
 0.2258735554956E+01
 0.2216293612876E+01
 0.2166777300787E+01
 0.2109052610331E+01
 0.2042362425640E+01
 0.1966085427578E+01
 0.1879339177495E+01
 0.1780737016589E+01
 0.1669127834572E+01
 0.1545315904094E+01
 0.1415030839032E+01
 0.1295785762701E+01
 0.1234282900884E+01
 0.1341742444664E+01
 0.1798943977109E+01
 0.2698309956662E+01
 0.3783016909010E+01
 0.2400231784935E+01
 0.2558243869213E+01
 0.2685089792682E+01
 0.2749483909532E+01
 0.2761971874465E+01
 0.2745220975613E+01
 0.2715513152730E+01
 0.2681308755663E+01
 0.2646528928972E+01
 0.2612932544541E+01
 0.2581276174907E+01
 0.2551847563008E+01
 0.2524700261937E+01
 0.2499729719369E+01
 0.2476646337209E+01
 0.2454860046737E+01
 0.2433327537974E+01
 0.2410533045281E+01
 0.2384845988445E+01
 0.2355248887760E+01
 0.2322055684431E+01
 0.2286502543398E+01
 0.2249359034729E+01
 0.2210204277407E+01
 0.2167679285102E+01
 0.2120100177743E+01
 0.2065949975501E+01
 0.2004106071113E+01
 0.1933835751874E+01
 0.1854645409399E+01
 0.1766054992082E+01
 0.1667578752238E+01
 0.1559677959697E+01
 0.1445801199757E+01
 0.1335975835955E+01
 0.1254501427824E+01
 0.1255832071162E+01
 0.1442371400805E+01
 0.1933278409580E+01
 0.2742052404043E+01
 0.3642981818878E+01
 0.2327225233111E+01
 0.2469577665800E+01
 0.2591426766774E+01
 0.2663883349374E+01
 0.2689544908745E+01
 0.2684667888627E+01
 0.2663678037586E+01
 0.2635388968285E+01
 0.2604458346212E+01
 0.2573228901165E+01
 0.2542844998824E+01
 0.2513826090522E+01
 0.2486340224423E+01
 0.2460307933485E+01
 0.2435398152451E+01
 0.2410949768983E+01
 0.2385893091614E+01
 0.2358823734675E+01
 0.2328372531929E+01
 0.2293795098295E+01
 0.2255527675376E+01
 0.2214802164947E+01
 0.2172424775732E+01
 0.2128128242405E+01
 0.2080760971212E+01
 0.2028819383412E+01
 0.1970915205904E+01
 0.1906025808867E+01
 0.1833543736947E+01
 0.1753224133634E+01
 0.1665116889597E+01
 0.1569743565356E+01
 0.1469226058352E+01
 0.1369554392446E+01
 0.1284524799748E+01
 0.1243272389671E+01
 0.1301689160211E+01
 0.1543779635580E+01
 0.2039735426644E+01
 0.2763253617055E+01
 0.3526209005974E+01
 0.2261074037582E+01
 0.2389963289265E+01
 0.2505556177152E+01
 0.2582178145456E+01
 0.2617587325422E+01
 0.2622788001614E+01
 0.2609889551678E+01
 0.2587425228983E+01
 0.2560441514479E+01
 0.2531717409660E+01
 0.2502726713361E+01
 0.2474201728396E+01
 0.2446425812325E+01
 0.2419359232190E+01
 0.2392660516693E+01
 0.2365648994110E+01
 0.2337291104439E+01
 0.2306333910524E+01
 0.2271656206978E+01
 0.2232736881526E+01
 0.2190093622038E+01
 0.2144933211756E+01
 0.2098078381274E+01
 0.2049396250499E+01
 0.1997945583506E+01
 0.1942437800307E+01
 0.1881670981865E+01
 0.1814793365704E+01
 0.1741405527109E+01
 0.1661601280274E+01
 0.1576036351204E+01
 0.1486268050046E+01
 0.1396014342061E+01
 0.1313542682881E+01
 0.1255616553185E+01
 0.1253833037244E+01
 0.1360252317896E+01
 0.1638044347607E+01
 0.2122829578686E+01
 0.2770394555622E+01
 0.3427276707693E+01
 0.2200267656932E+01
 0.2317556677273E+01
 0.2426454559294E+01
 0.2504589723855E+01
 0.2546937568205E+01
 0.2560418783408E+01
 0.2554777706111E+01
 0.2537856784227E+01
 0.2514786352696E+01
 0.2488624394562E+01
 0.2461102725044E+01
 0.2433138394652E+01
 0.2405125615563E+01
 0.2377076468118E+01
 0.2348667038757E+01
 0.2319239343515E+01
 0.2287839476476E+01
 0.2253384840846E+01
 0.2214981387993E+01
 0.2172291859614E+01
 0.2125891209895E+01
 0.2076956043659E+01
 0.2026320244869E+01
 0.1973974762688E+01
 0.1919187838810E+01
 0.1860905989904E+01
 0.1798153357910E+01
 0.1730302499832E+01
 0.1657223801846E+01
 0.1579408341496E+01
 0.1498149044872E+01
 0.1416008227932E+01
 0.1338156376800E+01
 0.1274757122225E+01
 0.1244548923065E+01
 0.1279219097943E+01
 0.1423697409153E+01
 0.1722118743055E+01
 0.2187266360001E+01
 0.2768765142795E+01
 0.3342321132461E+01
 0.2143721908712E+01
 0.2250967832075E+01
 0.2353179026905E+01
 0.2431053552997E+01
 0.2478108846811E+01
 0.2498202556468E+01
 0.2498888939153E+01
 0.2487095287597E+01
 0.2467797017137E+01
 0.2444182156185E+01
 0.2418163752997E+01
 0.2390809460872E+01
 0.2362615517259E+01
 0.2333654582882E+01
 0.2303643452052E+01
 0.2271979234073E+01
 0.2237815949956E+01
 0.2200246909617E+01
 0.2158582844751E+01
 0.2112640424836E+01
 0.2063038775381E+01
 0.2010927863354E+01
 0.1957155268059E+01
 0.1901830528489E+01
 0.1844428492680E+01
 0.1784141092540E+01
 0.1720244188516E+01
 0.1652371768979E+01
 0.1580705031915E+01
 0.1506162819239E+01
 0.1430671169551E+01
 0.1357724045018E+01
 0.1293745445866E+01
 0.1250329312994E+01
 0.1247116548202E+01
 0.1313912797554E+01
 0.1487166172355E+01
 0.1795437023541E+01
 0.2237108513186E+01
 0.2761700406890E+01
 0.3268547134924E+01
 0.2090637299356E+01
 0.2189136523048E+01
 0.2284904084381E+01
 0.2361355664117E+01
 0.2411383568652E+01
 0.2436611696465E+01
 0.2442680376932E+01
 0.2435514355485E+01
 0.2419765246474E+01
 0.2398622336656E+01
 0.2374104615383E+01
 0.2347393270853E+01
 0.2319074392866E+01
 0.2289286381265E+01
 0.2257804362254E+01
 0.2224103726715E+01
 0.2187463062533E+01
 0.2147149148592E+01
 0.2102656319209E+01
 0.2053933040455E+01
 0.2001636641466E+01
 0.1946898281749E+01
 0.1890585597893E+01
 0.1832924453894E+01
 0.1773592197562E+01
 0.1712029618703E+01
 0.1647778730685E+01
 0.1580757490564E+01
 0.1511480240762E+01
 0.1441300848049E+01
 0.1372747786394E+01
 0.1310143348932E+01
 0.1260926626506E+01
 0.1237605377988E+01
 0.1259699193765E+01
 0.1353780723488E+01
 0.1547871812346E+01
 0.1858588451601E+01
 0.2275631663003E+01
 0.2751338080499E+01
 0.3203891587258E+01
 0.2040410362196E+01
 0.2131243904913E+01
 0.2220924967130E+01
 0.2295213741112E+01
 0.2346886585336E+01
 0.2375979421866E+01
 0.2386523052220E+01
 0.2383444072374E+01
 0.2370964032030E+01
 0.2352170458696E+01
 0.2329119658267E+01
 0.2303069139596E+01
 0.2274680417585E+01
 0.2244159284604E+01
 0.2211351316924E+01
 0.2175825372900E+01
 0.2136992693887E+01
 0.2094286550962E+01
 0.2047366014558E+01
 0.1996295229842E+01
 0.1941768128632E+01
 0.1884906594691E+01
 0.1826606064895E+01
 0.1767207847711E+01
 0.1706586691962E+01
 0.1644430617371E+01
 0.1580553219759E+01
 0.1515166567205E+01
 0.1449124871863E+01
 0.1384206225730E+01
 0.1323491708359E+01
 0.1272007602258E+01
 0.1237943321110E+01
 0.1234193861207E+01
 0.1279294689381E+01
 0.1395872626746E+01
 0.1604372430714E+01
 0.1912626517492E+01
 0.2305404655398E+01
 0.2739076251033E+01
 0.3146797623440E+01
 0.1992576279405E+01
 0.2076649695894E+01
 0.2160647433416E+01
 0.2232323857852E+01
 0.2284638970025E+01
 0.2316529693291E+01
 0.2330710250588E+01
 0.2331169525876E+01
 0.2321643524393E+01
 0.2305041695029E+01
 0.2283398936609E+01
 0.2258013945797E+01
 0.2229608046599E+01
 0.2198452971712E+01
 0.2164471846959E+01
 0.2127335591001E+01
 0.2086590081898E+01
 0.2041825745434E+01
 0.1992850073599E+01
 0.1939831202086E+01
 0.1883500532060E+01
 0.1824980365502E+01
 0.1765201631974E+01
 0.1704620541394E+01
 0.1643303196903E+01
 0.1581179355041E+01
 0.1518332479327E+01
 0.1455268837866E+01
 0.1393176950402E+01
 0.1334234981877E+01
 0.1282013286682E+01
 0.1242103264993E+01
 0.1223167181419E+01
 0.1237993526183E+01
 0.1303497925520E+01
 0.1438171216576E+01
 0.1656055780492E+01
 0.1958723522061E+01
 0.2328421717276E+01
 0.2725852483012E+01
 0.3096064138633E+01
 0.1946770632055E+01
 0.2024847240182E+01
 0.2103573174262E+01
 0.2172386333000E+01
 0.2224596115957E+01
 0.2258403311734E+01
 0.2275468085070E+01
 0.2278932188246E+01
 0.2272028852626E+01
 0.2257437786322E+01
 0.2237125134230E+01
 0.2212399309847E+01
 0.2184025604139E+01
 0.2152337711998E+01
 0.2117339127647E+01
 0.2078806211255E+01
 0.2036417227138E+01
 0.1989909378240E+01
 0.1939224633585E+01
 0.1884626557344E+01
 0.1826886068894E+01
 0.1767134855435E+01
 0.1706346172224E+01
 0.1645090269090E+01
 0.1583617614212E+01
 0.1522091233198E+01
 0.1460857219817E+01
 0.1400708368933E+01
 0.1343152780744E+01
 0.1290735044757E+01
 0.1247442075958E+01
 0.1219282575869E+01
 0.1215116720666E+01
 0.1247202248831E+01
 0.1330440233276E+01
 0.1479354704045E+01
 0.1702799008038E+01
 0.1998006145791E+01
 0.2346225408814E+01
 0.2712317574162E+01
 0.3050745882987E+01
 0.1902703223991E+01
 0.1975431056876E+01
 0.2049284913405E+01
 0.2115119113879E+01
 0.2166674038616E+01
 0.2201679364827E+01
 0.2220966450871E+01
 0.2226933087666E+01
 0.2222319476056E+01
 0.2209545002604E+01
 0.2190471207185E+01
 0.2166389355526E+01
 0.2138093437007E+01
 0.2105973258037E+01
 0.2070112051718E+01
 0.2030391032180E+01
 0.1986615753489E+01
 0.1938659545075E+01
 0.1886586923020E+01
 0.1830750424844E+01
 0.1771962868446E+01
 0.1711373084654E+01
 0.1650002209123E+01
 0.1588532975710E+01
 0.1527392323866E+01
 0.1466965830282E+01
 0.1407850884094E+01
 0.1351113455148E+01
 0.1298560004012E+01
 0.1253061353301E+01
 0.1218942010387E+01
 0.1202476933496E+01
 0.1212467322149E+01
 0.1260308870954E+01
 0.1358708303008E+01
 0.1518599774520E+01
 0.1744752804089E+01
 0.2031485936877E+01
 0.2360000378894E+01
 0.2698943887801E+01
 0.3010088924098E+01
 0.1860139753626E+01
 0.1928073129214E+01
 0.1997432845012E+01
 0.2060263847261E+01
 0.2110767131082E+01
 0.2146392173473E+01
 0.2167329301013E+01
 0.2175336924029E+01
 0.2172689667076E+01
 0.2161532995678E+01
 0.2143598694052E+01
 0.2120139017829E+01
 0.2091962565157E+01
 0.2059508174773E+01
 0.2022935563147E+01
 0.1982227302780E+01
 0.1937309304348E+01
 0.1888180519928E+01
 0.1835017701123E+01
 0.1778257240456E+01
 0.1718756021655E+01
 0.1657686345425E+01
 0.1596121331402E+01
 0.1534853770573E+01
 0.1474478368525E+01
 0.1415590911411E+01
 0.1359025886796E+01
 0.1306105190500E+01
 0.1258908061960E+01
 0.1220587025377E+01
 0.1195721653548E+01
 0.1190705007391E+01
 0.1214053924467E+01
 0.1276071766484E+01
 0.1387259046684E+01
 0.1555429479660E+01
 0.1782210383361E+01
 0.2060034757267E+01
 0.2370652397417E+01
 0.2686067017465E+01
 0.2973487855298E+01
 0.1818888754693E+01
 0.1882505281420E+01
 0.1947722977182E+01
 0.2007587751183E+01
 0.2056759879928E+01
 0.2092544316715E+01
 0.2114643729621E+01
 0.2124276522866E+01
 0.2123289761709E+01
 0.2113554373429E+01
 0.2096656614874E+01
 0.2073792842101E+01
 0.2045773758248E+01
 0.2013079505067E+01
 0.1975941150701E+01
 0.1934437094676E+01
 0.1888605557297E+01
 0.1838560965508E+01
 0.1784583243310E+01
 0.1727188293377E+01
 0.1667278688005E+01
 0.1606055034517E+01
 0.1544645070472E+01
 0.1483948308015E+01
 0.1424717846631E+01
 0.1367746269617E+01
 0.1314089144676E+01
 0.1265304589169E+01
 0.1223716295818E+01
 0.1192711306248E+01
 0.1177040819058E+01
 0.1183076849890E+01
 0.1218867412918E+01
 0.1293488982438E+01
 0.1415340778324E+01
 0.1589601232268E+01
 0.1815527792533E+01
 0.2084397233221E+01
 0.2378833897780E+01
 0.2674004620929E+01
 0.2940343307782E+01
 0.1778793684185E+01
 0.1838520022385E+01
 0.1899932385081E+01
 0.1956921151721E+01
 0.2004585953473E+01
 0.2040181256039E+01
 0.2063044928669E+01
 0.2073945884387E+01
 0.2074347166638E+01
 0.2065854339811E+01
 0.2049900602065E+01
 0.2027614531157E+01
 0.1999798513501E+01
 0.1966966243298E+01
 0.1929413781576E+01
 0.1887308333790E+01
 0.1840791485593E+01
 0.1790083029014E+01
 0.1735557464554E+01
 0.1677805773201E+01
 0.1617776709094E+01
 0.1556702174154E+01
 0.1495765202886E+01
 0.1435966985183E+01
 0.1378207967393E+01
 0.1323462034447E+01
 0.1272987094823E+01
 0.1228554518618E+01
 0.1192700623532E+01
 0.1168996769608E+01
 0.1162283176448E+01
 0.1178787494572E+01
 0.1225954821785E+01
 0.1311592443523E+01
 0.1442188874126E+01
 0.1620763042015E+01
 0.1844825694952E+01
 0.2105036736772E+01
 0.2384975381169E+01
 0.2662820364330E+01
 0.2912014176097E+01
 0.1739723425533E+01
 0.1795934133896E+01
 0.1853851911714E+01
 0.1908080132887E+01
 0.1954129312321E+01
 0.1989267964978E+01
 0.2012566917044E+01
 0.2024425812165E+01
 0.2025968710398E+01
 0.2018551273523E+01
 0.2003452249486E+01
 0.1981724608610E+01
 0.1954153819144E+01
 0.1921279535840E+01
 0.1883455727703E+01
 0.1840930593771E+01
 0.1793939938865E+01
 0.1742799342667E+01
 0.1687970030893E+01
 0.1630113811314E+01
 0.1570225373745E+01
 0.1509569531820E+01
 0.1449384064031E+01
 0.1390766169169E+01
 0.1334752503250E+01
 0.1282482862773E+01
 0.1235398794759E+01
 0.1195461864324E+01
 0.1165389133829E+01
 0.1148887006886E+01
 0.1150807891845E+01
 0.1177132074605E+01
 0.1234613888722E+01
 0.1329811960909E+01
 0.1467525558515E+01
 0.1649031008886E+01
 0.1870582478643E+01
 0.2122559223641E+01
 0.2389661718022E+01
 0.2652119186188E+01
 0.2889539548290E+01
 0.1701562506054E+01
 0.1754577702521E+01
 0.1809274219792E+01
 0.1860859387010E+01
 0.1905222624536E+01
 0.1939690711005E+01
 0.1963144867968E+01
 0.1975685203700E+01
 0.1978140634708E+01
 0.1971635884010E+01
 0.1957298115094E+01
 0.1936099947705E+01
 0.1908802840195E+01
 0.1875965094603E+01
 0.1837991181683E+01
 0.1795202229914E+01
 0.1747919408244E+01
 0.1696545366322E+01
 0.1641621150399E+01
 0.1583875536792E+01
 0.1524348510937E+01
 0.1464338598028E+01
 0.1405137227919E+01
 0.1347932221485E+01
 0.1293886458008E+01
 0.1244292012944E+01
 0.1200757454595E+01
 0.1165413731790E+01
 0.1141129244665E+01
 0.1131699859665E+01
 0.1141921910789E+01
 0.1177445984249E+01
 0.1244284048631E+01
 0.1347801170344E+01
 0.1491321223815E+01
 0.1674721378499E+01
 0.1893354942182E+01
 0.2137582715902E+01
 0.2393120958708E+01
 0.2642507896527E+01
 0.2868247343706E+01
 0.1664215227449E+01
 0.1714320309600E+01
 0.1766046559143E+01
 0.1815115513085E+01
 0.1857762299611E+01
 0.1891400706158E+01
 0.1914782989784E+01
 0.1927769527952E+01
 0.1930935643272E+01
 0.1925196306884E+01
 0.1911533468186E+01
 0.1890837565270E+01
 0.1863840668820E+01
 0.1831113062593E+01
 0.1793102346451E+01
 0.1750194442337E+01
 0.1702787198690E+01
 0.1651362036661E+01
 0.1596533251018E+01
 0.1539092583250E+01
 0.1480123947546E+01
 0.1420959363368E+01
 0.1362941948373E+01
 0.1307344354984E+01
 0.1255445788442E+01
 0.1208677371731E+01
 0.1168798575142E+01
 0.1138089381158E+01
 0.1119540770731E+01
 0.1116994819331E+01
 0.1135131866336E+01
 0.1179211314930E+01
 0.1254484655163E+01
 0.1365206835191E+01
 0.1513434606933E+01
 0.1697933911506E+01
 0.1913437116703E+01
 0.2150435020534E+01
 0.2395677073180E+01
 0.2633611300978E+01
 0.2848756280626E+01
 0.1627599368132E+01
 0.1675050376902E+01
 0.1724037403703E+01
 0.1770721614602E+01
 0.1811651662208E+01
 0.1844346066203E+01
 0.1867475270770E+01
 0.1880710633504E+01
 0.1884412244663E+01
 0.1879307360921E+01
 0.1866241505476E+01
 0.1846023423472E+01
 0.1819351958209E+01
 0.1786803448232E+01
 0.1748861498062E+01
 0.1705968824188E+01
 0.1658591542523E+01
 0.1607281933164E+01
 0.1552721200760E+01
 0.1495759854375E+01
 0.1437523717991E+01
 0.1379377222244E+01
 0.1322712501889E+01
 0.1268880987987E+01
 0.1219268541876E+01
 0.1175432675481E+01
 0.1139268357253E+01
 0.1113185003297E+01
 0.1100268580395E+01
 0.1104367481724E+01
 0.1129995778196E+01
 0.1181980311640E+01
 0.1264820744113E+01
 0.1381761439936E+01
 0.1533784985322E+01
 0.1718785754478E+01
 0.1931083906639E+01
 0.2161408707860E+01
 0.2397483694565E+01
 0.2625331379444E+01
 0.2831121576577E+01
 0.1591643567545E+01
 0.1636671762437E+01
 0.1683132732773E+01
 0.1727565149691E+01
 0.1766801013434E+01
 0.1798473599755E+01
 0.1821207957242E+01
 0.1834529042547E+01
 0.1838616453464E+01
 0.1834031633325E+01
 0.1821493994522E+01
 0.1801732853604E+01
 0.1775411319042E+01
 0.1743106623896E+01
 0.1705331641689E+01
 0.1662578163077E+01
 0.1615372494632E+01
 0.1564330216963E+01
 0.1510193272996E+01
 0.1453866536655E+01
 0.1396515156332E+01
 0.1339534173846E+01
 0.1284361518020E+01
 0.1232421211287E+01
 0.1185196437132E+01
 0.1144359122849E+01
 0.1111925183792E+01
 0.1090414841656E+01
 0.1082983094595E+01
 0.1093449012274E+01
 0.1126120451921E+01
 0.1185368614717E+01
 0.1274970093106E+01
 0.1397264790436E+01
 0.1552334684426E+01
 0.1737398120228E+01
 0.1946520796109E+01
 0.2170734660907E+01
 0.2398653361644E+01
 0.2617628057563E+01
 0.2815238632049E+01
 0.1556285301139E+01
 0.1599100936042E+01
 0.1643233033411E+01
 0.1685545950228E+01
 0.1723127354435E+01
 0.1753729984783E+01
 0.1775961444992E+01
 0.1789235852942E+01
 0.1793583311692E+01
 0.1789420537656E+01
 0.1777351968778E+01
 0.1758031052595E+01
 0.1732083771046E+01
 0.1700083839204E+01
 0.1662567134170E+01
 0.1620067167918E+01
 0.1573162730262E+01
 0.1522525469990E+01
 0.1468952023117E+01
 0.1413397033839E+01
 0.1357061914198E+01
 0.1301369940024E+01
 0.1247801199227E+01
 0.1197846093359E+01
 0.1153076207560E+01
 0.1115266658938E+01
 0.1086540692050E+01
 0.1069511861553E+01
 0.1067380322702E+01
 0.1083905116360E+01
 0.1123158357709E+01
 0.1189048369167E+01
 0.1284671459255E+01
 0.1411569181117E+01
 0.1569075332872E+01
 0.1753890390035E+01
 0.1959942437475E+01
 0.2178597945503E+01
 0.2399275494536E+01
 0.2610464901710E+01
 0.2800965638764E+01
 0.1521469267992E+01
 0.1562264687031E+01
 0.1604250824093E+01
 0.1644574450092E+01
 0.1680553907462E+01
 0.1710062500920E+01
 0.1731711704370E+01
 0.1744834298877E+01
 0.1749338229976E+01
 0.1745515319387E+01
 0.1733866443730E+01
 0.1714973625532E+01
 0.1689425231029E+01
 0.1657787740959E+01
 0.1620614276709E+01
 0.1578473135220E+01
 0.1531988265557E+01
 0.1481880454696E+01
 0.1428995091254E+01
 0.1374331831422E+01
 0.1319124905526E+01
 0.1264822996024E+01
 0.1212944425542E+01
 0.1165039825561E+01
 0.1122760724036E+01
 0.1087974974873E+01
 0.1062900512046E+01
 0.1050228065621E+01
 0.1053181539039E+01
 0.1075434625864E+01
 0.1120804174470E+01
 0.1192741470257E+01
 0.1293714225584E+01
 0.1424567337686E+01
 0.1584018059840E+01
 0.1768375683292E+01
 0.1971515345234E+01
 0.2185148731617E+01
 0.2399418878538E+01
 0.2603800997733E+01
 0.2788152200580E+01
 0.1487146088814E+01
 0.1526098263378E+01
 0.1566108601986E+01
 0.1604570123020E+01
 0.1639009540697E+01
 0.1667419455580E+01
 0.1688431353955E+01
 0.1701321037221E+01
 0.1705898175719E+01
 0.1702348014903E+01
 0.1691079153989E+01
 0.1672607177380E+01
 0.1647483048595E+01
 0.1616262921523E+01
 0.1579511910883E+01
 0.1537826597887E+01
 0.1491869150064E+01
 0.1442402845064E+01
 0.1390315979694E+01
 0.1336648336548E+01
 0.1282663220521E+01
 0.1229831555262E+01
 0.1179705787516E+01
 0.1133890758597E+01
 0.1094109964045E+01
 0.1062314309816E+01
 0.1040804778926E+01
 0.1032334574749E+01
 0.1040132717619E+01
 0.1067767831481E+01
 0.1118791184004E+01
 0.1196213180635E+01
 0.1301929433417E+01
 0.1436182823987E+01
 0.1597186274805E+01
 0.1780958376460E+01
 0.1981381302689E+01
 0.2190508871987E+01
 0.2399134122119E+01
 0.2597589508477E+01
 0.2776649016343E+01
 0.1453271242660E+01
 0.1490543849997E+01
 0.1528737131163E+01
 0.1565460108035E+01
 0.1598428148010E+01
 0.1625750385222E+01
 0.1646090448962E+01
 0.1658687188934E+01
 0.1663272702058E+01
 0.1659942334615E+01
 0.1649023271311E+01
 0.1630969911517E+01
 0.1606296549562E+01
 0.1575546460282E+01
 0.1539291987641E+01
 0.1498151929709E+01
 0.1452820104834E+01
 0.1404095899577E+01
 0.1352904770529E+01
 0.1300321653425E+01
 0.1247634964624E+01
 0.1196334461953E+01
 0.1148002503095E+01
 0.1104292293237E+01
 0.1066991803725E+01
 0.1038126051494E+01
 0.1020068434864E+01
 0.1015621503026E+01
 0.1028003764187E+01
 0.1060664630852E+01
 0.1116887649372E+01
 0.1199266252062E+01
 0.1309182157776E+01
 0.1446362469013E+01
 0.1608610454245E+01
 0.1791732960815E+01
 0.1989660412951E+01
 0.2194776647054E+01
 0.2398456060313E+01
 0.2591778415057E+01
 0.2766311539516E+01
 0.1419804190695E+01
 0.1455549316088E+01
 0.1492074010171E+01
 0.1527178006063E+01
 0.1558748023527E+01
 0.1585006102229E+01
 0.1604657051093E+01
 0.1616919178636E+01
 0.1621464834914E+01
 0.1618314469333E+01
 0.1607724093984E+01
 0.1590092224162E+01
 0.1565897579311E+01
 0.1535668455903E+01
 0.1499980112890E+01
 0.1459467913778E+01
 0.1414851116559E+01
 0.1366959086238E+01
 0.1316748791840E+01
 0.1265325300672E+01
 0.1213998028001E+01
 0.1164271998044E+01
 0.1117755228691E+01
 0.1076143643215E+01
 0.1041282662560E+01
 0.1015263178744E+01
 0.1000521375292E+01
 0.9998976868474E+00
 0.1016587611571E+01
 0.1053912582481E+01
 0.1114893298803E+01
 0.1201735631920E+01
 0.1315365109933E+01
 0.1455070432947E+01
 0.1618324440804E+01
 0.1800783672301E+01
 0.1996453760248E+01
 0.2198030478560E+01
 0.2397406143891E+01
 0.2586311821043E+01
 0.2757001477797E+01
 0.1386707647890E+01
 0.1421067175710E+01
 0.1456062466343E+01
 0.1489662826230E+01
 0.1519911250552E+01
 0.1545138632223E+01
 0.1564097624785E+01
 0.1575999400539E+01
 0.1580471825394E+01
 0.1577473810681E+01
 0.1567199689046E+01
 0.1549997272977E+01
 0.1526311025239E+01
 0.1496652531585E+01
 0.1461596055314E+01
 0.1421788262930E+01
 0.1377967976456E+01
 0.1330988647315E+01
 0.1281833218154E+01
 0.1231631854699E+01
 0.1181710769219E+01
 0.1133586589545E+01
 0.1088888753540E+01
 0.1049350466697E+01
 0.1016868007375E+01
 0.9935905641015E+00
 0.9820084666440E+00
 0.9849903014446E+00
 0.1005699222146E+01
 0.1047324933922E+01
 0.1112636000938E+01
 0.1203483783180E+01
 0.1320393330635E+01
 0.1462283597789E+01
 0.1626362853912E+01
 0.1808184584610E+01
 0.2001845741246E+01
 0.2200332000217E+01
 0.2395994711473E+01
 0.2581131323324E+01
 0.2748587419216E+01
 0.1353946973152E+01
 0.1387053720255E+01
 0.1420650337947E+01
 0.1452858066589E+01
 0.1481863122449E+01
 0.1506101082727E+01
 0.1524377305858E+01
 0.1535906747685E+01
 0.1540285790527E+01
 0.1537423596699E+01
 0.1527461491657E+01
 0.1510701522306E+01
 0.1487555322493E+01
 0.1458516321030E+01
 0.1424154228081E+01
 0.1385122106943E+01
 0.1342172780306E+01
 0.1296178120481E+01
 0.1248141621502E+01
 0.1199213535311E+01
 0.1150732629982E+01
 0.1104223431109E+01
 0.1061332599904E+01
 0.1023825394415E+01
 0.9936427506613E+00
 0.9729851778084E+00
 0.9643894804809E+00
 0.9707444111917E+00
 0.9951745500294E+00
 0.1040738690434E+01
 0.1109968692596E+01
 0.1204396607110E+01
 0.1324199823849E+01
 0.1467988002612E+01
 0.1632759297898E+01
 0.1813999968975E+01
 0.2005906116040E+01
 0.2201728667773E+01
 0.2394223080040E+01
 0.2576177287746E+01
 0.2740945159859E+01
 0.1321489655113E+01
 0.1353468289891E+01
 0.1385789211376E+01
 0.1416710912702E+01
 0.1444551603181E+01
 0.1467847469551E+01
 0.1485460074463E+01
 0.1496617030525E+01
 0.1500894257452E+01
 0.1498161487494E+01
 0.1488514859839E+01
 0.1472215260498E+01
 0.1449642938608E+01
 0.1421271932638E+01
 0.1387664144214E+01
 0.1349474448015E+01
 0.1307464391822E+01
 0.1262518818354E+01
 0.1215656474653E+01
 0.1168042735084E+01
 0.1121024683373E+01
 0.1076131033441E+01
 0.1035021537305E+01
 0.9994884678343E+00
 0.9715115626103E+00
 0.9533362180634E+00
 0.9475389725953E+00
 0.9570224862826E+00
 0.9848695047152E+00
 0.1034012777145E+01
 0.1106766599817E+01
 0.1204379942634E+01
 0.1326731997655E+01
 0.1472176106102E+01
 0.1637545150600E+01
 0.1818284809419E+01
 0.2008691824493E+01
 0.2202256012137E+01
 0.2392085426964E+01
 0.2571390005648E+01
 0.2733957941653E+01
 0.1289304875460E+01
 0.1320272657059E+01
 0.1351433684961E+01
 0.1381171536354E+01
 0.1407926827431E+01
 0.1430332515422E+01
 0.1447308852022E+01
 0.1458103300612E+01
 0.1462280618166E+01
 0.1459680069225E+01
 0.1450359576342E+01
 0.1434543077622E+01
 0.1412580824450E+01
 0.1384926379893E+01
 0.1352130834613E+01
 0.1314846574164E+01
 0.1273838859065E+01
 0.1230000255737E+01
 0.1184359595395E+01
 0.1138092481491E+01
 0.1092550105590E+01
 0.1049261685677E+01
 0.1009896006330E+01
 0.9762674874143E+00
 0.9503891019741E+00
 0.9345451772688E+00
 0.9313461208522E+00
 0.9437039050989E+00
 0.9746589453266E+00
 0.1027026331402E+01
 0.1102924771392E+01
 0.1203356601913E+01
 0.1327948791003E+01
 0.1474844703338E+01
 0.1640748775943E+01
 0.1821085402215E+01
 0.2010248598710E+01
 0.2201939594894E+01
 0.2389570461235E+01
 0.2566710732767E+01
 0.2727516689910E+01
 0.1257363135802E+01
 0.1287430502220E+01
 0.1317540738939E+01
 0.1346192482641E+01
 0.1371940643265E+01
 0.1393511437109E+01
 0.1409885545022E+01
 0.1420336101698E+01
 0.1424424512275E+01
 0.1421967298064E+01
 0.1412990304997E+01
 0.1397684308880E+01
 0.1376370836634E+01
 0.1349481984208E+01
 0.1317555236491E+01
 0.1281236439615E+01
 0.1241289793723E+01
 0.1198610534754E+01
 0.1154232542444E+01
 0.1109336843096E+01
 0.1065274583823E+01
 0.1023571847346E+01
 0.9859024692438E+00
 0.9540982911544E+00
 0.9302001887585E+00
 0.9165258693402E+00
 0.9157145484641E+00
 0.9306844721220E+00
 0.9644357406411E+00
 0.1019677159492E+01
 0.1098355934134E+01
 0.1201263895792E+01
 0.1327818376673E+01
 0.1475993354515E+01
 0.1642395039488E+01
 0.1822439985371E+01
 0.2010612388148E+01
 0.2200796705184E+01
 0.2386662896296E+01
 0.2562082633786E+01
 0.2721520291557E+01
 0.1225635936749E+01
 0.1254906964460E+01
 0.1284069192111E+01
 0.1311728130917E+01
 0.1336546192722E+01
 0.1357339725932E+01
 0.1373151045303E+01
 0.1383283657037E+01
 0.1387302141939E+01
 0.1385006882706E+01
 0.1376396995322E+01
 0.1361633434333E+01
 0.1341010120593E+01
 0.1314936739061E+01
 0.1283934541209E+01
 0.1248639001288E+01
 0.1209808702384E+01
 0.1168336676984E+01
 0.1125256952274E+01
 0.1081751269832E+01
 0.1039166651664E+01
 0.9990224634028E+00
 0.9629936835251E+00
 0.9329249625980E+00
 0.9108799209942E+00
 0.8992044233147E+00
 0.9005621416230E+00
 0.9178759661962E+00
 0.9541099166443E+00
 0.1011880378600E+01
 0.1092988668838E+01
 0.1198051604636E+01
 0.1326316352259E+01
 0.1475623220832E+01
 0.1642505044891E+01
 0.1822379366941E+01
 0.2009810614219E+01
 0.2198837829292E+01
 0.2383344743526E+01
 0.2557451643705E+01
 0.2715875946406E+01
 0.1194095499959E+01
 0.1222668253731E+01
 0.1250979230549E+01
 0.1277734219104E+01
 0.1301697528186E+01
 0.1321772928059E+01
 0.1337065198518E+01
 0.1346912005487E+01
 0.1350886529350E+01
 0.1348778612181E+01
 0.1340565238889E+01
 0.1326380436418E+01
 0.1306491454909E+01
 0.1281284636061E+01
 0.1251262502568E+01
 0.1217046512934E+01
 0.1179385271680E+01
 0.1139164904759E+01
 0.1097414819499E+01
 0.1055312870794E+01
 0.1014197956655E+01
 0.9755792083705E+00
 0.9411289059683E+00
 0.9126999773903E+00
 0.8923737458395E+00
 0.8825192545771E+00
 0.8858208747111E+00
 0.9052057360109E+00
 0.9436079115690E+00
 0.1003567258141E+01
 0.1086765897567E+01
 0.1193680347675E+01
 0.1323424339203E+01
 0.1473736218202E+01
 0.1641096022263E+01
 0.1820927522104E+01
 0.2007863259895E+01
 0.2196067912338E+01
 0.2379596439993E+01
 0.2552767261765E+01
 0.2710499566785E+01
 0.1162714526110E+01
 0.1190681314785E+01
 0.1218231997667E+01
 0.1244167424120E+01
 0.1267349264248E+01
 0.1286766431818E+01
 0.1301586753288E+01
 0.1311185100886E+01
 0.1315147730345E+01
 0.1313258640414E+01
 0.1305476586768E+01
 0.1291911123108E+01
 0.1272803564218E+01
 0.1248515960411E+01
 0.1219529713538E+01
 0.1186448785449E+01
 0.1150007616373E+01
 0.1111080881262E+01
 0.1070688731190E+01
 0.1030000640863E+01
 0.9903434724779E+00
 0.9532126733990E+00
 0.9202740423091E+00
 0.8933843041773E+00
 0.8746375012935E+00
 0.8664210305954E+00
 0.8714366617356E+00
 0.8926163647171E+00
 0.9328719621029E+00
 0.9946842770857E+00
 0.1079643677610E+01
 0.1188120316105E+01
 0.1319128931346E+01
 0.1470334425850E+01
 0.1638181322667E+01
 0.1818102142776E+01
 0.2004783804264E+01
 0.2192487433149E+01
 0.2375397830673E+01
 0.2547983288928E+01
 0.2705316239573E+01
 0.1131465982493E+01
 0.1158913533067E+01
 0.1185789233982E+01
 0.1210984988103E+01
 0.1233456258973E+01
 0.1252275260917E+01
 0.1266673293353E+01
 0.1276064877814E+01
 0.1280053005900E+01
 0.1278419726657E+01
 0.1271108824332E+01
 0.1258207410722E+01
 0.1239931393172E+01
 0.1216617547320E+01
 0.1188723842445E+01
 0.1156833404114E+01
 0.1121662480991E+01
 0.1084069900111E+01
 0.1045062046117E+01
 0.1005795627894E+01
 0.9675816484936E+00
 0.9318984900021E+00
 0.9004017370931E+00
 0.8749474552661E+00
 0.8576374245464E+00
 0.8508726284515E+00
 0.8573692342674E+00
 0.8800654087009E+00
 0.9218596289816E+00
 0.9851924009366E+00
 0.1071590290147E+01
 0.1181350336980E+01
 0.1313420945063E+01
 0.1465419701462E+01
 0.1633770484742E+01
 0.1813915127237E+01
 0.2000580007511E+01
 0.2188093304915E+01
 0.2370729014406E+01
 0.2543058510776E+01
 0.2700260735654E+01
 0.1100322915241E+01
 0.1127332475400E+01
 0.1153612958367E+01
 0.1178144383839E+01
 0.1199973321971E+01
 0.1218253875782E+01
 0.1232281158783E+01
 0.1241511291698E+01
 0.1245566959358E+01
 0.1244231438371E+01
 0.1237436208435E+01
 0.1225247570045E+01
 0.1207856344188E+01
 0.1185573001687E+01
 0.1158829830858E+01
 0.1128185905068E+01
 0.1094335397546E+01
 0.1058117027327E+01
 0.1020519022457E+01
 0.9826810447714E+00
 0.9458945018002E+00
 0.9116173963809E+00
 0.8814914100081E+00
 0.8573674930326E+00
 0.8413501324268E+00
 0.8358490896643E+00
 0.8435920530735E+00
 0.8675252208541E+00
 0.9105434737173E+00
 0.9750665847214E+00
 0.1062585616230E+01
 0.1173357243627E+01
 0.1306294935416E+01
 0.1458993467163E+01
 0.1627869348158E+01
 0.1808373000025E+01
 0.1995254549983E+01
 0.2182879611600E+01
 0.2365571062490E+01
 0.2537957328644E+01
 0.2695278057685E+01
 0.1069258281918E+01
 0.1095905659153E+01
 0.1121665183349E+01
 0.1145603012849E+01
 0.1166854945724E+01
 0.1184655983283E+01
 0.1198365359710E+01
 0.1207482338348E+01
 0.1211651644547E+01
 0.1210660320696E+01
 0.1204429669608E+01
 0.1193006436993E+01
 0.1176556479237E+01
 0.1155362880640E+01
 0.1129830052394E+01
 0.1100489910114E+01
 0.1068010798494E+01
 0.1033207195123E+01
 0.9970448939089E+00
 0.9606423269861E+00
 0.9252676532164E+00
 0.8923552482631E+00
 0.8635292406420E+00
 0.8406309934347E+00
 0.8257625743804E+00
 0.8213375724580E+00
 0.8300922551102E+00
 0.8549828631835E+00
 0.8989108933057E+00
 0.9642955056347E+00
 0.1052620794312E+01
 0.1164135535433E+01
 0.1297748953932E+01
 0.1451056642173E+01
 0.1620480196793E+01
 0.1801477255170E+01
 0.1988805527145E+01
 0.2176838185984E+01
 0.2359906614567E+01
 0.2532650337513E+01
 0.2690324016152E+01
 0.1038244800806E+01
 0.1064600344502E+01
 0.1089907658019E+01
 0.1113317930430E+01
 0.1134055056875E+01
 0.1151434354820E+01
 0.1164879485393E+01
 0.1173934057415E+01
 0.1178266649619E+01
 0.1177670036640E+01
 0.1172056982249E+01
 0.1161455589641E+01
 0.1146006686460E+01
 0.1125964839035E+01
 0.1101704432114E+01
 0.1073727219336E+01
 0.1042672084422E+01
 0.1009325247271E+01
 0.9746258944238E+00
 0.9396671365914E+00
 0.9056903086725E+00
 0.8741029760837E+00
 0.8465081032292E+00
 0.8247329671507E+00
 0.8108719569709E+00
 0.8073372994547E+00
 0.8168706346441E+00
 0.8424401102366E+00
 0.8869641168086E+00
 0.9528815281109E+00
 0.1041698156648E+01
 0.1153687317388E+01
 0.1287784533821E+01
 0.1441609707783E+01
 0.1611601920881E+01
 0.1793224617307E+01
 0.1981226799810E+01
 0.2169959031296E+01
 0.2353720352862E+01
 0.2527114847077E+01
 0.2685365822606E+01
 0.1007254813701E+01
 0.1033383345213E+01
 0.1058301633191E+01
 0.1081245592862E+01
 0.1101526784850E+01
 0.1118540653031E+01
 0.1131775611592E+01
 0.1140820524502E+01
 0.1145369161881E+01
 0.1145221482931E+01
 0.1140282906911E+01
 0.1130563494700E+01
 0.1116178813851E+01
 0.1097353739461E+01
 0.1074430527604E+01
 0.1047877862345E+01
 0.1018301647257E+01
 0.9864559369822E+00
 0.9532492329282E+00
 0.9197453144616E+00
 0.8871551884674E+00
 0.8568564911847E+00
 0.8304274535962E+00
 0.8096767391624E+00
 0.7966856386137E+00
 0.7938594976437E+00
 0.8039416551844E+00
 0.8299135422035E+00
 0.8747203658048E+00
 0.9408409048309E+00
 0.1029831446802E+01
 0.1142022518870E+01
 0.1276406899870E+01
 0.1430652900905E+01
 0.1601230194362E+01
 0.1783607217555E+01
 0.1972508197660E+01
 0.2162230585572E+01
 0.2346999353462E+01
 0.2521335341386E+01
 0.2680382689786E+01
 0.9762601593722E+00
 0.1002220853729E+01
 0.1026807643732E+01
 0.1049341622180E+01
 0.1069222244923E+01
 0.1085925266747E+01
 0.1099004208229E+01
 0.1108093835447E+01
 0.1112914017762E+01
 0.1113272885385E+01
 0.1109069307735E+01
 0.1100295625540E+01
 0.1087041771147E+01
 0.1069501727121E+01
 0.1047983571511E+01
 0.1022920107553E+01
 0.9948808482096E+00
 0.9645838766497E+00
 0.9329030176832E+00
 0.9008687810001E+00
 0.8696584050429E+00
 0.8406165418866E+00
 0.8152931686734E+00
 0.7954737856059E+00
 0.7832209907995E+00
 0.7809273241369E+00
 0.7913334844282E+00
 0.8174347214014E+00
 0.8622121764328E+00
 0.9282042159718E+00
 0.1017046323929E+01
 0.1129159398972E+01
 0.1263625410302E+01
 0.1418186541710E+01
 0.1589357669447E+01
 0.1772612681965E+01
 0.1962635571096E+01
 0.2153639823672E+01
 0.2339733310126E+01
 0.2515303870209E+01
 0.2675366428662E+01
 0.9452320550226E+00
 0.9710782766412E+00
 0.9953853033687E+00
 0.1017560584128E+01
 0.1037092332985E+01
 0.1053537153687E+01
 0.1066514049006E+01
 0.1075704085984E+01
 0.1080853741687E+01
 0.1081779877414E+01
 0.1078375247994E+01
 0.1070614553799E+01
 0.1058561601064E+01
 0.1042378269899E+01
 0.1022336475179E+01
 0.9988304286493E+00
 0.9723899493998E+00
 0.9436934383426E+00
 0.9135761294304E+00
 0.8830313848779E+00
 0.8531992893287E+00
 0.8253885197323E+00
 0.8011173384361E+00
 0.7821435261379E+00
 0.7705052210200E+00
 0.7685757690571E+00
 0.7790880406307E+00
 0.8050504408165E+00
 0.8494878762495E+00
 0.9150170475634E+00
 0.1003381162826E+01
 0.1115125353528E+01
 0.1249454248222E+01
 0.1404211510530E+01
 0.1575974196287E+01
 0.1760224130874E+01
 0.1951590682805E+01
 0.2144172187094E+01
 0.2331914622881E+01
 0.2509020364120E+01
 0.2670322030483E+01
 0.9141409832677E+00
 0.9399200770983E+00
 0.9639931080005E+00
 0.9858557759621E+00
 0.1005086530387E+01
 0.1021323691680E+01
 0.1034252126032E+01
 0.1043599351456E+01
 0.1049138579367E+01
 0.1050695567211E+01
 0.1048157068811E+01
 0.1041480018960E+01
 0.1030701523427E+01
 0.1015950166370E+01
 0.9974597954369E+00
 0.9755834297498E+00
 0.9508080002201E+00
 0.9237686059696E+00
 0.8952580442858E+00
 0.8662287010411E+00
 0.8377801673005E+00
 0.8111822178198E+00
 0.7879180118971E+00
 0.7697130719162E+00
 0.7585751541652E+00
 0.7568515273698E+00
 0.7672610373741E+00
 0.7928230302274E+00
 0.8366122062132E+00
 0.9013409101700E+00
 0.9888881645673E+00
 0.1099958050313E+01
 0.1233913394832E+01
 0.1388729903577E+01
 0.1561067086148E+01
 0.1746420091708E+01
 0.1939350928689E+01
 0.2133811328595E+01
 0.2323538342436E+01
 0.2502492866091E+01
 0.2665268222829E+01
 0.8829565821364E+00
 0.9087096198320E+00
 0.9325882420604E+00
 0.9541790186244E+00
 0.9731527145022E+00
 0.9892305356876E+00
 0.1002163568297E+01
 0.1011725666349E+01
 0.1017716525426E+01
 0.1019970593116E+01
 0.1018368449721E+01
 0.1012848973478E+01
 0.1003421948735E+01
 0.9901815173018E+00
 0.9733216592422E+00
 0.9531517232692E+00
 0.9301126720915E+00
 0.9047927726053E+00
 0.8779386000323E+00
 0.8504577720752E+00
 0.8234060814969E+00
 0.7980115366548E+00
 0.7757188928233E+00
 0.7582169238425E+00
 0.7474769637207E+00
 0.7458128249045E+00
 0.7559220046160E+00
 0.7808306933180E+00
 0.8236670646442E+00
 0.8872543877761E+00
 0.9736347863333E+00
 0.1083706918383E+01
 0.1217029920076E+01
 0.1371745901025E+01
 0.1544621436907E+01
 0.1731174321117E+01
 0.1925888864673E+01
 0.2122538644170E+01
 0.2314601954353E+01
 0.2495737663884E+01
 0.2660237990467E+01
 0.8516475354430E+00
 0.8774090157334E+00
 0.9011263848059E+00
 0.9224804513852E+00
 0.9412369754773E+00
 0.9572014839603E+00
 0.9701915698983E+00
 0.9800270114623E+00
 0.9865333543021E+00
 0.9895531764544E+00
 0.9889604602511E+00
 0.9846756122273E+00
 0.9766804692692E+00
 0.9650336679918E+00
 0.9498876526869E+00
 0.9315057662142E+00
 0.9102800465507E+00
 0.8867484873152E+00
 0.8616077097382E+00
 0.8357167967136E+00
 0.8100844614550E+00
 0.7858941418984E+00
 0.7645489898519E+00
 0.7476966250456E+00
 0.7372658536194E+00
 0.7355291926307E+00
 0.7451542704566E+00
 0.7691678526382E+00
 0.8107523520333E+00
 0.8728545116328E+00
 0.9577055110421E+00
 0.1066435038208E+01
 0.1198839653720E+01
 0.1353266910793E+01
 0.1526620565917E+01
 0.1714455548736E+01
 0.1911171519686E+01
 0.2110332563847E+01
 0.2305104988120E+01
 0.2488779325024E+01
 0.2655279016533E+01
 0.8201814612122E+00
 0.8459789623287E+00
 0.8695615125030E+00
 0.8907083258994E+00
 0.9092834382358E+00
 0.9251783549122E+00
 0.9382773317731E+00
 0.9484453138187E+00
 0.9555326600519E+00
 0.9593891774641E+00
 0.9598816076836E+00
 0.9569113907484E+00
 0.9504318313896E+00
 0.9404651241343E+00
 0.9271206760707E+00
 0.9106136556166E+00
 0.8912843565222E+00
 0.8696171506295E+00
 0.8462550213849E+00
 0.8220047640456E+00
 0.7978247419570E+00
 0.7748510737559E+00
 0.7544422218849E+00
 0.7382003690034E+00
 0.7280056902080E+00
 0.7260811819986E+00
 0.7350548847400E+00
 0.7579454717274E+00
 0.7979868844041E+00
 0.8582583436061E+00
 0.9412039740410E+00
 0.1048221485777E+01
 0.1179389315334E+01
 0.1333305071561E+01
 0.1507046613838E+01
 0.1696227162922E+01
 0.1895159466820E+01
 0.2097167554975E+01
 0.2295048433281E+01
 0.2481650625831E+01
 0.2650454057931E+01
 0.7885247947879E+00
 0.8143785747246E+00
 0.8378456899748E+00
 0.8588087937110E+00
 0.8772340855868E+00
 0.8931008726173E+00
 0.9063600162942E+00
 0.9169204592776E+00
 0.9246559048783E+00
 0.9294221534390E+00
 0.9310778792388E+00
 0.9295050294906E+00
 0.9246278851226E+00
 0.9164314361738E+00
 0.9049807588366E+00
 0.8904408757985E+00
 0.8730976724733E+00
 0.8533786495498E+00
 0.8318695138156E+00
 0.8093210235127E+00
 0.7866379194702E+00
 0.7649062993825E+00
 0.7454369717727E+00
 0.7297825577730E+00
 0.7197685779371E+00
 0.7175600083992E+00
 0.7257344570983E+00
 0.7472913087334E+00
 0.7855093203030E+00
 0.8436047277266E+00
 0.9242554430437E+00
 0.1029164173409E+01
 0.1158739182128E+01
 0.1311879206607E+01
 0.1485881392357E+01
 0.1676446858263E+01
 0.1877805600895E+01
 0.2083012751360E+01
 0.2284433918860E+01
 0.2474392379044E+01
 0.2645841175649E+01
 0.7566426634270E+00
 0.7825652028292E+00
 0.8059288474662E+00
 0.8267256853369E+00
 0.8450285840666E+00
 0.8609065661209E+00
 0.8743767226186E+00
 0.8853903272668E+00
 0.8938424864155E+00
 0.8995934292584E+00
 0.9024927886569E+00
 0.9024025136490E+00
 0.8992175199984E+00
 0.8928850601876E+00
 0.8834248412425E+00
 0.8709500030009E+00
 0.8556895375821E+00
 0.8380109348417E+00
 0.8184390305010E+00
 0.7976647912163E+00
 0.7765360469237E+00
 0.7560862090525E+00
 0.7375755908822E+00
 0.7225033155870E+00
 0.7126343853733E+00
 0.7100671250245E+00
 0.7173168972403E+00
 0.7373500664400E+00
 0.7734790494169E+00
 0.8290561678061E+00
 0.9070096532452E+00
 0.1009383251296E+01
 0.1136966412199E+01
 0.1289017371338E+01
 0.1463107605770E+01
 0.1655066312986E+01
 0.1859053583409E+01
 0.2067830090158E+01
 0.2273262595678E+01
 0.2467053185269E+01
 0.2641533749837E+01
 0.7244987483654E+00
 0.7504942281522E+00
 0.7737585353613E+00
 0.7944002751240E+00
 0.8126041098022E+00
 0.8285306827375E+00
 0.8422624845833E+00
 0.8537908497399E+00
 0.8630298253761E+00
 0.8698421810805E+00
 0.8740674271336E+00
 0.8755470877371E+00
 0.8741465853914E+00
 0.8697751925047E+00
 0.8624065187524E+00
 0.8521003620437E+00
 0.8390265452685E+00
 0.8234895327260E+00
 0.8059497421303E+00
 0.7870345827013E+00
 0.7675316566956E+00
 0.7484190467495E+00
 0.7309038476258E+00
 0.7164279549038E+00
 0.7066902223784E+00
 0.7037137263984E+00
 0.7099390425003E+00
 0.7282833944154E+00
 0.7620769680386E+00
 0.8148007534695E+00
 0.8896439633910E+00
 0.9890251114882E+00
 0.1114169137891E+01
 0.1264760150922E+01
 0.1438710602322E+01
 0.1632030994025E+01
 0.1838835908337E+01
 0.2051571751745E+01
 0.2261533574098E+01
 0.2459689154328E+01
 0.2637640148899E+01
 0.6920551293073E+00
 0.7181188330542E+00
 0.7412796496479E+00
 0.7617710279200E+00
 0.7798951750886E+00
 0.7959061200751E+00
 0.8099502981258E+00
 0.8220561018941E+00
 0.8321534807605E+00
 0.8401055398731E+00
 0.8457405248275E+00
 0.8488792506715E+00
 0.8493578005253E+00
 0.8470475822549E+00
 0.8418757519971E+00
 0.8338476362214E+00
 0.8230718585055E+00
 0.8097869885571E+00
 0.7943855338021E+00
 0.7774275663095E+00
 0.7596371047061E+00
 0.7419342680197E+00
 0.7254703148194E+00
 0.7116263945686E+00
 0.7020298746075E+00
 0.6986201908451E+00
 0.7037501716956E+00
 0.7202697104913E+00
 0.7515060649244E+00
 0.8010540385827E+00
 0.8723667764588E+00
 0.9682670310744E+00
 0.1090471467493E+01
 0.1239164911422E+01
 0.1412680875919E+01
 0.1607280274396E+01
 0.1817071605109E+01
 0.2034176606832E+01
 0.2249241601759E+01
 0.2452363661894E+01
 0.2634282817496E+01
 0.6592721056603E+00
 0.6853897347982E+00
 0.7084341215343E+00
 0.7287733257702E+00
 0.7468334603277E+00
 0.7629633866680E+00
 0.7773711907454E+00
 0.7901184377008E+00
 0.8011473053184E+00
 0.8103187270587E+00
 0.8174485350049E+00
 0.8223367632613E+00
 0.8247906655562E+00
 0.8246443322253E+00
 0.8217785510021E+00
 0.8161434369416E+00
 0.8077846749097E+00
 0.7968722438243E+00
 0.7837273154046E+00
 0.7688388329602E+00
 0.7528638290861E+00
 0.7366618172983E+00
 0.7213256892462E+00
 0.7081725285255E+00
 0.6987532029875E+00
 0.6949154788650E+00
 0.6989114199345E+00
 0.7135038267832E+00
 0.7419917470838E+00
 0.7880607590820E+00
 0.8554211395400E+00
 0.9473224790396E+00
 0.1066029559341E+01
 0.1212311268395E+01
 0.1385017616812E+01
 0.1580748170794E+01
 0.1793663766626E+01
 0.2015565322991E+01
 0.2236373271887E+01
 0.2445147193828E+01
 0.2631596183005E+01
 0.6261079867765E+00
 0.6522548725561E+00
 0.6751605595798E+00
 0.6953391677608E+00
 0.7133476510071E+00
 0.7296305954413E+00
 0.7444543381836E+00
 0.7579086739926E+00
 0.7699436429730E+00
 0.7804152224359E+00
 0.7891257401623E+00
 0.7958546670325E+00
 0.8003813722002E+00
 0.8025036855875E+00
 0.8020566297784E+00
 0.7989348272809E+00
 0.7931196296547E+00
 0.7847099363391E+00
 0.7739522428161E+00
 0.7612605676446E+00
 0.7472215063996E+00
 0.7326313060608E+00
 0.7185220252364E+00
 0.7061435315642E+00
 0.6969655053031E+00
 0.6927364990329E+00
 0.6955951123995E+00
 0.7081963736521E+00
 0.7337818294974E+00
 0.7760962349318E+00
 0.8390883605995E+00
 0.9264470365453E+00
 0.1041038896757E+01
 0.1184308049027E+01
 0.1355733634530E+01
 0.1552365061690E+01
 0.1768497379762E+01
 0.1995633933054E+01
 0.2222900248348E+01
 0.2438116846774E+01
 0.2629722269899E+01
 0.5925188407083E+00
 0.6186590343784E+00
 0.6413938332083E+00
 0.6613968392743E+00
 0.6793632857865E+00
 0.6958335023958E+00
 0.7111272418874E+00
 0.7253563350671E+00
 0.7384735781682E+00
 0.7503269731833E+00
 0.7607043887399E+00
 0.7693653232340E+00
 0.7760627227328E+00
 0.7805598065327E+00
 0.7826470375484E+00
 0.7821638031473E+00
 0.7790261368452E+00
 0.7732596210102E+00
 0.7650328439417E+00
 0.7546811129949E+00
 0.7427170918553E+00
 0.7298710745657E+00
 0.7171118630922E+00
 0.7056190854595E+00
 0.6967768338378E+00
 0.6922274552530E+00
 0.6939840508267E+00
 0.7045730471043E+00
 0.7271461447801E+00
 0.7654672986066E+00
 0.8236914294369E+00
 0.9059448218062E+00
 0.1015742885793E+01
 0.1155302084218E+01
 0.1324862087477E+01
 0.1522060749421E+01
 0.1741438310011E+01
 0.1974246791122E+01
 0.2208766770107E+01
 0.2431353288433E+01
 0.2628800330787E+01
 0.5584581872659E+00
 0.5845434068332E+00
 0.6070645804447E+00
 0.6268705406217E+00
 0.6448026172947E+00
 0.6614955971234E+00
 0.6773159720842E+00
 0.6923899581661E+00
 0.7066672333338E+00
 0.7199846378199E+00
 0.7321148557302E+00
 0.7427984657467E+00
 0.7517640516024E+00
 0.7587425490086E+00
 0.7634817598943E+00
 0.7657667237415E+00
 0.7654476592104E+00
 0.7624748993359E+00
 0.7569360361130E+00
 0.7490839096516E+00
 0.7393537258215E+00
 0.7284071165994E+00
 0.7171472294596E+00
 0.7066805036539E+00
 0.6983012565987E+00
 0.6935391856731E+00
 0.6942707953442E+00
 0.7028737353670E+00
 0.7223757682154E+00
 0.7565125934768E+00
 0.8095979503979E+00
 0.8861751786518E+00
 0.9904428061878E+00
 0.1125489159941E+01
 0.1292465498399E+01
 0.1489769279988E+01
 0.1712333689433E+01
 0.1951232881496E+01
 0.2193869588428E+01
 0.2424925537183E+01
 0.2628938027694E+01
 0.5238766111422E+00
 0.5498450374040E+00
 0.5720986252904E+00
 0.5916799749984E+00
 0.6095845074758E+00
 0.6265382739307E+00
 0.6429455049690E+00
 0.6589374846148E+00
 0.6744541363262E+00
 0.6893178863258E+00
 0.7032858494578E+00
 0.7160812917954E+00
 0.7274111745672E+00
 0.7369772379599E+00
 0.7444873117938E+00
 0.7496737091172E+00
 0.7523209187568E+00
 0.7523024647398E+00
 0.7496220363588E+00
 0.7444463091276E+00
 0.7371294956459E+00
 0.7282618485832E+00
 0.7186784832129E+00
 0.7094097227022E+00
 0.7016560336517E+00
 0.6968284863745E+00
 0.6966569799693E+00
 0.7033516107212E+00
 0.7197819250925E+00
 0.7496021540692E+00
 0.7972222829102E+00
 0.8675593069160E+00
 0.9655090877126E+00
 0.1095127597711E+01
 0.1258647652706E+01
 0.1455436296660E+01
 0.1681013429967E+01
 0.1926387417214E+01
 0.2178050113278E+01
 0.2418831762981E+01
 0.2630102319662E+01
 0.4887212471587E+00
 0.5144962379660E+00
 0.5364162563327E+00
 0.5557399009245E+00
 0.5736243797121E+00
 0.5908811101484E+00
 0.6079401763920E+00
 0.6249267508523E+00
 0.6417636667446E+00
 0.6582557635787E+00
 0.6741446725959E+00
 0.6891386004880E+00
 0.7029263770096E+00
 0.7151844748829E+00
 0.7255843324588E+00
 0.7338080109878E+00
 0.7395750497270E+00
 0.7426810604850E+00
 0.7430431565077E+00
 0.7407382473070E+00
 0.7360360354974E+00
 0.7294526989411E+00
 0.7217529741501E+00
 0.7138881188084E+00
 0.7069606634849E+00
 0.7022573895364E+00
 0.7013526797682E+00
 0.7062722812614E+00
 0.7196947096718E+00
 0.7451362591569E+00
 0.7870265740688E+00
 0.8505863250064E+00
 0.9413937275001E+00
 0.1064554742277E+01
 0.1223569611318E+01
 0.1419028498253E+01
 0.1647295702995E+01
 0.1899470492963E+01
 0.2161118300011E+01
 0.2413056494211E+01
 0.2631165601639E+01
 0.4529345683903E+00
 0.4784106221849E+00
 0.4999089709624E+00
 0.5189275376470E+00
 0.5367926317423E+00
 0.5543917003312E+00
 0.5721655444441E+00
 0.5902202716224E+00
 0.6084539391685E+00
 0.6266511009933E+00
 0.6445388019714E+00
 0.6618133674827E+00
 0.6781499793283E+00
 0.6932048347257E+00
 0.7066176576873E+00
 0.7180237348951E+00
 0.7270791652780E+00
 0.7335008672756E+00
 0.7371166205778E+00
 0.7379095969182E+00
 0.7360609548344E+00
 0.7320095581684E+00
 0.7264468344476E+00
 0.7202412174091E+00
 0.7143921182047E+00
 0.7100552308795E+00
 0.7086398689048E+00
 0.7119709417551E+00
 0.7225037053270E+00
 0.7435573395063E+00
 0.7794915831913E+00
 0.8357325080512E+00
 0.9184900823065E+00
 0.1033983686045E+01
 0.1187187211684E+01
 0.1380233655876E+01
 0.1610676413972E+01
 0.1869972359127E+01
 0.2142705423127E+01
 0.2407477703277E+01
 0.2634319433409E+01
 0.4164508856715E+00
 0.4415057643648E+00
 0.4624802989210E+00
 0.4811433881714E+00
 0.4989949304632E+00
 0.5169842778678E+00
 0.5355434903896E+00
 0.5547445900826E+00
 0.5744528523136E+00
 0.5944303826408E+00
 0.6143913224497E+00
 0.6340241201350E+00
 0.6529956776949E+00
 0.6709479283544E+00
 0.6874947253398E+00
 0.7022292712571E+00
 0.7147467966366E+00
 0.7246854755354E+00
 0.7317813767559E+00
 0.7359201357982E+00
 0.7371904660146E+00
 0.7359507821481E+00
 0.7328163217875E+00
 0.7285688040407E+00
 0.7240990054793E+00
 0.7204245112722E+00
 0.7187805795712E+00
 0.7207769674229E+00
 0.7286171970721E+00
 0.7453663458395E+00
 0.7752165668862E+00
 0.8236713684655E+00
 0.8974710020725E+00
 0.1003965019558E+01
 0.1149803398158E+01
 0.1339038296615E+01
 0.1570874855245E+01
 0.1837486699224E+01
 0.2122688202686E+01
 0.2401828400165E+01
 0.2646605017808E+01
 0.3792080203725E+00
 0.4037069900640E+00
 0.4240507783612E+00
 0.4423157168605E+00
 0.4601769278761E+00
 0.4786242186623E+00
 0.4980561413460E+00
 0.5184933633141E+00
 0.5397602416360E+00
 0.5615949334973E+00
 0.5837011090146E+00
 0.6057640170679E+00
 0.6274483520866E+00
 0.6483886922489E+00
 0.6681800476202E+00
 0.6863796367868E+00
 0.7025258205623E+00
 0.7161791919276E+00
 0.7269826683778E+00
 0.7347213446470E+00
 0.7393883201465E+00
 0.7412592528615E+00
 0.7408712178954E+00
 0.7389161427322E+00
 0.7361713557882E+00
 0.7335102416809E+00
 0.7319869546632E+00
 0.7329858737352E+00
 0.7384373690106E+00
 0.7511036381956E+00
 0.7749121996154E+00
 0.8152918895362E+00
 0.8793503397433E+00
 0.9755034058191E+00
 0.1112231782028E+01
 0.1295917477834E+01
 0.1527990898017E+01
 0.1801914098703E+01
 0.2100885563950E+01
 0.2397851530524E+01
 0.2662229394625E+01
 0.3411325894294E+00
 0.3649153604138E+00
 0.3845075695588E+00
 0.4023341002639E+00
 0.4202414223998E+00
 0.4392292598580E+00
 0.4596320531291E+00
 0.4814002557718E+00
 0.5043098817149E+00
 0.5280749229637E+00
 0.5523921113187E+00
 0.5769490287982E+00
 0.6014150442336E+00
 0.6254252807509E+00
 0.6485642341463E+00
 0.6703607866249E+00
 0.6903019463377E+00
 0.7078730406584E+00
 0.7226230510587E+00
 0.7342338618402E+00
 0.7426000325957E+00
 0.7479124425506E+00
 0.7506283352246E+00
 0.7513468401996E+00
 0.7507267280368E+00
 0.7494906530313E+00
 0.7485047129407E+00
 0.7489195209038E+00
 0.7523759904927E+00
 0.7612933509526E+00
 0.7792441676896E+00
 0.8114179907400E+00
 0.8650717359087E+00
 0.9495280577585E+00
 0.1075175754664E+01
 0.1251156376918E+01
 0.1481852486252E+01
 0.1762786308279E+01
 0.2077123561023E+01
 0.2395359514189E+01
 0.2681247426694E+01
 0.3021426361766E+00
 0.3250198866512E+00
 0.3437257232924E+00
 0.3610808916190E+00
 0.3790898560021E+00
 0.3987197463809E+00
 0.4202039336415E+00
 0.4434029924158E+00
 0.4680387460234E+00
 0.4938025536871E+00
 0.5203889670021E+00
 0.5474942375129E+00
 0.5747999979689E+00
 0.6019507434679E+00
 0.6285301359426E+00
 0.6540481233530E+00
 0.6779477194515E+00
 0.6996427658362E+00
 0.7185883697888E+00
 0.7343609496102E+00
 0.7467538792165E+00
 0.7558715858808E+00
 0.7620902005310E+00
 0.7659131875876E+00
 0.7678753778610E+00
 0.7685416715970E+00
 0.7685830416923E+00
 0.7689093519282E+00
 0.7708604781396E+00
 0.7764823690964E+00
 0.7889149527587E+00
 0.8129443696596E+00
 0.8557143889743E+00
 0.9271825079314E+00
 0.1039590170074E+01
 0.1205237537131E+01
 0.1432335208013E+01
 0.1719554971475E+01
 0.2050870519135E+01
 0.2393786243687E+01
 0.2704185262725E+01
 0.2621456086153E+00
 0.2838942766359E+00
 0.3015661015588E+00
 0.3184312039150E+00
 0.3366239084876E+00
 0.3570206191522E+00
 0.3797102847303E+00
 0.4044445254700E+00
 0.4308878420833E+00
 0.4587127295323E+00
 0.4876176005776E+00
 0.5173143926008E+00
 0.5475051285573E+00
 0.5778532990342E+00
 0.6079527664072E+00
 0.6373059110049E+00
 0.6653213446626E+00
 0.6913470847537E+00
 0.7147455412131E+00
 0.7349859237507E+00
 0.7517580787018E+00
 0.7650786897036E+00
 0.7752419362208E+00
 0.7826529397230E+00
 0.7877169853637E+00
 0.7908337424209E+00
 0.7924718336624E+00
 0.7932945177231E+00
 0.7943332048327E+00
 0.7972399900043E+00
 0.8046609609006E+00
 0.8208286957583E+00
 0.8524880925787E+00
 0.9098461881748E+00
 0.1006747773590E+01
 0.1158927455271E+01
 0.1379426885265E+01
 0.1671539631579E+01
 0.2021205885721E+01
 0.2392609079697E+01
 0.2731740349602E+01
 0.2210354980035E+00
 0.2413928915378E+00
 0.2578728591661E+00
 0.2742534701690E+00
 0.2927479347472E+00
 0.3140639875204E+00
 0.3380972870636E+00
 0.3644742518994E+00
 0.3928030444988E+00
 0.4227437347604E+00
 0.4540058713970E+00
 0.4863245636683E+00
 0.5194306404065E+00
 0.5530167944343E+00
 0.5866994054781E+00
 0.6199868101089E+00
 0.6522655159630E+00
 0.6828258203632E+00
 0.7109401159818E+00
 0.7359693146271E+00
 0.7574977007547E+00
 0.7754532843210E+00
 0.7900478815122E+00
 0.8015857724946E+00
 0.8103369073894E+00
 0.8165279195571E+00
 0.8204178577532E+00
 0.8224186724952E+00
 0.8232496547449E+00
 0.8241575160534E+00
 0.8272511366750E+00
 0.8360841996801E+00
 0.8567214964781E+00
 0.8991444826619E+00
 0.9783090087603E+00
 0.1113398708311E+01
 0.1323326488408E+01
 0.1617926939369E+01
 0.1986894913971E+01
 0.2391245323453E+01
 0.2764765052472E+01
 0.1786889008595E+00
 0.1973454891762E+00
 0.2124706442290E+00
 0.2284109845891E+00
 0.2473726095330E+00
 0.2697923870468E+00
 0.2953208821393E+00
 0.3234492165849E+00
 0.3537358838839E+00
 0.3858379029090E+00
 0.4194842620637E+00
 0.4544408947865E+00
 0.4904758146049E+00
 0.5273213947779E+00
 0.5646299522041E+00
 0.6019316003470E+00
 0.6386062936732E+00
 0.6738979100321E+00
 0.7069935821986E+00
 0.7371457085964E+00
 0.7638312682079E+00
 0.7868889242410E+00
 0.8064480041382E+00
 0.8227094963337E+00
 0.8358020326183E+00
 0.8457712606118E+00
 0.8526597748889E+00
 0.8566250524057E+00
 0.8580745199956E+00
 0.8578464230496E+00
 0.8574863338017E+00
 0.8597744748873E+00
 0.8698464242784E+00
 0.8969422714207E+00
 0.9563851462091E+00
 0.1070389347940E+01
 0.1264609062497E+01
 0.1557846543890E+01
 0.1946349202065E+01
 0.2388920472852E+01
 0.2804290133425E+01
 0.1349597243327E+00
 0.1515505636407E+00
 0.1651617531902E+00
 0.1807651663478E+00
 0.2004202846388E+00
 0.2241628055776E+00
 0.2513489531672E+00
 0.2813352113154E+00
 0.3136442441452E+00
 0.3479422520867E+00
 0.3839865958147E+00
 0.4215814596384E+00
 0.4605399850071E+00
 0.5006445527808E+00
 0.5415976076198E+00
 0.5829691835053E+00
 0.6241520908740E+00
 0.6643592912606E+00
 0.7027003530121E+00
 0.7383201907573E+00
 0.7705869988141E+00
 0.7992494432424E+00
 0.8243541717614E+00
 0.8459961386938E+00
 0.8641563687313E+00
 0.8786916459704E+00
 0.8894220526559E+00
 0.8962496481678E+00
 0.8992749456206E+00
 0.8989333481205E+00
 0.8961972556653E+00
 0.8930106342015E+00
 0.8933827814982E+00
 0.9053203339625E+00
 0.9435777197970E+00
 0.1032394505447E+01
 0.1204495077780E+01
 0.1490513750717E+01
 0.1897537221025E+01
 0.2384497205399E+01
 0.2851584259273E+01
 0.8967316838207E-01
 0.1037684485623E+00
 0.1157238420825E+00
 0.1311818777114E+00
 0.1518328814878E+00
 0.1771515580703E+00
 0.2061634589345E+00
 0.2381076714287E+00
 0.2724929293403E+00
 0.3090090715020E+00
 0.3474507765553E+00
 0.3876672196423E+00
 0.4295237234941E+00
 0.4728623162765E+00
 0.5174499960810E+00
 0.5629170026742E+00
 0.6086928727414E+00
 0.6539806792946E+00
 0.6978243596979E+00
 0.7392642668726E+00
 0.7775585942297E+00
 0.8123649551312E+00
 0.8436463647617E+00
 0.8713880338104E+00
 0.8954165210685E+00
 0.9153921965252E+00
 0.9309079618343E+00
 0.9416125442482E+00
 0.9473104777528E+00
 0.9480501837340E+00
 0.9442375333063E+00
 0.9369478148631E+00
 0.9289274826741E+00
 0.9265407942073E+00
 0.9429756792632E+00
 0.1002866821940E+01
 0.1145256737308E+01
 0.1415503889261E+01
 0.1837880190361E+01
 0.2376232979967E+01
 0.2908251666029E+01
 0.4263372546973E-01
 0.5373050367061E-01
 0.6390983927598E-01
 0.7954399457788E-01
 0.1015844540519E+00
 0.1287603585844E+00
 0.1597623791500E+00
 0.1937522650801E+00
 0.2302540415927E+00
 0.2689964108082E+00
 0.3098195050201E+00
 0.3526230409648E+00
 0.3973302048298E+00
 0.4438509882702E+00
 0.4920308148362E+00
 0.5415820299016E+00
 0.5919997009286E+00
 0.6425052518929E+00
 0.6920951251814E+00
 0.7397110715681E+00
 0.7845004341157E+00
 0.8260275971498E+00
 0.8641689735651E+00
 0.8987941512989E+00
 0.9295673260371E+00
 0.9559455916963E+00
 0.9772920614541E+00
 0.9930079331076E+00
 0.1002619998555E+01
 0.1005818386496E+01
 0.1002468363220E+01
 0.9927747485192E+00
 0.9781454037871E+00
 0.9630127276946E+00
 0.9581024719750E+00
 0.9863700208781E+00
 0.1090787886088E+01
 0.1333284425185E+01
 0.1764189456502E+01
 0.2361405383923E+01
 0.2976380093419E+01
 0.7301177771984E-02
 0.4060955574054E-02
 0.9473470499728E-02
 0.2579978923188E-01
 0.4971475898910E-01
 0.7902724401225E-01
 0.1121620117809E+00
 0.1482652793996E+00
 0.1869072040208E+00
 0.2278684893226E+00
 0.2710409857242E+00
 0.3163787818499E+00
 0.3638667685820E+00
 0.4134892000167E+00
 0.4651821728796E+00
 0.5187625933884E+00
 0.5738248930412E+00
 0.6296463394197E+00
 0.6852031731062E+00
 0.7393495729342E+00
 0.7911219312397E+00
 0.8399869575956E+00
 0.8857273078770E+00
 0.9280868727644E+00
 0.9665578292844E+00
 0.1000388462811E+01
 0.1028712479711E+01
 0.1050693414695E+01
 0.1065606449493E+01
 0.1072827641589E+01
 0.1071732025605E+01
 0.1061688068273E+01
 0.1042751377224E+01
 0.1017263779024E+01
 0.9928283257264E+00
 0.9886067658656E+00
 0.1047306418199E+01
 0.1246221987209E+01
 0.1672781679009E+01
 0.2335710763753E+01
 0.3058759383071E+01
 0.5838185744784E-01
 0.5531452054460E-01
 0.4795318607736E-01
 0.3032444966165E-01
 0.5189156115688E-02
 0.2811061301634E-01
 0.6340615056502E-01
 0.1016546562164E+00
 0.1424397331705E+00
 0.1855960272025E+00
 0.2310696114227E+00
 0.2788704233620E+00
 0.3290466427006E+00
 0.3816603936707E+00
 0.4367477451117E+00
 0.4942513670935E+00
 0.5539031898624E+00
 0.6150852946400E+00
 0.6767945612532E+00
 0.7378173124817E+00
 0.7970806592351E+00
 0.8539451033579E+00
 0.9080845212967E+00
 0.9590995297812E+00
 0.1006297861316E+01
 0.1048716027018E+01
 0.1085263286819E+01
 0.1114879396045E+01
 0.1136620877488E+01
 0.1149610640787E+01
 0.1152814150875E+01
 0.1144844419564E+01
 0.1124465010881E+01
 0.1091904036421E+01
 0.1051279106204E+01
 0.1016269786697E+01
 0.1024002507989E+01
 0.1160385825050E+01
 0.1560124975668E+01
 0.2292302858827E+01
 0.3159192283521E+01
 0.1130165669290E+00
 0.1149903230456E+00
 0.1085153054238E+00
 0.8836201439218E-01
 0.5901728123144E-01
 0.2469287221940E-01
 0.1379457206604E-01
 0.5394895369004E-01
 0.9684726595993E-01
 0.1421565070043E+00
 0.1898665793449E+00
 0.2400411735448E+00
 0.2927907326207E+00
 0.3482556202720E+00
 0.4065767909016E+00
 0.4678398983957E+00
 0.5319545327390E+00
 0.5984698950469E+00
 0.6664642690299E+00
 0.7346909659659E+00
 0.8019736594154E+00
 0.8675511239436E+00
 0.9309593140390E+00
 0.9916252130969E+00
 0.1048655603904E+01
 0.1100877138361E+01
 0.1146987168097E+01
 0.1185719482255E+01
 0.1215947986327E+01
 0.1236617423204E+01
 0.1246398064263E+01
 0.1243288429622E+01
 0.1224920146216E+01
 0.1189543914048E+01
 0.1137744952470E+01
 0.1076767001062E+01
 0.1033233684909E+01
 0.1088413437276E+01
 0.1424916648335E+01
 0.2220343841606E+01
 0.3282893395507E+01
 0.1714952563751E+00
 0.1793073004412E+00
 0.1724010262583E+00
 0.1482975221302E+00
 0.1152225678870E+00
 0.7791851903656E-01
 0.3778415503048E-01
 0.5741609635256E-02
 0.5013952141002E-01
 0.9753460181259E-01
 0.1474004441593E+00
 0.1998425194086E+00
 0.2550294059498E+00
 0.3131765255544E+00
 0.3745290081814E+00
 0.4393251255256E+00
 0.5076894349355E+00
 0.5794140292109E+00
 0.6537481324327E+00
 0.7294735646276E+00
 0.8053259415480E+00
 0.8803950448818E+00
 0.9540249046096E+00
 0.1025417476758E+01
 0.1093456549413E+01
 0.1156769716850E+01
 0.1213868089804E+01
 0.1263302247755E+01
 0.1303795498496E+01
 0.1334193897303E+01
 0.1353017652424E+01
 0.1357861772339E+01
 0.1345520036982E+01
 0.1312619310298E+01
 0.1256515588379E+01
 0.1177926114878E+01
 0.1089937163438E+01
 0.1052881795411E+01
 0.1273797051899E+01
 0.2103230630994E+01
 0.3436847007888E+01
 0.2350462000253E+00
 0.2492369173080E+00
 0.2394688636850E+00
 0.2096181911748E+00
 0.1724643986112E+00
 0.1323071545171E+00
 0.8975445774170E-01
 0.4494281003030E-01
 0.3027796652920E-02
 0.5172442937946E-01
 0.1036475886992E+00
 0.1582351556533E+00
 0.2157041465292E+00
 0.2763382704217E+00
 0.3404799146623E+00
 0.4085181885891E+00
 0.4808184003385E+00
 0.5575001511665E+00
 0.6381130207792E+00
 0.7215764295406E+00
 0.8065745812859E+00
 0.8920010172610E+00
 0.9769101281751E+00
 0.1060193883773E+01
 0.1140484521311E+01
 0.1216236602403E+01
 0.1285823205640E+01
 0.1347644113673E+01
 0.1400289789950E+01
 0.1442570654523E+01
 0.1473017631996E+01
 0.1489106205874E+01
 0.1487246613140E+01
 0.1463095105034E+01
 0.1411524003659E+01
 0.1327572669653E+01
 0.1210576657236E+01
 0.1087503755077E+01
 0.1135213596744E+01
 0.1918260817961E+01
 0.3629595822558E+01
 0.3057494258382E+00
 0.3259218374205E+00
 0.3089224171840E+00
 0.2715647412370E+00
 0.2304840465315E+00
 0.1876248980004E+00
 0.1427607307271E+00
 0.9584416035612E-01
 0.4675677474533E-01
 0.4867141442528E-02
 0.5859292345686E-01
 0.1151897939541E+00
 0.1747690475249E+00
 0.2376722009342E+00
 0.3043261893038E+00
 0.3752554338262E+00
 0.4510675383513E+00
 0.5322876376217E+00
 0.6189452578738E+00
 0.7102924354382E+00
 0.8050457751434E+00
 0.9018198777213E+00
 0.9992040152729E+00
 0.1095643523461E+01
 0.1189485468906E+01
 0.1279061872327E+01
 0.1362692243378E+01
 0.1438681002152E+01
 0.1505479378305E+01
 0.1561869363719E+01
 0.1606531317299E+01
 0.1637174463377E+01
 0.1650456553806E+01
 0.1642047994060E+01
 0.1605735406176E+01
 0.1532611815478E+01
 0.1411821391733E+01
 0.1233827373133E+01
 0.1083502435658E+01
 0.1647130625718E+01
 0.3868699553062E+01
 0.3874346171237E+00
 0.4101355235080E+00
 0.3785908400153E+00
 0.3333219706556E+00
 0.2891565338876E+00
 0.2437428895703E+00
 0.1967003746188E+00
 0.1477872244807E+00
 0.9679103660397E-01
 0.4353021152572E-01
 0.1223849891092E-01
 0.7068781220903E-01
 0.1321920509378E+00
 0.1971281263044E+00
 0.2659900994756E+00
 0.3394101299775E+00
 0.4182027379080E+00
 0.5033335453517E+00
 0.5955382585503E+00
 0.6947541314419E+00
 0.7999204647445E+00
 0.9092219609183E+00
 0.1020466190272E+01
 0.1131440017812E+01
 0.1240174914122E+01
 0.1344968467906E+01
 0.1444222489971E+01
 0.1536252934564E+01
 0.1619346756494E+01
 0.1692137303466E+01
 0.1753489002334E+01
 0.1801757752354E+01
 0.1834704949002E+01
 0.1849226294379E+01
 0.1840181691196E+01
 0.1797748500238E+01
 0.1706864394234E+01
 0.1537650553772E+01
 0.1245894217181E+01
 0.1342796702606E+01
 0.4152769930651E+01
 0.4881561786088E+00
 0.4995874493016E+00
 0.4441374391386E+00
 0.3949581633708E+00
 0.3483150533069E+00
 0.3005655089518E+00
 0.2515250077739E+00
 0.2007151422199E+00
 0.1479177715611E+00
 0.9290882349344E-01
 0.3545557982504E-01
 0.2472169131314E-01
 0.8795568707176E-01
 0.1546759662136E+00
 0.2254225585685E+00
 0.3009008394048E+00
 0.3820621975117E+00
 0.4702398049790E+00
 0.5670837805242E+00
 0.6738625702242E+00
 0.7901815713359E+00
 0.9134932910112E+00
 0.1040246777127E+01
 0.1167262154809E+01
 0.1292249811283E+01
 0.1413619205353E+01
 0.1530050358842E+01
 0.1640069534947E+01
 0.1741822686727E+01
 0.1833435600255E+01
 0.1913665072446E+01
 0.1982050456910E+01
 0.2038575869031E+01
 0.2082845484917E+01
 0.2112660379077E+01
 0.2123693568126E+01
 0.2100945388278E+01
 0.2032466931684E+01
 0.1786094275020E+01
 0.1383675972450E+01
 0.4458893170943E+01
 0.6289152652740E+00
 0.5734393569719E+00
 0.5049068851397E+00
 0.4570406789755E+00
 0.4076329833435E+00
 0.3581148854791E+00
 0.3071747030129E+00
 0.2545978933366E+00
 0.2001014982718E+00
 0.1434613379252E+00
 0.8442640842537E-01
 0.2270552098591E-01
 0.4205739205595E-01
 0.1103066590945E+00
 0.1826053751907E+00
 0.2596940193429E+00
 0.3425816303021E+00
 0.4327587547708E+00
 0.5326863648217E+00
 0.6461481337523E+00
 0.7745369684096E+00
 0.9138426192287E+00
 0.1058120585627E+01
 0.1202824654524E+01
 0.1345404632291E+01
 0.1484620923847E+01
 0.1619688713595E+01
 0.1749638306488E+01
 0.1872762215084E+01
 0.1986044007491E+01
 0.2086794104019E+01
 0.2176657444284E+01
 0.2259738821571E+01
 0.2339129475624E+01
 0.2418302546498E+01
 0.2500711063223E+01
 0.2596277667851E+01
 0.2692122996733E+01
 0.2889770206174E+01
 0.2577012020391E+01
 0.5153220411799E+01
 0.4509759167735E+00
 0.5028269488042E+00
 0.5616562352727E+00
 0.6190277149130E+00
 0.6704646883019E+00
 0.7136319585715E+00
 0.7474201091515E+00
 0.7714067882370E+00
 0.7855549362740E+00
 0.7900697667154E+00
 0.7853677170147E+00
 0.7716860996455E+00
 0.7495753689234E+00
 0.7201564596440E+00
 0.6841227941506E+00
 0.6416575536545E+00
 0.5927316721957E+00
 0.5374124031630E+00
 0.4761934340180E+00
 0.4056864581904E+00
 0.4377824686487E+00
 0.4960617449081E+00
 0.5599981278161E+00
 0.6221718471194E+00
 0.6781513783877E+00
 0.7256045567202E+00
 0.7634147834141E+00
 0.7911473188654E+00
 0.8087465217939E+00
 0.8164071382380E+00
 0.8145040973409E+00
 0.8032725304472E+00
 0.7832540085073E+00
 0.7554185123174E+00
 0.7203635043579E+00
 0.6783244664983E+00
 0.6292255610802E+00
 0.5729650791038E+00
 0.5073860594827E+00
 0.4311661538400E+00
 0.4246249662936E+00
 0.4902027792722E+00
 0.5596987537068E+00
 0.6267333072448E+00
 0.6872102588183E+00
 0.7388670014224E+00
 0.7806086554525E+00
 0.8120058093747E+00
 0.8330042115323E+00
 0.8437878743153E+00
 0.8446925835332E+00
 0.8359893716422E+00
 0.8181934355385E+00
 0.7921195448957E+00
 0.7582844828630E+00
 0.7168354230274E+00
 0.6675569912560E+00
 0.6096555032060E+00
 0.5414872927051E+00
 0.4655583629309E+00
 0.4117170582052E+00
 0.4850613775336E+00
 0.5605327014640E+00
 0.6325696006304E+00
 0.6975277668175E+00
 0.7533177304814E+00
 0.7989087427649E+00
 0.8339012990679E+00
 0.8582556592957E+00
 0.8721533161062E+00
 0.8759123748101E+00
 0.8698304707027E+00
 0.8543899652065E+00
 0.8302667760872E+00
 0.7978622446946E+00
 0.7572003475709E+00
 0.7078557317927E+00
 0.6490303832382E+00
 0.5802306073235E+00
 0.5043468009557E+00
 0.3991188722945E+00
 0.4806115763462E+00
 0.5623510368071E+00
 0.6395312645473E+00
 0.7089771276197E+00
 0.7688429527329E+00
 0.8182114043156E+00
 0.8567395097993E+00
 0.8844174932163E+00
 0.9014372243736E+00
 0.9081119337013E+00
 0.9047569347720E+00
 0.8918164751077E+00
 0.8698373204494E+00
 0.8390993894491E+00
 0.7995015270393E+00
 0.7505652060373E+00
 0.6917267784250E+00
 0.6229880941421E+00
 0.5469503144660E+00
 0.3868713561570E+00
 0.4768177430552E+00
 0.5650487108272E+00
 0.6474808370374E+00
 0.7214244872968E+00
 0.7853189983193E+00
 0.8384020455614E+00
 0.8804147476535E+00
 0.9113944689979E+00
 0.9315559009952E+00
 0.9412170715246E+00
 0.9407040554669E+00
 0.9304201119688E+00
 0.9107972366890E+00
 0.8820048898047E+00
 0.8438641118000E+00
 0.7959217416558E+00
 0.7377618678847E+00
 0.6695563489819E+00
 0.5933797429782E+00
 0.3750086227645E+00
 0.4736446090480E+00
 0.5685312089953E+00
 0.6562915304616E+00
 0.7347344909368E+00
 0.8026145423861E+00
 0.8593562799271E+00
 0.9048100941285E+00
 0.9390775615536E+00
 0.9624080663691E+00
 0.9751324708832E+00
 0.9775838700284E+00
 0.9701263000036E+00
 0.9530952478781E+00
 0.9265738342016E+00
 0.8903394104879E+00
 0.8439622521557E+00
 0.7870860248580E+00
 0.7198592056600E+00
 0.6438022012797E+00
 0.3635634093732E+00
 0.4710561313617E+00
 0.5727089306684E+00
 0.6658411205339E+00
 0.7487716517526E+00
 0.8205927588524E+00
 0.8809410638686E+00
 0.9297975966589E+00
 0.9673439278515E+00
 0.9938752938289E+00
 0.1009742906945E+01
 0.1015286675582E+01
 0.1010837245082E+01
 0.9966541070337E+00
 0.9727562781065E+00
 0.9388908688699E+00
 0.8946327128781E+00
 0.8396169922372E+00
 0.7738712452116E+00
 0.6983929147467E+00
 0.3525685344776E+00
 0.4690160968945E+00
 0.5774943371863E+00
 0.6760095824926E+00
 0.7633998795318E+00
 0.8391125226930E+00
 0.9030157516345E+00
 0.9552388985650E+00
 0.9960574272435E+00
 0.1025822799899E+01
 0.1044914124675E+01
 0.1053680933973E+01
 0.1052429058939E+01
 0.1041361178589E+01
 0.1020448665877E+01
 0.9894130832714E+00
 0.9478150859709E+00
 0.8952405488999E+00
 0.8315526820110E+00
 0.7572790167619E+00
 0.3420572555533E+00
 0.4674882343185E+00
 0.5828009069151E+00
 0.6866778473291E+00
 0.7784822452540E+00
 0.8580290486728E+00
 0.9254330601882E+00
 0.9809861157905E+00
 0.1025069470652E+01
 0.1058100333992E+01
 0.1080493368964E+01
 0.1092612697199E+01
 0.1094749025773E+01
 0.1087064770078E+01
 0.1069496154655E+01
 0.1041741412037E+01
 0.1003335206738E+01
 0.9537942888804E+00
 0.8928069629711E+00
 0.8204895114859E+00
 0.3320631212241E+00
 0.4664362602629E+00
 0.5885426888365E+00
 0.6977273184231E+00
 0.7938809740825E+00
 0.8771944790874E+00
 0.9480399944539E+00
 0.1006882874955E+01
 0.1054220079272E+01
 0.1090543158983E+01
 0.1116309939968E+01
 0.1131905335004E+01
 0.1137614725525E+01
 0.1133574441968E+01
 0.1119695905100E+01
 0.1095656970600E+01
 0.1060961787163E+01
 0.1015053002925E+01
 0.9574518206618E+00
 0.8879235177179E+00
 0.3226196211673E+00
 0.4658238994283E+00
 0.5946342057677E+00
 0.7090398164467E+00
 0.8094577060854E+00
 0.8964585495303E+00
 0.9706788270083E+00
 0.1032765460987E+01
 0.1083339085429E+01
 0.1122973168314E+01
 0.1152176003269E+01
 0.1171360026019E+01
 0.1180814759641E+01
 0.1180662817082E+01
 0.1170800207111E+01
 0.1150888972881E+01
 0.1120404019061E+01
 0.1078718355103E+01
 0.1025204473607E+01
 0.9593363206762E+00
 0.3137597507027E+00
 0.4656149280644E+00
 0.6009905704452E+00
 0.7204978114004E+00
 0.8250739790052E+00
 0.9156693894757E+00
 0.9931881804058E+00
 0.1058464093319E+01
 0.1112247505523E+01
 0.1155200253535E+01
 0.1187887870038E+01
 0.1210757104246E+01
 0.1224110579705E+01
 0.1228068217084E+01
 0.1222519550835E+01
 0.1207116778065E+01
 0.1181310591211E+01
 0.1144414170678E+01
 0.1095674927723E+01
 0.1034331732833E+01
 0.3055155545451E+00
 0.4657732600979E+00
 0.6075277551129E+00
 0.7319848545286E+00
 0.8405918847156E+00
 0.9346744457327E+00
 0.1015404205962E+01
 0.1083804309081E+01
 0.1140759066041E+01
 0.1187023925231E+01
 0.1223227719420E+01
 0.1249858052522E+01
 0.1267239017645E+01
 0.1275497794563E+01
 0.1274525991350E+01
 0.1263972667883E+01
 0.1243271161435E+01
 0.1211686645306E+01
 0.1168365709456E+01
 0.1112361958711E+01
 0.2979176828971E+00
 0.4662630827535E+00
 0.6141629843578E+00
 0.7433861687951E+00
 0.8558748764551E+00
 0.9533215324490E+00
 0.1037161877127E+01
 0.1108608477754E+01
 0.1168681914717E+01
 0.1218235218608E+01
 0.1257965746372E+01
 0.1288408040408E+01
 0.1309915379898E+01
 0.1322631190382E+01
 0.1326457160780E+01
 0.1321045927809E+01
 0.1305820514899E+01
 0.1280009188189E+01
 0.1242678669099E+01
 0.1192737460151E+01
 0.2909949890119E+00
 0.4670490437036E+00
 0.6208152273611E+00
 0.7545893615750E+00
 0.8707886964972E+00
 0.9714599905577E+00
 0.1058296391047E+01
 0.1132697446406E+01
 0.1195820515907E+01
 0.1248618868527E+01
 0.1291862683371E+01
 0.1326138918916E+01
 0.1351837041626E+01
 0.1369124762127E+01
 0.1377921107416E+01
 0.1377888378842E+01
 0.1368445280443E+01
 0.1348791588921E+01
 0.1317928940187E+01
 0.1274648625141E+01
 0.2847741765017E+00
 0.4680964842256E+00
 0.6274057698381E+00
 0.7654852342211E+00
 0.8852024021084E+00
 0.9889419419883E+00
 0.1078644669426E+01
 0.1155892307227E+01
 0.1221977714408E+01
 0.1277955719636E+01
 0.1324672633929E+01
 0.1362772593484E+01
 0.1392687480140E+01
 0.1414616367711E+01
 0.1428501953782E+01
 0.1434021232044E+01
 0.1430592796860E+01
 0.1417392669108E+01
 0.1393364820455E+01
 0.1357198070303E+01
 0.2792795166995E+00
 0.4693717145360E+00
 0.6338588495505E+00
 0.7759686645681E+00
 0.8989894647813E+00
 0.1005623615771E+01
 0.1098046937148E+01
 0.1178016262938E+01
 0.1246956933948E+01
 0.1306025321818E+01
 0.1356146149622E+01
 0.1398024697451E+01
 0.1432140675351E+01
 0.1458730633833E+01
 0.1477766258287E+01
 0.1488943002095E+01
 0.1491681539373E+01
 0.1485135147081E+01
 0.1468190743074E+01
 0.1439437510082E+01
 0.2745326423416E+00
 0.4708423223271E+00
 0.6401023336260E+00
 0.7859395341239E+00
 0.9120289131561E+00
 0.1021366717781E+01
 0.1116348351253E+01
 0.1198896560519E+01
 0.1270564474433E+01
 0.1332608665231E+01
 0.1386033494758E+01
 0.1431608504675E+01
 0.1469865812932E+01
 0.1501084626781E+01
 0.1525269933937E+01
 0.1542138179899E+01
 0.1551112473767E+01
 0.1551321336153E+01
 0.1541590120327E+01
 0.1520402019084E+01
 0.2705524172105E+00
 0.4724775070530E+00
 0.6460684236201E+00
 0.7953036829141E+00
 0.9242065020632E+00
 0.1036039826553E+01
 0.1133400661332E+01
 0.1218366470006E+01
 0.1292611876905E+01
 0.1357491013396E+01
 0.1414088045282E+01
 0.1463239015770E+01
 0.1505532207356E+01
 0.1541293804965E+01
 0.1570565521426E+01
 0.1593086303059E+01
 0.1608280688157E+01
 0.1615248459154E+01
 0.1612745924234E+01
 0.1599138291066E+01
 0.2673548781655E+00
 0.4742484313846E+00
 0.6516943704469E+00
 0.8039738687552E+00
 0.9354158816769E+00
 0.1049519787052E+01
 0.1149063870148E+01
 0.1236267272101E+01
 0.1312918312558E+01
 0.1380464781269E+01
 0.1440069757546E+01
 0.1492637139568E+01
 0.1538814344364E+01
 0.1578978110564E+01
 0.1613209594497E+01
 0.1641271062084E+01
 0.1662586745126E+01
 0.1676222845872E+01
 0.1680858162989E+01
 0.1674726336319E+01
 0.2649532391901E+00
 0.4761285813645E+00
 0.6569231827874E+00
 0.8118707102071E+00
 0.9455597433316E+00
 0.1061693076361E+01
 0.1163207864887E+01
 0.1252450219738E+01
 0.1331312953848E+01
 0.1401332407269E+01
 0.1463748644455E+01
 0.1519533891801E+01
 0.1569396941014E+01
 0.1613768058248E+01
 0.1652770087561E+01
 0.1686189132580E+01
 0.1713447320517E+01
 0.1733572681540E+01
 0.1745158587044E+01
 0.1746295472586E+01
 0.2633579426018E+00
 0.4780941270736E+00
 0.6617043131367E+00
 0.8189235929302E+00
 0.9545509185350E+00
 0.1072457114498E+01
 0.1175713987920E+01
 0.1266778436837E+01
 0.1347637283712E+01
 0.1419909166372E+01
 0.1484908194593E+01
 0.1543674531026E+01
 0.1596979920804E+01
 0.1645310685024E+01
 0.1688833364531E+01
 0.1727358495629E+01
 0.1760304866202E+01
 0.1786659009078E+01
 0.1804923271164E+01
 0.1813037123236E+01
 0.2625767396435E+00
 0.4801242758846E+00
 0.6659943060873E+00
 0.8250715194390E+00
 0.9623134074752E+00
 0.1081721492582E+01
 0.1186476514284E+01
 0.1279128715265E+01
 0.1361747296614E+01
 0.1436025869210E+01
 0.1503348668350E+01
 0.1564822551282E+01
 0.1621283204071E+01
 0.1673275238143E+01
 0.1721010882480E+01
 0.1764326095747E+01
 0.1802636150401E+01
 0.1834884861280E+01
 0.1859481728711E+01
 0.1874213430673E+01
 0.2626147819597E+00
 0.4822016112991E+00
 0.6697573953194E+00
 0.8302638847031E+00
 0.9687833158503E+00
 0.1089409092860E+01
 0.1195404004988E+01
 0.1289393172830E+01
 0.1373515547148E+01
 0.1449531395015E+01
 0.1518890209542E+01
 0.1582763458181E+01
 0.1642051226219E+01
 0.1697358500218E+01
 0.1748945347148E+01
 0.1796674755330E+01
 0.1839959675210E+01
 0.1877702557217E+01
 0.1908222691747E+01
 0.1929159511800E+01
 0.2634747084247E+00
 0.4843124113598E+00
 0.6729660376274E+00
 0.8344611621773E+00
 0.9739096808616E+00
 0.1095457076605E+01
 0.1202420506172E+01
 0.1297480735526E+01
 0.1382833002446E+01
 0.1460295007699E+01
 0.1531375714711E+01
 0.1597308262148E+01
 0.1659057108124E+01
 0.1717289670779E+01
 0.1772316288758E+01
 0.1824029318863E+01
 0.1871842044519E+01
 0.1914619531973E+01
 0.1950598039489E+01
 0.1977283367173E+01
 0.2651567167146E+00
 0.4864469415724E+00
 0.6756013738194E+00
 0.8376354866865E+00
 0.9776551689224E+00
 0.1099817716986E+01
 0.1207466564239E+01
 0.1303318406619E+01
 0.1389610653794E+01
 0.1468208404485E+01
 0.1540673404902E+01
 0.1608296629003E+01
 0.1672106414338E+01
 0.1732834739421E+01
 0.1790845008456E+01
 0.1846062028841E+01
 0.1897903413181E+01
 0.1945203129073E+01
 0.1986125659957E+01
 0.2018064914219E+01
 0.2676586164494E+00
 0.4885997187725E+00
 0.6776536093802E+00
 0.8397711251274E+00
 0.9799966326360E+00
 0.1102459058766E+01
 0.1210500031217E+01
 0.1306852288505E+01
 0.1393780846015E+01
 0.1473187450942E+01
 0.1546679052598E+01
 0.1615599641059E+01
 0.1681040452818E+01
 0.1743800306908E+01
 0.1804298865011E+01
 0.1862497152160E+01
 0.1917822168516E+01
 0.1969084718628E+01
 0.2014391824584E+01
 0.2051054868201E+01
 0.2709758726775E+00
 0.4907697436423E+00
 0.6791223113254E+00
 0.8408648295099E+00
 0.9809255178448E+00
 0.1103365388708E+01
 0.1211496634807E+01
 0.1308048321574E+01
 0.1395298280117E+01
 0.1475173553348E+01
 0.1549317816848E+01
 0.1619122128149E+01
 0.1685739083014E+01
 0.1750036827643E+01
 0.1812494882250E+01
 0.1873114865868E+01
 0.1931338947135E+01
 0.1985963441636E+01
 0.2035053627219E+01
 0.2075874248677E+01
 0.2751016413079E+00
 0.4929606962170E+00
 0.6800166157872E+00
 0.8409260686934E+00
 0.9804481147545E+00
 0.1102537503775E+01
 0.1210450289922E+01
 0.1306892705108E+01
 0.1394140643378E+01
 0.1474134617056E+01
 0.1548545639885E+01
 0.1618804534683E+01
 0.1686123013403E+01
 0.1751441265748E+01
 0.1815302667816E+01
 0.1877754376030E+01
 0.1938259974529E+01
 0.1995609725786E+01
 0.2047841971753E+01
 0.2092215235694E+01
 0.2800268190159E+00
 0.4951810955797E+00
 0.6803553543600E+00
 0.8399771508206E+00
 0.9785856627822E+00
 0.1099992778304E+01
 0.1207373140879E+01
 0.1303391975219E+01
 0.1390308827258E+01
 0.1470065541743E+01
 0.1544350161631E+01
 0.1614624300014E+01
 0.1682155593619E+01
 0.1747959190816E+01
 0.1812646669392E+01
 0.1876316249654E+01
 0.1938459593694E+01
 0.1997868429586E+01
 0.2052565342111E+01
 0.2099843833511E+01
 0.2857401172165E+00
 0.4974444164119E+00
 0.6801671057701E+00
 0.8380532519852E+00
 0.9753743217196E+00
 0.1095765032404E+01
 0.1202295324071E+01
 0.1297572715359E+01
 0.1383826690079E+01
 0.1462988193417E+01
 0.1536751093864E+01
 0.1606596724950E+01
 0.1673844125014E+01
 0.1739586380226E+01
 0.1804507838292E+01
 0.1868764001696E+01
 0.1931881857665E+01
 0.1992661040296E+01
 0.2049113675719E+01
 0.2098603540943E+01
 0.2922281633772E+00
 0.4997691544282E+00
 0.6794901918276E+00
 0.8352023830371E+00
 0.9708650320619E+00
 0.1089904206806E+01
 0.1195264443136E+01
 0.1289480878212E+01
 0.1374740319212E+01
 0.1452950772768E+01
 0.1525799956206E+01
 0.1594775255422E+01
 0.1661240705466E+01
 0.1726370026585E+01
 0.1790924798067E+01
 0.1855124957205E+01
 0.1918541221169E+01
 0.1979986356631E+01
 0.2037459646312E+01
 0.2088415854983E+01
 0.2994756060249E+00
 0.5021788200058E+00
 0.6783726581924E+00
 0.8314853594983E+00
 0.9651233045946E+00
 0.1082475857971E+01
 0.1186344764285E+01
 0.1279180728992E+01
 0.1363116782969E+01
 0.1440026519305E+01
 0.1511579057425E+01
 0.1579251077812E+01
 0.1644442633725E+01
 0.1708409788030E+01
 0.1771994791618E+01
 0.1835490444360E+01
 0.1898522276422E+01
 0.1959920480003E+01
 0.2017655659302E+01
 0.2069268770880E+01
 0.3074651591424E+00
 0.5047018240159E+00
 0.6768723479514E+00
 0.8269758982700E+00
 0.9582289902860E+00
 0.1073560459589E+01
 0.1175616132115E+01
 0.1266753431991E+01
 0.1349042376682E+01
 0.1424311680847E+01
 0.1494199534572E+01
 0.1560151724253E+01
 0.1623592225994E+01
 0.1685858944365E+01
 0.1747875016051E+01
 0.1810015430451E+01
 0.1871977835982E+01
 0.1932616541489E+01
 0.1989836196878E+01
 0.2041216775158E+01
 0.3161773497752E+00
 0.5073711987774E+00
 0.6750572921444E+00
 0.8217611031587E+00
 0.9502760326965E+00
 0.1063252436176E+01
 0.1163172598732E+01
 0.1252295386993E+01
 0.1332620442644E+01
 0.1405922750392E+01
 0.1473798341387E+01
 0.1537638303956E+01
 0.1598875449760E+01
 0.1658926034441E+01
 0.1718785712512E+01
 0.1778918969271E+01
 0.1839124051580E+01
 0.1898301277341E+01
 0.1954229809309E+01
 0.2004413438324E+01
 0.3255895005704E+00
 0.5102239456430E+00
 0.6730072912513E+00
 0.8159427812974E+00
 0.9413721437108E+00
 0.1051658575536E+01
 0.1149120811722E+01
 0.1235916498598E+01
 0.1313968913298E+01
 0.1384992887361E+01
 0.1450534069629E+01
 0.1511901076569E+01
 0.1570517980557E+01
 0.1627875253314E+01
 0.1685018284488E+01
 0.1742488848036E+01
 0.1800232501921E+01
 0.1857259597159E+01
 0.1911164412542E+01
 0.1959148767482E+01
 0.3356719258754E+00
 0.5133009417223E+00
 0.6708182645591E+00
 0.8096411621808E+00
 0.9316371848750E+00
 0.1038895208119E+01
 0.1133578254644E+01
 0.1217739058400E+01
 0.1293217682077E+01
 0.1361667615739E+01
 0.1424581389138E+01
 0.1483153607452E+01
 0.1538778669973E+01
 0.1593020309447E+01
 0.1646944646750E+01
 0.1701112176554E+01
 0.1755619167833E+01
 0.1809792958495E+01
 0.1861047472986E+01
 0.1905915359744E+01
 0.3463775693794E+00
 0.5166427622476E+00
 0.6686242737463E+00
 0.8029982261590E+00
 0.9211967089275E+00
 0.1025084906733E+01
 0.1116671415794E+01
 0.1197897009641E+01
 0.1270509005484E+01
 0.1336097373492E+01
 0.1396124022669E+01
 0.1451626846930E+01
 0.1503940967322E+01
 0.1554712785865E+01
 0.1605002386334E+01
 0.1655327056890E+01
 0.1705752442228E+01
 0.1756052793326E+01
 0.1804252583967E+01
 0.1845547411993E+01
 0.3575610567145E+00
 0.5203813604054E+00
 0.6666449766525E+00
 0.7961616179971E+00
 0.9101703241377E+00
 0.1010354131138E+01
 0.1098536707752E+01
 0.1176531223218E+01
 0.1245999872695E+01
 0.1308446171617E+01
 0.1365317189641E+01
 0.1417570807701E+01
 0.1466326341945E+01
 0.1513300072887E+01
 0.1559672180176E+01
 0.1605779079760E+01
 0.1651500474353E+01
 0.1696420864568E+01
 0.1739995195233E+01
 0.1780683798288E+01
 0.1176261750216E+01
 0.4597282391223E+00
 0.9664686543783E-01
 0.3691353331575E-02
 0.5822359499315E-01
 0.9558892353734E-01
 0.1223990707780E+00
 0.1413168868661E+00
 0.1530116343005E+00
 0.1576315506704E+00
 0.1545995378113E+00
 0.1425834997149E+00
 0.1213132798479E+00
 0.9374490193171E-01
 0.6191591697784E-01
 0.2818532874143E-01
 0.7847769636432E-02
 0.3861486465388E-01
 0.7125932793417E-01
 0.1094113041373E+00
 0.1209781007220E+01
 0.8645212655636E+00
 0.3419287027005E+00
 0.1298897434649E+00
 0.3092109881633E-01
 0.2932282371841E-01
 0.6896873778550E-01
 0.9633492382308E-01
 0.1145715669986E+00
 0.1248164674365E+00
 0.1272726462136E+00
 0.1228701934007E+00
 0.1105874977750E+00
 0.8997460675560E-01
 0.6293032085852E-01
 0.3244867825198E-01
 0.4481581499302E-02
 0.3003486557145E-01
 0.6081671486255E-01
 0.9183707578835E-01
 0.1113223976695E+01
 0.9801388394987E+00
 0.5746120221094E+00
 0.2893428956169E+00
 0.1389517770310E+00
 0.5115119280030E-01
 0.5724311932240E-02
 0.4406159757916E-01
 0.7048601858737E-01
 0.8766264838560E-01
 0.9689035065006E-01
 0.9958084001560E-01
 0.9461656743206E-01
 0.8041244880100E-01
 0.5872001103144E-01
 0.3253151249047E-01
 0.5716746365996E-02
 0.2325045011506E-01
 0.5004425584893E-01
 0.7462785246036E-01
 0.1016955049611E+01
 0.9928566481573E+00
 0.7113531044744E+00
 0.4415031533575E+00
 0.2575833870898E+00
 0.1421941691445E+00
 0.6679203604925E-01
 0.1533641192007E-01
 0.2071418419965E-01
 0.4586756052977E-01
 0.6237330105702E-01
 0.7208345191890E-01
 0.7400640811358E-01
 0.6605921937685E-01
 0.4994568483245E-01
 0.2872076871088E-01
 0.5738189375804E-02
 0.1823011577390E-01
 0.4032369551876E-01
 0.5918932850451E-01
 0.9326073586168E+00
 0.9645930774159E+00
 0.7810013064724E+00
 0.5554804338539E+00
 0.3697649971245E+00
 0.2369967696376E+00
 0.1450623085844E+00
 0.8057531791331E-01
 0.3430474737417E-01
 0.1113572974171E-02
 0.2347742052759E-01
 0.4021047418613E-01
 0.4891582480168E-01
 0.4729948909868E-01
 0.3700823627278E-01
 0.2122356886624E-01
 0.3101983545732E-02
 0.1552527907072E-01
 0.3260081844620E-01
 0.4622258115676E-01
 0.8614853777777E+00
 0.9202124238688E+00
 0.8082947550224E+00
 0.6321365380596E+00
 0.4628893089936E+00
 0.3267973010997E+00
 0.2245874037845E+00
 0.1493093018573E+00
 0.9344814173564E-01
 0.5139414837523E-01
 0.1982601722215E-01
 0.4410916823901E-02
 0.1951220507454E-01
 0.2432138740476E-01
 0.2008580272646E-01
 0.1011142310895E-01
 0.2664028104859E-02
 0.1574860949045E-01
 0.2760676609448E-01
 0.3628635799975E-01
 0.8019876418851E+00
 0.8710218433898E+00
 0.8098428832818E+00
 0.6789088309183E+00
 0.5343256918829E+00
 0.4054016214688E+00
 0.3004844870068E+00
 0.2184909630748E+00
 0.1549915635282E+00
 0.1054623948920E+00
 0.6678388342414E-01
 0.3642514840965E-01
 0.1452696618726E-01
 0.3889720512902E-02
 0.2541792741952E-02
 0.5345115408043E-02
 0.1194024211595E-01
 0.1943350861158E-01
 0.2597069118396E-01
 0.2988286693703E-01
 0.7521102760210E+00
 0.8223796643400E+00
 0.7963177483268E+00
 0.7036569354231E+00
 0.5859051629487E+00
 0.4705045099174E+00
 0.3692708473024E+00
 0.2852158360691E+00
 0.2169469167924E+00
 0.1616196926690E+00
 0.1168414860422E+00
 0.8036144509224E-01
 0.5211491961956E-01
 0.3445676054015E-01
 0.2626707305679E-01
 0.2413044685219E-01
 0.2511326393662E-01
 0.2699644332780E-01
 0.2821883449299E-01
 0.2746610942645E-01
 0.7099960231370E+00
 0.7767922399619E+00
 0.7745467231570E+00
 0.7129665835600E+00
 0.6210639203845E+00
 0.5223041007190E+00
 0.4292963762411E+00
 0.3473730859437E+00
 0.2774981902250E+00
 0.2185369128245E+00
 0.1690842365753E+00
 0.1274282963466E+00
 0.9352831137507E-01
 0.6979606982263E-01
 0.5550350275013E-01
 0.4736954697938E-01
 0.4255425127613E-01
 0.3883579753651E-01
 0.3477283295271E-01
 0.2939233136483E-01
 0.6740708098083E+00
 0.7353156543184E+00
 0.7488964757886E+00
 0.7119528904690E+00
 0.6434664760607E+00
 0.5623065473506E+00
 0.4803314587206E+00
 0.4038317480716E+00
 0.3353048755772E+00
 0.2750340155100E+00
 0.2226137487204E+00
 0.1769989539473E+00
 0.1383138672392E+00
 0.1090762489960E+00
 0.8902248648060E-01
 0.7509565361905E-01
 0.6460359851679E-01
 0.5535193914367E-01
 0.4600861280469E-01
 0.3591827460714E-01
 0.6430434207570E+00
 0.6982466283868E+00
 0.7221445925527E+00
 0.7044526012894E+00
 0.6564495140772E+00
 0.5925420785109E+00
 0.5230495820603E+00
 0.4542993244581E+00
 0.3895957343986E+00
 0.3302303087317E+00
 0.2766480653820E+00
 0.2284746170964E+00
 0.1860782408514E+00
 0.1521071769682E+00
 0.1268157770063E+00
 0.1074629715549E+00
 0.9154476367772E-01
 0.7690400209006E-01
 0.6228336826313E-01
 0.4727871426566E-01
 0.6158696526273E+00
 0.6654822854214E+00
 0.6960273303240E+00
 0.6932840726006E+00
 0.6628394404837E+00
 0.6151249588178E+00
 0.5586057621258E+00
 0.4990831236941E+00
 0.4401134131429E+00
 0.3835934873195E+00
 0.3305965911076E+00
 0.2813360013143E+00
 0.2364402580662E+00
 0.1986778476744E+00
 0.1688340454381E+00
 0.1445582680948E+00
 0.1235742588772E+00
 0.1037704039731E+00
 0.8390645404243E-01
 0.6370350370684E-01
 0.5917108577151E+00
 0.6367153868865E+00
 0.6715887875780E+00
 0.6804795164696E+00
 0.6649323655608E+00
 0.6320283608602E+00
 0.5883469636839E+00
 0.5388610711949E+00
 0.4869954202591E+00
 0.4349134796938E+00
 0.3840838596619E+00
 0.3351786416177E+00
 0.2890532932102E+00
 0.2485519713457E+00
 0.2149587238503E+00
 0.1863658017903E+00
 0.1607668177165E+00
 0.1361125103001E+00
 0.1111047415905E+00
 0.8538298855672E-01
 0.5698963048283E+00
 0.6115433618258E+00
 0.6494078513258E+00
 0.6674707377290E+00
 0.6645372651122E+00
 0.6449825368071E+00
 0.6136300527705E+00
 0.5744997718137E+00
 0.5306446459591E+00
 0.4842374926174E+00
 0.4369338316340E+00
 0.3897226244996E+00
 0.3436207915884E+00
 0.3014754117198E+00
 0.2649944910927E+00
 0.2327429723842E+00
 0.2030366029359E+00
 0.1739302357007E+00
 0.1439911461725E+00
 0.1124540177565E+00
 0.5498915275649E+00
 0.5895303103005E+00
 0.6297488691034E+00
 0.6552318776513E+00
 0.6630384229377E+00
 0.6554393372202E+00
 0.6357148781472E+00
 0.6069230889353E+00
 0.5716147337543E+00
 0.5317929303900E+00
 0.4891313059079E+00
 0.4448019614880E+00
 0.3999020062603E+00
 0.3571874671849E+00
 0.3186756016744E+00
 0.2834100051206E+00
 0.2500999131116E+00
 0.2170027743821E+00
 0.1825177499748E+00
 0.1450070690525E+00
 0.5312725093729E+00
 0.5702423599265E+00
 0.6126637955291E+00
 0.6443879692203E+00
 0.6614590953079E+00
 0.6645708794249E+00
 0.6557060488469E+00
 0.6370227294570E+00
 0.6105183299000E+00
 0.5779134877145E+00
 0.5407737614708E+00
 0.5003404837892E+00
 0.4577084332001E+00
 0.4154367276717E+00
 0.3756957766241E+00
 0.3379731495726E+00
 0.3014602879370E+00
 0.2648136445925E+00
 0.2263889424275E+00
 0.1830896184994E+00
 0.5137047501047E+00
 0.5532675187504E+00
 0.5980622696847E+00
 0.6352975544619E+00
 0.6605198056989E+00
 0.6732851104107E+00
 0.6745250693083E+00
 0.6656001537036E+00
 0.6479579228865E+00
 0.6229755991187E+00
 0.5920227817028E+00
 0.5563194995598E+00
 0.5168889145888E+00
 0.4759913230794E+00
 0.4357649450871E+00
 0.3960204851384E+00
 0.3564650899011E+00
 0.3164926645405E+00
 0.2748923846614E+00
 0.2266766569619E+00
 0.4969273738050E+00
 0.5382253556173E+00
 0.5857599091562E+00
 0.6281149794065E+00
 0.6606903732292E+00
 0.6822499449926E+00
 0.6929011652721E+00
 0.6933300123641E+00
 0.6844753516249E+00
 0.6673474715771E+00
 0.6430615676246E+00
 0.6127433455970E+00
 0.5772986412627E+00
 0.5386215568480E+00
 0.4986343844035E+00
 0.4573004449059E+00
 0.4145955513527E+00
 0.3708532374001E+00
 0.3266454377722E+00
 0.2754943460480E+00
 0.4807404607194E+00
 0.5247760475996E+00
 0.5755018192369E+00
 0.6228385071968E+00
 0.6622391540738E+00
 0.6919224744128E+00
 0.7113738825474E+00
 0.7207377733992E+00
 0.7205123821877E+00
 0.7113498779404E+00
 0.6940652422171E+00
 0.6696140055290E+00
 0.6387632811935E+00
 0.6030326602428E+00
 0.5640161951120E+00
 0.5216811926587E+00
 0.4760302283051E+00
 0.4273290001371E+00
 0.3790255180659E+00
 0.3285543705500E+00
 0.4650436531978E+00
 0.5125622736982E+00
 0.5669613224417E+00
 0.6193624509245E+00
 0.6652852666356E+00
 0.7025812626043E+00
 0.7303018058931E+00
 0.7481885916711E+00
 0.7563770993415E+00
 0.7552068694987E+00
 0.7451932760375E+00
 0.7269482560651E+00
 0.7010624035427E+00
 0.6688085416722E+00
 0.6313905934459E+00
 0.5887900964678E+00
 0.5409174320129E+00
 0.4878261959322E+00
 0.4315225509169E+00
 0.3805361413469E+00
 0.3713487130848E+00
 0.5283143906387E+00
 0.6693215599442E+00
 0.7934491819895E+00
 0.9021579360382E+00
 0.9971910647515E+00
 0.1080322858334E+01
 0.1153349830198E+01
 0.1217976146375E+01
 0.1275698290485E+01
 0.1327934765573E+01
 0.1375994238713E+01
 0.1420700824584E+01
 0.1463975113189E+01
 0.1507574050326E+01
 0.1551398389259E+01
 0.1595083385433E+01
 0.1638126354052E+01
 0.1681494360797E+01
 0.1734367235630E+01
 0.3867533370354E+00
 0.5392551951356E+00
 0.6753528113094E+00
 0.7937294683525E+00
 0.8959768266405E+00
 0.9841647450869E+00
 0.1060287888339E+01
 0.1126316042038E+01
 0.1184105559936E+01
 0.1235249901389E+01
 0.1281279793603E+01
 0.1323694268290E+01
 0.1363210306968E+01
 0.1402250259146E+01
 0.1443371724406E+01
 0.1486410238345E+01
 0.1531127488198E+01
 0.1577642423009E+01
 0.1629461283269E+01
 0.1684962540659E+01
 0.4024057628003E+00
 0.5502425091191E+00
 0.6810189000050E+00
 0.7929022697476E+00
 0.8876748697910E+00
 0.9678219789649E+00
 0.1035700099068E+01
 0.1093542559385E+01
 0.1143384097888E+01
 0.1186935302635E+01
 0.1225832312694E+01
 0.1261603016754E+01
 0.1295001546008E+01
 0.1329228849213E+01
 0.1367709439903E+01
 0.1410381611400E+01
 0.1457190754941E+01
 0.1508703344069E+01
 0.1566065754960E+01
 0.1623949040004E+01
 0.4184907462447E+00
 0.5614710045413E+00
 0.6864728155784E+00
 0.7910026677403E+00
 0.8771764013227E+00
 0.9480577439201E+00
 0.1006483181280E+01
 0.1055025152117E+01
 0.1095923395169E+01
 0.1130992557661E+01
 0.1161937678858E+01
 0.1190267416585E+01
 0.1216824110364E+01
 0.1245728085797E+01
 0.1281345566431E+01
 0.1323706809759E+01
 0.1372754849185E+01
 0.1428364845367E+01
 0.1490222173228E+01
 0.1554497800109E+01
 0.4351336221373E+00
 0.5732007134536E+00
 0.6918829946713E+00
 0.7880517041091E+00
 0.8643786136020E+00
 0.9247214113796E+00
 0.9725258155866E+00
 0.1010763276105E+01
 0.1041882811373E+01
 0.1067768560932E+01
 0.1090151343686E+01
 0.1110452171850E+01
 0.1129625902890E+01
 0.1152759917559E+01
 0.1185111123983E+01
 0.1226749831478E+01
 0.1277416869878E+01
 0.1336471469589E+01
 0.1403518055763E+01
 0.1476960593957E+01
 0.4524819252910E+00
 0.5856926129742E+00
 0.6973992432815E+00
 0.7840067432275E+00
 0.8490945158477E+00
 0.8975849517693E+00
 0.9336677529299E+00
 0.9607538708060E+00
 0.9814773430475E+00
 0.9977311332511E+00
 0.1011200970936E+01
 0.1023132631716E+01
 0.1034590020147E+01
 0.1051591991144E+01
 0.1080160115951E+01
 0.1120387393268E+01
 0.1171932259735E+01
 0.1234051287518E+01
 0.1306933307561E+01
 0.1391261704309E+01
 0.4707238832716E+00
 0.5992203889367E+00
 0.7031117614994E+00
 0.7787114976520E+00
 0.8310062656749E+00
 0.8663102234274E+00
 0.8896855601450E+00
 0.9049919217242E+00
 0.9149854959613E+00
 0.9214709791708E+00
 0.9259883511959E+00
 0.9295020272438E+00
 0.9331642527507E+00
 0.9438320009802E+00
 0.9681148579479E+00
 0.1006174649285E+01
 0.1057786996802E+01
 0.1122447705288E+01
 0.1201319944509E+01
 0.1297303702475E+01
 0.4901065315847E+00
 0.6140662593023E+00
 0.7090140896057E+00
 0.7718418281551E+00
 0.8096185565723E+00
 0.8304212267834E+00
 0.8402859516763E+00
 0.8434793862033E+00
 0.8427631582173E+00
 0.8397131732683E+00
 0.8355943257713E+00
 0.8309738726465E+00
 0.8270677047389E+00
 0.8314365583213E+00
 0.8510581590846E+00
 0.8862053893445E+00
 0.9369457630098E+00
 0.1003288943431E+01
 0.1087636785298E+01
 0.1195173640076E+01
 0.5109525992112E+00
 0.6305087692645E+00
 0.7149517899728E+00
 0.7628429927424E+00
 0.7842105355878E+00
 0.7892840146260E+00
 0.7851129087198E+00
 0.7762487854940E+00
 0.7652695078657E+00
 0.7533336144470E+00
 0.7412799654863E+00
 0.7291673251455E+00
 0.7182590111884E+00
 0.7166568507064E+00
 0.7314408047331E+00
 0.7629927139028E+00
 0.8117829701064E+00
 0.8785458911608E+00
 0.9671401209189E+00
 0.1085247723065E+01
 0.5336792945234E+00
 0.6487974983651E+00
 0.7205492657412E+00
 0.7508507305467E+00
 0.7537867447945E+00
 0.7421005840346E+00
 0.7237773939705E+00
 0.7034089729225E+00
 0.6831071094188E+00
 0.6633782672957E+00
 0.6444783049942E+00
 0.6258707756293E+00
 0.6088715914896E+00
 0.6019455643743E+00
 0.6119724267998E+00
 0.6393776424422E+00
 0.6850554969698E+00
 0.7506034323846E+00
 0.8415168162970E+00
 0.9682862529731E+00
 0.5588200849464E+00
 0.6691075818133E+00
 0.7251021771748E+00
 0.7345897349858E+00
 0.7170312734123E+00
 0.6879292331837E+00
 0.6559229667242E+00
 0.6252206770362E+00
 0.5970764024805E+00
 0.5710802554439E+00
 0.5467711562776E+00
 0.5229823826466E+00
 0.5011224224261E+00
 0.4898413193982E+00
 0.4955001352593E+00
 0.5184340868206E+00
 0.5598703148161E+00
 0.6223070310676E+00
 0.7129859651142E+00
 0.8455366797190E+00
 0.5870497389003E+00
 0.6914595539750E+00
 0.7274156548770E+00
 0.7122432412449E+00
 0.6722783460363E+00
 0.6257546959239E+00
 0.5813463002467E+00
 0.5422078900861E+00
 0.5082391524580E+00
 0.4778651299901E+00
 0.4498441431825E+00
 0.4224269185779E+00
 0.3971997028065E+00
 0.3828350225452E+00
 0.3848681766117E+00
 0.4033497161678E+00
 0.4396202062607E+00
 0.4969740760866E+00
 0.5843782467866E+00
 0.7188568373424E+00
 0.6192108861767E+00
 0.7155763071222E+00
 0.7255555759681E+00
 0.6812919629678E+00
 0.6175316757928E+00
 0.5546492401638E+00
 0.5001954615655E+00
 0.4553022409980E+00
 0.4179729669504E+00
 0.3853269983476E+00
 0.3554117569936E+00
 0.3260503222593E+00
 0.2991358380774E+00
 0.2832226643110E+00
 0.2827551857913E+00
 0.2972691013814E+00
 0.3278701885539E+00
 0.3783592144109E+00
 0.4591947422124E+00
 0.5908645177591E+00
 0.6563346927709E+00
 0.7406201913864E+00
 0.7164582895087E+00
 0.6383373557982E+00
 0.5506053863977E+00
 0.4740905159558E+00
 0.4132620865954E+00
 0.3659917167066E+00
 0.3279787673545E+00
 0.2951516535324E+00
 0.2651080502058E+00
 0.2354997959355E+00
 0.2086780225078E+00
 0.1929553531824E+00
 0.1914926586366E+00
 0.2030911010259E+00
 0.2281759626234E+00
 0.2705545682804E+00
 0.3416360937047E+00
 0.4651177422837E+00
 0.6996327699639E+00
 0.7646887432891E+00
 0.6953092870021E+00
 0.5789814726180E+00
 0.4695411277292E+00
 0.3845280211800E+00
 0.3223376930447E+00
 0.2763945580297E+00
 0.2401802075203E+00
 0.2089707280636E+00
 0.1803523231785E+00
 0.1521071458220E+00
 0.1271768057001E+00
 0.1135071759581E+00
 0.1128813165704E+00
 0.1232216995114E+00
 0.1438129380529E+00
 0.1777898128220E+00
 0.2365767687417E+00
 0.3463276527661E+00
 0.7503837301194E+00
 0.7837910927795E+00
 0.6545566261306E+00
 0.4980028030201E+00
 0.3736281297067E+00
 0.2882404383184E+00
 0.2304817480959E+00
 0.1890888535402E+00
 0.1564745001321E+00
 0.1281661879032E+00
 0.1022170041110E+00
 0.7679978895240E-01
 0.5551776895519E-01
 0.4579529332550E-01
 0.4804298541751E-01
 0.5930665820285E-01
 0.7739711391374E-01
 0.1040719384868E+00
 0.1494271466767E+00
 0.2405995543922E+00
 0.8095080782858E+00
 0.7895807286930E+00
 0.5824231168941E+00
 0.3906542236946E+00
 0.2654999379339E+00
 0.1903087023098E+00
 0.1416478577071E+00
 0.1066026936710E+00
 0.7840158655565E-01
 0.5368620454601E-01
 0.3133420079481E-01
 0.1009092647696E-01
 0.6073639788656E-02
 0.9985684887150E-02
 0.2930540690925E-02
 0.1201886307540E-01
 0.3042060539218E-01
 0.5257964132374E-01
 0.8576104914700E-01
 0.1556751827815E+00
 0.8756713704117E+00
 0.7637619257668E+00
 0.4613947609903E+00
 0.2572686997240E+00
 0.1551632323737E+00
 0.9750218784909E-01
 0.5947118167640E-01
 0.3081939726783E-01
 0.6891603662317E-02
 0.1405875369868E-01
 0.3218010949993E-01
 0.4814611386056E-01
 0.5717383828042E-01
 0.5364895528953E-01
 0.3952192741551E-01
 0.1896502097297E-01
 0.3159599025283E-02
 0.2482151944819E-01
 0.5048267131448E-01
 0.1011026351162E+00
 0.9397233948363E+00
 0.6606794722953E+00
 0.2714427542586E+00
 0.1220891938098E+00
 0.5542401413728E-01
 0.1506913075800E-01
 0.1384440494442E-01
 0.3735438165805E-01
 0.5777680480904E-01
 0.7522215155441E-01
 0.8868796277365E-01
 0.9818635889131E-01
 0.9851743094148E-01
 0.8587355041013E-01
 0.6321250271225E-01
 0.3477187388798E-01
 0.7426160555519E-02
 0.1982060872958E-01
 0.4566651251713E-01
 0.8800038263337E-01
 0.9025410281211E+00
 0.3422195894468E+00
 0.7835579315730E-01
 0.1226203016581E-01
 0.2766749920302E-01
 0.5479127871904E-01
 0.7755410314071E-01
 0.9788876925802E-01
 0.1157393125565E+00
 0.1302966333692E+00
 0.1395545017978E+00
 0.1410585071425E+00
 0.1301821341311E+00
 0.1068242064426E+00
 0.7468018184956E-01
 0.3722793451959E-01
 0.6742828139732E-02
 0.3517559045939E-01
 0.6528607894514E-01
 0.1233544141480E+00
 0.3458584236218E+00
 0.2936014474532E+00
 0.2484891464830E+00
 0.2078666699865E+00
 0.1710707407887E+00
 0.1382651826996E+00
 0.1097497129654E+00
 0.8579234760772E-01
 0.6656660917033E-01
 0.5213635471866E-01
 0.4246244946809E-01
 0.3742839746504E-01
 0.3686294560918E-01
 0.4052087294094E-01
 0.4805476309525E-01
 0.5904093846111E-01
 0.7302774224681E-01
 0.8958191669029E-01
 0.1083399216169E+00
 0.1298590963659E+00
 0.3762985138487E+00
 0.3267420975597E+00
 0.2762665046629E+00
 0.2293161179254E+00
 0.1868818464915E+00
 0.1492573334414E+00
 0.1166391558461E+00
 0.8919945479260E-01
 0.6707459641475E-01
 0.5033405941847E-01
 0.3895966349329E-01
 0.3285923480898E-01
 0.3191227619325E-01
 0.3594988899886E-01
 0.4466955408358E-01
 0.5766184185731E-01
 0.7451016651672E-01
 0.9486238385837E-01
 0.1185704540199E+00
 0.1457700005399E+00
 0.4069707274910E+00
 0.3571696590630E+00
 0.3053906166010E+00
 0.2549031881039E+00
 0.2079216008392E+00
 0.1655120232122E+00
 0.1282585814412E+00
 0.9653893929970E-01
 0.7061909093571E-01
 0.5066855459614E-01
 0.3674182520360E-01
 0.2877628482257E-01
 0.2668217307517E-01
 0.3040409268257E-01
 0.3972636176502E-01
 0.5422381311086E-01
 0.7343486705151E-01
 0.9696657211892E-01
 0.1245044502478E+00
 0.1556821068831E+00
 0.4415197680497E+00
 0.3891510660452E+00
 0.3357298973942E+00
 0.2828012433304E+00
 0.2322708969771E+00
 0.1855828524150E+00
 0.1437165163505E+00
 0.1073671452777E+00
 0.7705304142763E-01
 0.5315535632808E-01
 0.3590364120908E-01
 0.2532575164868E-01
 0.2131004097120E-01
 0.2392369231054E-01
 0.3318901158853E-01
 0.4867255629890E-01
 0.6979300306535E-01
 0.9601700710058E-01
 0.1268624923407E+00
 0.1618551552696E+00
 0.4806425966235E+00
 0.4250222535838E+00
 0.3691186407269E+00
 0.3135905369184E+00
 0.2597882648467E+00
 0.2090911143772E+00
 0.1626702317117E+00
 0.1214811080850E+00
 0.8631298656227E-01
 0.5781935114827E-01
 0.3650783582274E-01
 0.2264097852270E-01
 0.1603820718080E-01
 0.1660195877613E-01
 0.2497577975010E-01
 0.4090385589663E-01
 0.6357248677801E-01
 0.9223303868787E-01
 0.1262346539738E+00
 0.1650559487786E+00
 0.5244976336585E+00
 0.4657142897367E+00
 0.4069241783743E+00
 0.3484524320831E+00
 0.2912559278777E+00
 0.2365302017028E+00
 0.1854725676833E+00
 0.1391956129816E+00
 0.9871647497580E-01
 0.6496814994201E-01
 0.3881001292861E-01
 0.2099796417823E-01
 0.1168654123165E-01
 0.9286603005115E-02
 0.1511694010338E-01
 0.3076027248002E-01
 0.5469200614805E-01
 0.8575054709792E-01
 0.1229677354630E+00
 0.1656011548596E+00
 0.5731936264901E+00
 0.5116980177488E+00
 0.4500340552343E+00
 0.3884651190876E+00
 0.3277289447607E+00
 0.2688538795703E+00
 0.2129932890621E+00
 0.1613331060917E+00
 0.1150572713900E+00
 0.7534912775979E-01
 0.4344269488611E-01
 0.2088961133052E-01
 0.1025386393836E-01
 0.8142206868332E-02
 0.5693357577222E-02
 0.1808792982991E-01
 0.4288140214667E-01
 0.7643306559373E-01
 0.1171853907550E+00
 0.1636954658698E+00
 0.6268609277760E+00
 0.5633018090682E+00
 0.4991130061646E+00
 0.4345833459825E+00
 0.3703387228744E+00
 0.3072802436136E+00
 0.2464930030006E+00
 0.1891795329009E+00
 0.1366287010091E+00
 0.9022154537159E-01
 0.5152661091752E-01
 0.2298324773244E-01
 0.1248349977415E-01
 0.1632820746282E-01
 0.1347328980806E-01
 0.4450069578758E-02
 0.2757878945901E-01
 0.6378847897678E-01
 0.1089184794484E+00
 0.1603878109808E+00
 0.6856485547454E+00
 0.6208468220337E+00
 0.5547823337400E+00
 0.4877674967532E+00
 0.4203547795072E+00
 0.3533380269295E+00
 0.2877159013150E+00
 0.2246581569561E+00
 0.1654917211600E+00
 0.1117193836332E+00
 0.6513992238618E-01
 0.2872593409086E-01
 0.1559262580760E-01
 0.2590486112187E-01
 0.2855794409233E-01
 0.1787118822221E-01
 0.8330630265861E-02
 0.4688261223592E-01
 0.9777184681102E-01
 0.1570529652231E+00
 0.7496457728896E+00
 0.6845616344433E+00
 0.6175326044457E+00
 0.5488513918230E+00
 0.4789924942493E+00
 0.4086371011911E+00
 0.3386701107231E+00
 0.2701739637801E+00
 0.2044346269761E+00
 0.1429745250600E+00
 0.8767060053080E-01
 0.4144750097010E-01
 0.1750970888660E-01
 0.3263293305623E-01
 0.4333676780259E-01
 0.3880043858389E-01
 0.1659599238156E-01
 0.2451624461432E-01
 0.8223852790348E-01
 0.1530433571548E+00
 0.8188233949560E+00
 0.7545202558380E+00
 0.6876304603977E+00
 0.6183841083734E+00
 0.5471581309991E+00
 0.4745040474207E+00
 0.4011614401232E+00
 0.3280698082306E+00
 0.2563901243551E+00
 0.1875486241995E+00
 0.1233400564390E+00
 0.6632996129852E-01
 0.2406043670653E-01
 0.3208071498576E-01
 0.5302746842678E-01
 0.5856073336570E-01
 0.4333377255763E-01
 0.4484413372817E-02
 0.6025361083008E-01
 0.1462231915833E+00
 0.8929851928013E+00
 0.8305952396850E+00
 0.7650781662004E+00
 0.6965797956638E+00
 0.6253666778892E+00
 0.5518491799628E+00
 0.4765998394813E+00
 0.4003732274350E+00
 0.3241350595738E+00
 0.2491100598487E+00
 0.1768694587094E+00
 0.1095484609997E+00
 0.5096534228775E-01
 0.2335505733661E-01
 0.5019846500810E-01
 0.6957874165224E-01
 0.6723861884064E-01
 0.3607899383497E-01
 0.3023991123743E-01
 0.1333630944275E+00
 0.9717398490456E+00
 0.9124140170775E+00
 0.8495634069577E+00
 0.7832519264880E+00
 0.7136415516489E+00
 0.6410091640289E+00
 0.5657634525738E+00
 0.4884649399196E+00
 0.4098543177429E+00
 0.3308959990430E+00
 0.2528487727551E+00
 0.1773954576659E+00
 0.1069762160956E+00
 0.4668619090804E-01
 0.2897877027111E-01
 0.5892007870917E-01
 0.7441393775563E-01
 0.6033570860090E-01
 0.4026603276429E-02
 0.1116039666472E+00
 0.1054490195933E+01
 0.9993317670751E+00
 0.9404150051709E+00
 0.8777429702704E+00
 0.8113982321075E+00
 0.7415553669117E+00
 0.6684949396212E+00
 0.5926205933832E+00
 0.5144826167276E+00
 0.4348127570803E+00
 0.3545774938901E+00
 0.2750629809946E+00
 0.1980229224158E+00
 0.1259969030315E+00
 0.6345912472907E-01
 0.2687886671157E-01
 0.4107578390884E-01
 0.4597354121061E-01
 0.1165805024388E-01
 0.1005903754531E+00
 0.1140440098308E+01
 0.1090429299100E+01
 0.1036587156144E+01
 0.9788839467763E+00
 0.9173567841958E+00
 0.8521214563417E+00
 0.7833857727207E+00
 0.7114657053690E+00
 0.6368066844428E+00
 0.5600133835839E+00
 0.4818927396885E+00
 0.4035174551091E+00
 0.3263217977863E+00
 0.2522496820743E+00
 0.1839879581927E+00
 0.1253237502364E+00
 0.8154779353478E-01
 0.5944717535380E-01
 0.7095372724867E-01
 0.1479962088681E+00
 0.1228623077380E+01
 0.1184548022643E+01
 0.1136699547711E+01
 0.1085035422338E+01
 0.1029571499134E+01
 0.9703952115253E+00
 0.9076800479949E+00
 0.8417023509150E+00
 0.7728621947104E+00
 0.7017105532943E+00
 0.6289855922782E+00
 0.5556618784325E+00
 0.4830177225836E+00
 0.4127278019050E+00
 0.3469904404097E+00
 0.2887008781248E+00
 0.2416867829846E+00
 0.2110389611167E+00
 0.2036517500470E+00
 0.2271808901845E+00
 0.1317951737818E+01
 0.1280364229285E+01
 0.1239146748042E+01
 0.1194248601641E+01
 0.1145667797387E+01
 0.1093465661776E+01
 0.1037781238366E+01
 0.9788466289625E+00
 0.9170042245885E+00
 0.8527265480462E+00
 0.7866390695426E+00
 0.7195456546628E+00
 0.6524547932424E+00
 0.5866013584489E+00
 0.5234507707391E+00
 0.4646534964343E+00
 0.4118684675512E+00
 0.3662352954056E+00
 0.3267735217287E+00
 0.2849224455829E+00
 0.1407274652296E+01
 0.1376476440619E+01
 0.1342230317979E+01
 0.1304465891721E+01
 0.1263148216845E+01
 0.1218291397849E+01
 0.1169970238277E+01
 0.1118330649186E+01
 0.1063598775582E+01
 0.1006087927743E+01
 0.9462011670349E+00
 0.8844253643646E+00
 0.8213089490676E+00
 0.7574088792612E+00
 0.6931794130301E+00
 0.6287493821616E+00
 0.5634805732810E+00
 0.4950923389204E+00
 0.4179166028071E+00
 0.3209101132157E+00
 0.1495427015643E+01
 0.1471479736314E+01
 0.1444265783998E+01
 0.1413673905317E+01
 0.1379610473778E+01
 0.1342009759875E+01
 0.1300840511185E+01
 0.1256109122013E+01
 0.1207858486114E+01
 0.1156160421964E+01
 0.1101097957974E+01
 0.1042731348888E+01
 0.9810378884070E+00
 0.9158094625934E+00
 0.8464820903346E+00
 0.7718570737532E+00
 0.6896585065321E+00
 0.5958789521271E+00
 0.4841594068829E+00
 0.3464757138164E+00
 0.1581270750853E+01
 0.1564021394067E+01
 0.1543657541262E+01
 0.1520002293632E+01
 0.1492875375692E+01
 0.1462098071625E+01
 0.1427493672413E+01
 0.1388883127548E+01
 0.1346074455768E+01
 0.1298843408484E+01
 0.1246901486818E+01
 0.1189845569459E+01
 0.1127081003668E+01
 0.1057707194795E+01
 0.9803524909367E+00
 0.8929479120384E+00
 0.7924497801138E+00
 0.6746156058704E+00
 0.5341992117177E+00
 0.3667329463464E+00
 0.1663724702554E+01
 0.1652839647766E+01
 0.1638945749980E+01
 0.1621778681153E+01
 0.1601048080206E+01
 0.1576436311017E+01
 0.1547593230422E+01
 0.1514125755060E+01
 0.1475580801574E+01
 0.1431419467254E+01
 0.1380979524630E+01
 0.1323422515643E+01
 0.1257661285000E+01
 0.1182264543716E+01
 0.1095339230084E+01
 0.9944040804399E+00
 0.8763023834880E+00
 0.7372807601726E+00
 0.5735507762418E+00
 0.3837384882831E+00
 0.1741784942422E+01
 0.1736784954593E+01
 0.1728826641881E+01
 0.1717544561526E+01
 0.1702523261615E+01
 0.1683291552914E+01
 0.1659313003358E+01
 0.1629971795308E+01
 0.1594552937822E+01
 0.1552215612979E+01
 0.1501958289650E+01
 0.1442574450719E+01
 0.1372598837993E+01
 0.1290247008046E+01
 0.1193357561841E+01
 0.1079360293787E+01
 0.9453206177417E+00
 0.7881668733223E+00
 0.6054141027357E+00
 0.3980766397704E+00
 0.1814530958220E+01
 0.1814820771482E+01
 0.1812148998745E+01
 0.1806043041731E+01
 0.1795957327069E+01
 0.1781264712281E+01
 0.1761244576675E+01
 0.1735067403719E+01
 0.1701775602732E+01
 0.1660260439681E+01
 0.1609235297864E+01
 0.1547206303211E+01
 0.1472443038024E+01
 0.1382955287838E+01
 0.1276487574826E+01
 0.1150553291877E+01
 0.1002548929068E+01
 0.8300412103955E+00
 0.6315578124891E+00
 0.4098675538367E+00
 0.1881138702077E+01
 0.1886035500797E+01
 0.1887922008283E+01
 0.1886219587979E+01
 0.1880256979079E+01
 0.1869259919154E+01
 0.1852338406284E+01
 0.1828471887340E+01
 0.1796492874574E+01
 0.1755069857992E+01
 0.1702690981431E+01
 0.1637650926889E+01
 0.1558045019842E+01
 0.1461777021997E+01
 0.1346590867710E+01
 0.1210142994410E+01
 0.1050147171115E+01
 0.8646789840750E+00
 0.6529989801639E+00
 0.4191647076650E+00
 0.1940881726291E+01
 0.1949639764209E+01
 0.1955304607590E+01
 0.1957199764015E+01
 0.1954540976629E+01
 0.1946424987533E+01
 0.1931817006294E+01
 0.1909537502667E+01
 0.1878249384937E+01
 0.1836447166140E+01
 0.1782450381697E+01
 0.1714404371253E+01
 0.1630292640216E+01
 0.1527966459089E+01
 0.1405199470563E+01
 0.1259779578361E+01
 0.1089665092913E+01
 0.8932926199114E+00
 0.6704259823268E+00
 0.4260648867506E+00
 0.1993127099688E+01
 0.2004956313263E+01
 0.2013586893331E+01
 0.2018258851787E+01
 0.2018094363961E+01
 0.2012086390217E+01
 0.1999086908405E+01
 0.1977795433504E+01
 0.1946749210355E+01
 0.1904317131681E+01
 0.1848700061298E+01
 0.1777940873721E+01
 0.1689948180885E+01
 0.1582538471580E+01
 0.1453502702956E+01
 0.1300707387674E+01
 0.1122255634732E+01
 0.9167984690859E+00
 0.6844094997179E+00
 0.4307361372891E+00
 0.2037330709290E+01
 0.2051409532803E+01
 0.2062171913868E+01
 0.2068793611261E+01
 0.2070327577262E+01
 0.2065693118375E+01
 0.2053665145045E+01
 0.2032863881435E+01
 0.2001746536006E+01
 0.1958603244823E+01
 0.1901560157131E+01
 0.1828592975591E+01
 0.1737554686969E+01
 0.1626221777191E+01
 0.1492364536448E+01
 0.1333851486598E+01
 0.1148814405887E+01
 0.9359674732092E+00
 0.6955067906126E+00
 0.4334340739828E+00
 0.2073032452451E+01
 0.2088515385579E+01
 0.2100559080571E+01
 0.2108297557916E+01
 0.2110741732180E+01
 0.2106770170166E+01
 0.2095119633442E+01
 0.2074375054208E+01
 0.2042960535915E+01
 0.1999133943925E+01
 0.1940988061673E+01
 0.1866461550543E+01
 0.1773363340699E+01
 0.1659414852453E+01
 0.1522316301186E+01
 0.1359848721496E+01
 0.1170041061180E+01
 0.9514993451204E+00
 0.7043274627973E+00
 0.4345421841688E+00
 0.2099852505846E+01
 0.2115873595913E+01
 0.2128331673245E+01
 0.2136342763141E+01
 0.2138903219837E+01
 0.2134884400217E+01
 0.2123025123228E+01
 0.2101920742954E+01
 0.2070010995783E+01
 0.2025569737575E+01
 0.1966699619452E+01
 0.1891334694556E+01
 0.1797254376524E+01
 0.1682113398284E+01
 0.1543495114132E+01
 0.1379001929539E+01
 0.1186415665329E+01
 0.9640291224952E+00
 0.7115756151226E+00
 0.4346416116782E+00
 0.2117488984767E+01
 0.2133162477451E+01
 0.2145149352737E+01
 0.2152569270409E+01
 0.2154428365178E+01
 0.2149622713202E+01
 0.2136933578463E+01
 0.2115013833425E+01
 0.2082369929642E+01
 0.2037343676903E+01
 0.1978096801836E+01
 0.1902600507292E+01
 0.1808632660745E+01
 0.1693786996054E+01
 0.1555502331158E+01
 0.1391127257512E+01
 0.1198054697169E+01
 0.9740284061722E+00
 0.7180409444905E+00
 0.4346134560070E+00
 0.2125716568819E+01
 0.2140137207321E+01
 0.2150747963088E+01
 0.2156684859711E+01
 0.2156980535249E+01
 0.2150584490663E+01
 0.2136360446303E+01
 0.2113066768157E+01
 0.2079329561553E+01
 0.2033614486985E+01
 0.1974199498508E+01
 0.1899148895993E+01
 0.1806289291388E+01
 0.1693190302101E+01
 0.1557157295007E+01
 0.1395251768427E+01
 0.1204373250438E+01
 0.9814933039516E+00
 0.7244245893835E+00
 0.4357285156827E+00
 0.2124386691289E+01
 0.2136636487569E+01
 0.2144953548386E+01
 0.2148481327495E+01
 0.2146284784915E+01
 0.2137392885272E+01
 0.2120791813425E+01
 0.2095392859081E+01
 0.2059993737041E+01
 0.2013240582608E+01
 0.1953590538643E+01
 0.1879271604407E+01
 0.1788236671757E+01
 0.1678111005704E+01
 0.1546137247205E+01
 0.1389131255228E+01
 0.1203479886400E+01
 0.9852589492887E+00
 0.7307511932258E+00
 0.4395314317430E+00
 0.2113432091671E+01
 0.2122607714153E+01
 0.2127717441257E+01
 0.2127869734164E+01
 0.2122159689073E+01
 0.2109724172101E+01
 0.2089712913634E+01
 0.2061233584743E+01
 0.2023299561300E+01
 0.1974786541202E+01
 0.1914391418797E+01
 0.1840584592248E+01
 0.1751547359491E+01
 0.1645088173891E+01
 0.1518535118083E+01
 0.1368609896706E+01
 0.1191309012678E+01
 0.9818635569743E+00
 0.7350032394203E+00
 0.4468640046492E+00
 0.2092885160013E+01
 0.2098151909246E+01
 0.2099160807491E+01
 0.2094914212895E+01
 0.2084542833960E+01
 0.2067333128038E+01
 0.2042642326639E+01
 0.2009806194848E+01
 0.1968078441822E+01
 0.1916592338680E+01
 0.1854328347220E+01
 0.1780071153567E+01
 0.1692343366447E+01
 0.1589303843949E+01
 0.1468598015492E+01
 0.1327149732348E+01
 0.1160897383115E+01
 0.9645369945790E+00
 0.7315135978425E+00
 0.4553318419505E+00
 0.2062876127762E+01
 0.2063494279880E+01
 0.2059501579473E+01
 0.2049718249311E+01
 0.2033358679056E+01
 0.2009938093499E+01
 0.1979064661364E+01
 0.1940312643128E+01
 0.1893168512577E+01
 0.1837019184752E+01
 0.1771143814049E+01
 0.1694691091368E+01
 0.1606629098046E+01
 0.1505653080452E+01
 0.1390030097744E+01
 0.1257348539802E+01
 0.1104133136848E+01
 0.9253005660212E+00
 0.7136456257751E+00
 0.4605577503550E+00
 0.2023684063137E+01
 0.2019039120221E+01
 0.2009093842346E+01
 0.1992459343023E+01
 0.1968617685374E+01
 0.1937430836378E+01
 0.1898789881535E+01
 0.1852469290318E+01
 0.1798139100566E+01
 0.1735399852601E+01
 0.1663809270851E+01
 0.1582891486375E+01
 0.1492122819874E+01
 0.1390883811992E+01
 0.1278355884407E+01
 0.1153320820243E+01
 0.1013776426056E+01
 0.8562169493419E+00
 0.6743040665073E+00
 0.4572679413869E+00
 0.1975861678197E+01
 0.1965486808463E+01
 0.1948427904566E+01
 0.1923387802255E+01
 0.1890464814738E+01
 0.1850038515839E+01
 0.1802187657630E+01
 0.1746776728926E+01
 0.1683569274248E+01
 0.1612308462895E+01
 0.1532772870462E+01
 0.1444816842479E+01
 0.1348402472578E+01
 0.1243623764936E+01
 0.1130715135300E+01
 0.1010017406974E+01
 0.8818359072629E+00
 0.7459713789265E+00
 0.6003536006937E+00
 0.4365779134749E+00
 0.1920347987980E+01
 0.1903741868681E+01
 0.1877893728971E+01
 0.1842485148971E+01
 0.1799146458035E+01
 0.1748430232036E+01
 0.1690334247184E+01
 0.1624664118930E+01
 0.1551187488376E+01
 0.1469718903255E+01
 0.1380175534967E+01
 0.1282632233797E+01
 0.1177391390888E+01
 0.1065081304476E+01
 0.9467983644478E+00
 0.8243150422578E+00
 0.7003723436606E+00
 0.5791024128876E+00
 0.4662869161151E+00
 0.3682503629183E+00
 0.1859149583524E+01
 0.1834745895020E+01
 0.1796346003015E+01
 0.1749466390223E+01
 0.1695480811666E+01
 0.1634275184857E+01
 0.1565571508964E+01
 0.1489095612412E+01
 0.1404646998239E+01
 0.1312122741983E+01
 0.1211549255218E+01
 0.1103135333620E+01
 0.9873618327389E+00
 0.8651298337063E+00
 0.7380056776325E+00
 0.6086329157356E+00
 0.4814606169859E+00
 0.3640826908298E+00
 0.2703534857377E+00
 0.2275436930860E+00
 0.1793143784195E+01
 0.1751065779835E+01
 0.1701347473586E+01
 0.1645506418491E+01
 0.1582230753005E+01
 0.1511184907537E+01
 0.1432232171232E+01
 0.1345369201804E+01
 0.1250680547486E+01
 0.1148349699904E+01
 0.1038694797775E+01
 0.9222340960550E+00
 0.7997948550138E+00
 0.6726933877971E+00
 0.5430348981264E+00
 0.4142240987301E+00
 0.2918564434828E+00
 0.1854293590142E+00
 0.1117594909779E+00
 0.1071384869130E+00
</DataArray>
<DataArray type="Float64" Name="CK" NumberOfComponents="1" ComponentName0="CK" format="ascii">
 0.0000000000000E+00
 0.0000000000000E+00
 0.0000000000000E+00
 0.0000000000000E+00
 0.0000000000000E+00
 0.0000000000000E+00
 0.0000000000000E+00
 0.0000000000000E+00
 0.0000000000000E+00
 0.0000000000000E+00
 0.0000000000000E+00
 0.0000000000000E+00
 0.0000000000000E+00
 0.0000000000000E+00
 0.0000000000000E+00
 0.0000000000000E+00
 0.0000000000000E+00
 0.0000000000000E+00
 0.0000000000000E+00
 0.0000000000000E+00
 0.0000000000000E+00
 0.0000000000000E+00
 0.0000000000000E+00
 0.0000000000000E+00
 0.0000000000000E+00
 0.0000000000000E+00
 0.0000000000000E+00
 0.0000000000000E+00
 0.0000000000000E+00
 0.0000000000000E+00
 0.0000000000000E+00
 0.0000000000000E+00
 0.0000000000000E+00
 0.0000000000000E+00
 0.0000000000000E+00
 0.0000000000000E+00
 0.0000000000000E+00
 0.0000000000000E+00
 0.0000000000000E+00
 0.0000000000000E+00
 0.0000000000000E+00
 0.0000000000000E+00
 0.0000000000000E+00
 0.0000000000000E+00
 0.0000000000000E+00
 0.0000000000000E+00
 0.0000000000000E+00
 0.0000000000000E+00
 0.0000000000000E+00
 0.0000000000000E+00
 0.0000000000000E+00
 0.0000000000000E+00
 0.0000000000000E+00
 0.0000000000000E+00
 0.0000000000000E+00
 0.0000000000000E+00
 0.0000000000000E+00
 0.0000000000000E+00
 0.0000000000000E+00
 0.0000000000000E+00
 0.0000000000000E+00
 0.0000000000000E+00
 0.0000000000000E+00
 0.0000000000000E+00
 0.0000000000000E+00
 0.0000000000000E+00
 0.0000000000000E+00
 0.0000000000000E+00
 0.0000000000000E+00
 0.0000000000000E+00
 0.0000000000000E+00
 0.0000000000000E+00
 0.0000000000000E+00
 0.0000000000000E+00
 0.0000000000000E+00
 0.0000000000000E+00
 0.0000000000000E+00
 0.0000000000000E+00
 0.0000000000000E+00
 0.0000000000000E+00
 0.0000000000000E+00
 0.0000000000000E+00
 0.0000000000000E+00
 0.0000000000000E+00
 0.0000000000000E+00
 0.0000000000000E+00
 0.0000000000000E+00
 0.0000000000000E+00
 0.0000000000000E+00
 0.0000000000000E+00
 0.0000000000000E+00
 0.0000000000000E+00
 0.0000000000000E+00
 0.0000000000000E+00
 0.0000000000000E+00
 0.0000000000000E+00
 0.0000000000000E+00
 0.0000000000000E+00
 0.0000000000000E+00
 0.0000000000000E+00
 0.0000000000000E+00
 0.0000000000000E+00
 0.0000000000000E+00
 0.0000000000000E+00
 0.0000000000000E+00
 0.0000000000000E+00
 0.0000000000000E+00
 0.0000000000000E+00
 0.0000000000000E+00
 0.0000000000000E+00
 0.0000000000000E+00
 0.0000000000000E+00
 0.0000000000000E+00
 0.0000000000000E+00
 0.0000000000000E+00
 0.0000000000000E+00
 0.0000000000000E+00
 0.0000000000000E+00
 0.0000000000000E+00
 0.0000000000000E+00
 0.0000000000000E+00
 0.0000000000000E+00
 0.0000000000000E+00
 0.0000000000000E+00
 0.0000000000000E+00
 0.0000000000000E+00
 0.0000000000000E+00
 0.0000000000000E+00
 0.0000000000000E+00
 0.0000000000000E+00
 0.0000000000000E+00
 0.0000000000000E+00
 0.0000000000000E+00
 0.0000000000000E+00
 0.0000000000000E+00
 0.0000000000000E+00
 0.0000000000000E+00
 0.0000000000000E+00
 0.0000000000000E+00
 0.0000000000000E+00
 0.0000000000000E+00
 0.0000000000000E+00
 0.0000000000000E+00
 0.0000000000000E+00
 0.0000000000000E+00
 0.0000000000000E+00
 0.0000000000000E+00
 0.0000000000000E+00
 0.0000000000000E+00
 0.0000000000000E+00
 0.0000000000000E+00
 0.0000000000000E+00
 0.0000000000000E+00
 0.0000000000000E+00
 0.0000000000000E+00
 0.0000000000000E+00
 0.0000000000000E+00
 0.0000000000000E+00
 0.0000000000000E+00
 0.0000000000000E+00
 0.0000000000000E+00
 0.0000000000000E+00
 0.0000000000000E+00
 0.0000000000000E+00
 0.0000000000000E+00
 0.0000000000000E+00
 0.0000000000000E+00
 0.0000000000000E+00
 0.0000000000000E+00
 0.0000000000000E+00
 0.0000000000000E+00
 0.0000000000000E+00
 0.0000000000000E+00
 0.0000000000000E+00
 0.0000000000000E+00
 0.0000000000000E+00
 0.0000000000000E+00
 0.0000000000000E+00
 0.0000000000000E+00
 0.0000000000000E+00
 0.0000000000000E+00
 0.0000000000000E+00
 0.0000000000000E+00
 0.0000000000000E+00
 0.0000000000000E+00
 0.0000000000000E+00
 0.0000000000000E+00
 0.0000000000000E+00
 0.0000000000000E+00
 0.0000000000000E+00
 0.0000000000000E+00
 0.0000000000000E+00
 0.0000000000000E+00
 0.0000000000000E+00
 0.0000000000000E+00
 0.0000000000000E+00
 0.0000000000000E+00
 0.0000000000000E+00
 0.0000000000000E+00
 0.0000000000000E+00
 0.0000000000000E+00
 0.0000000000000E+00
 0.0000000000000E+00
 0.0000000000000E+00
 0.0000000000000E+00
 0.0000000000000E+00
 0.0000000000000E+00
 0.0000000000000E+00
 0.0000000000000E+00
 0.0000000000000E+00
 0.0000000000000E+00
 0.0000000000000E+00
 0.0000000000000E+00
 0.0000000000000E+00
 0.0000000000000E+00
 0.0000000000000E+00
 0.0000000000000E+00
 0.0000000000000E+00
 0.0000000000000E+00
 0.0000000000000E+00
 0.0000000000000E+00
 0.0000000000000E+00
 0.0000000000000E+00
 0.0000000000000E+00
 0.0000000000000E+00
 0.0000000000000E+00
 0.0000000000000E+00
 0.0000000000000E+00
 0.0000000000000E+00
 0.0000000000000E+00
 0.0000000000000E+00
 0.0000000000000E+00
 0.0000000000000E+00
 0.0000000000000E+00
 0.0000000000000E+00
 0.0000000000000E+00
 0.0000000000000E+00
 0.0000000000000E+00
 0.0000000000000E+00
 0.0000000000000E+00
 0.0000000000000E+00
 0.0000000000000E+00
 0.0000000000000E+00
 0.0000000000000E+00
 0.0000000000000E+00
 0.0000000000000E+00
 0.0000000000000E+00
 0.0000000000000E+00
 0.0000000000000E+00
 0.0000000000000E+00
 0.0000000000000E+00
 0.0000000000000E+00
 0.0000000000000E+00
 0.0000000000000E+00
 0.0000000000000E+00
 0.0000000000000E+00
 0.0000000000000E+00
 0.0000000000000E+00
 0.0000000000000E+00
 0.0000000000000E+00
 0.0000000000000E+00
 0.0000000000000E+00
 0.0000000000000E+00
 0.0000000000000E+00
 0.0000000000000E+00
 0.0000000000000E+00
 0.0000000000000E+00
 0.0000000000000E+00
 0.0000000000000E+00
 0.0000000000000E+00
 0.0000000000000E+00
 0.0000000000000E+00
 0.0000000000000E+00
 0.0000000000000E+00
 0.0000000000000E+00
 0.0000000000000E+00
 0.0000000000000E+00
 0.0000000000000E+00
 0.0000000000000E+00
 0.0000000000000E+00
 0.0000000000000E+00
 0.0000000000000E+00
 0.0000000000000E+00
 0.0000000000000E+00
 0.0000000000000E+00
 0.0000000000000E+00
 0.0000000000000E+00
 0.0000000000000E+00
 0.0000000000000E+00
 0.0000000000000E+00
 0.0000000000000E+00
 0.0000000000000E+00
 0.0000000000000E+00
 0.0000000000000E+00
 0.0000000000000E+00
 0.0000000000000E+00
 0.0000000000000E+00
 0.0000000000000E+00
 0.0000000000000E+00
 0.0000000000000E+00
 0.0000000000000E+00
 0.0000000000000E+00
 0.0000000000000E+00
 0.0000000000000E+00
 0.0000000000000E+00
 0.0000000000000E+00
 0.0000000000000E+00
 0.0000000000000E+00
 0.0000000000000E+00
 0.0000000000000E+00
 0.0000000000000E+00
 0.0000000000000E+00
 0.0000000000000E+00
 0.0000000000000E+00
 0.0000000000000E+00
 0.0000000000000E+00
 0.0000000000000E+00
 0.0000000000000E+00
 0.0000000000000E+00
 0.0000000000000E+00
 0.0000000000000E+00
 0.0000000000000E+00
 0.0000000000000E+00
 0.0000000000000E+00
 0.0000000000000E+00
 0.0000000000000E+00
 0.0000000000000E+00
 0.0000000000000E+00
 0.0000000000000E+00
 0.0000000000000E+00
 0.0000000000000E+00
 0.0000000000000E+00
 0.0000000000000E+00
 0.0000000000000E+00
 0.0000000000000E+00
 0.0000000000000E+00
 0.0000000000000E+00
 0.0000000000000E+00
 0.0000000000000E+00
 0.0000000000000E+00
 0.0000000000000E+00
 0.0000000000000E+00
 0.0000000000000E+00
 0.0000000000000E+00
 0.0000000000000E+00
 0.0000000000000E+00
 0.0000000000000E+00
 0.0000000000000E+00
 0.0000000000000E+00
 0.0000000000000E+00
 0.0000000000000E+00
 0.0000000000000E+00
 0.0000000000000E+00
 0.0000000000000E+00
 0.0000000000000E+00
 0.0000000000000E+00
 0.0000000000000E+00
 0.0000000000000E+00
 0.0000000000000E+00
 0.0000000000000E+00
 0.0000000000000E+00
 0.0000000000000E+00
 0.0000000000000E+00
 0.0000000000000E+00
 0.0000000000000E+00
 0.0000000000000E+00
 0.0000000000000E+00
 0.0000000000000E+00
 0.0000000000000E+00
 0.0000000000000E+00
 0.0000000000000E+00
 0.0000000000000E+00
 0.0000000000000E+00
 0.0000000000000E+00
 0.0000000000000E+00
 0.0000000000000E+00
 0.0000000000000E+00
 0.0000000000000E+00
 0.0000000000000E+00
 0.0000000000000E+00
 0.0000000000000E+00
 0.0000000000000E+00
 0.0000000000000E+00
 0.0000000000000E+00
 0.0000000000000E+00
 0.0000000000000E+00
 0.0000000000000E+00
 0.0000000000000E+00
 0.0000000000000E+00
 0.0000000000000E+00
 0.0000000000000E+00
 0.0000000000000E+00
 0.0000000000000E+00
 0.0000000000000E+00
 0.0000000000000E+00
 0.0000000000000E+00
 0.0000000000000E+00
 0.0000000000000E+00
 0.0000000000000E+00
 0.0000000000000E+00
 0.0000000000000E+00
 0.0000000000000E+00
 0.0000000000000E+00
 0.0000000000000E+00
 0.0000000000000E+00
 0.0000000000000E+00
 0.0000000000000E+00
 0.0000000000000E+00
 0.0000000000000E+00
 0.0000000000000E+00
 0.0000000000000E+00
 0.0000000000000E+00
 0.0000000000000E+00
 0.0000000000000E+00
 0.0000000000000E+00
 0.0000000000000E+00
 0.0000000000000E+00
 0.0000000000000E+00
 0.0000000000000E+00
 0.0000000000000E+00
 0.0000000000000E+00
 0.0000000000000E+00
 0.0000000000000E+00
 0.0000000000000E+00
 0.0000000000000E+00
 0.0000000000000E+00
 0.0000000000000E+00
 0.0000000000000E+00
 0.0000000000000E+00
 0.0000000000000E+00
 0.0000000000000E+00
 0.0000000000000E+00
 0.0000000000000E+00
 0.0000000000000E+00
 0.0000000000000E+00
 0.0000000000000E+00
 0.0000000000000E+00
 0.0000000000000E+00
 0.0000000000000E+00
 0.0000000000000E+00
 0.0000000000000E+00
 0.0000000000000E+00
 0.0000000000000E+00
 0.0000000000000E+00
 0.0000000000000E+00
 0.0000000000000E+00
 0.0000000000000E+00
 0.0000000000000E+00
 0.0000000000000E+00
 0.0000000000000E+00
 0.0000000000000E+00
 0.0000000000000E+00
 0.0000000000000E+00
 0.0000000000000E+00
 0.0000000000000E+00
 0.0000000000000E+00
 0.0000000000000E+00
 0.0000000000000E+00
 0.0000000000000E+00
 0.0000000000000E+00
 0.0000000000000E+00
 0.0000000000000E+00
 0.0000000000000E+00
 0.0000000000000E+00
 0.0000000000000E+00
 0.0000000000000E+00
 0.0000000000000E+00
 0.0000000000000E+00
 0.0000000000000E+00
 0.0000000000000E+00
 0.0000000000000E+00
 0.0000000000000E+00
 0.0000000000000E+00
 0.0000000000000E+00
 0.0000000000000E+00
 0.0000000000000E+00
 0.0000000000000E+00
 0.0000000000000E+00
 0.0000000000000E+00
 0.0000000000000E+00
 0.0000000000000E+00
 0.0000000000000E+00
 0.0000000000000E+00
 0.0000000000000E+00
 0.0000000000000E+00
 0.0000000000000E+00
 0.0000000000000E+00
 0.0000000000000E+00
 0.0000000000000E+00
 0.0000000000000E+00
 0.0000000000000E+00
 0.0000000000000E+00
 0.0000000000000E+00
 0.0000000000000E+00
 0.0000000000000E+00
 0.0000000000000E+00
 0.0000000000000E+00
 0.0000000000000E+00
 0.0000000000000E+00
 0.0000000000000E+00
 0.0000000000000E+00
 0.0000000000000E+00
 0.0000000000000E+00
 0.0000000000000E+00
 0.0000000000000E+00
 0.0000000000000E+00
 0.0000000000000E+00
 0.0000000000000E+00
 0.0000000000000E+00
 0.0000000000000E+00
 0.0000000000000E+00
 0.0000000000000E+00
 0.0000000000000E+00
 0.0000000000000E+00
 0.0000000000000E+00
 0.0000000000000E+00
 0.0000000000000E+00
 0.0000000000000E+00
 0.0000000000000E+00
 0.0000000000000E+00
 0.0000000000000E+00
 0.0000000000000E+00
 0.0000000000000E+00
 0.0000000000000E+00
 0.0000000000000E+00
 0.0000000000000E+00
 0.0000000000000E+00
 0.0000000000000E+00
 0.0000000000000E+00
 0.0000000000000E+00
 0.0000000000000E+00
 0.0000000000000E+00
 0.0000000000000E+00
 0.0000000000000E+00
 0.0000000000000E+00
 0.0000000000000E+00
 0.0000000000000E+00
 0.0000000000000E+00
 0.0000000000000E+00
 0.0000000000000E+00
 0.0000000000000E+00
 0.0000000000000E+00
 0.0000000000000E+00
 0.0000000000000E+00
 0.0000000000000E+00
 0.0000000000000E+00
 0.0000000000000E+00
 0.0000000000000E+00
 0.0000000000000E+00
 0.0000000000000E+00
 0.0000000000000E+00
 0.0000000000000E+00
 0.0000000000000E+00
 0.0000000000000E+00
 0.0000000000000E+00
 0.0000000000000E+00
 0.0000000000000E+00
 0.0000000000000E+00
 0.0000000000000E+00
 0.0000000000000E+00
 0.0000000000000E+00
 0.0000000000000E+00
 0.0000000000000E+00
 0.0000000000000E+00
 0.0000000000000E+00
 0.0000000000000E+00
 0.0000000000000E+00
 0.0000000000000E+00
 0.0000000000000E+00
 0.0000000000000E+00
 0.0000000000000E+00
 0.0000000000000E+00
 0.0000000000000E+00
 0.0000000000000E+00
 0.0000000000000E+00
 0.0000000000000E+00
 0.0000000000000E+00
 0.0000000000000E+00
 0.0000000000000E+00
 0.0000000000000E+00
 0.0000000000000E+00
 0.0000000000000E+00
 0.0000000000000E+00
 0.0000000000000E+00
 0.0000000000000E+00
 0.0000000000000E+00
 0.0000000000000E+00
 0.0000000000000E+00
 0.0000000000000E+00
 0.0000000000000E+00
 0.0000000000000E+00
 0.0000000000000E+00
 0.0000000000000E+00
 0.0000000000000E+00
 0.0000000000000E+00
 0.0000000000000E+00
 0.0000000000000E+00
 0.0000000000000E+00
 0.0000000000000E+00
 0.0000000000000E+00
 0.0000000000000E+00
 0.0000000000000E+00
 0.0000000000000E+00
 0.0000000000000E+00
 0.0000000000000E+00
 0.0000000000000E+00
 0.0000000000000E+00
 0.0000000000000E+00
 0.0000000000000E+00
 0.0000000000000E+00
 0.0000000000000E+00
 0.0000000000000E+00
 0.0000000000000E+00
 0.0000000000000E+00
 0.0000000000000E+00
 0.0000000000000E+00
 0.0000000000000E+00
 0.0000000000000E+00
 0.0000000000000E+00
 0.0000000000000E+00
 0.0000000000000E+00
 0.0000000000000E+00
 0.0000000000000E+00
 0.0000000000000E+00
 0.0000000000000E+00
 0.0000000000000E+00
 0.0000000000000E+00
 0.0000000000000E+00
 0.0000000000000E+00
 0.0000000000000E+00
 0.0000000000000E+00
 0.0000000000000E+00
 0.0000000000000E+00
 0.0000000000000E+00
 0.0000000000000E+00
 0.0000000000000E+00
 0.0000000000000E+00
 0.0000000000000E+00
 0.0000000000000E+00
 0.0000000000000E+00
 0.0000000000000E+00
 0.0000000000000E+00
 0.0000000000000E+00
 0.0000000000000E+00
 0.0000000000000E+00
 0.0000000000000E+00
 0.0000000000000E+00
 0.0000000000000E+00
 0.0000000000000E+00
 0.0000000000000E+00
 0.0000000000000E+00
 0.0000000000000E+00
 0.0000000000000E+00
 0.0000000000000E+00
 0.0000000000000E+00
 0.0000000000000E+00
 0.0000000000000E+00
 0.0000000000000E+00
 0.0000000000000E+00
 0.0000000000000E+00
 0.0000000000000E+00
 0.0000000000000E+00
 0.0000000000000E+00
 0.0000000000000E+00
 0.0000000000000E+00
 0.0000000000000E+00
 0.0000000000000E+00
 0.0000000000000E+00
 0.0000000000000E+00
 0.0000000000000E+00
 0.0000000000000E+00
 0.0000000000000E+00
 0.0000000000000E+00
 0.0000000000000E+00
 0.0000000000000E+00
 0.0000000000000E+00
 0.0000000000000E+00
 0.0000000000000E+00
 0.0000000000000E+00
 0.0000000000000E+00
 0.0000000000000E+00
 0.0000000000000E+00
 0.0000000000000E+00
 0.0000000000000E+00
 0.0000000000000E+00
 0.0000000000000E+00
 0.0000000000000E+00
 0.0000000000000E+00
 0.0000000000000E+00
 0.0000000000000E+00
 0.0000000000000E+00
 0.0000000000000E+00
 0.0000000000000E+00
 0.0000000000000E+00
 0.0000000000000E+00
 0.0000000000000E+00
 0.0000000000000E+00
 0.0000000000000E+00
 0.0000000000000E+00
 0.0000000000000E+00
 0.0000000000000E+00
 0.0000000000000E+00
 0.0000000000000E+00
 0.0000000000000E+00
 0.0000000000000E+00
 0.0000000000000E+00
 0.0000000000000E+00
 0.0000000000000E+00
 0.0000000000000E+00
 0.0000000000000E+00
 0.0000000000000E+00
 0.0000000000000E+00
 0.0000000000000E+00
 0.0000000000000E+00
 0.0000000000000E+00
 0.0000000000000E+00
 0.0000000000000E+00
 0.0000000000000E+00
 0.0000000000000E+00
 0.0000000000000E+00
 0.0000000000000E+00
 0.0000000000000E+00
 0.0000000000000E+00
 0.0000000000000E+00
 0.0000000000000E+00
 0.0000000000000E+00
 0.0000000000000E+00
 0.0000000000000E+00
 0.0000000000000E+00
 0.0000000000000E+00
 0.0000000000000E+00
 0.0000000000000E+00
 0.0000000000000E+00
 0.0000000000000E+00
 0.0000000000000E+00
 0.0000000000000E+00
 0.0000000000000E+00
 0.0000000000000E+00
 0.0000000000000E+00
 0.0000000000000E+00
 0.0000000000000E+00
 0.0000000000000E+00
 0.0000000000000E+00
 0.0000000000000E+00
 0.0000000000000E+00
 0.0000000000000E+00
 0.0000000000000E+00
 0.0000000000000E+00
 0.0000000000000E+00
 0.0000000000000E+00
 0.0000000000000E+00
 0.0000000000000E+00
 0.0000000000000E+00
 0.0000000000000E+00
 0.0000000000000E+00
 0.0000000000000E+00
 0.0000000000000E+00
 0.0000000000000E+00
 0.0000000000000E+00
 0.0000000000000E+00
 0.0000000000000E+00
 0.0000000000000E+00
 0.0000000000000E+00
 0.0000000000000E+00
 0.0000000000000E+00
 0.0000000000000E+00
 0.0000000000000E+00
 0.0000000000000E+00
 0.0000000000000E+00
 0.0000000000000E+00
 0.0000000000000E+00
 0.0000000000000E+00
 0.0000000000000E+00
 0.0000000000000E+00
 0.0000000000000E+00
 0.0000000000000E+00
 0.0000000000000E+00
 0.0000000000000E+00
 0.0000000000000E+00
 0.0000000000000E+00
 0.0000000000000E+00
 0.0000000000000E+00
 0.0000000000000E+00
 0.0000000000000E+00
 0.0000000000000E+00
 0.0000000000000E+00
 0.0000000000000E+00
 0.0000000000000E+00
 0.0000000000000E+00
 0.0000000000000E+00
 0.0000000000000E+00
 0.0000000000000E+00
 0.0000000000000E+00
 0.0000000000000E+00
 0.0000000000000E+00
 0.0000000000000E+00
 0.0000000000000E+00
 0.0000000000000E+00
 0.0000000000000E+00
 0.0000000000000E+00
 0.0000000000000E+00
 0.0000000000000E+00
 0.0000000000000E+00
 0.0000000000000E+00
 0.0000000000000E+00
 0.0000000000000E+00
 0.0000000000000E+00
 0.0000000000000E+00
 0.0000000000000E+00
 0.0000000000000E+00
 0.0000000000000E+00
 0.0000000000000E+00
 0.0000000000000E+00
 0.0000000000000E+00
 0.0000000000000E+00
 0.0000000000000E+00
 0.0000000000000E+00
 0.0000000000000E+00
 0.0000000000000E+00
 0.0000000000000E+00
 0.0000000000000E+00
 0.0000000000000E+00
 0.0000000000000E+00
 0.0000000000000E+00
 0.0000000000000E+00
 0.0000000000000E+00
 0.0000000000000E+00
 0.0000000000000E+00
 0.0000000000000E+00
 0.0000000000000E+00
 0.0000000000000E+00
 0.0000000000000E+00
 0.0000000000000E+00
 0.0000000000000E+00
 0.0000000000000E+00
 0.0000000000000E+00
 0.0000000000000E+00
 0.0000000000000E+00
 0.0000000000000E+00
 0.0000000000000E+00
 0.0000000000000E+00
 0.0000000000000E+00
 0.0000000000000E+00
 0.0000000000000E+00
 0.0000000000000E+00
 0.0000000000000E+00
 0.0000000000000E+00
 0.0000000000000E+00
 0.0000000000000E+00
 0.0000000000000E+00
 0.0000000000000E+00
 0.0000000000000E+00
 0.0000000000000E+00
 0.0000000000000E+00
 0.0000000000000E+00
 0.0000000000000E+00
 0.0000000000000E+00
 0.0000000000000E+00
 0.0000000000000E+00
 0.0000000000000E+00
 0.0000000000000E+00
 0.0000000000000E+00
 0.0000000000000E+00
 0.0000000000000E+00
 0.0000000000000E+00
 0.0000000000000E+00
 0.0000000000000E+00
 0.0000000000000E+00
 0.0000000000000E+00
 0.0000000000000E+00
 0.0000000000000E+00
 0.0000000000000E+00
 0.0000000000000E+00
 0.0000000000000E+00
 0.0000000000000E+00
 0.0000000000000E+00
 0.0000000000000E+00
 0.0000000000000E+00
 0.0000000000000E+00
 0.0000000000000E+00
 0.0000000000000E+00
 0.0000000000000E+00
 0.0000000000000E+00
 0.0000000000000E+00
 0.0000000000000E+00
 0.0000000000000E+00
 0.0000000000000E+00
 0.0000000000000E+00
 0.0000000000000E+00
 0.0000000000000E+00
 0.0000000000000E+00
 0.0000000000000E+00
 0.0000000000000E+00
 0.0000000000000E+00
 0.0000000000000E+00
 0.0000000000000E+00
 0.0000000000000E+00
 0.0000000000000E+00
 0.0000000000000E+00
 0.0000000000000E+00
 0.0000000000000E+00
 0.0000000000000E+00
 0.0000000000000E+00
 0.0000000000000E+00
 0.0000000000000E+00
 0.0000000000000E+00
 0.0000000000000E+00
 0.0000000000000E+00
 0.0000000000000E+00
 0.0000000000000E+00
 0.0000000000000E+00
 0.0000000000000E+00
 0.0000000000000E+00
 0.0000000000000E+00
 0.0000000000000E+00
 0.0000000000000E+00
 0.0000000000000E+00
 0.0000000000000E+00
 0.0000000000000E+00
 0.0000000000000E+00
 0.0000000000000E+00
 0.0000000000000E+00
 0.0000000000000E+00
 0.0000000000000E+00
 0.0000000000000E+00
 0.0000000000000E+00
 0.0000000000000E+00
 0.0000000000000E+00
 0.0000000000000E+00
 0.0000000000000E+00
 0.0000000000000E+00
 0.0000000000000E+00
 0.0000000000000E+00
 0.0000000000000E+00
 0.0000000000000E+00
 0.0000000000000E+00
 0.0000000000000E+00
 0.0000000000000E+00
 0.0000000000000E+00
 0.0000000000000E+00
 0.0000000000000E+00
 0.0000000000000E+00
 0.0000000000000E+00
 0.0000000000000E+00
 0.0000000000000E+00
 0.0000000000000E+00
 0.0000000000000E+00
 0.0000000000000E+00
 0.0000000000000E+00
 0.0000000000000E+00
 0.0000000000000E+00
 0.0000000000000E+00
 0.0000000000000E+00
 0.0000000000000E+00
 0.0000000000000E+00
 0.0000000000000E+00
 0.0000000000000E+00
 0.0000000000000E+00
 0.0000000000000E+00
 0.0000000000000E+00
 0.0000000000000E+00
 0.0000000000000E+00
 0.0000000000000E+00
 0.0000000000000E+00
 0.0000000000000E+00
 0.0000000000000E+00
 0.0000000000000E+00
 0.0000000000000E+00
 0.0000000000000E+00
 0.0000000000000E+00
 0.0000000000000E+00
 0.0000000000000E+00
 0.0000000000000E+00
 0.0000000000000E+00
 0.0000000000000E+00
 0.0000000000000E+00
 0.0000000000000E+00
 0.0000000000000E+00
 0.0000000000000E+00
 0.0000000000000E+00
 0.0000000000000E+00
 0.0000000000000E+00
 0.0000000000000E+00
 0.0000000000000E+00
 0.0000000000000E+00
 0.0000000000000E+00
 0.0000000000000E+00
 0.0000000000000E+00
 0.0000000000000E+00
 0.0000000000000E+00
 0.0000000000000E+00
 0.0000000000000E+00
 0.0000000000000E+00
 0.0000000000000E+00
 0.0000000000000E+00
 0.0000000000000E+00
 0.0000000000000E+00
 0.0000000000000E+00
 0.0000000000000E+00
 0.0000000000000E+00
 0.0000000000000E+00
 0.0000000000000E+00
 0.0000000000000E+00
 0.0000000000000E+00
 0.0000000000000E+00
 0.0000000000000E+00
 0.0000000000000E+00
 0.0000000000000E+00
 0.0000000000000E+00
 0.0000000000000E+00
 0.0000000000000E+00
 0.0000000000000E+00
 0.0000000000000E+00
 0.0000000000000E+00
 0.0000000000000E+00
 0.0000000000000E+00
 0.0000000000000E+00
 0.0000000000000E+00
 0.0000000000000E+00
 0.0000000000000E+00
 0.0000000000000E+00
 0.0000000000000E+00
 0.0000000000000E+00
 0.0000000000000E+00
 0.0000000000000E+00
 0.0000000000000E+00
 0.0000000000000E+00
 0.0000000000000E+00
 0.0000000000000E+00
 0.0000000000000E+00
 0.0000000000000E+00
 0.0000000000000E+00
 0.0000000000000E+00
 0.0000000000000E+00
 0.0000000000000E+00
 0.0000000000000E+00
 0.0000000000000E+00
 0.0000000000000E+00
 0.0000000000000E+00
 0.0000000000000E+00
 0.0000000000000E+00
 0.0000000000000E+00
 0.0000000000000E+00
 0.0000000000000E+00
 0.0000000000000E+00
 0.0000000000000E+00
 0.0000000000000E+00
 0.0000000000000E+00
 0.0000000000000E+00
 0.0000000000000E+00
 0.0000000000000E+00
 0.0000000000000E+00
 0.0000000000000E+00
 0.0000000000000E+00
 0.0000000000000E+00
 0.0000000000000E+00
 0.0000000000000E+00
 0.0000000000000E+00
 0.0000000000000E+00
 0.0000000000000E+00
 0.0000000000000E+00
 0.0000000000000E+00
 0.0000000000000E+00
 0.0000000000000E+00
 0.0000000000000E+00
 0.0000000000000E+00
 0.0000000000000E+00
 0.0000000000000E+00
 0.0000000000000E+00
 0.0000000000000E+00
 0.0000000000000E+00
 0.0000000000000E+00
 0.0000000000000E+00
 0.0000000000000E+00
 0.0000000000000E+00
 0.0000000000000E+00
 0.0000000000000E+00
 0.0000000000000E+00
 0.0000000000000E+00
 0.0000000000000E+00
 0.0000000000000E+00
 0.0000000000000E+00
 0.0000000000000E+00
 0.0000000000000E+00
 0.0000000000000E+00
 0.0000000000000E+00
 0.0000000000000E+00
 0.0000000000000E+00
 0.0000000000000E+00
 0.0000000000000E+00
 0.0000000000000E+00
 0.0000000000000E+00
 0.0000000000000E+00
 0.0000000000000E+00
 0.0000000000000E+00
 0.0000000000000E+00
 0.0000000000000E+00
 0.0000000000000E+00
 0.0000000000000E+00
 0.0000000000000E+00
 0.0000000000000E+00
 0.0000000000000E+00
 0.0000000000000E+00
 0.0000000000000E+00
 0.0000000000000E+00
 0.0000000000000E+00
 0.0000000000000E+00
 0.0000000000000E+00
 0.0000000000000E+00
 0.0000000000000E+00
 0.0000000000000E+00
 0.0000000000000E+00
 0.0000000000000E+00
 0.0000000000000E+00
 0.0000000000000E+00
 0.0000000000000E+00
 0.0000000000000E+00
 0.0000000000000E+00
 0.0000000000000E+00
 0.0000000000000E+00
 0.0000000000000E+00
 0.0000000000000E+00
 0.0000000000000E+00
 0.0000000000000E+00
 0.0000000000000E+00
 0.0000000000000E+00
 0.0000000000000E+00
 0.0000000000000E+00
 0.0000000000000E+00
 0.0000000000000E+00
 0.0000000000000E+00
 0.0000000000000E+00
 0.0000000000000E+00
 0.0000000000000E+00
 0.0000000000000E+00
 0.0000000000000E+00
 0.0000000000000E+00
 0.0000000000000E+00
 0.0000000000000E+00
 0.0000000000000E+00
 0.0000000000000E+00
 0.0000000000000E+00
 0.0000000000000E+00
 0.0000000000000E+00
 0.0000000000000E+00
 0.0000000000000E+00
 0.0000000000000E+00
 0.0000000000000E+00
 0.0000000000000E+00
 0.0000000000000E+00
 0.0000000000000E+00
 0.0000000000000E+00
 0.0000000000000E+00
 0.0000000000000E+00
 0.0000000000000E+00
 0.0000000000000E+00
 0.0000000000000E+00
 0.0000000000000E+00
 0.0000000000000E+00
 0.0000000000000E+00
 0.0000000000000E+00
 0.0000000000000E+00
 0.0000000000000E+00
 0.0000000000000E+00
 0.0000000000000E+00
 0.0000000000000E+00
 0.0000000000000E+00
 0.0000000000000E+00
 0.0000000000000E+00
 0.0000000000000E+00
 0.0000000000000E+00
 0.0000000000000E+00
 0.0000000000000E+00
 0.0000000000000E+00
 0.0000000000000E+00
 0.0000000000000E+00
 0.0000000000000E+00
 0.0000000000000E+00
 0.0000000000000E+00
 0.0000000000000E+00
 0.0000000000000E+00
 0.0000000000000E+00
 0.0000000000000E+00
 0.0000000000000E+00
 0.0000000000000E+00
 0.0000000000000E+00
 0.0000000000000E+00
 0.0000000000000E+00
 0.0000000000000E+00
 0.0000000000000E+00
 0.0000000000000E+00
 0.0000000000000E+00
 0.0000000000000E+00
 0.0000000000000E+00
 0.0000000000000E+00
 0.0000000000000E+00
 0.0000000000000E+00
 0.0000000000000E+00
 0.0000000000000E+00
 0.0000000000000E+00
 0.0000000000000E+00
 0.0000000000000E+00
 0.0000000000000E+00
 0.0000000000000E+00
 0.0000000000000E+00
 0.0000000000000E+00
 0.0000000000000E+00
 0.0000000000000E+00
 0.0000000000000E+00
 0.0000000000000E+00
 0.0000000000000E+00
 0.0000000000000E+00
 0.0000000000000E+00
 0.0000000000000E+00
 0.0000000000000E+00
 0.0000000000000E+00
 0.0000000000000E+00
 0.0000000000000E+00
 0.0000000000000E+00
 0.0000000000000E+00
 0.0000000000000E+00
 0.0000000000000E+00
 0.0000000000000E+00
 0.0000000000000E+00
 0.0000000000000E+00
 0.0000000000000E+00
 0.0000000000000E+00
 0.0000000000000E+00
 0.0000000000000E+00
 0.0000000000000E+00
 0.0000000000000E+00
 0.0000000000000E+00
 0.0000000000000E+00
 0.0000000000000E+00
 0.0000000000000E+00
 0.0000000000000E+00
 0.0000000000000E+00
 0.0000000000000E+00
 0.0000000000000E+00
 0.0000000000000E+00
 0.0000000000000E+00
 0.0000000000000E+00
 0.0000000000000E+00
 0.0000000000000E+00
 0.0000000000000E+00
 0.0000000000000E+00
 0.0000000000000E+00
 0.0000000000000E+00
 0.0000000000000E+00
 0.0000000000000E+00
 0.0000000000000E+00
 0.0000000000000E+00
 0.0000000000000E+00
 0.0000000000000E+00
 0.0000000000000E+00
 0.0000000000000E+00
 0.0000000000000E+00
 0.0000000000000E+00
 0.0000000000000E+00
 0.0000000000000E+00
 0.0000000000000E+00
 0.0000000000000E+00
 0.0000000000000E+00
 0.0000000000000E+00
 0.0000000000000E+00
 0.0000000000000E+00
 0.0000000000000E+00
 0.0000000000000E+00
 0.0000000000000E+00
 0.0000000000000E+00
 0.0000000000000E+00
 0.0000000000000E+00
 0.0000000000000E+00
 0.0000000000000E+00
 0.0000000000000E+00
 0.0000000000000E+00
 0.0000000000000E+00
 0.0000000000000E+00
 0.0000000000000E+00
 0.0000000000000E+00
 0.0000000000000E+00
 0.0000000000000E+00
 0.0000000000000E+00
 0.0000000000000E+00
 0.0000000000000E+00
 0.0000000000000E+00
 0.0000000000000E+00
 0.0000000000000E+00
 0.0000000000000E+00
 0.0000000000000E+00
 0.0000000000000E+00
 0.0000000000000E+00
 0.0000000000000E+00
 0.0000000000000E+00
 0.0000000000000E+00
 0.0000000000000E+00
 0.0000000000000E+00
 0.0000000000000E+00
 0.0000000000000E+00
 0.0000000000000E+00
 0.0000000000000E+00
 0.0000000000000E+00
 0.0000000000000E+00
 0.0000000000000E+00
 0.0000000000000E+00
 0.0000000000000E+00
 0.0000000000000E+00
 0.0000000000000E+00
 0.0000000000000E+00
 0.0000000000000E+00
 0.0000000000000E+00
 0.0000000000000E+00
 0.0000000000000E+00
 0.0000000000000E+00
 0.0000000000000E+00
 0.0000000000000E+00
 0.0000000000000E+00
 0.0000000000000E+00
 0.0000000000000E+00
 0.0000000000000E+00
 0.0000000000000E+00
 0.0000000000000E+00
 0.0000000000000E+00
 0.0000000000000E+00
 0.0000000000000E+00
 0.0000000000000E+00
 0.0000000000000E+00
 0.0000000000000E+00
 0.0000000000000E+00
 0.0000000000000E+00
 0.0000000000000E+00
 0.0000000000000E+00
 0.0000000000000E+00
 0.0000000000000E+00
 0.0000000000000E+00
 0.0000000000000E+00
 0.0000000000000E+00
 0.0000000000000E+00
 0.0000000000000E+00
 0.0000000000000E+00
 0.0000000000000E+00
 0.0000000000000E+00
 0.0000000000000E+00
 0.0000000000000E+00
 0.0000000000000E+00
 0.0000000000000E+00
 0.0000000000000E+00
 0.0000000000000E+00
 0.0000000000000E+00
 0.0000000000000E+00
 0.0000000000000E+00
 0.0000000000000E+00
 0.0000000000000E+00
 0.0000000000000E+00
 0.0000000000000E+00
 0.0000000000000E+00
 0.0000000000000E+00
 0.0000000000000E+00
 0.0000000000000E+00
 0.0000000000000E+00
 0.0000000000000E+00
 0.0000000000000E+00
 0.0000000000000E+00
 0.0000000000000E+00
 0.0000000000000E+00
 0.0000000000000E+00
 0.0000000000000E+00
 0.0000000000000E+00
 0.0000000000000E+00
 0.0000000000000E+00
 0.0000000000000E+00
 0.0000000000000E+00
 0.0000000000000E+00
 0.0000000000000E+00
 0.0000000000000E+00
 0.0000000000000E+00
 0.0000000000000E+00
 0.0000000000000E+00
 0.0000000000000E+00
 0.0000000000000E+00
 0.0000000000000E+00
 0.0000000000000E+00
 0.0000000000000E+00
 0.0000000000000E+00
 0.0000000000000E+00
 0.0000000000000E+00
 0.0000000000000E+00
 0.0000000000000E+00
 0.0000000000000E+00
 0.0000000000000E+00
 0.0000000000000E+00
 0.0000000000000E+00
 0.0000000000000E+00
 0.0000000000000E+00
 0.0000000000000E+00
 0.0000000000000E+00
 0.0000000000000E+00
 0.0000000000000E+00
 0.0000000000000E+00
 0.0000000000000E+00
 0.0000000000000E+00
 0.0000000000000E+00
 0.0000000000000E+00
 0.0000000000000E+00
 0.0000000000000E+00
 0.0000000000000E+00
 0.0000000000000E+00
 0.0000000000000E+00
 0.0000000000000E+00
 0.0000000000000E+00
 0.0000000000000E+00
 0.0000000000000E+00
 0.0000000000000E+00
 0.0000000000000E+00
 0.0000000000000E+00
 0.0000000000000E+00
 0.0000000000000E+00
 0.0000000000000E+00
 0.0000000000000E+00
 0.0000000000000E+00
 0.0000000000000E+00
 0.0000000000000E+00
 0.0000000000000E+00
 0.0000000000000E+00
 0.0000000000000E+00
 0.0000000000000E+00
 0.0000000000000E+00
 0.0000000000000E+00
 0.0000000000000E+00
 0.0000000000000E+00
 0.0000000000000E+00
 0.0000000000000E+00
 0.0000000000000E+00
 0.0000000000000E+00
 0.0000000000000E+00
 0.0000000000000E+00
 0.0000000000000E+00
 0.0000000000000E+00
 0.0000000000000E+00
 0.0000000000000E+00
 0.0000000000000E+00
 0.0000000000000E+00
 0.0000000000000E+00
 0.0000000000000E+00
 0.0000000000000E+00
 0.0000000000000E+00
 0.0000000000000E+00
 0.0000000000000E+00
 0.0000000000000E+00
 0.0000000000000E+00
 0.0000000000000E+00
 0.0000000000000E+00
 0.0000000000000E+00
 0.0000000000000E+00
 0.0000000000000E+00
 0.0000000000000E+00
 0.0000000000000E+00
 0.0000000000000E+00
 0.0000000000000E+00
 0.0000000000000E+00
 0.0000000000000E+00
 0.0000000000000E+00
 0.0000000000000E+00
 0.0000000000000E+00
 0.0000000000000E+00
 0.0000000000000E+00
 0.0000000000000E+00
 0.0000000000000E+00
 0.0000000000000E+00
 0.0000000000000E+00
 0.0000000000000E+00
 0.0000000000000E+00
 0.0000000000000E+00
 0.0000000000000E+00
 0.0000000000000E+00
 0.0000000000000E+00
 0.0000000000000E+00
 0.0000000000000E+00
 0.0000000000000E+00
 0.0000000000000E+00
 0.0000000000000E+00
 0.0000000000000E+00
 0.0000000000000E+00
 0.0000000000000E+00
 0.0000000000000E+00
 0.0000000000000E+00
 0.0000000000000E+00
 0.0000000000000E+00
 0.0000000000000E+00
 0.0000000000000E+00
 0.0000000000000E+00
 0.0000000000000E+00
 0.0000000000000E+00
 0.0000000000000E+00
 0.0000000000000E+00
 0.0000000000000E+00
 0.0000000000000E+00
 0.0000000000000E+00
 0.0000000000000E+00
 0.0000000000000E+00
 0.0000000000000E+00
 0.0000000000000E+00
 0.0000000000000E+00
 0.0000000000000E+00
 0.0000000000000E+00
 0.0000000000000E+00
 0.0000000000000E+00
 0.0000000000000E+00
 0.0000000000000E+00
 0.0000000000000E+00
 0.0000000000000E+00
 0.0000000000000E+00
 0.0000000000000E+00
 0.0000000000000E+00
 0.0000000000000E+00
 0.0000000000000E+00
 0.0000000000000E+00
 0.0000000000000E+00
 0.0000000000000E+00
 0.0000000000000E+00
 0.0000000000000E+00
 0.0000000000000E+00
 0.0000000000000E+00
 0.0000000000000E+00
 0.0000000000000E+00
 0.0000000000000E+00
 0.0000000000000E+00
 0.0000000000000E+00
 0.0000000000000E+00
 0.0000000000000E+00
 0.0000000000000E+00
 0.0000000000000E+00
 0.0000000000000E+00
 0.0000000000000E+00
 0.0000000000000E+00
 0.0000000000000E+00
 0.0000000000000E+00
 0.0000000000000E+00
 0.0000000000000E+00
 0.0000000000000E+00
 0.0000000000000E+00
 0.0000000000000E+00
 0.0000000000000E+00
 0.0000000000000E+00
 0.0000000000000E+00
 0.0000000000000E+00
 0.0000000000000E+00
 0.0000000000000E+00
 0.0000000000000E+00
 0.0000000000000E+00
 0.0000000000000E+00
 0.0000000000000E+00
 0.0000000000000E+00
 0.0000000000000E+00
 0.0000000000000E+00
 0.0000000000000E+00
 0.0000000000000E+00
 0.0000000000000E+00
 0.0000000000000E+00
 0.0000000000000E+00
 0.0000000000000E+00
 0.0000000000000E+00
 0.0000000000000E+00
 0.0000000000000E+00
 0.0000000000000E+00
 0.0000000000000E+00
 0.0000000000000E+00
 0.0000000000000E+00
 0.0000000000000E+00
 0.0000000000000E+00
 0.0000000000000E+00
 0.0000000000000E+00
 0.0000000000000E+00
 0.0000000000000E+00
 0.0000000000000E+00
 0.0000000000000E+00
 0.0000000000000E+00
 0.0000000000000E+00
 0.0000000000000E+00
 0.0000000000000E+00
 0.0000000000000E+00
 0.0000000000000E+00
 0.0000000000000E+00
 0.0000000000000E+00
 0.0000000000000E+00
 0.0000000000000E+00
 0.0000000000000E+00
 0.0000000000000E+00
 0.0000000000000E+00
 0.0000000000000E+00
 0.0000000000000E+00
 0.0000000000000E+00
 0.0000000000000E+00
 0.0000000000000E+00
 0.0000000000000E+00
 0.0000000000000E+00
 0.0000000000000E+00
 0.0000000000000E+00
 0.0000000000000E+00
 0.0000000000000E+00
 0.0000000000000E+00
 0.0000000000000E+00
 0.0000000000000E+00
 0.0000000000000E+00
 0.0000000000000E+00
 0.0000000000000E+00
 0.0000000000000E+00
 0.0000000000000E+00
 0.0000000000000E+00
 0.0000000000000E+00
 0.0000000000000E+00
 0.0000000000000E+00
 0.0000000000000E+00
 0.0000000000000E+00
 0.0000000000000E+00
 0.0000000000000E+00
 0.0000000000000E+00
 0.0000000000000E+00
 0.0000000000000E+00
 0.0000000000000E+00
 0.0000000000000E+00
 0.0000000000000E+00
 0.0000000000000E+00
 0.0000000000000E+00
 0.0000000000000E+00
 0.0000000000000E+00
 0.0000000000000E+00
 0.0000000000000E+00
 0.0000000000000E+00
 0.0000000000000E+00
 0.0000000000000E+00
 0.0000000000000E+00
 0.0000000000000E+00
 0.0000000000000E+00
 0.0000000000000E+00
 0.0000000000000E+00
 0.0000000000000E+00
 0.0000000000000E+00
 0.0000000000000E+00
 0.0000000000000E+00
 0.0000000000000E+00
 0.0000000000000E+00
 0.0000000000000E+00
 0.0000000000000E+00
 0.0000000000000E+00
 0.0000000000000E+00
 0.0000000000000E+00
 0.0000000000000E+00
 0.0000000000000E+00
 0.0000000000000E+00
 0.0000000000000E+00
 0.0000000000000E+00
 0.0000000000000E+00
 0.0000000000000E+00
 0.0000000000000E+00
 0.0000000000000E+00
 0.0000000000000E+00
 0.0000000000000E+00
 0.0000000000000E+00
 0.0000000000000E+00
 0.0000000000000E+00
 0.0000000000000E+00
 0.0000000000000E+00
 0.0000000000000E+00
 0.0000000000000E+00
 0.0000000000000E+00
 0.0000000000000E+00
 0.0000000000000E+00
 0.0000000000000E+00
 0.0000000000000E+00
 0.0000000000000E+00
 0.0000000000000E+00
 0.0000000000000E+00
 0.0000000000000E+00
 0.0000000000000E+00
 0.0000000000000E+00
 0.0000000000000E+00
 0.0000000000000E+00
 0.0000000000000E+00
 0.0000000000000E+00
 0.0000000000000E+00
 0.0000000000000E+00
 0.0000000000000E+00
 0.0000000000000E+00
 0.0000000000000E+00
 0.0000000000000E+00
 0.0000000000000E+00
 0.0000000000000E+00
 0.0000000000000E+00
 0.0000000000000E+00
 0.0000000000000E+00
 0.0000000000000E+00
 0.0000000000000E+00
 0.0000000000000E+00
 0.0000000000000E+00
 0.0000000000000E+00
 0.0000000000000E+00
 0.0000000000000E+00
 0.0000000000000E+00
 0.0000000000000E+00
 0.0000000000000E+00
 0.0000000000000E+00
 0.0000000000000E+00
 0.0000000000000E+00
 0.0000000000000E+00
 0.0000000000000E+00
 0.0000000000000E+00
 0.0000000000000E+00
 0.0000000000000E+00
 0.0000000000000E+00
 0.0000000000000E+00
 0.0000000000000E+00
 0.0000000000000E+00
 0.0000000000000E+00
 0.0000000000000E+00
 0.0000000000000E+00
 0.0000000000000E+00
 0.0000000000000E+00
 0.0000000000000E+00
 0.0000000000000E+00
 0.0000000000000E+00
 0.0000000000000E+00
 0.0000000000000E+00
 0.0000000000000E+00
 0.0000000000000E+00
 0.0000000000000E+00
 0.0000000000000E+00
 0.0000000000000E+00
 0.0000000000000E+00
 0.0000000000000E+00
 0.0000000000000E+00
 0.0000000000000E+00
 0.0000000000000E+00
 0.0000000000000E+00
 0.0000000000000E+00
 0.0000000000000E+00
 0.0000000000000E+00
 0.0000000000000E+00
 0.0000000000000E+00
 0.0000000000000E+00
 0.0000000000000E+00
 0.0000000000000E+00
 0.0000000000000E+00
 0.0000000000000E+00
 0.0000000000000E+00
 0.0000000000000E+00
 0.0000000000000E+00
 0.0000000000000E+00
 0.0000000000000E+00
 0.0000000000000E+00
 0.0000000000000E+00
 0.0000000000000E+00
 0.0000000000000E+00
 0.0000000000000E+00
 0.0000000000000E+00
 0.0000000000000E+00
 0.0000000000000E+00
 0.0000000000000E+00
 0.0000000000000E+00
 0.0000000000000E+00
 0.0000000000000E+00
 0.0000000000000E+00
 0.0000000000000E+00
 0.0000000000000E+00
 0.0000000000000E+00
 0.0000000000000E+00
 0.0000000000000E+00
 0.0000000000000E+00
 0.0000000000000E+00
 0.0000000000000E+00
 0.0000000000000E+00
 0.0000000000000E+00
 0.0000000000000E+00
 0.0000000000000E+00
 0.0000000000000E+00
 0.0000000000000E+00
 0.0000000000000E+00
 0.0000000000000E+00
 0.0000000000000E+00
 0.0000000000000E+00
 0.0000000000000E+00
 0.0000000000000E+00
 0.0000000000000E+00
 0.0000000000000E+00
 0.0000000000000E+00
 0.0000000000000E+00
 0.0000000000000E+00
 0.0000000000000E+00
 0.0000000000000E+00
 0.0000000000000E+00
 0.0000000000000E+00
 0.0000000000000E+00
 0.0000000000000E+00
 0.0000000000000E+00
 0.0000000000000E+00
 0.0000000000000E+00
 0.0000000000000E+00
 0.0000000000000E+00
 0.0000000000000E+00
 0.0000000000000E+00
 0.0000000000000E+00
 0.0000000000000E+00
 0.0000000000000E+00
 0.0000000000000E+00
 0.0000000000000E+00
 0.0000000000000E+00
 0.0000000000000E+00
 0.0000000000000E+00
 0.0000000000000E+00
 0.0000000000000E+00
 0.0000000000000E+00
 0.0000000000000E+00
 0.0000000000000E+00
 0.0000000000000E+00
 0.0000000000000E+00
 0.0000000000000E+00
 0.0000000000000E+00
 0.0000000000000E+00
 0.0000000000000E+00
 0.0000000000000E+00
 0.0000000000000E+00
 0.0000000000000E+00
 0.0000000000000E+00
 0.0000000000000E+00
 0.0000000000000E+00
 0.0000000000000E+00
 0.0000000000000E+00
 0.0000000000000E+00
 0.0000000000000E+00
 0.0000000000000E+00
 0.0000000000000E+00
 0.0000000000000E+00
 0.0000000000000E+00
 0.0000000000000E+00
 0.0000000000000E+00
 0.0000000000000E+00
 0.0000000000000E+00
 0.0000000000000E+00
 0.0000000000000E+00
 0.0000000000000E+00
 0.0000000000000E+00
 0.0000000000000E+00
 0.0000000000000E+00
 0.0000000000000E+00
 0.0000000000000E+00
 0.0000000000000E+00
 0.0000000000000E+00
 0.0000000000000E+00
 0.0000000000000E+00
 0.0000000000000E+00
 0.0000000000000E+00
 0.0000000000000E+00
 0.0000000000000E+00
 0.0000000000000E+00
 0.0000000000000E+00
 0.0000000000000E+00
 0.0000000000000E+00
 0.0000000000000E+00
 0.0000000000000E+00
 0.0000000000000E+00
 0.0000000000000E+00
 0.0000000000000E+00
 0.0000000000000E+00
 0.0000000000000E+00
 0.0000000000000E+00
 0.0000000000000E+00
 0.0000000000000E+00
 0.0000000000000E+00
 0.0000000000000E+00
 0.0000000000000E+00
 0.0000000000000E+00
 0.0000000000000E+00
 0.0000000000000E+00
 0.0000000000000E+00
 0.0000000000000E+00
 0.0000000000000E+00
 0.0000000000000E+00
 0.0000000000000E+00
 0.0000000000000E+00
 0.0000000000000E+00
 0.0000000000000E+00
 0.0000000000000E+00
 0.0000000000000E+00
 0.0000000000000E+00
 0.0000000000000E+00
 0.0000000000000E+00
 0.0000000000000E+00
 0.0000000000000E+00
 0.0000000000000E+00
 0.0000000000000E+00
 0.0000000000000E+00
 0.0000000000000E+00
 0.0000000000000E+00
 0.0000000000000E+00
 0.0000000000000E+00
 0.0000000000000E+00
 0.0000000000000E+00
 0.0000000000000E+00
 0.0000000000000E+00
 0.0000000000000E+00
 0.0000000000000E+00
 0.0000000000000E+00
 0.0000000000000E+00
 0.0000000000000E+00
 0.0000000000000E+00
 0.0000000000000E+00
 0.0000000000000E+00
 0.0000000000000E+00
 0.0000000000000E+00
 0.0000000000000E+00
 0.0000000000000E+00
 0.0000000000000E+00
 0.0000000000000E+00
 0.0000000000000E+00
 0.0000000000000E+00
 0.0000000000000E+00
 0.0000000000000E+00
 0.0000000000000E+00
 0.0000000000000E+00
 0.0000000000000E+00
 0.0000000000000E+00
 0.0000000000000E+00
 0.0000000000000E+00
 0.0000000000000E+00
 0.0000000000000E+00
 0.0000000000000E+00
 0.0000000000000E+00
 0.0000000000000E+00
 0.0000000000000E+00
 0.0000000000000E+00
 0.0000000000000E+00
 0.0000000000000E+00
 0.0000000000000E+00
 0.0000000000000E+00
 0.0000000000000E+00
 0.0000000000000E+00
 0.0000000000000E+00
 0.0000000000000E+00
 0.0000000000000E+00
 0.0000000000000E+00
 0.0000000000000E+00
 0.0000000000000E+00
 0.0000000000000E+00
 0.0000000000000E+00
 0.0000000000000E+00
 0.0000000000000E+00
 0.0000000000000E+00
 0.0000000000000E+00
 0.0000000000000E+00
 0.0000000000000E+00
 0.0000000000000E+00
 0.0000000000000E+00
 0.0000000000000E+00
 0.0000000000000E+00
 0.0000000000000E+00
 0.0000000000000E+00
 0.0000000000000E+00
 0.0000000000000E+00
 0.0000000000000E+00
 0.0000000000000E+00
 0.0000000000000E+00
 0.0000000000000E+00
 0.0000000000000E+00
 0.0000000000000E+00
 0.0000000000000E+00
 0.0000000000000E+00
 0.0000000000000E+00
 0.0000000000000E+00
 0.0000000000000E+00
 0.0000000000000E+00
 0.0000000000000E+00
 0.0000000000000E+00
 0.0000000000000E+00
 0.0000000000000E+00
 0.0000000000000E+00
 0.0000000000000E+00
 0.0000000000000E+00
 0.0000000000000E+00
 0.0000000000000E+00
 0.0000000000000E+00
 0.0000000000000E+00
 0.0000000000000E+00
 0.0000000000000E+00
 0.0000000000000E+00
 0.0000000000000E+00
 0.0000000000000E+00
 0.0000000000000E+00
 0.0000000000000E+00
 0.0000000000000E+00
 0.0000000000000E+00
 0.0000000000000E+00
 0.0000000000000E+00
 0.0000000000000E+00
 0.0000000000000E+00
 0.0000000000000E+00
 0.0000000000000E+00
 0.0000000000000E+00
 0.0000000000000E+00
 0.0000000000000E+00
 0.0000000000000E+00
 0.0000000000000E+00
 0.0000000000000E+00
 0.0000000000000E+00
 0.0000000000000E+00
 0.0000000000000E+00
 0.0000000000000E+00
 0.0000000000000E+00
 0.0000000000000E+00
 0.0000000000000E+00
 0.0000000000000E+00
 0.0000000000000E+00
 0.0000000000000E+00
 0.0000000000000E+00
 0.0000000000000E+00
 0.0000000000000E+00
 0.0000000000000E+00
 0.0000000000000E+00
 0.0000000000000E+00
 0.0000000000000E+00
 0.0000000000000E+00
 0.0000000000000E+00
 0.0000000000000E+00
 0.0000000000000E+00
 0.0000000000000E+00
 0.0000000000000E+00
 0.0000000000000E+00
 0.0000000000000E+00
 0.0000000000000E+00
 0.0000000000000E+00
 0.0000000000000E+00
 0.0000000000000E+00
 0.0000000000000E+00
 0.0000000000000E+00
 0.0000000000000E+00
 0.0000000000000E+00
 0.0000000000000E+00
 0.0000000000000E+00
 0.0000000000000E+00
 0.0000000000000E+00
 0.0000000000000E+00
 0.0000000000000E+00
 0.0000000000000E+00
 0.0000000000000E+00
 0.0000000000000E+00
 0.0000000000000E+00
 0.0000000000000E+00
 0.0000000000000E+00
 0.0000000000000E+00
 0.0000000000000E+00
 0.0000000000000E+00
 0.0000000000000E+00
 0.0000000000000E+00
 0.0000000000000E+00
 0.0000000000000E+00
 0.0000000000000E+00
 0.0000000000000E+00
 0.0000000000000E+00
 0.0000000000000E+00
 0.0000000000000E+00
 0.0000000000000E+00
 0.0000000000000E+00
 0.0000000000000E+00
 0.0000000000000E+00
 0.0000000000000E+00
 0.0000000000000E+00
 0.0000000000000E+00
 0.0000000000000E+00
 0.0000000000000E+00
 0.0000000000000E+00
 0.0000000000000E+00
 0.0000000000000E+00
 0.0000000000000E+00
 0.0000000000000E+00
 0.0000000000000E+00
 0.0000000000000E+00
 0.0000000000000E+00
 0.0000000000000E+00
 0.0000000000000E+00
 0.0000000000000E+00
 0.0000000000000E+00
 0.0000000000000E+00
 0.0000000000000E+00
 0.0000000000000E+00
 0.0000000000000E+00
 0.0000000000000E+00
 0.0000000000000E+00
 0.0000000000000E+00
 0.0000000000000E+00
 0.0000000000000E+00
 0.0000000000000E+00
 0.0000000000000E+00
 0.0000000000000E+00
 0.0000000000000E+00
 0.0000000000000E+00
 0.0000000000000E+00
 0.0000000000000E+00
 0.0000000000000E+00
 0.0000000000000E+00
 0.0000000000000E+00
 0.0000000000000E+00
 0.0000000000000E+00
 0.0000000000000E+00
 0.0000000000000E+00
 0.0000000000000E+00
 0.0000000000000E+00
 0.0000000000000E+00
 0.0000000000000E+00
 0.0000000000000E+00
 0.0000000000000E+00
 0.0000000000000E+00
 0.0000000000000E+00
 0.0000000000000E+00
 0.0000000000000E+00
 0.0000000000000E+00
 0.0000000000000E+00
 0.0000000000000E+00
 0.0000000000000E+00
 0.0000000000000E+00
 0.0000000000000E+00
 0.0000000000000E+00
 0.0000000000000E+00
 0.0000000000000E+00
 0.0000000000000E+00
 0.0000000000000E+00
 0.0000000000000E+00
 0.0000000000000E+00
 0.0000000000000E+00
 0.0000000000000E+00
 0.0000000000000E+00
 0.0000000000000E+00
 0.0000000000000E+00
 0.0000000000000E+00
 0.0000000000000E+00
 0.0000000000000E+00
 0.0000000000000E+00
 0.0000000000000E+00
 0.0000000000000E+00
 0.0000000000000E+00
 0.0000000000000E+00
 0.0000000000000E+00
 0.0000000000000E+00
 0.0000000000000E+00
 0.0000000000000E+00
 0.0000000000000E+00
 0.0000000000000E+00
 0.0000000000000E+00
 0.0000000000000E+00
 0.0000000000000E+00
 0.0000000000000E+00
 0.0000000000000E+00
 0.0000000000000E+00
 0.0000000000000E+00
 0.0000000000000E+00
 0.0000000000000E+00
 0.0000000000000E+00
 0.0000000000000E+00
 0.0000000000000E+00
 0.0000000000000E+00
 0.0000000000000E+00
 0.0000000000000E+00
 0.0000000000000E+00
 0.0000000000000E+00
 0.0000000000000E+00
 0.0000000000000E+00
 0.0000000000000E+00
 0.0000000000000E+00
 0.0000000000000E+00
 0.0000000000000E+00
 0.0000000000000E+00
 0.0000000000000E+00
 0.0000000000000E+00
 0.0000000000000E+00
 0.0000000000000E+00
 0.0000000000000E+00
 0.0000000000000E+00
 0.0000000000000E+00
 0.0000000000000E+00
 0.0000000000000E+00
 0.0000000000000E+00
 0.0000000000000E+00
 0.0000000000000E+00
 0.0000000000000E+00
 0.0000000000000E+00
 0.0000000000000E+00
 0.0000000000000E+00
 0.0000000000000E+00
 0.0000000000000E+00
 0.0000000000000E+00
 0.0000000000000E+00
 0.0000000000000E+00
 0.0000000000000E+00
 0.0000000000000E+00
 0.0000000000000E+00
 0.0000000000000E+00
 0.0000000000000E+00
 0.0000000000000E+00
 0.0000000000000E+00
 0.0000000000000E+00
 0.0000000000000E+00
 0.0000000000000E+00
 0.0000000000000E+00
 0.0000000000000E+00
 0.0000000000000E+00
 0.0000000000000E+00
 0.0000000000000E+00
 0.0000000000000E+00
 0.0000000000000E+00
 0.0000000000000E+00
 0.0000000000000E+00
 0.0000000000000E+00
 0.0000000000000E+00
 0.0000000000000E+00
 0.0000000000000E+00
 0.0000000000000E+00
 0.0000000000000E+00
 0.0000000000000E+00
 0.0000000000000E+00
 0.0000000000000E+00
 0.0000000000000E+00
 0.0000000000000E+00
 0.0000000000000E+00
 0.0000000000000E+00
 0.0000000000000E+00
 0.0000000000000E+00
 0.0000000000000E+00
 0.0000000000000E+00
 0.0000000000000E+00
 0.0000000000000E+00
 0.0000000000000E+00
 0.0000000000000E+00
 0.0000000000000E+00
 0.0000000000000E+00
 0.0000000000000E+00
 0.0000000000000E+00
 0.0000000000000E+00
 0.0000000000000E+00
 0.0000000000000E+00
 0.0000000000000E+00
 0.0000000000000E+00
 0.0000000000000E+00
 0.0000000000000E+00
 0.0000000000000E+00
 0.0000000000000E+00
 0.0000000000000E+00
 0.0000000000000E+00
 0.0000000000000E+00
 0.0000000000000E+00
 0.0000000000000E+00
 0.0000000000000E+00
 0.0000000000000E+00
 0.0000000000000E+00
 0.0000000000000E+00
 0.0000000000000E+00
 0.0000000000000E+00
 0.0000000000000E+00
 0.0000000000000E+00
 0.0000000000000E+00
 0.0000000000000E+00
 0.0000000000000E+00
 0.0000000000000E+00
 0.0000000000000E+00
 0.0000000000000E+00
 0.0000000000000E+00
 0.0000000000000E+00
 0.0000000000000E+00
 0.0000000000000E+00
 0.0000000000000E+00
 0.0000000000000E+00
 0.0000000000000E+00
 0.0000000000000E+00
 0.0000000000000E+00
 0.0000000000000E+00
 0.0000000000000E+00
 0.0000000000000E+00
 0.0000000000000E+00
 0.0000000000000E+00
 0.0000000000000E+00
 0.0000000000000E+00
 0.0000000000000E+00
 0.0000000000000E+00
 0.0000000000000E+00
 0.0000000000000E+00
 0.0000000000000E+00
 0.0000000000000E+00
 0.0000000000000E+00
 0.0000000000000E+00
 0.0000000000000E+00
 0.0000000000000E+00
 0.0000000000000E+00
 0.0000000000000E+00
 0.0000000000000E+00
 0.0000000000000E+00
 0.0000000000000E+00
 0.0000000000000E+00
 0.0000000000000E+00
 0.0000000000000E+00
 0.0000000000000E+00
 0.0000000000000E+00
 0.0000000000000E+00
 0.0000000000000E+00
 0.0000000000000E+00
 0.0000000000000E+00
 0.0000000000000E+00
 0.0000000000000E+00
 0.0000000000000E+00
 0.0000000000000E+00
 0.0000000000000E+00
 0.0000000000000E+00
 0.0000000000000E+00
 0.0000000000000E+00
 0.0000000000000E+00
 0.0000000000000E+00
 0.0000000000000E+00
 0.0000000000000E+00
 0.0000000000000E+00
 0.0000000000000E+00
 0.0000000000000E+00
 0.0000000000000E+00
 0.0000000000000E+00
 0.0000000000000E+00
 0.0000000000000E+00
 0.0000000000000E+00
 0.0000000000000E+00
 0.0000000000000E+00
 0.0000000000000E+00
 0.0000000000000E+00
 0.0000000000000E+00
 0.0000000000000E+00
 0.0000000000000E+00
 0.0000000000000E+00
 0.0000000000000E+00
 0.0000000000000E+00
 0.0000000000000E+00
 0.0000000000000E+00
 0.0000000000000E+00
 0.0000000000000E+00
 0.0000000000000E+00
 0.0000000000000E+00
 0.0000000000000E+00
 0.0000000000000E+00
 0.0000000000000E+00
 0.0000000000000E+00
 0.0000000000000E+00
 0.0000000000000E+00
 0.0000000000000E+00
 0.0000000000000E+00
 0.0000000000000E+00
 0.0000000000000E+00
 0.0000000000000E+00
 0.0000000000000E+00
 0.0000000000000E+00
 0.0000000000000E+00
 0.0000000000000E+00
 0.0000000000000E+00
 0.0000000000000E+00
 0.0000000000000E+00
 0.0000000000000E+00
 0.0000000000000E+00
 0.0000000000000E+00
 0.0000000000000E+00
 0.0000000000000E+00
 0.0000000000000E+00
 0.0000000000000E+00
 0.0000000000000E+00
 0.0000000000000E+00
 0.0000000000000E+00
 0.0000000000000E+00
 0.0000000000000E+00
 0.0000000000000E+00
 0.0000000000000E+00
 0.0000000000000E+00
 0.0000000000000E+00
 0.0000000000000E+00
 0.0000000000000E+00
 0.0000000000000E+00
 0.0000000000000E+00
 0.0000000000000E+00
 0.0000000000000E+00
 0.0000000000000E+00
 0.0000000000000E+00
 0.0000000000000E+00
 0.0000000000000E+00
 0.0000000000000E+00
 0.0000000000000E+00
 0.0000000000000E+00
 0.0000000000000E+00
 0.0000000000000E+00
 0.0000000000000E+00
 0.0000000000000E+00
 0.0000000000000E+00
 0.0000000000000E+00
 0.0000000000000E+00
 0.0000000000000E+00
 0.0000000000000E+00
 0.0000000000000E+00
 0.0000000000000E+00
 0.0000000000000E+00
 0.0000000000000E+00
 0.0000000000000E+00
 0.0000000000000E+00
 0.0000000000000E+00
 0.0000000000000E+00
 0.0000000000000E+00
 0.0000000000000E+00
 0.0000000000000E+00
 0.0000000000000E+00
 0.0000000000000E+00
 0.0000000000000E+00
 0.0000000000000E+00
 0.0000000000000E+00
 0.0000000000000E+00
 0.0000000000000E+00
 0.0000000000000E+00
 0.0000000000000E+00
 0.0000000000000E+00
 0.0000000000000E+00
 0.0000000000000E+00
 0.0000000000000E+00
 0.0000000000000E+00
 0.0000000000000E+00
 0.0000000000000E+00
 0.0000000000000E+00
 0.0000000000000E+00
 0.0000000000000E+00
 0.0000000000000E+00
 0.0000000000000E+00
 0.0000000000000E+00
 0.0000000000000E+00
 0.0000000000000E+00
 0.0000000000000E+00
 0.0000000000000E+00
 0.0000000000000E+00
 0.0000000000000E+00
 0.0000000000000E+00
 0.0000000000000E+00
 0.0000000000000E+00
 0.0000000000000E+00
 0.0000000000000E+00
 0.0000000000000E+00
 0.0000000000000E+00
 0.0000000000000E+00
 0.0000000000000E+00
 0.0000000000000E+00
 0.0000000000000E+00
 0.0000000000000E+00
 0.0000000000000E+00
 0.0000000000000E+00
 0.0000000000000E+00
 0.0000000000000E+00
 0.0000000000000E+00
 0.0000000000000E+00
 0.0000000000000E+00
 0.0000000000000E+00
 0.0000000000000E+00
 0.0000000000000E+00
 0.0000000000000E+00
 0.0000000000000E+00
 0.0000000000000E+00
 0.0000000000000E+00
 0.0000000000000E+00
 0.0000000000000E+00
 0.0000000000000E+00
 0.0000000000000E+00
 0.0000000000000E+00
 0.0000000000000E+00
 0.0000000000000E+00
 0.0000000000000E+00
 0.0000000000000E+00
 0.0000000000000E+00
 0.0000000000000E+00
 0.0000000000000E+00
 0.0000000000000E+00
 0.0000000000000E+00
 0.0000000000000E+00
 0.0000000000000E+00
 0.0000000000000E+00
 0.0000000000000E+00
 0.0000000000000E+00
 0.0000000000000E+00
 0.0000000000000E+00
 0.0000000000000E+00
 0.0000000000000E+00
 0.0000000000000E+00
 0.0000000000000E+00
 0.0000000000000E+00
 0.0000000000000E+00
 0.0000000000000E+00
 0.0000000000000E+00
 0.0000000000000E+00
 0.0000000000000E+00
 0.0000000000000E+00
 0.0000000000000E+00
 0.0000000000000E+00
 0.0000000000000E+00
 0.0000000000000E+00
 0.0000000000000E+00
 0.0000000000000E+00
 0.0000000000000E+00
 0.0000000000000E+00
 0.0000000000000E+00
 0.0000000000000E+00
 0.0000000000000E+00
 0.0000000000000E+00
 0.0000000000000E+00
 0.0000000000000E+00
 0.0000000000000E+00
 0.0000000000000E+00
 0.0000000000000E+00
 0.0000000000000E+00
 0.0000000000000E+00
 0.0000000000000E+00
 0.0000000000000E+00
 0.0000000000000E+00
 0.0000000000000E+00
 0.0000000000000E+00
 0.0000000000000E+00
 0.0000000000000E+00
 0.0000000000000E+00
 0.0000000000000E+00
 0.0000000000000E+00
 0.0000000000000E+00
 0.0000000000000E+00
 0.0000000000000E+00
 0.0000000000000E+00
 0.0000000000000E+00
 0.0000000000000E+00
 0.0000000000000E+00
 0.0000000000000E+00
 0.0000000000000E+00
 0.0000000000000E+00
 0.0000000000000E+00
 0.0000000000000E+00
 0.0000000000000E+00
 0.0000000000000E+00
 0.0000000000000E+00
 0.0000000000000E+00
 0.0000000000000E+00
 0.0000000000000E+00
 0.0000000000000E+00
 0.0000000000000E+00
 0.0000000000000E+00
 0.0000000000000E+00
 0.0000000000000E+00
 0.0000000000000E+00
 0.0000000000000E+00
 0.0000000000000E+00
 0.0000000000000E+00
 0.0000000000000E+00
 0.0000000000000E+00
 0.0000000000000E+00
 0.0000000000000E+00
 0.0000000000000E+00
 0.0000000000000E+00
 0.0000000000000E+00
 0.0000000000000E+00
 0.0000000000000E+00
 0.0000000000000E+00
 0.0000000000000E+00
 0.0000000000000E+00
 0.0000000000000E+00
 0.0000000000000E+00
 0.0000000000000E+00
 0.0000000000000E+00
 0.0000000000000E+00
 0.0000000000000E+00
 0.0000000000000E+00
 0.0000000000000E+00
 0.0000000000000E+00
 0.0000000000000E+00
 0.0000000000000E+00
 0.0000000000000E+00
 0.0000000000000E+00
 0.0000000000000E+00
 0.0000000000000E+00
 0.0000000000000E+00
 0.0000000000000E+00
 0.0000000000000E+00
 0.0000000000000E+00
 0.0000000000000E+00
 0.0000000000000E+00
 0.0000000000000E+00
 0.0000000000000E+00
 0.0000000000000E+00
 0.0000000000000E+00
 0.0000000000000E+00
 0.0000000000000E+00
 0.0000000000000E+00
 0.0000000000000E+00
 0.0000000000000E+00
 0.0000000000000E+00
 0.0000000000000E+00
 0.0000000000000E+00
 0.0000000000000E+00
 0.0000000000000E+00
 0.0000000000000E+00
 0.0000000000000E+00
 0.0000000000000E+00
 0.0000000000000E+00
 0.0000000000000E+00
 0.0000000000000E+00
 0.0000000000000E+00
 0.0000000000000E+00
 0.0000000000000E+00
 0.0000000000000E+00
 0.0000000000000E+00
 0.0000000000000E+00
 0.0000000000000E+00
 0.0000000000000E+00
 0.0000000000000E+00
 0.0000000000000E+00
 0.0000000000000E+00
 0.0000000000000E+00
 0.0000000000000E+00
 0.0000000000000E+00
 0.0000000000000E+00
 0.0000000000000E+00
 0.0000000000000E+00
 0.0000000000000E+00
 0.0000000000000E+00
 0.0000000000000E+00
 0.0000000000000E+00
 0.0000000000000E+00
 0.0000000000000E+00
 0.0000000000000E+00
 0.0000000000000E+00
 0.0000000000000E+00
 0.0000000000000E+00
 0.0000000000000E+00
 0.0000000000000E+00
 0.0000000000000E+00
 0.0000000000000E+00
 0.0000000000000E+00
 0.0000000000000E+00
 0.0000000000000E+00
 0.0000000000000E+00
 0.0000000000000E+00
 0.0000000000000E+00
 0.0000000000000E+00
 0.0000000000000E+00
 0.0000000000000E+00
 0.0000000000000E+00
 0.0000000000000E+00
 0.0000000000000E+00
 0.0000000000000E+00
 0.0000000000000E+00
 0.0000000000000E+00
 0.0000000000000E+00
 0.0000000000000E+00
 0.0000000000000E+00
 0.0000000000000E+00
 0.0000000000000E+00
 0.0000000000000E+00
 0.0000000000000E+00
 0.0000000000000E+00
 0.0000000000000E+00
 0.0000000000000E+00
 0.0000000000000E+00
 0.0000000000000E+00
 0.0000000000000E+00
 0.0000000000000E+00
 0.0000000000000E+00
 0.0000000000000E+00
 0.0000000000000E+00
 0.0000000000000E+00
 0.0000000000000E+00
 0.0000000000000E+00
 0.0000000000000E+00
 0.0000000000000E+00
 0.0000000000000E+00
 0.0000000000000E+00
 0.0000000000000E+00
 0.0000000000000E+00
 0.0000000000000E+00
 0.0000000000000E+00
 0.0000000000000E+00
 0.0000000000000E+00
 0.0000000000000E+00
 0.0000000000000E+00
 0.0000000000000E+00
 0.0000000000000E+00
 0.0000000000000E+00
 0.0000000000000E+00
 0.0000000000000E+00
 0.0000000000000E+00
 0.0000000000000E+00
 0.0000000000000E+00
 0.0000000000000E+00
 0.0000000000000E+00
 0.0000000000000E+00
 0.0000000000000E+00
 0.0000000000000E+00
 0.0000000000000E+00
 0.0000000000000E+00
 0.0000000000000E+00
 0.0000000000000E+00
 0.0000000000000E+00
 0.0000000000000E+00
 0.0000000000000E+00
 0.0000000000000E+00
 0.0000000000000E+00
 0.0000000000000E+00
 0.0000000000000E+00
 0.0000000000000E+00
 0.0000000000000E+00
 0.0000000000000E+00
 0.0000000000000E+00
 0.0000000000000E+00
 0.0000000000000E+00
 0.0000000000000E+00
 0.0000000000000E+00
 0.0000000000000E+00
 0.0000000000000E+00
 0.0000000000000E+00
 0.0000000000000E+00
 0.0000000000000E+00
 0.0000000000000E+00
 0.0000000000000E+00
 0.0000000000000E+00
 0.0000000000000E+00
 0.0000000000000E+00
 0.0000000000000E+00
 0.0000000000000E+00
 0.0000000000000E+00
 0.0000000000000E+00
 0.0000000000000E+00
 0.0000000000000E+00
 0.0000000000000E+00
 0.0000000000000E+00
 0.0000000000000E+00
 0.0000000000000E+00
 0.0000000000000E+00
 0.0000000000000E+00
 0.0000000000000E+00
 0.0000000000000E+00
 0.0000000000000E+00
 0.0000000000000E+00
 0.0000000000000E+00
 0.0000000000000E+00
 0.0000000000000E+00
 0.0000000000000E+00
 0.0000000000000E+00
 0.0000000000000E+00
 0.0000000000000E+00
 0.0000000000000E+00
 0.0000000000000E+00
 0.0000000000000E+00
 0.0000000000000E+00
 0.0000000000000E+00
 0.0000000000000E+00
 0.0000000000000E+00
 0.0000000000000E+00
 0.0000000000000E+00
 0.0000000000000E+00
 0.0000000000000E+00
 0.0000000000000E+00
 0.0000000000000E+00
 0.0000000000000E+00
 0.0000000000000E+00
 0.0000000000000E+00
 0.0000000000000E+00
 0.0000000000000E+00
 0.0000000000000E+00
 0.0000000000000E+00
 0.0000000000000E+00
 0.0000000000000E+00
 0.0000000000000E+00
 0.0000000000000E+00
 0.0000000000000E+00
 0.0000000000000E+00
 0.0000000000000E+00
 0.0000000000000E+00
 0.0000000000000E+00
 0.0000000000000E+00
 0.0000000000000E+00
 0.0000000000000E+00
 0.0000000000000E+00
 0.0000000000000E+00
 0.0000000000000E+00
 0.0000000000000E+00
 0.0000000000000E+00
 0.0000000000000E+00
 0.0000000000000E+00
 0.0000000000000E+00
 0.0000000000000E+00
 0.0000000000000E+00
 0.0000000000000E+00
 0.0000000000000E+00
 0.0000000000000E+00
 0.0000000000000E+00
 0.0000000000000E+00
 0.0000000000000E+00
 0.0000000000000E+00
 0.0000000000000E+00
 0.0000000000000E+00
 0.0000000000000E+00
 0.0000000000000E+00
 0.0000000000000E+00
 0.0000000000000E+00
 0.0000000000000E+00
 0.0000000000000E+00
 0.0000000000000E+00
 0.0000000000000E+00
 0.0000000000000E+00
 0.0000000000000E+00
 0.0000000000000E+00
 0.0000000000000E+00
 0.0000000000000E+00
 0.0000000000000E+00
 0.0000000000000E+00
 0.0000000000000E+00
 0.0000000000000E+00
 0.0000000000000E+00
 0.0000000000000E+00
 0.0000000000000E+00
 0.0000000000000E+00
 0.0000000000000E+00
 0.0000000000000E+00
 0.0000000000000E+00
 0.0000000000000E+00
 0.0000000000000E+00
 0.0000000000000E+00
 0.0000000000000E+00
 0.0000000000000E+00
 0.0000000000000E+00
 0.0000000000000E+00
 0.0000000000000E+00
 0.0000000000000E+00
 0.0000000000000E+00
 0.0000000000000E+00
 0.0000000000000E+00
 0.0000000000000E+00
 0.0000000000000E+00
 0.0000000000000E+00
 0.0000000000000E+00
 0.0000000000000E+00
 0.0000000000000E+00
 0.0000000000000E+00
 0.0000000000000E+00
 0.0000000000000E+00
 0.0000000000000E+00
 0.0000000000000E+00
 0.0000000000000E+00
 0.0000000000000E+00
 0.0000000000000E+00
 0.0000000000000E+00
 0.0000000000000E+00
 0.0000000000000E+00
 0.0000000000000E+00
 0.0000000000000E+00
 0.0000000000000E+00
 0.0000000000000E+00
 0.0000000000000E+00
 0.0000000000000E+00
 0.0000000000000E+00
 0.0000000000000E+00
 0.0000000000000E+00
 0.0000000000000E+00
 0.0000000000000E+00
 0.0000000000000E+00
 0.0000000000000E+00
 0.0000000000000E+00
 0.0000000000000E+00
 0.0000000000000E+00
 0.0000000000000E+00
 0.0000000000000E+00
 0.0000000000000E+00
 0.0000000000000E+00
 0.0000000000000E+00
 0.0000000000000E+00
 0.0000000000000E+00
 0.0000000000000E+00
 0.0000000000000E+00
 0.0000000000000E+00
 0.0000000000000E+00
 0.0000000000000E+00
 0.0000000000000E+00
 0.0000000000000E+00
 0.0000000000000E+00
 0.0000000000000E+00
 0.0000000000000E+00
 0.0000000000000E+00
 0.0000000000000E+00
 0.0000000000000E+00
 0.0000000000000E+00
 0.0000000000000E+00
 0.0000000000000E+00
 0.0000000000000E+00
 0.0000000000000E+00
 0.0000000000000E+00
 0.0000000000000E+00
 0.0000000000000E+00
 0.0000000000000E+00
 0.0000000000000E+00
 0.0000000000000E+00
 0.0000000000000E+00
 0.0000000000000E+00
 0.0000000000000E+00
 0.0000000000000E+00
 0.0000000000000E+00
 0.0000000000000E+00
 0.0000000000000E+00
 0.0000000000000E+00
 0.0000000000000E+00
 0.0000000000000E+00
 0.0000000000000E+00
 0.0000000000000E+00
 0.0000000000000E+00
 0.0000000000000E+00
 0.0000000000000E+00
 0.0000000000000E+00
 0.0000000000000E+00
 0.0000000000000E+00
 0.0000000000000E+00
 0.0000000000000E+00
 0.0000000000000E+00
 0.0000000000000E+00
 0.0000000000000E+00
 0.0000000000000E+00
 0.0000000000000E+00
 0.0000000000000E+00
 0.0000000000000E+00
 0.0000000000000E+00
 0.0000000000000E+00
 0.0000000000000E+00
 0.0000000000000E+00
 0.0000000000000E+00
 0.0000000000000E+00
 0.0000000000000E+00
 0.0000000000000E+00
 0.0000000000000E+00
 0.0000000000000E+00
 0.0000000000000E+00
 0.0000000000000E+00
 0.0000000000000E+00
 0.0000000000000E+00
 0.0000000000000E+00
 0.0000000000000E+00
 0.0000000000000E+00
 0.0000000000000E+00
 0.0000000000000E+00
 0.0000000000000E+00
 0.0000000000000E+00
 0.0000000000000E+00
 0.0000000000000E+00
 0.0000000000000E+00
 0.0000000000000E+00
 0.0000000000000E+00
 0.0000000000000E+00
 0.0000000000000E+00
 0.0000000000000E+00
 0.0000000000000E+00
 0.0000000000000E+00
 0.0000000000000E+00
 0.0000000000000E+00
 0.0000000000000E+00
 0.0000000000000E+00
 0.0000000000000E+00
 0.0000000000000E+00
 0.0000000000000E+00
 0.0000000000000E+00
 0.0000000000000E+00
 0.0000000000000E+00
 0.0000000000000E+00
 0.0000000000000E+00
 0.0000000000000E+00
 0.0000000000000E+00
 0.0000000000000E+00
 0.0000000000000E+00
 0.0000000000000E+00
 0.0000000000000E+00
 0.0000000000000E+00
 0.0000000000000E+00
 0.0000000000000E+00
 0.0000000000000E+00
 0.0000000000000E+00
 0.0000000000000E+00
 0.0000000000000E+00
 0.0000000000000E+00
 0.0000000000000E+00
 0.0000000000000E+00
 0.0000000000000E+00
 0.0000000000000E+00
 0.0000000000000E+00
 0.0000000000000E+00
 0.0000000000000E+00
 0.0000000000000E+00
 0.0000000000000E+00
 0.0000000000000E+00
 0.0000000000000E+00
 0.0000000000000E+00
 0.0000000000000E+00
 0.0000000000000E+00
 0.0000000000000E+00
 0.0000000000000E+00
 0.0000000000000E+00
 0.0000000000000E+00
 0.0000000000000E+00
 0.0000000000000E+00
 0.0000000000000E+00
 0.0000000000000E+00
 0.0000000000000E+00
 0.0000000000000E+00
 0.0000000000000E+00
 0.0000000000000E+00
 0.0000000000000E+00
 0.0000000000000E+00
 0.0000000000000E+00
 0.0000000000000E+00
 0.0000000000000E+00
 0.0000000000000E+00
 0.0000000000000E+00
 0.0000000000000E+00
 0.0000000000000E+00
 0.0000000000000E+00
 0.0000000000000E+00
 0.0000000000000E+00
 0.0000000000000E+00
 0.0000000000000E+00
 0.0000000000000E+00
 0.0000000000000E+00
 0.0000000000000E+00
 0.0000000000000E+00
 0.0000000000000E+00
 0.0000000000000E+00
 0.0000000000000E+00
 0.0000000000000E+00
 0.0000000000000E+00
 0.0000000000000E+00
 0.0000000000000E+00
 0.0000000000000E+00
 0.0000000000000E+00
 0.0000000000000E+00
 0.0000000000000E+00
 0.0000000000000E+00
 0.0000000000000E+00
 0.0000000000000E+00
 0.0000000000000E+00
 0.0000000000000E+00
 0.0000000000000E+00
 0.0000000000000E+00
 0.0000000000000E+00
 0.0000000000000E+00
 0.0000000000000E+00
 0.0000000000000E+00
 0.0000000000000E+00
 0.0000000000000E+00
 0.0000000000000E+00
 0.0000000000000E+00
 0.0000000000000E+00
 0.0000000000000E+00
 0.0000000000000E+00
 0.0000000000000E+00
 0.0000000000000E+00
 0.0000000000000E+00
 0.0000000000000E+00
 0.0000000000000E+00
 0.0000000000000E+00
 0.0000000000000E+00
 0.0000000000000E+00
 0.0000000000000E+00
 0.0000000000000E+00
 0.0000000000000E+00
 0.0000000000000E+00
 0.0000000000000E+00
 0.0000000000000E+00
 0.0000000000000E+00
 0.0000000000000E+00
 0.0000000000000E+00
 0.0000000000000E+00
 0.0000000000000E+00
 0.0000000000000E+00
 0.0000000000000E+00
 0.0000000000000E+00
 0.0000000000000E+00
 0.0000000000000E+00
 0.0000000000000E+00
 0.0000000000000E+00
 0.0000000000000E+00
 0.0000000000000E+00
 0.0000000000000E+00
 0.0000000000000E+00
 0.0000000000000E+00
 0.0000000000000E+00
 0.0000000000000E+00
 0.0000000000000E+00
 0.0000000000000E+00
 0.0000000000000E+00
 0.0000000000000E+00
 0.0000000000000E+00
 0.0000000000000E+00
 0.0000000000000E+00
 0.0000000000000E+00
 0.0000000000000E+00
 0.0000000000000E+00
 0.0000000000000E+00
 0.0000000000000E+00
 0.0000000000000E+00
 0.0000000000000E+00
 0.0000000000000E+00
 0.0000000000000E+00
 0.0000000000000E+00
 0.0000000000000E+00
 0.0000000000000E+00
 0.0000000000000E+00
 0.0000000000000E+00
 0.0000000000000E+00
 0.0000000000000E+00
 0.0000000000000E+00
 0.0000000000000E+00
 0.0000000000000E+00
 0.0000000000000E+00
 0.0000000000000E+00
 0.0000000000000E+00
 0.0000000000000E+00
 0.0000000000000E+00
 0.0000000000000E+00
 0.0000000000000E+00
 0.0000000000000E+00
 0.0000000000000E+00
 0.0000000000000E+00
 0.0000000000000E+00
 0.0000000000000E+00
 0.0000000000000E+00
 0.0000000000000E+00
 0.0000000000000E+00
 0.0000000000000E+00
 0.0000000000000E+00
 0.0000000000000E+00
 0.0000000000000E+00
 0.0000000000000E+00
 0.0000000000000E+00
 0.0000000000000E+00
 0.0000000000000E+00
 0.0000000000000E+00
 0.0000000000000E+00
 0.0000000000000E+00
 0.0000000000000E+00
 0.0000000000000E+00
 0.0000000000000E+00
 0.0000000000000E+00
 0.0000000000000E+00
 0.0000000000000E+00
 0.0000000000000E+00
 0.0000000000000E+00
 0.0000000000000E+00
 0.0000000000000E+00
 0.0000000000000E+00
 0.0000000000000E+00
 0.0000000000000E+00
 0.0000000000000E+00
 0.0000000000000E+00
 0.0000000000000E+00
 0.0000000000000E+00
 0.0000000000000E+00
 0.0000000000000E+00
 0.0000000000000E+00
 0.0000000000000E+00
 0.0000000000000E+00
 0.0000000000000E+00
 0.0000000000000E+00
 0.0000000000000E+00
 0.0000000000000E+00
 0.0000000000000E+00
 0.0000000000000E+00
 0.0000000000000E+00
 0.0000000000000E+00
 0.0000000000000E+00
 0.0000000000000E+00
 0.0000000000000E+00
 0.0000000000000E+00
 0.0000000000000E+00
 0.0000000000000E+00
 0.0000000000000E+00
 0.0000000000000E+00
 0.0000000000000E+00
 0.0000000000000E+00
 0.0000000000000E+00
 0.0000000000000E+00
 0.0000000000000E+00
 0.0000000000000E+00
 0.0000000000000E+00
 0.0000000000000E+00
 0.0000000000000E+00
 0.0000000000000E+00
 0.0000000000000E+00
 0.0000000000000E+00
 0.0000000000000E+00
 0.0000000000000E+00
 0.0000000000000E+00
 0.0000000000000E+00
 0.0000000000000E+00
 0.0000000000000E+00
 0.0000000000000E+00
 0.0000000000000E+00
 0.0000000000000E+00
 0.0000000000000E+00
 0.0000000000000E+00
 0.0000000000000E+00
 0.0000000000000E+00
 0.0000000000000E+00
 0.0000000000000E+00
 0.0000000000000E+00
 0.0000000000000E+00
 0.0000000000000E+00
 0.0000000000000E+00
 0.0000000000000E+00
 0.0000000000000E+00
 0.0000000000000E+00
 0.0000000000000E+00
 0.0000000000000E+00
 0.0000000000000E+00
 0.0000000000000E+00
 0.0000000000000E+00
 0.0000000000000E+00
 0.0000000000000E+00
 0.0000000000000E+00
 0.0000000000000E+00
 0.0000000000000E+00
 0.0000000000000E+00
 0.0000000000000E+00
 0.0000000000000E+00
 0.0000000000000E+00
 0.0000000000000E+00
 0.0000000000000E+00
 0.0000000000000E+00
 0.0000000000000E+00
 0.0000000000000E+00
 0.0000000000000E+00
 0.0000000000000E+00
 0.0000000000000E+00
 0.0000000000000E+00
 0.0000000000000E+00
 0.0000000000000E+00
 0.0000000000000E+00
 0.0000000000000E+00
 0.0000000000000E+00
 0.0000000000000E+00
 0.0000000000000E+00
 0.0000000000000E+00
 0.0000000000000E+00
 0.0000000000000E+00
 0.0000000000000E+00
 0.0000000000000E+00
 0.0000000000000E+00
 0.0000000000000E+00
 0.0000000000000E+00
 0.0000000000000E+00
 0.0000000000000E+00
 0.0000000000000E+00
 0.0000000000000E+00
 0.0000000000000E+00
 0.0000000000000E+00
 0.0000000000000E+00
 0.0000000000000E+00
 0.0000000000000E+00
 0.0000000000000E+00
 0.0000000000000E+00
 0.0000000000000E+00
 0.0000000000000E+00
 0.0000000000000E+00
 0.0000000000000E+00
 0.0000000000000E+00
 0.0000000000000E+00
 0.0000000000000E+00
 0.0000000000000E+00
 0.0000000000000E+00
 0.0000000000000E+00
 0.0000000000000E+00
 0.0000000000000E+00
 0.0000000000000E+00
 0.0000000000000E+00
 0.0000000000000E+00
 0.0000000000000E+00
 0.0000000000000E+00
 0.0000000000000E+00
 0.0000000000000E+00
 0.0000000000000E+00
 0.0000000000000E+00
 0.0000000000000E+00
 0.0000000000000E+00
 0.0000000000000E+00
 0.0000000000000E+00
 0.0000000000000E+00
 0.0000000000000E+00
 0.0000000000000E+00
 0.0000000000000E+00
 0.0000000000000E+00
 0.0000000000000E+00
 0.0000000000000E+00
 0.0000000000000E+00
 0.0000000000000E+00
 0.0000000000000E+00
 0.0000000000000E+00
 0.0000000000000E+00
 0.0000000000000E+00
 0.0000000000000E+00
 0.0000000000000E+00
 0.0000000000000E+00
 0.0000000000000E+00
 0.0000000000000E+00
 0.0000000000000E+00
 0.0000000000000E+00
 0.0000000000000E+00
 0.0000000000000E+00
 0.0000000000000E+00
 0.0000000000000E+00
 0.0000000000000E+00
 0.0000000000000E+00
 0.0000000000000E+00
 0.0000000000000E+00
 0.0000000000000E+00
 0.0000000000000E+00
 0.0000000000000E+00
 0.0000000000000E+00
 0.0000000000000E+00
 0.0000000000000E+00
 0.0000000000000E+00
 0.0000000000000E+00
 0.0000000000000E+00
 0.0000000000000E+00
 0.0000000000000E+00
 0.0000000000000E+00
 0.0000000000000E+00
 0.0000000000000E+00
 0.0000000000000E+00
 0.0000000000000E+00
 0.0000000000000E+00
 0.0000000000000E+00
 0.0000000000000E+00
 0.0000000000000E+00
 0.0000000000000E+00
 0.0000000000000E+00
 0.0000000000000E+00
 0.0000000000000E+00
 0.0000000000000E+00
 0.0000000000000E+00
 0.0000000000000E+00
 0.0000000000000E+00
 0.0000000000000E+00
 0.0000000000000E+00
 0.0000000000000E+00
 0.0000000000000E+00
 0.0000000000000E+00
 0.0000000000000E+00
 0.0000000000000E+00
 0.0000000000000E+00
 0.0000000000000E+00
 0.0000000000000E+00
 0.0000000000000E+00
 0.0000000000000E+00
 0.0000000000000E+00
 0.0000000000000E+00
 0.0000000000000E+00
 0.0000000000000E+00
 0.0000000000000E+00
 0.0000000000000E+00
 0.0000000000000E+00
 0.0000000000000E+00
 0.0000000000000E+00
 0.0000000000000E+00
 0.0000000000000E+00
 0.0000000000000E+00
 0.0000000000000E+00
 0.0000000000000E+00
 0.0000000000000E+00
 0.0000000000000E+00
 0.0000000000000E+00
 0.0000000000000E+00
 0.0000000000000E+00
 0.0000000000000E+00
 0.0000000000000E+00
 0.0000000000000E+00
 0.0000000000000E+00
 0.0000000000000E+00
 0.0000000000000E+00
 0.0000000000000E+00
 0.0000000000000E+00
 0.0000000000000E+00
 0.0000000000000E+00
 0.0000000000000E+00
 0.0000000000000E+00
 0.0000000000000E+00
 0.0000000000000E+00
 0.0000000000000E+00
 0.0000000000000E+00
 0.0000000000000E+00
 0.0000000000000E+00
 0.0000000000000E+00
 0.0000000000000E+00
 0.0000000000000E+00
 0.0000000000000E+00
 0.0000000000000E+00
 0.0000000000000E+00
 0.0000000000000E+00
 0.0000000000000E+00
 0.0000000000000E+00
 0.0000000000000E+00
 0.0000000000000E+00
 0.0000000000000E+00
 0.0000000000000E+00
 0.0000000000000E+00
 0.0000000000000E+00
 0.0000000000000E+00
 0.0000000000000E+00
 0.0000000000000E+00
 0.0000000000000E+00
 0.0000000000000E+00
 0.0000000000000E+00
 0.0000000000000E+00
 0.0000000000000E+00
 0.0000000000000E+00
 0.0000000000000E+00
 0.0000000000000E+00
 0.0000000000000E+00
 0.0000000000000E+00
 0.0000000000000E+00
 0.0000000000000E+00
 0.0000000000000E+00
 0.0000000000000E+00
 0.0000000000000E+00
 0.0000000000000E+00
 0.0000000000000E+00
 0.0000000000000E+00
 0.0000000000000E+00
 0.0000000000000E+00
 0.0000000000000E+00
 0.0000000000000E+00
 0.0000000000000E+00
 0.0000000000000E+00
 0.0000000000000E+00
 0.0000000000000E+00
 0.0000000000000E+00
 0.0000000000000E+00
 0.0000000000000E+00
 0.0000000000000E+00
 0.0000000000000E+00
 0.0000000000000E+00
 0.0000000000000E+00
 0.0000000000000E+00
 0.0000000000000E+00
 0.0000000000000E+00
 0.0000000000000E+00
 0.0000000000000E+00
 0.0000000000000E+00
 0.0000000000000E+00
 0.0000000000000E+00
 0.0000000000000E+00
 0.0000000000000E+00
 0.0000000000000E+00
 0.0000000000000E+00
 0.0000000000000E+00
 0.0000000000000E+00
 0.0000000000000E+00
 0.0000000000000E+00
 0.0000000000000E+00
 0.0000000000000E+00
 0.0000000000000E+00
 0.0000000000000E+00
 0.0000000000000E+00
 0.0000000000000E+00
 0.0000000000000E+00
 0.0000000000000E+00
 0.0000000000000E+00
 0.0000000000000E+00
 0.0000000000000E+00
 0.0000000000000E+00
 0.0000000000000E+00
 0.0000000000000E+00
 0.0000000000000E+00
 0.0000000000000E+00
 0.0000000000000E+00
 0.0000000000000E+00
 0.0000000000000E+00
 0.0000000000000E+00
 0.0000000000000E+00
 0.0000000000000E+00
 0.0000000000000E+00
 0.0000000000000E+00
 0.0000000000000E+00
 0.0000000000000E+00
 0.0000000000000E+00
 0.0000000000000E+00
 0.0000000000000E+00
 0.0000000000000E+00
 0.0000000000000E+00
 0.0000000000000E+00
 0.0000000000000E+00
 0.0000000000000E+00
 0.0000000000000E+00
 0.0000000000000E+00
 0.0000000000000E+00
 0.0000000000000E+00
 0.0000000000000E+00
 0.0000000000000E+00
 0.0000000000000E+00
 0.0000000000000E+00
 0.0000000000000E+00
 0.0000000000000E+00
 0.0000000000000E+00
 0.0000000000000E+00
 0.0000000000000E+00
 0.0000000000000E+00
 0.0000000000000E+00
 0.0000000000000E+00
 0.0000000000000E+00
 0.0000000000000E+00
 0.0000000000000E+00
 0.0000000000000E+00
 0.0000000000000E+00
 0.0000000000000E+00
 0.0000000000000E+00
 0.0000000000000E+00
 0.0000000000000E+00
 0.0000000000000E+00
 0.0000000000000E+00
 0.0000000000000E+00
 0.0000000000000E+00
 0.0000000000000E+00
 0.0000000000000E+00
 0.0000000000000E+00
 0.0000000000000E+00
 0.0000000000000E+00
 0.0000000000000E+00
 0.0000000000000E+00
 0.0000000000000E+00
 0.0000000000000E+00
 0.0000000000000E+00
 0.0000000000000E+00
 0.0000000000000E+00
 0.0000000000000E+00
 0.0000000000000E+00
 0.0000000000000E+00
 0.0000000000000E+00
 0.0000000000000E+00
 0.0000000000000E+00
 0.0000000000000E+00
 0.0000000000000E+00
 0.0000000000000E+00
 0.0000000000000E+00
 0.0000000000000E+00
 0.0000000000000E+00
 0.0000000000000E+00
 0.0000000000000E+00
 0.0000000000000E+00
 0.0000000000000E+00
 0.0000000000000E+00
 0.0000000000000E+00
 0.0000000000000E+00
 0.0000000000000E+00
 0.0000000000000E+00
 0.0000000000000E+00
 0.0000000000000E+00
 0.0000000000000E+00
 0.0000000000000E+00
 0.0000000000000E+00
 0.0000000000000E+00
 0.0000000000000E+00
 0.0000000000000E+00
 0.0000000000000E+00
 0.0000000000000E+00
 0.0000000000000E+00
 0.0000000000000E+00
 0.0000000000000E+00
 0.0000000000000E+00
 0.0000000000000E+00
 0.0000000000000E+00
 0.0000000000000E+00
 0.0000000000000E+00
 0.0000000000000E+00
 0.0000000000000E+00
 0.0000000000000E+00
 0.0000000000000E+00
 0.0000000000000E+00
 0.0000000000000E+00
 0.0000000000000E+00
 0.0000000000000E+00
 0.0000000000000E+00
 0.0000000000000E+00
 0.0000000000000E+00
 0.0000000000000E+00
 0.0000000000000E+00
 0.0000000000000E+00
 0.0000000000000E+00
 0.0000000000000E+00
 0.0000000000000E+00
 0.0000000000000E+00
 0.0000000000000E+00
 0.0000000000000E+00
 0.0000000000000E+00
 0.0000000000000E+00
 0.0000000000000E+00
 0.0000000000000E+00
 0.0000000000000E+00
 0.0000000000000E+00
 0.0000000000000E+00
 0.0000000000000E+00
 0.0000000000000E+00
 0.0000000000000E+00
 0.0000000000000E+00
 0.0000000000000E+00
 0.0000000000000E+00
 0.0000000000000E+00
 0.0000000000000E+00
 0.0000000000000E+00
 0.0000000000000E+00
 0.0000000000000E+00
 0.0000000000000E+00
 0.0000000000000E+00
 0.0000000000000E+00
 0.0000000000000E+00
 0.0000000000000E+00
 0.0000000000000E+00
 0.0000000000000E+00
 0.0000000000000E+00
 0.0000000000000E+00
 0.0000000000000E+00
 0.0000000000000E+00
 0.0000000000000E+00
 0.0000000000000E+00
 0.0000000000000E+00
 0.0000000000000E+00
 0.0000000000000E+00
 0.0000000000000E+00
 0.0000000000000E+00
 0.0000000000000E+00
 0.0000000000000E+00
 0.0000000000000E+00
 0.0000000000000E+00
 0.0000000000000E+00
 0.0000000000000E+00
 0.0000000000000E+00
 0.0000000000000E+00
 0.0000000000000E+00
 0.0000000000000E+00
 0.0000000000000E+00
 0.0000000000000E+00
 0.0000000000000E+00
 0.0000000000000E+00
 0.0000000000000E+00
 0.0000000000000E+00
 0.0000000000000E+00
 0.0000000000000E+00
 0.0000000000000E+00
 0.0000000000000E+00
 0.0000000000000E+00
 0.0000000000000E+00
 0.0000000000000E+00
 0.0000000000000E+00
 0.0000000000000E+00
 0.0000000000000E+00
 0.0000000000000E+00
 0.0000000000000E+00
 0.0000000000000E+00
 0.0000000000000E+00
 0.0000000000000E+00
 0.0000000000000E+00
 0.0000000000000E+00
 0.0000000000000E+00
 0.0000000000000E+00
 0.0000000000000E+00
 0.0000000000000E+00
 0.0000000000000E+00
 0.0000000000000E+00
 0.0000000000000E+00
 0.0000000000000E+00
 0.0000000000000E+00
 0.0000000000000E+00
 0.0000000000000E+00
 0.0000000000000E+00
 0.0000000000000E+00
 0.0000000000000E+00
 0.0000000000000E+00
 0.0000000000000E+00
 0.0000000000000E+00
 0.0000000000000E+00
 0.0000000000000E+00
 0.0000000000000E+00
 0.0000000000000E+00
 0.0000000000000E+00
 0.0000000000000E+00
 0.0000000000000E+00
 0.0000000000000E+00
 0.0000000000000E+00
 0.0000000000000E+00
 0.0000000000000E+00
 0.0000000000000E+00
 0.0000000000000E+00
 0.0000000000000E+00
 0.0000000000000E+00
 0.0000000000000E+00
 0.0000000000000E+00
 0.0000000000000E+00
 0.0000000000000E+00
 0.0000000000000E+00
 0.0000000000000E+00
 0.0000000000000E+00
 0.0000000000000E+00
 0.0000000000000E+00
 0.0000000000000E+00
 0.0000000000000E+00
 0.0000000000000E+00
 0.0000000000000E+00
 0.0000000000000E+00
 0.0000000000000E+00
 0.0000000000000E+00
 0.0000000000000E+00
 0.0000000000000E+00
 0.0000000000000E+00
 0.0000000000000E+00
 0.0000000000000E+00
 0.0000000000000E+00
 0.0000000000000E+00
 0.0000000000000E+00
 0.0000000000000E+00
 0.0000000000000E+00
 0.0000000000000E+00
 0.0000000000000E+00
 0.0000000000000E+00
 0.0000000000000E+00
 0.0000000000000E+00
 0.0000000000000E+00
 0.0000000000000E+00
 0.0000000000000E+00
 0.0000000000000E+00
 0.0000000000000E+00
 0.0000000000000E+00
 0.0000000000000E+00
 0.0000000000000E+00
 0.0000000000000E+00
 0.0000000000000E+00
 0.0000000000000E+00
 0.0000000000000E+00
 0.0000000000000E+00
 0.0000000000000E+00
 0.0000000000000E+00
 0.0000000000000E+00
 0.0000000000000E+00
 0.0000000000000E+00
 0.0000000000000E+00
 0.0000000000000E+00
 0.0000000000000E+00
 0.0000000000000E+00
 0.0000000000000E+00
 0.0000000000000E+00
 0.0000000000000E+00
 0.0000000000000E+00
 0.0000000000000E+00
 0.0000000000000E+00
 0.0000000000000E+00
 0.0000000000000E+00
 0.0000000000000E+00
 0.0000000000000E+00
 0.0000000000000E+00
 0.0000000000000E+00
 0.0000000000000E+00
 0.0000000000000E+00
 0.0000000000000E+00
 0.0000000000000E+00
 0.0000000000000E+00
 0.0000000000000E+00
 0.0000000000000E+00
 0.0000000000000E+00
 0.0000000000000E+00
 0.0000000000000E+00
 0.0000000000000E+00
 0.0000000000000E+00
 0.0000000000000E+00
 0.0000000000000E+00
 0.0000000000000E+00
 0.0000000000000E+00
 0.0000000000000E+00
 0.0000000000000E+00
 0.0000000000000E+00
 0.0000000000000E+00
 0.0000000000000E+00
 0.0000000000000E+00
 0.0000000000000E+00
 0.0000000000000E+00
 0.0000000000000E+00
 0.0000000000000E+00
 0.0000000000000E+00
 0.0000000000000E+00
 0.0000000000000E+00
 0.0000000000000E+00
 0.0000000000000E+00
 0.0000000000000E+00
 0.0000000000000E+00
 0.0000000000000E+00
 0.0000000000000E+00
 0.0000000000000E+00
 0.0000000000000E+00
 0.0000000000000E+00
 0.0000000000000E+00
 0.0000000000000E+00
 0.0000000000000E+00
 0.0000000000000E+00
 0.0000000000000E+00
 0.0000000000000E+00
 0.0000000000000E+00
 0.0000000000000E+00
 0.0000000000000E+00
 0.0000000000000E+00
 0.0000000000000E+00
 0.0000000000000E+00
 0.0000000000000E+00
 0.0000000000000E+00
 0.0000000000000E+00
 0.0000000000000E+00
 0.0000000000000E+00
 0.0000000000000E+00
 0.0000000000000E+00
 0.0000000000000E+00
 0.0000000000000E+00
 0.0000000000000E+00
 0.0000000000000E+00
 0.0000000000000E+00
 0.0000000000000E+00
 0.0000000000000E+00
 0.0000000000000E+00
 0.0000000000000E+00
 0.0000000000000E+00
 0.0000000000000E+00
 0.0000000000000E+00
 0.0000000000000E+00
 0.0000000000000E+00
 0.0000000000000E+00
 0.0000000000000E+00
 0.0000000000000E+00
 0.0000000000000E+00
 0.0000000000000E+00
 0.0000000000000E+00
 0.0000000000000E+00
 0.0000000000000E+00
 0.0000000000000E+00
 0.0000000000000E+00
 0.0000000000000E+00
 0.0000000000000E+00
 0.0000000000000E+00
 0.0000000000000E+00
 0.0000000000000E+00
 0.0000000000000E+00
 0.0000000000000E+00
 0.0000000000000E+00
 0.0000000000000E+00
 0.0000000000000E+00
 0.0000000000000E+00
 0.0000000000000E+00
 0.0000000000000E+00
 0.0000000000000E+00
 0.0000000000000E+00
 0.0000000000000E+00
 0.0000000000000E+00
 0.0000000000000E+00
 0.0000000000000E+00
 0.0000000000000E+00
 0.0000000000000E+00
 0.0000000000000E+00
 0.0000000000000E+00
 0.0000000000000E+00
 0.0000000000000E+00
 0.0000000000000E+00
 0.0000000000000E+00
 0.0000000000000E+00
 0.0000000000000E+00
 0.0000000000000E+00
 0.0000000000000E+00
 0.0000000000000E+00
 0.0000000000000E+00
 0.0000000000000E+00
 0.0000000000000E+00
 0.0000000000000E+00
 0.0000000000000E+00
 0.0000000000000E+00
 0.0000000000000E+00
 0.0000000000000E+00
 0.0000000000000E+00
 0.0000000000000E+00
 0.0000000000000E+00
 0.0000000000000E+00
 0.0000000000000E+00
 0.0000000000000E+00
 0.0000000000000E+00
 0.0000000000000E+00
 0.0000000000000E+00
 0.0000000000000E+00
 0.0000000000000E+00
 0.0000000000000E+00
 0.0000000000000E+00
 0.0000000000000E+00
 0.0000000000000E+00
 0.0000000000000E+00
 0.0000000000000E+00
 0.0000000000000E+00
 0.0000000000000E+00
 0.0000000000000E+00
 0.0000000000000E+00
 0.0000000000000E+00
 0.0000000000000E+00
 0.0000000000000E+00
 0.0000000000000E+00
 0.0000000000000E+00
 0.0000000000000E+00
 0.0000000000000E+00
 0.0000000000000E+00
 0.0000000000000E+00
 0.0000000000000E+00
 0.0000000000000E+00
 0.0000000000000E+00
 0.0000000000000E+00
 0.0000000000000E+00
 0.0000000000000E+00
 0.0000000000000E+00
 0.0000000000000E+00
 0.0000000000000E+00
 0.0000000000000E+00
 0.0000000000000E+00
 0.0000000000000E+00
 0.0000000000000E+00
 0.0000000000000E+00
 0.0000000000000E+00
 0.0000000000000E+00
 0.0000000000000E+00
 0.0000000000000E+00
 0.0000000000000E+00
 0.0000000000000E+00
 0.0000000000000E+00
 0.0000000000000E+00
 0.0000000000000E+00
 0.0000000000000E+00
 0.0000000000000E+00
 0.0000000000000E+00
 0.0000000000000E+00
 0.0000000000000E+00
 0.0000000000000E+00
 0.0000000000000E+00
 0.0000000000000E+00
 0.0000000000000E+00
 0.0000000000000E+00
 0.0000000000000E+00
 0.0000000000000E+00
 0.0000000000000E+00
 0.0000000000000E+00
 0.0000000000000E+00
 0.0000000000000E+00
 0.0000000000000E+00
 0.0000000000000E+00
 0.0000000000000E+00
 0.0000000000000E+00
 0.0000000000000E+00
 0.0000000000000E+00
 0.0000000000000E+00
 0.0000000000000E+00
 0.0000000000000E+00
 0.0000000000000E+00
 0.0000000000000E+00
 0.0000000000000E+00
 0.0000000000000E+00
 0.0000000000000E+00
 0.0000000000000E+00
 0.0000000000000E+00
 0.0000000000000E+00
 0.0000000000000E+00
 0.0000000000000E+00
 0.0000000000000E+00
 0.0000000000000E+00
 0.0000000000000E+00
 0.0000000000000E+00
 0.0000000000000E+00
 0.0000000000000E+00
 0.0000000000000E+00
 0.0000000000000E+00
 0.0000000000000E+00
 0.0000000000000E+00
 0.0000000000000E+00
 0.0000000000000E+00
 0.0000000000000E+00
 0.0000000000000E+00
 0.0000000000000E+00
 0.0000000000000E+00
 0.0000000000000E+00
 0.0000000000000E+00
 0.0000000000000E+00
 0.0000000000000E+00
 0.0000000000000E+00
 0.0000000000000E+00
 0.0000000000000E+00
 0.0000000000000E+00
 0.0000000000000E+00
 0.0000000000000E+00
 0.0000000000000E+00
 0.0000000000000E+00
 0.0000000000000E+00
 0.0000000000000E+00
 0.0000000000000E+00
 0.0000000000000E+00
 0.0000000000000E+00
 0.0000000000000E+00
 0.0000000000000E+00
 0.0000000000000E+00
 0.0000000000000E+00
 0.0000000000000E+00
 0.0000000000000E+00
 0.0000000000000E+00
 0.0000000000000E+00
 0.0000000000000E+00
 0.0000000000000E+00
 0.0000000000000E+00
 0.0000000000000E+00
 0.0000000000000E+00
 0.0000000000000E+00
 0.0000000000000E+00
 0.0000000000000E+00
 0.0000000000000E+00
 0.0000000000000E+00
 0.0000000000000E+00
 0.0000000000000E+00
 0.0000000000000E+00
 0.0000000000000E+00
 0.0000000000000E+00
 0.0000000000000E+00
 0.0000000000000E+00
 0.0000000000000E+00
 0.0000000000000E+00
 0.0000000000000E+00
 0.0000000000000E+00
 0.0000000000000E+00
 0.0000000000000E+00
 0.0000000000000E+00
 0.0000000000000E+00
 0.0000000000000E+00
 0.0000000000000E+00
 0.0000000000000E+00
 0.0000000000000E+00
 0.0000000000000E+00
 0.0000000000000E+00
 0.0000000000000E+00
 0.0000000000000E+00
 0.0000000000000E+00
 0.0000000000000E+00
 0.0000000000000E+00
 0.0000000000000E+00
 0.0000000000000E+00
 0.0000000000000E+00
 0.0000000000000E+00
 0.0000000000000E+00
 0.0000000000000E+00
 0.0000000000000E+00
 0.0000000000000E+00
 0.0000000000000E+00
 0.0000000000000E+00
 0.0000000000000E+00
 0.0000000000000E+00
 0.0000000000000E+00
 0.0000000000000E+00
 0.0000000000000E+00
 0.0000000000000E+00
 0.0000000000000E+00
 0.0000000000000E+00
 0.0000000000000E+00
 0.0000000000000E+00
 0.0000000000000E+00
 0.0000000000000E+00
 0.0000000000000E+00
 0.0000000000000E+00
 0.0000000000000E+00
 0.0000000000000E+00
 0.0000000000000E+00
 0.0000000000000E+00
 0.0000000000000E+00
 0.0000000000000E+00
 0.0000000000000E+00
 0.0000000000000E+00
 0.0000000000000E+00
 0.0000000000000E+00
 0.0000000000000E+00
 0.0000000000000E+00
 0.0000000000000E+00
 0.0000000000000E+00
 0.0000000000000E+00
 0.0000000000000E+00
 0.0000000000000E+00
 0.0000000000000E+00
 0.0000000000000E+00
 0.0000000000000E+00
 0.0000000000000E+00
 0.0000000000000E+00
 0.0000000000000E+00
 0.0000000000000E+00
 0.0000000000000E+00
 0.0000000000000E+00
 0.0000000000000E+00
 0.0000000000000E+00
 0.0000000000000E+00
 0.0000000000000E+00
 0.0000000000000E+00
 0.0000000000000E+00
 0.0000000000000E+00
 0.0000000000000E+00
 0.0000000000000E+00
 0.0000000000000E+00
 0.0000000000000E+00
 0.0000000000000E+00
 0.0000000000000E+00
 0.0000000000000E+00
 0.0000000000000E+00
 0.0000000000000E+00
 0.0000000000000E+00
 0.0000000000000E+00
 0.0000000000000E+00
 0.0000000000000E+00
 0.0000000000000E+00
 0.0000000000000E+00
 0.0000000000000E+00
 0.0000000000000E+00
 0.0000000000000E+00
 0.0000000000000E+00
 0.0000000000000E+00
 0.0000000000000E+00
 0.0000000000000E+00
 0.0000000000000E+00
 0.0000000000000E+00
 0.0000000000000E+00
 0.0000000000000E+00
 0.0000000000000E+00
 0.0000000000000E+00
 0.0000000000000E+00
 0.0000000000000E+00
 0.0000000000000E+00
 0.0000000000000E+00
 0.0000000000000E+00
 0.0000000000000E+00
 0.0000000000000E+00
 0.0000000000000E+00
 0.0000000000000E+00
 0.0000000000000E+00
 0.0000000000000E+00
 0.0000000000000E+00
 0.0000000000000E+00
 0.0000000000000E+00
 0.0000000000000E+00
 0.0000000000000E+00
 0.0000000000000E+00
 0.0000000000000E+00
 0.0000000000000E+00
 0.0000000000000E+00
 0.0000000000000E+00
 0.0000000000000E+00
 0.0000000000000E+00
 0.0000000000000E+00
 0.0000000000000E+00
 0.0000000000000E+00
 0.0000000000000E+00
 0.0000000000000E+00
 0.0000000000000E+00
 0.0000000000000E+00
 0.0000000000000E+00
 0.0000000000000E+00
 0.0000000000000E+00
 0.0000000000000E+00
 0.0000000000000E+00
 0.0000000000000E+00
 0.0000000000000E+00
 0.0000000000000E+00
 0.0000000000000E+00
 0.0000000000000E+00
 0.0000000000000E+00
 0.0000000000000E+00
 0.0000000000000E+00
 0.0000000000000E+00
 0.0000000000000E+00
 0.0000000000000E+00
 0.0000000000000E+00
 0.0000000000000E+00
 0.0000000000000E+00
 0.0000000000000E+00
 0.0000000000000E+00
 0.0000000000000E+00
 0.0000000000000E+00
 0.0000000000000E+00
 0.0000000000000E+00
 0.0000000000000E+00
 0.0000000000000E+00
 0.0000000000000E+00
 0.0000000000000E+00
 0.0000000000000E+00
 0.0000000000000E+00
 0.0000000000000E+00
 0.0000000000000E+00
 0.0000000000000E+00
 0.0000000000000E+00
 0.0000000000000E+00
 0.0000000000000E+00
 0.0000000000000E+00
 0.0000000000000E+00
 0.0000000000000E+00
 0.0000000000000E+00
 0.0000000000000E+00
 0.0000000000000E+00
 0.0000000000000E+00
 0.0000000000000E+00
 0.0000000000000E+00
 0.0000000000000E+00
 0.0000000000000E+00
 0.0000000000000E+00
 0.0000000000000E+00
 0.0000000000000E+00
 0.0000000000000E+00
 0.0000000000000E+00
 0.0000000000000E+00
 0.0000000000000E+00
 0.0000000000000E+00
 0.0000000000000E+00
 0.0000000000000E+00
 0.0000000000000E+00
 0.0000000000000E+00
 0.0000000000000E+00
 0.0000000000000E+00
 0.0000000000000E+00
 0.0000000000000E+00
 0.0000000000000E+00
 0.0000000000000E+00
 0.0000000000000E+00
 0.0000000000000E+00
 0.0000000000000E+00
 0.0000000000000E+00
 0.0000000000000E+00
 0.0000000000000E+00
 0.0000000000000E+00
 0.0000000000000E+00
 0.0000000000000E+00
 0.0000000000000E+00
 0.0000000000000E+00
 0.0000000000000E+00
 0.0000000000000E+00
 0.0000000000000E+00
 0.0000000000000E+00
 0.0000000000000E+00
 0.0000000000000E+00
 0.0000000000000E+00
 0.0000000000000E+00
 0.0000000000000E+00
 0.0000000000000E+00
 0.0000000000000E+00
 0.0000000000000E+00
 0.0000000000000E+00
 0.0000000000000E+00
 0.0000000000000E+00
 0.0000000000000E+00
 0.0000000000000E+00
 0.0000000000000E+00
 0.0000000000000E+00
 0.0000000000000E+00
 0.0000000000000E+00
 0.0000000000000E+00
 0.0000000000000E+00
 0.0000000000000E+00
 0.0000000000000E+00
 0.0000000000000E+00
 0.0000000000000E+00
 0.0000000000000E+00
 0.0000000000000E+00
 0.0000000000000E+00
 0.0000000000000E+00
 0.0000000000000E+00
 0.0000000000000E+00
 0.0000000000000E+00
 0.0000000000000E+00
 0.0000000000000E+00
 0.0000000000000E+00
 0.0000000000000E+00
 0.0000000000000E+00
 0.0000000000000E+00
 0.0000000000000E+00
 0.0000000000000E+00
 0.0000000000000E+00
 0.0000000000000E+00
 0.0000000000000E+00
 0.0000000000000E+00
 0.0000000000000E+00
 0.0000000000000E+00
 0.0000000000000E+00
 0.0000000000000E+00
 0.0000000000000E+00
 0.0000000000000E+00
 0.0000000000000E+00
 0.0000000000000E+00
 0.0000000000000E+00
 0.0000000000000E+00
 0.0000000000000E+00
 0.0000000000000E+00
 0.0000000000000E+00
 0.0000000000000E+00
 0.0000000000000E+00
 0.0000000000000E+00
 0.0000000000000E+00
 0.0000000000000E+00
 0.0000000000000E+00
 0.0000000000000E+00
 0.0000000000000E+00
 0.0000000000000E+00
 0.0000000000000E+00
 0.0000000000000E+00
 0.0000000000000E+00
 0.0000000000000E+00
 0.0000000000000E+00
 0.0000000000000E+00
 0.0000000000000E+00
 0.0000000000000E+00
 0.0000000000000E+00
 0.0000000000000E+00
 0.0000000000000E+00
 0.0000000000000E+00
 0.0000000000000E+00
 0.0000000000000E+00
 0.0000000000000E+00
 0.0000000000000E+00
 0.0000000000000E+00
 0.0000000000000E+00
 0.0000000000000E+00
 0.0000000000000E+00
 0.0000000000000E+00
 0.0000000000000E+00
 0.0000000000000E+00
 0.0000000000000E+00
 0.0000000000000E+00
 0.0000000000000E+00
 0.0000000000000E+00
 0.0000000000000E+00
 0.0000000000000E+00
 0.0000000000000E+00
 0.0000000000000E+00
 0.0000000000000E+00
 0.0000000000000E+00
 0.0000000000000E+00
 0.0000000000000E+00
 0.0000000000000E+00
 0.0000000000000E+00
 0.0000000000000E+00
 0.0000000000000E+00
 0.0000000000000E+00
 0.0000000000000E+00
 0.0000000000000E+00
 0.0000000000000E+00
 0.0000000000000E+00
 0.0000000000000E+00
 0.0000000000000E+00
 0.0000000000000E+00
 0.0000000000000E+00
 0.0000000000000E+00
 0.0000000000000E+00
 0.0000000000000E+00
 0.0000000000000E+00
 0.0000000000000E+00
 0.0000000000000E+00
 0.0000000000000E+00
 0.0000000000000E+00
 0.0000000000000E+00
 0.0000000000000E+00
 0.0000000000000E+00
 0.0000000000000E+00
 0.0000000000000E+00
 0.0000000000000E+00
 0.0000000000000E+00
 0.0000000000000E+00
 0.0000000000000E+00
 0.0000000000000E+00
 0.0000000000000E+00
 0.0000000000000E+00
 0.0000000000000E+00
 0.0000000000000E+00
 0.0000000000000E+00
 0.0000000000000E+00
 0.0000000000000E+00
 0.0000000000000E+00
 0.0000000000000E+00
 0.0000000000000E+00
 0.0000000000000E+00
 0.0000000000000E+00
 0.0000000000000E+00
 0.0000000000000E+00
 0.0000000000000E+00
 0.0000000000000E+00
 0.0000000000000E+00
 0.0000000000000E+00
 0.0000000000000E+00
 0.0000000000000E+00
 0.0000000000000E+00
 0.0000000000000E+00
 0.0000000000000E+00
 0.0000000000000E+00
 0.0000000000000E+00
 0.0000000000000E+00
 0.0000000000000E+00
 0.0000000000000E+00
 0.0000000000000E+00
 0.0000000000000E+00
 0.0000000000000E+00
 0.0000000000000E+00
 0.0000000000000E+00
 0.0000000000000E+00
 0.0000000000000E+00
 0.0000000000000E+00
 0.0000000000000E+00
 0.0000000000000E+00
 0.0000000000000E+00
 0.0000000000000E+00
 0.0000000000000E+00
 0.0000000000000E+00
 0.0000000000000E+00
 0.0000000000000E+00
 0.0000000000000E+00
 0.0000000000000E+00
 0.0000000000000E+00
 0.0000000000000E+00
 0.0000000000000E+00
 0.0000000000000E+00
 0.0000000000000E+00
 0.0000000000000E+00
 0.0000000000000E+00
 0.0000000000000E+00
 0.0000000000000E+00
 0.0000000000000E+00
 0.0000000000000E+00
 0.0000000000000E+00
 0.0000000000000E+00
 0.0000000000000E+00
 0.0000000000000E+00
 0.0000000000000E+00
 0.0000000000000E+00
 0.0000000000000E+00
 0.0000000000000E+00
 0.0000000000000E+00
 0.0000000000000E+00
 0.0000000000000E+00
 0.0000000000000E+00
 0.0000000000000E+00
 0.0000000000000E+00
 0.0000000000000E+00
 0.0000000000000E+00
 0.0000000000000E+00
 0.0000000000000E+00
 0.0000000000000E+00
 0.0000000000000E+00
 0.0000000000000E+00
 0.0000000000000E+00
 0.0000000000000E+00
 0.0000000000000E+00
 0.0000000000000E+00
 0.0000000000000E+00
 0.0000000000000E+00
 0.0000000000000E+00
 0.0000000000000E+00
 0.0000000000000E+00
 0.0000000000000E+00
 0.0000000000000E+00
 0.0000000000000E+00
 0.0000000000000E+00
 0.0000000000000E+00
 0.0000000000000E+00
 0.0000000000000E+00
 0.0000000000000E+00
 0.0000000000000E+00
 0.0000000000000E+00
 0.0000000000000E+00
 0.0000000000000E+00
 0.0000000000000E+00
 0.0000000000000E+00
 0.0000000000000E+00
 0.0000000000000E+00
 0.0000000000000E+00
 0.0000000000000E+00
 0.0000000000000E+00
 0.0000000000000E+00
 0.0000000000000E+00
 0.0000000000000E+00
 0.0000000000000E+00
 0.0000000000000E+00
 0.0000000000000E+00
 0.0000000000000E+00
 0.0000000000000E+00
 0.0000000000000E+00
 0.0000000000000E+00
 0.0000000000000E+00
 0.0000000000000E+00
 0.0000000000000E+00
 0.0000000000000E+00
 0.0000000000000E+00
 0.0000000000000E+00
 0.0000000000000E+00
 0.0000000000000E+00
 0.0000000000000E+00
 0.0000000000000E+00
 0.0000000000000E+00
 0.0000000000000E+00
 0.0000000000000E+00
 0.0000000000000E+00
 0.0000000000000E+00
 0.0000000000000E+00
 0.0000000000000E+00
 0.0000000000000E+00
 0.0000000000000E+00
 0.0000000000000E+00
 0.0000000000000E+00
 0.0000000000000E+00
 0.0000000000000E+00
 0.0000000000000E+00
 0.0000000000000E+00
 0.0000000000000E+00
 0.0000000000000E+00
 0.0000000000000E+00
 0.0000000000000E+00
 0.0000000000000E+00
 0.0000000000000E+00
 0.0000000000000E+00
 0.0000000000000E+00
 0.0000000000000E+00
 0.0000000000000E+00
 0.0000000000000E+00
 0.0000000000000E+00
 0.0000000000000E+00
 0.0000000000000E+00
 0.0000000000000E+00
 0.0000000000000E+00
 0.0000000000000E+00
 0.0000000000000E+00
 0.0000000000000E+00
 0.0000000000000E+00
 0.0000000000000E+00
 0.0000000000000E+00
 0.0000000000000E+00
 0.0000000000000E+00
 0.0000000000000E+00
 0.0000000000000E+00
 0.0000000000000E+00
 0.0000000000000E+00
 0.0000000000000E+00
 0.0000000000000E+00
 0.0000000000000E+00
 0.0000000000000E+00
 0.0000000000000E+00
 0.0000000000000E+00
 0.0000000000000E+00
 0.0000000000000E+00
 0.0000000000000E+00
 0.0000000000000E+00
 0.0000000000000E+00
 0.0000000000000E+00
 0.0000000000000E+00
 0.0000000000000E+00
 0.0000000000000E+00
 0.0000000000000E+00
 0.0000000000000E+00
 0.0000000000000E+00
 0.0000000000000E+00
 0.0000000000000E+00
 0.0000000000000E+00
 0.0000000000000E+00
 0.0000000000000E+00
 0.0000000000000E+00
 0.0000000000000E+00
 0.0000000000000E+00
 0.0000000000000E+00
 0.0000000000000E+00
 0.0000000000000E+00
 0.0000000000000E+00
 0.0000000000000E+00
 0.0000000000000E+00
 0.0000000000000E+00
 0.0000000000000E+00
 0.0000000000000E+00
 0.0000000000000E+00
 0.0000000000000E+00
 0.0000000000000E+00
 0.0000000000000E+00
 0.0000000000000E+00
 0.0000000000000E+00
 0.0000000000000E+00
 0.0000000000000E+00
 0.0000000000000E+00
 0.0000000000000E+00
 0.0000000000000E+00
 0.0000000000000E+00
 0.0000000000000E+00
 0.0000000000000E+00
 0.0000000000000E+00
 0.0000000000000E+00
 0.0000000000000E+00
 0.0000000000000E+00
 0.0000000000000E+00
 0.0000000000000E+00
 0.0000000000000E+00
 0.0000000000000E+00
 0.0000000000000E+00
 0.0000000000000E+00
 0.0000000000000E+00
 0.0000000000000E+00
 0.0000000000000E+00
 0.0000000000000E+00
 0.0000000000000E+00
 0.0000000000000E+00
 0.0000000000000E+00
 0.0000000000000E+00
 0.0000000000000E+00
 0.0000000000000E+00
 0.0000000000000E+00
 0.0000000000000E+00
 0.0000000000000E+00
 0.0000000000000E+00
 0.0000000000000E+00
 0.0000000000000E+00
 0.0000000000000E+00
 0.0000000000000E+00
 0.0000000000000E+00
 0.0000000000000E+00
 0.0000000000000E+00
 0.0000000000000E+00
 0.0000000000000E+00
 0.0000000000000E+00
 0.0000000000000E+00
 0.0000000000000E+00
 0.0000000000000E+00
 0.0000000000000E+00
 0.0000000000000E+00
 0.0000000000000E+00
 0.0000000000000E+00
 0.0000000000000E+00
 0.0000000000000E+00
 0.0000000000000E+00
 0.0000000000000E+00
 0.0000000000000E+00
 0.0000000000000E+00
 0.0000000000000E+00
 0.0000000000000E+00
 0.0000000000000E+00
 0.0000000000000E+00
 0.0000000000000E+00
 0.0000000000000E+00
 0.0000000000000E+00
 0.0000000000000E+00
 0.0000000000000E+00
 0.0000000000000E+00
 0.0000000000000E+00
 0.0000000000000E+00
 0.0000000000000E+00
 0.0000000000000E+00
 0.0000000000000E+00
 0.0000000000000E+00
 0.0000000000000E+00
 0.0000000000000E+00
 0.0000000000000E+00
 0.0000000000000E+00
 0.0000000000000E+00
 0.0000000000000E+00
 0.0000000000000E+00
 0.0000000000000E+00
 0.0000000000000E+00
 0.0000000000000E+00
 0.0000000000000E+00
 0.0000000000000E+00
 0.0000000000000E+00
 0.0000000000000E+00
 0.0000000000000E+00
 0.0000000000000E+00
 0.0000000000000E+00
 0.0000000000000E+00
 0.0000000000000E+00
 0.0000000000000E+00
 0.0000000000000E+00
 0.0000000000000E+00
 0.0000000000000E+00
 0.0000000000000E+00
 0.0000000000000E+00
 0.0000000000000E+00
 0.0000000000000E+00
 0.0000000000000E+00
 0.0000000000000E+00
 0.0000000000000E+00
 0.0000000000000E+00
 0.0000000000000E+00
 0.0000000000000E+00
 0.0000000000000E+00
 0.0000000000000E+00
 0.0000000000000E+00
 0.0000000000000E+00
 0.0000000000000E+00
 0.0000000000000E+00
 0.0000000000000E+00
 0.0000000000000E+00
 0.0000000000000E+00
 0.0000000000000E+00
 0.0000000000000E+00
 0.0000000000000E+00
 0.0000000000000E+00
 0.0000000000000E+00
 0.0000000000000E+00
 0.0000000000000E+00
 0.0000000000000E+00
 0.0000000000000E+00
 0.0000000000000E+00
 0.0000000000000E+00
 0.0000000000000E+00
 0.0000000000000E+00
 0.0000000000000E+00
 0.0000000000000E+00
 0.0000000000000E+00
 0.0000000000000E+00
 0.0000000000000E+00
 0.0000000000000E+00
 0.0000000000000E+00
 0.0000000000000E+00
 0.0000000000000E+00
 0.0000000000000E+00
 0.0000000000000E+00
 0.0000000000000E+00
 0.0000000000000E+00
 0.0000000000000E+00
 0.0000000000000E+00
 0.0000000000000E+00
 0.0000000000000E+00
 0.0000000000000E+00
 0.0000000000000E+00
 0.0000000000000E+00
 0.0000000000000E+00
 0.0000000000000E+00
 0.0000000000000E+00
 0.0000000000000E+00
 0.0000000000000E+00
 0.0000000000000E+00
 0.0000000000000E+00
 0.0000000000000E+00
 0.0000000000000E+00
 0.0000000000000E+00
 0.0000000000000E+00
 0.0000000000000E+00
 0.0000000000000E+00
 0.0000000000000E+00
 0.0000000000000E+00
 0.0000000000000E+00
 0.0000000000000E+00
 0.0000000000000E+00
 0.0000000000000E+00
 0.0000000000000E+00
 0.0000000000000E+00
 0.0000000000000E+00
 0.0000000000000E+00
 0.0000000000000E+00
 0.0000000000000E+00
 0.0000000000000E+00
 0.0000000000000E+00
 0.0000000000000E+00
 0.0000000000000E+00
 0.0000000000000E+00
 0.0000000000000E+00
 0.0000000000000E+00
 0.0000000000000E+00
 0.0000000000000E+00
 0.0000000000000E+00
 0.0000000000000E+00
 0.0000000000000E+00
 0.0000000000000E+00
 0.0000000000000E+00
 0.0000000000000E+00
 0.0000000000000E+00
 0.0000000000000E+00
 0.0000000000000E+00
 0.0000000000000E+00
 0.0000000000000E+00
 0.0000000000000E+00
 0.0000000000000E+00
 0.0000000000000E+00
 0.0000000000000E+00
 0.0000000000000E+00
 0.0000000000000E+00
 0.0000000000000E+00
 0.0000000000000E+00
 0.0000000000000E+00
 0.0000000000000E+00
 0.0000000000000E+00
 0.0000000000000E+00
 0.0000000000000E+00
 0.0000000000000E+00
 0.0000000000000E+00
 0.0000000000000E+00
 0.0000000000000E+00
 0.0000000000000E+00
 0.0000000000000E+00
 0.0000000000000E+00
 0.0000000000000E+00
 0.0000000000000E+00
 0.0000000000000E+00
 0.0000000000000E+00
 0.0000000000000E+00
 0.0000000000000E+00
 0.0000000000000E+00
 0.0000000000000E+00
 0.0000000000000E+00
 0.0000000000000E+00
 0.0000000000000E+00
 0.0000000000000E+00
 0.0000000000000E+00
 0.0000000000000E+00
 0.0000000000000E+00
 0.0000000000000E+00
 0.0000000000000E+00
 0.0000000000000E+00
 0.0000000000000E+00
 0.0000000000000E+00
 0.0000000000000E+00
 0.0000000000000E+00
 0.0000000000000E+00
 0.0000000000000E+00
 0.0000000000000E+00
 0.0000000000000E+00
 0.0000000000000E+00
 0.0000000000000E+00
 0.0000000000000E+00
 0.0000000000000E+00
 0.0000000000000E+00
 0.0000000000000E+00
 0.0000000000000E+00
 0.0000000000000E+00
 0.0000000000000E+00
 0.0000000000000E+00
 0.0000000000000E+00
 0.0000000000000E+00
 0.0000000000000E+00
 0.0000000000000E+00
 0.0000000000000E+00
 0.0000000000000E+00
 0.0000000000000E+00
 0.0000000000000E+00
 0.0000000000000E+00
 0.0000000000000E+00
 0.0000000000000E+00
 0.0000000000000E+00
 0.0000000000000E+00
 0.0000000000000E+00
 0.0000000000000E+00
 0.0000000000000E+00
 0.0000000000000E+00
 0.0000000000000E+00
 0.0000000000000E+00
 0.0000000000000E+00
 0.0000000000000E+00
 0.0000000000000E+00
 0.0000000000000E+00
 0.0000000000000E+00
 0.0000000000000E+00
 0.0000000000000E+00
 0.0000000000000E+00
 0.0000000000000E+00
 0.0000000000000E+00
 0.0000000000000E+00
 0.0000000000000E+00
 0.0000000000000E+00
 0.0000000000000E+00
 0.0000000000000E+00
 0.0000000000000E+00
 0.0000000000000E+00
 0.0000000000000E+00
 0.0000000000000E+00
 0.0000000000000E+00
 0.0000000000000E+00
 0.0000000000000E+00
 0.0000000000000E+00
 0.0000000000000E+00
 0.0000000000000E+00
 0.0000000000000E+00
 0.0000000000000E+00
 0.0000000000000E+00
 0.0000000000000E+00
 0.0000000000000E+00
 0.0000000000000E+00
 0.0000000000000E+00
 0.0000000000000E+00
 0.0000000000000E+00
 0.0000000000000E+00
 0.0000000000000E+00
 0.0000000000000E+00
 0.0000000000000E+00
 0.0000000000000E+00
 0.0000000000000E+00
 0.0000000000000E+00
 0.0000000000000E+00
 0.0000000000000E+00
 0.0000000000000E+00
 0.0000000000000E+00
 0.0000000000000E+00
 0.0000000000000E+00
 0.0000000000000E+00
 0.0000000000000E+00
 0.0000000000000E+00
 0.0000000000000E+00
 0.0000000000000E+00
 0.0000000000000E+00
 0.0000000000000E+00
 0.0000000000000E+00
 0.0000000000000E+00
 0.0000000000000E+00
 0.0000000000000E+00
 0.0000000000000E+00
 0.0000000000000E+00
 0.0000000000000E+00
 0.0000000000000E+00
 0.0000000000000E+00
 0.0000000000000E+00
 0.0000000000000E+00
 0.0000000000000E+00
 0.0000000000000E+00
 0.0000000000000E+00
 0.0000000000000E+00
 0.0000000000000E+00
 0.0000000000000E+00
 0.0000000000000E+00
 0.0000000000000E+00
 0.0000000000000E+00
 0.0000000000000E+00
 0.0000000000000E+00
 0.0000000000000E+00
 0.0000000000000E+00
 0.0000000000000E+00
 0.0000000000000E+00
 0.0000000000000E+00
 0.0000000000000E+00
 0.0000000000000E+00
 0.0000000000000E+00
 0.0000000000000E+00
 0.0000000000000E+00
 0.0000000000000E+00
 0.0000000000000E+00
 0.0000000000000E+00
 0.0000000000000E+00
 0.0000000000000E+00
 0.0000000000000E+00
 0.0000000000000E+00
 0.0000000000000E+00
 0.0000000000000E+00
 0.0000000000000E+00
 0.0000000000000E+00
 0.0000000000000E+00
 0.0000000000000E+00
 0.0000000000000E+00
 0.0000000000000E+00
 0.0000000000000E+00
 0.0000000000000E+00
 0.0000000000000E+00
 0.0000000000000E+00
 0.0000000000000E+00
 0.0000000000000E+00
 0.0000000000000E+00
 0.0000000000000E+00
 0.0000000000000E+00
 0.0000000000000E+00
 0.0000000000000E+00
 0.0000000000000E+00
 0.0000000000000E+00
 0.0000000000000E+00
 0.0000000000000E+00
 0.0000000000000E+00
 0.0000000000000E+00
 0.0000000000000E+00
 0.0000000000000E+00
 0.0000000000000E+00
 0.0000000000000E+00
 0.0000000000000E+00
 0.0000000000000E+00
 0.0000000000000E+00
 0.0000000000000E+00
 0.0000000000000E+00
 0.0000000000000E+00
 0.0000000000000E+00
 0.0000000000000E+00
 0.0000000000000E+00
 0.0000000000000E+00
 0.0000000000000E+00
 0.0000000000000E+00
 0.0000000000000E+00
 0.0000000000000E+00
 0.0000000000000E+00
 0.0000000000000E+00
 0.0000000000000E+00
 0.0000000000000E+00
 0.0000000000000E+00
 0.0000000000000E+00
 0.0000000000000E+00
 0.0000000000000E+00
 0.0000000000000E+00
 0.0000000000000E+00
 0.0000000000000E+00
 0.0000000000000E+00
 0.0000000000000E+00
 0.0000000000000E+00
 0.0000000000000E+00
 0.0000000000000E+00
 0.0000000000000E+00
 0.0000000000000E+00
 0.0000000000000E+00
 0.0000000000000E+00
 0.0000000000000E+00
 0.0000000000000E+00
 0.0000000000000E+00
 0.0000000000000E+00
 0.0000000000000E+00
 0.0000000000000E+00
 0.0000000000000E+00
 0.0000000000000E+00
 0.0000000000000E+00
 0.0000000000000E+00
 0.0000000000000E+00
 0.0000000000000E+00
 0.0000000000000E+00
 0.0000000000000E+00
 0.0000000000000E+00
 0.0000000000000E+00
 0.0000000000000E+00
 0.0000000000000E+00
 0.0000000000000E+00
 0.0000000000000E+00
 0.0000000000000E+00
 0.0000000000000E+00
 0.0000000000000E+00
 0.0000000000000E+00
 0.0000000000000E+00
 0.0000000000000E+00
 0.0000000000000E+00
 0.0000000000000E+00
 0.0000000000000E+00
 0.0000000000000E+00
 0.0000000000000E+00
 0.0000000000000E+00
 0.0000000000000E+00
 0.0000000000000E+00
 0.0000000000000E+00
 0.0000000000000E+00
 0.0000000000000E+00
 0.0000000000000E+00
 0.0000000000000E+00
 0.0000000000000E+00
 0.0000000000000E+00
 0.0000000000000E+00
 0.0000000000000E+00
 0.0000000000000E+00
 0.0000000000000E+00
 0.0000000000000E+00
 0.0000000000000E+00
 0.0000000000000E+00
 0.0000000000000E+00
 0.0000000000000E+00
 0.0000000000000E+00
 0.0000000000000E+00
 0.0000000000000E+00
 0.0000000000000E+00
 0.0000000000000E+00
 0.0000000000000E+00
 0.0000000000000E+00
 0.0000000000000E+00
 0.0000000000000E+00
 0.0000000000000E+00
 0.0000000000000E+00
 0.0000000000000E+00
 0.0000000000000E+00
 0.0000000000000E+00
 0.0000000000000E+00
 0.0000000000000E+00
 0.0000000000000E+00
 0.0000000000000E+00
 0.0000000000000E+00
 0.0000000000000E+00
 0.0000000000000E+00
 0.0000000000000E+00
 0.0000000000000E+00
 0.0000000000000E+00
 0.0000000000000E+00
 0.0000000000000E+00
 0.0000000000000E+00
 0.0000000000000E+00
 0.0000000000000E+00
 0.0000000000000E+00
 0.0000000000000E+00
 0.0000000000000E+00
 0.0000000000000E+00
 0.0000000000000E+00
 0.0000000000000E+00
 0.0000000000000E+00
 0.0000000000000E+00
 0.0000000000000E+00
 0.0000000000000E+00
 0.0000000000000E+00
 0.0000000000000E+00
 0.0000000000000E+00
 0.0000000000000E+00
 0.0000000000000E+00
 0.0000000000000E+00
 0.0000000000000E+00
 0.0000000000000E+00
 0.0000000000000E+00
 0.0000000000000E+00
 0.0000000000000E+00
 0.0000000000000E+00
 0.0000000000000E+00
 0.0000000000000E+00
 0.0000000000000E+00
 0.0000000000000E+00
 0.0000000000000E+00
 0.0000000000000E+00
 0.0000000000000E+00
 0.0000000000000E+00
 0.0000000000000E+00
 0.0000000000000E+00
 0.0000000000000E+00
 0.0000000000000E+00
 0.0000000000000E+00
 0.0000000000000E+00
 0.0000000000000E+00
 0.0000000000000E+00
 0.0000000000000E+00
 0.0000000000000E+00
 0.0000000000000E+00
 0.0000000000000E+00
 0.0000000000000E+00
 0.0000000000000E+00
 0.0000000000000E+00
 0.0000000000000E+00
 0.0000000000000E+00
 0.0000000000000E+00
 0.0000000000000E+00
 0.0000000000000E+00
 0.0000000000000E+00
 0.0000000000000E+00
 0.0000000000000E+00
 0.0000000000000E+00
 0.0000000000000E+00
 0.0000000000000E+00
 0.0000000000000E+00
 0.0000000000000E+00
 0.0000000000000E+00
 0.0000000000000E+00
 0.0000000000000E+00
 0.0000000000000E+00
 0.0000000000000E+00
 0.0000000000000E+00
 0.0000000000000E+00
 0.0000000000000E+00
 0.0000000000000E+00
 0.0000000000000E+00
 0.0000000000000E+00
 0.0000000000000E+00
 0.0000000000000E+00
 0.0000000000000E+00
 0.0000000000000E+00
 0.0000000000000E+00
 0.0000000000000E+00
 0.0000000000000E+00
 0.0000000000000E+00
 0.0000000000000E+00
 0.0000000000000E+00
 0.0000000000000E+00
 0.0000000000000E+00
 0.0000000000000E+00
 0.0000000000000E+00
 0.0000000000000E+00
 0.0000000000000E+00
 0.0000000000000E+00
 0.0000000000000E+00
 0.0000000000000E+00
 0.0000000000000E+00
 0.0000000000000E+00
 0.0000000000000E+00
 0.0000000000000E+00
 0.0000000000000E+00
 0.0000000000000E+00
 0.0000000000000E+00
 0.0000000000000E+00
 0.0000000000000E+00
 0.0000000000000E+00
 0.0000000000000E+00
 0.0000000000000E+00
 0.0000000000000E+00
 0.0000000000000E+00
 0.0000000000000E+00
 0.0000000000000E+00
 0.0000000000000E+00
 0.0000000000000E+00
 0.0000000000000E+00
 0.0000000000000E+00
 0.0000000000000E+00
 0.0000000000000E+00
 0.0000000000000E+00
 0.0000000000000E+00
 0.0000000000000E+00
 0.0000000000000E+00
 0.0000000000000E+00
 0.0000000000000E+00
 0.0000000000000E+00
 0.0000000000000E+00
 0.0000000000000E+00
 0.0000000000000E+00
 0.0000000000000E+00
 0.0000000000000E+00
 0.0000000000000E+00
 0.0000000000000E+00
 0.0000000000000E+00
 0.0000000000000E+00
 0.0000000000000E+00
 0.0000000000000E+00
 0.0000000000000E+00
 0.0000000000000E+00
 0.0000000000000E+00
 0.0000000000000E+00
 0.0000000000000E+00
 0.0000000000000E+00
 0.0000000000000E+00
 0.0000000000000E+00
 0.0000000000000E+00
 0.0000000000000E+00
 0.0000000000000E+00
 0.0000000000000E+00
 0.0000000000000E+00
 0.0000000000000E+00
 0.0000000000000E+00
 0.0000000000000E+00
 0.0000000000000E+00
 0.0000000000000E+00
 0.0000000000000E+00
 0.0000000000000E+00
 0.0000000000000E+00
 0.0000000000000E+00
 0.0000000000000E+00
 0.0000000000000E+00
 0.0000000000000E+00
 0.0000000000000E+00
 0.0000000000000E+00
 0.0000000000000E+00
 0.0000000000000E+00
 0.0000000000000E+00
 0.0000000000000E+00
 0.0000000000000E+00
 0.0000000000000E+00
 0.0000000000000E+00
 0.0000000000000E+00
 0.0000000000000E+00
 0.0000000000000E+00
 0.0000000000000E+00
 0.0000000000000E+00
 0.0000000000000E+00
 0.0000000000000E+00
 0.0000000000000E+00
 0.0000000000000E+00
 0.0000000000000E+00
 0.0000000000000E+00
 0.0000000000000E+00
 0.0000000000000E+00
 0.0000000000000E+00
 0.0000000000000E+00
 0.0000000000000E+00
 0.0000000000000E+00
 0.0000000000000E+00
 0.0000000000000E+00
 0.0000000000000E+00
 0.0000000000000E+00
 0.0000000000000E+00
 0.0000000000000E+00
 0.0000000000000E+00
 0.0000000000000E+00
 0.0000000000000E+00
 0.0000000000000E+00
 0.0000000000000E+00
 0.0000000000000E+00
 0.0000000000000E+00
 0.0000000000000E+00
 0.0000000000000E+00
 0.0000000000000E+00
 0.0000000000000E+00
 0.0000000000000E+00
 0.0000000000000E+00
 0.0000000000000E+00
 0.0000000000000E+00
 0.0000000000000E+00
 0.0000000000000E+00
 0.0000000000000E+00
 0.0000000000000E+00
 0.0000000000000E+00
 0.0000000000000E+00
 0.0000000000000E+00
 0.0000000000000E+00
 0.0000000000000E+00
 0.0000000000000E+00
 0.0000000000000E+00
 0.0000000000000E+00
 0.0000000000000E+00
 0.0000000000000E+00
 0.0000000000000E+00
 0.0000000000000E+00
 0.0000000000000E+00
 0.0000000000000E+00
 0.0000000000000E+00
 0.0000000000000E+00
 0.0000000000000E+00
 0.0000000000000E+00
 0.0000000000000E+00
 0.0000000000000E+00
 0.0000000000000E+00
 0.0000000000000E+00
 0.0000000000000E+00
 0.0000000000000E+00
 0.0000000000000E+00
 0.0000000000000E+00
 0.0000000000000E+00
 0.0000000000000E+00
 0.0000000000000E+00
 0.0000000000000E+00
 0.0000000000000E+00
 0.0000000000000E+00
 0.0000000000000E+00
 0.0000000000000E+00
 0.0000000000000E+00
 0.0000000000000E+00
 0.0000000000000E+00
 0.0000000000000E+00
 0.0000000000000E+00
 0.0000000000000E+00
 0.0000000000000E+00
 0.0000000000000E+00
 0.0000000000000E+00
 0.0000000000000E+00
 0.0000000000000E+00
 0.0000000000000E+00
 0.0000000000000E+00
 0.0000000000000E+00
 0.0000000000000E+00
 0.0000000000000E+00
 0.0000000000000E+00
 0.0000000000000E+00
 0.0000000000000E+00
 0.0000000000000E+00
 0.0000000000000E+00
 0.0000000000000E+00
 0.0000000000000E+00
 0.0000000000000E+00
 0.0000000000000E+00
 0.0000000000000E+00
 0.0000000000000E+00
 0.0000000000000E+00
 0.0000000000000E+00
 0.0000000000000E+00
 0.0000000000000E+00
 0.0000000000000E+00
 0.0000000000000E+00
 0.0000000000000E+00
 0.0000000000000E+00
 0.0000000000000E+00
 0.0000000000000E+00
 0.0000000000000E+00
 0.0000000000000E+00
 0.0000000000000E+00
 0.0000000000000E+00
 0.0000000000000E+00
 0.0000000000000E+00
 0.0000000000000E+00
 0.0000000000000E+00
 0.0000000000000E+00
 0.0000000000000E+00
 0.0000000000000E+00
 0.0000000000000E+00
 0.0000000000000E+00
 0.0000000000000E+00
 0.0000000000000E+00
 0.0000000000000E+00
 0.0000000000000E+00
 0.0000000000000E+00
 0.0000000000000E+00
 0.0000000000000E+00
 0.0000000000000E+00
 0.0000000000000E+00
 0.0000000000000E+00
 0.0000000000000E+00
 0.0000000000000E+00
 0.0000000000000E+00
 0.0000000000000E+00
 0.0000000000000E+00
 0.0000000000000E+00
 0.0000000000000E+00
 0.0000000000000E+00
 0.0000000000000E+00
 0.0000000000000E+00
 0.0000000000000E+00
 0.0000000000000E+00
 0.0000000000000E+00
 0.0000000000000E+00
 0.0000000000000E+00
 0.0000000000000E+00
 0.0000000000000E+00
 0.0000000000000E+00
 0.0000000000000E+00
 0.0000000000000E+00
 0.0000000000000E+00
 0.0000000000000E+00
 0.0000000000000E+00
 0.0000000000000E+00
 0.0000000000000E+00
 0.0000000000000E+00
 0.0000000000000E+00
 0.0000000000000E+00
 0.0000000000000E+00
 0.0000000000000E+00
 0.0000000000000E+00
 0.0000000000000E+00
 0.0000000000000E+00
 0.0000000000000E+00
 0.0000000000000E+00
 0.0000000000000E+00
 0.0000000000000E+00
 0.0000000000000E+00
 0.0000000000000E+00
 0.0000000000000E+00
 0.0000000000000E+00
 0.0000000000000E+00
 0.0000000000000E+00
 0.0000000000000E+00
 0.0000000000000E+00
 0.0000000000000E+00
 0.0000000000000E+00
 0.0000000000000E+00
 0.0000000000000E+00
 0.0000000000000E+00
 0.0000000000000E+00
 0.0000000000000E+00
 0.0000000000000E+00
 0.0000000000000E+00
 0.0000000000000E+00
 0.0000000000000E+00
 0.0000000000000E+00
 0.0000000000000E+00
 0.0000000000000E+00
 0.0000000000000E+00
 0.0000000000000E+00
 0.0000000000000E+00
 0.0000000000000E+00
 0.0000000000000E+00
 0.0000000000000E+00
 0.0000000000000E+00
 0.0000000000000E+00
 0.0000000000000E+00
 0.0000000000000E+00
 0.0000000000000E+00
 0.0000000000000E+00
 0.0000000000000E+00
 0.0000000000000E+00
 0.0000000000000E+00
 0.0000000000000E+00
 0.0000000000000E+00
 0.0000000000000E+00
 0.0000000000000E+00
 0.0000000000000E+00
 0.0000000000000E+00
 0.0000000000000E+00
 0.0000000000000E+00
 0.0000000000000E+00
 0.0000000000000E+00
 0.0000000000000E+00
 0.0000000000000E+00
 0.0000000000000E+00
 0.0000000000000E+00
 0.0000000000000E+00
 0.0000000000000E+00
 0.0000000000000E+00
 0.0000000000000E+00
 0.0000000000000E+00
 0.0000000000000E+00
 0.0000000000000E+00
 0.0000000000000E+00
 0.0000000000000E+00
 0.0000000000000E+00
 0.0000000000000E+00
 0.0000000000000E+00
 0.0000000000000E+00
 0.0000000000000E+00
 0.0000000000000E+00
 0.0000000000000E+00
 0.0000000000000E+00
 0.0000000000000E+00
 0.0000000000000E+00
 0.0000000000000E+00
 0.0000000000000E+00
 0.0000000000000E+00
 0.0000000000000E+00
 0.0000000000000E+00
 0.0000000000000E+00
 0.0000000000000E+00
 0.0000000000000E+00
 0.0000000000000E+00
 0.0000000000000E+00
 0.0000000000000E+00
 0.0000000000000E+00
 0.0000000000000E+00
 0.0000000000000E+00
 0.0000000000000E+00
 0.0000000000000E+00
 0.0000000000000E+00
 0.0000000000000E+00
 0.0000000000000E+00
 0.0000000000000E+00
 0.0000000000000E+00
 0.0000000000000E+00
 0.0000000000000E+00
 0.0000000000000E+00
 0.0000000000000E+00
 0.0000000000000E+00
 0.0000000000000E+00
 0.0000000000000E+00
 0.0000000000000E+00
 0.0000000000000E+00
 0.0000000000000E+00
 0.0000000000000E+00
 0.0000000000000E+00
 0.0000000000000E+00
 0.0000000000000E+00
 0.0000000000000E+00
 0.0000000000000E+00
 0.0000000000000E+00
 0.0000000000000E+00
 0.0000000000000E+00
 0.0000000000000E+00
 0.0000000000000E+00
 0.0000000000000E+00
 0.0000000000000E+00
 0.0000000000000E+00
 0.0000000000000E+00
 0.0000000000000E+00
 0.0000000000000E+00
 0.0000000000000E+00
 0.0000000000000E+00
 0.0000000000000E+00
 0.0000000000000E+00
 0.0000000000000E+00
 0.0000000000000E+00
 0.0000000000000E+00
 0.0000000000000E+00
 0.0000000000000E+00
 0.0000000000000E+00
 0.0000000000000E+00
 0.0000000000000E+00
 0.0000000000000E+00
 0.0000000000000E+00
 0.0000000000000E+00
 0.0000000000000E+00
 0.0000000000000E+00
 0.0000000000000E+00
 0.0000000000000E+00
 0.0000000000000E+00
 0.0000000000000E+00
 0.0000000000000E+00
 0.0000000000000E+00
 0.0000000000000E+00
 0.0000000000000E+00
 0.0000000000000E+00
 0.0000000000000E+00
 0.0000000000000E+00
 0.0000000000000E+00
 0.0000000000000E+00
 0.0000000000000E+00
 0.0000000000000E+00
 0.0000000000000E+00
 0.0000000000000E+00
 0.0000000000000E+00
 0.0000000000000E+00
 0.0000000000000E+00
 0.0000000000000E+00
 0.0000000000000E+00
 0.0000000000000E+00
 0.0000000000000E+00
 0.0000000000000E+00
 0.0000000000000E+00
 0.0000000000000E+00
 0.0000000000000E+00
 0.0000000000000E+00
 0.0000000000000E+00
 0.0000000000000E+00
 0.0000000000000E+00
 0.0000000000000E+00
 0.0000000000000E+00
 0.0000000000000E+00
 0.0000000000000E+00
 0.0000000000000E+00
 0.0000000000000E+00
 0.0000000000000E+00
 0.0000000000000E+00
 0.0000000000000E+00
 0.0000000000000E+00
 0.0000000000000E+00
 0.0000000000000E+00
 0.0000000000000E+00
 0.0000000000000E+00
 0.0000000000000E+00
 0.0000000000000E+00
 0.0000000000000E+00
 0.0000000000000E+00
 0.0000000000000E+00
 0.0000000000000E+00
 0.0000000000000E+00
 0.0000000000000E+00
 0.0000000000000E+00
 0.0000000000000E+00
 0.0000000000000E+00
 0.0000000000000E+00
 0.0000000000000E+00
 0.0000000000000E+00
 0.0000000000000E+00
 0.0000000000000E+00
 0.0000000000000E+00
 0.0000000000000E+00
 0.0000000000000E+00
 0.0000000000000E+00
 0.0000000000000E+00
 0.0000000000000E+00
 0.0000000000000E+00
 0.0000000000000E+00
 0.0000000000000E+00
 0.0000000000000E+00
 0.0000000000000E+00
 0.0000000000000E+00
 0.0000000000000E+00
 0.0000000000000E+00
 0.0000000000000E+00
 0.0000000000000E+00
 0.0000000000000E+00
 0.0000000000000E+00
 0.0000000000000E+00
 0.0000000000000E+00
 0.0000000000000E+00
 0.0000000000000E+00
 0.0000000000000E+00
 0.0000000000000E+00
 0.0000000000000E+00
 0.0000000000000E+00
 0.0000000000000E+00
 0.0000000000000E+00
 0.0000000000000E+00
 0.0000000000000E+00
 0.0000000000000E+00
 0.0000000000000E+00
 0.0000000000000E+00
 0.0000000000000E+00
 0.0000000000000E+00
 0.0000000000000E+00
 0.0000000000000E+00
 0.0000000000000E+00
 0.0000000000000E+00
 0.0000000000000E+00
 0.0000000000000E+00
 0.0000000000000E+00
 0.0000000000000E+00
 0.0000000000000E+00
 0.0000000000000E+00
 0.0000000000000E+00
 0.0000000000000E+00
 0.0000000000000E+00
 0.0000000000000E+00
 0.0000000000000E+00
 0.0000000000000E+00
 0.0000000000000E+00
 0.0000000000000E+00
 0.0000000000000E+00
 0.0000000000000E+00
 0.0000000000000E+00
 0.0000000000000E+00
 0.0000000000000E+00
 0.0000000000000E+00
 0.0000000000000E+00
 0.0000000000000E+00
 0.0000000000000E+00
 0.0000000000000E+00
 0.0000000000000E+00
 0.0000000000000E+00
 0.0000000000000E+00
 0.0000000000000E+00
 0.0000000000000E+00
 0.0000000000000E+00
 0.0000000000000E+00
 0.0000000000000E+00
</DataArray>
<DataArray type="Int32" Name="Region" format="ascii">
           1
           1
           1
           1
           1
           1
           1
           1
           1
           1
           1
           1
           1
           1
           1
           1
           1
           1
           1
           1
           1
           1
           1
           1
           1
           1
           1
           1
           1
           1
           1
           1
           1
           1
           1
           1
           1
           1
           1
           1
           1
           1
           1
           1
           1
           1
           1
           1
           1
           1
           1
           1
           1
           1
           1
           1
           1
           1
           1
           1
           1
           1
           1
           1
           1
           1
           1
           1
           1
           1
           1
           1
           1
           1
           1
           1
           1
           1
           1
           1
           1
           1
           1
           1
           1
           1
           1
           1
           1
           1
           1
           1
           1
           1
           1
           1
           1
           1
           1
           1
           1
           1
           1
           1
           1
           1
           1
           1
           1
           1
           1
           1
           1
           1
           1
           1
           1
           1
           1
           1
           1
           1
           1
           1
           1
           1
           1
           1
           1
           1
           1
           1
           1
           1
           1
           1
           1
           1
           1
           1
           1
           1
           1
           1
           1
           1
           1
           1
           1
           1
           1
           1
           1
           1
           1
           1
           1
           1
           1
           1
           1
           1
           1
           1
           1
           1
           1
           1
           1
           1
           1
           1
           1
           1
           1
           1
           1
           1
           1
           1
           1
           1
           1
           1
           1
           1
           1
           1
           1
           1
           1
           1
           1
           1
           1
           1
           1
           1
           1
           1
           1
           1
           1
           1
           1
           1
           1
           1
           1
           1
           1
           1
           1
           1
           1
           1
           1
           1
           1
           1
           1
           1
           1
           1
           1
           1
           1
           1
           1
           1
           1
           1
           1
           1
           1
           1
           1
           1
           1
           1
           1
           1
           1
           1
           1
           1
           1
           1
           1
           1
           1
           1
           1
           1
           1
           1
           1
           1
           1
           1
           1
           1
           1
           1
           1
           1
           1
           1
           1
           1
           1
           1
           1
           1
           1
           1
           1
           1
           1
           1
           1
           1
           1
           1
           1
           1
           1
           1
           1
           1
           1
           1
           1
           1
           1
           1
           1
           1
           1
           1
           1
           1
           1
           1
           1
           1
           1
           1
           1
           1
           1
           1
           1
           1
           1
           1
           1
           1
           1
           1
           1
           1
           1
           1
           1
           1
           1
           1
           1
           1
           1
           1
           1
           1
           1
           1
           1
           1
           1
           1
           1
           1
           1
           1
           1
           1
           1
           1
           1
           1
           1
           1
           1
           1
           1
           1
           1
           1
           1
           1
           1
           1
           1
           1
           1
           1
           1
           1
           1
           1
           1
           1
           1
           1
           1
           1
           1
           1
           1
           1
           1
           1
           1
           1
           1
           1
           1
           1
           1
           1
           1
           1
           1
           1
           1
           1
           1
           1
           1
           1
           1
           1
           1
           1
           1
           1
           1
           1
           1
           1
           1
           1
           1
           1
           1
           1
           1
           1
           1
           1
           1
           1
           1
           1
           1
           1
           1
           1
           1
           1
           1
           1
           1
           1
           1
           1
           1
           1
           1
           1
           1
           1
           1
           1
           1
           1
           1
           1
           1
           1
           1
           1
           1
           1
           1
           1
           1
           1
           1
           1
           1
           1
           1
           1
           1
           1
           1
           1
           1
           1
           1
           1
           1
           1
           1
           1
           1
           1
           1
           1
           1
           1
           1
           1
           1
           1
           1
           1
           1
           1
           1
           1
           1
           1
           1
           1
           1
           1
           1
           1
           1
           1
           1
           1
           1
           1
           1
           1
           1
           1
           1
           1
           1
           1
           1
           1
           1
           1
           1
           1
           1
           1
           1
           1
           1
           1
           1
           1
           1
           1
           1
           1
           1
           1
           1
           1
           1
           1
           1
           1
           1
           1
           1
           1
           1
           1
           1
           1
           1
           1
           1
           1
           1
           1
           1
           1
           1
           1
           1
           1
           1
           1
           1
           1
           1
           1
           1
           1
           1
           1
           1
           1
           1
           1
           1
           1
           1
           1
           1
           1
           1
           1
           1
           1
           1
           1
           1
           1
           1
           1
           1
           1
           1
           1
           1
           1
           1
           1
           1
           1
           1
           1
           1
           1
           1
           1
           1
           1
           1
           1
           1
           1
           1
           1
           1
           1
           1
           1
           1
           1
           1
           1
           1
           1
           1
           1
           1
           1
           1
           1
           1
           1
           1
           1
           1
           1
           1
           1
           1
           1
           1
           1
           1
           1
           1
           1
           1
           1
           1
           1
           1
           1
           1
           1
           1
           1
           1
           1
           1
           1
           1
           1
           1
           1
           1
           1
           1
           1
           1
           1
           1
           1
           1
           1
           1
           1
           1
           1
           1
           1
           1
           1
           1
           1
           1
           1
           1
           1
           1
           1
           1
           1
           1
           1
           1
           1
           1
           1
           1
           1
           1
           1
           1
           1
           1
           1
           1
           1
           1
           1
           1
           1
           1
           1
           1
           1
           1
           1
           1
           1
           1
           1
           1
           1
           1
           1
           1
           1
           1
           1
           1
           1
           1
           1
           1
           1
           1
           1
           1
           1
           1
           1
           1
           1
           1
           1
           1
           1
           1
           1
           1
           1
           1
           1
           1
           1
           1
           1
           1
           1
           1
           1
           1
           1
           1
           1
           1
           1
           1
           1
           1
           1
           1
           1
           1
           1
           1
           1
           1
           1
           1
           1
           1
           1
           1
           1
           1
           1
           1
           1
           1
           1
           1
           1
           1
           1
           1
           1
           1
           1
           1
           1
           1
           1
           1
           1
           1
           1
           1
           1
           1
           1
           1
           1
           1
           1
           1
           1
           1
           1
           1
           1
           1
           1
           1
           1
           1
           1
           1
           1
           1
           1
           1
           1
           1
           1
           1
           1
           1
           1
           1
           1
           1
           1
           1
           1
           1
           1
           1
           1
           1
           1
           1
           1
           1
           1
           1
           1
           1
           1
           1
           1
           1
           1
           1
           1
           1
           1
           1
           1
           1
           1
           1
           1
           1
           1
           1
           1
           1
           1
           1
           1
           1
           1
           1
           1
           1
           1
           1
           1
           1
           1
           1
           1
           1
           1
           1
           1
           1
           1
           1
           1
           1
           1
           1
           1
           1
           1
           1
           1
           1
           1
           1
           1
           1
           1
           1
           1
           1
           1
           1
           1
           1
           1
           1
           1
           1
           1
           1
           1
           1
           1
           1
           1
           1
           1
           1
           1
           1
           1
           1
           1
           1
           1
           1
           1
           1
           1
           1
           1
           1
           1
           1
           1
           1
           1
           1
           1
           1
           1
           1
           1
           1
           1
           1
           1
           1
           1
           1
           1
           1
           1
           1
           1
           1
           1
           1
           1
           1
           1
           1
           1
           1
           1
           1
           1
           1
           1
           1
           1
           1
           1
           1
           1
           1
           1
           1
           1
           1
           1
           1
           1
           1
           1
           1
           1
           1
           1
           1
           1
           1
           1
           1
           1
           1
           1
           1
           1
           1
           1
           1
           1
           1
           1
           1
           1
           1
           1
           1
           1
           1
           1
           1
           1
           1
           1
           1
           1
           1
           1
           1
           1
           1
           1
           1
           1
           1
           1
           1
           1
           1
           1
           1
           1
           1
           1
           1
           1
           1
           1
           1
           1
           1
           1
           1
           1
           1
           1
           1
           1
           1
           1
           1
           1
           1
           1
           1
           1
           1
           1
           1
           1
           1
           1
           1
           1
           1
           1
           1
           1
           1
           1
           1
           1
           1
           1
           1
           1
           1
           1
           1
           1
           1
           1
           1
           1
           1
           1
           1
           1
           1
           1
           1
           1
           1
           1
           1
           1
           1
           1
           1
           1
           1
           1
           1
           1
           1
           1
           1
           1
           1
           1
           1
           1
           1
           1
           1
           1
           1
           1
           1
           1
           1
           1
           1
           1
           1
           1
           1
           1
           1
           1
           1
           1
           1
           1
           1
           1
           1
           1
           1
           1
           1
           1
           1
           1
           1
           1
           1
           1
           1
           1
           1
           1
           1
           1
           1
           1
           1
           1
           1
           1
           1
           1
           1
           1
           1
           1
           1
           1
           1
           1
           1
           1
           1
           1
           1
           1
           1
           1
           1
           1
           1
           1
           1
           1
           1
           1
           1
           1
           1
           1
           1
           1
           1
           1
           1
           1
           1
           1
           1
           1
           1
           1
           1
           1
           1
           1
           1
           1
           1
           1
           1
           1
           1
           1
           1
           1
           1
           1
           1
           1
           1
           1
           1
           1
           1
           1
           1
           1
           1
           1
           1
           1
           1
           1
           1
           1
           1
           1
           1
           1
           1
           1
           1
           1
           1
           1
           1
           1
           1
           1
           1
           1
           1
           1
           1
           1
           1
           1
           1
           1
           1
           1
           1
           1
           1
           1
           1
           1
           1
           1
           1
           1
           1
           1
           1
           1
           1
           1
           1
           1
           1
           1
           1
           1
           1
           1
           1
           1
           1
           1
           1
           1
           1
           1
           1
           1
           1
           1
           1
           1
           1
           1
           1
           1
           1
           1
           1
           1
           1
           1
           1
           1
           1
           1
           1
           1
           1
           1
           1
           1
           1
           1
           1
           1
           1
           1
           1
           1
           1
           1
           1
           1
           1
           1
           1
           1
           1
           1
           1
           1
           1
           1
           1
           1
           1
           1
           1
           1
           1
           1
           1
           1
           1
           1
           1
           1
           1
           1
           1
           1
           1
           1
           1
           1
           1
           1
           1
           1
           1
           1
           1
           1
           1
           1
           1
           1
           1
           1
           1
           1
           1
           1
           1
           1
           1
           1
           1
           1
           1
           1
           1
           1
           1
           1
           1
           1
           1
           1
           1
           1
           1
           1
           1
           1
           1
           1
           1
           1
           1
           1
           1
           1
           1
           1
           1
           1
           1
           1
           1
           1
           1
           1
           1
           1
           1
           1
           1
           1
           1
           1
           1
           1
           1
           1
           1
           1
           1
           1
           1
           1
           1
           1
           1
           1
           1
           1
           1
           1
           1
           1
           1
           1
           1
           1
           1
           1
           1
           1
           1
           1
           1
           1
           1
           1
           1
           1
           1
           1
           1
           1
           1
           1
           1
           1
           1
           1
           1
           1
           1
           1
           1
           1
           1
           1
           1
           1
           1
           1
           1
           1
           1
           1
           1
           1
           1
           1
           1
           1
           1
           1
           1
           1
           1
           1
           1
           1
           1
           1
           1
           1
           1
           1
           1
           1
           1
           1
           1
           1
           1
           1
           1
           1
           1
           1
           1
           1
           1
           1
           1
           1
           1
           1
           1
           1
           1
           1
           1
           1
           1
           1
           1
           1
           1
           1
           1
           1
           1
           1
           1
           1
           1
           1
           1
           1
           1
           1
           1
           1
           1
           1
           1
           1
           1
           1
           1
           1
           1
           1
           1
           1
           1
           1
           1
           1
           1
           1
           1
           1
           1
           1
           1
           1
           1
           1
           1
           1
           1
           1
           1
           1
           1
           1
           1
           1
           1
           1
           1
           1
           1
           1
           1
           1
           1
           1
           1
           1
           1
           1
           1
           1
           1
           1
           1
           1
           1
           1
           1
           1
           1
           1
           1
           1
           1
           1
           1
           1
           1
           1
           1
           1
           1
           1
           1
           1
           1
           1
           1
           1
           1
           1
           1
           1
           1
           1
           1
           1
           1
           1
           1
           1
           1
           1
           1
           1
           1
           1
           1
           1
           1
           1
           1
           1
           1
           1
           1
           1
           1
           1
           1
           1
           1
           1
           1
           1
           1
           1
           1
           1
           1
           1
           1
           1
           1
           1
           1
           1
           1
           1
           1
           1
           1
           1
           1
           1
           1
           1
           1
           1
           1
           1
           1
           1
           1
           1
           1
           1
           1
           1
           1
           1
           1
           1
           1
           1
           1
           1
           1
           1
           1
           1
           1
           1
           1
           1
           1
           1
           1
           1
           1
           1
           1
           1
           1
           1
           1
           1
           1
           1
           1
           1
           1
           1
           1
           1
           1
           1
           1
           1
           1
           1
           1
           1
           1
           1
           1
           1
           1
           1
           1
           1
           1
           1
           1
           1
           1
           1
           1
           1
           1
           1
           1
           1
           1
           1
           1
           1
           1
           1
           1
           1
           1
           1
           1
           1
           1
           1
           1
           1
           1
           1
           1
           1
           1
           1
           1
           1
           1
           1
           1
           1
           1
           1
           1
           1
           1
           1
           1
           1
           1
           1
           1
           1
           1
           1
           1
           1
           1
           1
           1
           1
           1
           1
           1
           1
           1
           1
           1
           1
           1
           1
           1
           1
           1
           1
           1
           1
           1
           1
           1
           1
           1
           1
           1
           1
           1
           1
           1
           1
           1
           1
           1
           1
           1
           1
           1
           1
           1
           1
           1
           1
           1
           1
           1
           1
           1
           1
           1
           1
           1
           1
           1
           1
           1
           1
           1
           1
           1
           1
           1
           1
           1
           1
           1
           1
           1
           1
           1
           1
           1
           1
           1
           1
           1
           1
           1
           1
           1
           1
           1
           1
           1
           1
           1
           1
           1
           1
           1
           1
           1
           1
           1
           1
           1
           1
           1
           1
           1
           1
           1
           1
           1
           1
           1
           1
           1
           1
           1
           1
           1
           1
           1
           1
           1
           1
           1
           1
           1
           1
           1
           1
           1
           1
           1
           1
           1
           1
           1
           1
           1
           1
           1
           1
           1
           1
           1
           1
           1
           1
           1
           1
           1
           1
           1
           1
           1
           1
           1
           1
           1
           1
           1
           1
           1
           1
           1
           1
           1
           1
           1
           1
           1
           1
           1
           1
           1
           1
           1
           1
           1
           1
           1
           1
           1
           1
           1
           1
           1
           1
           1
           1
           1
           1
           1
           1
           1
           1
           1
           1
           1
           1
           1
           1
           1
           1
           1
           1
           1
           1
           1
           1
           1
           1
           1
           1
           1
           1
           1
           1
           1
           1
           1
           1
           1
           1
           1
           1
           1
           1
           1
           1
           1
           1
           1
           1
           1
           1
           1
           1
           1
           1
           1
           1
           1
           1
           1
           1
           1
           1
           1
           1
           1
           1
           1
           1
           1
           1
           1
           1
           1
           1
           1
           1
           1
           1
           1
           1
           1
           1
           1
           1
           1
           1
           1
           1
           1
           1
           1
           1
           1
           1
           1
           1
           1
           1
           1
           1
           1
           1
           1
           1
           1
           1
           1
           1
           1
           1
           1
           1
           1
           1
           1
           1
           1
           1
           1
           1
           1
           1
           1
           1
           1
           1
           1
           1
           1
           1
           1
           1
           1
           1
           1
           1
           1
           1
           1
           1
           1
           1
           1
           1
           1
           1
           1
           1
           1
           1
           1
           1
           1
           1
           1
           1
           1
           1
           1
           1
           1
           1
           1
           1
           1
           1
           1
           1
           1
           1
           1
           1
           1
           1
           1
           1
           1
           1
           1
           1
           1
           1
           1
           1
           1
           1
           1
           1
           1
           1
           1
           1
           1
           1
           1
           1
           1
           1
           1
           1
           1
           1
           1
           1
           1
           1
           1
           1
           1
           1
           1
           1
           1
           1
           1
           1
           1
           1
           1
           1
           1
           1
           1
           1
           1
           1
           1
           1
           1
           1
           1
           1
           1
           1
           1
           1
           1
           1
           1
           1
           1
           1
           1
           1
           1
           1
           1
           1
           1
           1
           1
           1
           1
           1
           1
           1
           1
           1
           1
           1
           1
           1
           1
           1
           1
           1
           1
           1
           1
           1
           1
           1
           1
           1
           1
           1
           1
           1
           1
           1
           1
           1
           1
           1
           1
           1
           1
           1
           1
           1
           1
           1
           1
           1
           1
           1
           1
           1
           1
           1
           1
           1
           1
           1
           1
           1
           1
           1
           1
           1
           1
           1
           1
           1
           1
           1
           1
           1
           1
           1
           1
           1
           1
           1
           1
           1
           1
           1
           1
           1
           1
           1
           1
           1
           1
           1
           1
           1
           1
           1
           1
           1
           1
           1
           1
           1
           1
           1
           1
           1
           1
           1
           1
           1
           1
           1
           1
           1
           1
           1
           1
           1
           1
           1
           1
           1
           1
           1
           1
           1
           1
           1
           1
           1
           1
           1
           1
           1
           1
           1
           1
           1
           1
           1
           1
           1
           1
           1
           1
           1
           1
           1
           1
           1
           1
           1
           1
           1
           1
           1
           1
           1
           1
           1
           1
           1
           1
           1
           1
           1
           1
           1
           1
           1
           1
           1
           1
           1
           1
           1
           1
           1
           1
           1
           1
           1
           1
           1
           1
           1
           1
           1
           1
           1
           1
           1
           1
           1
           1
           1
           1
           1
           1
           1
           1
           1
           1
           1
           1
           1
           1
           1
           1
           1
           1
           1
           1
           1
           1
           1
           1
           1
           1
           1
           1
           1
           1
           1
           1
           1
           1
           1
           1
           1
           1
           1
           1
           1
           1
           1
           1
           1
           1
           1
           1
           1
           1
           1
           1
           1
           1
           1
           1
           1
           1
           1
           1
           1
           1
           1
           1
           1
           1
           1
           1
           1
           1
           1
           1
           1
           1
           1
           1
           1
           1
           1
           1
           1
           1
           1
           1
           1
           1
           1
           1
           1
           1
           1
           1
           1
           1
           1
           1
           1
           1
           1
           1
           1
           1
           1
           1
           1
           1
           1
           1
           1
           1
           1
           1
           1
           1
           1
           1
           1
           1
           1
           1
           1
           1
           1
           1
           1
           1
           1
           1
           1
           1
           1
           1
           1
           1
           1
           1
           1
           1
           1
           1
           1
           1
           1
           1
           1
           1
           1
           1
           1
           1
           1
           1
           1
           1
           1
           1
           1
           1
           1
           1
           1
           1
           1
           1
           1
           1
           1
           1
           1
           1
           1
           1
           1
           1
           1
           1
           1
           1
           1
           1
           1
           1
           1
           1
           1
           1
           1
           1
           1
           1
           1
           1
           1
           1
           1
           1
           1
           1
           1
           1
           1
           1
           1
           1
           1
           1
           1
           1
           1
           1
           1
           1
           1
           1
           1
           1
           1
           1
           1
           1
           1
           1
           1
           1
           1
           1
           1
           1
           1
           1
           1
           1
           1
           1
           1
           1
           1
           1
           1
           1
           1
           1
           1
           1
           1
           1
           1
           1
           1
           1
           1
           1
           1
           1
           1
           1
           1
           1
           1
           1
           1
           1
           1
           1
           1
           1
           1
           1
           1
           1
           1
           1
           1
           1
           1
           1
           1
           1
           1
           1
           1
           1
           1
           1
           1
           1
           1
           1
           1
           1
           1
           1
           1
           1
           1
           1
           1
           1
           1
           1
           1
           1
           1
           1
           1
           1
           1
           1
           1
           1
           1
           1
           1
           1
           1
           1
           1
           1
           1
           1
           1
           1
           1
           1
           1
           1
           1
           1
           1
           1
           1
           1
           1
           1
           1
           1
           1
           1
           1
           1
           1
           1
           1
           1
           1
           1
           1
           1
           1
           1
           1
           1
           1
           1
           1
           1
           1
           1
           1
           1
           1
           1
           1
           1
           1
           1
           1
           1
           1
           1
           1
           1
           1
           1
           1
           1
           1
           1
           1
           1
           1
           1
           1
           1
           1
           1
           1
           1
           1
           1
           1
           1
           1
           1
           1
           1
           1
           1
           1
           1
           1
           1
           1
           1
           1
           1
           1
           1
           1
           1
           1
           1
           1
           1
           1
           1
           1
           1
           1
           1
           1
           1
           1
           1
           1
           1
           1
           1
           1
           1
           1
           1
           1
           1
           1
           1
           1
           1
           1
           1
           1
           1
           1
           1
           1
           1
           1
           1
           1
           1
           1
           1
           1
           1
           1
           1
           1
           1
           1
           1
           1
           1
           1
           1
           1
           1
           1
           1
           1
           1
           1
           1
           1
           1
           1
           1
           1
           1
           1
           1
           1
           1
           1
           1
           1
           1
           1
           1
           1
           1
           1
           1
           1
           1
           1
           1
           1
           1
           1
           1
           1
           1
           1
           1
           1
           1
           1
           1
           1
           1
           1
           1
           1
           1
           1
           1
           1
           1
           1
           1
           1
           1
           1
           1
           1
           1
           1
           1
           1
           1
           1
           1
           1
           1
           1
           1
           1
           1
           1
           1
           1
           1
           1
           1
           1
           1
           1
           1
           1
           1
           1
           1
           1
           1
           1
           1
           1
           1
           1
           1
           1
           1
           1
           1
           1
           1
           1
           1
           1
           1
           1
           1
           1
           1
           1
           1
           1
           1
           1
           1
           1
           1
           1
           1
           1
           1
           1
           1
           1
           1
           1
           1
           1
           1
           1
           1
           1
           1
           1
           1
           1
           1
           1
           1
           1
           1
           1
           1
           1
           1
           1
           1
           1
           1
           1
           1
           1
           1
           1
           1
           1
           1
           1
           1
           1
           1
           1
           1
           1
           1
           1
           1
           1
           1
           1
           1
           1
           1
           1
           1
           1
           1
           1
           1
           1
           1
           1
           1
           1
           1
           1
           1
           1
           1
           1
           1
           1
           1
           1
           1
           1
           1
           1
           1
           1
           1
           1
           1
           1
           1
           1
           1
           1
           1
           1
           1
           1
           1
           1
           1
           1
           1
           1
           1
           1
           1
           1
           1
           1
           1
           1
           1
           1
           1
           1
           1
           1
           1
           1
           1
           1
           1
           1
           1
           1
           1
           1
           1
           1
           1
           1
           1
           1
           1
           1
           1
           1
           1
           1
           1
           1
           1
           1
           1
           1
           1
           1
           1
           1
           1
           1
           1
           1
           1
           1
           1
           1
           1
           1
           1
           1
           1
           1
           1
           1
           1
           1
           1
           1
           1
           1
           1
           1
           1
           1
           1
           1
           1
           1
           1
           1
           1
           1
           1
           1
           1
           1
           1
           1
           1
           1
           1
           1
           1
           1
           1
           1
           1
           1
           1
           1
           1
           1
           1
           1
           1
           1
           1
           1
           1
           1
           1
           1
           1
           1
           1
           1
           1
           1
           1
           1
           1
           1
           1
           1
           1
           1
           1
           1
           1
           1
           1
           1
           1
           1
           1
           1
           1
           1
           1
           1
           1
           1
           1
           1
           2
           2
           2
           2
           2
           2
           2
           2
           2
           2
           2
           2
           2
           2
           2
           2
           2
           2
           2
           2
           2
           2
           2
           2
           2
           2
           2
           2
           2
           2
           2
           2
           2
           2
           2
           2
           2
           2
           2
           2
           2
           2
           2
           2
           2
           2
           2
           2
           2
           2
           2
           2
           2
           2
           2
           2
           2
           2
           2
           2
           2
           2
           2
           2
           2
           2
           2
           2
           2
           2
           2
           2
           2
           2
           2
           2
           2
           2
           2
           2
           2
           2
           2
           2
           2
           2
           2
           2
           2
           2
           2
           2
           2
           2
           2
           2
           2
           2
           2
           2
           2
           2
           2
           2
           2
           2
           2
           2
           2
           2
           2
           2
           2
           2
           2
           2
           2
           2
           2
           2
           2
           2
           2
           2
           2
           2
           2
           2
           2
           2
           2
           2
           2
           2
           2
           2
           2
           2
           2
           2
           2
           2
           2
           2
           2
           2
           2
           2
           2
           2
           2
           2
           2
           2
           2
           2
           2
           2
           2
           2
           2
           2
           2
           2
           2
           2
           2
           2
           2
           2
           2
           2
           2
           2
           2
           2
           2
           2
           2
           2
           2
           2
           2
           2
           2
           2
           2
           2
           2
           2
           2
           2
           2
           2
           2
           2
           2
           2
           2
           2
           2
           2
           2
           2
           2
           2
           2
           2
           2
           2
           2
           2
           2
           2
           2
           2
           2
           2
           2
           2
           2
           2
           2
           2
           2
           2
           2
           2
           2
           2
           2
           2
           2
           2
           2
           2
           2
           2
           2
           2
           2
           2
           2
           2
           2
           2
           2
           2
           2
           2
           2
           2
           2
           2
           2
           2
           2
           2
           2
           2
           2
           2
           2
           2
           2
           2
           2
           2
           2
           2
           2
           2
           2
           2
           2
           2
           2
           2
           2
           2
           2
           2
           2
           2
           2
           2
           2
           2
           2
           2
           2
           2
           2
           2
           2
           2
           2
           2
           2
           2
           2
           2
           2
           2
           2
           2
           2
           2
           2
           2
           2
           2
           2
           2
           2
           2
           2
           2
           2
           2
           2
           2
           2
           2
           2
           2
           2
           2
           2
           2
           2
           2
           2
           2
           2
           2
           2
           2
           2
           2
           2
           2
           2
           2
           2
           2
           2
           2
           2
           2
           2
           2
           2
           2
           2
           2
           2
           2
           2
           2
           2
           2
           2
           2
           2
           2
           2
           2
           2
           2
           2
           2
           2
           2
           2
           2
           2
           2
           2
           2
           2
           2
           2
           2
           2
           2
           2
           2
           2
           2
           2
           2
           2
           2
           2
           2
           2
           2
           2
           2
           2
           2
           2
           2
           2
           2
           2
           2
           2
           2
           2
           2
           2
           2
           2
           2
           2
           2
           2
           2
           2
           2
           2
           2
           2
           2
           2
           2
           2
           2
           2
           2
           2
           2
           2
           2
           2
           2
           2
           2
           2
           2
           2
           2
           2
           2
           2
           2
           2
           2
           2
           2
           2
           2
           2
           2
           2
           2
           2
           2
           2
           2
           2
           2
           2
           2
           2
           2
           2
           2
           2
           2
           2
           2
           2
           2
           2
           2
           2
           2
           2
           2
           2
           2
           2
           2
           2
           2
           2
           2
           2
           2
           2
           2
           2
           2
           2
           2
           2
           2
           2
           2
           2
           2
           2
           2
           2
           2
           2
           2
           2
           2
           2
           2
           2
           2
           2
           2
           2
           2
           2
           2
           2
           2
           2
           2
           2
           2
           2
           2
           2
           2
           2
           2
           2
           2
           2
           2
           2
           2
           2
           2
           2
           2
           2
           2
           2
           2
           2
           2
           2
           2
           2
           2
           2
           2
           2
           2
           2
           2
           2
           2
           2
           2
           2
           2
           2
           2
           2
           2
           2
           2
           2
           2
           2
           2
           2
           2
           2
           2
           2
           2
           2
           2
           2
           2
           2
           2
           2
           2
           2
           2
           2
           2
           2
           2
           2
           2
           2
           2
           2
           2
           2
           2
           2
           2
           2
           2
           2
           2
           2
           2
           2
           2
           2
           2
           2
           2
           2
           2
           2
           2
           2
           2
           2
           2
           2
           2
           2
           2
           2
           2
           2
           2
           2
           2
           2
           2
           2
           2
           2
           2
           2
           2
           2
           2
           2
           2
           2
           2
           2
           2
           2
           2
           2
           2
           2
           2
           2
           2
           2
           2
           2
           2
           2
           2
           2
           2
           2
           2
           2
           2
           2
           2
           2
           2
           2
           2
           2
           2
           2
           2
           2
           2
           2
           2
           2
           2
           2
           2
           2
           2
           2
           2
           2
           2
           2
           2
           2
           2
           2
           2
           2
           2
           2
           2
           2
           2
           2
           2
           2
           2
           2
           2
           2
           2
           2
           2
           2
           2
           2
           2
           2
           2
           2
           2
           2
           2
           2
           2
           2
           2
           2
           2
           2
           2
           2
           2
           2
           2
           2
           2
           2
           2
           2
           2
           2
           2
           2
           2
           2
           2
           2
           2
           2
           2
           2
           2
           2
           2
           2
           2
           2
           2
           2
           2
           2
           2
           2
           2
           2
           2
           2
           2
           2
           2
           2
           2
           2
           2
           2
           2
           2
           2
           2
           2
           2
           2
           2
           2
           2
           2
           2
           2
           2
           2
           2
           2
           2
           2
           2
           2
           2
           2
           2
           2
           2
           2
           2
           2
           2
           2
           2
           2
           2
           2
           2
           2
           2
           2
           2
           2
           2
           2
           2
           2
           2
           2
           2
           2
           2
           2
           2
           2
           2
           2
           2
           2
           2
           2
           2
           2
           2
           2
           2
           2
           2
           2
           2
           2
           2
           2
           2
           2
           2
           2
           2
           2
           2
           2
           2
           2
           2
           2
           2
           2
           2
           2
           2
           2
           2
           2
           2
           2
           2
           2
           2
           2
           2
           2
           2
           2
           2
           2
           2
           2
           2
           2
           2
           2
           2
           2
           2
           2
           2
           2
           2
           2
           2
           2
           2
           2
           2
           2
           2
           2
           2
           2
           2
           2
           2
           2
           2
           2
           2
           2
           2
           2
           2
           2
           2
           2
           2
           2
           2
           2
           2
           2
           2
           2
           2
           2
           2
           2
           2
           2
           2
           2
           2
           2
           2
           2
           2
           2
           2
           2
           2
           2
           2
           2
           2
           2
           2
           2
           2
           2
           2
           2
           2
           2
           2
           2
           2
           2
           2
           2
           2
           2
           2
           2
           2
           2
           2
           2
           2
           2
           2
           2
           2
           2
           2
           2
           2
           2
           2
           2
           2
           2
           2
           2
           2
           2
           2
           2
           2
           2
           2
           2
           2
           2
           2
           2
           2
           2
           2
           2
           2
           2
           2
           2
           2
           2
           2
           2
           2
           2
           2
           2
           2
           2
           2
           2
           2
           2
           2
           2
           2
           2
           2
           2
           2
           2
           2
           2
           2
           2
           2
           2
           2
           2
           2
           2
           2
           2
           2
           2
           2
           2
           2
           2
           2
           2
           2
           2
           2
           2
           2
           2
           2
           2
           2
           2
           2
           2
           2
           2
           2
           2
           2
           2
           2
           2
           2
           2
           2
           2
           2
           2
           2
           2
           2
           2
           2
           2
           2
           2
           2
           2
           2
           2
           2
           2
           2
           2
           2
           2
           2
           2
           2
           2
           2
           2
           2
           2
           2
           2
           2
           2
           2
           2
           2
           2
           2
           2
           2
           2
           2
           2
           2
           2
           2
           2
           2
           2
           2
           2
           2
           2
           2
           2
           2
           2
           2
           2
           2
           2
           2
           2
           2
           2
           2
           2
           2
           2
           2
           2
           2
           2
           2
           2
           2
           2
           2
           2
           2
           2
           2
           2
           2
           2
           2
           2
           2
           2
           2
           2
           2
           2
           2
           2
           2
           2
           2
           2
           2
           2
           2
           2
           2
           2
           2
           2
           2
           2
           2
           2
           2
           2
           2
           2
           2
           2
           2
           2
           2
           2
           2
           2
           2
           2
           2
           2
           2
           2
           2
           2
           2
           2
           2
           2
           2
           2
           2
           2
           2
           2
           2
           2
           2
           2
           2
           2
           2
           2
           2
           2
           2
           2
           2
           2
           2
           2
           2
           2
           2
           2
           2
           2
           2
           2
           2
           2
           2
           2
           2
           2
           2
           2
           2
           2
           2
           2
           2
           2
           2
           2
           2
           2
           2
           2
           2
           2
           2
           2
           2
           2
           2
           2
           2
           2
           2
           2
           2
           2
           2
           2
           2
           2
           2
           2
           2
           2
           2
           2
           2
           2
           2
           2
           2
           2
           2
           2
           2
           2
           2
           2
           2
           2
           2
           2
           2
           2
           2
           2
           2
           2
           2
           2
           2
           2
           2
           2
           2
           2
           2
           2
           2
           2
           2
           2
           2
           2
           2
           2
           2
           2
           2
           2
           2
           2
           2
           2
           2
           2
           2
           2
           2
           2
           2
           2
           2
           2
           2
           2
           2
           2
           2
           2
           2
           2
           2
           2
           2
           2
           2
           2
           2
           2
           2
           2
           2
           2
           2
           2
           2
           2
           2
           2
           2
           2
           2
           2
           2
           2
           2
           2
           2
           2
           2
           2
           2
           2
           2
           2
           2
           2
           2
           2
           2
           2
           2
           2
           2
           2
           2
           2
           2
           2
           2
           2
           2
           2
           2
           2
           2
           2
           2
           2
           2
           2
           2
           2
           2
           2
           2
           2
           2
           2
           2
           2
           2
           2
           2
           2
           2
           2
           2
           2
           2
           2
           2
           2
           2
           2
           2
           2
           2
           2
           2
           2
           2
           2
           2
           2
           2
           2
           2
           2
           2
           2
           2
           2
           2
           2
           2
           2
           2
           2
           2
           2
           2
           2
           2
           2
           2
           2
           2
           2
           2
           2
           2
           2
           2
           2
           2
           2
           2
           2
           2
           2
           2
           2
           2
           2
           2
           2
           2
           2
           2
           2
           2
           2
           2
           2
           2
           2
           2
           2
           2
           2
           2
           2
           2
           2
           2
           2
           2
           2
           2
           2
           2
           2
           2
           2
           2
           2
           2
           2
           2
           2
           2
           2
           2
           2
           2
           2
           2
           2
           2
           2
           2
           2
           2
           2
           2
           2
           2
           2
           2
           2
           2
           2
           2
           2
           2
           2
           2
           2
           2
           2
           2
           2
           2
           2
           2
           2
           2
           2
           2
           2
           2
           2
           2
           2
           2
           2
           2
           2
           2
           2
           2
           2
           2
           2
           2
           2
           2
           2
           2
           2
           2
           2
           2
           2
           2
           2
           2
           2
           2
           2
           2
           2
           2
           2
           2
           2
           2
           2
           2
           2
           2
           2
           2
           2
           2
           2
           2
           2
           2
           2
           2
           2
           2
           2
           2
           2
           2
           2
           2
           2
           2
           2
           2
           2
           2
           2
           2
           2
           2
           2
           2
           2
           2
           2
           2
           2
           2
           2
           2
           2
           2
           2
           2
           2
           2
           2
           2
           2
           2
           2
           2
           2
           2
           2
           2
           2
           2
           2
           2
           2
           2
           2
           2
           2
           2
           2
           2
           2
           2
           2
           2
           2
           2
           2
           2
           2
           2
           2
           2
           2
           2
           2
           2
           2
           2
           2
           2
           2
           2
           2
           2
           2
           2
           2
           2
           2
           2
           2
           2
           2
           2
           2
           2
           2
           2
           2
           2
           2
           2
           2
           2
           2
           2
           2
           2
           2
           2
           2
           2
           2
           2
           2
           2
           2
           2
           2
           2
           2
           2
           2
           2
           2
           2
           2
           2
           2
           2
           2
           2
           2
           2
           2
           2
           2
           2
           2
           2
           2
           2
           2
           2
           2
           2
           2
           2
           2
           2
           2
           2
           2
           2
           2
           2
           2
           2
           2
           2
           2
           2
           2
           2
           2
           2
           2
           2
           2
           2
           2
           2
           2
           2
           2
           2
           2
           2
           2
           2
           2
           2
           2
           2
           2
           2
           2
           2
           2
           2
           2
           2
           2
           2
           2
           2
           2
           2
           2
           2
           2
           2
           2
           2
           2
           2
           2
           2
           2
           2
           2
           2
           2
           2
           2
           2
           2
           2
           2
           2
           2
           2
           2
           2
           2
           2
           2
           2
           2
           2
           2
           2
           2
           2
           2
           2
           2
           2
           2
           2
           2
           2
           2
           2
           2
           2
           2
           2
           2
           2
           2
           2
           2
           2
           2
           2
           2
           2
           2
           2
           2
           2
           2
           2
           2
           2
           2
           2
           2
           2
           2
           2
           2
           2
           2
           2
           2
           2
           2
           2
           2
           2
           2
           2
           2
           2
           2
           2
           2
           2
           2
           2
           2
           2
           2
           2
           2
           2
           2
           2
           2
           2
           2
           2
           2
           2
           2
           2
           2
           2
           2
           2
           2
           2
           2
           2
           2
           2
           2
           2
           2
           2
           2
           2
           2
           2
           2
           2
           2
           2
           2
           2
           2
           2
           2
           2
           2
           2
           2
           2
           2
           2
           2
           2
           2
           2
           2
           2
           2
           2
           2
           2
           2
           2
           2
           2
           2
           2
           2
           2
           2
           2
           2
           2
           2
           2
           2
           2
           2
           2
           2
           2
           2
           2
           2
           2
           2
           2
           2
           2
           2
           2
           2
           2
           2
           2
           2
           2
           2
           2
           2
           2
           2
           2
           2
           2
           2
           2
           2
           2
           2
           2
           2
           2
           2
           2
           2
           2
           2
           2
           2
           2
           2
           2
           2
           2
           2
           2
           2
           2
           2
           2
           2
           2
           2
           2
           2
           2
           2
           2
           2
           2
           2
           2
           2
           2
           2
           2
           2
           2
           2
           2
           2
           2
           2
           2
           2
           2
           2
           2
           2
           2
           2
           2
           2
           2
           2
           2
           2
           2
           2
           2
           2
           2
           2
           2
           2
           2
           2
           2
           2
           2
           2
           2
           2
           2
           2
           2
           2
           2
           2
           2
           2
           2
           2
           2
           2
           2
           2
           2
           2
           2
           2
           2
           2
           2
           2
           2
           2
           2
           2
           2
           2
           2
           2
           2
           2
           2
           2
           2
           2
           2
           2
           2
           2
           2
           2
           2
           2
           2
           2
           2
           2
           2
           2
           2
           2
           2
           2
           2
           2
           2
           2
           2
           2
           2
           2
           2
           2
           2
           2
           2
           2
           2
           2
           2
           2
           2
           2
           2
           2
           2
           2
           2
           2
           2
           2
           2
           2
           2
           2
           2
           2
           2
           2
           2
           2
           2
           2
           2
           2
           2
           2
           2
           2
           2
           2
           2
           2
           2
           2
           2
           2
           2
           2
           2
           2
           2
           2
           2
           2
           2
           2
           2
           2
           2
           2
           2
           2
           2
           2
           2
           2
           2
           2
           2
           2
           2
           2
           2
           2
           2
           2
           2
           2
           2
           2
           2
           2
           2
           2
           2
           2
           2
           2
           2
           2
           2
           2
           2
           2
           2
           2
           2
           2
           2
           2
           2
           2
           2
           2
           2
           2
           2
           2
           2
           2
           2
           2
           2
           2
           2
           2
           2
           2
           2
           2
           2
           2
           2
           2
           2
           2
           2
           2
           2
           2
           2
           2
           2
           2
           2
           2
           2
           2
           2
           2
           2
           2
           2
           2
           2
           2
           2
           2
           2
           2
           2
           2
           2
           2
           2
           2
           2
           2
           2
           2
           2
           2
           2
           2
           2
           2
           2
           2
           2
           2
           2
           2
           2
           2
           2
           2
           2
           2
           2
           2
           2
           2
           2
           2
           2
           2
           2
           2
           2
           2
           2
           2
           2
           2
           2
           2
           2
           2
           2
           2
           2
           2
           2
           2
           2
           2
           2
           2
           2
           2
           2
           2
           2
           2
           2
           2
           2
           2
           2
           2
           2
           2
           2
           2
           2
           2
           2
           2
           2
           2
           2
           2
           2
           2
           2
           2
           2
           2
           2
           2
           2
           2
           2
           2
           2
           2
           2
           2
           2
           2
           2
           2
           2
           2
           2
           2
</DataArray>
</CellData>
</Piece>
</UnstructuredGrid>
</VTKFile>
